LAMMPS (30 Jul 2021)
  using 1 OpenMP thread(s) per MPI task
package omp 0
using multi-threaded neighbor list subroutines
echo both

include		in.partitions
variable        pid world 0
include		in.temp
variable        temperature equal 250.97
variable	tempDamp equal 100.0
include		in.pressure
variable        pressure equal 7000.0
variable        pressureDamp equal 1000.0 # This is 1 ps
include		in.seed
variable        seed world 745823

units		real
atom_style	full
read_restart	restart.lmp.${pid}
read_restart	restart.lmp.0
Reading restart file ...
  restart file = 30 Jul 2021, LAMMPS = 30 Jul 2021
  restoring atom style full from restart
  orthogonal box = (-0.21317735 -0.090268249 -0.094819434) to (24.943178 24.820269 22.904819)
  4 by 4 by 4 MPI processor grid
  restoring pair style lj/cut/tip4p/long/omp from restart
  restoring bond style harmonic/omp from restart
  restoring angle style harmonic/omp from restart
  1920 atoms
  1280 bonds
  640 angles
Finding 1-2 1-3 1-4 neighbors ...
  special bond factors lj:    0        0        0       
  special bond factors coul:  0        0        0       
     2 = max # of 1-2 neighbors
     1 = max # of 1-3 neighbors
     1 = max # of 1-4 neighbors
     2 = max # of special neighbors
  special bonds CPU = 0.055 seconds
  read_restart CPU = 0.128 seconds
include 	in.setup
variable	out_freq equal 1000
variable	out_freq2 equal 10000
variable	out_freq3 equal 1000

timestep	2.0

neigh_modify    delay 7 every 1

include		in.tip4p
# This is TIP4P/Ice

# create groups ###
group ox type 2
640 atoms in group ox
group hy type 1
1280 atoms in group hy

# set charges - beside manually ###
set group ox charge -1.1794
Setting atom values ...
  640 settings made for charge
set group hy charge 0.5897
Setting atom values ...
  1280 settings made for charge

# ### TIP3P Potential Parameters ###
pair_style lj/cut/tip4p/long/omp 2 1 1 1 0.1577 8.5
pair_coeff 1 1*2 0.000 0.000
pair_coeff 2 2 0.21084 3.1668
bond_style  harmonic
bond_coeff  1 450 0.9572
angle_style harmonic
angle_coeff 1 55 104.52
kspace_style pppm/tip4p/omp 1.0e-5
pair_modify tail yes

thermo          ${out_freq}
thermo          1000
thermo_style    custom step temp pe etotal epair emol press lx ly lz vol pxx pyy pzz pxy pxz pyz enthalpy

restart 	${out_freq3} restart.lmp.${pid} restart2.lmp.${pid}
restart 	1000 restart.lmp.${pid} restart2.lmp.${pid}
restart 	1000 restart.lmp.0 restart2.lmp.${pid}
restart 	1000 restart.lmp.0 restart2.lmp.0


include         in.dump
dump            myDump all atom ${out_freq2} dump.water.${pid}
dump            myDump all atom 10000 dump.water.${pid}
dump            myDump all atom 10000 dump.water.0
dump            myDump2 all dcd ${out_freq2} dump.dcd
dump            myDump2 all dcd 10000 dump.dcd
dump_modify     myDump append yes
dump_modify     myDump2 append yes


variable natoms 	equal  "count(all)"                        # NUMBER ATOMS
variable H      	equal  "enthalpy/v_natoms"                 # ENTHALPY-per-atom
variable Vol      	equal  "vol/v_natoms"                 # volume-per-atom
fix AVG all 		ave/time ${out_freq} 1 ${out_freq} v_Vol v_H file vol_enthalpy.dat
fix AVG all 		ave/time 1000 1 ${out_freq} v_Vol v_H file vol_enthalpy.dat
fix AVG all 		ave/time 1000 1 1000 v_Vol v_H file vol_enthalpy.dat




fix 		1 all shake 1e-6 200 0 b 1 a 1
       0 = # of size 2 clusters
       0 = # of size 3 clusters
       0 = # of size 4 clusters
     640 = # of frozen angles
  find clusters CPU = 0.062 seconds
fix             2 all nph aniso ${pressure} ${pressure} ${pressureDamp}
fix             2 all nph aniso 7000 ${pressure} ${pressureDamp}
fix             2 all nph aniso 7000 7000 ${pressureDamp}
fix             2 all nph aniso 7000 7000 1000
fix             3 all temp/csvr ${temperature} ${temperature} ${tempDamp} ${seed}
fix             3 all temp/csvr 250.97 ${temperature} ${tempDamp} ${seed}
fix             3 all temp/csvr 250.97 250.97 ${tempDamp} ${seed}
fix             3 all temp/csvr 250.97 250.97 100 ${seed}
fix             3 all temp/csvr 250.97 250.97 100 745823


run             250000
PPPM initialization ...
  extracting TIP4P info from pair style
  using 12-bit tables for long-range coulomb (../kspace.cpp:340)
  G vector (1/distance) = 0.37418303
  grid = 30 30 30
  stencil order = 5
  estimated absolute RMS force accuracy = 0.0033054017
  estimated relative force accuracy = 9.9541191e-06
  using double precision FFTW3
  3d grid and FFT values/proc = 3600 512
Last active /omp style is kspace_style pppm/tip4p/omp
Neighbor list info ...
  update every 1 steps, delay 7 steps, check yes
  max neighbors/atom: 2000, page size: 100000
  master list distance cutoff = 10.8154
  ghost atom cutoff = 10.8154
  binsize = 5.4077, bins = 5 5 5
  1 neighbor lists, perpetual/occasional/extra = 1 0 0
  (1) pair lj/cut/tip4p/long/omp, perpetual
      attributes: half, newton on, omp
      pair build: half/bin/newton/omp
      stencil: half/bin/3d
      bin: standard
Per MPI rank memory allocation (min/avg/max) = 9.330 | 9.337 | 9.342 Mbytes
Step Temp PotEng TotEng E_pair E_mol Press Lx Ly Lz Volume Pxx Pyy Pzz Pxy Pxz Pyz Enthalpy 
12250000    252.47093   -9115.8074    -8153.273   -9115.8074            0     7101.707    25.156356    24.910537    22.999639    14412.916    6046.4958    8189.6419    7068.9833   -111.73913   -431.90621   -31.873249   -6660.5113 
12251000    256.72716   -9164.8071    -8186.046   -9164.8071            0    7754.8223    25.141133    24.810812    23.009071    14352.413    6673.0651    8241.1871    8350.2147   -60.608891    736.93865    -75.24973   -6562.8437 
12252000    249.62064   -9137.2938   -8185.6261   -9137.2938            0    6878.7358    25.059617    24.974677    23.027829    14412.102    6524.6319    6989.5345     7122.041   -280.98804   -39.758896    616.37126    -6739.814 
12253000    246.19564   -9118.1081    -8179.498   -9118.1081            0    7358.8793    25.202081    24.956857    22.852703    14373.544    5133.4576    7917.0639    9026.1163    487.92489   -957.39976    466.01831   -6636.9047 
12254000     252.5735   -9185.7334    -8222.808   -9185.7334            0    7199.0934    24.998129    24.909833    23.096274    14382.031    6406.3644    7507.4655    7683.4502   -434.33086   -814.05361   -175.14781   -6712.8185 
12255000    241.65509   -9089.2833   -8167.9839   -9089.2833            0    5330.7517    25.132219     24.97659    23.112498    14508.111    4667.4128    6607.3262     4717.516    363.62916    -497.1475    -213.0028   -7040.0719 
12256000      252.359   -9103.9271   -8141.8195   -9103.9271            0    6112.2603     25.11986    25.008744    23.052632    14482.036    6052.5989    6375.8597    5908.3222    45.277342    139.80418    767.65208   -6850.8757 
12257000    247.91831   -9147.1691   -8201.9915   -9147.1691            0    6951.4955    25.019075    24.854614     23.16445    14404.568    7691.3675    7618.7109    5544.4081     777.8507    1398.8347   -198.79265   -6741.6501 
12258000    248.40522   -9149.6355   -8202.6015   -9149.6355            0    6510.9376    25.084634    24.996307    23.033028    14442.243    6201.3142     7033.542    6297.9567   -202.41912    123.79039    467.63877   -6831.2334 
12259000     251.6463   -9095.8649   -8136.4745   -9095.8649            0    6943.3631    25.047439    25.036737     23.03004     14442.28    6472.2963    7209.6848    7148.1081    369.71055   -543.72423   -18.888401   -6674.0228 
12260000    258.08144   -9140.2288   -8156.3047   -9140.2288            0    7767.4582    25.092475    24.983891    22.904737    14359.155    7309.2325     7779.923    8213.2191   -585.33699    621.83483    90.763023   -6529.6937 
12261000    248.73949   -9137.9347   -8189.6263   -9137.9347            0    7079.8349    25.000156    24.923258    23.128097    14410.778    5765.0893    8786.5461    6687.8692    233.89622   -1152.0851    250.42668   -6701.6828 
12262000    261.50873   -9140.6371   -8143.6466   -9140.6371            0    6894.5796    24.949646    24.932876    23.182285    14420.921    8156.3697    6444.5485    6082.8206   -160.16612   -584.55519    743.75496   -6693.6176 
12263000    255.23353   -9130.0956   -8157.0289   -9130.0956            0    6001.2037    25.033852    25.120736     22.98345    14453.574     5442.642    6487.3867    6073.5825    -8.239169   -387.73391    232.69012   -6892.0319 
12264000    243.33565   -9152.6589   -8224.9524   -9152.6589            0    6847.5521    25.031758    24.961109    23.027234    14387.886    6438.1019    7557.5908    6546.9635   -1083.8134   -923.42271    155.47794    -6788.113 
12265000    263.85017   -9187.3331   -8181.4159   -9187.3331            0    6946.5647    25.054643    24.927549    23.026915    14381.479    5297.4628    8277.8661    7264.3653    305.99495    -1274.835   -174.75247   -6724.4496 
12266000    251.87984   -9124.0303   -8163.7495   -9124.0303            0    9115.9134     25.00127     24.88731     23.01883    14322.646    7528.7755    9588.6317    10230.333   -107.10658    77.516652   -159.48542   -6259.6074 
12267000    253.24004   -9136.8541   -8171.3876   -9136.8541            0    7926.9555    25.022827    24.915387    23.041643    14365.391    8112.2923    8108.2202     7560.354    201.38109    165.53082   -371.91138   -6510.6547 
12268000    254.52063   -9184.3058   -8213.9571   -9184.3058            0    6254.4917     25.05045    24.913627    23.091257    14411.197    5550.5026    6636.8003    6576.1723    766.62971    476.72304      1040.32   -6899.4348 
12269000    253.53273   -9161.2023   -8194.6199   -9161.2023            0    6805.9883    25.074815    24.990112     22.97661    14397.659    5307.0179     7062.765    8048.1819   -272.76765   -856.04285    601.43639   -6765.5319 
12270000    256.33187   -9192.1297   -8214.8757   -9192.1297            0    5153.7198    25.075178    24.969358    23.130644    14482.352    5860.5613    4780.9546    4819.6434    161.68928   -593.10124    34.053024   -7126.3573 
12271000    253.50713   -9164.7037   -8198.2189   -9164.7037            0    6175.5218    25.043455    25.039996    23.021832    14436.716    5860.3678     6879.158    5787.0396    408.21045   -79.710755     54.37005   -6897.9956 
12272000    256.91365   -9121.8497   -8142.3777   -9121.8497            0    6621.3033    25.004962    24.926245    23.144688    14425.616    6025.0265    7517.2869    6321.5966    364.36568   -427.74497   -1580.9696   -6749.3693 
12273000    247.66206    -9168.858   -8224.6573    -9168.858            0      6657.45    25.012829    24.964695    23.062345    14400.996    5506.8229    7399.4727    7066.0543    47.527143   -802.40078    103.66897   -6826.4346 
12274000    261.77503   -9113.9379   -8115.9321   -9113.9379            0    6795.3791    25.058385    25.117365    22.946548    14442.571    7580.7925    6066.2124    6739.1325    202.98621    660.75705    125.09355   -6684.6209 
12275000    252.33491   -9136.9108   -8174.8951   -9136.9108            0    6460.2066    24.932685    25.059153    23.122567    14446.794    7541.0445    5742.8809    6096.6944    403.55624    -671.3626   -1471.1277   -6813.7833 
12276000    251.35323   -9100.3255   -8142.0524   -9100.3255            0    6708.0202    24.953201     25.06973    23.055796    14423.015    6492.2056    6783.0283    6848.8268   -450.98245   -160.57979   -251.62776   -6731.0547 
12277000    250.18619   -9124.7127   -8170.8889   -9124.7127            0    6461.2098    24.908819    25.196542    22.982303    14424.063    6145.1076    5757.4486    7481.0732   -758.79801    352.24875    196.06196   -6811.7077 
12278000    250.67495   -9156.5468   -8200.8596   -9156.5468            0    7680.2134     24.86923    25.096864    23.023812    14370.075    9314.0385    5572.2414    8154.3604   -611.59646    65.540784     678.5357   -6591.2958 
12279000    248.86787   -9150.8086   -8202.0108   -9150.8086            0     6226.776    24.805837    25.111869    23.148765     14419.85    8250.2724    5046.6391    5383.4165   -441.04898    9.7048316    1118.4584   -6892.5277 
12280000    252.10598   -9110.1922   -8149.0492   -9110.1922            0    6655.7955    24.926911    25.066205    23.127221    14450.421    7003.0894    7037.5305    5926.7665    1.5855679    79.336914    885.02699   -6746.3765 
12281000    261.97936   -9130.7526   -8131.9678   -9130.7526            0    6258.4889    24.877222    25.158392    23.086672    14449.276    6565.2315    5922.3345    6287.9009    342.14549   -1119.0805   -543.86686   -6813.1297 
12282000    249.96936   -9112.9728   -8159.9755   -9112.9728            0    5858.6938    25.003181    25.165046    23.049035    14502.596    6683.7844    5820.4387    5071.8582    371.98098   -177.60864    325.33796   -6920.8297 
12283000    252.20229   -9124.3712   -8162.8611   -9124.3712            0    6132.5486    24.980148    25.057299    23.068099    14439.131    6809.2153    5445.2332    6143.1973   -766.68457    310.11436   -494.23742   -6871.4695 
12284000    242.29549    -9145.584   -8221.8431    -9145.584            0    6745.2822    24.844517    25.121027    23.082213    14406.066    8027.3642    5940.0825       6268.4   -620.79095    15.175369    831.80855   -6804.6748 
12285000    244.02546   -9165.8629   -8235.5266   -9165.8629            0    7090.4375    24.828604     25.24863    22.957606    14391.853    8467.4762    5163.6909    7640.1455   -341.35394   -919.89252    208.55259   -6747.3117 
12286000     245.8873   -9127.6457   -8190.2112   -9127.6457            0    7284.4068    24.868089    25.119546    23.029553    14385.988    9303.2405    5483.5787     7066.401   -856.68561   -121.81115    421.66404    -6661.907 
12287000    247.83952   -9139.1341   -8194.2568   -9139.1341            0    5621.0112    24.954832    25.099519    23.098344    14467.747     5367.883    5883.6948    5611.4558   -316.19873   -117.09791   -379.84042   -7008.2389 
12288000    255.24282   -9139.1793   -8166.0773   -9139.1793            0    6306.0652    24.910323    25.034078     23.18795    14460.167    7121.1887    5799.0594    5997.9475   -598.72471    23.495853    257.82542    -6836.212 
12289000    244.83167   -9144.1215   -8210.7115   -9144.1215            0    6067.4217    24.981904    25.154952    22.949104    14421.643    6550.3871    5601.4835    6050.3946   -778.77381    476.90385    41.700427   -6934.5817 
12290000    252.35061   -9148.9813   -8186.9057   -9148.9813            0    8125.1547    24.934166    24.990537    22.986358    14323.218    8721.3997    7562.9235     8091.141   -981.47782   -943.96553   -957.03166   -6489.6466 
12291000    242.72732   -9162.4594   -8237.0722   -9162.4594            0    8072.0337    24.948107    24.795352    23.140265      14314.5     6960.446    10193.225    7062.4307    4.6435455    279.71384   -77.201459   -6551.9358 
12292000    250.83019   -9148.2172   -8191.9382   -9148.2172            0    7136.9167    25.047678    24.968868    23.009008    14390.114    6587.8442    7685.9466    7136.9591      239.882    330.42939    144.83334   -6694.1488 
12293000     247.0324   -9107.2531    -8165.453   -9107.2531            0    7029.3929    24.983503    24.986046    23.082954    14409.279    7402.0569    6240.0195    7446.1022   -562.64165    -18.13713   -5.4747923   -6688.2644 
12294000    250.54547   -9147.6714   -8192.4778   -9147.6714            0    7288.3816    24.968802    24.941871    23.120152    14398.506    8100.5603    7059.7062    6704.8784     93.56644    -81.30432   -117.51867   -6662.0091 
12295000    234.90458   -9139.2677   -8243.7043   -9139.2677            0    7306.4247     24.98459    25.085994    22.937859    14376.608    6853.1725    6927.9183    8138.1834    428.25924    322.70527   -448.32277   -6711.7803 
12296000    256.01177   -9108.6096    -8132.576   -9108.6096            0    7982.0662    24.839169    25.066169    23.052987    14353.315    7699.2316    9117.8683    7129.0987   -636.12551   -212.22794    1510.3601    -6461.703 
12297000    252.63375   -9163.2039   -8200.0488   -9163.2039            0    8422.8054    24.794067    25.022196     23.10353    14333.476    9404.7067    7848.1045     8015.605    378.10168    1561.7023   -135.11494   -6439.3536 
12298000    248.42127   -9152.4936   -8205.3984   -9152.4936            0    6586.8237    24.953339    25.010443     23.13026    14435.458    6761.7197    6902.2617    6096.4897   -498.10322   -1323.6479   -552.86173   -6818.6984 
12299000    252.10754   -9128.3539    -8167.205   -9128.3539            0    5707.2124    25.139562    25.129404    22.917334    14477.847    5606.9108     5441.708    6073.0185   -430.21534    302.70778    96.763996   -6962.1582 
12300000    255.90302   -9124.0908   -8148.4718   -9124.0908            0    7823.6023    25.017715    25.017713     22.98833    14388.075    8008.4104    7371.2009    8091.1954   -76.446815   -618.35635   -167.03716   -6506.8038 
12301000    260.57009   -9169.5156   -8176.1036   -9169.5156            0    5621.6506    25.041775     25.00196    23.071234    14444.749    4846.8584    6062.2102    5955.8832   -1431.6428   -1122.6283    254.80935   -6991.8363 
12302000    247.70419   -9131.9551   -8187.5938   -9131.9551            0    7955.4203    24.936731    24.897644    23.141575    14367.814    7606.6259    8600.1326    7659.5023   -786.68169   -1832.6036    45.010559   -6520.6164 
12303000    249.34526   -9147.9318   -8197.3139   -9147.9318            0    5947.4974    25.118058    24.913662    23.065985    14434.297    4296.0028     6991.679    6554.8105    45.612835   -156.01042    104.40707   -6945.3097 
12304000    253.73176   -9139.5036   -8172.1624   -9139.5036            0    5252.0531    25.125392    25.033768     23.05847    14503.392    4953.8515    5287.1723    5515.1354    -392.3353   -166.99098   -211.08548   -7061.2634 
12305000    249.67792   -9110.1287   -8158.2427   -9110.1287            0    6756.3602    24.999512    24.949528    23.161261    14446.281    6690.6815    7988.9893    5589.4099    438.20368   -30.096314    238.43749   -6734.7844 
12306000    256.91307   -9126.2162   -8146.7464   -9126.2162            0    7860.1755    25.025113    24.930614    23.083383    14401.525    7548.0308     9350.469    6682.0265    517.87252   -742.28219    707.38496   -6495.8623 
12307000    255.66171   -9156.6372   -8181.9381   -9156.6372            0    6254.3175     25.07372    25.050882    23.005163    14449.975    5739.6859    6489.4454    6533.8214   -367.72947    312.00717    382.06664   -6863.9154 
12308000     253.0908    -9170.961   -8206.0634    -9170.961            0    6726.6803    24.983277    25.013045    23.060276    14410.547    7432.6978    6700.4407    6046.9023   -321.93845   -40.173024    175.50174   -6792.3638 
12309000    250.91518   -9135.6323   -8179.0292   -9135.6323            0    7472.6419     25.03137    25.061394    22.892767    14361.115    7049.3706    7453.9331     7914.622    144.39533   -80.642212   -253.85312   -6613.9432 
12310000    243.87823   -9147.4683   -8217.6933   -9147.4683            0    8368.2992    24.962662    25.002225    22.968079    14334.885    7245.5335    8676.6671     9182.697   -522.11103     534.0895   -199.40061     -6468.22 
12311000    249.11571   -9153.2192   -8203.4765   -9153.2192            0    6762.8506    24.916645    25.003298    23.110914     14398.06    7200.0537    6844.9143    6243.5838     272.5071   -679.69644   -509.56939   -6783.4068 
12312000    250.57634   -9130.8188   -8175.5075   -9130.8188            0    7335.9691    24.931462     25.06437    23.040763    14397.974    7542.0461    6785.5927    7680.2686   -1208.6542   -1159.1572   -397.78522    -6635.103 
12313000    256.30263   -9096.8876   -8119.7451   -9096.8876            0    8260.3963     24.91416    25.205892    22.872912    14363.814    8258.2416    7239.3443    9283.6029    377.17846   -468.89984   -1030.5048   -6389.3449 
12314000    255.02283   -9139.9911   -8167.7278   -9139.9911            0    7919.6461    24.919856    25.042661    22.993011    14349.007    8608.6007    6954.0063    8196.3314   -148.65909    83.705315   -804.01309   -6510.4187 
12315000    240.53925   -9148.9835   -8231.9381   -9148.9835            0     7686.022    24.965012    25.034836    23.011929     14382.34    7441.0052    8105.5256    7511.5352   -331.03706    57.881378    59.044362   -6619.7822 
12316000    251.13506   -9075.3926   -8117.9512   -9075.3926            0    6540.7967    24.907506    24.959424    23.256313    14457.915    7282.4273    7554.5445    4785.4184    311.42759   -455.01001   -305.08341    -6738.799 
12317000    250.73214   -9188.3742   -8232.4689   -9188.3742            0     5887.431    24.988831    25.015866    23.088547    14433.049    5835.0153    5842.5858    5984.6919   -46.470572   -459.62802   -149.68533   -6993.2164 
12318000    249.99068   -9166.0525    -8212.974   -9166.0525            0    6737.4729    25.008358    25.087086    22.937127    14390.451    6829.2502    6203.4161    7179.7524   -117.69576   -771.13797    739.29406   -6798.9808 
12319000    245.81891   -9156.8241   -8219.6503   -9156.8241            0    7512.1126    24.898636    25.042422    23.026908    14357.787    8294.5009    6630.8243    7611.0127   -788.52233     636.0605   -92.021164    -6646.662 
12320000     250.9618   -9166.2102   -8209.4294   -9166.2102            0    7194.7137    24.878081    24.952652    23.170899    14383.894    8397.5303    7362.4766     5824.134   -3.0950051   -913.70723    835.42412   -6700.1631 
12321000    255.60538    -9162.475   -8187.9907    -9162.475            0    6327.0422    25.041342    25.067042    22.992416    14432.625     5618.691    5859.7474    7502.6882    308.77798    -131.8428    572.24066   -6856.2431 
12322000    256.04138     -9118.64   -8142.4934     -9118.64            0    8341.3219    25.077295    25.014692    22.912143    14372.806    7617.2775    7920.0784    9486.6098    33.187454   -109.61439    303.53451    -6394.047 
12323000    248.00265   -9192.2612    -8246.762   -9192.2612            0    7336.2788    24.966337    24.925509    23.028339    14330.505    6588.0733    7755.7427    7665.0205   -818.96808   -1156.1575    527.66133   -6713.5111 
12324000    256.69451   -9135.5353   -8156.8987   -9135.5353            0     8175.322     25.00727    24.741587    23.189795    14347.979    7479.2218     10349.29    6697.4541   -65.345557   -827.22413     681.8799    -6446.208 
12325000    254.81103   -9114.5484   -8143.0926   -9114.5484            0    7587.1575    25.021465    24.940685    23.055854    14388.062    6862.6249    7595.6963    8303.1514    93.797426    907.55701   -111.16567   -6551.0403 
12326000    257.03113   -9156.9421   -8177.0222   -9156.9421            0    8818.4484    24.917275    24.970805     23.00694     14315.02    7954.2071    9499.5382    9001.5998   -482.57541   -29.029591    88.220709   -6335.9958 
12327000     252.2975   -9185.2007   -8223.3276   -9185.2007            0    7205.3736    24.929041    25.020093    23.012653    14353.611    7472.8576    6750.1418    7393.1214   -332.10429   -888.53966   -319.90891   -6715.0073 
12328000    259.41353   -9138.7533   -8149.7506   -9138.7533            0    6687.8346    24.875859    25.001034    23.194751    14425.331    8135.6035    6067.2384    5860.6621   -71.599838   -1059.2053    582.00244    -6742.773 
12329000    246.41129   -9141.4586   -8202.0264   -9141.4586            0    7426.5216    24.981881    25.026825    23.001541    14380.958    7317.7803    7047.8175     7913.967    758.16791    479.13706     207.9843   -6644.4507 
12330000    250.49589   -9148.1092   -8193.1046   -9148.1092            0    5782.7062    25.036243    25.083732    23.057595    14480.225    5367.9973    6028.4383    5951.6829    594.42228   -1005.1017   -952.21864   -6971.9172 
12331000     254.6103   -9127.3427   -8156.6521   -9127.3427            0    6154.8158    25.034535    24.970241    23.147672    14470.035    6807.6571    6468.2262    5188.5641    312.92996   -825.12252    528.84061   -6857.7975 
12332000    249.44165   -9144.8553     -8193.87   -9144.8553            0    5833.3735    25.082175    25.041077    23.020211    14458.642    6000.7133    5906.2825    5593.1247    -321.4752   -1904.3895   -308.65197   -6963.8188 
12333000     248.3185   -9183.8894   -8237.1861   -9183.8894            0    7080.1302     25.08812    25.038407    22.867912    14364.858    6743.9687    6816.3107    7680.1112   -538.23045    341.43447    352.80679    -6753.922 
12334000    251.67898   -9096.7017   -8137.1866   -9096.7017            0    7223.8665     24.97055    25.007038    23.083706    14414.378    7575.6623    7614.7879    6481.1491    126.31836    330.14204    536.06622   -6618.5933 
12335000     239.5933   -9122.9186   -8209.4797   -9122.9186            0     6816.655    24.901435    24.990825    23.169729    14418.694    7218.4596    7432.1884    5799.3169   -265.29159   -578.15167    1048.5072   -6776.0608 
12336000      251.376   -9133.4268   -8175.0668   -9133.4268            0    6839.9683    24.943518    25.060442     23.07769    14425.763    6598.5764    6894.2846    7027.0438    464.91318   -16.999461     -1099.28   -6736.0404 
12337000    252.74163   -9146.5063     -8182.94   -9146.5063            0    8101.0548    25.028524    25.052858     22.84896    14327.121    8620.8815    6197.3725    9484.9103    37.058907    554.34143    -306.3226    -6490.254 
12338000    254.47199   -9106.0753    -8135.912   -9106.0753            0    8184.5698    24.906435    25.026622    23.027125    14353.358    8005.3633    8369.9464    8178.3996   -20.127456   -622.53978    1497.6487   -6422.6442 
12339000    246.90822   -9180.7415   -8239.4148   -9180.7415            0    7854.1283    24.806144    25.053189    23.070411    14337.638    9182.7278    7113.4138    7266.2431   -582.52137   -113.71045   -430.76845   -6597.1186 
12340000    257.99925   -9155.3559    -8171.745   -9155.3559            0    5868.6336    24.899218    25.189772    22.988475    14418.501    7193.7852    4505.8052    5906.3104    377.72518    248.38414    671.00109   -6937.6943 
12341000    242.53233   -9150.7348    -8226.091   -9150.7348            0    7510.4081    24.874603    25.061366    23.050578    14369.535    7851.7174    7283.8981    7395.6087    521.72515   -712.17651    794.56262   -6652.1728 
12342000     247.9875    -9126.955   -8181.5135    -9126.955            0    6684.6006    24.873914    25.099824      23.1328    14442.522    8018.6424    5699.2017    6335.9577     133.8277    376.73428   -313.42284   -6773.5403 
12343000     254.5203   -9131.3338   -8160.9864   -9131.3338            0    7491.1445    24.981382    24.979379    23.044198    14380.027    7009.3431    7274.6601    8189.4303   -570.71025   -802.06471     259.3647   -6589.9589 
12344000    248.18589    -9144.431   -8198.2332    -9144.431            0    5790.3749    25.058867    24.918691    23.193683    14482.928    4763.0727    6605.2855    6002.7663   -1082.2919    258.31335   -77.372085   -6975.1981 
12345000    239.95234   -9166.8375   -8252.0298   -9166.8375            0    5838.9233    25.038455    25.019976    23.056985    14444.314    5128.8168    6218.9288    6169.0241   -96.052471    464.62438   -359.75483   -7022.0285 
12346000    251.74587   -9154.9581    -8195.188   -9154.9581            0    5109.0876    25.076901    25.052575    23.080592    14500.172    5382.5388    4980.5517    4964.1724    338.18824    265.00952    544.15868   -7114.7685 
12347000     252.5916   -9135.5412   -8172.5468   -9135.5412            0    5827.3568    24.977224    25.129941    23.022166    14450.465    6106.6072    5428.7976    5946.6656    697.32737   -1090.0957    177.03748   -6944.4593 
12348000    244.31697   -9175.4202   -8243.9725   -9175.4202            0    5232.2021    25.001963    25.138003    23.061779    14494.315    5648.4911    4704.9223    5343.1928    447.39428     300.2985    334.85691    -7137.965 
12349000    247.26357   -9112.8284   -8170.1469   -9112.8284            0    6174.1522    24.904094    25.129943    23.097469    14455.284    6655.0913    6163.9613    5703.4041    296.57888   -521.04509   -152.86408     -6868.54 
12350000     254.9088   -9197.1208   -8225.2921   -9197.1208            0    5947.8618    24.848708    25.047326    23.152127    14409.738    6694.0006    5998.8697    5150.7151   -944.04401    472.70728    63.600967   -6975.3416 
12351000    251.01551   -9152.1581   -8195.1725   -9152.1581            0      8176.33    24.817233    25.169761    22.978685    14353.493    10430.184    6466.9557    7631.8505   -333.65843     347.2001   -1062.9535   -6483.6134 
12352000    253.03506   -9111.5809   -8146.8959   -9111.5809            0    7156.3169     24.90379    25.079765    23.094523    14424.405    8179.5295    6712.9048    6576.5165    -10.96555    -741.8653   -116.48551   -6641.4562 
12353000    250.86802     -9134.72   -8178.2967     -9134.72            0     6576.109    24.919226    25.067457    23.137362    14453.022    6947.6299    6505.9843    6274.7129    635.60352   -61.191961    872.96186    -6792.168 
12354000    255.71945   -9166.7352    -8191.816   -9166.7352            0    6361.3358    24.915889    25.140795    23.015484     14417.02    6344.3902    5455.0256    7284.5916   -1168.6574   -1730.4234    53.987799   -6854.2978 
12355000    255.69089   -9139.2208   -8164.4105   -9139.2208            0    7793.5476    24.984651    25.001443    23.040447    14392.269    7691.2122    7745.8775    7943.5531   -742.47262     -754.686     880.5946   -6528.5723 
12356000     249.3719   -9170.8289   -8220.1095   -9170.8289            0    7230.3456    25.079331    24.963572    22.987392     14391.71    7236.6599    6385.1057    8069.2711   -364.47907   -446.12791    345.44404   -6702.5444 
12357000    255.41155   -9162.5221   -8188.7768   -9162.5221            0    6273.8714    25.153302    24.895659    23.039087    14427.261    5977.1899    6939.9203     5904.504   -376.78422   -10.455929   -456.66337   -6868.7115 
12358000    256.77378   -9165.0218    -8186.083   -9165.0218            0     7328.394    25.009612    24.867828    23.122181    14380.487    7116.1899    7901.2478    6967.7443    381.79849   -609.86363    1339.8439   -6649.1381 
12359000     249.0458   -9150.3338   -8200.8576   -9150.3338            0    5977.1694    25.074599    24.934404    23.101697    14443.647    4819.0215    6868.9046    6243.5821    58.272408    1142.6818   -44.978487   -6941.7921 
12360000    249.14336   -9156.3886   -8206.5405   -9156.3886            0    6718.0261    25.097136    25.000517    22.988451    14423.906    5946.5492    6748.3666    7459.1624   -647.61891    -721.3155    161.78698   -6793.3509 
12361000    248.06672   -9118.0675    -8172.324   -9118.0675            0    6869.1445    25.077996    24.946532    23.002325    14390.462    5117.1488    8471.6448    7018.6399   -1675.1178    234.90035    1721.3462   -6730.6957 
12362000    257.13345   -9150.6766   -8170.3667   -9150.6766            0    6405.9158    24.972967    24.971682    23.121455    14418.933    6933.9964    7472.5367    4811.2143   -136.62904   -501.66793    -244.0719   -6823.2964 
12363000    253.35168   -9148.2568   -8182.3647   -9148.2568            0    6655.1058    24.962512    24.955539    23.160955    14428.185    6586.3076    6908.9142    6470.0956    291.23208   -460.06364    1045.9057   -6781.9955 
12364000    264.77488   -9121.2473   -8111.8047   -9121.2473            0    7820.6827    24.928777    25.187644    22.880657    14366.699    8362.9491    7422.6124    7676.4866   -268.57673    248.60595    891.80981   -6473.1873 
12365000     254.5899   -9097.4337   -8126.8209   -9097.4337            0    7431.1313    25.003705    25.078561    22.968154     14402.34     8097.426    6725.0531    7470.9147    125.19389   -1349.5913    641.00209   -6565.9611 
12366000    252.20396   -9158.2963   -8196.7798   -9158.2963            0     8356.227    24.976091    24.894078    23.019791    14312.711    8271.9117    8820.8186    7975.9506    55.602176    52.476004   -1.6601016   -6452.5326 
12367000    241.33506   -9160.7834   -8240.7041   -9160.7834            0    7250.7272    24.880048    24.888335    23.191195     14360.52    7623.8957    7994.5238    6133.7621   -34.507812    70.871251    564.46336   -6722.1592 
12368000    248.15654   -9191.8202   -8245.7343   -9191.8202            0    7356.7945    24.926607     24.96927    23.116913    14387.948    6383.7028    7759.9016     7926.779   -414.85041   -169.57235   -351.16203   -6702.0327 
12369000    249.42678   -9144.1436    -8193.215   -9144.1436            0    6315.2994    24.969036    25.079071    23.047389     14432.28    5733.4554    6321.7303    6890.7126     -840.111    488.88459    3.1930158   -6863.9707 
12370000    246.69922   -9135.6527   -8195.1227   -9135.6527            0    7195.1339    25.029015      25.0115    23.021175     14411.56    6935.0502    7208.6622    7441.6892   -1060.2696   -233.89393    331.20813   -6682.8652 
12371000    248.06303   -9144.1595   -8198.4301   -9144.1595            0     8235.224     24.98923    24.920353    23.054796    14357.154     8338.801    8786.6296    7580.2415   -211.66754   -538.88776    455.89863    -6474.103 
12372000    256.14721   -9139.2955   -8162.7455   -9139.2955            0    7526.1057    24.978865    24.956608     23.05527    14372.373    7044.7558     7947.079    7586.4823    1.4023775    683.75294   -1058.3445   -6585.2262 
12373000    251.55923   -9187.1707   -8228.1122   -9187.1707            0    6159.9478    25.152642    24.966259    22.993762    14439.332    5127.7463    6456.6206    6895.4765   -579.44293    404.46366   -263.30649   -6930.9328 
12374000    259.90444   -9143.6237   -8152.7494   -9143.6237            0    6096.0904    25.079863    24.995233    23.087325    14472.913    5381.3573    7468.4621    5438.4518   -769.53303     131.9402   -1167.1239   -6866.0318 
12375000    255.54239   -9120.6645   -8146.4204   -9120.6645            0    6329.3433    25.055145     24.99604    23.118506    14478.645    6992.6504    6643.2559    5352.1236    248.01882   -285.99078    336.55711   -6809.9405 
12376000     255.5147   -9164.9087   -8190.7701   -9164.9087            0     5957.395    25.022826    25.114515    22.999269    14453.571    6112.6106    6167.3511    5592.2232   -638.57117     120.4371    980.01656   -6935.0078 
12377000     255.6403   -9144.5137   -8169.8963   -9144.5137            0    6531.9606    24.978027    25.106399    23.027264    14440.589    6849.0126    7040.4277    5706.4416   -1633.7005   -93.128872   -280.95084   -6794.2578 
12378000    249.56714   -9153.7018    -8202.238   -9153.7018            0    6715.1585    24.970914    25.013542    23.032525    14386.369    6663.4187    7200.5252    6281.5316    452.84742   -1022.0655    482.64497   -6793.3277 
12379000    251.23559   -9120.8337   -8163.0091   -9120.8337            0    8050.3209    24.934935    25.034515    23.026998    14374.235    7983.2785    7451.5026    8716.1818   -213.82793    -454.0802   -1200.8261   -6475.3923 
12380000    249.73661   -9181.0366   -8228.9267   -9181.0366            0    7144.1341    24.902189    24.961714    23.118271    14370.348    7100.8405    7621.0196    6710.5423   -809.37872   -264.87027    43.458885   -6731.6821 
12381000    242.17032   -9145.6532   -8222.3895   -9145.6532            0    7074.9856    24.902964    25.045397    23.039931    14370.111    7691.8384    6886.4723    6646.6462   -290.41061    -1018.913   -253.49969   -6739.6612 
12382000    250.67481   -9137.9494   -8182.2627   -9137.9494            0    6408.1648    25.076674    25.088366    22.954287    14441.294    5986.1473    6820.7685    6417.5787   -1283.2236    933.07879    27.565453   -6832.6297 
12383000    246.78956   -9137.9192   -8197.0449   -9137.9192            0    6585.9237     25.05558    24.919007     23.05647    14395.542    5844.3338    7655.6735    6257.7638   -742.50066   -353.00955    594.79816   -6814.3683 
12384000    247.01946   -9165.9909   -8224.2401   -9165.9909            0    6473.8537    25.103821     24.89983    23.043877    14404.287    6277.1836    7162.0285     5982.349   -581.64394   -69.002876   -188.83734   -6864.2663 
12385000    250.15508   -9191.5121   -8237.8068   -9191.5121            0    8103.3556    24.948586    24.917756    23.048665    14328.497    7423.3639    9114.6122    7772.0905    -1062.899    279.12352   -51.567484   -6544.4775 
12386000     258.5283   -9166.1709   -8180.5431   -9166.1709            0     7519.172    25.029036     24.89963    23.055628    14368.584    7669.7149    7552.0277    7335.7735   -389.77105   -1245.0145    190.13735   -6604.8926 
12387000    248.24184   -9159.5831    -8213.172   -9159.5831            0    6598.6664    25.063051    24.991584    22.956904    14379.409    6918.6105    5608.9294    7268.4594    120.12589   -658.70472   -622.69594   -6829.3727 
12388000    249.40411   -9139.8309   -8188.9887   -9139.8309            0    6364.9279    25.133144    24.983816    23.013454     14450.65    6377.8714    6474.5316    6242.3806   -128.23067   -845.26055    850.49544   -6847.5935 
12389000      240.741     -9144.59   -8226.7756     -9144.59            0    7637.1081    24.980462    24.905731    23.082129    14360.701    7211.2655    8501.9003    7198.1585    2.5953779   -66.295932    -22.59149   -6627.2895 
12390000    256.83372   -9160.0749   -8180.9077   -9160.0749            0    5960.5243    25.150719    24.965788    23.036225    14464.619    5740.3923    5270.3616     6870.819   -17.292785    936.22406   -877.65139   -6923.5254 
12391000    249.52848   -9179.7091   -8228.3928   -9179.7091            0     5714.058    25.019806    24.945515    23.170476    14461.434    4298.0875    6911.3237    5932.7627   -376.54097    1305.1414     463.0504   -7023.2683 
12392000    245.50977   -9162.8215   -8226.8263   -9162.8215            0    5857.7097    25.053836    24.941324    23.150257    14466.036    5500.1794    6440.2773    5632.6724   -1083.2275   -708.97187    610.57738   -6991.0118 
12393000    254.38054   -9151.1168   -8181.3022   -9151.1168            0    6908.8969    25.045081    24.986114    22.984762    14383.387    6299.5606    6971.5875    7455.5426    356.77043   -550.04502    293.28556    -6732.044 
12394000    261.25358    -9188.283   -8192.2653    -9188.283            0    6122.0499    25.064553     25.02313    22.994486    14421.994    5138.1659    6170.7497    7057.2341   -777.83887   -721.21382    224.68545   -6904.6146 
12395000    261.39443   -9117.8063   -8121.2515   -9117.8063            0    7709.1238    24.972616    24.891419    23.144358    14386.622    6972.2888    8584.5935    7570.4891   -1162.5907   -369.01178    2033.3776   -6503.7685 
12396000    250.79217    -9159.014   -8202.8799    -9159.014            0     5419.453    25.112157    24.966692    23.078505    14469.472    4751.9257    6439.9446    5066.4889    135.82747   -609.92143    1394.4828   -7059.2538 
12397000     251.3343   -9156.8367   -8198.6357   -9156.8367            0    7078.3988    25.057751    25.021547    22.975345    14405.167    6392.8126    6318.6494    8523.7345   -337.91047   -1335.3362    341.34196   -6711.5733 
12398000    243.73628   -9152.9181   -8223.6843   -9152.9181            0    8514.9729    24.952511    24.862912    23.118801    14342.722    8267.9929    9918.2844    7358.6414   -678.00286   -458.54072   -911.73579   -6442.5743 
12399000    250.64016    -9134.337   -8178.7824    -9134.337            0    6697.5699    24.888744    24.990766    23.159963    14405.237    7295.1824    6372.2574      6425.27   -345.20799   -706.07044    96.084533   -6771.7194 
12400000    248.30032     -9151.16   -8204.5259     -9151.16            0     7688.979    24.898967     25.07523    22.998518    14359.063    7918.2227    6861.7995    8286.9148   -487.03588    -950.6879   -30.485285   -6594.3599 
12401000    263.26647   -9177.5919      -8173.9   -9177.5919            0    6775.6301    24.996742    25.087929    22.935515    14383.239    6333.3319    6547.6926    7445.8659    102.90045   -344.99986     515.7458   -6752.6114 
12402000    252.39286   -9181.6748   -8219.4381   -9181.6748            0    5125.1331    25.093836    25.041876    23.074071    14499.671    4236.3486    6178.6688     4960.382    -1066.599   -263.33916   -536.90277    -7135.663 
12403000    256.92301   -9151.8609   -8172.3532   -9151.8609            0    6086.2497    25.056694    24.903297    23.150866    14446.008    5301.7664    7262.8782    5694.1045    711.15635    54.344675    29.028588   -6890.1008 
12404000    249.87492   -9170.1806   -8217.5434   -9170.1806            0    6350.4938    25.132958    24.959516    22.968419    14408.238    5465.3753    7131.9163      6454.19   -297.79476   -1078.0807    863.12413   -6883.1181 
12405000    245.86839   -9126.4436   -8189.0811   -9126.4436            0    7318.3928    25.085018    24.938906    23.015785    14398.511    7405.9272    7383.2772    7165.9739   -123.71557   -11.225662    803.84713     -6652.31 
12406000     240.7419    -9190.412   -8272.5941    -9190.412            0    7659.7145    24.977741    24.888275    23.058112    14334.141    7137.9494    8350.4679    7490.7262   -507.70448   -1296.7052   -1067.0994   -6671.3404 
12407000    251.53779   -9150.8095   -8191.8328   -9150.8095            0    7730.6018    24.974417    24.984659     22.98833    14344.196     7445.335    8469.9375     7276.533    56.999835   -634.26236   -1740.4236   -6574.6265 
12408000    249.23175   -9130.6673   -8180.4822   -9130.6673            0     7844.794    25.198369    25.025211    22.794779    14374.263    7419.5496    6614.3305    9500.5018   -1027.7304   -1618.1866    428.91681   -6535.9476 
12409000    255.59155   -9136.0127   -8161.5812   -9136.0127            0    7080.2028    25.014574    24.941306    23.043171    14376.545    6906.8265    7103.3629    7230.4189   -10.754077   -322.99948    343.58672   -6677.0951 
12410000    249.54259   -9145.0149   -8193.6447   -9145.0149            0    7538.7448    25.078509    24.874317    23.007429    14352.283    6528.1941    9044.3156    7043.7247     678.5569   -874.75972   -85.169258    -6615.685 
12411000    246.38259   -9177.7423   -8238.4195   -9177.7423            0    7507.7542    24.970925    24.941216    23.016445    14334.763    7669.1318    7808.4658     7045.665    407.07006   -924.75915   -139.52568   -6668.8648 
12412000    253.45826   -9155.7368   -8189.4383   -9155.7368            0    7661.9816    24.975797    24.876743    23.135679    14374.579    8048.1312    7217.4542    7720.3594    208.77251    -454.4532    876.87632    -6583.192 
12413000    254.73076   -9146.7568    -8175.607   -9146.7568            0    7606.9529    25.048566    25.018731    22.906052    14354.841     6564.991    7929.7826    8326.0851    772.46972    383.54305    556.33371   -6583.0866 
12414000    246.81181   -9157.8877   -8216.9285   -9157.8877            0    7017.2822    24.991407     25.15115    22.879945    14381.478    7193.2457     6286.739    7571.8618   -224.77826    483.39945    319.07304     -6745.13 
12415000    248.60115   -9139.5892   -8191.8083   -9139.5892            0    6945.6127     24.85235    25.044458     23.16806    14420.117    7640.5797    6530.9137    6665.3448     279.3961    -111.4444    1020.7494   -6731.1278 
12416000    247.97072   -9102.8993   -8157.5218   -9102.8993            0     6535.177    24.937833    25.075906    23.096892    14443.382    6817.0361    5759.1534    7029.3417    35.420828    600.88298   -673.31479   -6780.9396 
12417000    246.20482   -9189.1533   -8250.5083   -9189.1533            0    5688.8795    24.924714    25.138703     23.05284    14444.333    4974.7052    6533.9942    5557.9391     130.0194   -1.0639767    1526.1012   -7052.1129 
12418000    259.69725   -9124.2485   -8134.1641   -9124.2485            0    6168.6934    24.877985    25.138617    23.105777     14450.31    6709.6545    5170.6575    6625.7682   -390.86269    515.23326   -184.39456   -6834.1555 
12419000    247.81606   -9127.5448    -8182.757   -9127.5448            0      6527.33    24.827322    25.130188     23.14583    14441.037    7400.2471    5987.5218    6194.2211   -310.32263    345.93076   -335.06675    -6808.051 
12420000    245.73503   -9135.6019   -8198.7479   -9135.6019            0    7125.9849    24.927376     25.17221    22.934184    14390.676    7383.5263     5937.225    8057.2033   -593.67639    241.08059    139.02794   -6703.1943 
12421000    252.06887   -9172.6375    -8211.636   -9172.6375            0     6466.743    24.934023    25.167331    22.951457    14402.563    7413.6056    4973.6329    7012.9905     1008.294    651.90212    1638.2153   -6853.3186 
12422000    248.68089   -9154.0036   -8205.9187   -9154.0036            0    6783.7459    24.848236    25.053597    23.141031    14406.164    8066.0846    5635.4737    6649.6796    305.74337   -129.61102    336.55805   -6780.6596 
12423000    247.31646   -9130.4802   -8187.5971   -9130.4802            0    7631.1293    24.759705    25.083264    23.113705    14354.864    8711.9707    6607.5212    7573.8959    716.68314   -1753.2795   -165.26063   -6590.0128 
12424000    253.26899   -9175.6765   -8210.0996   -9175.6765            0    7077.2362    24.889494    25.119008    22.997217    14377.846    7683.0583    5881.6561    7666.9942    605.56544   -1413.3371   -348.41101   -6726.1012 
12425000    244.85877   -9143.0269   -8209.5136   -9143.0269            0    5972.5412    24.932332    25.214323    23.014404    14468.048    6666.3519    4851.7079    6399.5638   -85.458174   -538.25702    801.86358   -6949.2976 
12426000    244.63147   -9155.7353   -8223.0885   -9155.7353            0    7732.0428    24.925917    25.018161    23.039473    14367.429     7817.398    6439.6765    8939.0541   -617.66898    254.56361     770.3761    -6602.961 
12427000    244.05294   -9122.1458   -8191.7047   -9122.1458            0    5835.6884    24.968371    25.038185    23.158315    14477.715    5823.4893    5608.5315    6075.0443   -314.10442   -116.85131    671.66907   -6959.5422 
12428000    251.67699   -9165.5358   -8206.0284   -9165.5358            0    5257.0768    25.053173     25.06402    23.089984    14498.968    5942.2314    4552.6317    5276.3672    226.78006   -212.74064    38.265639   -7094.4059 
12429000    253.90212   -9168.3315   -8200.3408   -9168.3315            0    5028.6116    25.026687    25.092682    23.045665    14472.371    5477.4111    4700.5464    4907.8773   -660.52332   -843.26562    863.13548   -7138.9785 
12430000    246.45014   -9145.0292   -8205.4488   -9145.0292            0    6843.3688    24.937924    24.997383    23.094337    14396.614    6392.3809    7092.7902    7044.9354    761.15807   -212.98548     744.5592   -6768.6162 
12431000    257.06457   -9171.5677   -8191.5204   -9171.5677            0       8471.9    24.886284    24.932918    23.040766    14296.511    8190.8544    8682.4589    8542.3867   -20.211861   -1523.9591   -762.26736   -6425.1296 
12432000    252.02656   -9117.2515   -8156.4113   -9117.2515            0    7984.5404    24.989313    25.009962    22.999251    14374.113    7909.4248    8737.9605    7306.2359    33.620936    524.66191    75.563121   -6482.5986 
12433000    248.70755   -9139.2346    -8191.048   -9139.2346            0     7937.574    24.966103     25.00124    23.010745    14362.928    7872.3764    7842.7707     8097.575    252.92021   -849.94919   -479.43719   -6528.3756 
12434000    251.92351   -9138.3764   -8177.9291   -9138.3764            0    7804.1287      24.9436    24.934484    23.141923    14393.253    7309.8908    8619.9804    7482.5149    1043.2738   -266.33311    1063.9775   -6539.7579 
12435000    258.58917   -9117.9481   -8132.0882   -9117.9481            0    8669.2073    25.065818    24.874127    22.971131    14322.278    6898.9149    9692.5816    9416.1255   -293.64595   -449.06784    171.77033   -6321.3011 
12436000    254.36277     -9119.98   -8150.2331     -9119.98            0    7012.9923    25.059464    24.995227    23.031482    14426.159     5018.801    7008.5265    9011.6495   -397.48236    1158.2639   -360.41367   -6674.7645 
12437000    242.56837   -9177.0524   -8252.2711   -9177.0524            0    5246.7002    25.014508    25.033159    23.124853    14480.602    6299.3894    4450.3948    4990.3164    372.82137   -746.74645   -136.55252   -7144.2482 
12438000    254.94511    -9137.434   -8165.4669    -9137.434            0    4869.2139    24.992945    25.055361    23.136777    14488.418    5723.3456    4694.7099    4189.5862   -673.32238    1006.6347    437.59139   -7136.6083 
12439000    238.41279   -9150.9353    -8241.997   -9150.9353            0    6983.1879     24.94475    25.047827      23.0146    14379.793    7809.4097    6753.0395    6387.1146   -95.912976   -1040.0892    330.67053    -6777.521 
12440000    256.60574   -9112.1828   -8133.8847   -9112.1828            0    7726.2124    24.891489    25.223021    22.915807    14387.428    8918.4176    5124.2153    9136.0042   -486.75547    842.65863   -954.96963   -6512.7254 
12441000    251.50115    -9133.583   -8174.7459    -9133.583            0    6447.4343    24.873277    25.045412    23.171557    14434.987    6827.3329    6758.2721     5756.698    492.07697    116.78954    167.77377   -6817.4354 
12442000    254.26485   -9132.9399   -8163.5663   -9132.9399            0    6810.0395    24.930336    25.006147    23.103205    14402.807    6771.8854    7051.4853    6606.7477   -912.45901    953.70942    456.01668   -6733.1164 
12443000    255.29024   -9169.4438    -8196.161   -9169.4438            0    6059.2195     25.04256    25.146696    22.891698    14415.764    5438.2808    5154.9259    7584.4517   -856.42013   -37.306162    676.60711   -6922.2759 
12444000    254.48838   -9172.7136   -8202.4879   -9172.7136            0    5976.0306    24.994431    25.088045     23.01448    14431.493      6398.03    5044.7279     6485.334   -1457.7678   -144.37295    252.38737   -6944.7216 
12445000    254.56999   -9153.1597   -8182.6228   -9153.1597            0    7112.3953    24.868584    24.902978    23.255518    14402.185    7525.3491    7980.4327    5831.4042    287.61933   -251.63693    87.878921   -6688.7276 
12446000    254.33319   -9145.5325   -8175.8984   -9145.5325            0    7832.5463    24.869196    25.067448     23.02258    14352.444    7983.3048    7316.4065    8197.9275   -1292.5072   -425.85898   -999.39178   -6536.4237 
12447000    249.79544   -9139.7207   -8187.3866   -9139.7207            0    6504.0279    25.042164     25.06776    22.964728    14416.129    5734.0861    6501.3242    7276.6733    202.16948    526.63592    187.97469   -6819.9508 
12448000     256.9966   -9153.6929   -8173.9046   -9153.6929            0     7783.869    24.969219    25.042961    22.941533    14345.413    7899.0589    7946.3028    7506.2454   -237.89464    158.11515    204.44655    -6545.417 
12449000      255.903   -9125.7789     -8150.16   -9125.7789            0    7715.8701    24.850308    25.008365    23.138822    14379.981      8562.76    7812.3987    6772.4515   -1081.0061    727.75615     305.8337   -6532.0088 
12450000     243.9753   -9116.8425   -8186.6974   -9116.8425            0    8629.8697    24.861051    24.982194    23.063753    14324.519    9757.9158    7942.6229    8189.0705   -336.35513    430.40737    298.67931   -6383.8449 
12451000    250.93491   -9109.9971   -8153.3188   -9109.9971            0    7944.0618    24.927471     25.01469    23.014072    14350.492    9978.2753    6659.7591    7194.1508   -1197.5003   -752.04214    633.37925   -6490.7282 
12452000    251.95739   -9160.5222   -8199.9458   -9160.5222            0    7860.9046    24.861324    25.133962    22.957254    14345.152    7359.1306    6672.7669    9550.8164    300.94371   -678.55183   -43.239507   -6555.3712 
12453000    246.34962   -9190.6447   -8251.4476   -9190.6447            0    6226.2306    24.940243    25.106869    23.053268    14435.298    6470.5324    4958.2066    7249.9528     -116.465   -360.70678   -168.26015   -6940.6766 
12454000     253.2618   -9146.1298   -8180.5803   -9146.1298            0     5719.671    24.993194    25.098215    23.092997     14485.88    5788.4924    4808.2156    6562.3051    301.50485    619.07323    664.63074   -6972.2329 
12455000    237.69442   -9127.6213   -8221.4218   -9127.6213            0    5345.1936    24.921559    25.231229    23.016287    14472.677    5688.3339     4132.688    6214.5589   -570.00636   -752.54918    853.26521   -7093.2163 
12456000    240.31445    -9183.842   -8267.6537    -9183.842            0    6447.6707     24.85745    25.074661     23.12261    14412.141    8390.4828    4929.2585    6023.2708   -187.45045   -844.66813   -875.22263   -6912.4417 
12457000    251.98726   -9139.0867   -8178.3964   -9139.0867            0    8894.6257    24.730539    25.052548    23.061683    14288.166    11011.932    6833.7963    8838.1486   -785.39881   -198.24933    1300.9143   -6324.9499 
12458000     253.6998   -9157.0776   -8189.8583   -9157.0776            0     6180.994    25.009517     25.14632    22.991732    14459.439    6149.4252     5796.749    6596.8079    265.38285   -340.54811    316.79867   -6886.4345 
12459000    254.67409    -9118.176   -8147.2423    -9118.176            0    7319.9191    24.877881     25.14727    23.015345    14398.648    8643.1433    6004.4134    7312.2006   -92.755077   -130.74079   -352.45762    -6610.136 
12460000    255.03182   -9143.9092   -8171.6116   -9143.9092            0    7203.8591      24.9229    25.106381    22.993086    14387.322    8239.6349    5791.2248    7580.7178   -1510.7612   -96.040819    200.68748   -6660.0667 
12461000    251.72206   -9118.8239   -8159.1446   -9118.8239            0    7624.9794    24.949046    25.067941    22.976074    14369.724    7404.9234    6759.4673    8710.5475    -849.0961    494.75555    1329.5464   -6561.1954 
12462000    247.47729   -9147.6053    -8204.109   -9147.6053            0    6878.3442    24.980113    25.119804    22.964474    14410.105      6729.08    6785.3701    7120.5825    1367.8747    -571.2326    15.592118   -6758.5796 
12463000    248.99652   -9154.9406   -8205.6523   -9154.9406            0    6419.2749    24.891089    25.066676    23.121493    14426.352    7237.7163     5541.244    6478.8644   -5.3300706    619.45451    113.84401   -6855.0783 
12464000    249.11122   -9123.3519   -8173.6263   -9123.3519            0    6556.9916    24.798313    25.171964    23.099483    14419.211    8690.5016    5369.8305    5610.6427    1040.0651   -441.63796    946.75243   -6794.7605 
12465000    242.24788   -9138.2048   -8214.6455   -9138.2048            0    7582.3946    24.930091    25.077235    23.014395    14388.087    6890.1842     7451.782    8405.2177    429.00217    29.808165     737.2925   -6623.5899 
12466000    239.77849   -9146.6398   -8232.4948   -9146.6398            0    5591.2966     25.02574    25.062315    23.065453    14466.721    6389.9916    4658.8884    5725.0097   -616.63827   -467.87831   -795.61735   -7052.8303 
12467000    260.40159   -9155.5037   -8162.7341   -9155.5037            0    6369.8371    25.021534    25.022974    23.065662    14441.715     6381.696    5949.2861    6778.5293   -38.935768    -820.7833   -105.26189   -6821.1343 
12468000    245.74558   -9107.3058   -8170.4116   -9107.3058            0    7805.0601     24.88966    24.924071    23.179404    14379.382    8377.2468    8155.4816     6882.452    44.267171    146.72698    938.39915   -6533.6239 
12469000    251.95158   -9186.1438   -8225.5894   -9186.1438            0     7319.668    24.870787    24.940664    23.149356    14359.405    9235.7987    6500.9372    6222.2681   -1337.7955    48.415573    1331.4331   -6692.7251 
12470000     250.6386   -9153.2625   -8197.7139   -9153.2625            0    6059.4964    25.032703     25.09012    22.946059    14411.812    5564.5953    6244.4691    6369.4248   -733.12636    864.57814   -196.12475   -6924.1198 
12471000    244.58879   -9124.1871   -8191.7031   -9124.1871            0    7053.6371     25.08811    24.902939    23.026439    14386.174    5712.2096    8473.5528    6975.1489   -565.94377   -898.30087    75.025136   -6711.7964 
12472000    246.09525    -9155.955   -8217.7277    -9155.955            0    7981.6048    24.926357    24.928353    23.074914    14338.129    9227.9705    7148.9409    7567.9032    169.38974    1030.0169   -9.6822816    -6548.719 
12473000    251.50929   -9150.5161    -8191.648   -9150.5161            0     6567.019    24.953957     25.05674    23.067065    14423.024    6971.5404    6682.5719    6046.9447   -306.59556   -402.63749   -454.92489   -6810.3083 
12474000    255.31382   -9090.2447   -8116.8719   -9090.2447            0    8397.3534    24.816983     25.03773    23.127915    14370.782    9823.3968     6864.262    8504.4013   -763.77433    773.83218   -590.53234   -6356.9284 
12475000    247.95707   -9157.2528   -8211.9274   -9157.2528            0    6600.3724    24.907563    25.089949    23.064074     14413.42    7705.8964    5892.1938    6203.0271   -686.92347   -602.77409    598.76435   -6824.4964 
12476000    243.36487   -9113.5211   -8185.7032   -9113.5211            0    7547.8082    24.921475     25.13313    22.925503    14359.496    7985.2766    6612.2119    8045.9361   -789.33767    90.133524   -13.095411   -6605.0524 
12477000    248.49859   -9111.0751   -8163.6852   -9111.0751            0    6674.4142    24.975848     25.10473    23.032612    14441.722    7185.2252    6400.3085    6437.7089   -304.92845    178.42079   -257.00879   -6757.9354 
12478000    256.24783   -9138.6509   -8161.7173   -9138.6509            0    5956.5112     24.86959    25.074027    23.220372    14479.777    6995.1469    5559.8833    5314.5035   -312.16208   -69.125858   -1087.1847   -6903.8647 
12479000     242.5073   -9127.0949   -8202.5465   -9127.0949            0    7546.4493    24.970715    24.959877    23.119171    14409.392    7712.2959    7874.2121      7052.84    194.86599   -797.54816    -545.4961   -6616.6888 
12480000    249.76423   -9127.6355   -8175.4203   -9127.6355            0    7418.5575    25.005103    24.984299    23.007509    14373.595    7200.5124    8329.8504    6725.3098   -90.714114   -110.40531    1256.0797   -6620.3116 
12481000     256.5874   -9119.0383   -8140.8101   -9119.0383            0    7782.8428     24.96348    25.051732    22.980544    14371.537    8133.6173    7122.7358    8092.1754    140.45897    -85.14657    415.98975    -6509.572 
12482000    244.47006   -9110.5451   -8178.5137   -9110.5451            0    7113.1934    24.948392    24.934639     23.18166    14420.827    7831.4151    7303.2046    6204.9605   -379.42549    251.77746    1938.1609   -6682.5169 
12483000    251.86603   -9124.2397   -8164.0115   -9124.2397            0    6475.7535    25.033679    25.073632    22.997225    14435.019    5680.9411     6614.692    7131.6275   -560.51011    281.52648   -476.92473   -6800.7363 
12484000     256.0969   -9149.1887   -8172.8305   -9149.1887            0    7146.4548    25.032112    25.021803    23.000837    14406.541     6272.244    7628.5155    7538.6048   -35.495559    714.89202    273.17693   -6671.3272 
12485000    243.67101   -9149.9924   -8221.0074   -9149.9924            0    6401.7586    25.055552    24.960549     23.03536    14406.322    6028.0185    6860.7038    6316.5534   -395.73748   -745.30091   -840.14947   -6875.9888 
12486000    259.39349   -9162.8373    -8173.911   -9162.8373            0    7690.6705    24.890381    24.965004    23.129677    14372.514    7071.7729    7790.1552    8210.0834    583.18829   -282.34032   -634.10396    -6561.882 
12487000    245.33907   -9144.4591   -8209.1146   -9144.4591            0     6793.773    24.957379    25.125014    22.996644    14420.149     7400.772    5264.9003    7715.6466   -281.05946   -1067.3194    521.96739   -6780.3632 
12488000     254.7395   -9115.7102   -8144.5271   -9115.7102            0    4375.3995    25.083274    25.150276    23.111422     14579.87    4076.0462    4138.8194    4911.3328   -942.17859    61.578227   -544.69055   -7214.1752 
12489000    252.83551   -9144.7545   -8180.8302   -9144.7545            0    5354.4495    25.057328    25.057186    23.102631     14505.36     6019.274    4297.5184     5746.556   -735.74297   -1049.7037    648.01516   -7048.1189 
12490000     254.7876   -9117.5028   -8146.1363   -9117.5028            0    6558.7096    25.085186    25.014787    23.018303    14443.998    6012.6356    6446.3056    7217.1877   -568.88279   -667.86063    -1263.164   -6764.5382 
12491000    246.05395   -9116.2876   -8178.2177   -9116.2876            0    6982.1754    25.121459    25.062484    22.919459    14430.233    6060.4363    7314.6338     7571.456   -439.15411   -351.47201   -460.14352   -6708.8179 
12492000     260.1812   -9147.1759   -8155.2465   -9147.1759            0    7724.3887    24.958327    24.970899    23.062868    14373.514    8152.1443    7366.1349    7654.8867   -943.44592    286.72687    886.71835   -6536.0373 
12493000    254.17504   -9154.5792   -8185.5481   -9154.5792            0    7651.1811    25.013584    24.903916     23.06821    14370.023    7715.8684    7740.9919    7496.6831   -821.43619   -385.64212    162.92221   -6582.0744 
12494000    257.86142   -9199.3878   -8216.3025   -9199.3878            0    6159.5174    25.042772    24.912555    23.096911    14409.687    5302.8342    6094.7739    7080.9442    417.42779   -1093.1666    15.218596   -6921.8768 
12495000    257.11094   -9148.4395   -8168.2154   -9148.4395            0    7484.2285    25.081741    24.975983    22.965041    14386.247     7538.006    7368.3829    7546.2967   -493.20014    458.78253    853.54858   -6597.9594 
12496000    254.09832   -9172.1628   -8203.4241   -9172.1628            0    6540.6217    25.017703    25.098581    22.990024     14435.64    6112.1184    5602.1439    7907.6029    2.8376063    -191.9231   -492.70089   -6826.4335 
12497000    253.46724   -9104.5248   -8138.1921   -9104.5248            0    7370.1555     24.91096    25.092689    23.056949    14412.506     7770.749    6897.9552    7441.7623   -93.036745    151.14968   -213.10961   -6589.0472 
12498000    241.01772   -9155.2832   -8236.4137   -9155.2832            0     5682.686    24.910185       25.155    23.047531    14441.945    6837.8075    4288.0879    5922.1625    59.686429   -139.43009   -248.02421    -7039.521 
12499000    246.65849   -9189.2903   -8248.9156   -9189.2903            0    6619.2224    24.870718    25.069409    23.032909    14360.885    7501.3845    5853.4178    6502.8649   -221.29232   -717.57367    275.44065   -6862.5938 
12500000    261.06548   -9133.6263   -8138.3257   -9133.6263            0    8484.1338    24.822723     25.03323    23.037467     14315.32    9778.3953    7807.9836    7866.0227    158.35858   -201.48798   -207.42725    -6367.057 
Loop time of 538.961 on 64 procs for 250000 steps with 1920 atoms

Performance: 80.154 ns/day, 0.299 hours/ns, 463.855 timesteps/s
99.2% CPU use with 64 MPI tasks x 1 OpenMP threads

MPI task timing breakdown:
Section |  min time  |  avg time  |  max time  |%varavg| %total
---------------------------------------------------------------
Pair    | 61.666     | 64.358     | 66.561     |  12.4 | 11.94
Bond    | 0.27091    | 0.28024    | 0.28891    |   0.8 |  0.05
Kspace  | 226.05     | 236.09     | 248.46     |  30.2 | 43.80
Neigh   | 4.7844     | 5.5263     | 6.5198     |  18.0 |  1.03
Comm    | 95.972     | 108.5      | 119.43     |  49.1 | 20.13
Output  | 1.4508     | 1.4523     | 1.459      |   0.1 |  0.27
Modify  | 109.38     | 114.83     | 118.53     |  23.5 | 21.31
Other   |            | 7.931      |            |       |  1.47

Nlocal:        30.0000 ave          34 max          26 min
Histogram: 1 2 10 13 0 14 9 12 2 1
Nghost:        2808.16 ave        2837 max        2780 min
Histogram: 2 7 5 10 11 6 7 7 7 2
Neighs:        10608.4 ave       12042 max        9297 min
Histogram: 1 4 12 9 9 9 9 6 2 3

Total # of neighbors = 678939
Ave neighs/atom = 353.61406
Ave special neighs/atom = 2.0000000
Neighbor list builds = 9972
Dangerous builds = 0

unfix		3
unfix		2
unfix		1

write_data	data.final.${pid}
write_data	data.final.0
System init for write_data ...
PPPM initialization ...
  extracting TIP4P info from pair style
  using 12-bit tables for long-range coulomb (../kspace.cpp:340)
  G vector (1/distance) = 0.37442108
  grid = 30 30 30
  stencil order = 5
  estimated absolute RMS force accuracy = 0.0032740968
  estimated relative force accuracy = 9.8598451e-06
  using double precision FFTW3
  3d grid and FFT values/proc = 3600 512
Last active /omp style is kspace_style pppm/tip4p/omp
WARNING: Not all mixed pair coeffs generated from mixing. Use write_data with 'pair ij' option to store all pair coeffs. (../write_data.cpp:312)

write_restart   restart.lmp.${pid}
write_restart   restart.lmp.0
System init for write_restart ...
PPPM initialization ...
  extracting TIP4P info from pair style
  using 12-bit tables for long-range coulomb (../kspace.cpp:340)
  G vector (1/distance) = 0.37442108
  grid = 30 30 30
  stencil order = 5
  estimated absolute RMS force accuracy = 0.0032740968
  estimated relative force accuracy = 9.8598451e-06
  using double precision FFTW3
  3d grid and FFT values/proc = 3600 512
Last active /omp style is kspace_style pppm/tip4p/omp
Total wall time: 0:09:00
