LAMMPS (30 Jul 2021)
  using 1 OpenMP thread(s) per MPI task
package omp 0
using multi-threaded neighbor list subroutines
echo both

include		in.partitions
variable        pid world 0
include		in.temp
variable        temperature equal 200.21
variable	tempDamp equal 100.0
include		in.pressure
variable        pressure equal -750.0
variable        pressureDamp equal 1000.0 # This is 1 ps
include		in.seed
variable        seed world 745823

units		real
atom_style	full

read_restart	restart.lmp.${pid}
read_restart	restart.lmp.0
Reading restart file ...
  restart file = 30 Jul 2021, LAMMPS = 30 Jul 2021
  restoring atom style full from restart
  orthogonal box = (-0.089654385 -0.086746616 -0.25484419) to (20.089655 20.086748 20.954842)
  4 by 4 by 4 MPI processor grid
  restoring pair style lj/cut/tip4p/long/omp from restart
  restoring bond style harmonic/omp from restart
  restoring angle style harmonic/omp from restart
  972 atoms
  648 bonds
  324 angles
Finding 1-2 1-3 1-4 neighbors ...
  special bond factors lj:    0        0        0       
  special bond factors coul:  0        0        0       
     2 = max # of 1-2 neighbors
     1 = max # of 1-3 neighbors
     1 = max # of 1-4 neighbors
     2 = max # of special neighbors
  special bonds CPU = 2.010 seconds
  read_restart CPU = 2.556 seconds
include 	in.setup
variable	out_freq equal 1000
variable	out_freq2 equal 10000
variable	out_freq3 equal 1000

timestep	2.0

neigh_modify    delay 7 every 1

include		in.tip4p
# This is TIP4P/Ice

# create groups ###
group ox type 2
324 atoms in group ox
group hy type 1
648 atoms in group hy

# set charges - beside manually ###
set group ox charge -1.1794
Setting atom values ...
  324 settings made for charge
set group hy charge 0.5897
Setting atom values ...
  648 settings made for charge

# ### TIP3P Potential Parameters ###
pair_style lj/cut/tip4p/long/omp 2 1 1 1 0.1577 8.5
pair_coeff 1 1*2 0.000 0.000
pair_coeff 2 2 0.21084 3.1668
bond_style  harmonic
bond_coeff  1 450 0.9572
angle_style harmonic
angle_coeff 1 55 104.52
kspace_style pppm/tip4p/omp 1.0e-5
pair_modify tail yes

thermo          ${out_freq}
thermo          1000
thermo_style    custom step temp pe etotal epair emol press lx ly lz vol pxx pyy pzz pxy pxz pyz enthalpy

restart 	${out_freq3} restart.lmp.${pid} restart2.lmp.${pid}
restart 	1000 restart.lmp.${pid} restart2.lmp.${pid}
restart 	1000 restart.lmp.0 restart2.lmp.${pid}
restart 	1000 restart.lmp.0 restart2.lmp.0


include         in.dump
dump            myDump all atom ${out_freq2} dump.water.${pid}
dump            myDump all atom 10000 dump.water.${pid}
dump            myDump all atom 10000 dump.water.0
dump            myDump2 all dcd ${out_freq2} dump.dcd
dump            myDump2 all dcd 10000 dump.dcd
dump_modify     myDump append yes
dump_modify     myDump2 append yes


variable natoms 	equal  "count(all)"                        # NUMBER ATOMS
variable H      	equal  "enthalpy/v_natoms"                 # ENTHALPY-per-atom
variable Vol      	equal  "vol/v_natoms"                 # volume-per-atom
fix AVG all 		ave/time ${out_freq} 1 ${out_freq} v_Vol v_H file vol_enthalpy.dat
fix AVG all 		ave/time 1000 1 ${out_freq} v_Vol v_H file vol_enthalpy.dat
fix AVG all 		ave/time 1000 1 1000 v_Vol v_H file vol_enthalpy.dat


timer           timeout 02:55:00 every 1000
New timer settings: style=normal  mode=nosync  timeout=02:55:00

fix 		1 all shake 1e-6 200 0 b 1 a 1
       0 = # of size 2 clusters
       0 = # of size 3 clusters
       0 = # of size 4 clusters
     324 = # of frozen angles
  find clusters CPU = 1.214 seconds
fix             2 all nph aniso ${pressure} ${pressure} ${pressureDamp}
fix             2 all nph aniso -750 ${pressure} ${pressureDamp}
fix             2 all nph aniso -750 -750 ${pressureDamp}
fix             2 all nph aniso -750 -750 1000
fix             3 all temp/csvr ${temperature} ${temperature} ${tempDamp} ${seed}
fix             3 all temp/csvr 200.21 ${temperature} ${tempDamp} ${seed}
fix             3 all temp/csvr 200.21 200.21 ${tempDamp} ${seed}
fix             3 all temp/csvr 200.21 200.21 100 ${seed}
fix             3 all temp/csvr 200.21 200.21 100 745823


run             250000
PPPM initialization ...
  extracting TIP4P info from pair style
  using 12-bit tables for long-range coulomb (../kspace.cpp:340)
  G vector (1/distance) = 0.37138155
  grid = 24 24 25
  stencil order = 5
  estimated absolute RMS force accuracy = 0.003534168
  estimated relative force accuracy = 1.0643042e-05
  using double precision FFTW3
  3d grid and FFT values/proc = 2366 288
Last active /omp style is kspace_style pppm/tip4p/omp
Neighbor list info ...
  update every 1 steps, delay 7 steps, check yes
  max neighbors/atom: 2000, page size: 100000
  master list distance cutoff = 10.8154
  ghost atom cutoff = 10.8154
  binsize = 5.4077, bins = 4 4 4
  1 neighbor lists, perpetual/occasional/extra = 1 0 0
  (1) pair lj/cut/tip4p/long/omp, perpetual
      attributes: half, newton on, omp
      pair build: half/bin/newton/omp
      stencil: half/bin/3d
      bin: standard
Per MPI rank memory allocation (min/avg/max) = 9.224 | 9.228 | 9.235 Mbytes
Step Temp PotEng TotEng E_pair E_mol Press Lx Ly Lz Volume Pxx Pyy Pzz Pxy Pxz Pyz Enthalpy 
19250000    201.33468   -4800.3767   -4412.0858   -4800.3767            0    349.51276     20.17931    20.173494    21.209686    8634.1916   -122.54387    1819.5888   -648.50665    -614.9223   -703.39707    654.42948   -4368.0749 
19251000    198.36401   -4826.7513   -4444.1896   -4826.7513            0   -103.80756     20.06837    20.295561    21.201043    8635.1602   -67.178475    274.01811   -518.26231    141.38029     438.0938   -708.70856   -4457.2626 
19252000    206.25026   -4836.3954   -4438.6244   -4836.3954            0   -56.387861    20.226741    20.141923    21.060818    8580.2922    532.07998    766.24349   -1467.4871   -24.401937    -1461.661    235.63351   -4445.6805 
19253000    198.10774   -4831.3283   -4449.2609   -4831.3283            0   -31.690482    20.210722    20.147122    21.240397    8648.8325    415.43584    11.142535   -521.64982   -197.96517   -394.05837   -314.86541   -4453.2582 
19254000    189.72263   -4841.7562   -4475.8601   -4841.7562            0    243.94336    19.995917    20.264076    21.054232     8531.149    967.34916   -625.54033    390.02125   -265.69698    647.47815   -320.12778   -4445.5092 
19255000    197.25944   -4817.8673   -4437.4359   -4817.8673            0   -1441.2919    20.271547    20.262228    21.214618    8713.8344    576.15092   -3410.3927   -1489.6339     340.8915   -652.04777    232.40347   -4620.5986 
19256000     210.3743   -4833.8229   -4428.0983   -4833.8229            0   -2901.1324    20.213599    20.255675    21.429137    8773.9479   -4079.7179   -1643.9653   -2979.7139   -587.23839   -1493.7301    183.07991   -4799.3244 
19257000    203.97887   -4828.0624    -4434.672   -4828.0624            0   -564.17425    20.186314    20.134471    21.216051    8623.0676    502.04078   -1423.3362   -771.22731    854.00645    1035.3356   -550.10826   -4505.6218 
19258000    201.35096   -4824.5482   -4436.2259   -4824.5482            0   -1519.3624    20.322236    20.286639    21.100602    8699.1422   -1483.7047   -2290.3788   -784.00375   -653.17232    175.27451   -912.55296   -4628.9845 
19259000    213.05434   -4831.2538   -4420.3605   -4831.2538            0     -429.507    20.286831    19.936328    21.565255    8721.9576   -474.49305     288.3225   -1102.3504   -401.43031    791.59552   -60.854204   -4474.9942 
19260000    206.84141   -4826.1976   -4427.2865   -4826.1976            0   -1281.4844    20.304725    20.149753    21.222947    8683.0547    437.29474   -2250.6397   -2031.1082    39.079861    1347.4746     438.6148   -4589.5653 
19261000     206.6742   -4851.6164   -4453.0278   -4851.6164            0   -1610.9325     20.33722     20.11559     21.27051    8701.6632    -1890.715   -1586.1274   -1355.9551   -534.25285    506.26557    507.16344   -4657.4629 
19262000      203.249   -4794.2787   -4402.2959   -4794.2787            0   -635.04675    20.038697    20.250273    21.258661    8626.5324   -1403.9547    7.7869177   -508.97243   -149.68277    150.56392    677.48464   -4482.1906 
19263000    202.34366   -4791.0362   -4400.7994   -4791.0362            0   -1195.6896    20.294233    20.351511    21.291419    8793.7459     -1323.22   -1595.5014   -668.34756   -99.135172   -386.36608    -68.19574   -4554.1439 
19264000      196.968   -4830.5239   -4450.6545   -4830.5239            0     1039.386     20.13443    20.019484    21.345908    8604.1279    246.34782    1923.8988    947.91134   -486.03853   -701.23115    1615.1731   -4320.2299 
19265000    203.72198   -4839.8291   -4446.9341   -4839.8291            0    408.21384    20.322957    20.191819     20.88075    8568.5716    405.01431   -57.310007    876.93723   -736.55146     112.7294   -503.07852   -4395.9222 
19266000     196.9618   -4820.9611   -4441.1037   -4820.9611            0   -1381.1502    20.238373     20.24084    21.291238    8721.7781   -1342.2003   -2304.7777   -496.47275   -82.298335   -129.59436    88.790232   -4616.7835 
19267000     204.0577   -4835.5933   -4442.0509   -4835.5933            0   -1022.5622     20.12902    20.135121    21.323191    8642.2945   -1610.2791   -364.78622   -1092.6214   -628.36798   -1135.1889   -493.97097   -4570.9336 
19268000    189.60309   -4828.8958   -4463.2303   -4828.8958            0    1057.1129    20.085377    20.255664    20.961482     8528.025    940.80127    821.81761    1408.7199     47.08695   -724.64334   -127.72777   -4331.7545 
19269000    200.80656   -4833.7539   -4446.4815   -4833.7539            0   -1460.3617    20.216798    20.176064    21.348552    8707.9767   -642.60862   -2642.9806   -1095.4959   -406.43293    208.26068   -394.35203   -4631.9429 
19270000    201.06764   -4833.8954   -4446.1196   -4833.8954            0    1166.9603    20.116535    20.100775    21.362356    8638.0383    1824.2083    427.25872    1249.4139   -895.87391    808.21127   -463.90336   -4299.1095 
19271000    196.61542   -4842.3615   -4463.1722   -4842.3615            0   -1105.5049    20.147526    20.241111    21.236667    8660.4892    -614.3943   -1350.6437   -1351.4768   -394.92228    1318.3168   -911.54253   -4602.8022 
19272000    199.30382   -4826.7815   -4442.4073   -4826.7815            0   -430.67413    20.347071    20.021373    21.294301    8674.7936   -2117.5901    1286.6023   -461.03449    709.78664   -663.43046   -243.73076   -4496.8932 
19273000    198.57198   -4842.1058    -4459.143   -4842.1058            0   -1491.6589    20.268212    20.268913    21.211188    8713.8661   -1705.5333   -2620.9891   -148.45439   -347.68101    269.23974    -137.6168   -4648.7072 
19274000    208.07583   -4803.9218   -4402.6301   -4803.9218            0   -224.50818    20.276349    20.153957     21.27989    8695.9985    -950.9306   -232.97976    510.38582     53.04966   -451.06048   -1072.7129   -4431.1027 
19275000    201.52864   -4809.5844   -4420.9194   -4809.5844            0   -1053.1381    20.213697    20.228854    21.230969    8681.3415   -1865.2905    687.99654   -1982.1204   -580.98004    518.55845    350.80936   -4554.2556 
19276000    205.99616   -4818.1326   -4420.8516   -4818.1326            0    545.62098    20.197712    20.046256    21.281666    8616.7022    501.29344    826.54719    309.02231   -499.54505    234.06439    79.428731   -4352.2858 
19277000     208.1704   -4813.2284   -4411.7542   -4813.2284            0   -71.120649    20.148701    20.108834    21.511737    8715.8434   -648.86712    1266.6281   -831.12289    22.126299    174.39186    451.89162   -4420.7945 
19278000    193.63122   -4829.4308   -4455.9967   -4829.4308            0   -140.23889    20.195529    20.209016    21.106448    8614.2122   -585.71227    446.77578   -281.78018   -809.78553    61.399705    964.74644   -4473.6148 
19279000    194.24888    -4807.647   -4433.0217    -4807.647            0    -624.5087    20.393827    20.094098    21.115781    8653.1532   -1897.8332   -204.53819    228.84533     1.689671    74.455051   -177.79179   -4511.8331 
19280000    204.93621   -4823.9232   -4428.6865   -4823.9232            0   -170.46972    20.171244    20.107654    21.414415    8685.6092     446.7407   -297.14709   -661.00276    169.38014    259.74234   -601.94729     -4450.28 
19281000    197.71203   -4795.8153   -4414.5111   -4795.8153            0   -84.728331    20.183406    20.188555    21.289017     8674.717    635.98315   -791.61465   -98.553494   -16.688075    233.72816    395.69533   -4425.2302 
19282000     202.7387   -4822.4582   -4431.4596   -4822.4582            0    648.86642    20.145159    20.324908    20.933743    8571.2895    1912.5272   -191.39717    225.46919   -1129.9907    653.07551   -792.82255    -4350.349 
19283000    206.43197   -4836.8267   -4438.7053   -4836.8267            0   -1041.9238    20.196045    20.139784    21.325792    8674.1377   -1758.0179    101.34917   -1469.1027    201.83805    772.38492   -59.795033   -4570.5122 
19284000    205.11165   -4854.0575   -4458.4824   -4854.0575            0   -226.71535    20.243715    20.113781    21.162898    8617.0588   -1005.6668   -181.55592    507.07665    957.63047   -686.32199    514.62679    -4486.974 
19285000    195.12212   -4858.4571   -4482.1477   -4858.4571            0    -834.1631     20.22577     19.97209    21.361185    8628.8699   -1327.2163   -5.3065237   -1169.9665   -150.74288   -275.31763    115.08078   -4587.1215 
19286000    193.55528   -4835.3156   -4462.0279   -4835.3156            0   -827.23458    20.259312    20.305804     21.09366    8677.5442   -1596.8563   -1154.6725    269.82513   -68.872189    261.97452    419.14599    -4566.717 
19287000    196.30975   -4826.2128   -4447.6129   -4826.2128            0   -563.90608    20.284536    20.239231    20.938622    8596.2134    69.362278   -984.64066   -776.43985     223.8026    1076.0055    166.92957   -4518.3081 
19288000    201.76596   -4815.2694   -4426.1468   -4815.2694            0   -875.37643    20.195786    20.169189    21.378405     8708.122   -1720.9976    778.32862   -1683.4603   -58.081891   -724.55788    70.501357   -4537.3187 
19289000    199.44944   -4846.3259   -4461.6709   -4846.3259            0   -1580.9357     20.32906    20.166611    21.123655    8660.0277   -2880.5434   -29.596958   -1832.6667     -269.366   -54.762587    1228.0165   -4661.3393 
19290000    199.97631    -4833.696   -4448.0248    -4833.696            0   -638.58593    20.341748    20.076706    21.035691    8590.8771    177.29125   -912.27503    -1180.774   -249.12945   -379.55992    492.08199   -4528.0327 
19291000    200.78828   -4823.1408   -4435.9037   -4823.1408            0   -857.60212    20.051732    20.273524    21.282728    8651.8388   -1702.4502   -1124.9179    254.56175   -307.71094   -613.44585    195.66598   -4544.1144 
19292000    203.82828   -4841.6654   -4448.5654   -4841.6654            0   -742.37529    20.268252    20.077775     21.09398    8584.0135   -2323.3536    879.83252   -783.60479   -75.534021   -741.62117   -763.92292   -4541.5027 
19293000    203.35598     -4817.07   -4424.8809     -4817.07            0   -1067.6025    20.429275    20.066945    21.422094    8782.0547   -2795.5395    970.88027   -1378.1482   -97.042167    575.28682    234.97386   -4561.6165 
19294000    192.59673   -4838.2779   -4466.8389   -4838.2779            0    -494.0138    20.210008    20.231097    21.153205    8648.9245   -417.89223   -1626.3636    562.21444   -290.57316   -112.30761    229.46215   -4529.1517 
19295000    194.98992   -4845.5488   -4469.4943   -4845.5488            0   -1377.7649     20.20157    20.455423    20.946065    8655.5771   -79.867918   -4049.7233   -3.7034453   -160.59527    474.22438    573.59233   -4643.4133 
19296000    200.84444   -4844.1464    -4456.801   -4844.1464            0   -1649.4724    20.044515     20.36864    21.183917    8648.9594   -912.22843   -2277.2796   -1758.9091   -296.74524    501.66625   -1234.1977   -4664.8592 
19297000    207.02629   -4845.7814   -4446.5138   -4845.7814            0    574.46005    20.134115    20.147536    21.302978     8641.613     800.8595    1124.5981   -202.07747   -393.42784    828.46331    439.62625   -4374.1151 
19298000    192.29308   -4840.0085   -4469.1551   -4840.0085            0     -641.938    20.274733     20.20894    21.095162    8643.3391   -1269.9911   -98.375435   -557.44743   -57.003259    368.60249   -1002.4765   -4550.0741 
19299000    203.13624   -4826.2489   -4434.4836   -4826.2489            0    454.00144    20.360494    20.032612    21.165918     8633.025    215.15027   -351.31393     1498.168   -82.094505   -167.40179   -10.707468   -4377.3231 
19300000    193.39391   -4836.2254    -4463.249   -4836.2254            0    293.74579    20.115885    20.327957    21.118719    8635.7575    39.767378    267.45612    574.01387    180.29314    84.958296   -676.09817   -4426.2536 
19301000    217.07707   -4804.4761   -4385.8247   -4804.4761            0    -1919.077    20.340392    19.969633    21.510803     8737.477   -1624.0821   -1614.8616   -2518.2874   -399.41736    176.26885    307.62303   -4630.3672 
19302000     194.7414   -4836.8445   -4461.2693   -4836.8445            0    293.08634    20.315088    20.025783    21.111102    8588.5354   -604.32904    776.81368    706.77439   -526.45753    924.60756   -54.983821   -4424.5588 
19303000    199.52553   -4850.8837   -4466.0819   -4850.8837            0   -1492.7936    20.280896    20.184292    21.279896    8711.0428    -1774.924   -946.13126   -1757.3255   -204.90005    604.55657   -1327.0648   -4655.7288 
19304000    200.47437   -4806.0467    -4419.415   -4806.0467            0   -1076.6379    20.368566    20.222691    21.140784    8708.0414   -1701.6153    -1205.697   -322.60154   -160.78927   -410.13723    453.95138   -4556.1457 
19305000     203.3739   -4833.5207   -4441.2971   -4833.5207            0   -119.16246    20.115797    20.216683    21.263167    8647.1919   -416.78555    361.86298   -302.56482   -22.648155   -456.06859    113.74433   -4456.3247 
19306000    196.63905    -4782.897   -4403.6621    -4782.897            0   -137.23938     20.07747    20.354636    21.261712    8689.0154   -875.83163    922.95857   -458.84508    242.83942    -822.4358   -501.53022   -4421.0531 
19307000    188.17137   -4831.9015   -4468.9972   -4831.9015            0    39.390716    20.234787    20.136619     21.12699    8608.4071    23.665272   -295.39384    389.90071   -11.149297    780.14196   -69.205318   -4464.0519 
19308000    200.48352   -4836.5109   -4449.8616   -4836.5109            0   -398.80757    20.277845     20.09628    21.080307    8590.4202   -1192.9732   -24.478523    21.028968   -161.29006   -99.772682    86.314367   -4499.8252 
19309000    204.83958   -4838.6313   -4443.5809   -4838.6313            0   -1265.1613    20.235919    20.121968      21.4484    8733.4992   -977.64051   -856.35357   -1961.4897   -529.72309   -590.74808    275.22308   -4604.7234 
19310000    195.63804   -4820.4531   -4443.1486   -4820.4531            0   -345.58003    20.225004    20.105555    21.165129    8606.4808   -352.57159   -809.86569    125.69719    266.03892    1338.2489    711.20277   -4486.5247 
19311000    203.06944   -4823.1137   -4431.4772   -4823.1137            0    645.86361     20.19741    20.079252    21.307593    8641.2704    1146.3848    244.99835    546.20768    146.12429   -187.69843    2012.3101   -4350.0829 
19312000    209.58728   -4812.2791   -4408.0724   -4812.2791            0    -312.5275    20.314009    20.182663    21.164402    8677.2098    189.79674   -1513.6986    386.31939   -225.04495    573.68495   -657.42321   -4447.6222 
19313000    206.65268   -4820.9459   -4422.3988   -4820.9459            0    479.65645    20.094737    20.150006    21.311239     8629.114    670.54482    1206.5357   -438.11113   -361.31664    832.25571    64.713301   -4362.0356 
19314000    201.04953   -4829.5682   -4441.8272   -4829.5682            0   -834.76441    20.267942    20.223715    21.128012    8660.2256   -475.72795   -1398.5206   -630.04467   -568.59035   -19.507483    239.24455   -4547.2584 
19315000    193.47744   -4824.7751   -4451.6376   -4824.7751            0   -1357.8568    20.288976    20.290552    21.065585    8672.1649   -506.97846   -2885.3713   -681.22072   -246.73875   -175.40012    330.17351    -4623.372 
19316000    204.23964    -4798.099   -4404.2057    -4798.099            0    -1309.511    20.180851    20.138963    21.349852    8677.0371   -1276.5165      -719.86   -1932.1565    115.10795   -14.001085   -297.62729   -4569.9187 
19317000    188.19081   -4818.8294   -4455.8876   -4818.8294            0    837.59989    20.143569     20.34109    20.902042    8564.4477     1898.229   -1681.4264    2295.9971   -273.13048    33.223823   -1250.3085   -4351.2683 
19318000    196.62504   -4821.4981   -4442.2902   -4821.4981            0   -1506.5152     20.03269    20.460834    21.401226     8772.053    175.87929   -2186.2433   -2509.1814   -88.207471    816.71638    -1488.184   -4635.0208 
19319000    190.52819   -4840.1078   -4472.6582   -4840.1078            0   -331.69278    20.123121    20.142756    21.288142    8628.8316    244.64655    82.630817   -1322.3557    218.11759     723.9531    932.67267   -4514.3993 
19320000    200.01709   -4820.1195   -4434.3697   -4820.1195            0   -1125.0022     20.20044    20.305462    21.078826    8646.0976   -1022.6932   -1852.3792   -499.93435    477.62456    33.699791   -702.05029   -4576.2263 
19321000    209.07056   -4835.6865   -4432.4764   -4835.6865            0    -516.6891    19.979824    20.302532    21.385131    8674.6861    1255.5139   -1915.1655   -890.41577   -154.38033   -620.65312     250.0518   -4497.8434 
19322000    207.07754   -4794.6162   -4395.2498   -4794.6162            0   -423.07108    20.179728    20.241326    21.162272    8644.0357    301.14558   -1581.6672    11.308396     -32.5085    847.42598    1219.5796    -4448.584 
19323000    206.81195   -4867.8959   -4469.0416   -4867.8959            0   -803.01102    20.111993    20.216383    21.209914    8623.7761    2015.6706   -2332.7517    -2091.952   -1076.2091   -230.20734   -70.097859   -4570.0354 
19324000    198.89702   -4848.5141   -4464.9245   -4848.5141            0   -1282.8992    20.307093    20.085784    21.267804    8674.7943   -1218.9296   -1058.7109   -1571.0571    -515.0902    14.671356    -355.1742   -4627.2278 
19325000    194.70671   -4825.7664   -4450.2582   -4825.7664            0   -1403.2752    20.434892    20.184028    20.937273    8635.7544   -2072.4752   -555.12164   -1582.2287    84.304203     363.3245   -50.130552   -4626.9917 
19326000    204.70829   -4837.5384   -4442.7412   -4837.5384            0   -1190.8116    20.191816    20.131198    21.320926    8666.6458   -1413.3572   -1111.9676   -1047.1101   -375.41656    1048.3699    321.17549   -4593.2528 
19327000    195.17576   -4860.0603   -4483.6474   -4860.0603            0   -1153.5505     20.37362    20.168358    21.139784    8686.3891   -1628.8929   -1392.4212   -439.33742   -549.76086   -388.13388   -716.72058   -4629.7816 
19328000    210.51621   -4820.8529   -4414.8547   -4820.8529            0   -1230.6373    20.174949    20.273874    21.174609    8660.9311   -1138.0712   -1493.3003   -1060.5404   -364.75135    279.92367    1000.6789   -4570.2975 
19329000    193.81868   -4831.2644   -4457.4688   -4831.2644            0    560.92553    20.158451    20.121075    21.279827    8631.3042    907.93298     137.7913    637.05232   -1005.0664   -692.53652    150.52985   -4386.8602 
19330000     201.2329   -4814.8813   -4426.7867   -4814.8813            0    378.40478    20.173134    20.227305    21.218316    8658.0946    1940.5214   -1772.4615    967.15445    27.910894    909.09242    648.38053   -4379.0058 
19331000    203.94299   -4824.3797   -4431.0585   -4824.3797            0   -1895.8215    20.307648    20.227674     21.09334    8664.6479   -3357.0609   -2407.8807    77.476986   -161.39491   -222.09627    293.62557    -4670.624 
19332000    202.21275   -4852.8992   -4462.9149   -4852.8992            0   -920.81943    20.327448    20.040271    21.338099    8692.4493   -4.7618906   -29.378882   -2728.3175   -72.995556   -984.33535    394.96918   -4579.6476 
19333000    202.00243   -4817.7813   -4428.2026   -4817.7813            0   -875.30807    20.308382    20.098879    21.261173    8678.2945    -584.1493   -967.92647   -1073.8484    248.77088    435.09767    936.84722   -4538.9851 
19334000    207.42322   -4813.5139   -4413.4808   -4813.5139            0   -14.508384    20.259653    20.262728    20.984848    8614.6124    -654.1598   -690.24465    1300.8793   -142.80518    251.04637    628.28353   -4415.3035 
19335000    190.30932   -4822.7268   -4455.6993   -4822.7268            0    -998.6546    20.283236    20.007023    21.308381    8647.0938   -2133.9343    -479.4291   -382.60038    298.40075    567.35942    95.433232   -4581.6386 
19336000     198.0664   -4832.7447    -4450.757   -4832.7447            0   -1818.4728    20.438737    20.169858     21.15182     8719.762   -2276.8326   -1574.4416   -1604.1442   -103.84128    61.680679   -878.61919     -4682.01 
19337000    191.50158   -4819.5338   -4450.2069   -4819.5338            0    889.92286    20.064116    20.105256    21.356543    8615.1053    1035.0861    1429.3146    205.36794   -703.98143   -892.98129   -630.43499   -4338.3948 
19338000    198.98892   -4823.9586   -4440.1917   -4823.9586            0   -1375.4784    20.274887     20.28898    21.069993    8667.2844   -3076.3106    -367.2115   -682.91309   -926.18521    450.06626   -253.47497   -4614.0569 
19339000    184.37223   -4837.2107   -4481.6334   -4837.2107            0    308.99477    20.214919     20.01219    21.240041    8592.5482    446.89969    -377.2918    857.37643    749.78822    349.37331    993.72362   -4442.9121 
19340000    191.31136   -4823.5162   -4454.5562   -4823.5162            0   -1455.8086    20.273362    20.210099    21.295919    8725.5056   -1424.7734   -1828.0793    -1114.573   -1.9659996    225.87197   -60.926087   -4639.8115 
19341000    201.93628   -4843.3183   -4453.8672   -4843.3183            0   -25.576399    20.274883    20.130707    21.070596    8599.9157    644.06883   -939.98096    219.18294     223.5704    275.88151    -29.86953   -4457.0751 
19342000    202.78425   -4837.3783   -4446.2918   -4837.3783            0   -349.98054    20.192252    20.092199    21.321992    8650.4757    162.05983   -557.97154    -654.0299   -16.520938   -1182.1331   -165.58378   -4490.4447 
19343000    202.91572   -4815.3405   -4424.0004   -4815.3405            0   -1016.9355    20.177401    20.240602    21.331207    8711.7233   -2266.1342    1117.5733   -1902.2457   -230.16082     -256.666    642.67214   -4553.2037 
19344000    202.95269   -4838.0655   -4446.6542   -4838.0655            0    248.43515    20.282853    20.180282    20.818037    8521.1076   -489.63085   -295.91217    1530.8485    148.01002   -102.51006    703.41218   -4415.7807 
19345000    188.49748   -4842.2518   -4478.7186   -4842.2518            0   -281.99446     20.22821    20.189126    21.233438    8671.5212   -1372.3726    670.04689   -143.65761   -56.714691    588.17122     743.1271   -4514.3811 
19346000    215.73077   -4849.2823   -4433.2273   -4849.2823            0   -975.91569    20.183389     20.18139    21.236647    8650.2988   -901.54295   -529.74825   -1496.4559    -642.9054   -74.461827    1502.1854   -4556.3447 
19347000    204.09591   -4835.2694   -4441.6533   -4835.2694            0   -752.36747    20.336271    20.191627    21.082766    8657.0556   -661.98585   -842.04404    -753.0725   -411.87453   -164.15344    64.794442   -4536.6429 
19348000    193.54043    -4819.701    -4446.442    -4819.701            0   -590.64497    20.233192    20.140987    21.179238    8630.8878   -1262.9001   -432.67663   -76.358192   -368.84451   -57.032879   -434.05422    -4520.788 
19349000    205.60304   -4846.1784   -4449.6556   -4846.1784            0   -51.157017    20.084133    20.172389    21.235191    8603.3301   -824.25214    401.46693    269.31417     295.4619    289.06636    35.002406   -4456.0743 
19350000    196.88429   -4825.5991   -4445.8912   -4825.5991            0   -201.45329    20.354865    20.170353    20.991439    8618.3463   -316.09962   -269.39567   -18.864593    316.00986    718.19918   -1525.3455   -4471.2118 
19351000    189.06727   -4840.9129   -4476.2807   -4840.9129            0   -940.02712    20.139108    20.178019    21.301713    8656.3198    -498.4574   -1461.1942   -860.42977   -165.39446     135.7271    1493.5121   -4594.9531 
19352000    190.95246   -4811.0912   -4442.8234   -4811.0912            0    421.84606    20.162205    20.079553    21.195359    8580.9003    437.12528    879.82232    -51.40943   -626.87746   -770.64101   -235.02252    -4390.032 
19353000    201.99195   -4815.5594   -4426.0009   -4815.5594            0   0.71502034    20.243066    20.306804    21.007461    8635.5784    342.05486   -1266.3294    926.41963   -115.80153    452.81217    890.85295   -4425.9108 
19354000     209.0882     -4833.94   -4430.6958     -4833.94            0   -154.67007    20.119164    19.970874    21.517803    8645.7947     633.1839    -67.45786   -1029.7362   -414.58831   -344.94789    713.85655   -4450.1981 
19355000    219.54704   -4830.8027   -4407.3878   -4830.8027            0   -762.01664    20.290602    20.206027    21.153483    8672.7684   -169.41343   -1251.0415   -865.59505   -63.705887   -413.28903    293.57638   -4503.7703 
19356000    199.85204   -4852.1922   -4466.7608   -4852.1922            0    -695.5566    20.203512    20.173628    21.076569    8590.3488   -933.66369   -604.61116   -548.39494   -648.78544    58.608981    79.099342   -4553.9011 
19357000    209.67489   -4847.4982   -4443.1225   -4847.4982            0   -758.71083     20.19537    20.143109    21.447307    8724.7115    298.36607   -1484.2878   -1090.2108    711.24137   -18.467929    795.57055   -4539.6616 
19358000    196.59157   -4807.6246   -4428.4812   -4807.6246            0   -1374.5667    20.183923    20.310657    21.253178    8712.7135   -1698.7049   -906.00853   -1518.9867    9.2714009    1267.8254   -846.51016   -4603.1419 
19359000    203.43638    -4840.245   -4447.9009    -4840.245            0    364.74524    20.248511    20.143117    21.107896    8609.2378   -1536.8682    857.82201    1773.2819   -331.54037    779.55434    1102.3516   -4402.1046 
19360000    207.62865   -4821.5032   -4421.0739   -4821.5032            0   -1438.0312    20.177269    20.234546    21.345953    8715.0799   -966.82324   -964.01346    -2383.257   -165.34979   -76.006497      882.603   -4603.8484 
19361000    214.75722   -4825.5605   -4411.3832   -4825.5605            0   -646.85773    19.929073    20.259712    21.402243    8641.3114    1139.1216   -2698.0635   -381.63131    588.28962    271.25079    381.08984   -4492.9032 
19362000    193.85551   -4801.0062   -4427.1396   -4801.0062            0   -1401.5024    20.316345     20.32107    21.029459    8682.0091   -1292.5976   -1635.4243   -1276.4852    10.136017    157.12925    1376.3552   -4604.5953 
19363000    188.10301   -4830.2682   -4467.4957   -4830.2682            0    725.89943    20.017462    20.090804    21.423625     8615.873    1642.2208    1004.3717   -468.89429   -203.24573    339.55377     -119.926   -4376.2837 
19364000    195.85697   -4814.9033   -4437.1766   -4814.9033            0    222.13307     20.22597    20.242122      20.9353    8571.2586    1095.8165   -640.42467    211.00739   -51.900566    10.260976   -1080.1486   -4409.4093 
19365000    204.27867   -4838.0804   -4444.1118   -4838.0804            0    -815.2933    20.169134    20.210912    21.359459     8706.897   -139.54075   -905.11812    -1401.221   -139.63284   -444.21311    1182.4252   -4547.6387 
19366000    195.03441   -4840.8276   -4464.6874   -4840.8276            0    -1108.702    20.225695     20.28666     21.24223    8715.9375   -525.35606    -2253.422   -547.32806   -259.74987    788.57852    163.79791   -4605.6178 
19367000    197.72991   -4850.6083   -4469.2695   -4850.6083            0    17.763424    20.231624    20.288166    20.919042    8586.4832     718.8399   -1238.5519    573.00232    512.50916    385.00248    412.63266   -4467.0451 
19368000    190.47212   -4824.4786   -4457.1371   -4824.4786            0   -521.73299    20.052316     20.23867    21.205482    8605.8674   -62.842106   -773.12406    -729.2328   -660.93416    566.28055    192.88493   -4522.6187 
19369000    199.40132    -4849.732   -4465.1698    -4849.732            0   -227.27894    20.429003    20.171166    21.167913    8722.8061   -375.99381   -446.76202    140.91901    238.55003   -781.16176   -596.90793   -4494.0827 
19370000     204.1561   -4836.1756   -4442.4434   -4836.1756            0    -387.8801    20.183853    20.186192    21.084615    8590.6127    23.859938   -993.62938   -193.87086   -72.594777    281.59235   -970.94242    -4491.039 
19371000    190.49162   -4836.7324   -4469.3532   -4836.7324            0    268.84897    20.182542    20.261878    21.160864    8653.4433    454.60082    258.61785    93.328252   -276.03982     1122.472    229.36566   -4435.4241 
19372000    204.12712   -4827.2706   -4433.5943   -4827.2706            0    222.90934    20.274263    20.053889     21.10335    8580.1538    114.63065    93.238676    460.85871   -933.37598    71.776761    334.63943   -4405.7011 
19373000     203.5683   -4834.8579   -4442.2593   -4834.8579            0   -733.27302    20.221433    20.192304      21.3648     8723.618   -539.52876   -1688.4219    28.131568   -753.45727   -705.00882     10.30727     -4535.55 
19374000    197.57275   -4820.0539   -4439.0182   -4820.0539            0    24.546505    20.080006    20.260731    21.157962    8607.8121    882.61202    -520.3695   -288.60301   -321.22324    768.07604    571.90284   -4435.9368 
19375000    211.12303   -4821.7919   -4414.6233   -4821.7919            0   -56.308365    20.275925    20.112759    21.210635    8649.7986   -336.78018    440.71348   -272.85839    86.342505    819.50114    433.45215   -4421.7266 
19376000    194.89337   -4840.7216   -4464.8534   -4840.7216            0   -1369.8713    20.265732    20.382379    21.018107    8681.8198   -980.42698   -902.89596    -2226.291   -80.123547    868.84647    268.68555   -4638.3002 
19377000    191.80904   -4820.3719   -4450.4521   -4820.3719            0    1080.4798    20.143744    20.192681    21.105165    8584.6565     743.2709    1235.4177    1262.7507   -145.85732   -220.22325   -867.32093   -4315.1777 
19378000    193.33575   -4821.5157   -4448.6514   -4821.5157            0   -1369.9538    20.344444    20.147027    21.354362    8752.7274   -174.23925   -2375.0352    -1560.587    511.96484   -1282.2201   -792.81853   -4623.5254 
19379000    203.81331   -4802.7699   -4409.6988   -4802.7699            0    -281.1188    20.142351     20.24694    21.092842    8602.1032    1722.4701   -2415.4325   -150.39399   -489.73848    655.95659   -1151.4451    -4444.966 
19380000    186.82639   -4838.9373   -4478.6269   -4838.9373            0   -2338.7517    20.145629    20.172792    21.481316    8729.8689   -1163.7856   -2057.1772   -3795.2924    26.839812   -536.25735   -968.46159   -4776.3879 
19381000    184.97117   -4831.0419   -4474.3094   -4831.0419            0   -933.75003    20.380146    20.071853     21.06927    8618.7496   -1345.5024   -873.15062   -582.59712     486.3277    1090.9826    31.342791   -4591.6777 
19382000    203.57055   -4813.6217   -4421.0188   -4813.6217            0    -747.7052    20.085821    20.317205     21.08306    8603.7383   -146.18445   -1085.2665   -1011.6646    236.87927    -710.2999   -885.75233   -4514.8383 
19383000     207.3031   -4817.2215     -4417.42   -4817.2215            0   -1239.6168     20.22592    20.122267    21.292784    8665.9794    232.40412   -2410.1255    -1541.129     93.45773   -468.17943    -454.5096   -4574.0883 
19384000    197.61306    -4836.777   -4455.6636    -4836.777            0   -320.96214    20.220142    20.190727    21.354998     8718.378   -993.99417    571.86504   -540.75729    205.19684    1199.4269    720.67294   -4496.4735 
19385000    207.82057   -4849.7686   -4448.9692   -4849.7686            0   -394.94879    20.180826    20.214952    21.104803    8609.7978   -1438.4153   -82.243584    335.81248   -592.74574    735.12907    94.934919   -4498.5609 
19386000    208.50991   -4845.8628   -4443.7339   -4845.8628            0   -987.10143    20.285145    20.098414    21.297808    8683.1001   -143.27095   -1367.4245   -1450.6088   -57.408656    261.57566   -286.70916   -4568.7346 
19387000    198.18759   -4841.3845    -4459.163   -4841.3845            0    -624.6985    20.321704    20.033068    21.184809    8624.4641   -738.53622     38.30032   -1173.8596   -129.22815    696.38047   -834.81495   -4537.7369 
19388000    192.61807   -4822.4698   -4450.9896   -4822.4698            0   -330.87424    20.272455    20.045783    21.341944    8672.8804   -20.486911   -921.04989   -51.085901   -258.48306    18.587743   -786.99155   -4492.8403 
19389000     192.0328   -4851.3935   -4481.0421   -4851.3935            0    783.10712     20.29492    20.177517     21.06256     8625.141    130.08398    668.08447    1551.1529   -22.522229   -1718.7808   -182.03007    -4382.536 
19390000    200.76963   -4816.3061   -4429.1049   -4816.3061            0   -1204.5029    20.357943    20.099773    21.240016    8691.2027   -2937.3077    1645.2607   -2321.4615   -243.04743   -118.08293   -724.54958   -4581.7784 
19391000     199.2199   -4837.3045   -4453.0922   -4837.3045            0    -1589.278    20.301247    20.025024    21.420749    8708.2399   -3057.1471   -60.422585   -1650.2643     49.28232    657.97599     878.9976   -4654.9317 
19392000    191.66478   -4814.5516   -4444.9099   -4814.5516            0    -1202.021     20.11606     20.31218    21.128095    8632.9618    104.54843   -3050.6678   -659.94376   -223.61041     526.0868    277.64267   -4596.2478 
19393000    195.60886   -4826.8255   -4449.5774   -4826.8255            0   -1691.6196    20.452496    20.070464     21.15873    8685.4695   -1719.8247   -1878.6744   -1476.3597   -291.65047     39.59945    329.06204   -4663.8526 
19394000     197.5987    -4824.529   -4443.4433    -4824.529            0    390.29984    20.286961    20.136722    21.205913    8662.8887    649.43378   -246.74378    768.20953   -357.74676    1441.5019   -1532.6507    -4394.133 
19395000    199.92884   -4830.6184   -4445.0388   -4830.6184            0   -1389.5884    20.133436     20.35187    21.080322    8637.7268   -1088.3852   -2749.0564   -331.32368    680.46197    -202.5546    667.35328   -4620.0885 
19396000    192.10943   -4834.4414   -4463.9422   -4834.4414            0   -1814.3175    20.292662     20.16986    21.230442    8689.6229   -2741.3138   -1652.3816    -1049.257    641.45036    439.70299    -674.3332   -4693.8692 
19397000    195.45992   -4844.5679    -4467.607   -4844.5679            0   -1389.2839     20.28349    20.224137    21.012731    8619.7599   -648.67816   -2189.8634   -1329.3103   -423.43443    335.52481   -487.85144   -4642.2544 
19398000    200.91718   -4855.2931   -4467.8074   -4855.2931            0   -1414.8109    20.210846    20.102994    21.211055    8618.0201   -1883.1548   -788.32631   -1572.9515    -241.6142   -469.78072   -1076.2393   -4645.6279 
19399000    202.19867   -4819.2038   -4429.2467   -4819.2038            0    -225.5483    20.070091    20.261982     21.16352    8606.3536    962.70822   -987.56192   -651.79118   -109.34023    142.49368    1775.5654   -4457.5563 
19400000    202.19101   -4840.1906   -4450.2482   -4840.1906            0   -841.39045    20.139854    20.137731     21.19488    8596.0277   -811.22342   -610.02535   -1102.9226   -570.82465    886.22586    290.46164   -4555.7285 
19401000    207.63611   -4814.5546   -4414.1109   -4814.5546            0   -184.61956    20.303947    20.163562    20.979346    8588.9419    -1024.433    76.026425    394.54784    393.21928    -1271.217    494.26052   -4437.2365 
19402000    212.04987   -4840.6249   -4431.6689   -4840.6249            0   -505.46242    20.160947    20.226302    21.124336    8614.1114    243.75033   -804.75787   -955.37971    322.43316   -157.91986   -452.38849   -4495.1691 
19403000     201.5285   -4837.3561   -4448.6915   -4837.3561            0    15.483066    20.261668    19.943803    21.434325    8661.4976   -361.78971    1303.0119     -894.773     309.6619   -168.79492   -463.27318   -4446.7356 
19404000    193.07689   -4818.0462   -4445.6812   -4818.0462            0     566.7801     20.32338     20.05838    21.087569     8596.434    -544.7354    965.60248    1279.4732   -489.68345   -661.05071   -816.15391   -4374.6239 
19405000    195.84479   -4829.5982    -4451.895   -4829.5982            0   -1155.6274    20.201089    20.292555    21.172176    8679.1465   -959.14052   -1511.7181   -996.02372   -355.96545   -1428.2346   -520.98897   -4598.1702 
19406000    195.64556   -4838.0835   -4460.7646   -4838.0835            0   -320.98438    20.322765    19.964581    21.328532    8653.7424    844.72182   -480.22415   -1327.4508    -464.1446   -330.28284   -583.00046   -4501.2748 
19407000    203.07385   -4827.8185   -4436.1735   -4827.8185            0   -1547.0167    20.300226    20.120558    21.416033    8747.4191   -1306.0655    -467.9655    -2867.019    471.02315    904.75625   -148.22554   -4633.5297 
19408000    199.32816    -4858.206   -4473.7849    -4858.206            0    -113.5766     20.25895    20.211158    20.968154     8585.554   -1123.2378     437.8853    344.62273    277.43044      1888.24    581.66496    -4488.006 
19409000    196.56374   -4842.7425   -4463.6528   -4842.7425            0   -1278.8612    20.328113    20.037913    21.165646    8621.4655   -2138.3192   -878.00565   -820.25883    45.025998    374.24479    555.52027   -4624.4507 
19410000    200.82886   -4821.5483   -4434.2329   -4821.5483            0   -2043.7227    20.093206    20.291929    21.417214    8732.4389   -992.87694   -2108.7818   -3029.5093    260.91622   -676.78422    583.50221   -4694.5085 
19411000    199.60482   -4841.4711   -4456.5164   -4841.4711            0   -1879.1268    20.318362    20.146178     21.37059    8747.7801   -2397.4916   -2119.1603   -1120.7287    337.40184    682.39268   -5.9186496   -4696.2506 
19412000    193.66326   -4806.2076   -4432.7117   -4806.2076            0   -1643.2949    20.245981    20.361526    21.233065    8753.0985    523.58412    -3626.168   -1827.3009   -887.81498    970.17802   -840.20193   -4642.4865 
19413000    209.44797    -4842.275    -4438.337    -4842.275            0   -552.45828     20.14882    20.177291    21.233742    8632.5482    131.98493   -180.12895   -1609.2308   -712.93527    87.065113    132.58713   -4507.8898 
19414000    204.86897   -4847.2372   -4452.1301   -4847.2372            0   -3115.5932    20.300257    20.256522    21.656887    8905.5851   -2613.5152   -3434.7058   -3298.5586   -105.92947   -617.51061    274.64593   -4856.7797 
19415000    195.86941   -4824.3475   -4446.5969   -4824.3475            0   -926.42764    20.165491    20.184453    21.056414    8570.5801   -1247.3861   -668.65428   -863.24249   -322.23526   -849.59512   -153.99785    -4562.394 
19416000    196.17759   -4807.4243   -4429.0793   -4807.4243            0   -303.68276    20.118254    20.235157     21.16522    8616.2774    1018.9401   -1899.8813   -30.107022    48.711696     393.7558    30.492592     -4467.24 
19417000    201.40854   -4832.7577   -4444.3244   -4832.7577            0   -608.44118    20.273483     20.13525    21.155692    8635.9998   -895.30889    379.66427   -1309.6789    528.38925   -1010.2016   -52.409512   -4520.9559 
19418000    207.64564    -4810.096   -4409.6339    -4810.096            0   -423.05366     20.16416    20.077142    21.586971     8739.241    1712.0163   -774.17437   -2207.0029    258.40864    122.29127   -70.240389   -4463.5533 
19419000    210.89532   -4827.7422   -4421.0129   -4827.7422            0    -726.8098    20.178751    20.181802    21.144697    8611.0416   -371.81377     -461.768   -1346.8476    26.827979   -117.89503   -482.40375    -4512.288 
19420000    199.31547   -4821.4125   -4437.0159   -4821.4125            0   -1585.5106    20.473515    20.130977    20.961668    8639.3903   -1552.2651   -2619.3514   -584.91516   -267.38879   -50.055501   -245.66955   -4636.7849 
19421000    202.99441   -4823.9575   -4432.4657   -4823.9575            0    -2600.262    20.305468    20.188644    21.325656    8742.2361   -3115.5068   -1775.7912    -2909.488    -491.1118    280.64973    59.111116   -4763.9901 
19422000    197.06473   -4838.7134   -4458.6575   -4838.7134            0   -639.96901    20.101243    20.064837    21.363617    8616.5486     -92.8231   -854.00385   -973.08008   -696.06913   -167.06201    93.233511   -4539.0783 
19423000    191.51159   -4833.0273   -4463.6811   -4833.0273            0   -1302.6689    20.301293    20.283824    21.027005    8658.6653   -784.20562   -2734.8037   -388.99733    357.20597    433.28677   -794.75446   -4628.1792 
19424000    200.31608   -4827.5638   -4441.2374   -4827.5638            0   -1181.2385      20.1011     20.23303    21.322992    8672.1921   -568.86812   -1351.2538   -1623.5936    128.08187    660.17607    1170.7709   -4590.6346 
19425000    205.11033   -4849.7563   -4454.1837   -4849.7563            0   -158.96845    20.181958    20.132362    21.297759    8653.5027   -69.857014   -70.993736   -336.05459     31.37968   -874.83038    185.74721   -4474.2459 
19426000     196.4546   -4848.2087   -4469.3295   -4848.2087            0   -387.60264    20.141707     20.25468    21.085996    8602.3236    541.05346   -1357.4773   -346.38407    222.66452   -364.61045    180.88313   -4517.9566 
19427000    197.54254   -4824.5223   -4443.5449   -4824.5223            0   -2076.4647    20.288325    20.204602    21.213505    8695.7875   -2689.6802   -1370.7674   -2168.9464   -436.06025    1303.9149    311.36543   -4706.8804 
19428000    199.43642   -4825.4124   -4440.7825   -4825.4124            0    46.845079    20.108576    20.105846    21.254768    8593.3013    1443.0234   -699.69444   -602.79377   -375.45502    414.48727   -33.394871   -4434.9116 
19429000     201.0137   -4813.6255   -4425.9537   -4813.6255            0   -2499.1919    20.363226    20.194536    21.191169    8714.3576   -4078.5282   -2455.6773   -963.37002   -422.42295   -645.70197    579.06139   -4743.5759 
19430000    204.46118   -4825.1796   -4430.8591   -4825.1796            0   -984.59126    20.341742    20.149288    21.104407    8650.0975   -1736.7282   -611.45238    -605.5932    168.93287   -813.75588    666.76702    -4555.068 
19431000    198.75189    -4832.446   -4449.1363    -4832.446            0   -657.06167    20.151531    20.061481    21.472502    8680.6789    944.34661   -1467.5182   -1448.0134    381.38523   -501.97496   -227.04262   -4532.3195 
19432000    199.20415   -4825.0898   -4440.9078   -4825.0898            0   -2697.0599    20.321844    20.244402    21.342923    8780.5552   -3081.8504   -2665.9118   -2343.4175   -48.790706   -677.48282    626.00504   -4786.2809 
19433000    193.59104   -4841.7368   -4468.3802   -4841.7368            0   -1233.7786    20.359262    20.124493    21.158075    8668.8826   -1600.9459   -842.49181   -1257.8982    112.77104     453.1892     994.6081   -4624.3629 
19434000    195.73021   -4841.9054   -4464.4232   -4841.9054            0   -1199.6268    20.155653    20.236627    21.263861    8673.1549   -1283.9711   -367.91841   -1946.9907    161.61449     -312.102   -558.24701   -4616.1629 
19435000    206.55319   -4820.3911   -4422.0359   -4820.3911            0    1048.0798    20.143501    20.249048    21.178348    8638.3669     388.1323    1063.4218    1692.6852   -5.8567286   -95.806948    40.128232    -4289.997 
19436000    206.02321   -4825.7503   -4428.4172   -4825.7503            0    201.49741    20.116312    20.282278    21.024084    8577.9235       1561.6   -1223.8555     266.7478   -611.75421    487.47521    34.939641   -4403.2099 
19437000    195.59292   -4830.8453   -4453.6279   -4830.8453            0   -1158.4249    20.202461    20.229487    21.159546    8647.5975   -2259.6282   -79.148663    -1136.498      114.939    1190.8438   -133.65437   -4599.7242 
19438000    209.05619   -4836.7556   -4433.5732   -4836.7556            0   -1078.7114    20.176707    20.144807    21.313616    8663.0442   -998.67648   -545.33754   -1692.1202   -596.51732   -208.06247    2.7739537   -4569.8593 
19439000    186.87625   -4831.7241   -4471.3176   -4831.7241            0   -1118.9687    20.290407    20.239939    20.993085    8621.3686    -2982.815    971.03314   -1345.1243   -512.23007    197.65876     -169.356   -4612.0098 
19440000    205.21881    -4811.563   -4415.7812    -4811.563            0   -334.17506    20.075919    20.279572    21.256647    8654.2407      1092.15   -2010.6362   -84.039011   -144.63075    785.17425   -435.57827   -4457.9585 
19441000     198.4282   -4820.8581   -4438.1726   -4820.8581            0    52.261191    20.382826    20.106014    20.953179    8586.9771   -197.79361   -905.32635    1259.9035    469.40457   -291.39606    29.632324   -4431.6278 
19442000    202.59961   -4824.2312   -4433.5008   -4824.2312            0   -1365.4604    20.166698     20.21436    21.273332    8672.2202   -848.24043   -1594.9697    -1653.171    324.28746   -675.38885    456.74587    -4606.198 
19443000    203.01913   -4832.0527   -4440.5133   -4832.0527            0   -593.16517    20.195799    20.139948    21.382502     8697.169   -709.49574   -176.26224   -893.73755   -4.0645261   -365.96051    620.91274   -4515.7499 
19444000    208.37286   -4827.3649   -4425.5004   -4827.3649            0   -1214.4945    20.256507    20.190643    21.078595     8620.975   -2491.5818   -1096.3958   -55.505887   -199.90736   -313.49799   -1203.3562   -4578.1964 
19445000     206.4812    -4838.967   -4440.7506    -4838.967            0   -1026.4192    20.055685    20.387198    21.202664    8669.3289   -414.18989   -1549.2116    -1115.856   -88.949907   -24.651845     415.7416   -4570.5241 
19446000    200.70836   -4833.3999   -4446.3169   -4833.3999            0    -887.0129    20.250324    20.215646    21.173415    8667.8324   -817.39076   -1479.4606   -364.18735    12.885897    564.57823   -1095.0172   -4558.4455 
19447000    190.16533   -4810.3399   -4443.5901   -4810.3399            0   -2345.0909    20.335485    20.397309    21.148849    8772.3134   -2294.8034   -3796.3548   -944.11444   -332.28015     466.0324    280.84017   -4743.6097 
19448000    200.26877   -4824.3901    -4438.155   -4824.3901            0   -212.07829    20.024984    20.135801    21.415969    8635.3276    1386.3617   -1379.2535   -643.34303    779.54728    501.17735   -1134.0148   -4464.8636 
19449000    203.35255   -4813.3294   -4421.1469   -4813.3294            0    170.74462    20.234508    20.228548    21.013479    8601.1261   -370.40304    369.16215    513.47474   -432.79714    38.463917    -604.5401   -4399.7289 
19450000    194.79753   -4834.7521   -4459.0687   -4834.7521            0   -893.94039    20.204205    20.224845    21.152156    8643.3403   -196.48434    -1314.288   -1171.0489    86.408795   -707.83443    469.61817   -4571.7537 
19451000    193.05458   -4822.0601   -4449.7381   -4822.0601            0    32.153566    20.244709    20.153659     21.09308    8606.0813    336.33677   -770.08559    530.20952   -111.86967    565.17533   -264.53789   -4445.7025 
19452000    207.62958   -4842.0248   -4441.5937   -4842.0248            0   -358.07125    20.344909    20.062882    21.269122    8681.5775   -568.29834    -218.8904   -287.02502     136.7663    92.051241    75.732027   -4486.9298 
19453000    196.75002   -4848.2469   -4468.7979   -4848.2469            0    -189.4744    20.141775    20.158578    21.136896    8582.2037    -116.1716   -707.49777    255.24616   -371.85735   -919.15638   -3.0348552    -4492.513 
19454000     187.1249   -4822.1554   -4461.2693   -4822.1554            0   -2172.2143    20.225939    20.308695     21.40209    8791.1744   -2033.8088   -1900.1864   -2582.6479   -86.228328     463.9381   -745.02468   -4739.7695 
19455000    187.60889   -4837.5638   -4475.7442   -4837.5638            0    358.34394    20.074297     20.12677     21.22697    8576.3486    558.61127    1047.9185   -531.49797   -518.23031    209.52141    569.78094   -4430.9236 
19456000     193.0199   -4832.9857   -4460.7306   -4832.9857            0    87.016305    20.369646    20.364932    20.720772    8595.5245   -611.32132   -943.81878     1816.189    3.1500034   -514.49037   -25.747247   -4449.8225 
19457000    195.01716   -4825.0187   -4448.9117   -4825.0187            0   -1124.9058    20.074026    20.355796    21.182142    8655.5061   -1127.6746   -1488.6885   -758.35418   -602.03409    -842.9304    614.26393   -4590.9104 
19458000    202.93898   -4826.5072   -4435.1223   -4826.5072            0    755.78973    20.116665    19.967311     21.45043    8616.1167    719.83421    1862.3418   -314.80687    469.71496   -1371.8945    590.66208   -4340.1519 
19459000    197.48546   -4831.6648   -4450.7975   -4831.6648            0    674.56372    20.140365    20.215891     21.07834    8582.1604    1691.2369   -887.33759    1219.7918    -150.7295     322.3465    -369.9464   -4366.3678 
19460000    208.06246   -4824.4435   -4423.1775   -4824.4435            0    808.86454    20.237389    20.200534    21.036748    8599.9502     501.2057    1473.1774    452.21052   -77.497869   -162.60869    68.630653   -4321.7286 
19461000    196.29919   -4814.9583   -4436.3788   -4814.9583            0    27.567664    20.230384    20.078079    21.416305    8699.0299    620.74092    725.54969   -1263.5876   -316.64892    320.49228    716.69639   -4432.8814 
19462000    205.26656   -4838.6814   -4442.8076   -4838.6814            0   -1756.0961    20.146981    20.258663    21.401313     8734.965   -1098.5618   -2711.4012   -1458.3252    611.95702   -80.144241   -93.032575   -4666.5175 
19463000    209.71488   -4828.8182   -4424.3655   -4828.8182            0   -1787.2563     20.31077    20.208273    21.162778     8686.169   -1656.1984   -2147.9947   -1557.5758     414.4966    287.54518   -193.63049   -4650.7731 
19464000    209.02703   -4840.8994   -4437.7732   -4840.8994            0   -1635.3469     20.17694    20.207461    21.287152    8679.2983   -347.38618   -2285.7183   -2272.9364    341.02083    415.67905    259.93491   -4644.7732 
19465000    190.06723   -4847.8414   -4481.2808   -4847.8414            0   -552.59435    20.371377    20.078327    21.134138    8644.3523   -928.40476    470.99555   -1200.3738   -413.41369   -24.256589   -560.50998   -4550.9458 
19466000    198.60444   -4842.4207   -4459.3953   -4842.4207            0   -2504.0103    20.288626    20.134695    21.269284    8688.6153   -3086.6113   -1188.4425   -3236.9772   -166.61459    -173.8284    674.16141   -4776.6899 
19467000    195.02226   -4849.4469     -4473.33   -4849.4469            0   -991.77918    20.156034    20.238733    21.150843    8628.1186   -1478.0935   -235.99688   -1261.2472   -37.963645   -976.65971   -539.51359   -4598.1279 
19468000    197.83354   -4810.9316    -4429.393   -4810.9316            0   -898.84756    20.181321    20.196639    21.331769    8694.7192    113.49734   -1084.1067   -1725.9333     95.53586    250.52424   -270.94979   -4543.3701 
19469000    195.78127   -4807.1989   -4429.6182   -4807.1989            0    291.72227    20.368643    20.004851    21.203484     8639.819   -1380.5792    2572.4562   -316.71025   -572.43414   -67.514934    885.09626   -4392.8604 
19470000    195.86909   -4849.6381   -4471.8881   -4849.6381            0   -2194.6014     20.37598    20.168604    21.210507    8716.5654   -3800.6552   -1165.1247   -1618.0242   -915.64467    -961.3941    394.07885   -4750.8706 
19471000    188.97473   -4811.6141   -4447.1604   -4811.6141            0   -235.41595    20.182944    20.317614     21.03141    8624.3347    488.77004   -989.58248   -205.43542    -193.0462    951.74713    932.24201   -4476.7703 
19472000    196.24901   -4841.9311   -4463.4483   -4841.9311            0    50.616235    20.228454    20.144545    21.187341    8633.6929   -235.94549    1011.2559   -623.46166    209.14759    531.93811   -80.751062   -4457.0751 
19473000     201.1368   -4846.1575   -4458.2483   -4846.1575            0    14.399282    20.147763    20.074727    21.414677    8661.3983    245.78938    549.60447     -752.196    92.593032    3.9448368   -319.62086   -4456.4294 
19474000    195.39165   -4823.9447   -4447.1155   -4823.9447            0   -1203.3789    20.223918    20.127675    21.282808    8663.3892   -1171.6865   -820.23298   -1618.2173   -324.83146    285.82502    84.054979   -4599.1584 
19475000     203.7464   -4860.8285   -4467.8864   -4860.8285            0   -972.72325    20.186511    20.192361    21.082172    8593.3742   -2706.2678   -588.07634    376.17443   -137.82977    759.59544    587.56444   -4589.7935 
19476000    195.24007   -4823.6783   -4447.1414   -4823.6783            0   -1438.4938    20.343032    20.146961    21.372093    8759.3581   -1882.6691   -1110.3634   -1322.4488   -708.12178   -424.91377   -176.65263   -4630.9036 
19477000    221.20547   -4821.0568   -4394.4435   -4821.0568            0   -834.30829    20.299043    20.123931    21.247809    8679.6563   -1413.3321    232.78903   -1322.3818   -5.2539991    1059.8502    1356.3669   -4500.0534 
19478000    204.53962   -4822.1035   -4427.6316   -4822.1035            0   -271.82529    20.306418     19.97086    21.273339     8627.118   -412.44974     359.7751   -762.80122    396.65921    120.29703 -0.081246467    -4461.832 
19479000    207.04345   -4828.1944   -4428.8936   -4828.1944            0   -1141.2027    20.341529    20.176562    21.128284    8671.5151     -2064.84    3.2956427   -1362.0639    773.94625   -7.6906195   -322.01808    -4573.216 
19480000    209.80399   -4820.3868   -4415.7621   -4820.3868            0   -693.90442    20.294253    20.235899    21.071796    8653.6062   -1120.4797   -487.84101   -473.39261   -363.97952    137.54567    682.21576   -4503.3356 
19481000    204.38736   -4819.6813   -4425.5031   -4819.6813            0   -1793.1591    20.225649    20.143907    21.352969    8699.7033   -2223.6849   -634.29083   -2521.5017   -483.19071    7.3048754   -403.41532   -4653.0124 
19482000    196.37615    -4820.611   -4441.8831    -4820.611            0   -186.20878    20.300153    20.081136    21.093286    8598.6811   -1335.6669    1230.2257   -453.18512    832.65848   -489.39138    1150.2538   -4465.2342 
19483000    201.63016   -4844.0068    -4455.146   -4844.0068            0   -1471.0348    20.222931    20.157168    21.503732    8765.7171   -471.08539   -2016.2844   -1925.7347   -388.46877   -268.39075   -946.60695   -4643.2017 
19484000    201.80547   -4818.8983   -4429.6994   -4818.8983            0   -1375.6434    20.297439    20.233251    21.105248    8667.5702   -1035.0158   -1359.1985   -1732.7159    54.590442    1062.1602   -450.37466   -4603.5913 
19485000    194.92838   -4843.5138    -4467.578   -4843.5138            0   -1099.7323    20.142356    20.226584    21.022909    8564.9653   -119.61962   -1607.4314    -1572.146   -705.94967   -375.00474    420.96625    -4604.947 
19486000    201.21084   -4844.0105   -4455.9585   -4844.0105            0   -475.66787    20.101575    20.093641    21.416576    8650.4509     245.6375   -10.938993   -1661.7021     451.2909   -70.968263   -795.29552   -4515.9678 
19487000    196.59633   -4821.4698   -4442.3172   -4821.4698            0    396.92652    20.151572     20.30934    21.004533    8596.4229    626.20524   -610.42857    1175.0029   -317.80826   -1.1404218   -718.21384   -4392.5545 
19488000    202.24298   -4827.0442   -4437.0016   -4827.0442            0   -1104.1393    20.087384    20.188827    21.331544    8650.8096   -424.41698   -766.93288   -2121.0681    460.76611    544.58195   -658.26165   -4576.3034 
19489000    198.77498   -4832.8615   -4449.5072   -4832.8615            0    -1252.586    20.141113    20.214987    21.336269    8687.1115   -1108.3288   -446.75027   -2202.6788   -574.47598    465.25396   -41.851492   -4608.2006 
19490000    201.58472   -4824.5216   -4435.7485   -4824.5216            0    308.19277    20.392234    20.000475    21.182951     8639.559    2339.6506    -2143.694    728.62179    85.741764   -64.995714    683.92877   -4396.9165 
19491000    190.41415   -4827.2471   -4460.0174   -4827.2471            0   -1947.8265    20.393386    20.226542    21.151064    8724.5533   -2452.0178    -1376.135   -2015.3266    233.31582    1258.3855    550.15482   -4707.8563 
19492000    196.03426   -4824.8025   -4446.7339   -4824.8025            0    170.83102    20.102351    20.205082    21.150627    8590.7428    894.60675   -892.24454    510.13085   -1104.7054    251.56508   -343.18935    -4425.331 
19493000    198.09711    -4810.779   -4428.7321    -4810.779            0   -2164.8536    20.388549      20.0197       21.335    8708.3632   -2377.7604     -2402.86   -1713.9403   -243.94787   -432.71086    929.09252    -4703.674 
19494000    197.56979   -4813.8556   -4432.8257   -4813.8556            0   -640.10095    20.140697    20.301281    21.096449     8625.957    587.33665   -1986.4736   -521.16592   -500.98493   -471.45453    583.29242   -4513.3508 
19495000     210.9863   -4821.3994   -4414.4946   -4821.3994            0   -1104.3039    20.419358    20.178396    21.181763    8727.5194   -3128.9126    543.48658   -727.48576    251.32838    865.84511   -139.91797   -4555.0525 
19496000    200.96145   -4812.6698   -4425.0987   -4812.6698            0   -1299.7183    20.070837    20.101739    21.360335    8618.0139   -1435.6425   -1342.9153   -1120.5971    94.176033     728.7383   -881.95632   -4588.4537 
19497000    198.76189   -4835.2323   -4451.9033   -4835.2323            0   -544.90557    20.212335    20.166227    21.201419    8641.8368   -1587.2317   -30.663106   -16.821902   -379.11463    20.368596    276.62631    -4520.579 
19498000    201.33774    -4812.231   -4423.9343    -4812.231            0   -2156.2989    20.296359    20.365153    21.158357    8745.5623   -2220.5458   -2557.1223   -1691.2287   -72.934918    216.43865    436.09819   -4698.9595 
19499000    196.39728    -4839.265   -4460.4963    -4839.265            0   -343.68861     20.26061    19.820025     21.45096    8613.9722   -133.10004    1280.1931   -2178.1589    80.691725    1123.5658   -386.34481   -4503.6725 
19500000    203.66428   -4801.3445   -4408.5608   -4801.3445            0   -1359.8244    20.318503    20.238442     21.17397    8707.0506   -2000.7859   -1504.0293   -574.65811   -4.1661701    274.22005    170.61656   -4581.2359 
Loop time of 456.79 on 64 procs for 250000 steps with 972 atoms

Performance: 94.573 ns/day, 0.254 hours/ns, 547.298 timesteps/s
99.1% CPU use with 64 MPI tasks x 1 OpenMP threads

MPI task timing breakdown:
Section |  min time  |  avg time  |  max time  |%varavg| %total
---------------------------------------------------------------
Pair    | 17.896     | 26.336     | 33.65      |  77.0 |  5.77
Bond    | 0.26604    | 0.27299    | 0.28694    |   0.9 |  0.06
Kspace  | 188.52     | 198.87     | 212.69     |  43.9 | 43.54
Neigh   | 1.8719     | 2.2085     | 2.8867     |  16.7 |  0.48
Comm    | 93.877     | 108.57     | 116.83     |  48.3 | 23.77
Output  | 1.2184     | 1.2212     | 1.2358     |   0.3 |  0.27
Modify  | 109.65     | 111.73     | 115.98     |  12.7 | 24.46
Other   |            | 7.583      |            |       |  1.66

Nlocal:        15.1875 ave          20 max           9 min
Histogram: 3 1 4 8 9 6 12 11 6 4
Nghost:        2121.72 ave        2163 max        2086 min
Histogram: 3 3 10 9 9 12 10 6 0 2
Neighs:        4536.47 ave        6229 max        2782 min
Histogram: 3 4 7 5 13 10 10 5 3 4

Total # of neighbors = 290334
Ave neighs/atom = 298.69753
Ave special neighs/atom = 2.0000000
Neighbor list builds = 5138
Dangerous builds = 0

unfix		3
unfix		2
unfix		1

write_data	data.final.${pid}
write_data	data.final.0
System init for write_data ...
PPPM initialization ...
  extracting TIP4P info from pair style
  using 12-bit tables for long-range coulomb (../kspace.cpp:340)
  G vector (1/distance) = 0.37114151
  grid = 24 24 25
  stencil order = 5
  estimated absolute RMS force accuracy = 0.0035650216
  estimated relative force accuracy = 1.0735957e-05
  using double precision FFTW3
  3d grid and FFT values/proc = 2366 288
Last active /omp style is kspace_style pppm/tip4p/omp
WARNING: Not all mixed pair coeffs generated from mixing. Use write_data with 'pair ij' option to store all pair coeffs. (../write_data.cpp:312)

write_restart   restart.lmp.${pid}
write_restart   restart.lmp.0
System init for write_restart ...
PPPM initialization ...
  extracting TIP4P info from pair style
  using 12-bit tables for long-range coulomb (../kspace.cpp:340)
  G vector (1/distance) = 0.37114151
  grid = 24 24 25
  stencil order = 5
  estimated absolute RMS force accuracy = 0.0035650216
  estimated relative force accuracy = 1.0735957e-05
  using double precision FFTW3
  3d grid and FFT values/proc = 2366 288
Last active /omp style is kspace_style pppm/tip4p/omp
Total wall time: 0:07:42
