LAMMPS (30 Jul 2021)
  using 1 OpenMP thread(s) per MPI task
package omp 0
using multi-threaded neighbor list subroutines
echo both

include		in.partitions
variable        pid world 0
include		in.temp
variable        temperature equal 250.84
variable	tempDamp equal 100.0
include		in.pressure
variable        pressure equal 5500.0
variable        pressureDamp equal 1000.0 # This is 1 ps
include		in.seed
variable        seed world 745823

units		real
atom_style	full
read_restart    restart.lmp.${pid}
read_restart    restart.lmp.0
Reading restart file ...
  restart file = 30 Jul 2021, LAMMPS = 30 Jul 2021
  restoring atom style full from restart
  triclinic box = (-3.2485853 -0.22049109 -0.056054429) to (14.858584 22.800490 19.286052) with tilt (-0.53660509 -6.5433406 0.20873656)
  4 by 4 by 4 MPI processor grid
  restoring pair style lj/cut/tip4p/long/omp from restart
  restoring bond style harmonic/omp from restart
  restoring angle style harmonic/omp from restart
  1008 atoms
  672 bonds
  336 angles
Finding 1-2 1-3 1-4 neighbors ...
  special bond factors lj:    0        0        0       
  special bond factors coul:  0        0        0       
     2 = max # of 1-2 neighbors
     1 = max # of 1-3 neighbors
     1 = max # of 1-4 neighbors
     2 = max # of special neighbors
  special bonds CPU = 1.776 seconds
  read_restart CPU = 1.951 seconds

include 	in.setup
variable	out_freq equal 1000
variable	out_freq2 equal 10000
variable	out_freq3 equal 1000

timestep	2.0

neigh_modify    delay 7 every 1

include		in.tip4p
# This is TIP4P/Ice

# create groups ###
group ox type 2
336 atoms in group ox
group hy type 1
672 atoms in group hy

# set charges - beside manually ###
set group ox charge -1.1794
Setting atom values ...
  336 settings made for charge
set group hy charge 0.5897
Setting atom values ...
  672 settings made for charge

# ### TIP3P Potential Parameters ###
pair_style lj/cut/tip4p/long/omp 2 1 1 1 0.1577 8.5
pair_coeff 1 1*2 0.000 0.000
pair_coeff 2 2 0.21084 3.1668
bond_style  harmonic
bond_coeff  1 450 0.9572
angle_style harmonic
angle_coeff 1 55 104.52
kspace_style pppm/tip4p/omp 1.0e-5
pair_modify tail yes

thermo          ${out_freq}
thermo          1000
thermo_style    custom step temp pe etotal epair emol press lx ly lz vol pxx pyy pzz pxy pxz pyz enthalpy

restart 	${out_freq3} restart.lmp.${pid} restart2.lmp.${pid}
restart 	1000 restart.lmp.${pid} restart2.lmp.${pid}
restart 	1000 restart.lmp.0 restart2.lmp.${pid}
restart 	1000 restart.lmp.0 restart2.lmp.0


include         in.dump
dump            myDump all atom ${out_freq2} dump.water.${pid}
dump            myDump all atom 10000 dump.water.${pid}
dump            myDump all atom 10000 dump.water.0
dump            myDump2 all dcd ${out_freq2} dump.dcd
dump            myDump2 all dcd 10000 dump.dcd
dump_modify     myDump append yes
dump_modify     myDump2 append yes


variable natoms 	equal  "count(all)"                        # NUMBER ATOMS
variable H      	equal  "enthalpy/v_natoms"                 # ENTHALPY-per-atom
variable Vol      	equal  "vol/v_natoms"                 # volume-per-atom
fix AVG all 		ave/time ${out_freq} 1 ${out_freq} v_Vol v_H file vol_enthalpy.dat
fix AVG all 		ave/time 1000 1 ${out_freq} v_Vol v_H file vol_enthalpy.dat
fix AVG all 		ave/time 1000 1 1000 v_Vol v_H file vol_enthalpy.dat



fix 		1 all shake 1e-6 200 0 b 1 a 1
       0 = # of size 2 clusters
       0 = # of size 3 clusters
       0 = # of size 4 clusters
     336 = # of frozen angles
  find clusters CPU = 0.124 seconds
fix             2 all nph tri ${pressure} ${pressure} ${pressureDamp}
fix             2 all nph tri 5500 ${pressure} ${pressureDamp}
fix             2 all nph tri 5500 5500 ${pressureDamp}
fix             2 all nph tri 5500 5500 1000
fix             3 all temp/csvr ${temperature} ${temperature} ${tempDamp} ${seed}
fix             3 all temp/csvr 250.84 ${temperature} ${tempDamp} ${seed}
fix             3 all temp/csvr 250.84 250.84 ${tempDamp} ${seed}
fix             3 all temp/csvr 250.84 250.84 100 ${seed}
fix             3 all temp/csvr 250.84 250.84 100 745823


run             250000
PPPM initialization ...
  extracting TIP4P info from pair style
  using 12-bit tables for long-range coulomb (../kspace.cpp:340)
  G vector (1/distance) = 0.38342425
  grid = 24 30 32
  stencil order = 5
  estimated absolute RMS force accuracy = 0.0019317871
  estimated relative force accuracy = 5.8175195e-06
  using double precision FFTW3
  3d grid and FFT values/proc = 4080 384
Last active /omp style is kspace_style pppm/tip4p/omp
Neighbor list info ...
  update every 1 steps, delay 7 steps, check yes
  max neighbors/atom: 2000, page size: 100000
  master list distance cutoff = 10.8154
  ghost atom cutoff = 10.8154
  binsize = 5.4077, bins = 5 5 4
  1 neighbor lists, perpetual/occasional/extra = 1 0 0
  (1) pair lj/cut/tip4p/long/omp, perpetual
      attributes: half, newton on, omp
      pair build: half/bin/newton/tri/omp
      stencil: half/bin/3d/tri
      bin: standard
Per MPI rank memory allocation (min/avg/max) = 9.340 | 9.346 | 9.348 Mbytes
Step Temp PotEng TotEng E_pair E_mol Press Lx Ly Lz Volume Pxx Pyy Pzz Pxy Pxz Pyz Enthalpy 
 6000000    262.67238   -4826.8177   -4301.4405   -4826.8177            0    5035.5369     18.10717    23.020981    19.342107    8062.6569    6015.8244    4312.1685    4778.6179     611.9938   -52.689586   -602.76393    -3709.334 
 6001000    255.44059   -4841.2885   -4330.3758   -4841.2885            0    6685.9839    18.002108    23.018543    19.275279    7987.3343    5528.2485    6111.7079    8417.9952    1528.0454    702.08127    -1443.376   -3551.5451 
 6002000    243.81657   -4817.3347   -4329.6714   -4817.3347            0    4443.3782    17.971384    23.137731    19.476508     8098.664    5849.9448    3746.0289     3734.161    1337.2773    64.356089   -770.90805   -3804.8609 
 6003000     248.6189   -4831.7007   -4334.4321   -4831.7007            0    4178.8592    18.044039    23.274125    19.173185    8051.9557    3203.1113    3615.7545    5717.7118    2258.8738   -1128.0847    217.69319   -3843.7107 
 6004000    235.53193   -4849.2524   -4378.1594   -4849.2524            0    6322.1055    17.959989    22.941224    19.485525    8028.5067    7101.5585     5856.691    6008.0671    291.08627   -884.16281   -992.25073   -3637.9196 
 6005000    257.96901   -4851.4002   -4335.4304   -4851.4002            0    5526.1144    18.170292    22.939825    19.264894     8030.057    3813.7715    6432.9941    6331.5775    537.88501     1736.708   -130.97343   -3688.2663 
 6006000     248.5236   -4813.8762   -4316.7983   -4813.8762            0    5600.7027    18.020009    23.149062    19.397842     8091.738    5561.8932    5600.4586    5639.7564    1251.5822   -285.76964   -1056.8661    -3655.861 
 6007000    247.00584   -4823.2861   -4329.2439   -4823.2861            0    6163.8509    17.968018    22.969427    19.423891    8016.5329     6140.142    6945.1086    5406.3022    2149.2194    654.46365    897.03551   -3608.6101 
 6008000    247.51331   -4824.1212    -4329.064   -4824.1212            0    5421.0498    18.131291    22.863957    19.438299    8058.2058    5377.5112    5905.6742    4979.9641    401.54159    683.93829   -301.68912   -3691.9786 
 6009000    251.42186   -4802.7965   -4299.9217   -4802.7965            0    7030.1384    18.054922    22.886952    19.404266    8018.2724     6764.627    6416.4562     7909.332    876.40268    -497.9376    192.18167   -3477.8294 
 6010000    252.38458   -4823.8591   -4319.0588   -4823.8591            0    3849.3307    18.157847     22.98982     19.43245    8111.9916    3857.1459    3786.5812    3904.2651   -1032.4166   -475.73699   -503.05746   -3863.6634 
 6011000    257.13837   -4848.0417   -4333.7332   -4848.0417            0    6806.4042    18.111299    22.682949    19.421485    7978.6897    6693.4474    7339.7144    6386.0508   -1903.0412   -924.38561    -224.8473   -3541.7331 
 6012000    262.84595   -4816.0959   -4290.3715   -4816.0959            0    6204.6461    18.229071    22.681967    19.546167    8081.7767    4687.0504    7341.7934    6585.0945   -260.55591    962.95574   -286.94541   -3559.0645 
 6013000    272.96964   -4829.7412   -4283.7682   -4829.7412            0    7308.5961    18.155509    22.763839    19.368287    8004.7016    7557.0066    7433.8508    6934.9309    1553.3209   -704.30689    992.10009   -3430.5601 
 6014000    253.78037    -4846.465   -4338.8729    -4846.465            0    5537.3544    18.148725    22.721827    19.505792    8043.6463    3924.9996      7082.83    5604.2336      1657.16   -401.32652    1698.5171   -3689.2951 
 6015000    247.95594   -4823.1037   -4327.1612   -4823.1037            0    6855.3704    18.151282    22.663557    19.457402    8004.2423     8905.631    6402.6711     5257.809   -1242.4597    9.5404651   -907.84973   -3526.9087 
 6016000    248.79766   -4820.7889   -4323.1629   -4820.7889            0    7362.3172    17.914365    22.919101    19.481294    7998.6516    7220.9074    9032.7333     5833.311    106.31588    809.08419    63.709619   -3464.3329 
 6017000    257.51291   -4840.1992   -4325.1415   -4840.1992            0    7439.8148    18.008619    23.091271    19.245978    8003.2843    7789.4576    6835.6423    7694.3444    711.63195   -489.33776    1296.4875   -3456.7686 
 6018000    240.52196   -4843.6404   -4362.5667   -4843.6404            0    4143.6944    17.978805    23.142112    19.344188    8048.4885    4068.4084    4329.4513    4033.2234   -384.95901    -250.3707   -1017.7707   -3876.1842 
 6019000    250.14081   -4827.3863   -4327.0738   -4827.3863            0    5517.9307     17.91446    23.168427    19.325176    8020.9113    4451.6912    5086.9787    7015.1222    222.22894    -509.4634    842.81624   -3681.6041 
 6020000    254.85574   -4848.9691   -4339.2261   -4848.9691            0    4631.0167    17.783647    23.327232    19.352864    8028.4051    5642.0971     3799.867    4451.0859   -723.36694   -416.88677   -1531.7704   -3796.9986 
 6021000    254.83712   -4870.4854   -4360.7797   -4870.4854            0    4717.7971    17.937929    23.134969    19.362139    8035.1603    4817.5787    4031.6491    5304.1636    1229.5754   -70.556203    157.81792   -3807.9266 
 6022000    244.39066   -4824.8558   -4336.0443   -4824.8558            0    4886.6938    18.076909    23.151874    19.298803    8076.8255     5752.674    3457.3425     5450.065   -743.79271   -857.51514   -264.63852   -3760.4298 
 6023000    246.39607   -4854.8245   -4362.0019   -4854.8245            0    5551.4773    17.861259    22.846459    19.611613    8002.8426    5283.5602    6946.4067    4424.4649    746.17712       1301.8   -54.721667   -3714.0709 
 6024000    256.72953   -4800.5766   -4287.0858   -4800.5766            0     4665.026     18.18309    23.002411    19.425883    8124.9712    3316.6563    5630.5334    5047.8882   -817.95038    852.93665    386.32493   -3734.3065 
 6025000    257.25499   -4822.5257   -4307.9839   -4822.5257            0      5195.42     17.97117    22.927878    19.507388    8037.8398    5319.4005    5022.8691    5243.9904   -1638.1526    144.54871    -144.1616   -3698.9578 
 6026000    266.26325   -4844.2402   -4311.6808   -4844.2402            0    5418.5528    18.115838    22.897738    19.413278    8052.8553    4133.5184    5413.0148    6709.1254   -1158.1063    1716.8146    -386.1004   -3675.3117 
 6027000    264.11272   -4827.9702   -4299.7122   -4827.9702            0     5432.951    18.163415    22.673974    19.635816    8086.7518    5779.4543    5995.2531    4524.1455   -1896.8795    153.73989   -463.77734   -3658.9663 
 6028000    232.40877   -4810.4775   -4345.6312   -4810.4775            0     5043.163    18.167119    22.706966     19.60344    8086.8141    3534.3634    6709.6237    4885.5019    -2226.506    1003.9899   -1428.7223   -3750.8512 
 6029000    248.26936   -4829.4007   -4332.8314   -4829.4007            0    5737.6193     18.18506    22.841307    19.365673    8043.9299     4989.434    5993.4939    6229.9301   -809.67875    -42.54215   -754.94278   -3659.7371 
 6030000    256.39619   -4815.8217   -4302.9977   -4815.8217            0    5170.3838    17.991683    22.927966    19.564769    8070.7162    7575.8012    3943.6627    3991.6875   -128.87809   -205.23831    1558.5031   -3694.4274 
 6031000    252.59508    -4808.537   -4303.3156    -4808.537            0    4142.2023    18.189081    23.116265    19.292317    8111.7173    3629.6694    2843.4315     5953.506   -52.025274   -1032.2584   -1512.8867   -3813.2886 
 6032000    250.98155   -4822.3576   -4320.3635   -4822.3576            0    5393.5101    17.886659    23.164471    19.447864    8057.9309    5109.0573    6386.3756    4685.0972   -190.65457    -200.5021    220.50073   -3686.5362 
 6033000    246.72916   -4822.4281   -4328.9393   -4822.4281            0    5731.0038    18.164164    22.964501    19.229631    8021.2741    6037.9061    5788.7167    5366.3886   -1876.9836   -607.37485    472.09558   -3658.5147 
 6034000    247.41459   -4853.6849   -4358.8251   -4853.6849            0    6430.2776    17.908854    22.971879    19.457783    8004.9324    6159.2113    6283.6974    6847.9241    680.10672    178.52188    2577.1927   -3608.1305 
 6035000    252.28929   -4871.8987    -4367.289   -4871.8987            0    4794.2043    18.083442     22.99799    19.362959    8052.7221     3492.467    5485.7688    5404.3771    40.868163   -678.22387    847.49685   -3804.2543 
 6036000    255.19625   -4868.9348   -4358.5108   -4868.9348            0    6123.3856    17.990656    22.951049    19.353843    7991.2872     5533.552    6776.7048       6059.9   -113.44246    592.94982   -366.99068   -3644.8625 
 6037000     249.1437   -4825.7172   -4327.3991   -4825.7172            0    6681.4967    17.930605    22.986622    19.439284     8012.174    6265.3035    7510.6296     6268.557   -664.42941    825.12422   -96.809483   -3546.6706 
 6038000    248.34669   -4828.3365   -4331.6124   -4828.3365            0    6613.4178    17.978986    23.133879    19.251763    8007.2641    6452.3058    5890.4527    7497.4949   -646.98618   -703.33476    -1827.687   -3559.3125 
 6039000     244.8225    -4830.321   -4340.6458    -4830.321            0    5614.2301    17.910763    23.277953     19.26867    8033.6073    6503.4951    5589.6267    4749.5685    595.44932   -676.93366    779.87267   -3682.8718 
 6040000    251.76309   -4824.7858   -4321.2285   -4824.7858            0    6072.5658    17.968375     23.18318    19.275712    8029.5693    4590.4469    5669.5419    7957.7087    559.38424    243.04687    -297.5476   -3610.1126 
 6041000    252.36135   -4835.4994   -4330.7455   -4835.4994            0    6086.9732    17.904711    23.304879    19.279844    8044.8448    5144.9435    5783.3574    7332.6187    39.895434    1423.0004    1054.1324   -3616.5864 
 6042000    260.00316   -4842.1595   -4322.1211   -4842.1595            0    7332.3536    17.975034    22.954828    19.365875    7990.6275    8462.7164    7513.2233    6021.1212    237.29217   -259.90764   -946.53267   -3467.6445 
 6043000    260.59707   -4836.5008   -4315.2745   -4836.5008            0    4719.9607    17.940963     23.19959    19.455596    8097.8663    4138.7185    3516.5101    6504.6535    372.76675   -74.977808   -603.24922   -3757.8515 
 6044000    252.25283   -4864.1375   -4359.6007   -4864.1375            0    5646.0766    18.092676    23.023233    19.219475    8005.9087    4167.2481     5872.226    6898.7557    244.08559   -838.22937    550.43421   -3700.3763 
 6045000    238.28563   -4839.1798   -4362.5791   -4839.1798            0     4769.218    17.914696    23.014032    19.519152    8047.5389     5197.621    5211.9581    3898.0751    -568.0282   -643.26441    -1119.716   -3802.8394 
 6046000     249.2297   -4851.2272    -4352.737   -4851.2272            0    5040.1972    18.124014    23.134521    19.187705    8045.2203    2696.6276    5454.6633    6969.3009     340.1745   -345.30045   -452.80361   -3761.3642 
 6047000    255.20004   -4840.2798   -4329.8482   -4840.2798            0    6618.7816    18.014936     23.08203    19.335502    8040.1135    5092.0495    7972.4168    6791.8786     290.2535    704.17918   -240.01362    -3553.751 
 6048000    258.21509   -4864.5829   -4348.1208   -4864.5829            0    6725.6585    17.996748    23.086053    19.248839    7997.3896    7112.9194     6989.943     6074.113    1240.8851    628.90758    766.42269   -3563.6823 
 6049000    256.45965   -4820.3267   -4307.3757   -4820.3267            0    4880.0784    17.918499    23.240808    19.375185    8068.6095    5908.0784    4199.3396    4532.8171   -1167.0289   -779.57195    197.21244   -3733.1252 
 6050000    244.88277   -4842.9483   -4353.1525   -4842.9483            0    6539.0097     18.03023    23.076625    19.297647    8029.3038    7148.0258    6644.4663     5824.537   -179.25221    193.86995   -1548.5854   -3587.4399 
 6051000    261.21245   -4791.5484   -4269.0912   -4791.5484            0    5588.0546    18.070098    23.245289    19.272902    8095.4793    6529.0988    4414.3967    5820.6683    350.17409   -1196.5152   -2340.2209   -3609.3417 
 6052000    255.76519   -4866.6452   -4355.0832   -4866.6452            0    5766.4103    17.995926    22.956539    19.383413    8007.7562    6455.7063    6291.0644    4552.4602    -590.1376     1180.875    978.37732   -3681.6535 
 6053000    236.14631    -4846.139   -4373.8172    -4846.139            0    5708.1981    18.038732    23.065572    19.324155    8040.2721    6672.6656    5704.9546     4746.974   -163.09333    246.05009    1655.7734    -3704.479 
 6054000    246.90613   -4789.8568   -4296.0141   -4789.8568            0    4831.7506    18.080531    22.903557    19.602505    8117.5636    5605.6814    5254.2879    3635.2825   -30.117988   -446.65615   -777.98545   -3724.0008 
 6055000    258.34676   -4837.1304   -4320.4049   -4837.1304            0    4430.2187    18.286788    22.638954    19.520993    8081.5691    5044.5792    4309.7349    3936.3418     1888.775   -508.95481    501.65601   -3798.2532 
 6056000    272.83194   -4836.6298   -4290.9322   -4836.6298            0    5337.1994    18.107639    22.811537    19.489655     8050.457     3272.165    7701.3279    5038.1052    671.47171    1239.2598     602.4279   -3664.3041 
 6057000    239.89103   -4846.7595   -4366.9478   -4846.7595            0    4799.5196    18.252315    22.764709    19.407993    8064.1889    5012.5007    4421.5395    4964.5184    515.24763   -555.46119    2006.3782   -3802.4863 
 6058000    242.07859   -4816.4015   -4332.2144   -4816.4015            0    5352.5539    18.272543    22.665791    19.468616    8063.1538    3713.1518    7378.2478    4966.2621    -1624.669   -374.82854   -752.65443   -3702.7925 
 6059000    246.62712   -4836.8011   -4343.5163   -4836.8011            0    4112.4338     18.05177    22.961885    19.521533    8091.7276    3413.8878     3840.181    5083.2326     1694.127   -540.98125    905.08504   -3858.2099 
 6060000    250.23518   -4839.1401   -4338.6388   -4839.1401            0    5568.6472    18.086144     22.89552    19.488515    8070.0317    4667.5425    6441.7218    5596.6774    305.51323    232.52299   -2667.9872   -3683.2472 
 6061000    254.28253   -4819.3007   -4310.7043   -4819.3007            0    5069.7324    18.084682    23.048538    19.348726    8065.0416    4895.8928    4954.5722    5358.7321    1148.6128    495.53934     926.4571   -3714.4005 
 6062000    262.44893   -4811.9817   -4287.0514   -4811.9817            0    5953.1959    18.061897    23.048974     19.37121    8064.3937    5874.2048    5868.5648     6116.818    1851.2039     789.6505   -533.86713   -3586.8906 
 6063000     271.4655    -4847.449   -4304.4845    -4847.449            0    5316.8288    17.873336    23.019592     19.59229     8060.991       9410.6    4084.5145    2455.3719    877.31111    -299.4686    1153.6397   -3679.4313 
 6064000    250.21847   -4834.4333   -4333.9655   -4834.4333            0    4814.3409    18.198778    22.926477    19.316177    8059.3633    4248.2069    5558.2142    4636.6016   -1025.4936   -533.97311    1158.0393   -3768.0997 
 6065000     248.0481   -4851.3893   -4355.2625   -4851.3893            0     5636.598    17.838381    22.929902    19.617803    8024.3161    6821.9056    6578.7643    3509.1241    580.88698    432.70336   -1305.1407   -3695.6316 
 6066000    258.78895   -4816.6817   -4299.0718   -4816.6817            0    6919.2745    18.190093    23.251122    18.973121     8024.493    3272.1963    5642.1725    11843.455    455.82074    570.08497   -686.58176    -3489.316 
 6067000    249.61652   -4849.9813   -4350.7175   -4849.9813            0    5053.8348    17.961006    23.115699    19.460344    8079.5693    5166.3182    5351.8797    4643.3066    406.40607    1226.7937   -633.86572   -3755.2128 
 6068000    260.23677   -4850.0633   -4329.5576   -4850.0633            0    4003.6665    18.213275    23.091045    19.188426    8069.9523    3031.5074    3715.6002     5263.892    452.52659    796.50538   -1276.3104   -3858.3582 
 6069000    247.56646   -4861.1782   -4366.0147   -4861.1782            0    5106.9745    17.782625    23.171477     19.48697    8029.5995    5186.7024    5342.2433    4791.9779     398.0356   -800.09964    1848.4943   -3767.9703 
 6070000    252.72362   -4823.8754   -4318.3969   -4823.8754            0    6354.3621    18.013952    23.057587    19.369043     8045.092    5489.2479    6095.2092    7478.6293    33.796322   -401.13045   -319.02518   -3572.8433 
 6071000    243.41805   -4822.4647   -4335.5985   -4822.4647            0    5680.0344    18.032225    22.896177    19.498715    8050.4152    4890.9481    6420.1306    5729.0245    774.73141   -463.82302   -190.11307   -3668.7224 
 6072000    259.12828   -4805.7181   -4287.4296   -4805.7181            0    4350.4359    18.108602    22.869204    19.628519     8128.745    4819.0686    5369.0303    2863.2087   -1157.5667    1258.3664   -1752.3189    -3771.688 
 6073000      241.849   -4851.6025   -4367.8746   -4851.6025            0    6670.9186    18.276295    22.606779    19.384704     8009.142    4794.1756    7578.9229    7639.6573    1143.0072   -537.71196     1072.105   -3588.6772 
 6074000     247.6411   -4857.6358    -4362.323   -4857.6358            0    5079.7792    18.009681    22.898081    19.544777    8060.0149    4863.2663    5153.5694    5222.5019   -63.724234     103.1439   -605.78217   -3765.2099 
 6075000    251.04032   -4846.3928   -4344.2811   -4846.3928            0    5663.2523    18.036111    23.009892    19.351738    8031.1449    4185.3813    6335.3746     6469.001    1910.5044    -248.1215    701.30444    -3680.967 
 6076000    263.64812   -4854.3009    -4326.972   -4854.3009            0    5891.8396    18.040224    23.000499    19.429411    8061.9259    4496.5752    6067.2155     7111.728    1042.4084    1177.1267    462.76707   -3634.2395 
 6077000    238.47232   -4856.7584   -4379.7843   -4856.7584            0    4865.7041    18.121669    23.032789    19.288721    8050.9688    4569.6555    5047.4929    4979.9639    1296.1207    1041.5588    1480.7293    -3808.477 
 6078000     260.1965   -4806.9427   -4286.5175   -4806.9427            0    6303.2279    17.969704     23.00875    19.423913    8031.0192    5963.8101    5978.5797     6967.294    -517.1708   -398.44178   -1805.8308   -3548.2571 
 6079000    242.29557   -4828.7248   -4344.1037   -4828.7248            0    5995.3451    18.072551    23.072194    19.314565    8053.6596    5506.1591    5995.2533    6484.6227    356.34737    1279.1828    1165.7912   -3639.9243 
 6080000     264.9951    -4835.708   -4305.6851    -4835.708            0     5917.872    17.924408    23.196107    19.289074    8019.9432    5841.0169    6628.4911    5284.1081   -80.782654   -631.09455   -35.410616   -3613.5151 
 6081000    259.97076   -4837.8882   -4317.9146   -4837.8882            0    5780.7985    17.967836    23.040474    19.378889    8022.6171    4158.3865    5298.6348    7885.3742   -284.61131   -239.35765   -119.69148   -3641.5517 
 6082000     235.2751   -4833.8304   -4363.2511   -4833.8304            0    4517.7696    18.066877    23.206894    19.276939    8082.3597    4052.8904    4045.2818    5455.1367    992.87238    466.08648   -1767.7193   -3830.7284 
 6083000    259.27507   -4836.1356   -4317.5534   -4836.1356            0    5107.3399    17.874118    23.173637    19.455794    8058.7519    6937.7506    3705.7596    4678.5095    204.29918   -414.58455   -1615.3685   -3717.2947 
 6084000    254.14893   -4800.1698   -4291.8406   -4800.1698            0    6160.9514    17.961726    23.219804    19.246531    8027.1072    4561.2473      5519.78    8401.8268    94.605929    113.32435   -1665.1981   -3570.5957 
 6085000    256.63434   -4859.3947   -4346.0943   -4859.3947            0    6186.6519    17.797078     23.29313    19.247278    7978.9525    5470.6855    5663.6801    7425.5902   -312.48018   -321.96059   -636.55677   -3626.1856 
 6086000    245.94979   -4834.1658   -4342.2359   -4834.1658            0    5183.4095    17.846805    23.338477    19.290817    8034.9583    7267.5333    4160.5009    4122.1944   -647.04629    -336.3093   -1684.1786   -3734.8355 
 6087000    248.62036   -4851.7468   -4354.4754   -4851.7468            0    6025.4859    17.881374    23.196988    19.361806    8031.1614    7426.7343    5676.4663    4973.2571    1711.3412     503.5359    1122.6227   -3648.7328 
 6088000    247.92469   -4834.5531   -4338.6731   -4834.5531            0    5777.4997    17.934753    23.322913    19.244302    8049.7122    6001.8181    5728.6212    5602.0596    1349.1189    628.26287    1875.8313   -3660.4131 
 6089000    243.18463    -4873.522   -4387.1227    -4873.522            0    4890.4258    17.927195    23.104963    19.446047    8054.6924    5947.7715    4730.8956    3992.6102    417.10821    916.91335   -240.40226   -3812.6472 
 6090000    246.14809   -4835.6453   -4343.3187   -4835.6453            0    6126.1834    18.023384     23.04803    19.282333    8009.9483    5694.4913    6583.8809    6100.1781    583.70272    -386.7797    1711.8961    -3627.677 
 6091000    245.85431   -4838.1573   -4346.4183   -4838.1573            0    6679.3332    17.882907    23.104848    19.349253    7994.7603    5558.4397    6509.5345    7970.0255   -211.70929    998.41527   -351.72136   -3567.6389 
 6092000     249.5819   -4844.8101   -4345.6155   -4844.8101            0    3399.7867     18.12409    23.048576    19.423633     8113.921    3124.8392    3688.3451    3386.1757     841.2624    1431.7505    1436.7487   -3943.3078 
 6093000    248.92592   -4810.9156    -4313.033   -4810.9156            0    5654.1314    18.067704    22.814681    19.427839    8008.3283    6750.6627    5131.1298    5080.6016    28.499737   -690.91834    563.34177   -3652.6685 
 6094000     245.2833    -4831.654   -4341.0571    -4831.654            0    5582.2307    18.019048    22.973994    19.459264    8055.5416    5210.1328     6905.378    4631.1812    876.07991    240.24513    268.76243   -3685.2465 
 6095000     249.7098   -4874.9466   -4375.4961   -4874.9466            0    6976.0799    18.026216     22.93461    19.296288    7977.5528      6373.46    6098.5853    8456.1944    1121.0707    82.510185   -85.650138   -3563.8681 
 6096000    252.78902   -4824.2786   -4318.6693   -4824.2786            0    7876.9229    17.824809     22.96084    19.470418    7968.7082    8159.0167    8971.5287    6500.2233    1142.4759     204.3812   -1480.5891   -3403.2493 
 6097000    256.82968   -4850.0107   -4336.3196   -4850.0107            0     5049.607    18.097902    23.085474    19.342026    8081.0722    4579.6095    4722.0873    5847.1242   -884.51956    219.07006    50.059722   -3741.2025 
 6098000    252.87149   -4846.8069   -4341.0327   -4846.8069            0    6326.3167     17.96071    22.968092    19.417904    8010.3363    4799.8046    7452.6652    6726.4803   -593.94346    884.57345    152.11324   -3601.9763 
 6099000    247.66789   -4839.9753   -4344.6089   -4839.9753            0    5469.5056    18.086303    23.123353    19.240666    8046.7538    4708.6535     4848.292    6851.5713   -713.81748    59.577779   -797.94598   -3702.7425 
 6100000    261.60821   -4862.6904   -4339.4416   -4862.6904            0    5457.4632    18.037736    22.995648    19.420496    8055.4162    4474.5891    6642.2601    5255.5405   -888.78348    429.02356    701.56888   -3698.2989 
 6101000    235.80678   -4850.6037    -4378.961   -4850.6037            0    4984.1662    17.995441    23.010861    19.520851    8083.4004    4721.5211    5903.5367    4327.4407   -858.09746    1298.8793    324.02505   -3791.3871 
 6102000    241.78831   -4824.0211   -4340.4147   -4824.0211            0     4381.278    18.118372    23.046129    19.337208    8074.4128     4954.468    4457.1135    3732.2525    174.15288   -198.44275   -481.59724   -3824.4884 
 6103000    259.89224    -4840.192   -4320.3754    -4840.192            0    5169.8367    17.939085    22.899078    19.569967    8039.1174    7199.9252    3983.6239    4325.9611   -305.38202   -758.21002    1683.1381    -3714.252 
 6104000    253.99647   -4831.8744   -4323.8501   -4831.8744            0    5930.5978    18.119319    22.952345    19.350421    8047.4698    4437.2267    6364.7253    6989.8414    800.02074    766.99943    1594.7944   -3627.8109 
 6105000     256.5864   -4797.9449   -4284.7404   -4797.9449            0    5574.2357    17.761491    23.158913    19.574591    8051.7502     5925.801    5844.4118    4952.4943   -501.23571   -227.55434    982.88243   -3630.1773 
 6106000    242.92772   -4850.2771   -4364.3917   -4850.2771            0    2920.6849    18.220899    23.274568     19.20934    8146.3652    3834.1472    1382.7784     3545.129   -169.94289   -520.01723    175.59692   -4017.3957 
 6107000    262.95928   -4855.4996   -4329.5485   -4855.4996            0     6686.281    17.786448    23.004996    19.529101    7990.8619    8508.3841    5793.3454    5757.1136     -2125.83   -819.21721   -50.583154   -3550.3392 
 6108000    252.35954   -4821.2391   -4316.4888   -4821.2391            0    4488.3405    18.167554    23.083771     19.29175    8090.4904    4860.4483    3301.8841    5302.6891   -1791.3159    -1178.528     463.1324   -3786.9028 
 6109000    248.17297   -4841.3728   -4344.9962   -4841.3728            0    6473.7542    17.943761    22.979116    19.434177    8013.3283    6816.2401    7093.4619    5511.5606    273.01368     1061.021    87.307436   -3588.4333 
 6110000    261.53717   -4841.0899   -4317.9832   -4841.0899            0    3206.4945    18.135632    23.086044    19.337983    8096.4268     2302.682     3251.564    4065.2376   -1280.7525    862.00725   -970.56289   -3939.3665 
 6111000    263.83748   -4814.4117   -4286.7041   -4814.4117            0    6644.1733    18.028192    22.739852     19.55439    8016.4868    7405.9565    6945.1029    5581.4606   -456.10663     1099.925    498.70273    -3509.919 
 6112000    264.06058   -4850.3314   -4322.1776   -4850.3314            0    4140.8916    18.215438    22.965741    19.287269    8068.4628    3990.5802    4264.2441    4167.8504   -1245.4021    334.09528    518.73785   -3834.9179 
 6113000    259.98206   -4873.1517   -4353.1555   -4873.1517            0    7530.6049    17.891802    22.939616    19.420656    7970.8405    8600.8856    7131.0979    6859.8311    717.04695    528.42269   -445.95862   -3477.7488 
 6114000    250.36263   -4820.3262   -4319.5701   -4820.3262            0    5012.1787    18.065931    23.196126    19.270613    8075.5357    4858.4578    4880.8792    5297.1991    -158.9653     346.6386    497.15483   -3729.2687 
 6115000    242.73201    -4822.789    -4337.295    -4822.789            0    5143.8269    17.887732    23.374322    19.281328    8061.7857    4927.4257    4332.6522    6171.4028    1438.9404   -262.36552    1906.6349   -3732.5205 
 6116000    245.82405   -4867.3794   -4375.7009   -4867.3794            0    4636.4915     17.88189    23.234127    19.395915    8058.4228    5142.6851    4714.3789    4052.4104   -227.48937     535.5069    307.12093   -3830.8027 
 6117000    239.75055   -4845.1955   -4365.6648   -4845.1955            0    5546.9804    17.884207    23.217907    19.313203    8019.4958    6143.0425    4944.6531    5553.2456    292.48503   -1192.8278    518.51292   -3716.9114 
 6118000    240.97804   -4831.1165   -4349.1306   -4831.1165            0    7646.3212      17.8144    23.368169    19.091474    7947.5882    6399.8799    8069.9514    8469.1321    814.23234    992.11805   -1435.0266   -3462.8652 
 6119000    249.89791   -4860.3802   -4360.5535   -4860.3802            0    5579.6307    17.843057    23.150082    19.467663    8041.4729    5612.6495    5989.0454    5137.1973    348.30631    27.025213   -136.52039   -3706.1932 
 6120000    250.63405   -4843.4962   -4342.1971   -4843.4962            0    5562.8383    17.950209    23.092387     19.39234    8038.3802    5335.7252     6309.334    5043.4558    833.72582     197.0746   -20.980013   -3690.0571 
 6121000    252.04357   -4863.7122   -4359.5939   -4863.7122            0    4437.5775    17.917967    23.143046    19.361668    8028.8255    5489.5589    4067.0019    3756.1718    729.41284   -226.27423    333.78529   -3839.9883 
 6122000     258.7469   -4825.2073   -4307.6815   -4825.2073            0    5459.8692    18.047012     22.96994    19.416648    8048.9538    5119.0214    5443.5984    5816.9877    273.92221   -563.36287    539.89495   -3666.7708 
 6123000    244.36592   -4822.2206   -4333.4585   -4822.2206            0    5567.4659    18.067331    22.815861    19.478182    8029.3294    5949.1722    5712.5826    5040.6431    35.629562   -735.53681   -833.72372   -3681.5109 
 6124000    240.97257   -4807.2732   -4325.2983   -4807.2732            0    7083.8025    18.311872    22.757397    19.312596    8048.1488    8118.3332    5697.8572     7435.217    2555.0632   -387.91967    55.949741   -3493.8441 
 6125000    251.18834   -4814.9134   -4312.5057   -4814.9134            0    6061.2222    18.116761    22.690623    19.626295    8067.9891    6082.0354    7043.6999    5057.9313    235.41411    564.50179   -54.602065    -3599.322 
 6126000    238.55989   -4824.4195   -4347.2703   -4824.4195            0    5140.6268    18.243603    22.723411    19.418205    8049.9507    4196.8539     6351.434    4873.5926    534.51916   -37.303484    476.94922   -3743.7593 
 6127000    243.32616   -4843.0485   -4356.3661   -4843.0485            0    4593.0865    18.025375    22.681177    19.709558    8057.9913    3611.1747    5489.4568    4678.6281    743.28938    187.18981    275.96853   -3816.5978 
 6128000    235.38352   -4824.1183   -4353.3222   -4824.1183            0    5420.2762    18.266769     22.93305    19.302401    8086.0216    3753.6318    6303.2778    6203.9192   -849.83851    1285.3173    45.083181   -3714.1289 
 6129000    258.65701   -4805.4502   -4288.1042   -4805.4502            0    6081.9893    17.996736    22.978602    19.507439     8067.103    6433.5311    5863.1265    5949.3104   -774.83257   -559.00323    666.11675   -3572.5556 
 6130000    239.46706   -4859.0542   -4380.0905   -4859.0542            0    5204.8094    18.006551    23.026981    19.399781    8043.8574    4813.8473    5276.3163    5524.2645    -730.2596   -72.070989   -1456.2269    -3769.507 
 6131000    245.10467    -4856.513   -4366.2734    -4856.513            0    6494.9231    17.927968    22.888245    19.450977    7981.5088    4109.9864      7769.55     7605.233   -1052.6077   -979.27344    1443.7058   -3610.2505 
 6132000    262.00815   -4831.9664   -4307.9177   -4831.9664            0    4090.9471    18.172948    23.103314    19.363773    8129.9833    5517.3833    3502.8954    3252.5625   -1255.4773   -65.761491   -1662.3876   -3822.8645 
 6133000    255.61129   -4820.7952    -4309.541   -4820.7952            0    6353.9835    17.989895    22.967762    19.454513    8038.3643    8052.7606    5646.6548     5362.535    806.44164   -889.79815    648.29642   -3564.6553 
 6134000    240.94464   -4842.1918   -4360.2728   -4842.1918            0     5619.983     18.05658    23.006858     19.38388    8052.5517    5571.9343    6599.5846    4688.4301   -141.63167   -141.72907    1269.3067    -3700.272 
 6135000    246.73378   -4839.5834   -4346.0854   -4839.5834            0    6588.7979     17.85078    23.163093    19.250426    7959.6522    6986.0444    6737.1752     6043.174   -306.00281   -310.40755    40.373793   -3581.2356 
 6136000    269.59216   -4862.1751   -4322.9575   -4862.1751            0    1420.0678    18.117088     23.28987    19.347394    8163.5289    2177.7347    913.92921    1168.5395   -732.80314   -914.24561   -862.91416   -4153.8889 
 6137000    249.99085   -4848.0258   -4348.0133   -4848.0258            0    6363.1706    17.984995    23.149295    19.195634    7991.9095    6014.6586    6895.0835    6179.7698   -346.50573   -476.57443    1284.3667   -3606.3615 
 6138000    253.12826   -4851.5344   -4345.2466   -4851.5344            0     4926.953    17.883626    23.171437    19.400513    8039.3655     5209.839    4323.7891    5247.2309    551.86907   -345.62697    635.39882   -3767.5815 
 6139000    241.12978    -4856.039   -4373.7496    -4856.039            0    4776.6547    18.010467    23.198684    19.232524    8035.7162    4536.2348    4479.3895    5314.3399   -229.97062    158.67387    1637.0411   -3813.9607 
 6140000    265.09248   -4845.7366   -4315.5189   -4845.7366            0    4794.1918    17.765344    23.496407    19.248818    8034.8755     5196.682    3796.4482    5389.4453   -1377.9636   -324.32859    179.48174   -3753.7335 
 6141000    258.69666   -4852.5303    -4335.105   -4852.5303            0    4938.8135    17.998183    23.082801     19.34901    8038.5169    6442.2466    3340.1969    5033.9969    -642.8431   -1653.3814    128.61605   -3756.1105 
 6142000    233.94927   -4805.1926   -4337.2652   -4805.1926            0    3997.6261     17.96992    23.158661    19.434932    8088.0278    3636.3061     4465.327    3891.2452    698.05965    135.72683    485.21294   -3865.7228 
 6143000    246.96004   -4839.9638   -4346.0132   -4839.9638            0    5694.0884    17.940315    23.129585    19.341699    8025.8776    6007.7447    5235.2203    5839.3003    949.21057   -31.970852    971.05102   -3679.5248 
 6144000    244.25343    -4826.138    -4337.601    -4826.138            0    5109.7381      18.1386    22.883694    19.457167    8076.2453    3562.7238    5620.3393    6146.1511    826.68931    751.91805    1108.3501   -3735.7569 
 6145000    244.64325   -4828.0488   -4338.7321   -4828.0488            0    6299.9695    18.139636    22.717075    19.445237    8012.9831    5297.2331    7040.9518    6561.7236   -184.48557    189.25021    1142.3943   -3602.5105 
 6146000     249.4035   -4852.3844   -4353.5466   -4852.3844            0    5344.6636    18.081431    22.723417     19.55809    8035.8692    5460.0061    5295.1723    5278.8122   -760.97398   -123.05313   -524.50655   -3727.1793 
 6147000    225.68513   -4816.5495   -4365.1514   -4816.5495            0     5969.849    18.228827    22.608713    19.479385    8028.0452      3655.24    6157.2325    8097.0745    454.57997   -584.66493    -1417.759   -3666.1967 
 6148000    249.60383   -4851.9281   -4352.6896   -4851.9281            0    5981.4723    18.078886    22.854612    19.425258    8026.2431    5100.8404    6802.2149    6041.3616   -876.71476    992.50938    1378.5651   -3652.5312 
 6149000    251.67822   -4811.0203   -4307.6328   -4811.0203            0    4843.7154    18.151285    22.804212    19.488831    8066.9289     3207.584    5855.2402     5468.322    881.27615    163.23756    308.08346   -3737.7799 
 6150000    245.13462   -4839.6493   -4349.3498   -4839.6493            0    6291.9452     17.91893    22.844665    19.551848     8003.587    6259.5244    8389.1801    4227.1311    531.45255    306.89268     261.6151   -3614.9281 
 6151000    254.06729   -4804.4754   -4296.3094   -4804.4754            0    5366.1077     18.10641    23.060088    19.376576    8090.4064    5859.8433    4647.1799    5591.2999    707.29858    66.303381   -249.31297   -3663.1609 
 6152000    255.66887   -4836.3059   -4324.9366   -4836.3059            0     6924.913    17.961855    22.923422    19.433248    8001.5851     6474.697    7278.4672    7021.5747    1461.3983   -155.97693    1399.8229   -3516.8345 
 6153000    262.00868   -4849.1207    -4325.071   -4849.1207            0    5282.1739    17.976904    23.111023    19.341447    8035.6873    5635.5984    4736.9927    5473.9306   -433.27393   -313.77132   -817.11097   -3706.0411 
 6154000    257.45957   -4856.3557   -4341.4048   -4856.3557            0    6588.4277    18.078036    22.953846    19.356516    8032.1887    5446.4253    7141.8457    7177.0121     444.6686    430.16259   -1077.8539   -3569.6282 
 6155000    241.74579   -4833.8006   -4350.2791   -4833.8006            0    3990.8128    18.037194     23.21064    19.378863    8113.0548    2235.7385    4765.7214    4970.9784    932.12684    703.39503   -166.86847   -3878.0838 
 6156000    244.23051    -4853.323   -4364.8318    -4853.323            0    4877.9583    18.161854    23.032064     19.24598    8050.6895     4373.304     3676.795    6583.7759   -448.60423   -1988.8302    1551.9569   -3792.1056 
 6157000    250.78568    -4845.058   -4343.4556    -4845.058            0    6013.4783    17.852689    23.027093    19.516347    8023.0831    7473.0857    5587.0034    4980.3457    199.39517   -349.11058    1239.9186   -3639.8279 
 6158000    247.53023    -4864.041     -4368.95    -4864.041            0    5077.8241    17.938411    23.121453    19.323124       8014.5     4908.153    4521.2571    5804.0622    -315.6072   -284.02652   -1515.2815   -3775.4373 
 6159000     240.5172    -4841.056   -4359.9918    -4841.056            0    4431.7308    18.008762    23.323922    19.204638    8066.6193    3919.8636    3595.6811    5779.6478    511.77443    1516.0626    19.575252   -3838.6281 
 6160000    250.44072   -4828.1604   -4327.2481   -4828.1604            0    5608.9036    18.022162    22.958176    19.440943    8043.8063     5221.661    5507.9637    6097.0862    1000.0045    1139.2825   -369.96668   -3669.2638 
 6161000    235.21754   -4834.0387   -4363.5746   -4834.0387            0    5970.5938    18.165049    22.965924    19.257597    8033.8288     5478.407    5640.9098    6792.4647   -8.5122354    561.45767    566.76652   -3664.0291 
 6162000    245.95029   -4830.4104   -4338.4795   -4830.4104            0      3731.54    17.821033    23.104366     19.64194    8087.4446    4347.2727    3345.7088    3501.6385   -956.40978   -1263.0686     234.7651   -3898.3552 
 6163000    240.50743   -4818.8493   -4337.8047   -4818.8493            0     8023.774    17.963646    23.058906    19.187276    7947.7924    8402.3634    7113.3009    8555.6576    23.525341    396.83782    159.45997   -3407.7658 
 6164000    245.17463   -4841.9859   -4351.6064   -4841.9859            0     7032.682    17.928645    23.253711    19.251752    8026.2002    6944.3252    5731.1014    8422.6193     -159.966     150.6954    556.83656   -3528.4035 
 6165000    245.75533   -4841.4673   -4349.9263   -4841.4673            0    6024.6337    17.923138    22.890339    19.489671    7995.9631    6194.9658    7034.4682    4844.4672   -1433.1246    346.76455   -866.01937   -3647.3761 
 6166000     261.5654   -4822.1205   -4298.9574   -4822.1205            0    4725.2299    18.213898    22.955631    19.371455    8099.4285    3580.7501     5366.196    5228.7435    973.68064     586.6696    1656.7043   -3740.8044 
 6167000    240.88806   -4828.6241   -4346.8183   -4828.6241            0    7123.6365    17.974975    22.875355    19.502695    8019.1952    8338.4196    6335.5456    6696.9443   -2265.6211   -582.62704   -2072.7486   -3513.6966 
 6168000    250.10099   -4817.2162   -4316.9833   -4817.2162            0    6063.7405    17.998693    22.922731    19.388907    7999.4595    7348.3232    5769.3787    5073.5194    1404.5341     114.2351   -247.94753   -3609.5636 
 6169000    270.51885   -4836.5556   -4295.4845   -4836.5556            0    5204.2756    17.971269    22.829479    19.576107    8031.5815    6447.0727    4912.2289    4253.5251    209.80942   -1231.6844   -1149.3809   -3685.8953 
 6170000    250.64469   -4831.7671   -4330.4468   -4831.7671            0    5416.8516    18.169251    22.878062    19.364202    8049.2587    4793.1574    5590.0257    5867.3716   -702.10829   -1016.1675   -994.08936   -3694.5616 
 6171000    259.53923   -4844.0118   -4324.9013   -4844.0118            0    5110.2812    18.097352    22.753428    19.596602    8069.4262    5472.2679     5962.004    3896.5718    1205.0049     198.9644    585.53904   -3723.5014 
 6172000    244.43874   -4843.3804   -4354.4727   -4843.3804            0    6719.2344    18.149758    22.732277    19.471926    8033.8309    6717.4079    7533.4377    5906.8578    257.79852    1525.9668    290.60642   -3567.2123 
 6173000    245.88962   -4854.5478   -4362.7382   -4854.5478            0    5047.5182    17.967128     22.79576    19.602939     8028.861    6042.1447    5067.8625    4032.5473    1181.3262   -111.14267    1028.9981   -3771.7106 
 6174000    260.96462   -4877.5717   -4355.6102   -4877.5717            0    5206.5886    18.048061    22.889715    19.398649    8013.8724    6088.8872    5407.8159    4123.0627    1010.5344    -908.0442   -511.81192   -3747.0948 
 6175000     249.4092   -4840.7265   -4341.8773   -4840.7265            0    6191.3064    17.971256    23.006218    19.350571    8000.5056    6133.9845    7044.6941    5395.2407    171.33447   -418.75489    461.56885   -3619.4808 
 6176000    254.28605   -4856.5475    -4347.944   -4856.5475            0    4866.4528    17.983997    22.875108    19.573035    8052.0696    4682.9882    4520.9333     5395.437    7.4970145     828.8848     141.0432   -3776.4707 
 6177000    257.26462   -4827.0602   -4312.4992   -4827.0602            0    5323.1342     18.32719    22.908702    19.186689    8055.5723    3852.9986    6888.2753    5228.1286    348.14861    366.14124    295.85429   -3687.1254 
 6178000    263.41312   -4851.7886   -4324.9299   -4851.7886            0    4669.3523    18.078136    22.963188    19.437401      8069.08    4948.2911    5706.3075    3353.4584    214.05643    781.64925    711.86271    -3775.444 
 6179000    260.97231   -4845.0186   -4323.0418   -4845.0186            0    5350.2891    17.992951    22.955503    19.453232    8034.9094    5894.2381    4774.6815    5381.9479    184.36763   -1193.5597    512.05486     -3696.09 
 6180000    253.44031   -4835.7442   -4328.8322   -4835.7442            0    5604.1294     18.06491    22.757424     19.54823    8036.4889    5149.5777    6135.1535     5527.657    1002.3574    123.17438   -96.769238   -3672.0061 
 6181000    249.07208   -4847.0169   -4348.8419   -4847.0169            0    5193.0958    18.087824    22.880055    19.393941    8026.1904    5455.4937    4413.2246     5710.569   -1.7728085   -1503.1494   -36.065283   -3740.9706 
 6182000     253.6049   -4839.9476   -4332.7065   -4839.9476            0    5303.1722    17.979617     22.96386    19.539867    8067.6478     7600.226    3878.0381    4431.2525    358.03187   -562.25677    309.47172   -3708.7439 
 6183000    244.26085   -4850.6498   -4362.0979   -4850.6498            0    5581.1819    18.241719     22.82373    19.341696    8052.8006    5807.6038     6229.308    4706.6337   -354.24177    1394.4225   -1914.4016   -3706.6337 
 6184000    243.96927   -4852.9873   -4365.0186   -4852.9873            0    4786.6691    18.050297     23.04478     19.34859    8048.3383    5582.6596    4575.1394    4202.2083    1012.9709    141.91051   -142.84698   -3803.1749 
 6185000    250.15738   -4809.3945   -4309.0488   -4809.3945            0    4235.9142    17.945705    23.137527    19.487549    8091.6052    5045.6995    4238.4117    3423.6315   -1570.3162    194.69277   -1788.7417   -3809.1781 
 6186000    262.77152   -4840.3557   -4314.7802   -4840.3557            0    6797.1196    18.056992    23.003542    19.205117    7977.3214    5150.3602    7053.1739    8187.8246   -381.60193    -66.57969    821.67471   -3523.9961 
 6187000     249.6998    -4857.558   -4358.1276    -4857.558            0     5439.901    17.954981    22.955366     19.46874    8024.2974    6023.2126    5407.8744     4888.616   -364.91293    -417.3727    1184.7362   -3721.5169 
 6188000     263.5502   -4846.8494   -4319.7164   -4846.8494            0    6861.6711    18.059283    23.029011    19.225796    7995.7669    7905.8853    6547.4421    6131.6859   -317.32513    360.31006   -611.86736   -3519.5766 
 6189000    244.41635   -4867.4408   -4378.5779   -4867.4408            0    4179.7922    17.948024    23.078723    19.514896    8083.4107    5639.0457    3182.2786    3718.0522     700.3937    1161.9855    169.84872   -3885.8295 
 6190000     263.9442   -4818.7222   -4290.8012   -4818.7222            0    4658.5553    18.100365    23.307598    19.069525    8044.9756    3246.0817    4304.7764    6424.8077    629.97639   -492.98254     627.9842   -3744.2236 
 6191000    258.68612   -4845.6484   -4328.2442   -4845.6484            0    4625.9001    18.022539    23.126799    19.393623    8083.3326     3323.575    5391.7614    5162.3639   -1092.4312    235.56711   -442.79987   -3782.9102 
 6192000    253.05693   -4834.7234   -4328.5783   -4834.7234            0     5600.675    18.034952    23.017924    19.300082    8011.9882      6397.18    5314.3974    5090.4477   -1031.9349   -856.76264   -2638.6261   -3674.1583 
 6193000    250.88169   -4847.4576   -4345.6632   -4847.4576            0    6435.7717    17.931904     23.13934    19.327668     8019.676    6372.0734    6110.6362    6824.6054    212.06494    319.97518     1357.053   -3592.9434 
 6194000    257.46395   -4847.7133   -4332.7536   -4847.7133            0    6267.1781    17.989222    23.023553    19.339316    8009.8768    6254.8514     5814.583    6732.0999   -1817.0443    356.18625   -360.24621   -3600.6479 
 6195000    243.62475   -4827.3153   -4340.0357   -4827.3153            0    4858.8373    18.092654    22.929564    19.459175    8072.7688    4884.8411    5266.3761    4425.2947    145.83203      738.788   -258.22477   -3767.9899 
 6196000    245.75827   -4849.4298   -4357.8829   -4849.4298            0     4897.028    18.145052    22.958103    19.388613    8076.8303     4323.714    5422.1521     4945.218   -244.15338    21.124513   -720.47939   -3781.0508 
 6197000    250.57367   -4846.8187   -4345.6404   -4846.8187            0     5337.516    18.065659    22.947205    19.366876    8028.6622     5070.892    6064.2207    4877.4354    1732.2846    1200.4923    607.10052   -3720.6717 
 6198000     242.9137   -4831.0954    -4345.238   -4831.0954            0    4396.1862    18.109819    22.897188    19.483135    8078.9535    3098.4858    4564.6199    5525.4528    854.33881   -1844.4846    -259.5086   -3827.2651 
 6199000    258.50538   -4838.3566   -4321.3139   -4838.3566            0    7867.9208    18.130348    22.798923     19.32559    7988.2793    9766.2679    7420.7631    6416.7314    214.01918   -291.85437   -1104.4099   -3404.6944 
 6200000     254.3794   -4865.1999   -4356.4097   -4865.1999            0    4053.7871    18.107904    22.862179    19.487624    8067.6061    4023.4011    3712.1219    4425.8382    -879.4441    979.95777   -1697.8952   -3879.4502 
 6201000    247.97427   -4831.6998   -4335.7206   -4831.6998            0    6710.8192    18.215536    22.803441    19.309834    8020.8591    7907.7202    6313.3644    5911.3731   -139.72657    160.92027   -1283.4776   -3550.7158 
 6202000    255.01957    -4854.437   -4344.3664    -4854.437            0    5952.7113    18.108247    22.798218    19.521921    8059.3471    4524.4211    6841.0603    6492.6526    57.703426    938.22912   -850.21864   -3644.7007 
 6203000    240.26511   -4850.0667   -4369.5068   -4850.0667            0    5452.1994    18.080828    22.755272    19.511896    8027.8608    4566.1533    6534.7822    5255.6626    159.41195   -1143.6066    773.95062   -3731.1736 
 6204000    241.54738   -4864.3683   -4381.2437   -4864.3683            0    4223.2869    18.014246    23.158941    19.264961    8037.1655     3263.242     4708.518    4698.1008   -97.915696    736.98638   -141.07534   -3886.2161 
 6205000    248.09445   -4866.0218   -4369.8023   -4866.0218            0    5716.0139    17.956431    23.057721    19.364246    8017.4637    5780.0447    6043.7452    5324.2518    1124.2674    881.14838    484.93247   -3701.4489 
 6206000    241.19566   -4838.1073   -4355.6862   -4838.1073            0    5492.9258     18.01167     23.23558    19.127554    8005.1028    5488.2184    5410.1389      5580.42    414.69044   -202.20518   -433.71513   -3714.4079 
 6207000    253.00563   -4842.7049   -4336.6624   -4842.7049            0    5643.6933    17.716684    23.326201    19.410543     8021.658    8002.4123    4664.8113    4263.8562    160.17293    383.98711     397.9045     -3676.42 
 6208000    253.58235   -4831.8367   -4324.6407   -4831.8367            0     5327.284    18.021288    23.187191    19.225574     8033.657     5677.798    4812.1469     5491.907    624.62315    30.219224   -1441.4296    -3700.482 
 6209000    248.48734   -4846.5551   -4349.5497   -4846.5551            0    4470.4909    17.895966    23.320728    19.312881     8060.172    4331.1624    4137.0096    4943.3008   -283.46991    680.60968    1512.5783   -3824.0464 
 6210000    247.29213    -4827.795   -4333.1802    -4827.795            0    3814.6394     17.97011    23.311734    19.372227    8115.3054    3544.6101    3953.8816    3945.4265    785.34045    572.43688   -196.00163   -3881.7047 
 6211000    258.28202     -4850.09    -4333.494     -4850.09            0     6719.707    17.994627    23.002103    19.256281    7970.4495    6138.3075    5785.7865    8235.0271    121.35097   -123.40727     -2362.33   -3552.3897 
 6212000    242.25159    -4823.197   -4338.6639    -4823.197            0    5736.5371    18.048461    23.013171    19.328331    8028.0672     4383.371    6228.0497    6598.1906    346.67891   -110.80512   -1732.0974   -3667.0237 
 6213000      244.839   -4835.5192    -4345.811   -4835.5192            0    4020.3249     17.98765    22.965998    19.501238    8056.0459    3216.8374    3999.7154    4844.4219    690.83522   -145.64656    1122.8124   -3873.4664 
 6214000    248.57761   -4845.2273   -4348.0414   -4845.2273            0    5124.1075    18.045479    22.998829    19.435716    8066.3058    5872.4507    5004.3251    4495.5465   -312.14523   -1393.4378    657.73862   -3745.2476 
 6215000    240.40205   -4870.8726   -4390.0388   -4870.8726            0    5433.2575    17.982549    22.926968    19.441834    8015.5831    6326.5203    5001.4305    4971.8217     -465.817   -654.90596   -302.20961   -3754.8962 
 6216000    253.78601   -4856.9956   -4349.3922   -4856.9956            0     6395.389     18.17138    22.955772    19.274028    8039.9304    7363.3219     6375.587    5447.2582    925.62066    -361.6691    1402.4002   -3599.5064 
 6217000    241.36581    -4867.688   -4384.9266    -4867.688            0    4039.7248    17.980791    22.990195    19.570853     8090.236    4593.5847    2945.3415    4580.2482   -28.263622   -1556.9753   -664.37689   -3908.2884 
 6218000    247.31499   -4813.7992   -4319.1387   -4813.7992            0    7585.2689    18.138981    22.866223    19.258342    7987.7823    7261.1986     7882.784    7611.8241    625.49935   -920.68293   -629.41199   -3435.5033 
 6219000    255.51723   -4851.0262   -4339.9602   -4851.0262            0    5335.8201    17.852248    23.107417    19.481322    8036.4219     7705.757    3671.2407    4630.4625    1691.6442    -1830.016    1828.1889   -3714.5862 
 6220000    236.83204   -4851.7897   -4378.0964   -4851.7897            0    6411.0121    18.040171    22.931749    19.303008    7985.5128    5360.5158    6721.1837    7151.3367   -270.62257    245.87337   -569.42171   -3631.4666 
 6221000    251.17654   -4860.1901    -4357.806   -4860.1901            0    3942.7833     18.01795    23.095959    19.412105    8078.1889    4833.7614    2647.6918    4346.8967    334.54861   -1520.1182   -2379.3876   -3893.2984 
 6222000    230.68482   -4848.9484   -4387.5503   -4848.9484            0    4546.1556    18.115841    23.042423    19.352739    8078.4691    5665.1437     3163.433    4809.8901    2144.8581    293.12462    87.593242   -3851.9396 
 6223000    237.11125    -4848.938   -4374.6862    -4848.938            0    5821.1638    17.947168    23.143641    19.331287    8029.4978    7411.3465     5474.368    4577.7767   -925.55769   -339.11673   -283.09601   -3693.0164 
 6224000    260.69462   -4862.3734   -4340.9519   -4862.3734            0     4941.129    18.025334    23.088759    19.296285    8030.7781    5825.1182    4367.5148    4630.7539    331.48057   -8.2868687   -2927.1132   -3762.2437 
 6225000     227.2164   -4823.0391   -4368.5782   -4823.0391            0     4321.078    17.953687    23.073714    19.485415    8071.9938    4754.4128     4111.885    4096.9362   -667.19443    306.17249   -1990.8384   -3859.8934 
 6226000    249.78369   -4839.2692    -4339.671   -4839.2692            0    5995.3085    18.072378     23.02919     19.27523    8022.2013    4946.1854    6370.7301    6669.0099    1087.2455   -226.47626   -1609.5751   -3638.2464 
 6227000    254.44653   -4798.3734   -4289.4489   -4798.3734            0    4696.9631    18.078718    22.995926    19.506635    8109.6273    3331.0034    5539.3565    5220.5293    1099.7554     792.8565    182.93174   -3733.9363 
 6228000    254.34901   -4823.4742   -4314.7447   -4823.4742            0    5454.0371    18.085767    23.145129    19.226188    8048.0328    5775.4225    5315.7495    5270.9392    2725.9611     954.4018    2126.7539   -3674.5919 
 6229000    253.03323   -4831.5071   -4325.4094   -4831.5071            0    5505.7913    18.076437     23.00117    19.386392    8060.4582    4303.3517    6281.3666    5932.6556   -217.28647    567.37445   -475.19611   -3678.1843 
 6230000    256.87637    -4822.362   -4308.5775    -4822.362            0    4431.3385    18.133218     22.89275    19.444085    8071.6136    3818.2419    4744.1378    4731.6358    1281.5145   -886.98698   -1872.8721   -3786.9372 
 6231000    257.98107   -4820.4514   -4304.4574   -4820.4514            0    7309.6724    17.974692    22.854547    19.445347    7988.2153    6775.2223    7742.3712    7411.4238    1080.1517    166.51423   -1201.5778   -3452.8811 
 6232000    253.47708   -4848.5799   -4341.5944   -4848.5799            0    6162.4737    18.104824    22.833793    19.421126    8028.7286    5699.5973    6434.1335    6353.6904   -726.47771    -507.2904    170.30814   -3620.0256 
 6233000    240.29381   -4844.7067   -4364.0894   -4844.7067            0    6308.4029    18.182025    22.689035    19.490527    8040.4777    7189.2245      6317.14    5418.8442    979.75876    70.511142    -657.8479   -3624.3527 
 6234000    254.37749   -4826.5054    -4317.719   -4826.5054            0    6390.7568    18.268393    22.535066    19.530314    8040.2287    5695.5753    7197.1599    6279.5352    493.18954   -716.53567    996.97776   -3568.3485 
 6235000    248.49028   -4856.9843   -4359.9731   -4856.9843            0    6021.1869    18.152475    22.548612    19.532042    7994.7206    4586.5487    6902.5511     6574.461    1213.1204   -435.95413    72.347144    -3657.934 
 6236000    254.33835   -4864.3955   -4355.6873   -4864.3955            0     4120.006    18.191502      22.7587    19.478807    8064.5169    3616.5818    4742.8074    4000.6289   -1133.5096     808.0467    287.60401   -3871.1223 
 6237000    247.19604   -4849.5527   -4355.1301   -4849.5527            0    5644.1201    18.039929    23.002471    19.401005    8050.6978    6741.4048    4889.2656    5301.6899     -1189.04    984.86984   -616.21905   -3692.4473 
 6238000    246.91863   -4812.3246   -4318.4569   -4812.3246            0    6070.3123    18.076965    23.081476    19.258496    8035.4732    6584.3895    4875.1748    6751.3727   -569.99872    1309.3501    429.34783   -3607.0822 
 6239000    257.36369   -4857.9958   -4343.2366   -4857.9958            0    3663.9583    17.959166    23.290554    19.330886    8085.7024    4638.0326    2995.1805    3358.6617   -992.61052     712.1525   -1.0026022   -3911.1765 
 6240000     253.4335   -4834.3874   -4327.4891   -4834.3874            0    6229.2351    17.995014     23.14811    19.338209    8055.3417    5724.5435    5053.0786    7910.0831    59.403234   -756.43819   -722.10719   -3595.6854 
 6241000    255.71227   -4866.7331    -4355.277   -4866.7331            0    5613.5732    17.943036    23.127449    19.269027     7996.196    5108.8903    5383.3886    6348.4407   -665.85134   -894.76044    412.45172   -3700.6427 
 6242000    242.13467   -4845.9996   -4361.7004   -4845.9996            0    4880.3964    17.963032     23.20952    19.363676    8072.9749    5000.5684    4164.5377    5476.0833   -2217.4276    667.78062    1871.8134   -3787.1017 
 6243000    260.17215   -4829.2215    -4308.845   -4829.2215            0    6822.4148    18.009969    23.185781    19.143912     7994.023    7483.3928    6314.3411    6669.5104   -707.02401    1406.4381    -555.8836   -3513.4563 
 6244000    263.72422   -4857.7932   -4330.3122   -4857.7932            0    5176.4249    18.075316    23.060653    19.363223     8071.145    5338.0142    4871.0918    5320.1688    1110.5308    174.96625    1169.0666   -3720.9985 
 6245000    263.03099   -4825.8465    -4299.752   -4825.8465            0    6275.9451    17.945236    23.124299    19.308177    8012.3332    6969.6509    6395.9172    5462.2672   -857.46168   -50.645931   -331.18159   -3566.3974 
 6246000    241.81301   -4835.1686   -4351.5127   -4835.1686            0    3479.5298    18.151421    23.073894    19.328526    8095.2496    3180.0801    3349.3422    3909.1671   -377.50629   -62.241561   -214.81456   -3940.7162 
 6247000    245.92341   -4839.9029   -4348.0257   -4839.9029            0    6680.5079    18.007744    22.954895    19.420651     8027.834    4842.0777    7047.6955    8151.7503    -1081.602    367.10838    1508.3539    -3565.887 
 6248000    250.55097   -4816.5483   -4315.4154   -4816.5483            0    5627.5579    18.018061    23.008982    19.462558    8068.7334    5543.6937    5762.1414    5576.8386   -211.40208   -78.980149    1737.5511   -3653.1971 
 6249000    247.28874   -4848.5914   -4353.9833   -4848.5914            0    5221.9176    18.240254    22.716371    19.407795    8041.6659    5847.7748    5600.2578    4217.7204    16.963116   -84.659212    1674.0061   -3741.5597 
 6250000    267.26017    -4844.929   -4310.3756    -4844.929            0    4742.0206    18.132455    22.887118    19.470053    8080.0651    3438.1691    3575.0409     7212.852   -55.541858   -955.35912    758.11195   -3751.5785 
Loop time of 648.257 on 64 procs for 250000 steps with 1008 atoms

Performance: 66.640 ns/day, 0.360 hours/ns, 385.649 timesteps/s
99.1% CPU use with 64 MPI tasks x 1 OpenMP threads

MPI task timing breakdown:
Section |  min time  |  avg time  |  max time  |%varavg| %total
---------------------------------------------------------------
Pair    | 27.791     | 31.995     | 35.731     |  32.7 |  4.94
Bond    | 0.28571    | 0.29554    | 0.31572    |   1.2 |  0.05
Kspace  | 305.18     | 323.76     | 340.16     |  50.1 | 49.94
Neigh   | 4.3923     | 5.5501     | 7.2067     |  32.0 |  0.86
Comm    | 115.27     | 135.31     | 154.92     |  87.5 | 20.87
Output  | 1.0292     | 1.0306     | 1.0317     |   0.0 |  0.16
Modify  | 137.29     | 142.97     | 147.07     |  25.5 | 22.06
Other   |            | 7.342      |            |       |  1.13

Nlocal:        15.7500 ave          20 max          12 min
Histogram: 1 5 7 18 0 10 15 5 2 1
Nghost:        2476.75 ave        2496 max        2455 min
Histogram: 3 4 4 7 7 12 12 6 6 3
Neighs:        5177.00 ave        6546 max        3962 min
Histogram: 1 5 7 18 4 6 15 5 2 1

Total # of neighbors = 331328
Ave neighs/atom = 328.69841
Ave special neighs/atom = 2.0000000
Neighbor list builds = 9105
Dangerous builds = 0

unfix		3
unfix		2
unfix		1

write_data	data.final.${pid}
write_data	data.final.0
System init for write_data ...
PPPM initialization ...
  extracting TIP4P info from pair style
  using 12-bit tables for long-range coulomb (../kspace.cpp:340)
  G vector (1/distance) = 0.3774996
  grid = 24 27 32
  stencil order = 5
  estimated absolute RMS force accuracy = 0.00266606
  estimated relative force accuracy = 8.0287604e-06
  using double precision FFTW3
  3d grid and FFT values/proc = 3825 384
Last active /omp style is kspace_style pppm/tip4p/omp
WARNING: Not all mixed pair coeffs generated from mixing. Use write_data with 'pair ij' option to store all pair coeffs. (../write_data.cpp:312)

write_restart   restart.lmp.${pid}
write_restart   restart.lmp.0
System init for write_restart ...
PPPM initialization ...
  extracting TIP4P info from pair style
  using 12-bit tables for long-range coulomb (../kspace.cpp:340)
  G vector (1/distance) = 0.3774996
  grid = 24 27 32
  stencil order = 5
  estimated absolute RMS force accuracy = 0.00266606
  estimated relative force accuracy = 8.0287604e-06
  using double precision FFTW3
  3d grid and FFT values/proc = 3825 384
Last active /omp style is kspace_style pppm/tip4p/omp
Total wall time: 0:10:51
