LAMMPS (30 Jul 2021)
Processor partition = 0
  using 4 OpenMP thread(s) per MPI task
using multi-threaded neighbor list subroutines
variable        pid world 0 1
variable        phase world IceIh Liquid

shell cd ${phase}
shell cd IceIh
include Restart.lmp
echo both
log log.lammps
#include		in.partitions
include		in.temp
variable        temperature equal 277.85
variable	tempDamp equal 100.0
include		in.pressure
variable        pressure equal -2625.0
variable        pressureDamp equal 1000.0 # This is 1 ps
include		in.seed
variable        seed equal 745823

units		real
atom_style	full
#include		in.box
read_restart	restart.lmp.${pid}
read_restart	restart.lmp.0
Reading restart file ...
  restart file = 30 Jul 2021, LAMMPS = 30 Jul 2021
  restoring atom style full from restart
  orthogonal box = (-0.027040957 -0.25125468 -0.071855267) to (18.234613 23.880432 22.285051)
  2 by 4 by 2 MPI processor grid
  restoring pair style lj/cut/tip4p/long/omp from restart
  restoring bond style harmonic/omp from restart
  restoring angle style harmonic/omp from restart
  864 atoms
  576 bonds
  288 angles
Finding 1-2 1-3 1-4 neighbors ...
  special bond factors lj:    0        0        0       
  special bond factors coul:  0        0        0       
     2 = max # of 1-2 neighbors
     1 = max # of 1-3 neighbors
     1 = max # of 1-4 neighbors
     2 = max # of special neighbors
  special bonds CPU = 0.001 seconds
  read_restart CPU = 0.006 seconds
include 	in.setup
variable	out_freq equal 1000
variable	out_freq2 equal 10000
variable	out_freq3 equal 1000

timestep	2.0

neigh_modify    delay 7 every 1

include		in.tip4p
# This is TIP4P/Ice

# create groups ###
group ox type 2
288 atoms in group ox
group hy type 1
576 atoms in group hy

# set charges - beside manually ###
set group ox charge -1.1794
Setting atom values ...
  288 settings made for charge
set group hy charge 0.5897
Setting atom values ...
  576 settings made for charge

# ### TIP3P Potential Parameters ###
pair_style lj/cut/tip4p/long/omp 2 1 1 1 0.1577 8.5
pair_coeff 1 1*2 0.000 0.000
pair_coeff 2 2 0.21084 3.1668
bond_style  harmonic
bond_coeff  1 450 0.9572
angle_style harmonic
angle_coeff 1 55 104.52
kspace_style pppm/tip4p/omp 1.0e-5
pair_modify tail yes

thermo          ${out_freq}
thermo          1000
thermo_style    custom step temp pe etotal epair emol press lx ly lz vol pxx pyy pzz pxy pxz pyz enthalpy

restart 	${out_freq3} restart.lmp.${pid} restart2.lmp.${pid}
restart 	1000 restart.lmp.${pid} restart2.lmp.${pid}
restart 	1000 restart.lmp.0 restart2.lmp.${pid}
restart 	1000 restart.lmp.0 restart2.lmp.0


include         in.dump
dump            myDump all atom ${out_freq2} dump.water.${pid}
dump            myDump all atom 10000 dump.water.${pid}
dump            myDump all atom 10000 dump.water.0
dump            myDump2 all dcd ${out_freq2} dump.dcd
dump            myDump2 all dcd 10000 dump.dcd
dump_modify     myDump append yes
dump_modify     myDump2 append yes


variable natoms 	equal  "count(all)"                        # NUMBER ATOMS
variable H      	equal  "enthalpy/v_natoms"                 # ENTHALPY-per-atom
variable Vol      	equal  "vol/v_natoms"                 # volume-per-atom
fix AVG all 		ave/time ${out_freq} 1 ${out_freq} v_Vol v_H file vol_enthalpy.dat
fix AVG all 		ave/time 1000 1 ${out_freq} v_Vol v_H file vol_enthalpy.dat
fix AVG all 		ave/time 1000 1 1000 v_Vol v_H file vol_enthalpy.dat


timer           timeout 23:50:00 every 1000
New timer settings: style=normal  mode=nosync  timeout=23:50:00

fix 		1 all shake 1e-6 200 0 b 1 a 1
Finding SHAKE clusters ...
       0 = # of size 2 clusters
       0 = # of size 3 clusters
       0 = # of size 4 clusters
     288 = # of frozen angles
  find clusters CPU = 0.000 seconds
fix             2 all nph aniso ${pressure} ${pressure} ${pressureDamp}
fix             2 all nph aniso -2625 ${pressure} ${pressureDamp}
fix             2 all nph aniso -2625 -2625 ${pressureDamp}
fix             2 all nph aniso -2625 -2625 1000
fix             3 all temp/csvr ${temperature} ${temperature} ${tempDamp} ${seed}
fix             3 all temp/csvr 277.85 ${temperature} ${tempDamp} ${seed}
fix             3 all temp/csvr 277.85 277.85 ${tempDamp} ${seed}
fix             3 all temp/csvr 277.85 277.85 100 ${seed}
fix             3 all temp/csvr 277.85 277.85 100 745823


run             250000
PPPM initialization ...
  extracting TIP4P info from pair style
  using 12-bit tables for long-range coulomb (../kspace.cpp:340)
  G vector (1/distance) = 0.36997371
  grid = 24 27 25
  stencil order = 5
  estimated absolute RMS force accuracy = 0.0033630882
  estimated relative force accuracy = 1.012784e-05
  using double precision FFTW3
  3d grid and FFT values/proc = 6300 1296
Last active /omp style is kspace_style pppm/tip4p/omp
Neighbor list info ...
  update every 1 steps, delay 7 steps, check yes
  max neighbors/atom: 2000, page size: 100000
  master list distance cutoff = 10.8154
  ghost atom cutoff = 10.8154
  binsize = 5.4077, bins = 4 5 5
  1 neighbor lists, perpetual/occasional/extra = 1 0 0
  (1) pair lj/cut/tip4p/long/omp, perpetual
      attributes: half, newton on, omp
      pair build: half/bin/newton/omp
      stencil: half/bin/3d
      bin: standard
Setting up Verlet run ...
  Unit style    : real
  Current step  : 10750000
  Time step     : 2
  Walltime left : 23:49:59.95
Per MPI rank memory allocation (min/avg/max) = 12.24 | 12.28 | 12.30 Mbytes
Step Temp PotEng TotEng E_pair E_mol Press Lx Ly Lz Volume Pxx Pyy Pzz Pxy Pxz Pyz Enthalpy 
10750000     285.3646   -4124.7129   -3635.6077   -4124.7129            0   -3391.4528    18.261654    24.131687    22.356906    9852.3427   -3023.3525    -3955.058    -3195.948    701.92362    573.52604    259.56691   -4122.9131 
10751000    269.27757   -4143.4771   -3681.9445   -4143.4771            0   -3406.3954    18.260462     23.88986    22.509664    9819.6134   -4278.6692   -2733.0746   -3207.4425   -286.40882    -703.8649    145.13783    -4169.771 
10752000    276.00861   -4156.0715   -3683.0022   -4156.0715            0   -2901.2856    18.483686    23.641872     22.42207    9798.1966   -3168.3173   -2485.2337   -3050.3059   -325.36709   -593.23494    62.560755   -4097.5862 
10753000    275.29527   -4151.6371   -3679.7904   -4151.6371            0   -3847.3612    18.500649    23.846457    22.380158    9873.5645   -3442.6111   -4022.9509   -4076.5215   -156.55575   -844.04514    106.45314   -4233.7943 
10754000    262.95744   -4177.8079   -3727.1079   -4177.8079            0   -3118.5261    18.063074    24.038448    22.534785      9784.79   -1944.2025   -3215.4205   -4195.9551   -371.36379   -744.80293   -305.58375   -4172.1251 
10755000    276.05501   -4135.0713   -3661.9225   -4135.0713            0   -3365.4352    18.355462    23.931968    22.372425    9827.8108   -4475.5397    -3807.937   -1812.8288   -1255.9681    324.39837    37.741716   -4144.2854 
10756000    287.60232   -4151.3516   -3658.4111   -4151.3516            0    -1793.235    18.471994    23.614373    22.341376    9745.4094   -2252.6678     -2100.21   -1026.8273     298.5296   -37.137767   -425.24323   -3913.2779 
10757000    287.09925   -4166.4024   -3674.3241   -4166.4024            0   -1810.1925    18.324598    23.637811    22.416523    9709.7931   -1366.4084    -981.2391   -3082.9301   -1189.6069     1085.546    317.79709   -3930.6608 
10758000    278.11549    -4141.106   -3664.4255    -4141.106            0   -2406.2849    18.118842    23.983028     22.44477    9753.2558    -1374.065   -2694.6296   -3150.1599    44.740245    264.56021    223.06822   -4006.6985 
10759000    292.30838     -4147.76   -3646.7535     -4147.76            0   -2176.5381    18.339138    23.747416    22.393207     9752.402    -2035.718   -2754.4403   -1739.4559   -888.44627    -1276.433     614.6525   -3956.3198 
10760000    280.41731     -4157.86   -3677.2343     -4157.86            0   -1712.9906    18.446163    23.622881    22.257263    9698.6361   -1510.9844   -2028.7694    -1599.218   -580.99004    1148.4507    339.49846   -3919.5276 
10761000     277.3571   -4160.7002   -3685.3196   -4160.7002            0   -2340.4923    18.213534    23.713936    22.601052    9761.7233    -1762.971   -1970.1657   -3288.3403   -524.49126   -502.55783     210.9728   -4018.5231 
10762000    299.57871   -4144.2806    -3630.813   -4144.2806            0   -2939.4877    18.280289    24.153094    22.161513    9784.8742   -3419.1628   -3884.7473    -1514.553   -246.83156   -266.06626   -38.281347   -4050.2848 
10763000    292.88865   -4156.6897   -3654.6886   -4156.6897            0   -2362.2054    18.348704    23.463234    22.612913    9735.3097   -2397.6419   -687.88537   -4001.0891   -173.38956    83.214437   -633.60897   -3990.0733 
10764000    268.18598   -4161.2166    -3701.555   -4161.2166            0   -1937.3103    18.434215    23.717526    22.239035    9723.2163   -1594.5081   -2447.3828   -1770.0401    72.309642    228.16676    775.09565   -3976.2717 
10765000     277.1678   -4149.3534   -3674.2973   -4149.3534            0    -3018.727    18.239182    23.803924    22.522081    9778.2788   -2833.6271   -3088.4863   -3134.0675   -378.41349   -322.41203   -598.73673   -4104.7863 
10766000    281.55511   -4159.4859   -3676.9101   -4159.4859            0   -2333.5912    18.323713    23.806578     22.26243    9711.4264   -3689.9836   -2331.0624   -979.72776   -73.418445    641.46013   -14.660446   -4007.4194 
10767000    297.17045   -4184.4291   -3675.0891   -4184.4291            0   -2383.2412    18.406131    23.714725    22.323686    9744.2071   -3659.8395   -1727.2502   -1762.6338   -289.11563   -527.18006    836.43081   -4013.7697 
10768000    265.77475   -4168.7997   -3713.2709   -4168.7997            0   -2315.1464    18.257142    23.751382     22.44426    9732.5571   -2595.6069   -2216.9813   -2132.8511    140.71039   -49.927679    718.92665   -4041.8813 
10769000    285.99505   -4175.1372   -3684.9515   -4175.1372            0    -3952.842    18.350469    24.058859    22.180495    9792.4968   -5700.6479   -3884.1217   -2273.7563   -890.76101   -274.93516   -124.64851   -4249.4708 
10770000    257.54612   -4144.6128   -3703.1876   -4144.6128            0   -3400.6478    18.272656    23.793146     22.56764    9811.5965   -3826.6378   -3170.3738    -3204.932   -760.90435    182.07244    332.44065   -4189.7933 
10771000     271.1883   -4162.3157   -3697.5083   -4162.3157            0   -2765.9588    18.484652    23.878196    22.069871    9741.2025   -4176.2223   -2632.9582    -1488.696   -124.08665    119.97331    584.72478   -4090.4554 
10772000    277.58199   -4130.4037   -3654.6377   -4130.4037            0   -3998.1999    18.363786    23.571173    22.662611    9809.6465   -5010.9514   -2737.0906   -4246.5576    582.98636    46.210852    214.32056   -4226.6347 
10773000     271.6578   -4175.3199   -3709.7077   -4175.3199            0   -2985.7159    18.349369    23.913473    22.263477    9769.1498   -3173.7454   -1936.5473    -3846.855   -634.13045    -94.88258    922.49913   -4135.0917 
10774000    284.91692   -4113.1518   -3624.8139   -4113.1518            0   -1876.4578    18.101026     24.08145    22.394857    9761.8946   -2044.1257   -1409.8062   -2175.4415    107.90333   -233.19224    410.41009     -3891.96 
10775000    277.08364   -4149.8002   -3674.8883   -4149.8002            0   -3567.3229    18.288338    23.792137    22.607009    9836.7313   -2917.4904   -3599.6368   -4184.8414    841.16618    499.05172    718.67196   -4186.6516 
10776000    290.15803   -4140.2173   -3642.8964   -4140.2173            0   -2434.1865    18.664501    23.604925    22.150322    9758.8597   -3883.5532   -3245.8651   -173.14135   -636.84279   -909.43982    -90.77551    -3989.337 
10777000    302.23028   -4177.9568   -3659.9445   -4177.9568            0   -1597.6167    18.326006    23.615053    22.492301    9733.9846   -474.84965   -2027.1712   -2290.8292    572.45382   -303.21178    135.93971   -3886.7424 
10778000    280.07049   -4186.2869   -3706.2557   -4186.2869            0   -1869.1931    18.253958    24.009251    22.124924    9696.5548   -2252.4913   -3399.6487    44.560766   -453.34796    115.03158   -481.39759   -3970.5863 
10779000    258.84211   -4168.2729   -3724.6264   -4168.2729            0   -3784.5965    18.297932    23.941491    22.514839    9863.2953   -3698.2228   -4437.4377   -3218.1289    -254.2729    430.70362    316.68865   -4269.0257 
10780000    282.56486   -4144.2823   -3659.9758   -4144.2823            0   -3555.2043    18.658839    23.295098    22.674199    9855.5552   -3908.6405   -2281.7465   -4475.2259    449.68502     89.51044    149.01201   -4170.9765 
10781000    288.74973   -4141.3127   -3646.4056   -4141.3127            0   -3224.2851    18.462354    23.731124     22.41356     9820.107    -3377.114   -2738.2741   -3557.4671   -369.04478   -218.06291    -325.0362   -4108.1754 
10782000    280.33707   -4147.7675   -3667.2793   -4147.7675            0   -3063.9826    18.120309    24.109344    22.610708    9877.9117   -2670.6863   -3911.8461   -2609.4156   -17.649827   -513.01731    452.67603   -4108.6743 
10783000    285.30472   -4164.5596    -3675.557   -4164.5596            0   -2499.0004    18.321385    23.981399    22.345613    9818.0469   -2354.1156   -2937.7029   -2205.1827    306.60469   -20.016185   -27.740354   -4033.3793 
10784000    269.55105   -4184.6165   -3722.6152   -4184.6165            0    -1495.943    18.455739    23.485237    22.334256    9680.5018   -1866.7775    347.44386   -2968.4953   -328.32546   -601.55627   -58.748573   -3933.8127 
10785000    277.91655   -4205.5708   -3729.2313   -4205.5708            0   -1830.5885    18.310445    23.685581     22.39902    9714.3104   -2553.3913   -2001.4049   -936.96928    39.733341    928.74687    -855.0038   -3988.5768 
10786000    274.18383   -4178.5906   -3708.6489   -4178.5906            0   -1630.2351    18.186222    24.258896    22.229957    9807.3605   -796.46002   -1955.7548   -2138.4906   -108.47168   -474.07732    256.45455   -3941.8219 
10787000     285.1978   -4161.1057   -3672.2864   -4161.1057            0   -2463.4183    18.199366    23.889136    22.505956    9784.8499    -3487.631   -504.23644   -3398.3873   -390.16223   -153.36991    281.68092   -4023.8211 
10788000    275.25471   -4154.8081   -3683.0309   -4154.8081            0   -2680.8908    18.607593    23.522981    22.387781    9799.2672     -3359.73    -1730.163   -2952.7794   -593.77687   -578.78706     304.5598   -4066.1631 
10789000    272.93784   -4142.0556   -3674.2495   -4142.0556            0   -2914.2891    18.516731    23.823277    22.265092    9821.7828   -3243.6617   -2434.1147    -3065.091    1114.7047   -30.509931   -78.631097   -4091.6941 
10790000    280.13451   -4166.0946   -3685.9537   -4166.0946            0   -3050.6648    18.101272    24.015751    22.599624    9824.4101   -2265.5729   -4131.1489   -2755.2725    1105.8299    1099.7597   -633.87568   -4123.0497 
10791000    263.13881   -4134.1776   -3683.1667   -4134.1776            0   -3146.5776    18.472064    23.792253    22.396794    9843.2125   -3807.4757   -3278.1158   -2354.1413   -308.22874   -383.21299    682.00931   -4134.8679 
10792000     268.3304   -4154.7111   -3694.8019   -4154.7111            0   -3224.3087    18.536383    23.542852    22.416989    9782.7586   -3663.0603   -2710.1325   -3299.7332   -154.71774   -49.636719   -584.98055   -4154.8189 
10793000    286.01148   -4151.2319    -3661.018   -4151.2319            0   -2829.9862    18.172753    23.878895    22.455443    9744.4329   -1898.0486   -3322.1719   -3269.7382   -851.87483    41.188294   -13.440261   -4063.1946 
10794000      278.472   -4150.3854   -3673.0939   -4150.3854            0   -2368.4778    18.394473    23.932642    22.232519    9787.3846   -2803.8874   -2405.6507   -1895.8954   -344.81412   -6.5594161   -312.38099    -4011.168 
10795000     263.4259   -4187.2255   -3735.7225   -4187.2255            0   -2320.1429    18.374931    23.591444    22.449555    9731.6833   -2520.6489    -2419.505   -2020.2748   -1054.8405   -418.61358    299.30845   -4065.0126 
10796000    281.38983   -4153.2191   -3670.9265   -4153.2191            0   -1648.8343    18.438655    23.786155    22.180907    9728.2062   -1499.2315   -1399.7073   -2047.5642   -749.29099    -148.6756   -15.721205   -3904.8564 
10797000    272.88153   -4171.7251   -3704.0155   -4171.7251            0   -3368.0994    18.206728    23.877214    22.560595     9807.676   -2828.7504   -2964.6048   -4310.9431   -556.11565    -451.9335    322.90907   -4185.7712 
10798000     278.4538   -4151.4278   -3674.1675   -4151.4278            0   -4251.8843    18.382939    24.039723    22.369523     9885.557   -3889.2041   -4200.4612   -4665.9876   -54.346159   -244.26996    45.560363   -4287.1647 
10799000    285.39176   -4148.7384   -3659.5867   -4148.7384            0   -3318.7697    18.528616    23.780813    22.396385    9868.4196   -4383.4405   -3259.0094   -2313.8591    485.43657    17.763232    880.82478   -4137.2266 
10800000    290.02513    -4184.417   -3687.3239    -4184.417            0   -2299.2193    18.459943    23.526665     22.46458     9756.387   -1522.4624   -1879.5203   -3495.6752    93.940359    39.360941    228.85795   -4014.4726 
10801000    289.22957   -4142.4554   -3646.7258   -4142.4554            0   -3339.0262    18.229699    24.021207    22.364137    9793.2417    -3113.886   -3715.3077   -3187.8849   -954.27015    342.43416   -173.88455   -4123.6202 
10802000    278.76108   -4170.5925   -3692.8056   -4170.5925            0   -2803.7518    18.182203    24.024971    22.287454    9735.7597   -2635.7208   -3567.2157    -2208.319    477.53991    -215.9954     691.1044   -4090.8993 
10803000    272.57656   -4171.5687   -3704.3818   -4171.5687            0   -1977.4761    18.537798    23.466454    22.426391    9755.8475   -3650.1877   -252.87146   -2029.3693    306.85063    248.83815    191.16758   -3985.7351 
10804000    278.10089   -4128.8032   -3652.1478   -4128.8032            0   -3456.9935    18.439528    23.766459    22.413357     9822.481   -3874.0999   -3522.6065   -2974.2741   -168.57676   -458.15479    633.56643   -4147.3649 
10805000    282.63837   -4167.9045    -3683.472   -4167.9045            0   -2681.8384    18.128863    24.066624     22.36323    9757.0892   -2572.0259   -2001.2927   -3472.1966   -79.362816     8.379094   -142.50867     -4065.09 
10806000    286.58364   -4138.4309   -3647.2363   -4138.4309            0   -2440.6141    18.287133     23.77885    22.456148    9764.9884   -2804.5952   -1816.7607   -2700.4866    372.54274    15.535704    1049.4911   -3994.8099 
10807000    286.90606   -4180.3124   -3688.5652   -4180.3124            0   -1940.7894    18.545865    23.491002     22.36571    9743.8667   -3211.6681   -1281.3019   -1329.3982   -330.11595    329.18561    685.64126   -3964.3597 
10808000    281.57681   -4164.3957   -3681.7827   -4164.3957            0   -2968.5255    18.485517    23.769688    22.387382    9836.9034   -4612.6844   -3411.5544   -881.33766   -142.44163   -117.66666   -415.82099   -4107.6507 
10809000    267.64026   -4143.1661   -3684.4399   -4143.1661            0   -2975.6847    18.172353    23.870925    22.573413     9792.141   -1867.3227   -2829.9288   -4229.8025    372.24526    -24.56438    384.36229   -4109.3924 
10810000    270.60159   -4184.4484   -3720.6465   -4184.4484            0   -3624.2249    18.463247    24.014796    22.161291    9826.1194   -3058.1831   -5108.6525   -2705.8391    8.7177227   -18.360429    368.16858    -4240.012 
10811000    274.92426   -4152.8531   -3681.6423   -4152.8531            0   -3191.7611     18.38359    23.643674    22.547671    9800.4719   -3217.8908   -3003.6121   -3353.7803   -569.12117    178.01888   -21.321922   -4137.8401 
10812000    270.16426   -4125.5328   -3662.4805   -4125.5328            0   -2713.0194     18.46896    23.819517     22.29697    9808.9212   -3582.2502   -3086.0001    -1470.808   -23.774205    18.008414    181.43966   -4050.5862 
10813000    287.98707   -4135.4179   -3641.8179   -4135.4179            0   -1753.6962    18.189327    23.809576    22.472703    9732.4817   -954.81156   -685.40344   -3620.8737   -62.506143   -721.21941     141.1244   -3890.7345 
10814000    301.79087   -4197.8256   -3680.5664   -4197.8256            0   -2929.8219    18.268396    23.929832    22.367713    9778.2621   -3343.0051   -2054.3629   -3392.0977   -120.40308   -334.25631    20.752102   -4098.3763 
10815000    258.77256   -4165.8044   -3722.2771   -4165.8044            0   -3033.1095    18.406283    23.701695    22.407697    9775.5844   -2767.8375   -2368.3463   -3963.1445    229.14111   -17.431736      352.485    -4154.698 
10816000    289.38718    -4151.602   -3655.6022    -4151.602            0    -2272.706      18.4967    23.608396    22.469813    9812.0601    -2505.003   -480.49127   -3832.6237   -459.23653    675.62937     500.2894   -3980.8238 
10817000    261.18241   -4169.1193   -3721.4616   -4169.1193            0   -2689.5772    18.289681     23.97411    22.298927    9777.6074   -3318.6397   -2931.6375   -1818.4542    4.5914905    185.65853    -62.55903   -4104.9855 
10818000    264.46023   -4138.5612   -3685.2854   -4138.5612            0    -2665.634    18.099237    23.864036    22.826985    9859.4508   -1787.3553   -2277.3794   -3932.1674    566.43861   -256.20184   -175.73119   -4068.5769 
10819000    265.39524   -4191.1334    -3736.255   -4191.1334            0   -3279.8908    18.408219    23.879317    22.191668    9754.9183   -3796.5857   -3241.3009    -2801.786   -211.01785   -763.26264    204.89154   -4202.8703 
10820000    261.41304   -4119.8903   -3671.8373   -4119.8903            0   -3034.6666    18.202341    23.728915    22.797388    9846.6887   -2847.6202   -2614.4035    -3641.976    1102.5072    -255.5884   -467.73198   -4107.6271 
10821000    267.41988   -4148.5871   -3690.2386   -4148.5871            0   -2621.4506    18.360813    23.906072    22.218288    9752.3828   -2903.7644   -3995.6452   -964.94212    123.01381   -741.02383   -870.66991   -4063.0836 
10822000    300.21656   -4126.9338   -3612.3729   -4126.9338            0   -1995.3487    18.199765    23.777949    22.525943    9748.1711   -715.69732   -2240.8931   -3029.4557   -277.46022    29.903116   -41.018989   -3896.0458 
10823000    282.45292   -4205.5473   -3721.4327   -4205.5473            0   -2062.9943    18.438543    23.492784    22.409848    9707.3348   -2349.4585   -2019.6263    -1819.898    137.63614     1262.668    193.96722   -4013.4939 
10824000     275.2273   -4161.1322    -3689.402   -4161.1322            0   -2463.7969    18.368807    23.837967    22.302798    9765.8382   -2783.6009     -4147.82    -459.9698    1167.8856   -169.62456    708.43674   -4040.3076 
10825000    281.74486   -4176.2649   -3693.3638   -4176.2649            0   -1664.1616    18.077124    23.766217    22.583064    9702.2456   -862.25415   -664.95209   -3465.2785    292.26545   -209.33612   -336.91984   -3928.8382 
10826000    275.62844   -4157.8206   -3685.4029   -4157.8206            0   -4049.4933    18.432462    24.009123    22.245358    9844.6217   -3088.4831   -4786.0094   -4273.9875    -1645.989   -346.76307    227.31933   -4266.8037 
10827000    276.45026   -4181.8743    -3708.048   -4181.8743            0   -3039.7983    18.485043    23.627305    22.392834    9780.1095   -4693.4643   -1763.8163   -2662.1143    471.00897    356.25819    335.55385   -4141.6232 
10828000    291.42216   -4135.5111   -3636.0235   -4135.5111            0   -2728.3832    18.283829    23.653891    22.521646    9740.2448   -2077.9729   -3484.0319   -2623.1449    250.80072   -832.77373    78.080739   -4023.5944 
10829000    268.06751   -4156.6467   -3697.1882   -4156.6467            0    -2087.249    18.194881    23.927556    22.407668    9755.3809   -2380.9967   -1431.9027   -2448.8477   -562.79448    -243.9682    549.01396   -3994.1458 
10830000    296.06219   -4139.6708   -3632.2303   -4139.6708            0   -2713.5244    18.460344    23.718457    22.417468    9815.5079   -2914.6574    -2411.849   -2814.0667    -76.21569   -25.023932   -477.02102   -4020.6689 
10831000    269.98029    -4142.046    -3679.309    -4142.046            0   -2434.1129    18.557493    23.590092    22.416207    9813.2094   -3440.9137   -1395.0126   -2466.4124    1010.0845    185.68837   -574.19115   -4027.6685 
10832000    274.76192   -4180.0753   -3709.1428   -4180.0753            0   -2458.7946    18.316211    23.895624     22.29785    9759.2626   -3585.6369    -3005.478   -785.26896    26.786133    330.92132    1225.2338   -4059.1001 
10833000     261.0426   -4152.1635   -3704.7454   -4152.1635            0   -2680.1276    18.220384    23.848244    22.498451    9776.1203   -1662.4998   -2734.0291   -3643.8539    34.934401   -746.58717    19.423394   -4086.8638 
10834000    282.86415   -4123.2257   -3638.4062   -4123.2257            0   -1663.6634    18.318987    23.741954    22.330936    9712.3613   -2246.0881   -1229.6486   -1515.2536   -300.63048   -429.06887    312.39186   -3874.0556 
10835000    286.86789   -4186.6188    -3694.937   -4186.6188            0   -610.60224    18.333226    23.644912    22.188828    9618.5798   -2305.9798    406.01531    68.157732   -102.11697    -520.5691    641.44854   -3780.5906 
10836000    284.43859   -4173.2315   -3685.7135   -4173.2315            0   -2378.5466    18.255569    23.851335    22.382674    9745.8565   -2464.9106   -2909.5016   -1761.2276    417.16043    173.94751    232.20548   -4023.7842 
10837000    274.28034   -4177.2505   -3707.1433   -4177.2505            0   -2228.9929     18.23724    23.792882    22.505388     9765.459   -1397.6489   -1279.5365   -4009.7932   -503.15738   -257.37092   -459.28452   -4024.5947 
10838000    283.43593   -4128.3163   -3642.5168   -4128.3163            0   -2652.6855    18.639958    23.723564     22.24436    9836.5947   -2362.9178   -3050.3391   -2544.7998   -853.88675   -287.97016   -636.02849   -4023.0622 
10839000    272.38244   -4189.9637   -3723.1095   -4189.9637            0   -2148.3203    18.207368    23.755127    22.424782    9699.1297    -1807.241   -3995.2423   -642.47776    1.9975788    41.973993    275.52113   -4026.9934 
10840000    280.63853   -4169.7409   -3688.7361   -4169.7409            0   -1145.2352    18.101936    23.962282    22.301629    9673.6367   -945.71559   -1520.3583   -969.63165   -133.77033    275.56956   -327.51151    -3850.306 
10841000    263.28197   -4171.1838   -3719.9275   -4171.1838            0   -3125.1608    18.391298    23.845933    22.230787    9749.4824   -2512.3464   -2708.6395   -4154.4965       27.885    133.94098   -415.39939   -4164.2822 
10842000    286.87574   -4160.6855   -3668.9903   -4160.6855            0   -1967.6286    18.289618    23.553445    22.525448    9703.5913   -1854.2299   -1572.4112   -2476.2447    740.89675    -286.0425     -18.9586    -3947.443 
10843000    271.74476   -4186.1486   -3720.3874   -4186.1486            0   -2795.4212     18.38039    23.834765    22.326691     9781.151   -2272.2245   -2577.3841    -3536.655    597.92437   -71.089746    141.96802   -4119.1488 
10844000    271.24768    -4151.483   -3686.5738    -4151.483            0   -2494.7977    18.130786    24.023787    22.563513    9827.9927    -1382.129   -3539.2004   -2563.0636   -646.49294   -249.73166    233.37532   -4044.1561 
10845000    285.52085   -4195.1308   -3705.7579   -4195.1308            0   -2420.0838    18.413839    23.662518    22.420929    9769.1974   -2415.0211    -2295.784   -2549.4462    369.93541    176.07114   -575.58512   -4050.5562 
10846000    274.28554   -4137.5043   -3667.3882   -4137.5043            0   -1456.6394    18.549309    23.480581    22.287071    9707.1016   -2617.2164     99.63742   -1852.3393    52.647536   -632.23396    179.50268   -3873.6019 
10847000    280.77191   -4153.7379   -3672.5045   -4153.7379            0   -2828.5201    18.281076    23.900099    22.443036    9805.8008   -2441.7129   -2888.7826   -3155.0647   -1078.7263    1005.7483    634.10629   -4077.0042 
10848000    262.99673   -4164.2675   -3713.5002   -4164.2675            0   -2983.9346    18.184518    24.061598    22.510898    9849.6111   -851.05123   -3527.1283   -4573.6242    1233.1035   -74.335924    279.48023   -4142.1318 
10849000    270.67465   -4142.0122   -3678.0851   -4142.0122            0   -3261.7772    18.450342    23.903189    22.328519    9847.3687   -3606.4331   -3862.8583   -2316.0401   -77.989551    534.00149   -510.44214   -4146.5213 
10850000    272.87537   -4172.4953   -3704.7962   -4172.4953            0   -1943.6154    18.056255    23.588539    22.782056    9703.3487   -551.16632   -2025.5726   -3254.1073   -261.65796   -761.20872    921.67786   -3979.8438 
10851000    278.06997   -4198.5307   -3721.9282   -4198.5307            0   -2418.3683    18.483053    23.838595     22.19856    9780.9079   -2786.5399   -2840.2997   -1628.2652    -396.6311   -297.11933    148.67874   -4066.8952 
10852000    289.52024   -4154.4474   -3658.2196   -4154.4474            0   -3912.5006    18.277682    23.900486    22.726499    9927.9687   -3910.7745   -3584.8571   -4241.8702   -338.02974   -92.961235     166.2207   -4224.7076 
10853000    279.22172   -4149.2376   -3670.6611   -4149.2376            0   -3675.7521    18.333972    23.892977    22.470212    9843.1473   -2456.7932   -4116.6254   -4453.8378   -250.70445     194.9073   -159.83836   -4198.3234 
10854000    281.36525   -4163.0599   -3680.8095   -4163.0599            0   -2574.8412    18.442036    23.841285    22.285778    9798.6523   -2966.1562   -3350.1619   -1408.2057   -576.20517    237.24457    203.66247   -4048.7628 
10855000    283.48841   -4144.0738   -3658.1844   -4144.0738            0   -1845.4218    18.367685    23.615684    22.434204     9731.183    -1627.293   -2717.6901   -1191.2823   -993.34564   -590.99878    69.429953   -3920.0854 
10856000    271.80617   -4185.5897   -3719.7232   -4185.5897            0   -3080.1225    18.295944    23.895706    22.311918    9754.6477   -3691.9992   -2633.9466   -2914.4218    338.02561   -262.39748    970.27316   -4157.9061 
10857000    264.43631   -4162.5038    -3709.269   -4162.5038            0   -2920.3302    18.084534    24.016623    22.524221    9782.9324   -1813.5826   -3788.2021    -3159.206   -528.90771    40.749633    74.607373   -4125.9243 
10858000    261.50629   -4122.4703   -3674.2575   -4122.4703            0     -3724.46    18.512517    23.958163     22.26273    9874.0972   -3650.1231   -3247.4431    -4275.814   -157.18322   -252.08977   -314.64137   -4210.5931 
10859000    283.04421   -4184.6086   -3699.4805   -4184.6086            0   -3812.5189    18.449424    23.639773    22.443277    9788.4151    -5087.278   -2396.0737    -3954.205   -45.353516    117.76504    450.06997   -4243.7328 
10860000    270.15372   -4150.3446   -3687.3104   -4150.3446            0   -1991.5373    18.228182    23.737329    22.498636    9734.8978   -2465.0407   -1216.7575   -2292.8136   -949.79919   -98.449477   -247.44962   -3970.0559 
10861000     264.4487   -4124.3482   -3671.0922   -4124.3482            0   -2888.0088    18.326348     23.99402      22.3202    9814.6997    -3401.567   -2545.3382    -2717.121    1071.3828    550.66767   -4.1839436    -4084.474 
10862000    266.45577   -4127.7737   -3671.0776   -4127.7737            0   -3789.5673    18.508978     23.71695    22.586614    9914.9929   -3839.6242   -4402.7541   -3126.3237   -92.421338     244.1136    50.343844    -4219.049 
10863000    287.01277   -4184.2114   -3692.2814   -4184.2114            0   -3280.6824    18.374965    23.689965    22.412469    9756.1991   -3030.2694   -2108.4188   -4703.3589    25.976302    419.62216    422.83885   -4159.0705 
10864000    283.67659   -4123.0268   -3636.8148   -4123.0268            0    -1705.725    18.447393    23.840565    22.214587    9769.8927   -2323.7202   -1298.4725   -1494.9823    -116.1832    105.09774    107.39696   -3879.8531 
10865000    289.94909   -4151.4784   -3654.5155   -4151.4784            0   -1572.7624    18.247356    23.956567    22.397775    9791.0533   -139.60306   -3213.3115   -1365.3726    -531.1973   -192.56303    -337.8153   -3879.0942 
10866000    272.63712   -4177.8384   -3710.5477   -4177.8384            0   -2893.5882    18.284212    23.820289    22.501111    9800.0261   -1581.4143   -3816.2221    -3283.128   -1292.7163    164.01658    353.24583    -4124.109 
10867000     274.8423    -4204.517   -3733.4467    -4204.517            0   -2761.3313    18.424325    23.684725    22.277606     9721.392   -3662.8665   -2056.7376   -2564.3897   -119.51355   -694.46836    416.74414   -4124.9387 
10868000    278.75647   -4191.8246   -3714.0455   -4191.8246            0   -2392.7458    18.378845    23.460593    22.501415    9702.1286   -2825.0663   -1577.8553   -2775.3159   -370.99947    229.23137    783.52165   -4052.6085 
10869000    268.46441   -4128.3043   -3668.1655   -4128.3043            0   -2292.4978    18.387616     23.98641    22.019541    9711.7825    -1745.955   -3004.8985   -2126.6398    615.45627     281.2612    352.70429   -3992.8666 
10870000    274.72392   -4173.5346   -3702.6672   -4173.5346            0   -2032.1677    18.222004    23.691568    22.523033    9723.3703   -2113.7405   -2686.3905    -1296.372   -284.21588    298.87188    493.36405   -3990.8395 
10871000    282.84177   -4190.0496   -3705.2685   -4190.0496            0    -2035.004    18.330625    23.819327    22.290275      9732.45   -1168.0772   -2077.5855   -2859.3493    -437.0988   -194.88927   -522.26295   -3994.1125 
10872000    290.34665   -4152.3053    -3654.661   -4152.3053            0   -1998.3885    18.392576    23.762109    22.375772    9779.2504   -1683.6611   -2414.0664   -1897.4381   -559.81936     196.5542   -847.11379   -3939.6719 
10873000    277.01974   -4203.3977   -3728.5954   -4203.3977            0   -3197.3442     18.30427    23.560927    22.637326    9762.6992   -3297.4066   -2352.7428    -3941.883   -984.90483   -266.47887     585.4151   -4183.8299 
10874000    275.01566   -4133.3461   -3661.9786   -4133.3461            0   -2359.5168    18.416523     23.98766    22.287483    9845.9258    -1982.585   -2573.2807   -2522.6848   -863.59823   -267.97973    74.725881   -4000.7881 
10875000    293.42588   -4142.1202   -3639.1983   -4142.1202            0   -3788.4437    18.271896    23.681102    22.763327    9849.6604   -3157.9027   -3394.9834    -4812.445    262.59218   -143.05488    443.81789   -4183.3976 
10876000    266.58299   -4148.8163   -3691.9022   -4148.8163            0   -2978.5168    18.468906    23.770541    22.268928     9776.413   -3425.6168   -3449.1914   -2060.7424    -137.2366    122.70643   -58.815928    -4116.576 
10877000    278.96395   -4162.3467    -3684.212   -4162.3467            0   -1650.1748    18.155478    23.802967    22.527648    9735.4189    -1945.989    -1820.346   -1184.1894    1112.4193    191.61928   -312.27119   -3918.5057 
10878000    287.77036   -4187.9954   -3694.7669   -4187.9954            0   -2384.9599    18.212338    23.914557    22.305296    9714.8486   -1293.4576   -3059.5684   -2801.8536    565.48587     -129.776    277.12537   -4032.6706 
10879000    283.71752   -4137.4367   -3651.1546   -4137.4367            0     -2537.77    18.400301     23.70335    22.267064    9711.7525   -3178.8225   -2266.9739   -2167.5134    504.21111    22.611749   -166.37739   -4010.5941 
10880000    269.66281   -4190.4149   -3728.2221   -4190.4149            0   -2962.9308    18.302289    23.637988    22.481064    9725.9664   -2112.5349   -3555.6767   -3220.5809   -112.56148    -506.2698    246.52935   -4148.4938 
10881000    272.47385   -4188.7059    -3721.695   -4188.7059            0   -4066.0108    18.499264    23.927374    22.268264    9856.7981   -5338.1448   -4825.7372   -2034.1504    263.53971   -646.51712   -374.89151   -4306.1893 
10882000    283.41057   -4130.1207   -3644.3647   -4130.1207            0    -2818.951    18.229375    23.906589    22.609449    9853.2473   -2200.6606   -2135.2359   -4120.9565    49.677138   -259.29066   -712.72007   -4049.4465 
10883000    273.71009   -4157.8156   -3688.6859   -4157.8156            0    -3102.657     18.36114    24.041729    22.296747    9842.5323   -3261.9788   -4200.0917   -1845.9004    555.67986    -517.1379   -22.964543   -4134.0513 
10884000    279.74212   -4189.8575   -3710.3891   -4189.8575            0   -3306.0131    18.491263    23.670721    22.581144    9883.8015   -3660.9771   -3618.5918   -2638.4705    235.98075    149.10825    34.050893   -4186.9347 
10885000    274.03661   -4203.6717   -3733.9823   -4203.6717            0    -3997.625    18.430778    23.877082    22.343527    9832.7874   -3917.2113   -3438.8828    -4636.781   -276.69509   -524.35767   -470.83451   -4307.2462 
10886000    281.41341   -4165.6891   -3683.3562   -4165.6891            0   -2730.2846    18.080688    24.068741    22.491092    9787.6603   -3132.8206   -2803.1322   -2254.9011    432.63513    505.76007     165.8948   -4073.0851 
10887000    261.39666   -4160.2549     -3712.23   -4160.2549            0   -2607.8191     18.30523    23.818755    22.478298    9800.7133    -2978.926   -2471.1737   -2373.3577   -127.58707    -92.39033    816.26576   -4084.9743 
10888000    281.27794   -4167.5505   -3685.4497   -4167.5505            0   -3004.7603    18.598937    23.717874    22.204245    9794.8973   -4886.3999   -3038.0777   -1089.8033   -110.03906    153.02216   -248.02605   -4114.6753 
10889000    263.79213   -4192.7413   -3740.6106   -4192.7413            0   -3813.8471    18.264932    23.719814    22.625868    9802.4487   -2531.8514   -3584.0073   -5325.6827    955.61134    562.93043    431.20967   -4285.8331 
10890000    280.53502   -4162.4501   -3681.6226   -4162.4501            0   -3745.4115    18.267752    24.251503    22.282587    9871.6418   -3303.6069   -4367.9031   -3564.7246    162.29865   -453.84405    719.38734   -4220.8412 
10891000    261.59683   -4167.5637   -3719.1957   -4167.5637            0   -3274.8192    18.191097     23.83945    22.667479    9830.1091    -2493.002   -2171.7614   -5159.6942   -316.17164   -232.37624   -174.97091   -4188.6805 
10892000    283.44509   -4193.7917   -3707.9765   -4193.7917            0   -2037.6888    18.549075    23.542071     22.16596    9679.5121   -3021.2173   -1197.6357   -1894.2133    324.70539   -76.081357    75.153111   -3995.6283 
10893000    274.32472   -4176.8033   -3706.6201   -4176.8033            0   -2227.3322    18.325705     23.71462    22.463667    9762.4206   -2285.2134   -1519.5294   -2877.2537    937.83132   -121.42806    9.4176401   -4023.7363 
10894000    276.17764   -4166.8115   -3693.4524   -4166.8115            0    -3010.599    18.109352     24.12964     22.50043    9832.0615   -2180.2114   -4032.3303   -2819.2553   -321.77832     -521.573    563.83193   -4125.1438 
10895000     296.6398   -4165.5991   -3657.1686   -4165.5991            0   -2968.2748    18.326863    23.879033    22.373106    9791.0922   -2880.5014   -3468.1508   -2556.1722    -801.8139   -155.20741    82.011126   -4081.0175 
10896000    274.81662    -4180.431   -3709.4047    -4180.431            0   -2894.9785    18.538021    23.677421    22.276257    9777.7743   -3373.1849    -4129.278   -1182.4725   -532.67105   -179.82176    544.31914   -4122.2252 
10897000    267.30617   -4179.0559   -3720.9022   -4179.0559            0   -2649.5756    18.262883    23.770735    22.507816     9771.142   -2330.4987   -2917.0969   -2701.1311    541.56231   -806.89044   -169.43863   -4098.4723 
10898000    263.04554   -4183.3833   -3732.5323   -4183.3833            0    -2761.938     18.23711    23.960446    22.370583    9775.2573   -1036.2583   -3494.1376   -3755.4183   -86.866603   -506.60875    257.26067     -4126.28 
10899000    282.75217   -4134.0384   -3649.4109   -4134.0384            0   -1547.9378    18.277761    23.766749    22.474995    9763.2041   -1467.0811   -1543.6226   -1633.1095    6.7989038    162.43269    548.42018    -3869.816 
10900000    271.14846   -4164.9609   -3700.2217   -4164.9609            0   -2225.9755    18.538263     23.57248    22.349578    9766.6056   -2370.7297   -317.91366   -3989.2832    659.44613    17.940635   -133.74915   -4017.2806 
10901000    274.17355   -4122.2923   -3652.3682   -4122.2923            0   -2777.9189    18.421546    23.780515    22.499514    9856.4489   -3317.7954   -3939.6277   -1076.3337   -278.18531    16.518172   -140.42376   -4051.6835 
10902000    270.00974    -4173.243   -3710.4555    -4173.243            0   -2860.8706    18.205199    24.082468    22.499425    9864.3358   -2156.9245   -2951.4204   -3474.2668   -1858.4163   -180.65547    142.68084   -4122.0238 
10903000    283.15597   -4157.5233   -3672.2037   -4157.5233            0   -3438.1578    18.299561    24.162807     22.35733    9885.7129   -3001.6866   -4821.9897   -2490.7969   -133.62473    354.90633    89.492758   -4167.8931 
10904000     265.5584   -4170.6521   -3715.4941   -4170.6521            0   -3414.7876    18.436367    23.631953    22.429062    9772.0584   -3027.9737   -3657.3978   -3558.9911    685.04869   -56.859919    302.65129   -4202.1541 
10905000    283.35077   -4176.1273   -3690.4738   -4176.1273            0   -2849.4823    18.502792    23.445243     22.54272    9779.0869   -3061.5082   -2764.2417    -2722.697   -240.16847   -1028.2956    175.01789   -4096.8611 
10906000    270.55873   -4208.5365   -3744.8081   -4208.5365            0   -3024.2378    18.288462    23.976781    22.219122    9743.0508   -4642.6724   -3650.4421   -779.59899    356.13149    128.62277   -104.23688   -4174.5293 
10907000    268.76128   -4164.1919   -3703.5443   -4164.1919            0   -3834.2983    18.287592    23.817423    22.503863     9801.857   -4216.3277   -3679.0327   -3607.5343   -979.29252    270.61839   -154.22737   -4251.6573 
10908000     287.2949   -4197.4661   -3705.0525   -4197.4661            0   -2583.4954    18.398657     23.80287    22.258676    9747.9832   -3444.4394   -2442.6865   -1863.3602   -499.12886   -8.1125086    -388.6043   -4072.3334 
10909000    283.63231   -4178.0998   -3691.9637   -4178.0998            0   -1841.2443     18.33398    23.695502     22.38966    9726.8042     -2448.49    165.37629   -3240.6192    773.50729   -889.60826    482.25819   -3953.1543 
10910000    281.13004   -4128.3912   -3646.5439   -4128.3912            0   -1692.3314    18.236806    23.930439      22.4063    9778.4403   -1026.1348   -3066.9414   -983.91789   -545.74201   -29.726369   -644.95811   -3887.8848 
10911000    267.13764   -4173.8648   -3716.0001   -4173.8648            0   -4357.0107    18.448487    24.000418    22.375311    9907.1479   -3200.9392   -5109.0482   -4761.0448   -813.03245   -745.15514     678.0779   -4345.5253 
10912000    259.29982   -4137.7505   -3693.3195   -4137.7505            0   -2787.8285    18.517077     23.73592    22.503408    9890.6944   -2546.6921   -3299.7518   -2517.0416   -1036.9381    148.15805    181.47099   -4095.4516 
10913000    271.53629   -4142.9591   -3677.5552   -4142.9591            0   -3614.7238    18.476046    23.825738    22.495345    9902.5728   -3628.4727   -4133.5079   -3082.1906    239.49142   -234.53426    212.21706   -4199.5895 
10914000     266.4428   -4153.3599   -3696.6861   -4153.3599            0    -4007.176    18.239489     24.08256    22.480567    9874.6696   -3276.5544   -5100.4622   -3644.5113   -407.74927   -550.68259    338.59756   -4273.7672 
10915000    276.21234    -4153.575   -3680.1565    -4153.575            0   -3718.1008    18.378187    23.850173    22.594616    9903.7384   -4559.0782   -3448.2806   -3146.9437    352.95147    214.70438    -1390.019   -4217.1836 
10916000      286.608    -4161.281   -3670.0447    -4161.281            0   -2504.6183    18.543403    23.636583    22.318065    9782.0676   -3088.3853   -2460.4114   -1965.0583    452.73825   -130.21494    992.50505   -4027.3571 
10917000    269.30086   -4183.8565    -3722.284   -4183.8565            0   -2669.0038    18.392866    23.795108    22.404833    9805.7041   -3528.4003   -2134.7173   -2343.8937    -104.5661   -538.59168    250.12616   -4103.9679 
10918000    289.90265   -4135.1585   -3638.2753   -4135.1585            0    -3713.348    18.145802    24.085843    22.634924    9892.7507   -3631.0336   -3655.2317   -3853.7786   -513.28952   -78.466259    1073.0015   -4174.0209 
10919000    291.60161   -4151.3902   -3651.5951   -4151.3902            0   -3632.8026    18.482764    23.915644    22.316371    9864.4433   -4533.8214   -3179.8685   -3184.7177   -86.631215   -174.92373    143.51543   -4174.2202 
10920000    277.87775   -4137.9094   -3661.6365   -4137.9094            0   -4276.8879    18.464721    23.718666    22.720253    9950.5289   -5706.9123   -3926.2186   -3197.5329    295.33053   -365.06029   -507.94509    -4282.291 
10921000    272.19243    -4151.634   -3685.1055    -4151.634            0   -3801.4244    18.371905    23.936469    22.460575    9877.2297   -4195.8958    -5246.439   -1961.9384   -177.01538   -222.97042    134.48225   -4232.6978 
10922000    269.42698    -4150.193   -3688.4044    -4150.193            0    -3606.573    18.436778    23.981151    22.227815    9827.6984   -3106.5886   -4226.5855   -3486.5451   -661.28626   -314.82313   -24.181259   -4205.3234 
10923000    274.63019   -4169.6926   -3698.9859   -4169.6926            0   -4409.6266    18.322586    23.867152    22.645989    9903.2708   -3730.1742   -4432.7461   -5065.9597    40.645737   -639.76088    1063.3921   -4335.8641 
10924000    254.76398   -4137.4413   -3700.7846   -4137.4413            0   -2682.9467    18.350251    23.790168    22.464246    9806.8913   -3310.2498   -2596.8325   -2141.7578   -47.381626    55.024081    496.03564   -4084.5089 
10925000    266.10913   -4117.3597   -3661.2577   -4117.3597            0   -3338.9023    18.639498    23.776165    22.272424    9870.5986   -4695.0499   -3158.6342   -2163.0228    340.94127    852.39628    735.30978   -4141.9012 
10926000    278.65832   -4183.1297   -3705.5188   -4183.1297            0   -2090.4669    18.263931    23.680449    22.508806    9735.0155   -1136.1034   -1446.7499   -3688.5475    411.02202     27.19846    370.52076   -4002.3133 
10927000     291.2762    -4153.553   -3654.3155    -4153.553            0   -1511.6495    18.189153     23.93741    22.328084     9721.675   -1491.2277   -2654.1482   -389.57259    946.52298   -42.759862     7.297785   -3868.6382 
10928000    295.07722   -4178.1793   -3672.4271   -4178.1793            0   -1941.4316    18.074623    23.779785    22.591429    9710.0367   -2221.2166   -1475.3559   -2127.7223   -847.61436    454.69782    50.410583    -3947.355 
10929000    276.26225   -4155.1617   -3681.6576   -4155.1617            0   -3387.6755    18.457058    23.780904    22.366228    9817.1087   -4687.5948   -3099.7633   -2375.6684    1163.4757    730.68209   -136.77125   -4166.6795 
10930000    278.22399   -4174.2786   -3697.4122   -4174.2786            0   -4434.0252    18.471444    23.836561    22.515064     9913.286   -4889.6578   -4450.3919    -3962.026    298.14171    218.96082   -335.99677   -4338.4619 
10931000    275.24907   -4139.5044   -3667.7369   -4139.5044            0   -3385.1184    18.411002    23.817071    22.489699    9861.6462   -3188.9742   -2928.7175   -4037.6634   -769.75885   -150.55365    -453.9736   -4154.5914 
10932000    296.80259   -4150.2256   -3641.5161   -4150.2256            0   -2637.5615    18.123917    24.257044    22.306848    9806.8187   -1419.7379   -3512.7636   -2980.1829   -423.33654    377.21168    432.06716   -4018.7464 
10933000    272.94405   -4183.7561   -3715.9394   -4183.7561            0   -1898.3073    18.171062    23.867704    22.390431     9710.764   -1706.5855    -1206.521   -2781.8152    480.80919   -274.34081    290.91055   -3984.7806 
10934000    279.36859   -4198.7999   -3719.9717   -4198.7999            0   -1748.5145    18.329765    23.627296    22.313927    9663.7779   -3101.6572   -613.09928   -1530.7869   -87.661795     -313.854    254.76539   -3966.4009 
10935000    275.07481   -4143.9353   -3672.4665   -4143.9353            0   -1457.1316    18.355617    23.692114    22.411114    9746.2206    -1178.165   -1147.3257    -2045.904    1299.1753   -492.79756   -438.34385   -3879.5812 
10936000    286.40105    -4158.384   -3667.5024    -4158.384            0   -2266.2099    18.318149    23.842199    22.313314    9745.2273   -2769.4145   -729.99092   -3299.2243   -373.52839   -256.45977    1174.4123   -3989.5856 
10937000    277.72051   -4167.3946   -3691.3912   -4167.3946            0   -2723.5634    18.195248    23.884471    22.444016    9753.8072    -2148.201   -2653.2547   -3369.2346    -998.3191    585.65758    567.78328   -4078.8161 
10938000    282.67704   -4137.4533   -3652.9545   -4137.4533            0    -2105.472    18.268046     23.88658    22.264598    9715.4053   -1893.9083   -3005.7257   -1416.7819   -719.79598   -268.90385    338.26047   -3951.2772 
10939000    272.01714   -4189.2743   -3723.0462   -4189.2743            0    -2685.862    18.423242    23.592317    22.344797    9712.0984   -2473.8415   -3359.6425   -2224.1021    943.73027   -418.26609    145.94584   -4103.4744 
10940000    279.92753   -4115.6363   -3635.8501   -4115.6363            0   -2381.5334    18.456953    23.521592    22.658408    9836.8511   -3028.1373   -971.36534   -3145.0976   -471.05981   -589.99476   -198.77551   -3977.5058 
10941000    281.80058   -4166.0289   -3683.0324   -4166.0289            0   -2935.9984    18.254831    24.010023    22.287088    9768.4062   -3141.9712   -3595.4586   -2070.5655    1179.9829   -66.925599    154.03679   -4101.3011 
10942000     294.1428   -4182.0375   -3677.8869   -4182.0375            0   -2650.1463    18.202148    24.115988    22.296633    9787.3918   -2678.2275   -3211.9578   -2060.2535   -1351.3658    24.413753    763.44551   -4056.1663 
10943000    276.01801   -4149.2806   -3676.1951   -4149.2806            0   -2648.3902    18.502719    23.527492    22.442748    9769.8345   -3114.6039   -1938.0698   -2892.4967    376.15833    11.398057    683.22168   -4053.5457 
10944000    281.53563   -4140.6977   -3658.1553   -4140.6977            0   -2643.0229    18.519515    23.582469    22.354925     9763.198    -4455.006   -1715.9374   -1758.1251    27.210159    374.74671   -438.78442   -4034.4853 
10945000    276.81796   -4165.9434   -3691.4869   -4165.9434            0   -2921.2582    18.194249    23.979317    22.348809    9750.4647   -1609.1772   -3109.8879   -4044.7094    1004.1269   -855.99554   -327.42649   -4106.8914 
10946000    273.99554   -4158.4627   -3688.8437   -4158.4627            0   -3553.8305    18.199475    23.824545    22.578495    9789.9044    -2704.563   -3543.5485   -4413.3801   -495.81875    574.79109   -301.96206   -4196.2444 
10947000    277.35449   -4161.3852   -3686.0091   -4161.3852            0   -3928.2802    18.522843    23.788333    22.332792    9840.4436   -4916.1673   -3428.8923   -3439.7809    15.878993    -87.04114   -400.00337   -4249.7675 
10948000    272.18594   -4141.1732   -3674.6558   -4141.1732            0   -3590.2395    18.407601    23.799849    22.527554    9869.2793   -4725.8509   -2969.4934   -3075.3741    54.767399    359.63958   -224.96532   -4191.4109 
10949000    278.65212   -4132.9451   -3655.3449   -4132.9451            0   -3083.9172    18.180173    23.987539    22.580239    9847.1884   -2334.8756   -3811.3371   -3105.5389   -270.75904    -872.0691    631.62787   -4098.2298 
10950000    283.92638   -4178.8011    -3692.161   -4178.8011            0   -2598.2786    18.408348    23.842487    22.238289    9760.4033   -2978.7974   -3914.3224   -901.71614    12.946724   -369.96594    637.88318   -4062.0142 
10951000    281.18064   -4168.4362   -3686.5022   -4168.4362            0   -3272.6777    18.493377    23.655479    22.442424    9817.8803   -3023.9529   -3003.4339   -3790.6465    -1262.637   -352.79162     270.3522   -4155.0964 
10952000    286.10052   -4159.0255    -3668.659   -4159.0255            0   -3974.2283    18.334682    23.929261    22.639818    9932.8895   -3174.3185   -4657.4453   -4090.9212    496.84123    314.87441    -270.5727   -4244.3697 
10953000    289.03622   -4201.3685   -3705.9704   -4201.3685            0   -3181.8345    18.291412    24.056579     22.28178    9804.6247   -2354.5716   -4698.1344   -2492.7976    122.46622   -511.50055   -196.22054   -4160.9421 
10954000    266.25834   -4159.9463   -3703.5887   -4159.9463            0   -2419.7419    18.208874    23.757484      22.4951    9731.3133   -1419.8368   -1123.9775   -4715.4113   -126.84132   -188.15667    714.06658   -4047.0014 
10955000    274.56407   -4187.9285   -3717.3351   -4187.9285            0   -2454.4161      18.6064    23.504894    22.201252    9709.5279   -3241.2851    -1990.759   -2131.2043    85.699032   -589.12155   -237.05836    -4064.889 
10956000    260.35989    -4160.203    -3713.955    -4160.203            0   -1595.3127    18.317135    23.692104    22.424909    9731.7701   -1776.4049   -1742.4424   -1267.0909   -1754.8841    -171.7161    894.36095   -3940.3744 
10957000    275.21751   -4162.3413   -3690.6279   -4162.3413            0   -2417.6781    18.124184    23.991073     22.47574    9772.8703    -2067.708   -1570.6064     -3614.72   -521.37426   -46.568604    490.29509    -4035.213 
10958000    281.35801   -4162.0342   -3679.7962   -4162.0342            0   -928.26714    18.349239    23.663648    22.078731     9586.804   -1851.9614   -1633.5953    700.75531    275.80607    220.65574    -4.601634   -3809.5806 
10959000    284.55988   -4185.0722   -3697.3464   -4185.0722            0    -2418.966      18.3844    23.531271    22.457789    9715.4261   -2614.3145   -2005.3982   -2637.1853   -300.67368   -55.837415   -230.03539   -4040.0885 
10960000     290.9788   -4165.2372   -3666.5095   -4165.2372            0   -1869.6429    18.282263    23.826875    22.231921    9684.4287   -1895.9068   -1870.6045   -1842.4173   -454.95291    452.13464     241.3588   -3930.5731 
10961000    272.37171   -4161.3573   -3694.5215   -4161.3573            0   -2613.5363     18.23011     23.93631    22.428303    9786.8491   -2583.9373   -1938.0248   -3318.6467   -404.61954   -285.78797     35.68229   -4067.5546 
10962000    268.66113   -4137.7199   -3677.2439   -4137.7199            0   -3556.4289    18.447089    23.758834     22.54883    9882.7309    -4094.575   -4000.7608   -2573.9511   -513.63886    149.18975   -122.73817   -4189.8302 
10963000    284.05203   -4156.7509   -3669.8954   -4156.7509            0   -2268.6055    18.507605    23.569461    22.392506    9767.9309   -2031.6231   -530.39688   -4243.7966     236.1957   -585.17074   -383.82901   -3993.0702 
10964000    275.39291   -4172.5278   -3700.5137   -4172.5278            0   -3339.1302    18.368489    23.799907    22.401525    9793.2373   -2885.3497   -4075.9974   -3056.0434   -574.66751    553.06567   -355.29386   -4177.4227 
10965000     275.0286   -4225.3118   -3753.9222   -4225.3118            0   -3462.2087    18.169489    24.117526    22.375485    9805.0072   -3380.8266   -3832.9993   -3172.8001   -116.90346   -213.32476   -356.60878   -4249.0041 
10966000    270.41778   -4167.2567   -3703.7699   -4167.2567            0   -2714.0778     18.38582    23.825897    22.456617    9837.3154   -3369.1641    -1209.618   -3563.4512    938.95824    263.84504   -225.68022   -4093.1509 
10967000    272.45174   -4185.2146   -3718.2416   -4185.2146            0   -2093.0164    18.637184    23.371211    22.337921     9729.808   -2665.4833    -2326.233    -1287.333    793.92116   -206.43916    573.65739   -4015.2391 
10968000    262.88695   -4134.5543   -3683.9751   -4134.5543            0   -1506.6737    18.380333    23.782038     22.32266    9757.7209   -2373.6821   -1059.7344   -1086.6047   -63.100134   -498.33277    624.69613   -3898.3843 
10969000    281.33501   -4154.9033   -3672.7047   -4154.9033            0   -2573.0302    18.301575    23.873776    22.419846    9795.8521   -2025.1927   -2865.2336   -2828.6644   -613.17191   -483.94114      117.031   -4040.2941 
10970000    278.17547   -4200.9394   -3724.1561   -4200.9394            0   -2946.9446    18.350231    23.841707    22.339519    9773.5577   -3014.0495    -2375.366   -3451.4181   -116.78545    -453.7737    529.38575   -4144.2057 
10971000    278.91774   -4176.6328   -3698.5773   -4176.6328            0   -2676.4028    18.298429    23.890329    22.342537    9767.1629   -1859.6774   -3400.1606   -2769.3703    81.774803    375.76235    59.439116    -4079.815 
10972000     270.7762   -4170.3512   -3706.2501   -4170.3512            0   -2811.4616    18.228204    23.790424    22.691329    9840.2467   -2321.6367   -3140.6644   -2972.0838    307.93311    -1318.172   -266.60976   -4109.7227 
10973000    267.66819   -4157.0061    -3698.232   -4157.0061            0   -3301.6388    18.500678     23.91482     22.30685    9869.4513   -4524.2096   -3672.0536   -1708.6532   -27.756803    303.86197     6.749038   -4173.4561 
10974000    267.57651   -4138.4583   -3679.8413   -4138.4583            0   -3334.0698    18.431301    23.857526    22.452921    9873.1157   -3172.4261   -3478.9872    -3350.796    153.78478   -165.39275    108.36249   -4159.9116 
10975000    268.79577    -4162.449   -3701.7422    -4162.449            0   -3573.9056    18.298527    23.764034    22.559521    9809.9361    -4499.018   -3132.9279    -3089.771    444.85044    54.383921    119.76109   -4213.0533 
10976000    276.18443   -4162.5434   -3689.1727   -4162.5434            0    -2948.093     18.29239    23.890363    22.384835     9782.438    -1640.565   -3397.6756   -3806.0384    485.85374    6.5044895    115.81365   -4109.7678 
10977000    297.78501   -4124.1447   -3613.7514   -4124.1447            0   -3906.7351    18.351256    23.808642    22.638548    9891.2003   -3148.2678    -4070.566   -4501.3715   -874.68531   -26.867894   -164.48015   -4177.3097 
10978000    277.82556   -4126.5396   -3650.3561   -4126.5396            0   -4990.0469    18.567121    23.940896     22.40596     9959.752   -4799.2924   -4636.4263   -5534.4219    871.67452    -133.2766    416.93208   -4375.1742 
10979000     282.3047   -4146.4836    -3662.623   -4146.4836            0   -3382.6337    18.379869    23.852413     22.48564    9857.7994   -3405.7439   -3369.8432   -3372.3138   -757.95481    136.98113    8.1183693   -4148.9303 
10980000    282.09795   -4128.5304   -3645.0241   -4128.5304            0   -3506.9016    18.451669    23.889899    22.145309    9761.8409   -3448.0409   -4079.2103   -2993.4537   -1520.1127   -248.77208    263.19787   -4144.2892 
10981000    281.94153   -4152.4582   -3669.2201   -4152.4582            0   -2658.0022    18.188008    23.710757    22.639234    9763.2021   -2492.8004   -1935.0435   -3546.1628    1003.1899   -73.878495    653.70227   -4047.6832 
10982000    272.53892    -4149.168   -3682.0457    -4149.168            0   -2796.9352    18.468827    23.898043    22.071134    9741.5105   -2380.7053   -2679.9635   -3330.1368   -631.49855    440.83711   -19.709458   -4079.4061 
10983000    277.83579   -4178.0227   -3701.8217   -4178.0227            0   -2753.8657    18.330808    23.755766    22.433092     9768.768   -3320.0924   -2104.9536   -2836.5511    829.04313   -568.29979   -42.356515   -4094.1579 
10984000     278.8581   -4137.7601   -3659.8068   -4137.7601            0   -2986.5895     18.34552    23.718315    22.494334    9787.8429   -4084.4668   -1392.4235   -3482.8781    214.22192     831.6839   -89.006464   -4086.1295 
10985000     278.9668   -4188.5017   -3710.3621   -4188.5017            0   -2021.1777    18.336107    23.993274    22.131703    9736.6933   -1255.6439    -3656.912   -1150.9773   -484.73923    213.13249    177.17565   -3997.3687 
10986000    268.28397   -4152.8911   -3693.0615   -4152.8911            0   -1952.3425     18.19411    23.617568    22.535385    9683.4692    -1822.337   -1063.6736   -2971.0167   -769.58716    505.79381    448.56145   -3968.7781 
10987000    277.26794   -4172.3196   -3697.0918   -4172.3196            0   -2873.9653    18.428877    23.752012    22.290375     9757.008   -2933.9144   -3932.3115     -1755.67    478.38242   -379.02136   -813.67406   -4106.0454 
10988000    284.11582   -4161.3432   -3674.3784   -4161.3432            0   -3661.9573    18.360969    23.781268    22.650163    9890.1285   -2881.0416   -2939.2132   -5165.6172   -1091.7634   -1027.0075   -377.05553   -4202.5695 
10989000    284.97527   -4164.1157   -3675.6778   -4164.1157            0   -2881.5386    18.332234    23.950797    22.209858    9751.7187   -3332.7334   -3367.5881   -1944.2944   -855.36872    285.29029    129.61629   -4085.4868 
10990000    272.34987   -4159.8737   -3693.0753   -4159.8737            0   -2491.7051    18.306621    23.790629    22.407358    9758.9875   -2252.1944   -2320.0273   -2902.8935   -187.13419    -104.3193    187.23974   -4047.7068 
10991000    274.50703     -4183.84   -3713.3443     -4183.84            0   -3604.7082    18.275822    23.937829    22.499415    9843.1229   -4756.8485   -4096.0284   -1961.2478   -550.23519    263.76613    570.94225   -4230.8069 
10992000     283.4189   -4158.9965   -3673.2262   -4158.9965            0   -4093.2559    18.375655    23.939959    22.350686    9832.3446   -3177.4393   -4439.7527   -4662.5756    478.70648    479.04438    -9.556853   -4260.1772 
10993000    298.95274    -4165.509   -3653.1142    -4165.509            0   -3620.9062    18.472869    23.591468    22.605141    9851.3677   -4054.1312   -2676.6928   -4131.8945   -387.23556   -700.94407    218.07615   -4173.3374 
10994000    286.18967   -4161.6186   -3671.0993   -4161.6186            0   -3268.6583    18.433245    23.878012    22.314169    9821.5646    -3716.893   -4263.0425   -1826.0392    225.13573   -604.27019   -484.17518   -4139.2936 
10995000    287.40076   -4141.7342   -3649.1391   -4141.7342            0   -3026.2567    18.084048    24.076341    22.481345    9788.3264   -2012.8548   -2768.6402    -4297.275     120.3295    281.67077   -613.36053   -4081.1455 
10996000     274.1132   -4161.1436    -3691.323   -4161.1436            0   -2688.4319    18.315204    23.876049    22.353797    9775.1971   -2783.6415   -1999.2977   -3282.3566    126.79825   -358.31392     748.3943   -4074.5891 
10997000    274.49143   -4165.3388   -3694.8699   -4165.3388            0   -2733.2558    18.516496    23.483158    22.467667    9769.5214   -3701.3313   -1396.0351   -3102.4011   -53.255027    43.103685   -429.15098   -4084.2999 
10998000    287.91918   -4154.0283   -3660.5447   -4154.0283            0   -2593.9472    18.330111    23.802423    22.420546    9782.1079   -2897.1981   -2136.6677   -2747.9758   -273.98956     114.0467    739.07993   -4030.6024 
10999000    266.63004   -4163.4695   -3706.4748   -4163.4695            0   -3674.4027    18.315904    23.887101    22.354284    9780.3086   -3567.3082   -3546.0309   -3909.8691   -167.09598   -360.62177    632.40283    -4230.576 
11000000    278.56519   -4124.6128   -3647.1616   -4124.6128            0   -1955.6166     18.12253     23.63148    22.813431    9770.1306    -1958.662   -75.185824    -3833.002   -1916.6839   -373.59449   -175.10794   -3925.8122 
Loop time of 340.668 on 64 procs for 250000 steps with 864 atoms

Performance: 126.810 ns/day, 0.189 hours/ns, 733.852 timesteps/s
378.3% CPU use with 16 MPI tasks x 4 OpenMP threads

MPI task timing breakdown:
Section |  min time  |  avg time  |  max time  |%varavg| %total
---------------------------------------------------------------
Pair    | 23.478     | 26.512     | 29.268     |  36.4 |  7.78
Bond    | 1.57       | 1.8341     | 2.5132     |  17.7 |  0.54
Kspace  | 176.41     | 182.04     | 188.52     |  23.6 | 53.44
Neigh   | 1.6922     | 1.8032     | 2.0064     |   8.1 |  0.53
Comm    | 45.413     | 49.515     | 53.749     |  32.3 | 14.53
Output  | 0.53015    | 0.5304     | 0.53177    |   0.1 |  0.16
Modify  | 54.957     | 60.998     | 66.458     |  54.1 | 17.91
Other   |            | 17.44      |            |       |  5.12

Nlocal:        54.0000 ave          62 max          46 min
Histogram: 2 4 2 0 0 0 0 2 4 2
Nghost:        2479.56 ave        2501 max        2445 min
Histogram: 1 0 0 2 1 2 5 3 1 1
Neighs:        12471.4 ave       14373 max       10218 min
Histogram: 1 1 3 3 0 0 0 2 5 1

Total # of neighbors = 199542
Ave neighs/atom = 230.95139
Ave special neighs/atom = 2.0000000
Neighbor list builds = 7814
Dangerous builds = 0

unfix		3
unfix		2
unfix		1

write_data	data.final.${pid} nocoeff
write_data	data.final.0 nocoeff
System init for write_data ...
PPPM initialization ...
  extracting TIP4P info from pair style
  using 12-bit tables for long-range coulomb (../kspace.cpp:340)
  G vector (1/distance) = 0.37278599
  grid = 24 27 27
  stencil order = 5
  estimated absolute RMS force accuracy = 0.002901383
  estimated relative force accuracy = 8.7374286e-06
  using double precision FFTW3
  3d grid and FFT values/proc = 6615 1296
Last active /omp style is kspace_style pppm/tip4p/omp

write_restart   restart.lmp.${pid}
write_restart   restart.lmp.0
System init for write_restart ...
PPPM initialization ...
  extracting TIP4P info from pair style
  using 12-bit tables for long-range coulomb (../kspace.cpp:340)
  G vector (1/distance) = 0.37278599
  grid = 24 27 27
  stencil order = 5
  estimated absolute RMS force accuracy = 0.002901383
  estimated relative force accuracy = 8.7374286e-06
  using double precision FFTW3
  3d grid and FFT values/proc = 6615 1296
Last active /omp style is kspace_style pppm/tip4p/omp
Total wall time: 0:05:40
