LAMMPS (30 Jul 2021)
Processor partition = 0
  using 2 OpenMP thread(s) per MPI task
using multi-threaded neighbor list subroutines
variable        pid world 0 1
variable        phase world IceVI IceV

shell cd ${phase}
shell cd IceVI
include Restart.lmp
echo both
log log.lammps
#include		in.partitions
include		in.temp
variable        temperature equal 268.27
variable	tempDamp equal 100.0
include		in.pressure
variable        pressure equal 8371.6
variable        pressureDamp equal 1000.0 # This is 1 ps
include		in.seed
variable        seed equal 745823

units		real
atom_style	full
read_restart	restart.lmp.${pid}
read_restart	restart.lmp.0
Reading restart file ...
  restart file = 30 Jul 2021, LAMMPS = 30 Jul 2021
  restoring atom style full from restart
  orthogonal box = (-0.17023451 -0.097476045 -0.11131493) to (24.900236 24.827477 22.921315)
  4 by 4 by 2 MPI processor grid
  restoring pair style lj/cut/tip4p/long/omp from restart
  restoring bond style harmonic/omp from restart
  restoring angle style harmonic/omp from restart
  1920 atoms
  1280 bonds
  640 angles
Finding 1-2 1-3 1-4 neighbors ...
  special bond factors lj:    0        0        0       
  special bond factors coul:  0        0        0       
     2 = max # of 1-2 neighbors
     1 = max # of 1-3 neighbors
     1 = max # of 1-4 neighbors
     2 = max # of special neighbors
  special bonds CPU = 0.002 seconds
  read_restart CPU = 0.009 seconds
include 	in.setup
variable	out_freq equal 1000
variable	out_freq2 equal 10000
variable	out_freq3 equal 1000

timestep	2.0

neigh_modify    delay 7 every 1

include		in.tip4p
# This is TIP4P/Ice

# create groups ###
group ox type 2
640 atoms in group ox
group hy type 1
1280 atoms in group hy

# set charges - beside manually ###
set group ox charge -1.1794
Setting atom values ...
  640 settings made for charge
set group hy charge 0.5897
Setting atom values ...
  1280 settings made for charge

# ### TIP3P Potential Parameters ###
pair_style lj/cut/tip4p/long/omp 2 1 1 1 0.1577 8.5
pair_coeff 1 1*2 0.000 0.000
pair_coeff 2 2 0.21084 3.1668
bond_style  harmonic
bond_coeff  1 450 0.9572
angle_style harmonic
angle_coeff 1 55 104.52
kspace_style pppm/tip4p/omp 1.0e-5
pair_modify tail yes

thermo          ${out_freq}
thermo          1000
thermo_style    custom step temp pe etotal epair emol press lx ly lz vol pxx pyy pzz pxy pxz pyz enthalpy

restart 	${out_freq3} restart.lmp.${pid} restart2.lmp.${pid}
restart 	1000 restart.lmp.${pid} restart2.lmp.${pid}
restart 	1000 restart.lmp.0 restart2.lmp.${pid}
restart 	1000 restart.lmp.0 restart2.lmp.0


include         in.dump
dump            myDump all atom ${out_freq2} dump.water.${pid}
dump            myDump all atom 10000 dump.water.${pid}
dump            myDump all atom 10000 dump.water.0
dump            myDump2 all dcd ${out_freq2} dump.dcd
dump            myDump2 all dcd 10000 dump.dcd
dump_modify     myDump append yes
dump_modify     myDump2 append yes


variable natoms 	equal  "count(all)"                        # NUMBER ATOMS
variable H      	equal  "enthalpy/v_natoms"                 # ENTHALPY-per-atom
variable Vol      	equal  "vol/v_natoms"                 # volume-per-atom
fix AVG all 		ave/time ${out_freq} 1 ${out_freq} v_Vol v_H file vol_enthalpy.dat
fix AVG all 		ave/time 1000 1 ${out_freq} v_Vol v_H file vol_enthalpy.dat
fix AVG all 		ave/time 1000 1 1000 v_Vol v_H file vol_enthalpy.dat




fix 		1 all shake 1e-6 200 0 b 1 a 1
Finding SHAKE clusters ...
       0 = # of size 2 clusters
       0 = # of size 3 clusters
       0 = # of size 4 clusters
     640 = # of frozen angles
  find clusters CPU = 0.003 seconds
fix             2 all nph aniso ${pressure} ${pressure} ${pressureDamp}
fix             2 all nph aniso 8371.6 ${pressure} ${pressureDamp}
fix             2 all nph aniso 8371.6 8371.6 ${pressureDamp}
fix             2 all nph aniso 8371.6 8371.6 1000
fix             3 all temp/csvr ${temperature} ${temperature} ${tempDamp} ${seed}
fix             3 all temp/csvr 268.27 ${temperature} ${tempDamp} ${seed}
fix             3 all temp/csvr 268.27 268.27 ${tempDamp} ${seed}
fix             3 all temp/csvr 268.27 268.27 100 ${seed}
fix             3 all temp/csvr 268.27 268.27 100 745823


run             250000
PPPM initialization ...
  extracting TIP4P info from pair style
  using 12-bit tables for long-range coulomb (../kspace.cpp:340)
  G vector (1/distance) = 0.37425005
  grid = 30 30 30
  stencil order = 5
  estimated absolute RMS force accuracy = 0.0032957262
  estimated relative force accuracy = 9.9249814e-06
  using double precision FFTW3
  3d grid and FFT values/proc = 5400 960
Last active /omp style is kspace_style pppm/tip4p/omp
Neighbor list info ...
  update every 1 steps, delay 7 steps, check yes
  max neighbors/atom: 2000, page size: 100000
  master list distance cutoff = 10.8154
  ghost atom cutoff = 10.8154
  binsize = 5.4077, bins = 5 5 5
  1 neighbor lists, perpetual/occasional/extra = 1 0 0
  (1) pair lj/cut/tip4p/long/omp, perpetual
      attributes: half, newton on, omp
      pair build: half/bin/newton/omp
      stencil: half/bin/3d
      bin: standard
Setting up Verlet run ...
  Unit style    : real
  Current step  : 1250000
  Time step     : 2
Per MPI rank memory allocation (min/avg/max) = 10.54 | 10.55 | 10.55 Mbytes
Step Temp PotEng TotEng E_pair E_mol Press Lx Ly Lz Volume Pxx Pyy Pzz Pxy Pxz Pyz Enthalpy 
 1250000    278.50184    -9062.222    -8000.446    -9062.222            0    7840.1103     25.07047    24.924953     23.03263    14392.636    8207.2092    7501.5723    7811.5495    -383.3182    966.67095   -469.06412   -6354.7924 
 1251000    262.06095   -9045.5462   -8046.4503   -9045.5462            0    8717.1521    25.126643    24.768169    23.121695    14389.577    7677.4525    9687.1392    8786.8646    774.18614   -470.25371    1723.2182    -6217.093 
 1252000    270.23916   -9076.6873   -8046.4124   -9076.6873            0    7459.9929    25.080364      24.9279    23.000063    14379.658    7003.2129    7891.2976    7485.4682    443.80457    460.52092   -1008.6834   -6481.9582 
 1253000    265.87655   -9050.9395   -8037.2968   -9050.9395            0     8643.333    25.049743    24.895589    23.060815    14381.372    9067.2033    8991.2211    7871.5746     -389.343     900.8069   -631.99023   -6224.4652 
 1254000    259.54317   -9082.8224   -8093.3254   -9082.8224            0    7105.9116    25.052931    24.926838    23.103891    14428.158    6606.8021    7645.2344    7065.6982    162.83407     495.6788     261.6424   -6598.1004 
 1255000    264.56234   -9040.8519   -8032.2196   -9040.8519            0    6794.0755    25.125123     24.97442    23.033584    14453.237    6272.2158    6970.5027    7139.5078   -228.42934   -302.21475    268.17058   -6600.1262 
 1256000    274.87823   -9057.2936   -8009.3324   -9057.2936            0    7642.9985     25.05209    24.945871    23.071908    14418.701    7301.0258    8711.1019    6916.8679   -211.77628   -1190.6208   -593.25977   -6402.1477 
 1257000    264.53336   -9078.2201   -8069.6983   -9078.2201            0    8008.5407    24.974595    24.932708    23.064696    14362.024    8284.5841    7650.3657    8090.6724    759.85026    424.41655     684.5478   -6392.2664 
 1258000    266.06445   -9080.3715   -8066.0125   -9080.3715            0    8868.7326     25.07099    24.920424    22.926426    14323.965    8364.4848    8996.2786    9245.4345    -477.4507    72.334376    801.34054   -6213.3312 
 1259000     279.6933     -9058.91   -7992.5915     -9058.91            0    9739.3248    24.990545    24.949981    22.974946    14325.192    10263.138    8927.1081    10027.729    960.72474    953.43874    913.49333    -5957.869 
 1260000    273.24439   -9063.8975   -8022.1653   -9063.8975            0     8026.309    24.923683    24.972818    23.102432    14379.292    7414.3544    8724.8878    7939.6848    1466.7064    200.48131   -840.20287   -6338.9904 
 1261000    272.33541   -9086.2896   -8048.0228   -9086.2896            0    6471.2687    25.063311    25.010212    23.038633    14441.507    6301.4737    7085.3054     6027.027    -28.18972   -1054.8637    -478.7971   -6685.0794 
 1262000    270.81465   -9035.3345   -8002.8655   -9035.3345            0    7597.2051    25.039252    25.032663    23.057555    14452.456     8092.826    7106.8411    7591.9483   -40.878785   -184.38106    1236.3974   -6401.5704 
 1263000    268.56369   -9049.3007   -8025.4134   -9049.3007            0    6351.7273    24.916848    25.138585    23.171465     14514.01     7544.685    5877.3958    5633.1011    247.37977   -486.61258    766.62523    -6680.931 
 1264000    260.91597   -9088.3262   -8093.5955   -9088.3262            0    8581.0421    24.931373    25.072746    22.960466    14352.541     8120.625     7958.875    9663.6264   -292.15402   -694.14397   -349.45961   -6297.4368 
 1265000    267.50625   -9070.3392   -8050.4833   -9070.3392            0    8149.7516    24.902153    25.145488    23.023045    14416.496    7927.5744    7688.4789    8833.2014   -471.86492   -151.21501    18.529545   -6336.9996 
 1266000    273.84356    -9068.627   -8024.6104    -9068.627            0    8995.1242    24.823831    24.939844    23.163845    14340.794    10076.036    8378.4948    8530.8413    79.503735   -777.09201   -392.54977   -6143.3183 
 1267000    267.65774   -9047.3916   -8026.9582   -9047.3916            0    9217.7078    24.950529    25.069571    22.920707     14336.88    9277.4213     8922.247    9453.4553   -1386.5831   -186.12375   -668.11413   -6099.6397 
 1268000     263.7012   -9086.2735   -8080.9243   -9086.2735            0    7836.8609    24.969127     25.06548    22.972512    14377.649    8157.4828    7062.5145    8290.5855    841.85576   -531.96407    868.50802   -6437.6657 
 1269000    263.63299     -9066.68   -8061.5908     -9066.68            0    8604.1794    24.935458    24.971782    23.071514    14366.235    8739.7253    8738.0137    8334.7993   -308.93992   -726.06989    848.19838   -6258.8706 
 1270000    264.62833    -9068.723   -8059.8391    -9068.723            0    8364.5569     24.98087    24.982755    23.006361    14358.061    8467.6672    7886.7113    8739.2923   -699.84613   -1038.7394    141.95589    -6308.321 
 1271000    265.96018   -9075.1915     -8061.23   -9075.1915            0    8970.2421    25.086316    24.961795    22.925218    14355.759    8500.4903    9219.2234    9191.0127    908.36533   -1551.0755    612.60542   -6183.1841 
 1272000    279.58303   -9084.4734   -8018.5754   -9084.4734            0    7593.9522    25.031287    24.950685    23.047161    14394.053    6337.8869    8623.0067     7820.963   -1096.0569    -729.5924     241.3205    -6424.434 
 1273000    261.87439   -9078.8667   -8080.4821   -9078.8667            0    7951.9121    24.972588     24.94795    23.039641    14354.039    8107.3094    9200.6431    6547.7838    432.13842     1112.407   -193.58605   -6415.8373 
 1274000    277.02429   -9023.2165   -7967.0735   -9023.2165            0    7600.0552    25.044298    25.150362    22.921503     14437.64    6317.8723    8264.5989    8217.6943   -697.78071   -660.79165   -854.73379   -6366.8199 
 1275000    267.80081   -9063.8944   -8042.9155   -9063.8944            0    6499.7587    25.034645    25.007348    23.108658    14467.177    5926.3154    7037.2642    6535.6965   -902.33523    76.256141    844.06821   -6671.5383 
 1276000     265.2823    -9022.519   -8011.1419    -9022.519            0    7272.3721    25.046197    25.042843    23.054297      14460.3     6742.992    7944.0731    7130.0512    840.41846   -1033.7295   -43.760707   -6477.4813 
 1277000    265.53412    -9051.654   -8039.3168    -9051.654            0    6580.4548     25.00987    24.996676    23.166859    14483.077    6682.5896     6919.323    6139.4518    355.17945   -406.76131   -1728.1634   -6649.3877 
 1278000    262.88515   -9064.0641    -8061.826   -9064.0641            0    6532.9343    25.021271    25.080464    23.075906    14481.171    6812.6436    5994.0748    6792.0844   -911.00761    613.35415    212.19783   -6682.1158 
 1279000    258.88734   -9054.8088   -8067.8122   -9054.8088            0    7202.0658    25.096656    25.061819    22.968148    14446.227    6756.4839    7065.2224    7784.4911   -406.85729   -124.54702    1148.9305   -6550.4565 
 1280000    272.91281   -9059.3144   -8018.8463   -9059.3144            0    6561.5019    24.968055    24.945778    23.242834    14476.743    7212.2335    7380.0619    5092.2104    683.01089    210.75443   -624.32927   -6633.5266 
 1281000    268.79601   -9021.9075   -7997.1345   -9021.9075            0    7111.4522    25.036798    25.070621    23.045982    14465.688    7403.9619    7556.1662    6374.2285    674.20152   -738.31291    898.41504   -6496.8511 
 1282000    268.88053   -9032.5519   -8007.4567   -9032.5519            0    7978.7192    25.051765    25.096207    22.901382    14398.197    7064.3632    8452.3724    8419.4222    6.2597524    90.216731    45.573418   -6332.0618 
 1283000    270.04294    -9062.577   -8033.0502    -9062.577            0    8036.9933    24.934808     25.03189    23.108806    14423.716    7013.7124     8520.384    8576.8835   -318.75498    739.31363    185.49284   -6342.4276 
 1284000    270.07179   -9133.2848    -8103.648   -9133.2848            0    7966.4455    24.851523    25.023809    23.098096    14364.239     8412.231    7424.8826    8062.2228    304.15479    84.050046    754.84376   -6434.7757 
 1285000    258.87775   -9087.7179   -8100.7579   -9087.7179            0    8017.7161      25.0189    25.074336    22.895836    14363.298    7652.2677    7024.3015    9376.5791    255.96188     11.51195    169.63826   -6421.2551 
 1286000    269.97668   -9085.0811   -8055.8068   -9085.0811            0    8450.3809    24.960646    25.030621    22.996767    14367.931    8172.2479    8028.2007    9150.6943    347.80534     57.64792   -493.57571    -6285.101 
 1287000    273.89157   -9084.6311   -8040.4315   -9084.6311            0    9761.3456    24.731441    24.930217    23.199495    14303.885    10368.505    9226.2883    9689.2436    434.17342   -44.344853   -640.62634   -6004.1417 
 1288000    265.36083   -9016.7424   -8005.0659   -9016.7424            0    10021.272    25.028589    24.971457    22.857301    14285.821    9757.3152    10078.943    10227.558   -97.484847   -1082.2785   -158.75315   -5917.1935 
 1289000    264.02016   -9072.5493    -8065.984   -9072.5493            0    8595.6847    25.015502    24.876925    23.091419    14369.992    7441.4564    9777.0085    8568.5892   -776.03093   -1105.5798    204.49242   -6264.5727 
 1290000    262.64905   -9059.8727   -8058.5348   -9059.8727            0    9676.4781    24.986915    24.892911    23.041006    14331.438    8994.2077    9919.8351    10115.391    818.50433   -640.75507   -677.86801   -6036.0606 
 1291000    264.31777   -9096.5065   -8088.8066   -9096.5065            0    9721.1769    24.933825    25.026973    22.890219    14283.913    8926.2547    10565.055    9672.2207   -175.06354    853.89883   -318.75215   -6063.7278 
 1292000    262.09642   -9058.6981    -8059.467   -9058.6981            0    9066.9461    24.832077    25.022956    23.129633    14372.106    9126.9627    8963.3074    9110.5683    225.00398    96.106074    1134.8968   -6159.0131 
 1293000     277.0475   -9068.3478   -8012.1164   -9068.3478            0     9146.395    24.811193    25.211683    22.908106    14329.752    10913.829    6621.8197     9903.536   -779.35646    398.39706   -183.58747   -6100.6595 
 1294000    267.90768   -9062.7067   -8041.3204   -9062.7067            0    8667.9754    24.915662    25.097538    22.920695     14332.81    9089.4031    7382.4763    9532.0469    150.68763    807.94451    35.895078   -6229.4593 
 1295000    258.23842   -9091.8661   -8107.3435   -9091.8661            0    8533.0187    24.861448    24.951183    23.127954    14346.791    8729.4015    8682.5126     8187.142    130.51159    142.75156   -875.17769   -6321.9524 
 1296000    282.80684    -9066.519   -7988.3303    -9066.519            0    8607.0158    25.020435    25.009716    22.921221    14343.045    8720.8486    8356.6324    8743.5664    -110.5436     623.9566   -347.77802   -6187.9268 
 1297000    262.78076   -9058.4808   -8056.6407   -9058.4808            0    8999.6003    24.945624    24.910845    23.076639    14340.206    8670.1813    10039.697    8288.9224    386.61687     271.6559    241.14501   -6174.4895 
 1298000    266.14079   -9089.4274   -8074.7774   -9089.4274            0    5868.6649    25.159142    25.010072    23.052869    14505.602    5661.8201    6568.8166    5375.3579   -687.61589   -571.23155   -558.04452   -6833.2653 
 1299000    276.40739    -9081.686    -8027.895    -9081.686            0     7656.852    24.950685    24.981803    23.117021    14409.142    7351.8625    8507.4392    7111.2543   -489.13422     142.3098   -540.73016   -6418.8646 
 1300000    275.81886   -9046.9546   -7995.4073   -9046.9546            0    9840.8775    24.863112    24.945987    23.054366    14299.122    10126.768     9895.078    9500.7862   -293.78665   -576.42132   -294.94191   -5943.2102 
 1301000    273.33649   -9080.5002   -8038.4169   -9080.5002            0     7421.822    24.953012    25.041938    23.077851    14420.698     7589.797    7404.5249    7271.1442   -386.49955    85.303913   -1045.1282   -6477.5254 
 1302000    259.23515   -9044.7797   -8056.4571   -9044.7797            0    6351.8953    24.819198    25.194691    23.173088    14490.411    7668.7023    6176.6944    5210.2893    644.93567   -458.10769   -80.796654   -6714.1251 
 1303000    263.98126   -9061.5572   -8055.1402   -9061.5572            0    9184.5458    24.888993    25.012407    23.063539    14357.829     9603.363    8192.7461    9757.5282   -451.93877    190.26021    875.35611   -6131.9495 
 1304000    262.25822   -9029.3032   -8029.4553   -9029.3032            0    8107.0463    24.985314    25.149325    22.931411    14409.268    7831.5286    6902.3221    9587.2883   -732.20199   -1327.4818   -847.57095   -6325.8049 
 1305000    276.83047    -9075.329    -8019.925    -9075.329            0    8096.6327    24.942267    25.013708    23.105641    14415.577    8697.5383    8004.7821    7587.5778   -233.48873   -664.43945    838.15017    -6317.718 
 1306000     263.4072    -9008.849   -8004.6206    -9008.849            0     9097.541    24.906129    24.997122    23.097442    14380.041    10316.059    7897.8375     9078.727    505.47155     429.7883    1021.1682   -6096.7011 
 1307000    273.12953   -9078.9396   -8037.6452   -9078.9396            0    8524.3793    24.999307    25.008054    22.959796    14354.097    7641.1444    8416.5343    9515.4591   -1380.8893   -1010.3643     864.0566   -6253.1535 
 1308000    262.34667   -9051.6599   -8051.4748   -9051.6599            0    9112.9449     24.89452    24.923892    23.091815     14327.74    9350.9604    9292.6637    8695.2105    382.42391   -214.95748     1117.721   -6147.2758 
 1309000    268.75293   -9064.3264   -8039.7177   -9064.3264            0    9283.2248    24.977285    24.941958     22.97097     14310.51    8202.3875    10967.341    8679.9456   -323.46479    370.18262    276.76297   -6102.2705 
 1310000    257.53188   -9065.4602   -8083.6312   -9065.4602            0    9543.5479    25.004889    24.989531    22.917879    14320.476    9010.2607    9202.2785    10418.105     145.7258   -1881.0752    350.40581   -6090.4665 
 1311000    262.42009   -9058.0163   -8057.5512   -9058.0163            0    7825.6683    25.018438    25.055329    22.994427    14413.946     7630.732    8082.5014    7763.7714   -65.758413    485.47366    110.59861    -6412.497 
 1312000    267.06997   -9058.2611   -8040.0686   -9058.2611            0    7496.1783    24.983133    25.018863    23.074485    14422.697    8203.5709    7244.9187    7040.0454   -84.228971    348.35794    -900.0241   -6463.3206 
 1313000    264.49729   -8995.7076   -7987.3233   -8995.7076            0    7720.4806    25.109264    24.958494    23.067444    14456.124    6532.7954    8531.5485     8097.098    502.92585   -400.57903    -267.2763   -6359.6319 
 1314000    281.93692    -9104.176   -8029.3039    -9104.176            0     7790.747     25.10036    24.943815    22.984451    14390.536    7369.1769    8928.4052     7074.659   -786.21085   -701.31797   -98.745848   -6394.2504 
 1315000    258.09676   -9077.3412   -8093.3586   -9077.3412            0    6817.5836    25.307229    24.801687    23.024292    14451.473     4202.695    9565.0785    6684.9774    780.60975   -55.345872    -37.71788   -6656.4853 
 1316000     271.0052   -9005.4254     -7972.23   -9005.4254            0    8595.3803    25.027895    24.904739    23.104088    14401.083    7801.8076    9927.3599    8056.9735    3.8478233    164.23364   -702.76989    -6166.985 
 1317000    263.63304   -9090.8076   -8085.7182   -9090.8076            0    8844.6619    25.100695    24.915535    22.933238    14342.384    7490.4949    9993.5706    9049.9202    257.88275    252.68812    140.15015   -6235.6895 
 1318000    260.01261   -9064.7749   -8073.4883   -9064.7749            0    8678.6248    24.956989    24.886406    23.111868    14354.545    8908.4502    9586.4811    7540.9433     4.616688   -818.79631    -1454.818   -6256.6502 
 1319000    278.39347   -9145.3515   -8083.9886   -9145.3515            0    8577.7636    24.979383    24.955389    23.014401    14346.492    8025.6117    8457.5399    9250.1392   -153.54602    776.61826   -1075.3725   -6289.2728 
 1320000    255.41067   -9036.2683   -8062.5263   -9036.2683            0    9653.1079    24.974179     25.00148    22.962503     14337.59     8362.411    10393.102    10203.811    -136.9533    46.200473   -374.94233   -6044.0707 
 1321000    274.14403   -9080.2981    -8035.136   -9080.2981            0    8210.3964    24.868431    24.967916    23.151816    14375.262    8739.4131    8459.0215    7432.7547    270.33593    688.17068   -413.45177   -6313.8392 
 1322000    275.79226   -9053.6222   -8002.1764   -9053.6222            0    9188.1918    24.942637    25.038139    22.989394    14357.272    9492.0082    8094.3855    9978.1816   -10.725297   -1176.1039   -908.14366   -6078.2968 
 1323000    258.89908   -9109.8795   -8122.8381   -9109.8795            0    8257.2887    24.993692    24.999892    22.932783    14329.311    8166.9707    7893.3403    8711.5552     572.6595    380.17176   -356.38516   -6397.2439 
 1324000    274.66334   -9070.6584   -8023.5165   -9070.6584            0    8777.1907     24.84255    24.975061    23.111599    14339.458    9056.3836    9146.1847    8129.0037    488.88225    -18.86924    469.73535   -6187.9753 
 1325000    277.72248   -9060.9247     -8002.12   -9060.9247            0    9662.4505    24.919588     25.03366    22.949299    14316.427    8582.1753    9661.6287    10743.547    233.22244   -1049.8796   -535.78618   -5984.6931 
 1326000    268.06334    -9063.121   -8041.1413    -9063.121            0    9820.8396    24.957588    24.916373    23.000679    14303.032     9167.489    11090.379    9204.6514    593.31343   -488.60467    573.12155   -5992.5628 
 1327000    260.48487   -9082.8977   -8089.8105   -9082.8977            0    9302.7671    25.042527    25.006083    22.880731    14328.268    8941.7622    8648.4729    10318.066    115.45089    250.02257   -239.03199   -6145.8755 
 1328000    271.25468   -9030.1039   -7995.9574   -9030.1039            0    8288.1284    24.914686    24.905012    23.203424    14397.737    8118.4026    9521.3634    7224.6192    177.05413   -190.36627    99.203303   -6255.6474 
 1329000    267.57247    -9077.511   -8057.4027    -9077.511            0    8990.1959    24.995355    24.891911    23.018683    14321.814    8313.0746     9691.924    8965.5891   -452.65771   -997.11837    -331.4774   -6179.6298 
 1330000     268.3683   -9064.4479   -8041.3056   -9064.4479            0    6680.2254    25.254225    24.978188    22.894942    14442.239    5727.0697    7504.4415    6809.1651   -875.62697   -760.75798    71.018941   -6634.2815 
 1331000    273.82285   -9041.4425   -7997.5049   -9041.4425            0    9192.4147    24.955057    24.841987    23.110173    14326.764    8883.0979    10310.346    8383.8004    286.06925    2.5506616    1035.4605   -6076.8312 
 1332000    263.66497   -9060.0858   -8054.8747   -9060.0858            0    8603.3967    25.060921    24.840616     23.07295    14363.573    8368.5625     9764.358    7677.2697     98.46427   -939.46694   -73.566988   -6252.6525 
 1333000    266.93076   -9114.1123   -8096.4505   -9114.1123            0    8615.8788     24.93784    24.990304    22.984559    14324.074    8194.9134    8547.8946    9104.8284    116.56481    -428.1305   -339.16365   -6296.5769 
 1334000    261.03706   -8986.4268   -7991.2345   -8986.4268            0    9104.8379    24.835453    25.075279    23.092766    14381.156    8714.2552    9037.4062    9562.8523     927.7533   -932.00005   -1376.5424   -6081.6367 
 1335000    258.99185   -9051.9871    -8064.592   -9051.9871            0    8586.0751    24.879965    25.064438    23.042828    14369.562    8179.4641    8863.9237    8714.8376     212.3792    -2268.645   -1094.7777   -6265.2485 
 1336000    272.54885   -9073.0067   -8033.9262   -9073.0067            0    8277.5172    24.910393    25.161668    22.914246    14362.352    8806.0464    7006.6296    9019.8755   -146.57024   -1201.4607    844.81926    -6300.116 
 1337000    269.09933   -9070.7873    -8044.858   -9070.7873            0    9528.1319    24.823274    24.994416    23.039486    14294.693    9428.2504    8876.7022    10279.443   -148.80303   -508.44813    700.88776   -6058.4955 
 1338000    280.69162   -9072.5182   -8002.3938   -9072.5182            0    9009.6172    24.959593    24.979132    22.992567    14335.152    8637.3462    8667.6548    9723.8506    776.69299     444.4525    94.447807   -6118.8118 
 1339000    253.38809   -9065.6081   -8099.5772   -9065.6081            0    8609.4295    25.095024    24.897056    23.003292    14372.278    6768.4804    10196.933    8862.8752    410.97315    138.02885    495.46996   -6294.9983 
 1340000    272.56081   -9062.4802   -8023.3541   -9062.4802            0    9213.9518    24.982865    24.893051    23.031744    14323.436    8319.2003    10403.694    8918.9613   -825.54238     1474.264   -68.063636   -6098.6276 
 1341000    267.70792   -9091.7256   -8071.1009   -9091.7256            0    10503.591    24.964865    24.911202    22.912232    14249.227    9032.8376     10894.76    11583.175   -101.81368    513.23235   -903.09804   -5888.3459 
 1342000    266.70669   -9040.1622   -8023.3547   -9040.1622            0     9006.726    25.062667    24.913368    22.928212    14316.271    8166.3092    10189.648    8664.2207   -428.03433   -1175.0974   -336.15267   -6142.8571 
 1343000    265.08087   -9035.3872    -8024.778   -9035.3872            0    7513.4554    24.899396    25.055901    23.189283    14467.256    7058.5809    7925.5619    7556.2236     122.8012   -509.98458    1152.6646   -6439.5134 
 1344000     261.5063   -9049.0821   -8052.1008   -9049.0821            0    8373.6488    24.955609    25.039796    22.998852      14371.6    8322.3471    9518.1543    7280.4449   -188.18727   -245.74048    274.27488   -6297.0255 
 1345000    256.25613   -9086.5247   -8109.5595   -9086.5247            0    10060.759    24.761167    25.023755    23.016082    14261.164    11123.201    8886.6548    10172.421    244.22975   -1705.9941   -624.83486   -6017.0781 
 1346000    263.56512   -9045.7508   -8040.9204   -9045.7508            0    8872.0115    24.849062    25.069406    23.044374    14355.521    9567.4719    8324.9698    8723.5927   -1233.9372     1171.766    791.84044   -6183.4712 
 1347000    272.71075    -9062.152   -8022.4543    -9062.152            0    8468.8371    24.957484    25.156766    22.874616    14361.818    9069.7627    7913.6579    8423.0907     58.75104   -9.5049352     448.1565   -6248.6361 
 1348000     262.3624   -9110.5175   -8110.2724   -9110.5175            0    6927.5797    24.917751    25.013872    23.101925    14399.186    7699.2837    7089.1068    5994.3487    66.328511    164.05678       13.409    -6655.499 
 1349000    270.75842   -9062.3466   -8030.0921   -9062.3466            0    7657.1269    25.074048    24.983526    23.040654    14433.544     7481.949    7250.1212    8239.3104   -92.650979    471.99955    172.55987   -6418.2788 
 1350000    261.78717   -9094.9937   -8096.9417   -9094.9937            0    8095.4558    25.078267    25.030596    22.934653    14396.631    7186.8461    7857.8713    9241.6501    257.79826    697.47193    421.44574    -6397.219 
 1351000    272.99633   -9085.6228   -8044.8363   -9085.6228            0    10103.191      24.9709    24.668733    23.199367    14290.821    9894.2924    12131.706    8283.5738    34.503588   -975.59407    458.48423     -5939.16 
 1352000    274.44799   -9053.8127   -8007.4917   -9053.8127            0    8665.5719    25.103279    24.993733    22.914728    14377.265    7451.4453    9641.8168    8903.4536   -1.9585293    199.84585   -330.81879   -6190.5149 
 1353000    268.48912   -9069.8963   -8046.2933   -9069.8963            0    6783.2948     25.09157    24.976072    23.074509    14460.537    5614.2728    7960.9161    6774.6955   -1037.7073    248.00528    193.83326     -6615.75 
 1354000    260.06485   -9051.5583   -8060.0725   -9051.5583            0     7265.077    25.048924    24.993946    23.058907    14436.523    7147.8102    7981.9088     6665.512   -32.917232    656.51813   -875.69867   -6530.4695 
 1355000    269.48473   -9059.9876   -8032.5889   -9059.9876            0     7849.364    25.009986    25.046696    23.005391     14410.98    8062.8465    7950.2177     7535.028     -560.961   -590.97682   -129.51912   -6382.8931 
 1356000    272.06159   -9112.8278   -8075.6049   -9112.8278            0    8293.4511    24.850353    25.031462    23.056905    14342.333    9272.7618    7137.8947    8469.6967   -848.47504    925.64554    312.10657   -6340.8786 
 1357000    267.99645   -9068.9145   -8047.1898   -9068.9145            0    7628.1561    24.978481    25.253884    22.828052    14400.019    8664.7219    5442.9005    8776.8459   -644.80621    187.31729    -246.7264   -6445.2045 
 1358000    273.70559   -9091.4593   -8047.9688   -9091.4593            0     8005.804    24.928817       25.027    23.057941      14385.7     9102.975    7342.5707    7571.8665   -1025.5599   -372.88797     29.01446   -6368.3457 
 1359000    268.56284   -9084.0077   -8060.1237   -9084.0077            0    7169.2338    24.906158    25.008845    23.152681    14421.209    7432.3598    8461.7379    5613.6036    510.19026   -137.31598     394.3582    -6552.301 
 1360000    260.92029   -9061.8052   -8067.0581   -9061.8052            0    9041.7181    25.021751     25.01756    22.919376    14347.143    9773.4302    8203.9084    9147.8157    973.10292    -565.8981   -413.95245   -6175.1838 
 1361000    270.33147   -9066.7616   -8036.1348   -9066.7616            0    8350.6373    25.064423    24.932694    23.000556     14373.59    7396.3802    9518.0354    8137.4964    230.08713   -1318.6393   -360.53473   -6285.6402 
 1362000    267.59317   -9050.7994   -8030.6122   -9050.7994            0    7356.1129    25.033304    24.915979    23.118182    14419.487    6972.5369    8221.7515    6874.0502   -1041.2854    -386.4174   -369.13839     -6483.67 
 1363000      268.312   -9079.7624   -8056.8347   -9079.7624            0    7446.3062    25.029832    25.090301    22.968177    14424.154    7028.4657    6965.5236    8344.9294    470.43972   -1374.6513    1142.0973   -6490.4187 
 1364000    272.11891   -9017.5773   -7980.1359   -9017.5773            0    9017.4024    24.953975    24.981184    23.029308    14356.007    9067.2252     9723.261    8261.7211    342.14824    -437.8226   -723.26541   -6092.1837 
 1365000    287.10596   -9072.2427   -7977.6639   -9072.2427            0    8742.3668    24.993912    24.900854    23.037797    14338.028     8091.447    9365.3525     8770.301   -316.02443   -68.397563     1325.669   -6149.5874 
 1366000    262.76572   -9061.6386   -8059.8559   -9061.6386            0    9814.5151    25.020096    24.991242    22.883279    14308.531    10200.333    9198.9849    10044.228  -0.69087566   -48.378109    76.670414   -6011.8095 
 1367000     263.5635   -9119.5457   -8114.7214   -9119.5457            0     7989.991    24.894619    24.865758     23.22086     14374.26    8285.0126    9784.5872    5900.3733   -99.490004   -82.078545      804.398    -6439.749 
 1368000    262.51028   -9110.5109    -8109.702   -9110.5109            0    8189.4594    24.911099    24.939517    23.126292     14367.69    7645.7401      9085.88    7836.7582   -1647.8928   -684.63746     216.0353   -6393.6989 
 1369000    268.01079   -9063.5979   -8041.8185   -9063.5979            0     8526.971    25.065792    25.039439     22.83911    14334.588    7235.4898    9039.1792    9306.2439   -19.207388    522.27344   -212.94674   -6259.2104 
 1370000    268.61689   -9083.3072   -8059.2171   -9083.3072            0    7600.4053    25.059193    24.936182    23.085738     14425.83    6931.1143     8005.458    7864.6435   -333.36936   -302.52548   -88.419795   -6460.1988 
 1371000    265.79677   -9083.9566   -8070.6181   -9083.9566            0    7740.0363    25.029442    24.900345    23.123216    14411.353     7928.527     8271.681     7019.901   -1103.6875    584.23538    1182.0271   -6443.8574 
 1372000    263.16286   -9025.4958   -8022.1989   -9025.4958            0    8617.4848    25.007001    25.008776     23.01389     14392.76     8338.533    8281.9337    9231.9877   -357.75551    1172.9216   -162.82439   -6213.3575 
 1373000    261.66694   -9090.4325   -8092.8388   -9090.4325            0    7306.1375     25.03756    25.067469    22.937631    14396.305    7056.1368    6951.4366    7910.8391   -834.17677    374.86894   -355.35867   -6558.8762 
 1374000    271.98141    -9048.816   -8011.8988    -9048.816            0    8058.5713     24.98026    25.039298    22.984858    14376.757     7229.089    8803.2437    8143.3813   -274.83763   -704.56017   -595.90202   -6322.2562 
 1375000    277.30315   -9045.8941   -7988.6881   -9045.8941            0    9424.1474    24.830742    24.917608    23.176677    14339.936    9953.5267    10299.573    8019.3429    971.41193   -1079.1951    43.101546   -6017.7854 
 1376000    268.20505   -9074.9796   -8052.4596   -9074.9796            0    8542.9751    25.031925    25.078159    22.879251    14362.555    7966.4446    8206.4804    9456.0002   -774.59786    290.29267    556.69295   -6263.0213 
 1377000    268.48248   -9051.6263   -8028.0487   -9051.6263            0    8345.6295    25.005832    25.031044     22.97526    14380.723    7833.2742    8227.2923    8976.3221    -88.66766    210.30741    369.54837   -6277.7357 
 1378000    271.10383   -9088.2057   -8054.6342   -9088.2057            0    9272.4024    24.846701    24.817938    23.224711    14321.376    10224.566    10390.475    7202.1664   -703.89521   -498.95651    756.81714   -6117.9763 
 1379000    264.34885   -9034.0948   -8026.2764   -9034.0948            0    8859.1816    24.969143    25.018654    22.999282    14367.521    9030.8422    7616.0161    9930.6866    80.166026   -1497.1173    272.38068   -6169.9628 
 1380000    271.70278   -9120.0015   -8084.1466   -9120.0015            0    7730.3443    24.909334     25.09331    23.012479    14384.126    8607.1553    5661.5626    8922.3151   -280.22668    971.30569   -336.63573   -6462.4926 
 1381000    256.88456   -9059.6032   -8080.2421   -9059.6032            0    9566.1724    24.812959    25.053061    23.059787      14334.9    10659.279     8601.035    9438.2028   -813.50663   -520.35343   -472.54716   -6080.3399 
 1382000    261.63456   -9048.3794   -8050.9091   -9048.3794            0     7587.713    24.943407    25.138432    23.000294    14422.062    8201.0409    6946.4826    7615.6155   -560.03942    633.80075    -429.2487    -6454.978 
 1383000    264.14319   -9075.2744   -8068.2401   -9075.2744            0     6980.898    24.942325    25.079971    23.088272    14442.933    6936.8658    6210.8921    7794.9361   -572.85545   -1031.6719    1052.8627   -6597.8161 
 1384000     258.2924   -9090.2935   -8105.5651   -9090.2935            0    7850.6071    24.991321    24.989747    23.036837    14387.122    7558.0216     7810.181    8183.6185   -402.84232   -1030.6181   -209.73667   -6458.3396 
 1385000    263.02135    -9117.824   -8115.0667    -9117.824            0     9166.248    25.015967    25.002004    22.837503    14283.701    8323.4568    9314.6601    9860.6272    202.82078    -771.9355    106.46154   -6205.6169 
 1386000    272.52782   -9068.6421   -8029.6417   -9068.6421            0    9485.6946    24.870364    24.914393     23.11543    14323.014    9750.2359     9143.484    9563.3639    7.8624824    253.70534    170.22315   -6048.2084 
 1387000    266.17809   -9085.3399   -8070.5476   -9085.3399            0    8969.3395    24.901291    25.007932    23.025558    14338.701    9445.6006     9755.006    7707.4117   -314.29578    252.87078    184.58923    -6194.922 
 1388000    266.12944   -9056.2104   -8041.6037   -9056.2104            0    9668.4515     25.03165    24.939489    22.906745    14300.144    10404.647    9862.3755    8738.3315    -1301.521    725.67178    259.30973   -6025.2198 
 1389000     269.5217   -9121.2946    -8093.755   -9121.2946            0    9281.4755     24.91301    24.911409    23.046096    14302.826    9225.0222    9382.3473    9237.0571   -438.50534   -446.56582   -633.56261    -6157.713 
 1390000    266.55777   -9045.2036   -8028.9638   -9045.2036            0    8345.8402    25.083325    25.010456    22.898969    14365.563    7420.9313    9121.4509    8495.1383    568.30659   -487.52182    891.54712   -6280.4519 
 1391000    261.96669   -9081.2996   -8082.5631   -9081.2996            0    7347.0949    24.918009    25.043406    23.127488    14432.288    6273.8003    8578.9618    7188.5226    461.25222   -676.67497     163.3482   -6536.1457 
 1392000    265.31975   -9096.8906   -8085.3708   -9096.8906            0    7320.8113    24.937091     25.14351    22.936704    14381.451    8244.0681    6141.2629     7577.103    101.06464   -1958.8399    1259.8967   -6549.9132 
 1393000    270.58437   -9076.2366   -8044.6456   -9076.2366            0    7903.9007    24.956304    25.052717    23.011079    14387.061    7622.9402    8175.5576    7913.2041    -539.8341    5.5504558    485.62272    -6386.245 
 1394000    262.89132   -9067.5233   -8065.2617   -9067.5233            0    7630.1452    24.829299    25.003304    23.235978    14425.233    8429.4959    7765.6588    6695.2808   -463.83079    507.85936    86.675725   -6460.0529 
 1395000    281.79211   -9053.3223   -7979.0022   -9053.3223            0     8876.264    25.021817    24.976212    22.971298    14355.917    7989.9437    8860.8836    9777.9647    1.9359235   -403.73769    153.44876   -6120.6115 
 1396000    262.74287   -9061.5268   -8059.8312   -9061.5268            0    8137.5576    25.085871    24.879242    23.054102    14388.467    6610.4658    8974.7487    8827.4582    480.14243   -675.42655    1116.9786   -6352.2376 
 1397000    268.98567   -9087.2184   -8061.7223   -9087.2184            0    7999.9824    25.087048    24.887172    23.014596    14369.064    7314.0061    9151.8717    7534.0693    430.13797    39.177586    124.26482   -6385.2616 
 1398000    264.70759   -9108.7202   -8099.5341   -9108.7202            0    8400.3238    25.028185    24.896347    23.022326     14345.45    7677.1764    9845.0499    7678.7451   -384.09055   -1477.0523    651.26698   -6342.0715 
 1399000    271.19528   -9072.6214   -8038.7013   -9072.6214            0    8090.8349    25.111284    24.893671    23.036835    14400.603    6027.7091    9862.4446    8382.3509   -193.12688   -543.97355    1470.8055   -6339.4802 
 1400000    260.10099   -9067.4957   -8075.8722   -9067.4957            0    7970.6565    24.992172    24.961778    23.056646    14383.867    6975.6107      8978.13    7958.2288   -624.62648   -983.61719   -1026.6815   -6403.8361 
 1401000    268.42785   -9055.6317   -8032.2623   -9055.6317            0    8439.9459    25.023614    24.966032    23.050236    14400.413    7682.8601    9299.1777       8337.8    453.47463   -415.23823    649.48861   -6259.7449 
 1402000    266.13397    -9093.134   -8078.5099    -9093.134            0    8255.2736    24.976494    24.902222    23.134524    14388.984    8730.0571    8874.8386    7160.9251   -749.16065   -813.37666   -465.24169   -6346.1526 
 1403000    270.38854   -9066.6931   -8035.8487   -9066.6931            0    7684.7457    25.038406    25.097263    22.966455    14432.016    7184.8178    7514.6571    8354.7623   -1442.7826    1342.3401   -1281.2447   -6418.3929 
 1404000    265.69944   -9104.0282   -8091.0607   -9104.0282            0    7226.2215    24.980531    25.211921    22.887939    14414.988    6414.6984    6892.6564    8371.3097    113.57627   -318.35363    163.82116   -6571.9079 
 1405000    262.87651   -9058.4672   -8056.2621   -9058.4672            0    8932.3167    24.912131    25.060108    23.049551    14389.851    8807.5509     8222.231    9767.1682    196.03505    93.714227   -99.785339   -6181.7153 
 1406000    257.48107   -9127.4748   -8145.8396   -9127.4748            0    8401.6849    24.784256    25.000988    23.110599    14320.041     10038.11    8268.0242    6898.9199    496.58874   -1569.5735    1419.8977   -6391.2056 
 1407000    266.64702   -9085.5776   -8068.9976   -9085.5776            0    7928.2042    24.985546    25.106231    22.935032    14386.982    8228.6858     7413.939    8141.9878    402.56144    50.128242    -407.0812   -6405.5067 
 1408000    270.01821   -9077.1874   -8047.7549   -9077.1874            0    6545.4298    24.949263    25.011801    23.166006     14456.19    6966.0252    7303.5592     5366.705    -38.75256   -997.63235   -792.80927   -6667.7904 
 1409000    267.43854   -9044.4381   -8024.8404   -9044.4381            0    8737.6292    24.895367    25.084422    22.991967    14358.159    9784.3033     7518.772    8909.8121   -195.33666   -12.508784    1981.2277   -6195.1893 
 1410000    263.31555   -9053.6743   -8049.7953   -9053.6743            0    9059.0018    24.822026    25.097213    23.010927    14334.971    11390.379    7289.4289    8497.1979   -64.101858    444.47012    357.98718   -6155.9127 
 1411000    253.79341   -9070.7449   -8103.1687   -9070.7449            0     9557.036    24.878234    24.966066    23.030711    14304.643    9744.1741    9786.7723    9140.1615    358.25575   -924.67808    921.33421   -6109.3938 
 1412000    271.05279   -9086.8425   -8053.4656   -9086.8425            0    8258.8039    24.933016    25.035629    23.068331    14399.569    7094.5167    9004.5094    8677.3857    44.735811   -646.53743   -63.499684   -6319.0925 
 1413000    268.19384    -9053.576   -8031.0988    -9053.576            0    7890.4474    24.984874    25.124229    22.960376    14412.819    8550.6959    7140.8463       7979.8   -614.43213   -245.12047   -422.66054   -6372.5569 
 1414000    264.18004   -9091.4795   -8084.3047   -9091.4795            0      7681.16     24.82799    25.031395    23.149417    14386.882    9362.8067    7541.8581    6138.8152   -1367.8214    815.72591   -238.77187   -6472.6597 
 1415000    271.30298   -9084.6888   -8050.3581   -9084.6888            0    8182.9077    24.880837    25.162453    22.923546    14351.581    8158.6724    6650.8098    9739.2409    153.78226    460.76301     350.8652   -6337.6503 
 1416000    271.96421   -9049.0793   -8012.2277   -9049.0793            0    8213.4333    24.848588    25.000714    23.152451    14383.053    8151.6362    7964.7051    8523.9587   -397.92023   -338.55977    191.87158   -6289.3608 
 1417000    254.71144   -9098.4541   -8127.3779   -9098.4541            0    6724.6579    25.018916     25.07849    22.978685    14417.669    7057.7793    6127.6897    6988.5047   -749.36153    385.14272    942.15358   -6713.4049 
 1418000    269.37354   -9024.7782   -7997.8034   -9024.7782            0    7625.1887    25.036343    25.108417    22.960333    14433.392    7478.2534    7254.2465    8143.0662    791.70533   -508.63199   -310.81675     -6392.73 
 1419000    269.46611   -9081.6169   -8054.2892   -9081.6169            0    7353.8832    24.973511    24.952899    23.093998     14391.29    6281.0147    7897.7767    7882.8581   -74.915893   -988.61993    432.89552     -6510.84 
 1420000    262.84463   -9050.0135   -8047.9299   -9050.0135            0    8868.0277    25.075431    24.897197    23.009966    14365.305     8643.982    8506.5498    9453.5513   -363.03862    1021.2153    1394.9469   -6190.0494 
 1421000    266.43821   -9080.2191   -8064.4352   -9080.2191            0    7755.8034    25.145087    24.961049    22.930607    14392.344    6787.8853    9077.6154    7401.9094   -650.08402    126.11657    708.06157   -6436.5109 
 1422000    265.83009   -9081.0007   -8067.5352   -9081.0007            0    7788.9708    24.946206    24.930509     23.16056    14404.053    7676.6274    8646.1652    7044.1198   -342.13469    409.10267    694.43788   -6431.3191 
 1423000    260.21102   -9038.3201    -8046.277   -9038.3201            0    9742.1596    24.790062     25.08003    23.022978    14314.203    10756.749    8804.2237    9665.5055    531.59674    669.56155    290.31694   -6012.5236 
 1424000    266.33982   -9084.1683   -8068.7594   -9084.1683            0    8429.7601     24.86827       25.264    22.823554    14339.399    9869.7874     5949.522     9469.971    407.26306    146.89926    186.49923   -6305.8822 
 1425000    256.71815   -9031.6955   -8052.9688   -9031.6955            0    8931.5693     24.85637    25.042879    23.008295     14322.09    9841.2626    8293.5543    8659.8909    14.571196    540.20886    693.05695   -6187.4052 
 1426000    266.28522   -9081.2291   -8066.0284   -9081.2291            0    9624.5778     24.83849    25.122635     22.89153    14284.505    10493.022    8767.1734    9613.5379    737.61256   -313.55958    109.07344   -6060.9896 
 1427000    267.17523   -9060.2187   -8041.6249   -9060.2187            0    8310.6997    24.912603    25.114125     22.96943    14371.013    9012.5568    7727.6833     8191.859     188.3091   -139.26479     402.0284   -6299.8146 
 1428000    260.27322   -9051.5451   -8059.2649   -9051.5451            0    7799.4879    24.846658    24.998805    23.208216    14415.477    8606.9734    8453.0242    6338.4662    857.26793   -210.71666   -865.45994     -6419.54 
 1429000    259.34405   -9052.6244   -8063.8866   -9052.6244            0    7724.2083    24.921429    25.146445    23.009261    14419.567    8797.6213    7144.9036       7230.1   -207.46944   -224.93351     -494.707   -6439.5274 
 1430000      271.393   -9115.8931   -8081.2192   -9115.8931            0     6822.053    24.951337    25.038705    23.048395    14399.465    7490.4766    6413.6925      6561.99   -25.938149   -731.76792   -323.94231   -6648.5783 
 1431000    267.04241   -9072.2879   -8054.2005   -9072.2879            0    9335.2816    24.947929    24.923931    23.041993    14327.522    8328.7881    10446.265    9230.7913   -52.189539    -257.7359    7.0110655   -6103.5728 
 1432000    268.94991    -9020.453   -7995.0932    -9020.453            0    10663.239    24.900296    25.010935    22.936406    14284.327    10009.521    10988.203    10991.993    441.30634    671.97568   -1061.6351   -5773.7031 
 1433000    272.86764   -9088.0502   -8047.7543   -9088.0502            0     9972.843    24.859283    24.963528    23.024322    14288.328    11170.406    9429.6142    9318.5091   -913.07884   -818.86136   -1412.7702   -5969.6072 
 1434000    270.59155   -9063.9201   -8032.3018   -9063.9201            0    9444.0545    24.929653    24.997241    22.995236    14329.999     8989.282    9675.9172    9666.9643    603.17033    1332.4839    2149.2812   -6058.6045 
 1435000    276.47502   -9029.5969   -7975.5481   -9029.5969            0    10818.309    24.947261    25.071423    22.863406    14300.222    11225.386    10225.669    11003.871   -609.30828   -265.63143   -1504.1118   -5719.3458 
 1436000    282.45327    -9073.286   -7996.4453    -9073.286            0    8827.4773     24.90961    25.002846    23.050258    14355.957    9086.6659    8782.7417    8613.0243    429.06897   -201.87678   -279.74063   -6148.2636 
 1437000    265.91255   -9125.6592   -8111.8793   -9125.6592            0    8778.7877    24.847155    25.042023    23.010612    14317.733    9474.8634    8102.8492    8758.6507   -106.95979   -179.75285   -230.34329   -6278.7855 
 1438000    280.88825    -9081.021   -8010.1469    -9081.021            0    9861.2769    24.771273    25.061458    23.012718    14286.392    11307.367    8170.9074    10105.556   -784.03505    459.08877    1380.7491   -5955.5264 
 1439000    258.55127   -9086.9268   -8101.2114   -9086.9268            0    9556.5893    24.835381    25.107557    22.934875    14301.173    11250.037    7717.7003    9702.0303    1066.8941    1336.3368    636.86193   -6108.0132 
 1440000    274.23528   -9039.7445   -7994.2345   -9039.7445            0    8726.8147    24.838973    24.995741    23.165532     14382.75     9588.364    8044.9164    8547.1636   -1072.4147    810.26899    1072.3374   -6163.7183 
 1441000    262.29076   -9043.7262   -8043.7542   -9043.7262            0    8585.0435    24.946789    25.082457    23.007321    14396.297    8479.2083    8019.9391     9255.983   -30.561163   -1652.8474    967.50203   -6241.2795 
 1442000     275.9594   -9076.5378   -8024.4547   -9076.5378            0    7484.9914     25.01569    25.120448    22.924238    14405.714    8727.7807    7056.8166     6670.377    70.606582   -96.677891   -399.48649   -6451.9137 
 1443000     259.7164   -9042.1939   -8052.0365   -9042.1939            0    8415.1625    24.890545     25.00137    23.107362    14379.659    9593.0341    7968.1162    7684.3371   -505.41225    403.59859   -172.58269   -6287.2711 
 1444000    262.20697    -9064.771   -8065.1185    -9064.771            0    7233.7563    24.911566    25.115837    23.029873    14409.212    7528.1147    6346.1643    7826.9898   -262.22154   -135.69142    225.63542   -6544.9911 
 1445000    266.33309   -9060.1092    -8044.726   -9060.1092            0    8295.2073    24.964745    25.057383    22.953097    14358.337    7788.3328     7989.938     9107.351    926.42407   -809.11269    818.15853   -6307.6962 
 1446000    270.65824   -9054.2129   -8022.3403   -9054.2129            0    9721.5104    24.765632    24.940184    23.228381    14347.228    10629.188    9761.7912    8773.5517   -122.73592    -46.56446   -223.89959   -5988.2153 
 1447000    263.21692   -9056.1612   -8052.6583   -9056.1612            0    7348.1225    25.013105    25.051426    23.010142    14418.476    7578.4316     6539.423    7926.5128    255.18439   -691.53988    895.29885   -6507.5048 
 1448000    272.08715   -9058.0639   -8020.7436   -9058.0639            0    8079.4235    25.014728    25.043936    22.972851    14391.738    8109.8435    7705.0452    8423.3819    -662.0757   -1237.8186    228.47081   -6324.9636 
 1449000    268.53581   -9023.5373   -7999.7563   -9023.5373            0    9524.7373    24.845815    24.912215    23.155881    14332.663    9782.7018    10090.939     8700.571    -10.38175    351.87996    -589.9275   -6008.8272 
 1450000    267.81852   -9069.7123    -8048.666   -9069.7123            0    9208.9222    24.966208    25.028439    22.948894    14339.966     10192.57    7351.5062     10082.69    855.04503   -225.76648   -1186.1581     -6122.77 
 1451000    276.38696   -9061.4403   -8007.7271   -9061.4403            0    8989.6518     24.91961    24.936367    23.103585    14356.672    9835.7438    8866.2239    8266.9878   -524.25571    271.72354     262.5612   -6125.4977 
 1452000    270.86566   -9092.7984    -8060.135   -9092.7984            0    8822.5098    24.897081    24.954153    23.066706    14331.011     9293.807    8738.1535    8435.5689   -636.56113   -187.17854   -516.61894   -6216.2032 
 1453000    268.27312   -9128.4021   -8105.6226   -9128.4021            0    7900.4091    25.082568    25.086859    22.796282    14344.397    7847.3555    7896.1742    7957.6976   -265.94247   -377.51778   -241.82507   -6452.8703 
 1454000    272.91397    -9071.955   -8031.4825    -9071.955            0    9271.4347    24.906797    24.860054    23.171467     14347.41    9438.4756    9323.0809    9052.7476   -728.06819   -922.00601    449.00482   -6091.5066 
 1455000    264.63651   -9093.9836   -8085.0685   -9093.9836            0    8559.3406    25.112796    24.904407    22.944282    14349.797    7147.0714    9155.6461    9375.3043     566.7239    342.98279    521.58957   -6293.7948 
 1456000    251.82528   -9091.8716   -8131.7988   -9091.8716            0    8362.3096    24.984656    24.936156    22.990041    14323.285    7846.2488     8469.331     8771.349    324.32652    51.201148     342.4049   -6384.9924 
 1457000    254.36204   -9009.2496   -8039.5055   -9009.2496            0     9510.352    24.780012    24.928982    23.220339    14344.143    10228.535    10021.666    8280.8557     226.1676   -313.76532    441.54033    -6049.991 
 1458000    272.40668   -9091.3064   -8052.7679   -9091.3064            0    7055.0982    25.039083    25.099454    22.942997    14418.923    7149.4384    6855.8064    7160.0498    89.369855   -342.81128    714.04886   -6569.1851 
 1459000    270.36471   -9048.9942   -8018.2407   -9048.9942            0    6822.8131     24.88768    25.000302    23.237911    14458.617    8699.6493    6012.9506    5755.8393   -343.54748   -646.53071    153.22466   -6579.5543 
 1460000     268.2009   -9059.5063   -8037.0021   -9059.5063            0    7973.0128    24.979958     25.08581    22.982189    14401.616    7786.1479     7618.661    8514.2295   -490.59172   -373.78438     188.4531   -6362.4079 
 1461000    267.43765   -9053.4401   -8033.8458   -9053.4401            0    7061.7536    25.026998    24.977833    23.144267    14467.948    6882.4425    7201.0074     7101.811    384.24418    34.856108    246.91039   -6543.8145 
 1462000    262.24847   -9066.3806   -8066.5698   -9066.3806            0    8054.8162    24.978909     25.04537    22.987625    14381.197    6864.6911    8671.6016    8628.1559   -513.57371    430.14311    328.38198   -6377.1929 
 1463000     270.0176   -9103.1039   -8073.6736   -9103.1039            0    8791.3558    24.909623    25.079875    22.969707    14349.871    9610.3779    8388.0727    8375.6169   -171.22715   -1478.4081    986.50351    -6233.835 
 1464000    270.69238   -9067.0138    -8035.011   -9067.0138            0    8399.1475    24.884192    25.029286    23.069591    14368.516    7787.7175    8848.8735    8560.8515    559.60893   -503.84975   -1157.1874   -6274.9691 
 1465000    273.89308   -9106.0562   -8061.8509   -9106.0562            0    9366.4166    24.673273    25.106933     23.05997    14284.965    11373.886    8705.0446    8020.3195    884.45427   -59.434192    493.44698   -6110.5307 
 1466000    267.53243   -9112.0851   -8092.1295   -9112.0851            0    8340.8659    24.930899    25.044962    22.975786    14345.929    8357.8472    8127.1854     8537.565    303.67702    507.12421    167.55521    -6347.048 
 1467000    276.49586   -9075.2257   -8021.0973   -9075.2257            0    8105.5116    24.875432    25.035071    23.120589    14398.537    9304.3817    7277.4501    7734.7031    201.25851   -296.56211   -1468.0855    -6319.038 
 1468000    269.44997   -9071.7758   -8044.5096   -9071.7758            0    8473.3201    24.890972    25.153655     22.91091    14344.496     8537.827    8482.4593    8399.6741   -44.837101   -733.03108   -224.16098   -6271.8931 
 1469000    270.12353   -9114.4971    -8084.663   -9114.4971            0    8161.2461    24.821581    25.016877    23.071018    14326.143    8934.6516    8097.8463    7451.2402   -54.441697   -482.57501    686.52332   -6379.5167 
 1470000    261.83164   -9060.9573   -8062.7357   -9060.9573            0    8384.6989    24.800776    25.071817    23.147974    14393.423    9045.3804    7593.9446    8514.7719   -539.36444    50.517004   -1605.3885   -6302.6758 
 1471000    262.04888   -9047.9377   -8048.8878   -9047.9377            0    9339.5911    24.940954    24.917638    23.051367    14325.726    9821.6956    9280.8444    8916.2334    120.46496   -307.83223    103.17759   -6097.6043 
 1472000    268.18681   -9091.5187   -8069.0682   -9091.5187            0    9708.5118     24.93824    24.907628    22.965411     14265.02    9042.3293    10815.838    9267.3677   -23.213096   -800.22582    149.10226   -6049.3028 
 1473000    271.24818   -9078.6186   -8044.4968   -9078.6186            0    10453.566    24.897313    24.942762    22.980286    14270.936    11085.559    11045.436    9229.7013   -1005.6098    -280.2791    261.74854    -5868.828 
 1474000    276.20021   -9023.0699   -7970.0687   -9023.0699            0     9738.759      24.9593    24.970909    22.942836     14299.27    9834.0647    9644.1156    9738.0967   -492.20302    281.76027   -226.16541   -5939.1461 
 1475000    264.28163   -9071.2619   -8063.6998   -9071.2619            0    7803.9038    25.105897    25.051517    22.874705    14386.835    6957.0367    7439.0849    9015.5898    35.527794    122.74972    781.86972   -6426.3063 
 1476000     273.7625    -9085.955   -8042.2475    -9085.955            0    9190.8154    24.906061    24.917047    23.073638    14319.166    9424.7358    9143.8639    9003.8467    1027.6672    725.68553    50.500088   -6122.9263 
 1477000    276.62319   -9090.6592   -8036.0454   -9090.6592            0     7389.964    25.104786    24.880358    23.106378    14432.615    5930.8448     9000.004    7239.0433    9.2649893   -412.58098    643.43008   -6480.5697 
 1478000    275.57757   -9062.7643    -8012.137   -9062.7643            0    8651.7011     25.04476    24.896328    23.066553    14382.516    8175.5788    9085.0878    8694.4365   -364.38625    876.56576   -866.89954    -6197.406 
 1479000    267.17637   -9086.1064   -8067.5082   -9086.1064            0     8058.655    25.018153    24.929511    23.030232    14363.732    6608.3247     9060.229    8507.4113    174.61609    631.12462   -252.57818   -6379.3787 
 1480000    267.88939    -9046.454   -8025.1374    -9046.454            0     8420.972    25.009017    24.965176    22.995869    14357.575    8256.1582     8503.839    8502.9187   -66.590899   -279.77989    764.56985   -6261.8659 
 1481000     268.8617   -9042.0829   -8017.0595   -9042.0829            0    7751.3545    25.040868    24.900902    23.145127    14431.918    7480.0357    8014.3419    7759.6858    1456.0795     182.0854    705.19265   -6385.5954 
 1482000    266.61375    -9047.466   -8031.0128    -9047.466            0    8221.0475    25.086361    25.052944     22.91584    14402.312    7294.9982    7903.1355    9465.0088   -613.80701   -247.34157    15.167594   -6304.2397 
 1483000    266.97407    -9036.056   -8018.2291    -9036.056            0      8814.91    24.874442     24.92914    23.212757    14394.195    8492.9046    9032.7405    8919.0849    514.41774   -848.44873   -256.45197   -6167.7629 
 1484000    275.24271   -9072.9543   -8023.6036   -9072.9543            0    8743.5346    24.937593    25.021124    23.016498    14361.526    8824.9137    9099.1335    8306.5565   -368.36811    1226.2349   -744.81367   -6192.2867 
 1485000    266.22947   -9097.7044   -8082.7162   -9097.7044            0    7578.9231    24.945527    25.185227    22.885706    14378.145    7672.0044    7177.9671    7886.7979   -967.43864   -1483.5271    817.37501   -6493.4881 
 1486000    270.97201   -9055.2245   -8022.1556   -9055.2245            0    9859.7603    24.804034    25.057123      23.0518    14327.103    10126.908    9935.5613    9516.8113    436.06686   -658.77901    674.63623   -5961.9972 
 1487000    260.22304   -9055.3012   -8063.2123   -9055.3012            0     8710.189    24.873367     25.11011    22.975846    14350.093    8970.2577    8123.2965    9037.0129   -907.97039   -291.80381    383.46569   -6240.3319 
 1488000    279.19519   -9047.0128   -7982.5934   -9047.0128            0    8959.1414     24.87678    24.974891    23.142233     14378.15    9257.0957    8673.4911    8946.8375    267.35746   -297.85531   -326.18143   -6103.9459 
 1489000    266.35579    -9049.227   -8033.7573    -9049.227            0    9144.3753    24.983385    25.073245    22.936284    14367.622    8774.7726     7860.375    10797.978    555.89795    -2068.222    26.480308    -6117.672 
 1490000    277.49048   -9063.2123   -8005.2921   -9063.2123            0     9179.073    24.942334    25.051076    22.957938    14344.861    9038.8614    9210.0731    9288.2844   -210.07808    338.04776   -415.08142   -6084.9833 
 1491000    268.75816   -9039.8433   -8015.2147   -9039.8433            0    9580.8345    24.815541     24.82904    23.218825    14306.188    10342.584    11254.699    7145.2207     194.7431    123.09671   -859.74801   -6016.2591 
 1492000    274.14461   -9055.7074   -8010.5431   -9055.7074            0    9610.7619    24.982295    24.938395    23.007774    14334.265    8679.5194     9983.409    10169.357   -899.49089   -620.24186   -237.99755    -6001.408 
 1493000     267.6987   -9064.3641   -8043.7746   -9064.3641            0    8778.0232    25.002396    25.000792    22.958717    14351.028    7233.2297    8916.2439    10184.596   -77.452305   -797.35879    -406.4138   -6206.5781 
 1494000    269.19951   -9109.3924   -8083.0811   -9109.3924            0    7184.3003    24.975621     24.98306    23.091951    14408.626    7241.1704     7194.145    7117.5856   -272.83986    -85.95162    792.14844   -6573.4079 
 1495000    272.53788   -9082.5744   -8043.5357   -9082.5744            0    7639.8544     25.04211    25.035819    23.003858    14422.263    7079.5125    7740.1891    8099.8615     694.6622   -144.57475   -291.05492   -6436.6152 
 1496000    261.41655   -9069.4947   -8072.8556   -9069.4947            0    7375.0238    25.010991    24.936415    23.149361    14437.897     7549.274    7679.4038    6896.3937   -1088.0149    795.96713   -362.85465   -6519.9565 
 1497000    271.25149   -9036.9196   -8002.7852   -9036.9196            0    8133.3692    25.026375    25.074067    22.953654    14403.716    8731.6296    6710.4153    8958.0627    96.996446   -561.72342   -883.70443   -6294.2618 
 1498000     257.3046   -9072.4177   -8091.4553   -9072.4177            0    8324.6875    24.918866    25.044494    23.055804    14388.675    8420.2655    7793.7889    8760.0082    1547.4389    288.72666     267.7302   -6344.5689 
 1499000    256.60196   -9097.6373   -8119.3536   -9097.6373            0    7182.1899    24.859643    25.107242    23.116377     14428.25    8898.6399    7208.2849    5439.6449    -227.5403    199.86147    107.15618   -6608.0684 
 1500000    268.96096   -9043.0876   -8017.6858   -9043.0876            0    7829.0976    24.951686    25.143155    22.965941    14408.007    9034.9366    6867.5227    7584.8336    359.57103   -328.65712   -299.82055   -6372.5888 
Loop time of 582.514 on 64 procs for 250000 steps with 1920 atoms

Performance: 74.161 ns/day, 0.324 hours/ns, 429.174 timesteps/s
194.5% CPU use with 32 MPI tasks x 2 OpenMP threads

MPI task timing breakdown:
Section |  min time  |  avg time  |  max time  |%varavg| %total
---------------------------------------------------------------
Pair    | 72.623     | 75.341     | 80.895     |  22.8 | 12.93
Bond    | 0.77849    | 0.99459    | 1.3029     |  12.4 |  0.17
Kspace  | 273.81     | 279.69     | 283.29     |  16.1 | 48.02
Neigh   | 5.9332     | 6.5554     | 7.0218     |  10.1 |  1.13
Comm    | 95.121     | 99.227     | 107        |  30.2 | 17.03
Output  | 0.78525    | 0.78569    | 0.78762    |   0.0 |  0.13
Modify  | 95.406     | 101.51     | 106.5      |  29.2 | 17.43
Other   |            | 18.41      |            |       |  3.16

Nlocal:        60.0000 ave          65 max          57 min
Histogram: 3 5 5 7 0 6 2 3 0 1
Nghost:        3328.59 ave        3362 max        3303 min
Histogram: 3 2 5 5 6 4 2 2 1 2
Neighs:        21078.0 ave       23062 max       19845 min
Histogram: 5 3 4 5 6 3 2 3 0 1

Total # of neighbors = 674495
Ave neighs/atom = 351.29948
Ave special neighs/atom = 2.0000000
Neighbor list builds = 12163
Dangerous builds = 1

unfix		3
unfix		2
unfix		1

write_data	data.final.${pid}
write_data	data.final.0
System init for write_data ...
PPPM initialization ...
  extracting TIP4P info from pair style
  using 12-bit tables for long-range coulomb (../kspace.cpp:340)
  G vector (1/distance) = 0.37417644
  grid = 30 30 30
  stencil order = 5
  estimated absolute RMS force accuracy = 0.0033071499
  estimated relative force accuracy = 9.9593837e-06
  using double precision FFTW3
  3d grid and FFT values/proc = 5400 960
Last active /omp style is kspace_style pppm/tip4p/omp
WARNING: Not all mixed pair coeffs generated from mixing. Use write_data with 'pair ij' option to store all pair coeffs. (../write_data.cpp:312)

write_restart   restart.lmp.${pid}
write_restart   restart.lmp.0
System init for write_restart ...
PPPM initialization ...
  extracting TIP4P info from pair style
  using 12-bit tables for long-range coulomb (../kspace.cpp:340)
  G vector (1/distance) = 0.37417644
  grid = 30 30 30
  stencil order = 5
  estimated absolute RMS force accuracy = 0.0033071499
  estimated relative force accuracy = 9.9593837e-06
  using double precision FFTW3
  3d grid and FFT values/proc = 5400 960
Last active /omp style is kspace_style pppm/tip4p/omp
Total wall time: 0:09:42
