LAMMPS (30 Jul 2021)
  using 1 OpenMP thread(s) per MPI task
package omp 0
using multi-threaded neighbor list subroutines
echo both

include		in.partitions
variable        pid world 0
include		in.temp
variable        temperature equal 236.61
variable	tempDamp equal 100.0
include		in.pressure
variable        pressure equal 3500.0
variable        pressureDamp equal 1000.0 # This is 1 ps
include		in.seed
variable        seed world 745823

units		real
atom_style	full
read_restart    restart.lmp.${pid}
read_restart    restart.lmp.0
Reading restart file ...
  restart file = 30 Jul 2021, LAMMPS = 30 Jul 2021
  restoring atom style full from restart
  triclinic box = (-3.2244760 -0.31369045 -0.039381267) to (14.834475 22.893689 19.269379) with tilt (-0.10504532 -6.6975282 -0.082212917)
  4 by 4 by 4 MPI processor grid
  restoring pair style lj/cut/tip4p/long/omp from restart
  restoring bond style harmonic/omp from restart
  restoring angle style harmonic/omp from restart
  1008 atoms
  672 bonds
  336 angles
Finding 1-2 1-3 1-4 neighbors ...
  special bond factors lj:    0        0        0       
  special bond factors coul:  0        0        0       
     2 = max # of 1-2 neighbors
     1 = max # of 1-3 neighbors
     1 = max # of 1-4 neighbors
     2 = max # of special neighbors
  special bonds CPU = 0.696 seconds
  read_restart CPU = 0.879 seconds

include 	in.setup
variable	out_freq equal 1000
variable	out_freq2 equal 10000
variable	out_freq3 equal 1000

timestep	2.0

neigh_modify    delay 7 every 1

include		in.tip4p
# This is TIP4P/Ice

# create groups ###
group ox type 2
336 atoms in group ox
group hy type 1
672 atoms in group hy

# set charges - beside manually ###
set group ox charge -1.1794
Setting atom values ...
  336 settings made for charge
set group hy charge 0.5897
Setting atom values ...
  672 settings made for charge

# ### TIP3P Potential Parameters ###
pair_style lj/cut/tip4p/long/omp 2 1 1 1 0.1577 8.5
pair_coeff 1 1*2 0.000 0.000
pair_coeff 2 2 0.21084 3.1668
bond_style  harmonic
bond_coeff  1 450 0.9572
angle_style harmonic
angle_coeff 1 55 104.52
kspace_style pppm/tip4p/omp 1.0e-5
pair_modify tail yes

thermo          ${out_freq}
thermo          1000
thermo_style    custom step temp pe etotal epair emol press lx ly lz vol pxx pyy pzz pxy pxz pyz enthalpy

restart 	${out_freq3} restart.lmp.${pid} restart2.lmp.${pid}
restart 	1000 restart.lmp.${pid} restart2.lmp.${pid}
restart 	1000 restart.lmp.0 restart2.lmp.${pid}
restart 	1000 restart.lmp.0 restart2.lmp.0


include         in.dump
dump            myDump all atom ${out_freq2} dump.water.${pid}
dump            myDump all atom 10000 dump.water.${pid}
dump            myDump all atom 10000 dump.water.0
dump            myDump2 all dcd ${out_freq2} dump.dcd
dump            myDump2 all dcd 10000 dump.dcd
dump_modify     myDump append yes
dump_modify     myDump2 append yes


variable natoms 	equal  "count(all)"                        # NUMBER ATOMS
variable H      	equal  "enthalpy/v_natoms"                 # ENTHALPY-per-atom
variable Vol      	equal  "vol/v_natoms"                 # volume-per-atom
fix AVG all 		ave/time ${out_freq} 1 ${out_freq} v_Vol v_H file vol_enthalpy.dat
fix AVG all 		ave/time 1000 1 ${out_freq} v_Vol v_H file vol_enthalpy.dat
fix AVG all 		ave/time 1000 1 1000 v_Vol v_H file vol_enthalpy.dat



fix 		1 all shake 1e-6 200 0 b 1 a 1
       0 = # of size 2 clusters
       0 = # of size 3 clusters
       0 = # of size 4 clusters
     336 = # of frozen angles
  find clusters CPU = 0.591 seconds
fix             2 all nph tri ${pressure} ${pressure} ${pressureDamp}
fix             2 all nph tri 3500 ${pressure} ${pressureDamp}
fix             2 all nph tri 3500 3500 ${pressureDamp}
fix             2 all nph tri 3500 3500 1000
fix             3 all temp/csvr ${temperature} ${temperature} ${tempDamp} ${seed}
fix             3 all temp/csvr 236.61 ${temperature} ${tempDamp} ${seed}
fix             3 all temp/csvr 236.61 236.61 ${tempDamp} ${seed}
fix             3 all temp/csvr 236.61 236.61 100 ${seed}
fix             3 all temp/csvr 236.61 236.61 100 745823


run             250000
PPPM initialization ...
  extracting TIP4P info from pair style
  using 12-bit tables for long-range coulomb (../kspace.cpp:340)
  G vector (1/distance) = 0.38281731
  grid = 24 30 32
  stencil order = 5
  estimated absolute RMS force accuracy = 0.0019941438
  estimated relative force accuracy = 6.0053048e-06
  using double precision FFTW3
  3d grid and FFT values/proc = 3825 384
Last active /omp style is kspace_style pppm/tip4p/omp
Neighbor list info ...
  update every 1 steps, delay 7 steps, check yes
  max neighbors/atom: 2000, page size: 100000
  master list distance cutoff = 10.8154
  ghost atom cutoff = 10.8154
  binsize = 5.4077, bins = 5 5 4
  1 neighbor lists, perpetual/occasional/extra = 1 0 0
  (1) pair lj/cut/tip4p/long/omp, perpetual
      attributes: half, newton on, omp
      pair build: half/bin/newton/tri/omp
      stencil: half/bin/3d/tri
      bin: standard
Per MPI rank memory allocation (min/avg/max) = 9.327 | 9.334 | 9.337 Mbytes
Step Temp PotEng TotEng E_pair E_mol Press Lx Ly Lz Volume Pxx Pyy Pzz Pxy Pxz Pyz Enthalpy 
 2250000    238.99721   -4845.5943   -4367.5704   -4845.5943            0    4596.6608    18.058951     23.20738    19.308761    8092.3196    4881.8822    4148.5333    4759.5668    1487.1826   -827.16977    1724.4579   -3825.0808 
 2251000    240.39587   -4879.8411   -4399.0196   -4879.8411            0    3697.2354    18.004045    23.230884    19.413514    8119.7003    3924.6082    3109.4982    4057.5998   -354.69953    562.39207   -150.12898   -3961.2023 
 2252000    239.35379   -4871.2186   -4392.4814   -4871.2186            0     2619.902    18.199927    22.980494     19.50713    8158.7268    1504.4213    3152.8401    3202.4445    191.30222    35.879069    1541.6723    -4080.748 
 2253000    234.66926   -4870.3291   -4400.9616   -4870.3291            0    3710.6743    18.239994    22.773085    19.601921    8142.2637    2983.7025    4751.3597    3396.9608    -1227.782    219.88616   -2195.9449   -3960.3318 
 2254000    230.10318   -4889.9254   -4429.6906   -4889.9254            0    3892.2093    18.195248    22.800176    19.490973    8085.9248    2396.0161    4690.9324    4589.6794    259.37745   -1001.3286    1350.8093   -3970.7021 
 2255000    224.89281   -4847.8776   -4398.0641   -4847.8776            0    3559.0361    18.224281    22.903252    19.499475    8138.9891    3079.1336    4347.9079    3250.0668    -387.6833    1558.3346   -131.13185   -3975.6108 
 2256000    236.06665   -4852.2918   -4380.1294   -4852.2918            0    5320.7063    18.093009    22.829103    19.504199     8056.154    6478.6823    4894.7634    4588.6733   -723.13513   -893.14752     1044.571   -3754.9956 
 2257000    234.52248   -4863.1884   -4394.1145   -4863.1884            0    4924.0093    18.086335    22.856683    19.582555    8095.3035    4236.4606    5501.2042    5034.3632    55.694153    1921.4337    879.37721   -3812.7776 
 2258000    237.99138   -4871.9821   -4395.9699   -4871.9821            0    2618.4386    18.294653    23.008379    19.354808    8147.0251    1989.4504    3049.1401    2816.7252    109.59354   -356.74154    718.17662   -4084.8575 
 2259000     239.9835   -4845.5661   -4365.5695   -4845.5661            0    3408.1584    18.117635    23.060753    19.454303    8128.1302    2117.0374    3968.6441    4138.7939   -830.27906   -122.47701   -886.58337   -3961.5649 
 2260000    249.77497   -4879.2133   -4379.6325   -4879.2133            0    2756.1451    18.095633    22.963809     19.57177     8132.944    2558.7227    1889.3017    3820.4109    1282.4539    263.11496   -1476.8645   -4052.7243 
 2261000    237.01148    -4873.997   -4399.9447    -4873.997            0     4374.899    18.068148    23.040966     19.40439    8078.1948    5565.6113    2737.1831    4821.9028   -117.43096   -355.85878    186.79534   -3884.5283 
 2262000    243.89346   -4834.9459   -4347.1289   -4834.9459            0    2104.1421    18.223978    23.102819    19.376124    8157.8375    2027.9827    1393.2398    2891.2038   -1027.3764   -1550.2557   -576.02326   -4096.7913 
 2263000    251.07585   -4859.3471   -4357.1644   -4859.3471            0    3105.0314    17.994152    22.969439    19.617442    8108.1942    1238.6495    3639.4284    4437.0163   -497.61058   -18.168041    1054.3811   -3989.9954 
 2264000    250.51827   -4898.8256   -4397.7582   -4898.8256            0    2533.4825    18.345161    22.761185    19.466722    8128.4777    998.68842    3484.3935    3117.3655    -312.5892   -581.38371    143.28533   -4097.4252 
 2265000    232.17922   -4862.4841    -4398.097   -4862.4841            0    3077.4404    18.289201    22.760636    19.533588    8131.3216    3130.3993    2990.2843    3111.6376    546.47327   -814.31798    1007.5412   -4033.1526 
 2266000    238.06261   -4858.6617   -4382.5071   -4858.6617            0     4200.569    17.980088    22.825879    19.712938    8090.4131    6675.2855    3287.3526     2639.069   -266.05308   -1349.2956    586.75906   -3886.8804 
 2267000    236.99842   -4865.3974   -4391.3713   -4865.3974            0    3446.2009    18.171933     23.02655    19.325751     8086.608    2428.4461    4166.4005    3743.7561    823.91055    375.92788    -405.1743    -3984.944 
 2268000    229.93283   -4875.6185   -4415.7245   -4875.6185            0    701.90388    17.957623    23.266421    19.538167    8163.2337    2046.2734    232.04779    -172.6096    774.48171     -332.839    158.81305   -4332.1611 
 2269000    234.32936   -4866.3452   -4397.6575   -4866.3452            0    5008.5897    18.018661    23.183905    19.320386    8070.9545    6321.0553    3581.9735    5122.7401    516.20855    618.42171   -113.06901   -3808.1135 
 2270000    230.20543   -4858.4255   -4397.9861   -4858.4255            0    4511.1131    18.207185    22.942743    19.335246    8076.7725    5497.4661    3604.7971    4431.0762    1079.2174    19.287505    783.13049   -3866.6156 
 2271000    244.49988     -4906.74     -4417.71     -4906.74            0    3928.5251    18.069179    22.890643    19.583014     8099.831    4171.6404    4378.2781    3235.6567   -230.76515      807.365    377.18377   -3953.6423 
 2272000    235.41753   -4864.4532   -4393.5891   -4864.4532            0    3145.1568    18.164728    22.894647    19.494426     8107.245    3666.7095    2530.2182    3238.5426    -589.6517   -708.22684    389.45287   -4021.7188 
 2273000    231.84919   -4886.2987   -4422.5717   -4886.2987            0    2747.6192    18.311579    22.932144    19.271865    8092.7144    1284.3341    2630.6699    4327.8536    173.14577   -1287.8829    193.72651   -4098.2869 
 2274000    249.12016   -4849.8618   -4351.5907   -4849.8618            0    3055.5735    18.017776    22.965934    19.660754    8135.5227    3984.3639    3322.7768    1859.5798   -1045.6184    464.72995    56.290809   -3989.0522 
 2275000    234.30332   -4838.0549   -4369.4193   -4838.0549            0    3835.0659    18.243778    23.005375    19.343911    8118.7356    2050.1616    4525.6506    4929.3855    968.83922   -445.52377    267.13603   -3915.3343 
 2276000    229.76597   -4836.4299   -4376.8696   -4836.4299            0    2730.2084    18.189295    23.029758    19.485592    8162.4182    2238.4365    2569.7587    3382.4299    817.53594    448.39291   -535.57016   -4051.8643 
 2277000    244.35558   -4857.6207   -4368.8794   -4857.6207            0    2857.0042    18.250044    22.989324    19.395354    8137.4403    1822.0466    3227.7991    3521.1668    707.47137   -227.95094   -155.47436   -4029.8209 
 2278000    236.93765   -4881.6397   -4407.7351   -4881.6397            0      2621.73    18.014477    23.196847     19.47783    8139.3776    3165.9416     1707.866    2991.3824    1378.1309   -753.39023      592.808    -4096.524 
 2279000    239.56017   -4870.7386   -4391.5887   -4870.7386            0    4167.9566    18.043484     22.98072     19.48283    8078.5996    6137.5125    3267.7358    3098.6214    349.77198    204.44697   -474.74816    -3900.528 
 2280000    249.58316   -4870.6418   -4371.4447   -4870.6418            0    2385.2409     18.22784    23.113133    19.343987    8149.6698    2452.4896     1293.259    3409.9741    -341.8758   -801.65025   -176.61364   -4087.9479 
 2281000    243.47932   -4855.0379   -4368.0492   -4855.0379            0    3927.6619    18.258908    22.790413    19.494005    8112.0025    4238.1714    4355.3427    3189.4716    837.08231    649.75485   -328.77498   -3903.3862 
 2282000    237.66214   -4856.7463   -4381.3926   -4856.7463            0    5029.8151    18.147696    22.698344    19.624768    8083.8863    5766.2265    4598.7066    4724.5123    721.58141    807.27797   -337.68546   -3788.4016 
 2283000    232.18188   -4856.8115    -4392.419   -4856.8115            0    4016.6543    18.416279    22.689986    19.417814    8114.0269    1985.7548    5496.2948    4567.9133    1268.8677     701.6497    1037.8816   -3917.1092 
 2284000    224.47132   -4876.0039   -4427.0335   -4876.0039            0    2851.3427    18.116245    22.746476    19.682555    8110.8016    2724.3226    3890.4255    1939.2799    339.73929   -251.78703    932.57433   -4089.7547 
 2285000     223.1064   -4872.2188   -4425.9784   -4872.2188            0     4907.091    18.090458    22.935324    19.502699    8091.8747    5156.6102    4478.7258    5085.9371   -223.14592   -796.71373   -152.71661   -3846.8843 
 2286000    235.28996   -4890.1486   -4419.5396   -4890.1486            0    3014.6591     18.18771    22.973636    19.355795    8087.5835    1306.7617    3584.9393    4152.2764    589.23539   -451.31633   -868.45902   -4063.9632 
 2287000    237.31049    -4860.944   -4386.2937    -4860.944            0    4579.6279    18.076413    22.941213    19.478897    8077.7979    2116.1108    5473.4101     6149.363    237.47389   -71.585879    1112.9403   -3846.7842 
 2288000    228.73217   -4857.2436    -4399.751   -4857.2436            0    3430.9957     18.19058    23.071918    19.390256    8137.9269    2272.0573    3032.6398      4988.29   -470.91148   -1217.7925   -1252.4867    -3992.549 
 2289000    241.03416   -4886.0042   -4403.9061   -4886.0042            0    1191.0669    18.055838    23.062622    19.598591    8161.1466     2924.386    612.67714    36.137626    512.43724    -487.1623    470.44187    -4262.143 
 2290000    235.33657   -4857.5813   -4386.8791   -4857.5813            0    2865.9687    18.162025    23.009117    19.432333    8120.6196    2962.1924    2378.1197    3257.5941    231.72372   -956.31217     -1669.19   -4047.4598 
 2291000    234.99632   -4860.6894   -4390.6677   -4860.6894            0    4620.7026     18.17781    23.009145    19.287712    8067.1984    3990.7425     4624.559    5246.8064   -1055.4011    231.84285    121.95577   -3847.0337 
 2292000    242.22439   -4874.2747    -4389.796   -4874.2747            0    2780.1033    18.097398    22.911801    19.546451    8104.8182    1204.8256    4084.0502    3051.4339   -1315.9296    110.18649   -237.52196   -4061.1865 
 2293000    241.09642   -4864.9168   -4382.6942   -4864.9168            0     3054.938    18.102545    22.988174    19.453199    8095.3409    3110.7451    2902.1118     3151.957     -85.0981   -219.92013    585.96529   -4022.0214 
 2294000    228.87398   -4875.0983   -4417.3221   -4875.0983            0    4479.7887    18.172307    23.093491    19.213264     8063.077    4129.3258    4405.7027    4904.3376   -977.17097    533.55305    510.04616   -3890.5361 
 2295000    230.29574   -4879.6197   -4418.9997   -4879.6197            0    3380.3622    18.041796    23.017629    19.483127    8090.9405    3582.8238    3456.5147    3101.7481    600.50947    110.64261    2067.7064   -4020.1235 
 2296000     236.1565   -4878.8528   -4406.5106   -4878.8528            0    5031.0233    18.173237    23.080595     19.19764    8052.4333    5273.5816    4349.9425     5469.546   -598.51131   -423.74788    -347.1834   -3815.6849 
 2297000    237.05951   -4862.7557   -4388.6074   -4862.7557            0    4773.2015    18.075037    22.860929    19.528137    8069.2634    5236.8278    4853.1666      4229.61   -365.44389   -301.62319    1543.7952   -3826.8878 
 2298000    228.38219   -4874.0794   -4417.2868   -4874.0794            0    3167.3696    18.193996    22.949817    19.423404    8110.2209    938.21231    3900.8261    4663.0705   -1643.4735   -691.76774   -2181.3376   -4042.6527 
 2299000    242.72708   -4856.2623   -4370.7781   -4856.2623            0    4795.3979    18.180162    22.940822    19.309785    8053.4905     3760.214    5011.7518    5614.2279    1615.7895   -766.13451    741.67898   -3807.5496 
 2300000    237.81174   -4898.2462   -4422.5933   -4898.2462            0    4089.2172     18.11582    22.790094     19.61453    8098.0794    5952.8092    4361.3612    1953.4812   -896.05708   -638.38106   -1167.8935   -3939.6479 
 2301000    249.17305   -4831.7061   -4333.3292   -4831.7061            0    3693.7272    18.438794    22.757767    19.444234     8159.302     3244.121    5415.4124    2421.6481   -981.48706    1789.1228   -1070.0575    -3893.794 
 2302000    231.69962   -4880.1763   -4416.7485   -4880.1763            0    3152.8409    18.240164    22.891451    19.471771    8130.3177    4273.4031    2123.5684    3061.5511    2233.5149    -1748.615    37.433358   -4042.9088 
 2303000    225.24114    -4878.177   -4427.6669    -4878.177            0    5013.1434    18.027633    22.809952    19.540487    8035.2329    7520.5939    3585.8454    3932.9911   -141.20705   -289.32974   -432.20467   -3840.1986 
 2304000    237.85293   -4838.4891   -4362.7539   -4838.4891            0    4409.6244    18.178526    23.048645    19.287544    8081.2957     2973.934    4671.2618    5583.6774    2453.7977   -886.42319    486.78246    -3843.047 
 2305000    244.47015   -4864.0695    -4375.099   -4864.0695            0    4196.6319    17.919008    23.338176    19.369679    8100.3412    6219.7313    2389.7918    3980.3727    -272.4055   -247.26915    931.73674   -3879.3292 
 2306000     253.8685   -4867.3624   -4359.5941   -4867.3624            0    3067.3449    18.134888    23.109404    19.322645     8097.859    4795.7726    1835.7785    2570.4837   -1263.6183    198.92672     153.9789   -3997.3438 
 2307000    229.93946    -4882.586   -4422.6787    -4882.586            0    3322.1584    18.146971    22.985333     19.40742    8095.1098    3966.9526    2925.7535    3073.7691   -851.25419    1063.1872   -235.62496   -4030.4684 
 2308000     243.1503   -4872.0706     -4385.74   -4872.0706            0    3453.2112    18.287025    22.821931    19.440905    8113.5686     187.8449    4272.8485    5898.9403   -401.63177   -854.17728    2913.3106   -3977.1281 
 2309000    228.70403   -4860.2676   -4402.8313   -4860.2676            0    931.45719    18.073919    22.940345    19.748331    8188.0913    2247.1596    830.08657   -282.87462   -194.18073   -204.55089    557.55728   -4291.6014 
 2310000    234.64625   -4862.4002   -4393.0787   -4862.4002            0    5095.8278    18.098689    22.878744    19.390722    8029.2185    4372.9526    5771.8077     5142.723   -123.38894    707.61381    -270.7425   -3796.3679 
 2311000    244.99477   -4864.5316   -4374.5118   -4864.5316            0    1085.0772    18.344095    22.885611    19.580021    8220.0027    416.84288    2321.7203     516.6684   -355.76973   -87.975829   -2592.7146   -4244.4324 
 2312000    251.60093   -4844.4321   -4341.1991   -4844.4321            0    4433.8284    18.282324      22.6212    19.607038    8108.8454    3880.5414    3549.4564    5871.4873    2200.2093    126.33367    800.26099   -3816.8582 
 2313000    247.59055   -4865.1675   -4369.9558   -4865.1675            0    2244.6221    18.219778    22.966161    19.492599    8156.4514    1120.9962    2749.4559    2863.4143    1169.3836    252.63458   -23.453137   -4102.9502 
 2314000    238.87777    -4881.787   -4404.0019    -4881.787            0    3285.3114    18.140816    23.115056    19.339183     8109.422     3148.979    2751.2953    3955.6597   -343.26653   -43.525075   -1921.2221    -4015.456 
 2315000     232.2736   -4886.5568   -4421.9809   -4886.5568            0     3725.524    18.136896    23.020963    19.427027    8111.3439    3092.3628    3874.9916    4209.2176   -27.902536   -603.29324    741.50807   -3981.2677 
 2316000     250.6458   -4862.6706    -4361.348   -4862.6706            0    3295.5479    18.040117    22.995833    19.475952    8079.5507    3215.4322    2982.8441    3688.3674    1055.7981    138.68109    1391.8229   -3973.0271 
 2317000    224.98452   -4855.4284   -4405.4316   -4855.4284            0    3864.0087    18.198173    22.881055     19.42584    8088.7915    3307.4085    4018.0182    4266.5993   -628.00538   -457.05094    958.15444   -3949.6071 
 2318000    236.88942   -4861.8511    -4388.043   -4861.8511            0    2392.1918     18.06085    22.994136    19.586061     8133.967    3170.7884    1528.0529     2477.734    -612.5596   -850.09916   -1372.6622   -4104.2679 
 2319000    232.32557   -4893.8634   -4429.1836   -4893.8634            0    3869.9818    18.191114    22.889172    19.374631       8067.2    4084.2985    4212.7873    3312.8596   -827.78399   -213.62047   -86.071512   -3973.8731 
 2320000    234.38514   -4852.0089   -4383.2096   -4852.0089            0    2653.6331    18.109011    23.140646    19.436053    8144.7599     3036.205    2538.7638    2385.9304   -2225.0455    272.65889   -3425.6583   -4068.0032 
 2321000    230.47032   -4852.8081    -4391.839   -4852.8081            0    4625.6195     17.99789    23.252702    19.304017     8078.723    4940.6027    3892.7172    5043.5385    739.06257    733.90369    1247.2477    -3846.849 
 2322000    255.64686   -4851.5758   -4340.2505   -4851.5758            0    4261.5542    18.030084    23.178519    19.398564    8106.8664    4445.6743    3873.0139    4465.9745   -791.47334    908.39005   -584.85953   -3836.4055 
 2323000    225.84537   -4891.3713   -4439.6526   -4891.3713            0    3933.4495    18.035084    23.137016     19.35911    8078.1311    4481.6168     3185.699    4133.0327   -80.645117    822.54211   -395.81292    -3976.248 
 2324000    220.39991   -4873.7832   -4432.9562   -4873.7832            0     2617.435    17.960013    23.187925    19.490249    8116.8201    4762.6269    1635.5978    1454.0802    157.51674   -946.42497   -1312.3861    -4123.116 
 2325000    228.55492   -4865.9572   -4408.8191   -4865.9572            0    3968.1378    18.126588    23.014066    19.322645    8060.7602    2750.2298    4794.3981    4359.7857    732.08488     364.4994    -1977.556   -3942.3331 
 2326000    239.54731   -4871.0612    -4391.937   -4871.0612            0    1990.3387    18.108959    22.964404    19.624802    8161.1987    2397.4487    1502.7353    2070.8321    35.873356   -1591.1773   -211.12648   -4155.0415 
 2327000    223.10379   -4878.7151   -4432.4799   -4878.7151            0    4120.2589    18.292882    22.593728    19.552501     8081.135    4272.4926    4205.0709    3883.2132   -876.58821   -857.55042   -2180.5173   -3946.8866 
 2328000    254.53637     -4863.02   -4353.9158     -4863.02            0    3733.6045    18.100477    22.814823    19.622923     8103.466    3490.0023    4755.2533     2955.558    -280.3533   -26.736622    347.31817   -3912.6756 
 2329000    235.05072   -4880.7309   -4410.6004   -4880.7309            0    2640.8184    18.340445    22.855442    19.365125    8117.4534    3226.0928    2463.5775    2232.7849    1269.6247   -1347.4681   -1942.3515   -4097.9678 
 2330000    237.57091   -4850.5849   -4375.4137   -4850.5849            0     1868.365    18.110244    23.038928    19.586106    8172.1185    1619.0192    2260.6818    1725.3942   -715.34453    956.81374   -1549.6769   -4152.7383 
 2331000    243.31954   -4873.4957   -4386.8266   -4873.4957            0    2656.6071    18.230475    22.945092    19.363475    8099.7404    2410.7509    3309.7862    2249.2841   -993.29946    1140.7617   -797.51803   -4073.0111 
 2332000     228.3103   -4875.8494   -4419.2006   -4875.8494            0    3758.0449    18.157291    22.923389    19.494902    8114.2974    2266.9015    3986.5368    5020.6963   -1662.8116     631.2257    488.27598   -3974.4784 
 2333000    241.06908   -4865.4743   -4383.3064   -4865.4743            0    4375.5953    18.308323    22.744624    19.500639    8120.3768    4704.5746    4812.9525    3609.2588   -764.75483    663.11312    55.134198   -3865.1161 
 2334000    247.41734   -4857.5072    -4362.642   -4857.5072            0    3131.3866    18.347444    22.633379    19.564074    8124.2682    895.82269    5337.1464    3161.1909   -465.65377   -77.815048   -482.58111   -3991.6224 
 2335000      233.338    -4879.689   -4412.9842    -4879.689            0    4838.1722    18.074252    22.802394    19.579752    8069.5248    5988.7801    4402.7883    4122.9482     308.3447     513.3678     2580.938   -3843.6003 
 2336000    245.29141   -4895.1234   -4404.5102   -4895.1234            0    3232.8971    18.188671    23.191998    19.149312    8077.7849    2873.6185    2272.3019    4552.7709   -822.06287   -808.44965   -715.57815   -4023.6549 
 2337000    226.43518   -4865.2691   -4412.3708   -4865.2691            0    3354.6049    17.963778    23.147794    19.495057    8106.4703    3826.6264    2658.5246    3578.6636    756.54321   -126.50369    757.91272   -4015.7742 
 2338000    235.71216    -4869.792   -4398.3385    -4869.792            0    1920.5763    18.018494    23.354096    19.404951    8165.7127    3487.2535    451.96443     1822.511    787.14921    275.92485     773.3339   -4169.6199 
 2339000    228.73908   -4896.3781   -4438.8717   -4896.3781            0    2161.8429    18.269236    22.995641    19.274753    8097.5703    2605.6494    1532.2953     2347.584   -1239.0788   -351.07593   -1097.1009   -4183.5694 
 2340000    233.76585   -4875.2622   -4407.7017   -4875.2622            0    3024.2572    18.017912    22.867512    19.664341    8102.1964    3265.0031    3485.8939    2321.8747   -150.54062    363.42683   -2265.8674   -4050.3487 
 2341000    231.01392   -4873.5722   -4411.5158   -4873.5722            0    1133.8071    18.168205     22.93809    19.588764    8163.4982    1043.9431     2047.126    310.35219   -281.02209    135.05744   -264.51136    -4276.529 
 2342000    230.65143   -4870.4549   -4409.1236   -4870.4549            0    5005.6881    18.136228    23.045641    19.284527    8060.1806    5944.6875    3303.2446    5769.1321    188.46716    22.598642   -1321.9772   -3820.7076 
 2343000    258.35239   -4898.3053   -4381.5686   -4898.3053            0     893.8807    18.023172    23.147978    19.631496    8190.2597    1774.5217    511.63911    395.48131   -596.59934      956.257   -266.23441   -4274.7976 
 2344000    232.37932   -4869.3571   -4404.5698   -4869.3571            0    4114.5272    18.198971     23.03807    19.330582    8104.7171    4087.0269    3463.8448    4792.7099    723.19841    688.81247    1003.8644   -3918.2368 
 2345000    241.35886   -4915.9346    -4433.187   -4915.9346            0    2045.8017    18.164883    22.875248    19.463267    8087.4974    1986.0613    2932.1367    1219.2069   -868.20552    -248.8166   -1997.1977   -4191.8891 
 2346000    247.29423   -4884.5553   -4389.9362   -4884.5553            0    2661.6841    18.088701    22.639582    19.795639    8106.7227    3945.0409    3426.1953    613.81621   -204.25858   -1050.7611   -407.92874     -4075.25 
 2347000    244.52087   -4889.1443   -4400.0723   -4889.1443            0    3973.8541    18.318174    22.820219    19.357803    8092.0407    4455.3032    3572.0262    3894.2329    286.52225    -234.4379    969.03438   -3931.1015 
 2348000    230.11673   -4859.4347   -4399.1728   -4859.4347            0    3377.6808    18.169394    22.962986    19.513928    8141.6704    3494.0463    2859.9945    3779.0016    394.13087    665.57267     1110.605    -3998.114 
 2349000    229.47698   -4862.0922   -4403.1099   -4862.0922            0     4075.779    18.063607    22.992895    19.460286    8082.5304    3494.1611    4563.1283    4170.0475   -655.89352    341.32139   -599.53099   -3922.6758 
 2350000    239.14815   -4865.0602   -4386.7344   -4865.0602            0    4662.9563     18.10002    23.179594    19.242167    8073.0728    4667.1244    4134.2099    5187.5347   -1078.4243   -153.04792   -2056.4013   -3837.7296 
 2351000    227.89548   -4886.9439   -4431.1248   -4886.9439            0    1533.1243    18.068616    23.113871    19.538722     8160.067    3170.9892    1280.5081    147.87546   -1129.3285     338.8996    422.15322   -4248.6735 
 2352000    232.05539   -4862.0744   -4397.9349   -4862.0744            0    3606.2686    18.051254    23.093881    19.501623    8129.7101    4669.0896    2024.8773    4124.8388   -380.98665    18.074447    -225.3599   -3970.3631 
 2353000    241.36468     -4867.26   -4384.5008     -4867.26            0    3865.2135    18.155152    23.159031    19.231047    8085.8034    4235.9437    2275.5884    5084.1085    2589.2491   -1416.0982    203.73691   -3928.7027 
 2354000    226.75145   -4836.5826   -4383.0516   -4836.5826            0    2506.5922    18.019302    23.146519    19.539479    8149.6061    2414.7876    2833.6571    2271.3319   -765.70388   -635.15058    -1370.714    -4085.134 
 2355000    249.49453   -4848.4426   -4349.4227   -4848.4426            0     3296.018    18.103308    22.961502    19.564836    8132.6942    4450.4416    2749.4178    2688.1944    274.01246    398.13428   -360.21604   -3958.4919 
 2356000    229.00181   -4878.0094   -4419.9774   -4878.0094            0    1437.1769    18.346382    22.835679      19.4952    8167.5545    881.69869    3148.6687    281.16336    636.82159    596.20108    16.351879   -4248.7875 
 2357000    250.91858   -4895.1002    -4393.232   -4895.1002            0    3568.4703    18.126776    22.842274    19.569325    8102.8114     3563.215    4207.0191    2935.1768    783.10873    204.61008    1103.1133   -3971.5416 
 2358000    234.40659   -4848.5372   -4379.6951   -4848.5372            0     4279.281    18.157494    22.866724    19.483246    8089.4908    4729.9626    5293.7701    2814.1104    183.12233   -232.46085    479.57628   -3874.8387 
 2359000    232.73426   -4869.0447   -4403.5474   -4869.0447            0    4801.9645    18.119504    22.969374       19.378    8065.0013    4340.9089     4246.478    5818.5065     101.3052    743.47665   -2170.7913   -3838.7414 
 2360000    243.28135   -4865.5034   -4378.9107   -4865.5034            0    2120.1777    18.102115    23.248456    19.385887    8158.4774    2035.4541    965.60376    3359.4754    1450.3556    60.429951    1548.6861   -4126.6455 
 2361000    246.28872   -4854.9663   -4362.3585   -4854.9663            0    4496.0929    18.065011    23.011745    19.466975    8092.5659    7323.5298    4443.9094    1720.8395    313.92442    715.70167   -1779.7457   -3831.7216 
 2362000    232.95386   -4856.8948   -4390.9583   -4856.8948            0     2784.081     18.24651    22.908787    19.474351    8140.3841    391.10722    4466.6354    3494.5003    298.45832    477.99411    1561.8153   -4060.4346 
 2363000    235.85383   -4875.4301   -4403.6933   -4875.4301            0    4653.8481    18.080677    22.735825    19.575522     8047.088    5996.3271    4243.5725    3721.6448    349.97408    737.76276   -1526.0165   -3857.5246 
 2364000    248.07436   -4879.5106   -4383.3313   -4879.5106            0    2610.5266    18.333976    22.999617    19.381692    8172.7639    1805.7969    2148.3964    3877.3866    536.47164   -1053.2208    1460.3968    -4072.179 
 2365000    234.26556   -4870.4706   -4401.9106   -4870.4706            0    2762.9237    18.102159     23.05708    19.500612    8139.2221    1547.8149    2857.8097    3883.1464   -1230.9023    471.50706    752.61052   -4073.9454 
 2366000    230.88768   -4884.2463   -4422.4424   -4884.2463            0    5100.9472    18.034135    23.050861    19.370112    8052.2012    5639.1591    5408.7509    4254.9316    470.62923    657.64236   -807.12973   -3823.4224 
 2367000    236.96143   -4894.6562   -4420.7041   -4894.6562            0    2787.6944    18.283282     23.08349    19.216105    8110.0022    70.393279    3700.6156    4592.0744   -345.96345    957.61408   -160.39111   -4090.9866 
 2368000     235.5465   -4886.8854   -4415.7633   -4886.8854            0    2811.4451    18.180889     22.78665    19.520548    8087.0028    2410.4834    2611.1934    3412.6585    1408.1369    145.16668    1051.0552   -4084.1796 
 2369000    234.11903   -4889.5639   -4421.2969   -4889.5639            0    2397.2173    18.255704    22.776071    19.548674    8128.2058    1213.7585    3016.1583     2961.735   -48.646145    442.40533    699.50687   -4137.1271 
 2370000    231.26109   -4861.1936   -4398.6429   -4861.1936            0    3473.3724    18.287581    22.853758    19.435578    8122.9048     3589.881     2645.294    4184.9422   -548.48749   -700.95819   -1363.8857   -3987.1725 
 2371000    229.79817   -4880.6485   -4421.0238   -4880.6485            0    3157.1957    18.126042    22.978159     19.56419    8148.5452    3612.3867    3171.6763    2687.5242    1174.0387    107.96897   -1179.4649   -4045.8284 
 2372000    227.54685   -4820.1008    -4364.979   -4820.1008            0    3308.5089    18.125815    23.088793    19.461759    8144.8084    3284.3009    2642.4637    3998.7622   -217.77451    119.81928   -784.63795   -3971.9822 
 2373000    231.40184   -4857.8665   -4395.0342   -4857.8665            0    4650.8356    18.205184    23.253082    19.095882     8083.795    3909.5593    4472.8034    5570.1442    701.29009     1480.299    -228.6302   -3846.7292 
 2374000    243.99178   -4877.3811   -4389.3674   -4877.3811            0    2326.9617    18.051777    23.072527     19.54796    8141.7279    2341.4985    2053.4884    2585.8981   -106.49957    24.633546   -1425.4477   -4113.0669 
 2375000    237.01256   -4836.9863   -4362.9319   -4836.9863            0    4292.5921    18.102441     23.07581    19.448056    8124.0073    3446.1558     4434.289    4997.3315   -362.02578    59.201655   -302.35948   -3854.3442 
 2376000    232.35268   -4876.8277   -4412.0936   -4876.8277            0    2814.8745    18.130166    23.055401    19.477513    8141.5663    2217.8298    2894.2951    3332.4985    27.197959   -620.91511   -1416.1394   -4077.8656 
 2377000    234.79673   -4883.3076   -4413.6851   -4883.3076            0    2849.7388      18.0151    22.970398    19.631092    8123.6212    3779.1165    3626.4061    1143.6937    173.30212   -33.975028    1844.4024   -4076.0632 
 2378000    231.09384   -4880.1118   -4417.8956   -4880.1118            0    4331.9717    18.190321    22.853273    19.418611     8072.479    3800.9543     3875.556    5319.4049    1279.5195   -1229.0641    628.10692   -3907.8976 
 2379000     240.7473   -4828.0956   -4346.5713   -4828.0956            0    4013.9303    18.304878    22.544588    19.686873    8124.2985    2566.8023    5322.3359    4152.6526    784.52871    258.56506   -749.29545   -3870.9825 
 2380000    222.56765   -4879.9802   -4434.8174   -4879.9802            0    3662.9934    18.185459     22.80968    19.578936    8121.4305    4179.7736    3806.3708    3002.8357   -35.202128    329.69473    997.44393   -4000.9624 
 2381000    227.85372   -4890.0275   -4434.2919   -4890.0275            0    3372.0726     18.27347    22.908808    19.348225    8099.6199    3203.3783     3354.806    3558.0335   -18.236869   -1046.8384   -742.78887    -4035.967 
 2382000    240.52572   -4857.0018   -4375.9207   -4857.0018            0    2831.4959    18.081089    22.930036    19.660567    8151.2715    3213.2518     3137.888     2143.348    -314.9196    1231.1684     76.88298   -4039.3183 
 2383000    243.13526   -4854.6429   -4368.3424   -4854.6429            0     4846.483    18.168071     22.74799    19.548431    8079.1148    5262.8215    4403.5868    4873.0408   -2407.4628     75.30191   -1257.7554   -3797.3026 
 2384000    226.59281   -4879.0905   -4425.8769   -4879.0905            0    2920.9921    18.336885    22.914845    19.335784    8124.6428    2883.9697    2517.1509    3361.8558    113.71668    353.70454    1029.6955   -4079.7698 
 2385000    238.65062   -4895.9652   -4418.6344   -4895.9652            0    3613.7575    18.071204    22.972384    19.547347    8114.8591    3416.1612    3555.6796    3869.4318   -1165.9517    67.044554   -245.66955   -3990.9575 
 2386000    245.86524    -4863.229   -4371.4682    -4863.229            0    5893.5804    17.927659    23.001218    19.396013    7998.1011    5799.6565    5941.6481    5939.4366   -752.31965   -1309.5012   -251.37847   -3684.0168 
 2387000    237.49515   -4881.7854   -4406.7657   -4881.7854            0    2221.4986    18.239763    23.052992    19.364678    8142.4811    1605.6201    2691.1952    2367.6805   -410.53546   -241.33236    -285.6833   -4142.9634 
 2388000    239.66513   -4881.3823   -4402.0224   -4881.3823            0    3397.9838    18.129939    22.919238    19.510078    8106.9132    4187.9209    3559.7897    2446.2407   -1751.8728    175.49728    783.98258   -4000.2754 
 2389000    236.65141    -4903.729    -4430.397    -4903.729            0    3895.5884    18.265063    22.781897    19.428833    8084.5861    1751.7098     4145.668    5789.3873    313.87214   -366.48125    450.23238   -3971.0861 
 2390000    240.18586   -4866.8039   -4386.4025   -4866.8039            0    2019.0441    18.368047    22.723499    19.613595    8186.4459    906.41249    2413.3159     2737.404   -2754.0844    1115.4274   -930.81158   -4145.3469 
 2391000     232.6438   -4870.4528   -4405.1364   -4870.4528            0    1614.9573     18.07631    22.893768    19.642618    8128.7998    789.44737    2842.6934     1212.731    485.38854    301.38544    673.05273   -4213.6829 
 2392000     238.3441    -4876.757   -4400.0394    -4876.757            0    3431.0502    18.199975     22.91904    19.449345    8112.8265    2992.8873    4394.9409    2905.3225   -1531.4453    -169.8648    1161.4576   -3994.0869 
 2393000    238.08608   -4892.1437   -4415.9421   -4892.1437            0    3911.9263    18.112945     22.95266    19.440177    8082.0645    3180.8263    4314.6431    4240.3094    -103.6475   -1338.7977    634.28357   -3954.8488 
 2394000    241.51978   -4873.7213   -4390.6519   -4873.7213            0    4054.0193    17.930876    23.141347    19.423981    8059.8762    4956.2856    4021.2526    3184.5197    -412.4616    271.68126    58.794852   -3914.1221 
 2395000    233.94832   -4871.1519   -4403.2264   -4871.1519            0    3377.7924    17.943803    23.043493    19.608716    8107.9668    4120.0222    3809.9559     2203.399    1065.8099    1498.8003   -1224.1068   -4003.8147 
 2396000    229.43103   -4870.3775   -4411.4871   -4870.3775            0    4029.8486    18.179558    23.035107    19.277403    8072.7608    5429.9118    3406.9883    3252.6458    709.72475    583.72639    -316.9652   -3937.0412 
 2397000    230.30904   -4889.0438   -4428.3973   -4889.0438            0    2352.2699    18.071157    23.104497    19.486312     8136.022    1995.3895    2826.6488    2234.7714    431.16119    348.74333    -812.0609   -4149.2874 
 2398000    230.28949   -4871.2891   -4410.6816   -4871.2891            0    4772.3202     17.98585    22.998185    19.468453     8052.968    5624.6002    6157.5547    2534.8058    184.52574     496.1103    441.05775   -3850.1999 
 2399000    238.89804    -4854.936   -4377.1104    -4854.936            0    3084.1019    18.328062     23.02389    19.292526    8141.1233    3259.8604    2140.2435    3852.2017   -152.05203   -135.19471   -296.94053   -4010.9352 
 2400000    228.35258   -4865.8313    -4409.098   -4865.8313            0    3137.6155    18.173681    22.838822    19.511931    8098.7284    3147.0756    3994.3154    2271.4556    528.88138    866.12948   -603.34808    -4038.509 
 2401000     243.3887   -4847.0426   -4360.2352   -4847.0426            0    2081.7459    18.179571    22.957635    19.652671    8202.2379    2448.1638    3194.9584    602.11538    1739.4732    311.08531    84.821194   -4111.2142 
 2402000    250.20085   -4897.6416    -4397.209   -4897.6416            0    3765.4116     18.28049    22.801361    19.383749    8079.5353    2928.5281     4443.373    3924.3337   -670.65618   -10.317518    -2033.931    -3953.524 
 2403000    253.54317   -4894.4652   -4387.3476   -4894.4652            0    2183.4243    18.125173    22.943704    19.604397    8152.6575    1926.3733    2555.1137    2068.7858    102.37684    72.397812    836.72297   -4127.7425 
 2404000    236.86633   -4880.9449   -4407.1829   -4880.9449            0    2229.8121    18.252674    22.942725    19.403023    8125.3278    780.14838    2690.9843    3218.3034    -1324.871    736.73016    146.81264   -4142.9512 
 2405000    224.89811   -4866.5347   -4416.7107   -4866.5347            0    3934.6509    18.242294    22.664383    19.560692    8087.3747    3033.7831    4924.5867    3845.5829    465.60644   -139.66903   -492.29873   -3952.6341 
 2406000    229.74871   -4883.6404   -4424.1145   -4883.6404            0    3031.7161     18.35238    22.698608    19.455003    8104.4381    2677.0516    3107.3043    3310.7924    111.82201   -816.28501   -774.35451   -4065.7811 
 2407000    238.04306   -4889.1585   -4413.0429   -4889.1585            0    1735.6375     18.28066    23.023628    19.437999    8181.2031    1106.1883     1752.631    2348.0931    76.491579    934.10734    1059.8983   -4205.9563 
 2408000    233.25358    -4893.202    -4426.666    -4893.202            0    4677.3991    18.055135    22.949565    19.453898    8060.8681     5697.151    4478.5933    3856.4529   -1088.7124    810.75461   -28.528645   -3876.7933 
 2409000    226.65202   -4872.2411    -4418.909   -4872.2411            0    4164.3981    18.182734    22.910163    19.370786    8069.2764    4418.6907    5082.1908    2992.3128    549.72315    993.80694    467.74626   -3928.8338 
 2410000    240.41898   -4866.7783   -4385.9106   -4866.7783            0     2518.765    18.008183    23.093828    19.568935    8138.2874    2601.7651    2628.2377    2326.2923   -683.29733    263.79059    732.85201    -4086.962 
 2411000    231.31745   -4886.1975   -4423.5341   -4886.1975            0    2162.4609    18.023199     23.25404    19.442605    8148.6327    2937.2412    2362.1604     1187.981   -461.68968   -645.52403   -1000.6351   -4166.5484 
 2412000    233.72376   -4865.5306   -4398.0542   -4865.5306            0     2873.911    17.975499    23.243584    19.493147    8144.5296    3606.4455     3010.434    2004.8535   -521.43486   -195.97573    1706.2866   -4056.6922 
 2413000    241.50922   -4887.1645   -4404.1162   -4887.1645            0    3230.0013    18.142051    23.036186    19.399885    8107.6709    3412.2563    2850.2182    3427.5295   -971.52674    446.97716    12.375805   -4022.1942 
 2414000    242.36507   -4888.6101     -4403.85   -4888.6101            0    3413.2327     18.09415    22.806727    19.636505    8103.3638    3444.5853    4311.2956    2483.8172    -54.51805   -270.61501   -855.09871   -4000.4767 
 2415000    229.41792   -4867.6745   -4408.8103   -4867.6745            0    3406.4945    18.054077    22.968645    19.438352    8060.6507    3491.8044    3310.3098    3417.3694    746.09078    -810.4597   -185.66728   -4008.3554 
 2416000    252.86005   -4867.3228   -4361.5714   -4867.3228            0     3837.094    18.258858     22.86455    19.458255    8123.4431    3917.0729    3797.0164    3797.1926    1598.2745    605.79523     235.0107   -3906.9829 
 2417000     231.7413   -4873.8098   -4410.2986   -4873.8098            0    3634.5032    18.068744    22.899498    19.530476    8081.0307    2880.9277    4160.1787    3862.4031    76.599591   -635.06789   -1939.4767   -3981.9595 
 2418000    239.12427    -4850.967    -4372.689    -4850.967            0    3885.0231    18.143213    23.198177    19.182424    8073.6797    3589.1539    3773.8948    4292.0205    675.68527   -220.69464   -1090.5747   -3915.2417 
 2419000    258.29702   -4888.6376   -4372.0116   -4888.6376            0      2774.79    18.000867    23.400772    19.327899    8141.5715    2314.1254    2045.1712    3965.0733   -478.52135    489.58065      -160.45   -4042.5428 
 2420000    229.14838    -4847.807    -4389.482    -4847.807            0    3797.3275    18.011859    23.087231    19.551355    8130.3125    5543.1972    3817.3461    2031.4393    1481.1384    542.05702    1546.6657   -3939.2242 
 2421000    241.61733   -4868.3219   -4385.0574   -4868.3219            0     1930.041      18.1892     22.81012    19.628283    8143.7324    471.03379    4167.1913    1151.8978   -41.535684   -62.642485   -1378.0786   -4155.8304 
 2422000    236.37344   -4890.5822   -4417.8061   -4890.5822            0    4421.3687    18.248627    22.685465     19.52181    8081.6114    426.83408     6606.408    6230.8641    6.3901195     262.1042   -872.51287   -3896.6947 
 2423000    236.24285   -4890.3015   -4417.7866   -4890.3015            0    5911.7514     18.15318    22.722179    19.418528     8009.751    5630.2979     5670.734    6434.2224   -274.61228   -25.378938    1811.5032   -3727.2113 
 2424000    233.57975   -4879.0673   -4411.8789   -4879.0673            0    3173.3408    18.230318    22.961921    19.320895    8087.7873    1156.5386    3968.0496    4395.4342    542.43275    346.44751     1275.093   -4037.5768 
 2425000    234.60603   -4881.5417   -4412.3006   -4881.5417            0    3512.2622    18.080664     23.13595    19.372952    8103.9642    4174.5341    3198.7764    3163.4761   -161.35049    640.08227    -667.2683   -3997.1933 
 2426000    237.71737   -4882.3821    -4406.918   -4882.3821            0    4527.7509    17.943689    23.117679    19.407602    8050.5921    7505.8844    3563.7805    2513.5878    1037.1806   -550.46037    1013.1148   -3875.3165 
 2427000    233.94197   -4843.0674   -4375.1545   -4843.0674            0    3535.8914    18.289934    22.932841    19.440914    8154.2996    2925.6928    3380.4319    4301.5496    430.83939    502.16713   -1585.2188   -3954.6589 
 2428000    240.37676   -4869.2553   -4388.4721   -4869.2553            0    3133.3381    18.219173    22.841766    19.563425    8141.4775    3045.1627    3778.5887    2576.2631    1267.1363    -305.7151   -264.59837   -4016.4349 
 2429000     242.7015   -4865.7619   -4380.3289   -4865.7619            0    2740.2869     18.17239    22.850796    19.604947    8141.0241    884.02132    3877.4162    3459.4231   -676.73108    884.07244   -320.61724   -4054.9788 
 2430000    238.02445   -4865.7967   -4389.7184   -4865.7967            0     2440.523    18.351722    22.775756    19.531746     8163.769    2108.3157    2917.6468    2295.6064    224.07453    328.54498    2465.0082   -4099.1493 
 2431000    232.70448   -4882.6705   -4417.2328   -4882.6705            0    1663.8726    18.172772    23.057535    19.550796     8192.161    1535.4538     1987.282    1468.8821   -1335.3526    17.916153    284.74648   -4218.4429 
 2432000    233.88211   -4862.4572   -4394.6641   -4862.4572            0    4054.6274    18.113216    23.115906    19.395754    8121.0683    3616.3631    3978.7085    4568.8107    971.73706   -9.3609433    1153.8573   -3914.4444 
 2433000     237.6214    -4906.147   -4430.8748    -4906.147            0    3512.5704    18.036792    23.124809    19.361281    8075.5398    6038.4514     2024.549    2474.7108    494.45036   -378.11781   -3.8464753   -4017.1872 
 2434000    226.32773   -4875.0884    -4422.405   -4875.0884            0    4061.6195    18.018098    23.155329    19.420073    8102.3454    4516.1823    3611.3795    4057.2966    320.21477    341.47336     465.5104   -3942.4662 
 2435000    242.40035    -4859.236   -4374.4054    -4859.236            0    3099.1718    18.196562    22.987087    19.411883    8119.7177    3582.0523    3242.5076    2472.9556    727.71706    279.97433    275.17351   -4007.4084 
 2436000     246.2757   -4876.2339   -4383.6521   -4876.2339            0    2827.9673    18.152997     22.82571    19.595146    8119.3478     2444.303    3989.8805    2049.7184    163.16441    860.20241   -239.91622   -4048.7858 
 2437000    239.38437   -4891.0178   -4412.2195   -4891.0178            0    3957.9815    18.123234    22.775294     19.68579    8125.5458    6250.2941    4191.2151    1432.4352   -298.93849    139.80375     -4.71754   -3943.1878 
 2438000    244.11856   -4869.5038   -4381.2365   -4869.5038            0    5269.7074    18.243046    22.915961     19.32813    8080.2589    5090.1144    5014.4817    5704.5261   -203.86409    34.540311   -10.337379   -3760.2421 
 2439000     228.0537   -4884.2107   -4428.0751   -4884.2107            0    2931.0449    18.143933    22.933014    19.470851     8101.725    2214.5737    2472.0756    4106.4855    873.26436    50.847575   -419.54862   -4081.7565 
 2440000    248.66705   -4853.4415   -4356.0767   -4853.4415            0    3301.0489    17.941299    23.066348    19.653936    8133.5898    5774.6997    2280.9973    1847.4498    669.11157   -1297.3275   -243.95857    -3964.506 
 2441000     246.7474   -4883.4177   -4389.8924   -4883.4177            0    2789.4236    18.175893    22.961201    19.470499    8125.8243    2371.8588     3845.911    2150.5009    320.61316    445.02652     1115.096   -4059.3267 
 2442000    246.11757   -4879.2156     -4386.95   -4879.2156            0    2010.2369    18.093916     22.93094    19.623268    8141.8996    2468.7498    2779.9486    782.01238   -396.52873    816.25334    371.78828    -4148.252 
 2443000    247.02783   -4890.7193   -4396.6331   -4890.7193            0    3475.3981    18.193538    22.813648    19.533205    8107.4713    4185.4242    3430.4074    2810.3627    997.69868    588.72767   -263.05629    -3985.705 
 2444000    238.91288   -4869.6185   -4391.7632   -4869.6185            0    4876.4592    18.378818    22.713425    19.360591    8081.9995     1783.905    5868.6955     6976.777    397.71122    243.97872     43.09865   -3816.9863 
 2445000    232.70368   -4854.8452   -4389.4091   -4854.8452            0    5047.6559    18.138908    22.652187    19.638936    8069.3624     4261.623    6489.2732    4392.0716     1544.429    269.09536    1641.2206   -3795.3839 
 2446000    230.69289   -4867.7717   -4406.3574   -4867.7717            0    2970.6917    18.076031    22.923634    19.611148    8126.2383    1181.9786    4572.5716     3157.525     1071.737    510.59028    -1344.437   -4054.2922 
 2447000    233.08581   -4867.6566   -4401.4562   -4867.6566            0    2607.2608    18.172098    23.048431    19.409017    8129.2405     2114.906    3966.2451    1740.6312     134.0613     247.5515   -742.44537   -4092.3482 
 2448000    236.60123    -4871.583   -4398.3513    -4871.583            0    4485.9565    17.969187    23.159987    19.366259    8059.5814     5508.427    4135.6083    3813.8343   -449.73762    608.89811   -1877.6627   -3871.0687 
 2449000    241.13503   -4856.0335   -4373.7336   -4856.0335            0    2764.8382    18.104888    23.213204    19.386332    8147.5413    1933.6864    2915.0333     3445.795    1667.0091    155.89273    1219.4808   -4045.2058 
 2450000    238.06389   -4886.8038   -4410.6466   -4886.8038            0    2368.8533    18.186562    22.933834    19.540976    8150.2986    1966.2678    2973.3873    2166.9048    1608.7146    -518.0791   -553.71686   -4129.0759 
 2451000    235.09458   -4868.1972   -4397.9789   -4868.1972            0    2497.7894    18.295315    22.893735    19.433936    8139.8671    3437.1796    2297.6667    1758.5219   -871.07519    169.24879   -1074.9493   -4101.4623 
 2452000    232.79514   -4870.5447   -4404.9257   -4870.5447            0    3749.0157    18.158883    22.834976     19.57441    8116.6791    2830.9255    4887.3707    3528.7508    334.01705    239.90253    580.49168   -3961.1418 
 2453000    223.03044   -4867.0379   -4420.9495   -4867.0379            0    4226.1295    18.076493    22.848037    19.522275    8062.9412    3992.6621    4478.8093    4206.9172    1337.2331     387.5999    251.51577   -3924.0001 
 2454000    224.91242   -4874.9086    -4425.056   -4874.9086            0    3474.9287    18.015544    23.193621    19.367376    8092.5744    3013.7566    3128.2333    4282.7963   -715.69845   -921.03577   -2144.5786   -4014.9383 
 2455000    236.71086   -4905.5169   -4432.0659   -4905.5169            0     2287.528    18.110528    23.073146    19.458098    8130.8941    2961.8721    2385.2209    1515.4912    842.90861   -29.545679    354.29777   -4160.8091 
 2456000    233.09529   -4882.6355   -4416.4161   -4882.6355            0    4276.7995     18.23678    22.704347    19.499419    8073.8159    4240.4792    4544.9908    4044.9285    418.91708   -951.91447    114.54439   -3912.8302 
 2457000    232.39277   -4858.5453   -4393.7311   -4858.5453            0    3218.8512    18.362409    22.736575     19.39203    8096.1394    2055.4393    3730.6531    3870.4611   -14.681824    682.07433    2008.5601   -4013.6688 
 2458000    232.77631   -4846.9852   -4381.4038   -4846.9852            0    4071.0744    18.113585    22.940885     19.53687    8118.3837    2815.1154    4904.1952    4493.9126    -613.5106    476.22276    1925.1885   -3899.3955 
 2459000    236.60118    -4866.941   -4393.7094    -4866.941            0     3376.714    18.090572    23.175649    19.346623    8111.2793    6121.9959    2315.0726    1693.0736    -119.1129   -1033.4334    575.89926   -3994.2621 
 2460000    239.44295   -4859.3661   -4380.4507   -4859.3661            0    4256.0312    17.906463    23.307328    19.330923    8067.7958    3690.2179    3894.3821    5183.4936    262.50924    761.79883   -64.232891   -3879.6838 
 2461000     234.6075   -4860.4219   -4391.1779   -4860.4219            0     3857.413    17.986478    23.406174    19.261637    8109.0455     3217.267    2969.7694    5385.2027   -1725.6331    499.76409   -1741.1144   -3934.9921 
 2462000     227.5625   -4850.7603   -4395.6072   -4850.7603            0    3881.2674    18.132346    23.208818    19.221453    8088.9705    2562.1087     3244.278    5837.4154   -147.05148    373.03735    444.48537   -3937.7367 
 2463000    234.39311   -4870.1681   -4401.3529   -4870.1681            0    4425.2742     18.03435     22.99714    19.491087    8083.7037     5986.259    4158.2523    3131.3115   -225.06033    227.29481   -223.27535   -3879.6462 
 2464000    236.74136   -4868.2975   -4394.7855   -4868.2975            0    3744.2839    18.273216    22.779816    19.518886    8124.9412    3992.0883       4175.3    3065.4634     421.8683   -697.34915    499.55648   -3951.1106 
 2465000    226.61306   -4895.8671    -4442.613   -4895.8671            0    2919.6315    18.383062    22.793548    19.404287    8130.6912    2456.2077    3075.4635    3227.2234   -1528.7076   -923.23368   -329.44923   -4096.4095 
 2466000    240.72041   -4883.6539   -4402.1833   -4883.6539            0    2697.0813    18.020212    22.802879    19.767582    8122.7503    3415.7081    3676.5181    999.01764    312.04061     584.0699   -909.91621   -4082.6818 
 2467000    228.95103   -4885.2206   -4427.2903   -4885.2206            0    2748.2565    18.231388    23.082806    19.313598    8127.7723    3354.3484    2847.0803    2043.3408    -1511.431   -769.61419    615.97808   -4101.5251 
 2468000    235.13997   -4848.9219   -4378.6129   -4848.9219            0    5118.7457    18.178872     22.99459    19.359381     8092.525    3206.1894    5355.1371    6794.9106    404.95288    167.07487   -68.546667   -3774.4925 
 2469000    246.95158    -4886.873   -4392.9394    -4886.873            0    3154.5471    17.831982    23.145199    19.654116    8111.7403    6077.6823    2880.5913    505.36773    7.9681818    1166.7187   -1117.2764    -4019.752 
 2470000    235.88884   -4903.1424   -4431.3356   -4903.1424            0    4625.8063    18.160202    22.880139    19.395845    8059.1278    3217.4351     5352.223    5307.7609    1714.8552   -377.59327    1150.9809   -3887.6456 
 2471000    235.35363   -4880.8225   -4410.0862   -4880.8225            0    2620.3675    18.186951    22.924589    19.545239    8148.9648    3426.9568    2741.8091    1692.3368     465.8233     517.0276    205.36222   -4098.6705 
 2472000      225.881   -4895.1271   -4443.3372   -4895.1271            0    716.54788    18.280353    22.887401    19.523473    8168.4214    187.23821     1073.419    888.98644    1674.0442    480.94747   -312.25157   -4357.9763 
 2473000    237.09041   -4903.2283   -4429.0182   -4903.2283            0    2397.9377    18.242692    22.735903    19.635715    8144.1894    3361.8109    1566.6897    2265.3125   -355.17392   -415.58472   -445.28008    -4144.204 
 2474000    236.19285   -4866.4303   -4394.0155   -4866.4303            0    2599.1714    18.134774    22.972486    19.484547    8117.2788      1643.78    3234.1401     2919.594     859.4161   -748.64378    156.80132   -4086.3199 
 2475000    236.24664   -4896.3282   -4423.8057   -4896.3282            0    3347.7486    18.070701    22.967866     19.46429    8078.5647    3305.2309    3580.4421    3157.5728    68.414791   -701.41841   -1083.4257   -4029.3821 
 2476000    238.07216   -4885.3555   -4409.1817   -4885.3555            0    2657.5244     18.23104    23.120804    19.337559    8151.0963    2708.8309    2179.8084     3083.934     11.79187   -606.98955    1981.2289   -4093.2675 
 2477000    248.06689   -4835.1661   -4339.0017   -4835.1661            0    3759.6186    18.221871    23.135138     19.24243    8111.9448    3367.9087    3222.9051    4688.0419    116.86769   -700.51864    713.89668   -3894.2223 
 2478000     237.9855   -4853.7815   -4377.7811   -4853.7815            0    3312.1371    18.101345    22.931652    19.585349    8129.7557     3890.523     3400.575    2645.3133   -881.37525    537.42733   -443.59647   -3985.0803 
 2479000    239.66723   -4869.7801    -4390.416   -4869.7801            0    2965.7426    18.242479    22.878528    19.513198     8144.049    2460.5863    3551.8145    2884.8271    -561.0851     1280.004    1067.8915   -4038.1671 
 2480000    249.69918   -4860.5289   -4361.0997   -4860.5289            0    1825.0321    18.292161    22.920032    19.535017    8190.1908    943.80857    1812.1034    2719.1845   -319.87553    17.378499    52.856803   -4143.1078 
 2481000    249.09988   -4870.1562   -4371.9257   -4870.1562            0    3103.9281      18.1314    22.850552    19.586156    8114.7889    2999.6632    3726.1501    2585.9709   -2753.4655   -111.33074   -441.16833   -4004.5886 
 2482000    236.18034   -4867.8724   -4395.4825   -4867.8724            0    4862.0007     18.07992    23.016192    19.356471    8054.8256    3926.8707    5083.8488    5575.2827    71.104065   -503.63141   -61.167144   -3824.3366 
 2483000    240.21622   -4893.6518   -4413.1897   -4893.6518            0    4108.0809    18.088311    22.920579    19.439293    8059.4248    4027.7585    3762.7791     4533.705    604.33076    348.62099    616.74479   -3930.3323 
 2484000    237.53621   -4852.8836   -4377.7818   -4852.8836            0    3858.2697    18.199415    23.003608    19.395184    8119.8366    3457.8292     3945.332    4171.6478     4.875616      1074.04   -175.91906   -3920.8875 
 2485000    219.47198   -4864.2173   -4425.2463   -4864.2173            0    4250.9319    18.222059    22.966205    19.393193    8115.8871    4308.3197    4002.0509    4442.4251    477.95538    575.09234    1176.4451   -3922.0979 
 2486000    232.49831   -4869.0633   -4404.0379   -4869.0633            0     4174.098     18.13259    22.841718     19.56712    8104.2997     5756.299    4249.5209     2516.474   -1844.4804    722.74303   -2090.8439   -3910.6892 
 2487000    239.27381   -4886.1604   -4407.5832   -4886.1604            0    3008.2195    18.117754    22.894409    19.451421    8068.3574    2352.0873    3837.9338    2834.6373    951.25966    6.7957052    711.71027   -4053.6099 
 2488000    243.00245   -4867.8045   -4381.7696   -4867.8045            0    3616.8158    18.265141    22.860253    19.383305    8093.4165    2669.4906      4107.55    4073.4069    -571.5509   -606.03065    -286.6616   -3954.8617 
 2489000    242.95081   -4883.4773   -4397.5457   -4883.4773            0    3336.3969    18.072096    22.825392    19.740223    8142.8952    5742.8994    3345.3659    920.92549    146.95245   -546.74206   -1500.8974   -4001.3293 
 2490000    244.12415   -4869.1729   -4380.8945   -4869.1729            0    5061.4887    18.150929     22.84792     19.49856     8086.267    4733.7595    5279.9591    5170.7477   -846.32816    240.06837   -78.771333   -3783.9935 
 2491000    233.69697   -4884.3927   -4416.9699   -4884.3927            0    3189.0543    18.247115    22.822191    19.424015    8088.9202    2791.9447    3776.8442    2998.3739   -184.65065    296.03575    524.13897   -4040.7616 
 2492000    233.28344   -4871.7696   -4405.1739   -4871.7696            0    2254.9329    18.217929    23.055526    19.356565    8130.2205    1439.6698    2390.8759    2934.2529     77.63484    205.19451    -657.7488   -4137.8044 
 2493000    246.13245   -4860.2072   -4367.9119   -4860.2072            0     2887.925     17.94398    23.254076    19.439727     8111.628    1075.1205    3371.6702    4216.9842    1096.9763    781.33747    1899.1943    -4026.271 
 2494000    234.39128   -4847.0866   -4378.2751   -4847.0866            0    4915.8846    18.065472    23.063758    19.327917    8053.1249    5698.5312    4397.6454    4651.4774    1105.0661   -1336.6324    -241.6896   -3800.9213 
 2495000    248.34994   -4866.4951   -4369.7645   -4866.4951            0    1308.4408    18.222693    22.851166    19.633763    8175.6911    2179.2979    1580.9527    165.07181    1111.1514   -310.53263    282.38518   -4213.7538 
 2496000     234.6088   -4873.4404   -4404.1938   -4873.4404            0    2889.1008    18.289211    22.747316    19.527443    8124.0113    1559.4276    3363.9378     3743.937    -1239.308   -602.83055   -496.55345   -4061.8921 
 2497000    240.36539   -4883.7706   -4403.0101   -4883.7706            0    2995.4522    18.270313    22.745633    19.622053    8154.3335    1490.2134    4147.9555    3348.1875    532.87773     641.2428    579.54209   -4046.7832 
 2498000    236.43007   -4847.4118   -4374.5224   -4847.4118            0    2228.9926    18.109273    22.861284    19.632688    8127.9568    2866.5826    2469.3862     1351.009   -1135.4245   -384.27528   -372.56959   -4110.3023 
 2499000     231.7206   -4877.5053   -4414.0354   -4877.5053            0    3219.5145    18.158478    22.983017    19.461917    8122.1704    3091.3082    2856.7327    3710.5026    782.76617   -298.64027     1382.426   -4032.6726 
 2500000    239.08717   -4846.0443   -4367.8404   -4846.0443            0    1875.5618    18.064955    23.048744    19.560746    8144.5962    2711.3173    826.18643    2089.1817   -1561.1786   -570.15378    189.98763   -4145.0601 
Loop time of 534.083 on 64 procs for 250000 steps with 1008 atoms

Performance: 80.886 ns/day, 0.297 hours/ns, 468.092 timesteps/s
99.1% CPU use with 64 MPI tasks x 1 OpenMP threads

MPI task timing breakdown:
Section |  min time  |  avg time  |  max time  |%varavg| %total
---------------------------------------------------------------
Pair    | 27.622     | 31.937     | 35.823     |  33.1 |  5.98
Bond    | 0.27372    | 0.28382    | 0.29986    |   1.1 |  0.05
Kspace  | 246.26     | 257.93     | 270.18     |  37.5 | 48.29
Neigh   | 3.7304     | 4.5871     | 5.5846     |  21.9 |  0.86
Comm    | 91.474     | 106.81     | 123.29     |  68.0 | 20.00
Output  | 1.2647     | 1.2762     | 1.2886     |   0.2 |  0.24
Modify  | 116.02     | 123.52     | 128.5      |  36.1 | 23.13
Other   |            | 7.737      |            |       |  1.45

Nlocal:        15.7500 ave          20 max          11 min
Histogram: 1 0 6 6 13 17 15 3 1 2
Nghost:        2462.02 ave        2484 max        2441 min
Histogram: 3 4 6 11 12 4 12 6 4 2
Neighs:        5135.08 ave        6551 max        3615 min
Histogram: 1 0 6 6 13 17 15 3 1 2

Total # of neighbors = 328645
Ave neighs/atom = 326.03671
Ave special neighs/atom = 2.0000000
Neighbor list builds = 8022
Dangerous builds = 0

unfix		3
unfix		2
unfix		1

write_data	data.final.${pid}
write_data	data.final.0
System init for write_data ...
PPPM initialization ...
  extracting TIP4P info from pair style
  using 12-bit tables for long-range coulomb (../kspace.cpp:340)
  G vector (1/distance) = 0.38259569
  grid = 24 30 36
  stencil order = 5
  estimated absolute RMS force accuracy = 0.0020122428
  estimated relative force accuracy = 6.0598093e-06
  using double precision FFTW3
  3d grid and FFT values/proc = 4320 480
Last active /omp style is kspace_style pppm/tip4p/omp
WARNING: Not all mixed pair coeffs generated from mixing. Use write_data with 'pair ij' option to store all pair coeffs. (../write_data.cpp:312)

write_restart   restart.lmp.${pid}
write_restart   restart.lmp.0
System init for write_restart ...
PPPM initialization ...
  extracting TIP4P info from pair style
  using 12-bit tables for long-range coulomb (../kspace.cpp:340)
  G vector (1/distance) = 0.38259569
  grid = 24 30 36
  stencil order = 5
  estimated absolute RMS force accuracy = 0.0020122428
  estimated relative force accuracy = 6.0598093e-06
  using double precision FFTW3
  3d grid and FFT values/proc = 4320 480
Last active /omp style is kspace_style pppm/tip4p/omp
Total wall time: 0:08:56
