LAMMPS (30 Jul 2021)
  using 1 OpenMP thread(s) per MPI task
package omp 0
using multi-threaded neighbor list subroutines
echo both

include		in.partitions
variable        pid world 0
include		in.temp
variable        temperature equal 262.45
variable	tempDamp equal 100.0
include		in.pressure
variable        pressure equal 3750.0
variable        pressureDamp equal 1000.0 # This is 1 ps
include		in.seed
variable        seed world 745823

units		real
atom_style	full

read_restart	restart.lmp.${pid}
read_restart	restart.lmp.0
Reading restart file ...
  restart file = 30 Jul 2021, LAMMPS = 30 Jul 2021
  restoring atom style full from restart
  orthogonal box = (-0.021909294 -0.072239958 -0.015618384) to (20.021910 20.072241 20.715616)
  4 by 4 by 4 MPI processor grid
  restoring pair style lj/cut/tip4p/long/omp from restart
  restoring bond style harmonic/omp from restart
  restoring angle style harmonic/omp from restart
  972 atoms
  648 bonds
  324 angles
Finding 1-2 1-3 1-4 neighbors ...
  special bond factors lj:    0        0        0       
  special bond factors coul:  0        0        0       
     2 = max # of 1-2 neighbors
     1 = max # of 1-3 neighbors
     1 = max # of 1-4 neighbors
     2 = max # of special neighbors
  special bonds CPU = 0.353 seconds
  read_restart CPU = 0.569 seconds
include 	in.setup
variable	out_freq equal 1000
variable	out_freq2 equal 10000
variable	out_freq3 equal 1000

timestep	2.0

neigh_modify    delay 7 every 1

include		in.tip4p
# This is TIP4P/Ice

# create groups ###
group ox type 2
324 atoms in group ox
group hy type 1
648 atoms in group hy

# set charges - beside manually ###
set group ox charge -1.1794
Setting atom values ...
  324 settings made for charge
set group hy charge 0.5897
Setting atom values ...
  648 settings made for charge

# ### TIP3P Potential Parameters ###
pair_style lj/cut/tip4p/long/omp 2 1 1 1 0.1577 8.5
pair_coeff 1 1*2 0.000 0.000
pair_coeff 2 2 0.21084 3.1668
bond_style  harmonic
bond_coeff  1 450 0.9572
angle_style harmonic
angle_coeff 1 55 104.52
kspace_style pppm/tip4p/omp 1.0e-5
pair_modify tail yes

thermo          ${out_freq}
thermo          1000
thermo_style    custom step temp pe etotal epair emol press lx ly lz vol pxx pyy pzz pxy pxz pyz enthalpy

restart 	${out_freq3} restart.lmp.${pid} restart2.lmp.${pid}
restart 	1000 restart.lmp.${pid} restart2.lmp.${pid}
restart 	1000 restart.lmp.0 restart2.lmp.${pid}
restart 	1000 restart.lmp.0 restart2.lmp.0


include         in.dump
dump            myDump all atom ${out_freq2} dump.water.${pid}
dump            myDump all atom 10000 dump.water.${pid}
dump            myDump all atom 10000 dump.water.0
dump            myDump2 all dcd ${out_freq2} dump.dcd
dump            myDump2 all dcd 10000 dump.dcd
dump_modify     myDump append yes
dump_modify     myDump2 append yes


variable natoms 	equal  "count(all)"                        # NUMBER ATOMS
variable H      	equal  "enthalpy/v_natoms"                 # ENTHALPY-per-atom
variable Vol      	equal  "vol/v_natoms"                 # volume-per-atom
fix AVG all 		ave/time ${out_freq} 1 ${out_freq} v_Vol v_H file vol_enthalpy.dat
fix AVG all 		ave/time 1000 1 ${out_freq} v_Vol v_H file vol_enthalpy.dat
fix AVG all 		ave/time 1000 1 1000 v_Vol v_H file vol_enthalpy.dat


timer           timeout 02:55:00 every 1000
New timer settings: style=normal  mode=nosync  timeout=02:55:00

fix 		1 all shake 1e-6 200 0 b 1 a 1
       0 = # of size 2 clusters
       0 = # of size 3 clusters
       0 = # of size 4 clusters
     324 = # of frozen angles
  find clusters CPU = 0.058 seconds
fix             2 all nph aniso ${pressure} ${pressure} ${pressureDamp}
fix             2 all nph aniso 3750 ${pressure} ${pressureDamp}
fix             2 all nph aniso 3750 3750 ${pressureDamp}
fix             2 all nph aniso 3750 3750 1000
fix             3 all temp/csvr ${temperature} ${temperature} ${tempDamp} ${seed}
fix             3 all temp/csvr 262.45 ${temperature} ${tempDamp} ${seed}
fix             3 all temp/csvr 262.45 262.45 ${tempDamp} ${seed}
fix             3 all temp/csvr 262.45 262.45 100 ${seed}
fix             3 all temp/csvr 262.45 262.45 100 745823


run             250000
PPPM initialization ...
  extracting TIP4P info from pair style
  using 12-bit tables for long-range coulomb (../kspace.cpp:340)
  G vector (1/distance) = 0.37220624
  grid = 24 24 25
  stencil order = 5
  estimated absolute RMS force accuracy = 0.0034335805
  estimated relative force accuracy = 1.0340126e-05
  using double precision FFTW3
  3d grid and FFT values/proc = 2366 288
Last active /omp style is kspace_style pppm/tip4p/omp
Neighbor list info ...
  update every 1 steps, delay 7 steps, check yes
  max neighbors/atom: 2000, page size: 100000
  master list distance cutoff = 10.8154
  ghost atom cutoff = 10.8154
  binsize = 5.4077, bins = 4 4 4
  1 neighbor lists, perpetual/occasional/extra = 1 0 0
  (1) pair lj/cut/tip4p/long/omp, perpetual
      attributes: half, newton on, omp
      pair build: half/bin/newton/omp
      stencil: half/bin/3d
      bin: standard
Per MPI rank memory allocation (min/avg/max) = 9.226 | 9.230 | 9.237 Mbytes
Step Temp PotEng TotEng E_pair E_mol Press Lx Ly Lz Volume Pxx Pyy Pzz Pxy Pxz Pyz Enthalpy 
 1250000    284.66044   -4681.0216     -4132.03   -4681.0216            0    3743.0652     20.04382    20.144481    20.731235    8370.6992    3597.7649    2710.0652    4921.3657     538.7246   -1814.0581    186.69257   -3675.0838 
 1251000    262.10892   -4699.3636   -4193.8645   -4699.3636            0    3369.4406    20.058314    20.375274    20.587898    8414.1432      3620.67    1322.8095    5164.8424    258.16936    184.09793   -240.69403   -3780.3949 
 1252000    268.08611   -4685.3067   -4168.2801   -4685.3067            0     4290.867    19.988517    19.962266    20.889682    8335.3192    3722.6825    5620.3724     3529.546   -489.29197    15.082179    712.11207   -3646.6733 
 1253000    257.79152   -4669.3944   -4172.2218   -4669.3944            0    5039.7742    20.245323    19.645757    21.012423      8357.37    3684.3606     6430.802    5004.1601    478.93883    1382.4676    267.52836   -3557.9556 
 1254000    249.67615   -4699.3552   -4217.8338   -4699.3552            0    5552.1923    19.873481    20.127998    20.870956    8348.6618     6551.553    6297.9306    3807.0934     -485.348   -173.99123    239.67945   -3541.8173 
 1255000     260.8979   -4685.6611   -4182.4976   -4685.6611            0    2049.5048    20.130336    20.112821    20.917801    8469.1543    2724.2811    1517.6614     1906.572    531.45818   -720.25403    998.10771   -3929.3552 
 1256000    270.68794   -4669.3798   -4147.3354   -4669.3798            0    3944.5805    20.456796     19.95518    20.446394    8346.6078    3699.3382    3327.6812    4806.7222   -72.644287   -1415.8193    520.78133   -3667.1745 
 1257000    264.18567   -4681.8491   -4172.3448   -4681.8491            0    5075.6079    20.239565    19.976892    20.845961    8428.5142    4729.5518    4255.6698    6241.6021    316.81979    212.97197     534.9516   -3548.4448 
 1258000    268.97466   -4690.5454   -4171.8051   -4690.5454            0    4293.9565    19.989899    20.112454    20.965108    8428.9362    3609.0313    4217.2438    5055.5944   -476.36578    107.39225    480.74569   -3643.9603 
 1259000    278.81065    -4684.894   -4147.1842    -4684.894            0     3138.778    20.165492    20.061763    20.726462    8385.0008    2668.8678    4206.0756    2541.3905   -250.58412    410.33398      416.427   -3763.3536 
 1260000     268.6256   -4669.3567   -4151.2896   -4669.3567            0     3041.521    20.241321    20.130098    20.589949     8389.576    2992.9524     2392.455    3739.1556   -352.19313   -1081.7178    833.59276   -3779.1493 
 1261000    259.15413     -4679.51   -4179.7095     -4679.51            0    4047.6931    20.029078     20.11422    20.829722     8391.655    6446.2532     2884.138     2812.688    709.58602      -278.25   -1180.4697   -3684.3379 
 1262000    269.50542   -4651.9318    -4132.168   -4651.9318            0    3682.9039    20.112595    19.903899      20.9949    8404.6587    2934.6636    5014.2425    3099.8057   -199.08678    1725.1834   -643.01307   -3680.7422 
 1263000    271.74488   -4659.8447   -4135.7619   -4659.8447            0    4029.2723    19.877321    20.115952    20.932796    8370.0044    4832.7759    3646.6206    3608.4206   -387.10745    -306.7897   -194.60264   -3643.9169 
 1264000    255.59578   -4682.1768   -4189.2388   -4682.1768            0    4111.4155    20.179394    19.998594     20.97521    8464.7454    3766.8701    4461.0249    4106.3515   -32.828355    -544.8405   -707.15717   -3681.6861 
 1265000    251.88544   -4668.0327   -4182.2504   -4668.0327            0    2879.1307    20.105204    20.109651    20.859387    8433.6304      3740.66    2607.8197    2288.9123    -436.5412   -454.96032   -194.33641   -3828.1293 
 1266000     272.2471   -4700.3032   -4175.2518   -4700.3032            0    3616.3426    20.159511    20.057797    20.734781    8384.2201    3939.1194    2585.4196    4324.4888    -182.2767   -179.93076   -750.02657   -3733.0626 
 1267000    255.51455   -4674.7643    -4181.983   -4674.7643            0    2430.1205    19.911644    20.086443       21.202    8479.8273     1399.936    4253.1209    1637.3047   -498.02419   -595.36033    502.35701    -3881.451 
 1268000    266.07007   -4718.9976   -4205.8591   -4718.9976            0    3547.6684    20.112483    19.964342    20.923727     8401.556    2992.6493    3302.4148    4347.9412   -170.76301    800.43679   -2198.3508   -3771.1701 
 1269000    261.01854   -4680.8299   -4177.4336   -4680.8299            0    3878.0952    19.900186    20.252203    20.925883    8433.6037    6734.9407    1698.9229     3200.422     255.0889   -1242.5052    121.32216   -3700.4455 
 1270000    255.40721   -4674.9926   -4182.4183   -4674.9926            0     4507.379    20.135189    19.894889    20.863186    8357.5285      4074.09    4887.4427    4560.6044   -844.47504   -464.01641      175.164    -3633.032 
 1271000    259.56877   -4699.9749   -4199.3747   -4699.9749            0    2510.4461    20.428317    19.968014    20.571857    8391.5263    1453.4207    3230.3041    2847.6135    393.83804    432.32641    465.00073   -3892.1418 
 1272000    253.67874   -4660.6687   -4171.4279   -4660.6687            0    5427.7426    20.095252    20.060853    20.701503    8345.3532    5404.6057    5079.9711    5798.6511    34.046599    -286.6978    820.04714    -3510.826 
 1273000    252.52782   -4692.2589   -4205.2377   -4692.2589            0    3768.7547    20.281455    19.744745    21.046767    8428.2231    1037.7318    6900.6208    3367.9115   -279.62177    -169.6262   -3.7068831   -3741.9938 
 1274000    271.85202    -4652.233   -4127.9436    -4652.233            0    3257.6965    20.052646    20.099167    21.065519    8490.2781    3661.0835    2526.1983    3585.8078   -454.50218     88.22634    1552.8489   -3724.5691 
 1275000    268.36992    -4657.228    -4139.654    -4657.228            0    4577.3687    19.972127    19.880454    21.109852     8381.771    4233.1588    6863.3042    2635.6429    10.881022   -982.67444    628.47218   -3580.1186 
 1276000     267.0653   -4666.5843   -4151.5264   -4666.5843            0    2936.3681    20.197162    20.063925    20.901753    8470.1085    3501.0893    2568.8229    2739.1922   -186.23167   -937.90982   -758.37656   -3788.8032 
 1277000    269.91904    -4652.063   -4131.5015    -4652.063            0    5007.0123    20.292225    19.967417    20.618738    8354.3686    3594.8824    6561.7349    4864.4196     202.0429    1800.7578    1351.7392   -3521.4476 
 1278000    256.22153   -4683.3192   -4189.1744   -4683.3192            0    4667.4458    19.919287    20.143893    20.756002    8328.3873    6831.3866      3576.08    3594.8707   -328.46369    365.92475   -376.05752   -3622.2618 
 1279000    264.04334   -4671.7127   -4162.4829   -4671.7127            0    6050.3583    20.345776    19.770052     20.78533    8360.6301    4175.3359    8068.8262    5906.9126    658.15939   -556.38734    1431.4199   -3424.7554 
 1280000    261.15272   -4665.9759   -4162.3209   -4665.9759            0    3326.2271    19.992872    20.150378    21.084211    8494.0679    2988.3921    3375.6671    3614.6221   -580.39219    729.19086    1108.2026    -3750.277 
 1281000    268.86906   -4673.4958   -4154.9592   -4673.4958            0    2412.7993    20.093483    19.982222    20.983226    8425.0264    2015.4615    2743.2867    2479.6497   -399.42137    24.715893   -1197.2644   -3858.4977 
 1282000    261.75963    -4668.318   -4163.4925    -4668.318            0    1770.9226    20.021241    19.945445    21.306156     8508.242     3748.259    1543.0575    21.451321    -744.9554   -755.13696    1861.2517   -3943.7494 
 1283000    257.88728   -4654.6087   -4157.2514   -4654.6087            0    3296.6297     20.26618    19.997375    20.783511    8422.9419     3664.332     3048.663     3176.894    155.11393    37.175538   -260.62291   -3752.2936 
 1284000    265.64675   -4703.6993   -4191.3772   -4703.6993            0    4944.4036    20.239704    20.299008    20.357483    8363.7891    5220.0316     3011.394    6601.7852   -519.70159   -65.109273   -453.39666   -3588.2723 
 1285000    255.12543   -4720.8633   -4228.8325   -4720.8633            0     4955.207    20.020805    20.097391    20.854669    8391.2089    5557.0246    5516.3813    3792.2152    405.01429   -519.15479    314.97685   -3622.4282 
 1286000    250.75063   -4692.2755   -4208.6818   -4692.2755            0    4578.7081    20.185949    20.026862    20.665227      8354.15    4182.6151    4642.1259    4911.3833    179.21438    1548.8803    34.603951   -3650.8271 
 1287000    252.28799   -4668.5706   -4182.0119   -4668.5706            0     3539.868    19.972895    20.297924    20.749579    8412.0515    5507.4448    1705.8514    3406.3078   -119.21617     1003.672   -1474.3974   -3747.7369 
 1288000    262.83594   -4658.2254   -4151.3242   -4658.2254            0    5184.8216    19.920397    20.094934    20.885861    8360.5909    6112.0221    3964.0222    5478.4206   -299.53063    562.91398    -1126.008   -3519.1356 
 1289000    244.60144   -4673.2236   -4201.4892   -4673.2236            0    2961.2961    20.040406    20.047263    21.107261    8479.9534    3073.4519     3206.793    2603.6433   -150.04488    246.15818   -806.38688   -3835.2615 
 1290000    262.43147   -4686.2787   -4180.1575   -4686.2787            0    3448.0069     20.04964    19.927176    20.959576     8374.036      1909.67    5338.3994    3095.9512   -473.59364   -892.30895    -688.3717   -3759.0637 
 1291000    273.92989    -4710.612   -4182.3152    -4710.612            0    2429.5201    20.083872    20.140336     20.92427    8463.7821    1911.7067    2432.0232    2944.8306   -29.197965    735.26748   -108.67578   -3882.4259 
 1292000    267.21863    -4696.954   -4181.6004    -4696.954            0      3718.01    20.098712    20.120177    20.695173    8368.9135    2259.1802    4212.6896    4682.1602    112.68499    930.53049   -375.23198   -3727.8098 
 1293000    260.63598   -4656.2585   -4153.6001   -4656.2585            0    3308.7741    20.125409    20.202895    20.674382    8406.0288    3555.5829    2359.1365    4011.6031    1016.4518    1128.3571    1025.6161   -3747.9665 
 1294000    245.27839   -4681.4034   -4208.3634   -4681.4034            0     3996.739    20.156129    19.962196     20.88562    8403.5507    3575.7114    3946.5484    4467.9571   -721.05844   -48.380852      352.533   -3718.5344 
 1295000    255.36228    -4717.228   -4224.7404    -4717.228            0     3406.789    19.958688    20.050217     21.04601    8422.1083    4719.9581    3144.4309     2355.978    401.67014   -480.35437    763.63312   -3806.2919 
 1296000    254.57284   -4687.7364   -4196.7713   -4687.7364            0    2950.1107     19.94866    20.008545     21.14522    8439.9806    3242.9288    4564.2287    1043.1747   -113.53735    1233.4792   -1399.5003   -3833.6467 
 1297000    257.56153   -4674.0489   -4177.3198   -4674.0489            0    7195.8862    20.108148     20.03339    20.684509    8332.4309    6420.1821    9010.1478    6157.3289   -43.548604   -568.84176    960.95315   -3302.8761 
 1298000    255.83949   -4700.6731   -4207.2651   -4700.6731            0    4510.0596    20.160767    20.179212    20.511543    8344.6777    4032.2899    3892.2554    5605.6334    85.906853   -764.15075   -512.50191   -3658.3974 
 1299000    267.43673   -4685.6841   -4169.9099   -4685.6841            0    3987.5674    20.089606    19.983668    20.977082    8421.5434    4975.7484    3776.6946    3210.2591    -616.2423    41.866393   -15.086279   -3680.1586 
 1300000     254.6977   -4696.1159   -4204.9099   -4696.1159            0    5029.3878    19.986966    20.018127    20.975277    8392.2421    4516.2763    4968.4481    5603.4389    -74.42716   -248.46539    1900.2297   -3589.3519 
 1301000    281.64944   -4650.6145   -4107.4299   -4650.6145            0    3489.4389    19.936089    20.278048    20.704818    8370.2328    4449.0915    2142.2467    3876.9785   -40.228623   -238.45726   -57.603114   -3681.4697 
 1302000    247.22468   -4673.3104   -4196.5168   -4673.3104            0    4513.5781    20.222804    20.062291     20.60296    8358.9461    2634.4074    5786.1325    5120.1945   -982.89732     95.28278   -907.25171   -3646.2816 
 1303000    248.27057   -4696.1497    -4217.339   -4696.1497            0    4244.1823    20.031558    20.135775    20.820041     8397.783     7031.576    1088.9335    4612.0373     634.8076   -370.75641    -614.3116   -3697.5411 
 1304000    263.91616   -4665.8012   -4156.8167   -4665.8012            0    3280.2608    20.250617    19.993895    20.825247    8431.9075    3035.1216    3933.0173    2872.6435   -243.74049    768.71258    853.61432   -3753.4406 
 1305000    272.28352   -4698.4418   -4173.3201   -4698.4418            0    3634.6915    19.965079    20.161715      20.8635    8398.1896    3917.5348    3416.6871    3569.8527   -911.58386   -164.70602   -265.70753   -3728.1468 
 1306000    271.82054   -4657.9226   -4133.6939   -4657.9226            0     4113.012    19.963697    19.882968     21.17912    8406.7883    5925.1693    3128.7269    3285.1397    -167.8418   -347.90269    820.42389   -3629.4205 
 1307000    253.11432   -4708.9137   -4220.7615   -4708.9137            0    4361.4421    19.958924    19.990867    21.193243    8456.0233    4189.1229    4747.1899    4148.0134   -463.89454   -877.53106    341.40627   -3682.8979 
 1308000    262.79418   -4683.0554   -4176.2347   -4683.0554            0     4897.916     19.98181    20.226863    20.730197    8378.5097     6585.626    1601.2637    6506.8583   -281.15448   -258.84067   -213.96595   -3577.7487 
 1309000    254.22015   -4676.3528   -4186.0679   -4676.3528            0    3020.0575    20.130254    20.305977    20.634329    8434.5803    1047.3219    3876.8869    4135.9638    440.98026   -446.31324   -670.42317   -3814.5715 
 1310000    266.89553   -4701.2707   -4186.5402   -4701.2707            0    3959.7409    20.102421    20.030771    20.833215    8388.8475    4077.6049    3768.8609    4032.7568   -249.56558   -352.18301   -904.56796   -3702.0947 
 1311000    266.83202    -4679.076    -4164.468    -4679.076            0    4218.7837    20.099857    19.977299    21.035655    8446.6747    3632.3619    4970.2055    4053.7837   -8.0101902   -194.10235   -133.76743   -3644.7726 
 1312000    268.02721    -4654.638    -4137.725    -4654.638            0    5048.5227    20.079509    20.026952    20.983305    8438.0452    4666.2921    6701.5792    3777.6967    541.59759    1899.4029     1792.536   -3516.4526 
 1313000    250.13148   -4628.9199   -4146.5203   -4628.9199            0    3761.1924    20.133756    19.963328    20.870307     8388.544    2538.4119    4931.5749    3813.5904   -286.60625    -358.2852    354.25037   -3686.3823 
 1314000    257.43744   -4673.5841   -4177.0944   -4673.5841            0    3276.2792    19.982001    20.350188    20.836982     8473.098    4477.8962    1568.3366    3782.6049    214.75905    -483.9815   -1150.6795   -3772.2398 
 1315000    277.85818   -4722.7751   -4186.9022   -4722.7751            0    3799.5359    20.030334    20.078453    20.780812    8357.5882    4357.1111    3931.9685    3109.5281   -215.17758   -791.82226    613.88102   -3723.7888 
 1316000    273.34716   -4655.4303   -4128.2573   -4655.4303            0    4751.5808    20.084425    20.027832    20.973438    8436.5123    4272.8386    6209.5411    3772.3627     -630.668    1034.8763   -361.01122   -3543.6329 
 1317000    253.54827   -4687.1277   -4198.1385   -4687.1277            0    3005.9449    20.112464    20.165131    20.812059    8440.7568    1828.4624    3787.0964    3402.2759   -668.25214   -1011.7701   -237.12267   -3828.1074 
 1318000    265.29815   -4683.6248    -4171.975   -4683.6248            0    3931.0864    19.966723    20.161463    20.825862    8383.6247    6018.6269    2540.3461    3234.2861   -262.54973   -1345.3526    386.11684   -3691.3346 
 1319000    255.90189   -4714.7559   -4221.2275   -4714.7559            0    3293.9613    20.178916    19.948326    20.974979    8443.1754    1759.6646    4424.7482    3697.4711   -393.85713   -373.76039    516.69346   -3815.6254 
 1320000    255.20183    -4655.918   -4163.7398    -4655.918            0    1939.9894    19.899039    19.990886    21.193708    8430.8448    292.32897    4188.0079    1339.6314    587.19483    1276.2902   -208.46468    -3925.208 
 1321000    250.98273   -4651.9198   -4167.8785   -4651.9198            0     3810.858    20.019448    20.100141    20.917634    8417.1247    5381.9811    2069.3336    3981.2593   -71.985822    59.625591    666.13181   -3700.0761 
 1322000    277.49431   -4648.7803   -4113.6092   -4648.7803            0    5100.9609    20.245267    19.743155    20.857277    8336.7669    5126.9005    5577.4988    4598.4835   -243.81841    52.643144   -95.055791   -3493.4181 
 1323000    254.78307    -4707.744   -4216.3734    -4707.744            0    1075.3546     19.96135    20.382655    21.066557    8571.2513    3867.4261   -750.67042    109.30824   -73.177441   -107.18531    12.583232    -4081.951 
 1324000    255.76588   -4699.4462   -4206.1801   -4699.4462            0    3549.5456    20.032389    20.070771     20.79674    8361.6516    4543.4304    2952.3894     3152.817   -610.89003    526.44922    857.46703   -3773.3269 
 1325000    257.63415   -4690.0248   -4193.1557   -4690.0248            0     3889.154    20.306659    19.955808    20.732531    8401.5632    4168.5368     3739.905    3759.0201   -224.15724   -190.32713    1054.7181   -3716.6247 
 1326000    279.64976   -4713.5165   -4174.1885   -4713.5165            0    3713.0479    19.959843     19.97404     20.96282      8357.43    4644.7204    3723.4911    2770.9323    204.40764    261.20559    860.56316   -3721.6253 
 1327000    241.04955   -4688.0665   -4223.1822   -4688.0665            0    2802.4733    20.145324    20.025354    21.019191     8479.504    2932.1908     1835.278     3639.951   -401.98084    499.22832    1769.3129   -3876.6147 
 1328000    266.99902   -4661.6934   -4146.7634   -4661.6934            0    3973.5539    20.134075    20.111341    20.796518     8420.994    3803.3903    4189.8865     3927.385   -608.11694   -1032.4368     842.8962    -3658.765 
 1329000    258.40926    -4690.847    -4192.483    -4690.847            0    5523.2454    20.103618    20.053002    20.663758    8330.3437    5762.9883    4897.9722    5908.7758   -130.20074   -991.13415    575.04875   -3521.4666 
 1330000    281.65784   -4697.5704   -4154.3696   -4697.5704            0    2611.3989    20.114703    20.313825    20.778916    8490.4013    2050.0522     2486.263    3297.8814    464.81037   -1382.2142   -323.09674   -3831.0163 
 1331000    265.66337   -4677.9228   -4165.5687   -4677.9228            0    3718.2813    20.190016    19.938687    20.916115    8420.0418    3504.8957    3652.1618    3997.7865   -509.70004   -225.47054   -1705.4264   -3708.9724 
 1332000    255.29663   -4703.0325   -4210.6715   -4703.0325            0    4480.1066    20.170351    19.963856    20.844816     8393.748    3285.2945    5750.8564     4404.169   -479.62685   -951.71273   -692.55381   -3662.2428 
 1333000    264.11411   -4665.3009   -4155.9346   -4665.3009            0    2005.6568    20.313999    20.129976    20.688638    8460.0046    1194.1854    2518.8595    2303.9255   -355.49569    128.57481    811.83345   -3908.4757 
 1334000    269.39626   -4646.2968   -4126.7435   -4646.2968            0    3691.9814    20.091412    20.112603    20.812563     8410.161    4533.4829    2174.7297    4367.7315    68.751228    1017.8919   -1505.9009   -3673.9088 
 1335000    263.98382    -4705.933    -4196.818    -4705.933            0     3627.565    19.889144    20.027234    21.141857    8421.3207    3723.8178    4471.1253    2687.7517   -439.25305   -939.15591    347.69058   -3751.2938 
 1336000    270.33581   -4713.6036   -4192.2383   -4713.6036            0    2432.3471    19.922801    20.116576    20.899574    8376.1008     2264.493    2679.0519    2353.4964    22.490509   -781.05035   -1218.4027   -3895.1105 
 1337000    269.29429   -4715.5395   -4196.1829   -4715.5395            0    3646.1537    20.000403    20.252248    20.766276    8411.4448    4924.6425    2962.9684    3050.8502   -194.47076    718.28646   -709.64391   -3748.9008 
 1338000    257.67934   -4681.5207   -4184.5645   -4681.5207            0     4088.723    19.857076     20.22623    20.867681    8381.1661    4637.9656    3298.2283    4329.9752    464.66438    25.047994   -19.342066   -3684.7969 
 1339000    247.49702   -4705.1618    -4227.843   -4705.1618            0    3829.7926    20.051835     19.92403    21.036101    8404.2035    4094.5096    5039.5838    2355.2842   -184.59466    764.97844   -123.51931    -3758.438 
 1340000    257.21354   -4690.3147   -4194.2568   -4690.3147            0    2503.7895     20.22633    20.136774    20.767662    8458.5238     1790.925    3760.1482    1960.2953   -679.66706   -1357.3062   -1719.8845   -3885.3921 
 1341000    246.59915   -4660.6626   -4185.0754   -4660.6626            0    4248.3417    20.040464    19.971424    20.821238    8333.4213    3992.6847    5258.0166    3494.3238    69.752038    911.76221   -170.44637   -3668.7557 
 1342000    268.36846   -4704.3705   -4186.7993   -4704.3705            0    3670.9935    20.056513    19.864731    21.040779    8383.0091    3838.3646    3988.7319     3185.884   -593.84633     161.8089   -1240.2661   -3737.9925 
 1343000    269.88606   -4672.9368   -4152.4388   -4672.9368            0    3492.3099     20.04166    20.011084    20.894403    8379.8123    5264.1238    1809.1643    3403.6415   -824.17498   -79.431495   -721.20557   -3725.6403 
 1344000    264.03592   -4690.2811   -4181.0656   -4690.2811            0    1962.8178    19.999718    20.277592    20.767019     8421.984    2376.9803     1766.544    1744.9291   -263.04223    538.53854   -982.68852   -3939.9806 
 1345000    249.96984   -4706.3934   -4224.3055   -4706.3934            0    2680.3916    20.255622    20.112428    20.703392    8434.3497    1313.6654     4917.664    1809.8453     403.6262   -1373.7078    -119.5111   -3894.6004 
 1346000    273.95391   -4692.0373   -4163.6941   -4692.0373            0    4618.5018    20.038309    20.005579    20.794309    8335.9803    4661.6977    5489.1921    3704.6157   -889.62809    626.47313   -1713.7105   -3602.2149 
 1347000    266.42504    -4692.953   -4179.1299    -4692.953            0    2935.5777    19.991096    20.127486    21.032049     8462.676    2170.9339     4206.381    2429.4182    -14.47471    -36.27985    268.94217   -3816.8225 
 1348000    272.18638   -4705.4695   -4180.5352   -4705.4695            0    3462.2738    20.095301    19.993103    21.052995    8458.4077    3144.0343    4935.0028    2307.7845    177.19605     159.0119    223.47157   -3753.4388 
 1349000    252.51336   -4668.1648   -4181.1715   -4668.1648            0    4721.2605    20.213417    20.031123    20.641952    8357.8737    4458.7657    2319.4345    7385.5812    550.94041   -1813.9932     153.6125   -3605.6923 
 1350000     272.5257   -4701.2063   -4175.6176   -4701.2063            0    3960.3025    20.253982    20.061369    20.644049    8388.1437    3668.7639    3677.2578    4534.8859   -705.58207   -1509.5688   -1627.8011    -3691.144 
 1351000    244.85642   -4699.4713   -4227.2451   -4699.4713            0    5694.0095    20.243406    19.892552     20.81036    8380.1866     6834.549    3867.3408    6380.1389   -208.71881    -1163.005   -18.491131   -3531.3436 
 1352000    263.81871   -4686.1102   -4177.3136   -4686.1102            0    2690.8135    19.848746    20.333119    20.973571    8464.6586    2535.7054    2365.2358    3171.4992     30.68227   -20.603023   -20.932193   -3845.1371 
 1353000     268.1572   -4681.9404   -4164.7766   -4681.9404            0    2420.7439    20.090219    19.917558    21.117395    8450.0856    1362.2243    4404.3919    1495.6156   -55.139598   -837.44546    21.541425   -3866.4543 
 1354000    270.45532   -4679.5935   -4157.9977   -4679.5935            0    2762.8071     19.89854    20.203494    20.872378    8391.1144    2603.0787    2821.5187    2863.8239    531.66692   -305.19865    1029.2115    -3819.897 
 1355000    276.50002    -4661.882   -4128.6284    -4661.882            0    3710.7496    20.157263    20.254362     20.61234    8415.4518    3088.9385    3435.5838    4607.7265    78.318455    325.14957    -934.9449   -3673.2054 
 1356000    256.94254   -4702.6198   -4207.0845   -4702.6198            0    3488.1272    20.285261    20.042263    20.623536    8384.7572      3533.27    3027.8993    3903.2124   -79.581382    1174.1882   -346.47469   -3780.5455 
 1357000    263.17459    -4685.259   -4177.7047    -4685.259            0      3241.34    20.121883    19.916772    21.004597    8417.8645    3990.4349    1825.1972    3908.3879     666.0931    1080.7149   -1011.0621   -3779.7786 
 1358000    261.13637    -4658.556   -4154.9326    -4658.556            0     5766.806    19.933873    19.879052    21.159099    8384.6424    5260.5855    6598.3921    5441.4405    234.25181    1351.6857   -925.11831   -3449.7594 
 1359000    265.67484   -4690.7939   -4178.4177   -4690.7939            0    4064.5256     20.06236    20.120882    20.763145    8381.5083    2292.4526    6299.1902    3601.9341    -823.5321    61.813986     219.0688   -3681.5875 
 1360000    271.67864   -4676.9741    -4153.019   -4676.9741            0    4676.9907    19.947062    20.158339    20.709635    8327.3365    4311.0345    3721.1247    5998.8128   -404.37633    1291.5549   -1145.6839   -3585.0188 
 1361000    263.13605   -4657.6449   -4150.1649   -4657.6449            0    2598.7162    19.993673    20.055499    21.253108    8522.1369    6080.0775   -181.47082     1897.542   -394.82588     868.8761   -25.356959   -3827.1792 
 1362000    272.37028   -4688.7282   -4163.4392   -4688.7282            0    1874.1094    20.065353    20.131982    20.966878    8469.6821    1923.6817    3029.3184    669.32808   -126.26423    456.22524    -1458.836   -3931.9462 
 1363000    257.50113   -4708.4008   -4211.7882   -4708.4008            0    3973.7106    20.220739    20.067415    20.647842    8378.4394    2952.6389    4562.8562    4405.6366   -920.15405    213.20845    46.229838   -3726.2367 
 1364000    270.42331    -4693.628   -4172.0939    -4693.628            0    2628.1848    20.216739    20.247289     20.60722    8435.2392    1828.7362    3008.2425    3047.5756    -15.09572   -714.53693   -294.56954   -3848.7764 
 1365000    256.86361   -4676.9126   -4181.5295   -4676.9126            0    4387.5478    19.955791    20.024161    20.777902    8302.8077    4633.3498     3728.015    4801.2786    714.75803   -349.24625   -544.75579   -3650.2504 
 1366000    260.43905   -4713.8438   -4211.5652   -4713.8438            0    3585.2846    20.118763    19.877619    20.939543    8373.9976     2401.164    4737.2801    3617.4097     -287.389    1431.2445    1860.8991   -3773.7081 
 1367000    249.40645   -4684.8128   -4203.8115   -4684.8128            0      4447.22    19.967026    19.968244     20.98722      8367.74     4059.492    4873.4234    4408.7446   -835.72681    288.02607    105.40802   -3661.0954 
 1368000    245.55722   -4676.9671   -4203.3894   -4676.9671            0    2215.7577     20.16108    20.213153     20.73136     8448.423    2160.9877    1193.6235    3292.6619    448.58508    1167.4819    525.14157   -3930.3824 
 1369000    247.87986   -4685.5405   -4207.4834   -4685.5405            0    2963.0128    20.032013    20.224029    20.792845    8423.7639    3729.5297    1598.4215    3561.0873    364.78168     771.3148   -35.788706   -3843.4715 
 1370000    257.16156   -4677.3478   -4181.3901   -4677.3478            0    4586.5468    20.049412    20.031454    20.859552    8377.5896    2996.6126    5116.6855    5646.3425   -557.37017    1509.1294    345.35974   -3621.0124 
 1371000    261.48106    -4721.186   -4216.8978    -4721.186            0    2680.2885    19.853882    20.179172    21.050819     8433.693    3450.6646    2673.9698    1916.2311    191.31226   -553.74064    635.11792    -3887.231 
 1372000     275.8497   -4685.1881   -4153.1888   -4685.1881            0    3729.9643    20.260061     19.97297    20.916587    8463.9721    4342.5278    2418.4834    4428.8817    308.57035    480.47932   -114.66814   -3692.7682 
 1373000    265.27506   -4686.2693    -4174.664   -4686.2693            0    4231.4602    20.015682    20.188559    20.760559    8389.0881    4799.4044     3763.295    4131.6811   -383.14914    1491.5295    802.60103   -3656.9608 
 1374000    259.89075   -4679.6096   -4178.3884   -4679.6096            0    3868.3989    20.223426    19.966215    20.851813    8419.6551    3474.8914    4444.8139    3685.4912   -30.437665   -92.077913    168.80292   -3703.3799 
 1375000    264.43318   -4659.4748   -4149.4931   -4659.4748            0    2792.2601    20.059571    19.985746    21.114414    8464.8846    2824.2022    2376.8096    3175.7686    91.809188   -70.044004    299.14048    -3804.784 
 1376000    249.11611   -4700.5617   -4220.1203   -4700.5617            0    1907.2973    19.915525    20.312909    21.005263    8497.5161    3925.2936   -908.45556    2705.0538    454.81387    -756.1289   -1073.3535   -3983.7537 
 1377000    258.02175    -4686.843   -4189.2264    -4686.843            0    3846.2069     20.05385    20.037837     20.89535    8396.4996    2398.0998    6540.3769     2600.144    69.064658    539.25831    600.19055   -3718.2417 
 1378000    252.39123    -4684.513   -4197.7553    -4684.513            0    2495.7207    20.017541     20.22082    21.018875    8507.8329    4186.1629    955.50594    2345.4931    402.18749    1600.6258    828.17392   -3888.0912 
 1379000    279.73628   -4679.0088   -4139.5138   -4679.0088            0    2530.4746    20.054208    20.147726    20.858813    8427.9343    1383.6139    2719.9925    3487.8174   -121.93925   -453.57204    -798.0937   -3828.4862 
 1380000    251.80743    -4708.341   -4222.7092    -4708.341            0    4934.0367    20.017508    20.118391    20.655427    8318.3545    3415.2571    4532.3811    6854.4718   -292.20392   -710.71309    -1713.167   -3624.1382 
 1381000    244.53653   -4689.0723    -4217.463   -4689.0723            0    4089.3926    19.955789    20.226384    20.779771    8387.4107    5813.9915    2132.3806    4321.8058   -707.76297    759.44757    410.70768   -3717.2412 
 1382000    283.60273   -4699.9356   -4152.9839   -4699.9356            0    2707.8186      20.0898    20.205558    20.806288    8445.8055    4008.1566    1837.8834    2277.4158    179.39396   -95.719384   -457.72456   -3819.4526 
 1383000    274.07657   -4675.1718   -4146.5921   -4675.1718            0    4606.6278    20.133954    20.138074    20.656301    8375.2844    5595.2069     2556.141    5668.5354     357.9462    577.88793    304.57848   -3583.9158 
 1384000    254.98966   -4682.7161   -4190.9471   -4682.7161            0    3086.5906    20.255206     20.39581    20.379897    8419.3704     1555.466    3409.8162    4294.4895   -699.75462   -950.68772    39.548316   -3811.9512 
 1385000    269.84777   -4702.1575   -4181.7334   -4702.1575            0    3586.6458    20.175906    19.935466    20.890468    8402.4828    3656.2852    3305.6711    3797.9809   -566.84042   -1023.3893    305.93603   -3742.2201 
 1386000    253.18021   -4651.2613    -4162.982   -4651.2613            0    3602.5352    19.933014    20.132479    20.821833    8355.8225    4326.7249    3067.8098    3413.0708   -353.54482   -634.95864    476.40242   -3723.9731 
 1387000    263.32827   -4707.5496   -4199.6989   -4707.5496            0    4835.8427    19.930638    19.984134    20.968021    8351.4905    4173.1523    6395.6671    3938.7087   -370.54463     819.2528   -150.62325   -3610.7033 
 1388000    269.50244   -4713.9065   -4194.1483   -4713.9065            0     2601.959    20.044507    20.063732    20.926319     8415.888    2263.6992    3230.5208    2311.6569   -831.71216    531.91819    -58.72137   -3874.7914 
 1389000    235.66463   -4679.6593   -4225.1602   -4679.6593            0    3733.3818    20.095894    20.222277    20.693194     8409.398    4586.0829    3233.1837    3380.8789   -137.04746   -243.66494    -652.6338   -3767.2892 
 1390000    264.42477   -4668.8153   -4158.8499   -4668.8153            0    5102.3984    20.140817    19.969612    20.774339    8355.5286    5272.7895    4228.4199    5805.9857    317.28566    829.94517     -287.107   -3537.0879 
 1391000    266.94707   -4701.7616   -4186.9317   -4701.7616            0    5459.2228    20.133574    20.017303    20.604739    8304.1191    5124.2023    6231.4689    5021.9973   -694.21517    806.53963   -639.56217   -3525.7813 
 1392000    260.72175   -4679.7678   -4176.9439   -4679.7678            0    4601.0653    20.148044    20.073975    20.717191    8379.0957     4644.377    4420.9416    4737.8772    162.05012    699.14635   -491.79391   -3614.6914 
 1393000    255.02388   -4679.7431   -4187.9081   -4679.7431            0    3057.8918    19.938979    20.256926    20.876463     8432.054    2753.4662    2985.1085    3435.1006    516.20439   -242.30648     887.1909   -3811.8704 
 1394000    273.42683    -4703.223   -4175.8964    -4703.223            0    4345.5164    20.266633    19.902146    20.732029    8362.2533    5158.7135    4054.8155    3823.0203    730.24183    1010.7095    354.34537   -3645.9394 
 1395000    259.50239   -4679.9698   -4179.4976   -4679.9698            0    4439.4325    19.958665    20.214126    20.791357      8388.21    5063.2125    3536.8854    4718.1995   -392.88667    975.08215   -619.06799   -3636.4065 
 1396000    254.63784   -4694.3851   -4203.2946   -4694.3851            0    4491.9011    19.725466    20.070282     20.97181    8302.6488    3684.4111    5049.9384    4741.3538    -713.8204    57.386219   -210.73928     -3659.39 
 1397000    256.22116   -4702.3561   -4208.2121   -4702.3561            0    3585.5303    20.008133    20.073158    20.986609    8428.7766    2539.1629     4309.199     3908.229   -253.97756     361.3857    213.59962   -3767.4606 
 1398000    269.62123     -4716.36   -4196.3728     -4716.36            0    4245.4628    20.031668    20.210454    20.666703    8366.8963    3440.2413    5168.3559    4127.7912   -859.80036    2110.9099   -1375.7609   -3678.3304 
 1399000    269.15645   -4670.7838    -4151.693   -4670.7838            0    3774.2908    19.943096    20.218637    20.781684    8379.6366    4790.4391    2098.8242    4433.6092   -73.051641   -733.68107     912.7297   -3690.4429 
 1400000    262.44237      -4689.4   -4183.2579      -4689.4            0    4401.8041    20.119295    20.071533    20.659863    8342.9709    3397.9107    5556.9374    4250.5641    302.01209    1553.5298    261.23898   -3647.6742 
 1401000    268.50582   -4669.3764   -4151.5403   -4669.3764            0    4362.4242    20.094116    20.081307    20.947377    8452.6037    3973.3947    4637.3505    4476.5275    72.068913     552.3206    1898.3912   -3613.7731 
 1402000    272.96297   -4687.3657   -4160.9337   -4687.3657            0     4778.181    20.048143    19.934652    20.994302    8390.4308    6040.5193    3474.0655    4819.9583    119.89582   -798.54562    291.36678   -3576.2476 
 1403000     263.1385   -4693.2105   -4185.7258   -4693.2105            0     5461.515    19.964632    19.889393    21.038708    8354.1431     4186.661    7214.3764    4983.5077    606.37758      272.515   -1364.7511   -3520.3133 
 1404000    260.94944   -4689.2852   -4186.0222   -4689.2852            0    5280.4758    20.090338    20.072692    20.929627    8440.2315    4348.1756    6012.3236    5480.9281   -39.271387    905.28287     397.4551   -3536.0373 
 1405000    254.08685   -4682.5108   -4192.4829   -4682.5108            0    3556.0794    20.098273    19.951186    20.887735    8375.6556    1787.3451    4883.2369    3997.6563   -121.25186    75.503096    168.63414   -3758.1066 
 1406000    257.74097   -4698.7912   -4201.7161   -4698.7912            0    2643.3354    20.182284    20.137361     20.88025    8486.1085    2276.2363    1795.4068     3858.363    32.399644   -810.77552     -331.105   -3874.5737 
 1407000     270.6539   -4701.9646   -4179.9858   -4701.9646            0    3516.0129    19.809913    20.299388    20.979418    8436.4343    5231.4874    1548.5081    3768.0433    277.02868    143.92378   -717.25009    -3747.387 
 1408000    251.47821   -4695.1485   -4210.1516   -4695.1485            0    4595.8057    19.938446    19.813859    21.095288    8333.8534    4278.0324    7030.0436    2479.3413    118.61328     251.9981   -1883.0505   -3651.5742 
 1409000    251.87346   -4693.1576   -4207.3984   -4693.1576            0    2801.7231    20.034636    20.136969     20.99896     8471.754    4330.1247    3234.3116    840.73321    -198.5587   -40.260679    -46.54779   -3861.2404 
 1410000    263.33639   -4672.3326   -4164.4662   -4672.3326            0    3503.9816    20.361238    19.899564    20.612093    8351.6028    2538.5622    4282.3827         3691   -479.60741   -1002.1762   -594.42864   -3737.6828 
 1411000    266.43963   -4716.6769   -4202.8257   -4716.6769            0    3508.6554    19.999128     20.08161    20.684985    8307.3939    4569.6044    3338.5936    2617.7683   -461.86564    1258.3821    1807.5549   -3777.7352 
 1412000    252.60569   -4662.9389   -4175.7676   -4662.9389            0     2461.707    20.178002     20.24523    20.884625    8531.5426    2982.1505    914.14579    3488.8248   -45.779318    645.93896   -343.34366   -3869.4727 
 1413000    261.80712   -4678.0356   -4173.1186   -4678.0356            0    3096.2596    20.229607    19.768547    21.149715    8457.9808    2153.2353    5430.6168    1704.9268    84.645657    357.08697    1419.6457   -3791.1919 
 1414000    271.43664    -4715.394   -4191.9056    -4715.394            0    4670.4305    20.066932    20.045734    20.867835    8394.2198    5513.3905    4406.4682    4091.4329    -126.5422   -30.654754   -986.41061   -3620.1464 
 1415000    269.16753   -4708.2839   -4189.1717   -4708.2839            0    2858.4789    20.003233    20.220787    20.952997    8475.0915    3570.0973    1684.1691    3321.1703    5.0065896    8.1742043    492.54242   -3835.8623 
 1416000    279.81473   -4699.4814   -4159.8351   -4699.4814            0      2675.77    20.251606    20.125969    20.743277    8454.6113    1693.6903     2810.013    3523.6067   -13.691058    305.06623    149.56118   -3829.9078 
 1417000     272.3485   -4703.2699   -4178.0229   -4703.2699            0    3813.7444    20.264194    20.106091    20.548504    8372.1536    3552.2721    2534.7385    5354.2226   -14.425335   -967.56171    557.49997   -3712.3675 
 1418000     276.3288   -4680.7975   -4147.8742   -4680.7975            0    3953.6204    19.950812    20.364624    20.688154    8405.4064    5124.4455    3118.8413    3617.5742   -593.54906   -532.31317   -284.19762   -3663.2227 
 1419000    273.18707   -4675.0675   -4148.2033   -4675.0675            0    3396.1388    19.981462    20.077588    21.057183    8447.7113    3877.5199    3836.9559    2473.9407    752.72877   -307.11991    -634.9956   -3729.7949 
 1420000    265.60369   -4687.1899   -4174.9508   -4687.1899            0    3512.5163    19.854304    20.116133    21.253957    8488.6565    2830.3658    4050.4965    3656.6865   -334.17146    2253.1896   -367.42111   -3740.1071 
 1421000    256.64123   -4660.6868   -4165.7326   -4660.6868            0     3543.051    20.052878    20.046596     20.88256    8394.6209     4486.019    2459.0268    3684.1072   -660.10144   -1326.8456    1549.6616   -3731.9677 
 1422000    262.44427   -4699.7795   -4193.6337   -4699.7795            0    4094.0072     20.19536    20.305622    20.564922    8433.2498    5358.2917    3534.1132    3389.6166   -806.72913   -766.08035   -242.13403   -3690.1105 
 1423000    253.66524   -4701.2025   -4211.9878   -4701.2025            0    3310.5108    20.221314    19.905985    20.829255    8384.2997    2792.4611    3285.7037    3853.3675   -54.696003    549.88076   -131.65224   -3807.1904 
 1424000    265.82477   -4697.7378   -4185.0724   -4697.7378            0    2532.3917    20.027555    20.273778    20.791284    8441.9726    4234.8008    611.35553    2751.0189   -310.31937   -894.61319   -551.66554   -3873.2906 
 1425000    267.89189   -4706.9244   -4190.2724   -4706.9244            0    4718.2232    19.763385    20.105718    20.911875    8309.4814     5967.264     4963.088    3224.3175    118.59023    20.842166    888.06625   -3618.4933 
 1426000    254.18885   -4699.8072   -4209.5826   -4699.8072            0    5094.9236    19.928634    19.945468    21.059539    8370.8703    5395.6343    5738.9071    4150.2293   -144.43028    249.80877    429.78854   -3587.5915 
 1427000    255.15919   -4668.1654   -4176.0694   -4668.1654            0    3961.6415    20.328829    19.963297    20.758362    8424.3754    2726.0132    5075.8809    4083.0303   -181.38655    637.47052    199.94833   -3689.3387 
 1428000      256.185   -4668.2743      -4174.2   -4668.2743            0    4294.6112    20.027633    20.207424    20.581591    8329.5116    3279.3752    4714.6137    4889.8449    608.76307   -952.17814    430.47562   -3652.5018 
 1429000    263.76407   -4649.7181   -4141.0269   -4649.7181            0    3078.5628    20.113812    19.968053    20.889241    8389.8224    2931.1684    3901.0532    2403.4668   -419.25462   -713.79923    1006.7817   -3764.3434 
 1430000    269.52652   -4682.2712   -4162.4667   -4682.2712            0    3153.9813    20.065498    20.015249    21.024945     8443.953    2573.1475    2956.0222    3932.7743   -401.36974   -533.31085    199.32474   -3774.0653 
 1431000    258.40965   -4691.6305   -4193.2657   -4691.6305            0    3633.7639    20.048065    20.018935    20.907442    8391.0118    3227.6481    4536.8531    3136.7904   -536.58171   -1112.9691    100.97587   -3748.5864 
 1432000    264.08687   -4692.2188   -4182.9051   -4692.2188            0    4057.5105    20.248401    20.051685    20.808689    8448.6302    5236.5658    3001.5232    3934.4426   -104.37927    1690.8384    1169.5839   -3682.9605 
 1433000    272.41607   -4733.2374   -4207.8601   -4733.2374            0    3649.1878    19.709338    20.208381    20.963834    8349.7655    6401.3928    1714.9535    2831.2171   -165.79558   -805.30459     388.9906   -3763.4885 
 1434000    249.75308   -4681.3522   -4199.6824   -4681.3522            0    3332.6776    20.248464    20.001116    20.910892    8468.7415    3095.9806      2962.98    3939.0721    -704.0958     106.0572    200.43587   -3788.0703 
 1435000    265.59328   -4672.4436   -4160.2246   -4672.4436            0     2756.793    19.982001    20.163415    20.974401    8450.6991    3960.5171    1232.1898     3077.672   -112.16064    1493.0998    272.94356   -3820.4643 
 1436000    270.76755   -4672.6793   -4150.4813   -4672.6793            0    3688.3682    20.255619    19.949804    20.737408    8379.8959    2143.3842    5811.9206    3109.7998    911.53955   -29.829486    466.85636   -3699.7177 
 1437000    261.70834   -4700.0438   -4195.3173   -4700.0438            0    4975.2804    20.057635    20.214239     20.70518     8394.912    5228.8786    5114.8929    4582.0696    195.29974   -1022.2354   -342.83594   -3586.1878 
 1438000    265.45682   -4681.3402   -4169.3844   -4681.3402            0    2499.7847    20.359339    19.908248    20.775669    8420.7685    329.28143    3552.9218     3617.151    710.80129   -1967.9809     129.2947   -3862.3902 
 1439000    259.17074   -4714.3812   -4214.5486   -4714.3812            0    1726.6004    20.027393    20.189987    20.912685    8456.1026    3243.0977     -90.1895     2026.893    62.709004   -1028.5687   -50.577242   -4001.6181 
 1440000    274.47497   -4672.0773   -4142.7292   -4672.0773            0    3304.9428    20.143181    19.911981    21.176311    8493.6199    3213.9642    4294.2627    2406.6015    204.75945   -117.72217    1971.9528   -3733.3435 
 1441000    261.23671   -4676.0549   -4172.2379   -4676.0549            0    3281.5664    20.061397    19.948376    20.968274    8391.3419    1734.3898    4360.4437    3749.8658    825.75892     546.9228    1571.2328   -3770.6427 
 1442000    262.83326   -4674.9843   -4168.0882   -4674.9843            0    5008.9791    19.785313    20.197501    20.864752    8337.8443    6468.8701    2637.5968    5920.4703    4.6308526   -76.458335    422.13687   -3559.0018 
 1443000    263.05395   -4683.9374   -4176.6157   -4683.9374            0      1471.55    20.155459    20.123868    21.010243    8521.8764    1431.8584     1368.484    1614.3074    206.25102   -256.54852    184.43141   -3993.7273 
 1444000    271.22029   -4682.9613   -4159.8901   -4682.9613            0    6030.3877    20.034685    19.821943    21.046884    8358.2725    5855.1072    6908.0717    5327.9841   -118.55987    69.777694    -627.3723    -3424.805 
 1445000    260.09157    -4682.818   -4181.2095    -4682.818            0    3440.3954    19.842334    20.152919    20.981921    8390.2704     4853.789    2055.8601    3411.5372    153.56139     243.7203   -589.94551   -3760.2307 
 1446000    263.38487   -4689.2233   -4181.2634   -4689.2233            0    3403.9947    19.956439    19.954458    20.973407    8352.0286    4426.5702    3537.7541    2247.6597    42.109789   -497.27028   -576.16692   -3766.6372 
 1447000    258.75578   -4675.3752   -4176.3429   -4675.3752            0    5050.1153    20.126854    20.235417    20.523143    8358.5691    5019.4145    3528.8718    6602.0598      653.654     883.0348     253.1889    -3560.728 
 1448000    250.81655   -4654.2326   -4170.5118   -4654.2326            0    6413.1606    20.150655    20.147842    20.658238    8387.0841    5094.0261     7145.994    6999.4616    365.49155    942.46698   -68.015362   -3386.0731 
 1449000    269.45057   -4667.5766   -4147.9185   -4667.5766            0    4327.1618    20.101977    19.998271     20.79298    8358.8774    3752.3467    4643.4074    4585.7314   -5.8131584   -102.24776   -93.154413   -3620.4131 
 1450000    250.26043   -4677.6715   -4195.0232   -4677.6715            0    3086.1225    20.135342    20.006373    20.983807    8453.0152    3257.3736    3836.6755    2164.3186   -25.656531    221.77111    147.60657   -3814.5705 
 1451000     256.1845   -4677.4648   -4183.3915   -4677.4648            0    4270.1202    20.072334    19.804457    21.042611     8364.894    4487.7782     4221.029    4101.5533    441.44256    293.10844    555.11299    -3662.465 
 1452000    266.17168   -4698.3282   -4184.9937   -4698.3282            0    2648.1068    20.102266    20.124837     20.98709    8490.4281    3716.5323    1214.8527    3012.9355   -10.391175   -529.75634    86.158304   -3857.0941 
 1453000    261.01193   -4706.5658   -4203.1823   -4706.5658            0    4091.8243    20.154255     20.08021    20.736808    8392.2209     4218.089    2771.9826    5285.4012   -281.72728   -1171.5801   -1876.5111    -3702.376 
 1454000    254.82677   -4698.4582   -4207.0033   -4698.4582            0     2191.443    20.152038    20.301373    20.660613    8452.5468    1432.7709    1406.9055    3734.6527    595.09546    605.13673   -1044.8519   -3936.8604 
 1455000    268.49182   -4734.2093   -4216.4002   -4734.2093            0    3280.2102    20.198259    19.943274    20.851102    8399.2287    3012.0547    3734.0125    3094.5633    135.77977    547.35432    472.14916   -3814.5937 
 1456000    257.82817   -4711.3559   -4214.1126   -4711.3559            0     3722.699    20.042336      20.0098    21.136339    8476.5833    3912.2143    4437.5979    2818.2849   -8.9774518   -651.02728    143.96469   -3753.9041 
 1457000    268.64352   -4702.7113   -4184.6096   -4702.7113            0     2495.743    20.190925     20.02525     20.77924    8401.6349     2239.859    1454.6121    3792.7579   -173.28904    -1578.903   -561.53596   -3878.8082 
 1458000    267.41077   -4686.3816   -4170.6574   -4686.3816            0    3807.7605    20.005461    20.428493    20.564862    8404.4772     4706.439    1992.4805     4724.362    512.20194   -7.7112039    -973.9499   -3703.9376 
 1459000    266.67654   -4682.1208   -4167.8126   -4682.1208            0    4767.0565    20.112161    20.045114    20.792802    8382.6299    3306.8341    6685.2801    4309.0553   -84.510602    259.14738    951.67139   -3585.0302 
 1460000    267.08979   -4670.3368   -4155.2317   -4670.3368            0    4601.3386    20.048977    20.040715    20.904533     8399.354    4492.5273    5013.3892    4298.0993   -543.19698    112.21196    100.26794   -3591.5863 
 1461000    264.02113   -4684.5654   -4175.3784   -4684.5654            0    2651.2313    19.968662    19.994577    21.249023    8483.9899    3486.2424    2399.1507    2068.3008   -402.94978   -1021.1704    1136.2837   -3847.3408 
 1462000    256.50011   -4671.9467   -4177.2647   -4671.9467            0       4332.9    20.089522    20.111986    20.765602    8390.1378    3322.2695    4965.2948    4711.1358    810.36965    858.34186    844.68587   -3647.0843 
 1463000    277.61598    -4691.832   -4156.4263    -4691.832            0     4831.874    20.049961    20.012954    20.760896    8330.4954    5389.5434    3989.8897    5116.1888   -522.48696   -73.130515    558.93964   -3569.3935 
 1464000     263.5612   -4679.4021   -4171.1022   -4679.4021            0    5361.9287    20.099799    19.974082    20.888429    8386.1827    6638.9706    5244.3505    4202.4649    342.00662   -467.83781    -1306.197   -3515.3176 
 1465000    250.22454   -4716.0652   -4233.4862   -4716.0652            0    2306.4376    20.294169    19.908313    20.960384    8468.4704    1061.7602    3623.6692    2233.8834   -495.62431   -768.93092   -715.38205    -3948.632 
 1466000    259.67838   -4693.5934   -4192.7818   -4693.5934            0    3381.5882    19.746954    20.144006    21.033074    8366.5944    5035.7057    2231.3678    2877.6912    103.83615    42.958908   -35.372052   -3780.1665 
 1467000     248.1088   -4698.9333   -4220.4346   -4698.9333            0    3891.5391    20.026578    20.103761    20.828411     8385.717     4247.388    4400.5383     3026.691    482.16772   -1088.6681   -332.91372   -3744.5107 
 1468000    257.02416     -4655.14   -4159.4473     -4655.14            0    2677.0804    20.273822    20.167813    20.809951    8508.7444    2898.7401    2069.2416    3063.2594   -134.39744    393.31437   -523.41275   -3827.2449 
 1469000    256.69602   -4652.7997   -4157.7399   -4652.7997            0    4602.7633    20.040263    20.117611    20.704879    8347.4252    6550.8425    4067.1713    3190.2761   -44.486075    1924.5333    343.34118   -3597.4057 
 1470000    253.77434   -4700.1517   -4210.7265   -4700.1517            0    3567.8217    20.350886    20.063927    20.629805    8423.5348    4106.5556    2699.2793    3897.6303    506.56961    1060.7806   -210.50394   -3772.4246 
 1471000    254.15592   -4682.7473   -4192.5863   -4682.7473            0     2202.239    20.088639    20.089892    21.000903    8475.5143    1559.5305     2950.124    2097.0625    50.196376   -150.45198   -25.523322   -3920.3748 
 1472000     255.3983   -4697.5895   -4205.0324   -4697.5895            0    4360.4076     19.95998     19.91114     21.11886     8393.183    4247.4412    4709.7076    4124.0741    19.584089    917.89144    195.50729   -3671.2925 
 1473000     255.2163   -4686.0374   -4193.8313   -4686.0374            0    4998.0556    19.933138     20.14327    20.870533    8379.9068    7817.2503    2590.1891    4586.7274   -754.79666    305.66227    1159.5181   -3583.0072 
 1474000    266.56382   -4697.8341   -4183.7433   -4697.8341            0    4001.4543    20.337606    20.000616    20.602807     8380.493    2745.5507    3915.0139    5343.7984   -801.96904    981.13912   -165.72531    -3694.682 
 1475000    260.43402   -4700.8224   -4198.5535   -4700.8224            0    3782.7816    20.216418    20.156167    20.606073    8396.6762    4468.6929    3060.0981    3819.5538    275.30096   -171.00618    183.17874   -3735.3257 
 1476000    263.49287   -4698.5669   -4190.3987   -4698.5669            0    4141.0281    20.163161    20.090743     20.75253    8406.7023    3763.4262    3248.7124    5410.9457   -384.72456   -305.92224     340.9626   -3682.6957 
 1477000    273.80811   -4644.1497   -4116.0877   -4644.1497            0    3551.8855    20.012897    19.923582    21.025063    8383.2936    3576.3211    3951.1762    3128.1593   -540.86905   -1104.3045   -93.089515    -3681.828 
 1478000    262.78734   -4654.5826   -4147.7751   -4654.5826            0    3644.3921    20.030166    19.901977    21.170837    8439.5402    3476.0578    4719.5998    2737.5186    455.10071    265.55344    836.82221   -3699.2159 
 1479000     276.3059   -4697.3922   -4164.5131   -4697.3922            0    3972.5252    20.060218    20.142755    20.777356    8395.4656     4258.379    3883.4978    3775.6988   -58.809482    1109.2701    702.81011     -3678.12 
 1480000    279.72885    -4677.101   -4137.6204    -4677.101            0    3332.8782    20.117511    20.106631    20.978414    8485.6717    4742.8779    2076.3553    3179.4013   -771.09841    898.23317    61.991712   -3725.1607 
 1481000    268.84543    -4673.616    -4155.125    -4673.616            0    4312.1584    20.263624     19.81877    20.992019    8430.3969    3763.7038    5710.3734     3462.398    70.116055   -666.47873    157.50014   -3624.9508 
 1482000     273.9528   -4695.6265   -4167.2855   -4695.6265            0    3635.2089    19.779062    20.279315    20.921401    8391.6958    3410.7999    4253.1167    3241.7099   -27.224992    652.58906    851.70027   -3722.3931 
 1483000     254.2792   -4679.0076   -4188.6088   -4679.0076            0    4823.3573    19.966681    20.082744     20.86875    8368.0714    5417.2896    5357.6842    3695.0982   -222.73382   -648.09704    1538.1151   -3599.9676 
 1484000    269.86513    -4686.999   -4166.5414    -4686.999            0    3950.9403    20.163395    20.118987    20.898447    8477.8117    3231.5857    3791.3601     4829.875    482.86876   -354.71322    894.57759   -3678.0464 
 1485000    251.33842   -4693.7908   -4209.0636   -4693.7908            0    3795.6906     20.34145    19.842759    20.790649    8391.7399    3545.6375    2939.7496    4901.6847    555.24385   -1218.0758    163.69496   -3744.5283 
 1486000    261.61883   -4706.1839   -4201.6299   -4706.1839            0    3150.2254    20.213406    19.777753    20.936302    8369.8256    1365.0142    4541.5805    3544.0814    292.26514    327.12606     749.7823   -3817.0967 
 1487000    265.19698   -4690.7004   -4179.2457   -4690.7004            0    3574.7144    19.936926    20.084516    21.020245    8417.0003    2604.2903    4445.8566    3673.9963   -414.20264    1317.7923    -127.0091   -3740.4377 
 1488000    266.40781   -4677.7808   -4163.9909   -4677.7808            0    4299.8831     20.08585    19.933867    21.005136    8410.2182    3980.6376    6077.9164    2841.0952    927.63984   -765.36906   -231.27167   -3636.5913 
 1489000    252.76774   -4681.2763   -4193.7925   -4681.2763            0     4239.984    20.030204    20.092681    20.816026    8377.6286     4461.785    4418.0754    3840.0917    370.23212   -1090.8809    -350.7606    -3675.755 
 1490000    265.18552   -4675.0206    -4163.588   -4675.0206            0     3376.806    20.363875    20.081349    20.554991    8405.6363    3160.6883    2416.1743    4553.5553    866.35921   -179.19426   -463.06027   -3749.6335 
 1491000    251.29099    -4698.896   -4214.2602    -4698.896            0    3470.1854    20.036217     20.22627    20.826041    8439.9182    3503.2471    3530.1854    3377.1237   -205.24935    1481.2529   -624.30177   -3787.1236 
 1492000    261.45851   -4680.5741   -4176.3294   -4680.5741            0    3682.2783    20.076909    19.931726    20.869657    8351.3574    2459.5565    4898.4086      3688.87   -135.47094    735.05224    39.401206   -3727.8427 
 1493000    264.31652   -4674.1431   -4164.3865   -4674.1431            0    3891.2325    19.946056    20.235917    20.970495    8464.2523    3710.3309    3454.2278    4509.1387    419.17357     1097.996   -847.66646   -3684.0432 
 1494000    255.56269   -4653.4866   -4160.6125   -4653.4866            0    2470.9808    20.445381     19.90296    20.709286    8427.0972    1842.7852    2364.7593     3205.398    288.92883    751.32952    743.68519   -3856.9275 
 1495000    282.22597   -4678.8794   -4134.5829   -4678.8794            0    2821.0342    20.106731    20.261522    20.843077    8491.3232    3183.5121     2851.587    2428.0037    214.27894   -1038.3587   -487.52253   -3785.2338 
 1496000    270.65701   -4678.5507   -4156.5659   -4678.5507            0    3258.8021     20.37139     19.91696    20.915981    8486.3699    1224.1462    3834.6504    4717.6095    -403.3566    172.47375     721.1864   -3753.2403 
 1497000    259.05476   -4677.3255   -4177.7166   -4677.3255            0    5198.5212    20.203126    19.927484    20.825522    8384.3023    6820.6769    4323.3152    4451.5714   -50.200351    112.73879    464.39906   -3542.0599 
 1498000    264.22596   -4665.6769   -4156.0949   -4665.6769            0     3516.286    19.971144    20.187261    20.922758    8435.2756    3817.5919    3030.7394    3700.5268   -825.89045    1376.2443   -411.66117    -3723.522 
 1499000    248.27197   -4679.4059   -4200.5925   -4679.4059            0    5563.7557    20.152386    20.207901    20.451541    8328.6332    5807.9501    4339.8805    6543.4366   -81.890872    984.92747   -1720.5289   -3524.7933 
 1500000    281.45373    -4676.623   -4133.8158    -4676.623            0     4257.267    20.063233    20.027376    20.922896    8407.1104    4688.0717    4913.3926    3170.3366    448.79419   -1534.4046   -219.71291   -3611.8362 
Loop time of 429.288 on 64 procs for 250000 steps with 972 atoms

Performance: 100.632 ns/day, 0.238 hours/ns, 582.360 timesteps/s
99.1% CPU use with 64 MPI tasks x 1 OpenMP threads

MPI task timing breakdown:
Section |  min time  |  avg time  |  max time  |%varavg| %total
---------------------------------------------------------------
Pair    | 19.921     | 27.707     | 36.141     |  77.8 |  6.45
Bond    | 0.26747    | 0.27717    | 0.29715    |   1.0 |  0.06
Kspace  | 172.72     | 185.23     | 199.68     |  40.3 | 43.15
Neigh   | 3.1667     | 3.7269     | 4.2388     |  15.7 |  0.87
Comm    | 90.098     | 97.806     | 106.53     |  44.5 | 22.78
Output  | 1.2916     | 1.2931     | 1.3047     |   0.2 |  0.30
Modify  | 104.35     | 105.93     | 109.27     |  11.6 | 24.68
Other   |            | 7.319      |            |       |  1.70

Nlocal:        15.1875 ave          19 max          10 min
Histogram: 2 1 4 8 8 12 8 10 10 1
Nghost:        2185.97 ave        2222 max        2165 min
Histogram: 6 14 10 5 12 9 0 3 3 2
Neighs:        4684.45 ave        6416 max        2974 min
Histogram: 1 7 5 13 4 13 7 7 5 2

Total # of neighbors = 299805
Ave neighs/atom = 308.44136
Ave special neighs/atom = 2.0000000
Neighbor list builds = 8480
Dangerous builds = 0

unfix		3
unfix		2
unfix		1

write_data	data.final.${pid}
write_data	data.final.0
System init for write_data ...
PPPM initialization ...
  extracting TIP4P info from pair style
  using 12-bit tables for long-range coulomb (../kspace.cpp:340)
  G vector (1/distance) = 0.37211179
  grid = 24 24 25
  stencil order = 5
  estimated absolute RMS force accuracy = 0.0034436086
  estimated relative force accuracy = 1.0370325e-05
  using double precision FFTW3
  3d grid and FFT values/proc = 2366 288
Last active /omp style is kspace_style pppm/tip4p/omp
WARNING: Not all mixed pair coeffs generated from mixing. Use write_data with 'pair ij' option to store all pair coeffs. (../write_data.cpp:312)

write_restart   restart.lmp.${pid}
write_restart   restart.lmp.0
System init for write_restart ...
PPPM initialization ...
  extracting TIP4P info from pair style
  using 12-bit tables for long-range coulomb (../kspace.cpp:340)
  G vector (1/distance) = 0.37211179
  grid = 24 24 25
  stencil order = 5
  estimated absolute RMS force accuracy = 0.0034436086
  estimated relative force accuracy = 1.0370325e-05
  using double precision FFTW3
  3d grid and FFT values/proc = 2366 288
Last active /omp style is kspace_style pppm/tip4p/omp
Total wall time: 0:07:10
