#include		in.partitions
include		in.temp
variable        temperature equal 128.51
variable	tempDamp equal 100.0
include		in.pressure
variable        pressure equal 6293.8
variable        pressureDamp equal 1000.0 # This is 1 ps
include		in.seed
variable        seed equal 745823

units		real
atom_style	full
box tilt large
read_restart	restart.lmp.${pid}
read_restart	restart.lmp.0
Reading restart file ...
  restart file = 30 Jul 2021, LAMMPS = 30 Jul 2021
  restoring atom style full from restart
  triclinic box = (-10.605187 -9.1346179 0.18286680) to (12.585187 12.124616 21.677132) with tilt (-9.1037007 1.9546122 2.7937954)
  4 by 4 by 4 MPI processor grid
  restoring pair style lj/cut/tip4p/long/omp from restart
  restoring bond style harmonic/omp from restart
  restoring angle style harmonic/omp from restart
  1296 atoms
  864 bonds
  432 angles
Finding 1-2 1-3 1-4 neighbors ...
  special bond factors lj:    0        0        0       
  special bond factors coul:  0        0        0       
     2 = max # of 1-2 neighbors
     1 = max # of 1-3 neighbors
     1 = max # of 1-4 neighbors
     2 = max # of special neighbors
  special bonds CPU = 0.010 seconds
  read_restart CPU = 0.020 seconds
include 	in.setup
variable	out_freq equal 1000
variable	out_freq2 equal 10000
variable	out_freq3 equal 1000

timestep	2.0

neigh_modify    delay 7 every 1

include		in.tip4p
# This is TIP4P/Ice

# create groups ###
group ox type 2
432 atoms in group ox
group hy type 1
864 atoms in group hy

# set charges - beside manually ###
set group ox charge -1.1794
Setting atom values ...
  432 settings made for charge
set group hy charge 0.5897
Setting atom values ...
  864 settings made for charge

# ### TIP3P Potential Parameters ###
pair_style lj/cut/tip4p/long/omp 2 1 1 1 0.1577 8.5
pair_coeff 1 1*2 0.000 0.000
pair_coeff 2 2 0.21084 3.1668
bond_style  harmonic
bond_coeff  1 450 0.9572
angle_style harmonic
angle_coeff 1 55 104.52
kspace_style pppm/tip4p/omp 1.0e-5
pair_modify tail yes

thermo          ${out_freq}
thermo          1000
thermo_style    custom step temp pe etotal epair emol press lx ly lz vol pxx pyy pzz pxy pxz pyz enthalpy

restart 	${out_freq3} restart.lmp.${pid} restart2.lmp.${pid}
restart 	1000 restart.lmp.${pid} restart2.lmp.${pid}
restart 	1000 restart.lmp.0 restart2.lmp.${pid}
restart 	1000 restart.lmp.0 restart2.lmp.0


include         in.dump
dump            myDump all atom ${out_freq2} dump.water.${pid}
dump            myDump all atom 10000 dump.water.${pid}
dump            myDump all atom 10000 dump.water.0
dump            myDump2 all dcd ${out_freq2} dump.dcd
dump            myDump2 all dcd 10000 dump.dcd
dump_modify     myDump append yes
dump_modify     myDump2 append yes


variable natoms 	equal  "count(all)"                        # NUMBER ATOMS
variable H      	equal  "enthalpy/v_natoms"                 # ENTHALPY-per-atom
variable Vol      	equal  "vol/v_natoms"                 # volume-per-atom
fix AVG all 		ave/time ${out_freq} 1 ${out_freq} v_Vol v_H file vol_enthalpy.dat
fix AVG all 		ave/time 1000 1 ${out_freq} v_Vol v_H file vol_enthalpy.dat
fix AVG all 		ave/time 1000 1 1000 v_Vol v_H file vol_enthalpy.dat


timer           timeout 10:00:00 every 1000
New timer settings: style=normal  mode=nosync  timeout=10:00:00

fix 		1 all shake 1e-6 200 0 b 1 a 1
       0 = # of size 2 clusters
       0 = # of size 3 clusters
       0 = # of size 4 clusters
     432 = # of frozen angles
  find clusters CPU = 0.004 seconds
fix             2 all nph tri ${pressure} ${pressure} ${pressureDamp}
fix             2 all nph tri 6293.8 ${pressure} ${pressureDamp}
fix             2 all nph tri 6293.8 6293.8 ${pressureDamp}
fix             2 all nph tri 6293.8 6293.8 1000
fix             3 all temp/csvr ${temperature} ${temperature} ${tempDamp} ${seed}
fix             3 all temp/csvr 128.51 ${temperature} ${tempDamp} ${seed}
fix             3 all temp/csvr 128.51 128.51 ${tempDamp} ${seed}
fix             3 all temp/csvr 128.51 128.51 100 ${seed}
fix             3 all temp/csvr 128.51 128.51 100 745823


run             250000
PPPM initialization ...
  extracting TIP4P info from pair style
  using 12-bit tables for long-range coulomb (../kspace.cpp:340)
  G vector (1/distance) = 0.36838709
  grid = 27 40 32
  stencil order = 5
  estimated absolute RMS force accuracy = 0.004316886
  estimated relative force accuracy = 1.3000174e-05
  using double precision FFTW3
  3d grid and FFT values/proc = 4845 560
Last active /omp style is kspace_style pppm/tip4p/omp
Neighbor list info ...
  update every 1 steps, delay 7 steps, check yes
  max neighbors/atom: 2000, page size: 100000
  master list distance cutoff = 10.8154
  ghost atom cutoff = 10.8154
  binsize = 5.4077, bins = 7 5 4
  1 neighbor lists, perpetual/occasional/extra = 1 0 0
  (1) pair lj/cut/tip4p/long/omp, perpetual
      attributes: half, newton on, omp
      pair build: half/bin/newton/tri/omp
      stencil: half/bin/3d/tri
      bin: standard
Per MPI rank memory allocation (min/avg/max) = 9.412 | 9.421 | 9.433 Mbytes
Step Temp PotEng TotEng E_pair E_mol Press Lx Ly Lz Volume Pxx Pyy Pzz Pxy Pxz Pyz Enthalpy 
17000000    132.24093   -6668.1256   -6327.9439   -6668.1256            0     7181.407    23.190373    21.259234    21.494265    10596.878    7122.5057    6956.2913    7465.4239    672.14505   -501.12377     -233.294   -5218.0962 
17001000    129.38801   -6689.3378    -6356.495   -6689.3378            0     5040.898      23.2974    21.266239    21.545188    10674.522    4625.3215    5200.7531    5296.6192    482.58974   -144.45654   -512.78186   -5571.7434 
17002000    133.64247   -6689.0335   -6345.2464   -6689.0335            0    6441.3186    23.146646     21.24865    21.584391    10615.958     5934.535    6438.1598    6951.2611    -631.9663    526.68468    826.64972    -5347.983 
17003000    128.83936   -6685.8882   -6354.4568   -6685.8882            0    5706.1033    23.236437    21.220081    21.552227    10626.953    6189.1601    4817.8827     6111.267    -238.9768   -332.39403     303.3065   -5470.1067 
17004000    120.44293   -6683.0781    -6373.246   -6683.0781            0    5884.0938    23.157658    21.332219    21.538226    10639.975    5831.5229    5130.6056    6690.1528   -387.13548   -238.01976    1237.1639   -5460.1928 
17005000    128.23321   -6678.1399   -6348.2677   -6678.1399            0     7085.361    23.193754    21.206375    21.516995    10583.251    6614.1559    7132.4759    7509.4512    763.20256   -405.12442   -459.38736   -5254.6716 
17006000    133.18616   -6683.3086   -6340.6953   -6683.3086            0    6170.9451    23.222265    21.262766    21.471753    10602.098     6131.764    6642.9264    5738.1449    -49.59734    -536.1886    87.993611   -5386.5393 
17007000    125.84282   -6684.0896   -6360.3666   -6684.0896            0    6882.8308    23.146507    21.199702    21.586622    10592.534    7845.7267    6676.8143    6125.9513    207.33077   -82.170155    68.180302   -5297.0983 
17008000    129.96354   -6678.8843    -6344.561   -6678.8843            0    6446.8291    23.220005    21.244772    21.512887    10612.387    5765.3328    6823.4216    6751.7329    61.638034    220.75619    243.29747   -5346.7802 
17009000    133.40031   -6672.5835   -6329.4193   -6672.5835            0     6514.166     23.20079    21.256891    21.508738    10607.608    6041.6591    7066.8113    6434.0277   -500.79789    -160.4651    18.684716   -5321.6708 
17010000    131.16772   -6685.5855   -6348.1645   -6685.5855            0    5727.6066    23.218642    21.225497    21.580011    10635.217    5455.8602    5472.7968    6254.1627    351.02572   -288.48543    658.76108   -5459.7914 
17011000    129.19772   -6686.5354   -6354.1821   -6686.5354            0    5613.4077    23.264688    21.223847    21.529846     10630.71     4384.401    6749.5894    5706.2329   -226.60747    236.32084   -268.76202   -5483.8906 
17012000    129.77092   -6666.4143   -6332.5865   -6666.4143            0      6414.42    23.258938    21.251204    21.517297    10635.579    5938.7298    6500.7495    6803.7806   -189.90646    101.06921   -206.97147   -5337.6522 
17013000    130.97526   -6672.9689    -6336.043   -6672.9689            0    6303.3221    23.150896    21.267694     21.55394    10612.431     6100.451    5935.1072    6874.4082    351.00175    391.11059      339.799   -5360.4689 
17014000    127.98653    -6699.545   -6370.3075    -6699.545            0    5431.7543    23.209532    21.296717    21.501988    10628.149    6069.8045    3632.8801    6592.5781    173.96765    533.60138    820.41556    -5528.382 
17015000    133.09106    -6691.009   -6348.6403    -6691.009            0    6862.7457    23.085595    21.368434    21.489206     10600.69    7846.1643    5744.9781    6997.0947   -587.74255   -747.78749    259.32743   -5287.6586 
17016000    128.08906   -6684.1338   -6354.6325   -6684.1338            0    5665.7719    23.166608    21.341251    21.513636    10636.436     5620.071    4959.9496    6417.2952    99.837465    175.59841    533.52567   -5475.7494 
17017000    134.38088   -6695.9278   -6350.2412   -6695.9278            0    6223.3555    23.014946    21.343045    21.572645    10596.678     6592.116    6037.2338    6040.7167   -306.87425    331.48892     905.4821   -5388.4734 
17018000    124.67525    -6688.901   -6368.1815    -6688.901            0    5975.2639    23.213322    21.365627    21.403242    10615.305    6030.4751     5275.212    6620.1047    129.68004   -194.98308   -431.36228   -5443.1309 
17019000    127.44348   -6685.4104   -6357.5698   -6685.4104            0    6047.4358    23.042633    21.374077    21.554524    10615.927    6423.5457    5737.1364    5981.6252    513.79582   -1089.2809   -98.217532   -5421.2912 
17020000     125.1088   -6681.0608   -6359.2261   -6681.0608            0    6373.4237    23.094796    21.335933    21.512361    10600.195    7360.2695    4817.5809    6942.4208   -288.26311    756.08269     866.5066   -5373.9396 
17021000    127.30503   -6693.5967   -6366.1123   -6693.5967            0     6463.104    22.992219    21.366094    21.556078    10589.508    6736.2935    6756.9035     5896.115    352.41976   -679.64653   -24.098507   -5367.9692 
17022000    131.20606   -6683.1285   -6345.6089   -6683.1285            0    6348.2253    23.149187    21.415788    21.368334    10593.525    6819.3102    5581.1386    6644.2272   -268.83554    726.21812   -668.88834   -5364.8354 
17023000    126.23007   -6684.2155   -6359.4963   -6684.2155            0    6332.5021    23.053391     21.34715    21.609683    10634.648    6256.3057    6660.1215    6081.0791   -130.43992    343.86696    258.43613   -5377.3542 
17024000    139.26029   -6673.9629   -6315.7242   -6673.9629            0    6681.7691    23.189554    21.292127    21.454347     10593.19    7357.9546    6370.6636    6316.6891   -744.57633    304.79358   -184.52817   -5283.4524 
17025000    133.49962   -6678.0611   -6334.6415   -6678.0611            0    5775.9983    23.093885    21.330333    21.603917    10642.095    6572.6725    6186.8792    4568.4433   -426.16531    36.795678   -966.52638   -5438.1832 
17026000    131.54031   -6666.7667   -6328.3872   -6666.7667            0    7264.9904    23.176061    21.297831    21.455302    10590.334    6684.1538    6948.2591    8162.5583   -252.63829   -175.81453    -367.2356   -5206.3156 
17027000    131.70343   -6679.2765   -6340.4774   -6679.2765            0    6740.0538     23.20569    21.236731    21.507228    10599.041    6795.6264    6237.2617    7187.2732   -712.06751    1741.2947   -25.124504   -5298.6259 
17028000    125.15089   -6691.5791   -6369.6361   -6691.5791            0    5454.7894    23.126942    21.315661    21.597094    10646.635    6497.1414    4232.1356    5635.0913   -430.59149   -72.305129     1226.856   -5522.6696 
17029000    127.46017   -6685.2028   -6357.3193   -6685.2028            0    6495.1489     23.18189    21.267845    21.450078    10575.508    6745.6174    7032.2784     5707.551    108.05016   -808.26737   -867.10253   -5355.5535 
17030000    131.52594   -6663.8019   -6325.4595   -6663.8019            0    7338.9171    23.078202    21.276902    21.558575    10585.964    8196.1854    7496.9799    6323.5859   -278.87148   -423.30781   -327.15784   -5192.4376 
17031000    129.01385   -6670.6177   -6338.7374   -6670.6177            0    5934.8067     23.11101    21.307321    21.600321    10636.726    5927.3689    6099.5846    5777.4665    927.20686    43.572312    774.37103   -5418.0961 
17032000    125.36604   -6661.7718   -6339.2753   -6661.7718            0    6606.6791    23.173707    21.310128    21.479736    10607.438    6587.5909    6697.7807    6534.6657   -147.99819    206.06315    509.28882   -5317.2312 
17033000    130.20239   -6684.9284   -6349.9906   -6684.9284            0      6619.23    23.147543    21.236119    21.565724    10600.933      6423.83     7617.779    5816.0811    102.22102    95.362545   -1385.4026    -5326.633 
17034000    129.22735   -6692.6584   -6360.2289   -6692.6584            0    5844.2387    23.178244    21.302556    21.504172    10617.811     5624.684    6504.6313    5403.4008   -23.573557   -382.18004    122.29088   -5455.2493 
17035000    127.12305   -6693.2468   -6366.2305   -6693.2468            0    5996.0351    23.248695    21.158809    21.610693    10630.617    6309.7684    6725.7629    4952.5741   -223.10844    255.76036   -150.55752   -5436.6252 
17036000    127.66756   -6686.7687   -6358.3517   -6686.7687            0    6443.7713     23.24091    21.248868    21.455469    10595.634    5896.3767    6971.3586    6463.5788    717.52948   -820.13994    -102.8917   -5362.6186 
17037000    128.92275   -6675.6102   -6343.9643   -6675.6102            0    6667.2466     23.23546    21.083117    21.647623     10604.65    6901.5254    7711.8234    5388.3909    1380.0155   -1562.0756   -1195.4848   -5312.8217 
17038000    126.36168   -6677.3175   -6352.2598   -6677.3175            0    5800.8662    23.341494    21.215105    21.458265    10625.967     5079.152    6237.8938    6085.5528    241.03367   -915.91516    208.19708   -5453.3064 
17039000    130.85078   -6684.2229   -6347.6172   -6684.2229            0    6382.5849    23.260741      21.1011    21.611539    10607.532    5879.9534    7465.6259    5802.1753     200.8092    43.993206   -814.18101   -5360.2315 
17040000    123.70692   -6674.7178   -6356.4893   -6674.7178            0    6535.8758    23.393156    21.149502    21.434743    10604.917    5862.1363    7042.7722    6702.7188   -971.33259    442.58059   -281.76939   -5345.6388 
17041000    121.98602   -6676.4367   -6362.6351   -6676.4367            0    6434.8646    23.277116    21.063897     21.61612     10598.53    5786.3419    7205.3923    6312.8595   -657.91261    280.09532    180.76562   -5368.0065 
17042000     129.8284   -6689.3126    -6355.337   -6689.3126            0     6017.444    23.299661    21.146318    21.540413    10613.005    6405.6371    5632.2104    6014.4843   -640.96299   -107.89263    -60.03096   -5423.9582 
17043000    130.85147   -6680.7422   -6344.1347   -6680.7422            0    6440.6627    23.269837    21.182402    21.504109    10599.613    5665.5832    7101.0181    6555.3867   -502.90815   -174.66312   -273.70088   -5348.5082 
17044000    134.01998   -6693.3253   -6348.5671   -6693.3253            0    6082.5552    23.270226    21.067791    21.663172    10620.419     5774.631    7095.5859    5377.4485   -152.17291    480.82445    213.26908   -5406.4528 
17045000    121.44747   -6694.7816   -6382.3653   -6694.7816            0    6776.6253    23.226756      21.2521    21.483004    10604.383    6331.2871    6414.3792    7584.2095    -87.05501    469.90493    545.87659   -5334.3328 
17046000    126.63878   -6673.5556    -6347.785   -6673.5556            0    5439.7078    23.220791    21.253305    21.591255    10655.685    5333.7205    6424.6767    4560.7261    964.60872   -864.70859   -637.99413   -5502.4423 
17047000    130.23716   -6695.3087   -6360.2815   -6695.3087            0    6890.2957    23.124995     21.28762    21.478756    10573.478    7710.8523    6479.3144    6480.7204    67.347514   -1294.2671    871.82646   -5297.7749 
17048000     130.9742   -6677.4761   -6340.5529   -6677.4761            0    6075.6107    23.127272    21.288236    21.578658    10624.011    6097.5801    6107.9323    6021.3197    358.79943   -166.63623    270.26222    -5399.196 
17049000     133.8834   -6682.4707   -6338.0638   -6682.4707            0    6282.5919     23.16733    21.363547    21.433469    10608.202    5574.0619    6591.6301    6682.0838   -590.55421    553.43966   -22.650491   -5366.0856 
17050000    131.74847   -6686.4288   -6347.5139   -6686.4288            0    7022.7347    23.089052    21.275459    21.526299    10574.368    7342.0987    7219.8798    6506.2255    501.27896   -758.62443    389.43291   -5264.4937 
17051000    125.36387   -6662.8444   -6340.3535   -6662.8444            0    6462.1801    23.163359    21.293535     21.51929    10613.954    5883.7648    7709.5044    5793.2711    954.81539   -815.75158   -668.17153   -5340.0491 
17052000    129.13129   -6695.5652   -6363.3829   -6695.5652            0    5896.6499    23.166477    21.302761    21.527188    10623.881    5837.8879    5658.8875    6193.1744    73.713392   -143.29901   -941.29709   -5449.7653 
17053000    126.13686   -6688.1729   -6363.6935   -6688.1729            0    5730.8293    23.249178    21.338176    21.410101    10621.445     5970.992    5921.2335    5300.2624    210.46244   -182.38174   -1149.4406   -5475.9716 
17054000    128.00346   -6671.0665   -6341.7854   -6671.0665            0    6755.2616    23.116253    21.251434    21.628864    10625.256    7004.1235    6698.4947    6563.1666   -324.23875     856.6636    694.56676   -5295.0004 
17055000    131.20843   -6681.2701   -6343.7444   -6681.2701            0    5834.9589    23.197144    21.264739    21.525386    10618.068    5979.5034    5980.7324    5544.6408    816.38897   -5.3057618    12.231655   -5440.1798 
17056000    129.94459   -6663.7802   -6329.5057   -6663.7802            0    7120.7588    23.217352    21.262398    21.455696    10591.746    6571.5371    7453.3196    7337.4196    118.20881   -1194.6801    331.21049   -5229.5639 
17057000    133.87764   -6689.0437   -6344.6517   -6689.0437            0    7027.1762    23.172935     21.18738    21.497929    10554.919    6679.9289     6566.433    7835.1667    277.15879    286.41523    1405.9538   -5262.9396 
17058000    131.07494   -6686.8618   -6349.6795   -6686.8618            0    7418.5785     23.12137    21.237504    21.511773    10563.145    7434.6267    7062.6772    7758.4317   -49.033248    167.69077    250.70473   -5206.8279 
17059000    125.82963   -6675.0766   -6351.3875   -6675.0766            0    5533.8946    23.295658    21.254057    21.475823    10633.265    5078.5857    5858.5667    5664.5315    873.66203   -688.29097   -375.16493   -5493.2174 
17060000    127.19767   -6698.8733    -6371.665   -6698.8733            0    5861.0415    23.249544    21.168868    21.596843    10629.243    5058.5196    6950.1393    5574.4655   -69.872587    495.60911    945.62247   -5463.1063 
17061000    125.04344   -6673.4501   -6351.7834   -6673.4501            0    6911.2561    23.218271    21.204358    21.517641    10593.749    7105.7955    6187.5177     7440.455    563.99348   -968.93894     334.9183   -5284.0016 
17062000    129.74247   -6680.5639   -6346.8093   -6680.5639            0    5787.7265    23.192818    21.311637    21.530371    10641.965    6552.4558    5603.7773    5206.9466   -1160.0456   -807.85958   -603.51359   -5448.5417 
17063000     132.8915   -6667.1469   -6325.2916   -6667.1469            0    7556.6494    23.138597    21.241156    21.531113    10582.339    8434.7021    7127.6574    7107.5889   -171.41819    -833.5243    322.47825   -5159.0546 
17064000    126.14221   -6682.7139   -6358.2208   -6682.7139            0    5258.8852    23.187568    21.342028    21.505197    10642.271    5285.5223    4846.5685    5644.5646    239.71565   -100.26164   -51.250167   -5542.0071 
17065000    121.07413   -6685.6612   -6374.2054   -6685.6612            0    6657.7006     23.05366    21.283629    21.597468    10597.133    6821.7899    6133.7644    7017.5475   -117.98281   -424.55611    -109.4041    -5345.269 
17066000    132.19435   -6673.3054   -6333.2435   -6673.3054            0    6491.8328    23.231614    21.451801    21.282617    10606.404    6507.4653    5509.0414    7458.9915   -638.07579   -666.05272    -160.4294   -5329.0639 
17067000    123.01394   -6685.0474   -6368.6015   -6685.0474            0    6833.9467     23.00799     21.32988     21.57612    10588.646    6116.0451    7553.2625    6832.5325   -578.49256    178.89018   -130.39402   -5313.2724 
17068000    126.47196   -6688.5357   -6363.1943   -6688.5357            0    6689.2688    23.131258    21.274069    21.513083    10586.502    6603.4217    7117.6874    6346.6972   -326.31619    329.67222    280.76657   -5330.4162 
17069000     125.9169   -6705.8757   -6381.9621   -6705.8757            0    5421.4864    23.202806    21.318983    21.519721     10644.95    5654.0591    5218.8904    5391.5097    522.06068   -879.18041    235.24452   -5540.2998 
17070000     126.2487   -6682.5881    -6357.821   -6682.5881            0    6302.9374    23.129874    21.329622    21.508681    10611.339     7025.353    5777.5249    6105.9343   -1061.7521    611.61041   -792.19026   -5382.4068 
17071000    128.23375   -6683.5176   -6353.6441   -6683.5176            0     5314.936    23.172714    21.324809    21.574139     10660.94    4991.4494    6406.0081    4547.3506   -130.89498    567.35927   -266.20893   -5527.2838 
17072000    133.00672   -6655.5543   -6313.4026   -6655.5543            0    8092.7069    23.067572    21.285405     21.48511    10549.245    8734.0405    7890.5122     7653.568   -733.56227    120.33186   -337.81899   -5068.3403 
17073000    122.17884   -6682.4059   -6368.1083   -6682.4059            0    5377.7285    23.206802    21.305284    21.557841     10658.79    5175.4285    5516.1125    5441.6444    112.10515    10.684922   -268.81039   -5532.1537 
17074000    133.96423   -6694.2177   -6349.6029   -6694.2177            0    6932.2724    23.171646    21.324405    21.417948     10583.07    7511.6502    6145.8236    7139.3435   -306.05728   -492.87049    222.28677   -5279.6537 
17075000    131.23886   -6688.9491   -6351.3452   -6688.9491            0    6470.5757    23.032785    21.260827    21.641079    10597.551    7689.6731    6810.2782    4911.7759   -626.95401  -0.79813075   -1074.5015   -5351.2891 
17076000    127.81534   -6683.8656   -6355.0684   -6683.8656            0    6188.5227     23.17743    21.392454    21.412297     10616.69     6357.055     5286.233    6922.2802    407.51536    238.30724    1087.3892   -5396.8775 
17077000    125.51039    -6683.901   -6361.0332    -6683.901            0    6673.8856    23.029727    21.331355    21.551593    10587.334    7729.9083    6612.1572    5679.5914    291.11817    287.09703   -75.539908   -5330.5492 
17078000    128.61011   -6663.6867   -6332.8451   -6663.6867            0    6278.4481    23.086406    21.441352    21.461381    10623.464    7459.2862    5066.2905    6309.7675   -1285.3265    41.265921   -212.76481   -5360.1105 
17079000    125.57643   -6691.3829   -6368.3452   -6691.3829            0    5384.8234    23.134316    21.460634    21.472118    10660.415     4786.816    5391.9357    5975.7186   -219.36606    235.81936   -234.31875   -5531.1601 
17080000    131.62136   -6670.8667   -6332.2788   -6670.8667            0    6712.3425    22.965879    21.365942    21.622441    10609.864    7211.5734    6057.1278    6868.3262    521.78989   -31.682678    1023.4087   -5293.6513 
17081000    124.28576   -6680.8007   -6361.0831   -6680.8007            0    5335.8912    23.037164    21.502738    21.450547    10625.788    5896.9615    4416.6272    5694.0849    738.60521     319.5878    454.33843   -5534.2002 
17082000    126.12713   -6680.5646   -6356.1102   -6680.5646            0    7120.6498    22.974562    21.430242    21.509921    10590.418     7928.404    6110.0817    7323.4636    556.77151   -1377.4376    182.45253   -5256.3231 
17083000     123.1341   -6674.1564   -6357.4014   -6674.1564            0    5392.1389    23.123651    21.390495    21.542347    10655.412    4658.9645    6110.6289    5406.8233    439.45678    1020.2527   -147.88689   -5519.4724 
17084000    131.53611   -6663.4242   -6325.0556   -6663.4242            0    6584.7599    22.886339    21.407318    21.664509    10614.205    7968.5923    6075.6244     5710.063   -107.68167    338.52308   -203.86585   -5305.7526 
17085000    133.55599   -6698.3318   -6354.7672   -6698.3318            0    7255.7677    23.144104    21.338254    21.403437    10570.189    6000.3187    7336.4701    8430.5142     838.1701    807.50022    680.46998   -5236.2516 
17086000    126.05782   -6687.6334   -6363.3573   -6687.6334            0    6070.4065    23.102795    21.281632    21.602969    10621.427    6412.2969     6653.509    5145.4136   -531.85958    976.91775   -592.90782   -5423.0354 
17087000    127.70818   -6698.3295    -6369.808   -6698.3295            0    6302.1212    23.212201    21.243356    21.481676    10592.723    6146.6355     6325.614     6434.114    243.00343    535.23446   -63.304516   -5396.2311 
17088000    129.97945   -6688.0146   -6353.6504   -6688.0146            0    5087.6296    23.274208    21.236018    21.556355    10654.261     4475.156    5723.0115    5064.7214    298.88418     281.9167   -865.76895   -5563.1271 
17089000    123.26546   -6691.1135   -6374.0206   -6691.1135            0    7927.1376    23.238282    21.124495    21.501622    10555.081    7747.5015    7669.6383    8364.2729   -552.59555    637.32259    705.51864   -5153.7564 
17090000    126.56418   -6686.9825   -6361.4039   -6686.9825            0    5784.8401     23.33598    21.161806    21.499009    10616.887    6423.1715    5778.1066    5153.2422   -817.52079   -23.080812   -382.27456      -5465.7 
17091000    131.30737   -6701.9897   -6364.2095   -6701.9897            0    7378.2634    23.161702    21.128348    21.564563    10553.018    7662.1667    8377.3842    6095.2392   -996.54871   -471.90543   -1096.7911   -5228.6583 
17092000    126.58247    -6677.016   -6351.3903    -6677.016            0     5681.881    23.370496    21.142985    21.494005    10620.661    5401.5657    6407.7396    5236.3376   -184.00681    171.36741    125.27594   -5471.3155 
17093000    128.07109   -6681.9038   -6352.4487   -6681.9038            0    6419.1573    23.270683    21.150649    21.566077    10614.609    6803.3923    6318.2512    6135.8284   -429.26023   -1333.7208    617.32985   -5358.7427 
17094000    130.61555   -6683.6758   -6347.6753   -6683.6758            0    6378.0207    23.287334    21.150318    21.513489    10596.136    6037.6325    6888.7191    6207.7104   -585.90736    658.18807   -282.61119   -5362.0556 
17095000    125.57084    -6700.294   -6377.2707    -6700.294            0    5497.2815    23.323775     21.14793    21.569831     10639.31    4574.0968    6036.0307    5881.7172    979.83263   -43.565095    132.77849   -5524.2937 
17096000    134.73192   -6681.9898   -6335.4002   -6681.9898            0    7137.8825    23.271159    21.133515    21.525086    10586.067    6927.5539    7632.6299    6853.4639   -470.50982    188.39953   -260.06748   -5233.4044 
17097000    127.62364   -6685.8925   -6357.5884   -6685.8925            0     6182.732    23.247312    21.241339    21.518656    10625.999    7020.7556    5012.5822    6514.8581   -397.46231   -779.31793    360.40037   -5399.4548 
17098000    124.55049   -6698.1231   -6377.7245   -6698.1231            0    5886.2036    23.235951    21.182195    21.603935    10633.207     6674.632    6058.7901    4925.1889   -129.76627   -786.15454    -457.2106   -5464.9249 
17099000    128.47922   -6681.9323   -6351.4274   -6681.9323            0    5929.1042    23.278942    21.221429    21.518374    10630.344    5735.2409    6074.8137    5977.2581    -789.6755   -161.73187   -103.46237   -5432.2226 
17100000    125.77974   -6685.0272   -6361.4665   -6685.0272            0    7242.9353    23.142061    21.244085    21.507376    10573.712    8030.0659    7577.8083    6120.9318   -446.50848   -830.61081   -646.47979   -5244.5569 
17101000    127.73833   -6699.5066   -6370.9075   -6699.5066            0    6523.9327    23.245665    21.229996     21.46328    10592.243    6944.4414    6340.3096     6287.047   -841.09004   -608.14911   -824.93639   -5363.1099 
17102000    129.33891   -6693.1392   -6360.4227   -6693.1392            0    5641.4973    23.193739    21.263745    21.603669    10654.622    5090.8466    6393.0291    5440.6161   -170.71948   -213.31604    483.79073   -5483.8089 
17103000    129.81416   -6670.3253   -6336.3863   -6670.3253            0    6334.7442    23.186277    21.312801    21.482435    10615.857    6444.3294     6287.871    6272.0322    -362.4595    155.16634   -416.51661   -5355.6324 
17104000    130.09072   -6688.3245    -6353.674   -6688.3245            0    6188.2329    23.127261    21.305663    21.567408     10627.16    7170.9063     5043.488    6350.3045   -72.663667   -34.219016   -50.265609   -5394.5831 
17105000    128.53414   -6680.7826   -6350.1363   -6680.7826            0    5355.2418    23.211452     21.37034    21.470796    10650.301     4988.458    4946.4821    6130.7855   -496.53244   -353.46887    754.57289   -5518.3402 
17106000    126.41462    -6689.426   -6364.2321    -6689.426            0    6496.9726    23.155208    21.282935    21.513799    10602.232    6348.3171    5807.9488    7334.6519    276.77714     290.8591    361.92363   -5359.6528 
17107000    127.13569   -6688.6001   -6361.5513   -6688.6001            0    5694.4171    23.076171    21.333617    21.577703    10622.664    6886.2523    4635.1643    5561.8347     428.1996   -449.03038    622.39283   -5479.3684 
17108000    121.50606   -6671.9902   -6359.4232   -6671.9902            0    6074.0856    23.127102     21.31764    21.539361    10619.233    5805.4394    5756.5091    6660.3085   -376.59381    749.53562    126.52464   -5418.7258 
17109000    124.82194    -6679.696   -6358.5991    -6679.696            0    6924.8042     23.11232    21.330779    21.423139    10561.689    7201.8493      6182.05    7390.5133    102.30587   -124.58101    215.74004   -5291.9619 
17110000    130.40309   -6699.7758   -6364.3218   -6699.7758            0    5660.6561     23.04493    21.352329    21.633657    10645.121    5996.9669    5488.7947    5496.2066    537.30021   -462.27217     77.22604   -5485.5153 
17111000    127.55686   -6680.1485   -6352.0162   -6680.1485            0    5564.9707    23.154593    21.351161    21.508083    10633.111    4753.1207    5597.9422    6343.8492   -163.61965    874.63187    987.54553   -5489.0394 
17112000    128.66349   -6683.5009   -6352.5219   -6683.5009            0    5840.7176    23.129498    21.316009    21.532183    10615.982    6429.0456    6521.9664    4571.1408    828.12577   -428.79687   -256.17634   -5448.2433 
17113000      130.908    -6687.154   -6350.4011    -6687.154            0    6338.5344    23.093815    21.383777    21.483251    10609.138    6589.2945     6137.467    6288.8417   -537.20008    146.06256   -197.13644   -5369.6816 
17114000    135.46831   -6694.3513   -6345.8673   -6694.3513            0    6078.9767    23.004828    21.435016    21.503425    10603.529    7239.2395     5280.924    5716.7665   -210.94164     699.6741   -549.76489   -5405.8047 
17115000    135.20931   -6692.4734   -6344.6556   -6692.4734            0    6750.6076    23.076186    21.412379    21.450188    10598.882    8295.9474    5003.6656    6952.2098    938.34171   -300.29112   -441.87267   -5301.1884 
17116000    122.99227   -6695.4326   -6379.0425   -6695.4326            0    5680.3571    23.024106    21.440462    21.547713    10636.974    6276.7486    5007.0661    5757.2565   -218.06552    139.47992    302.28223   -5497.8524 
17117000    120.12283   -6691.7123   -6382.7036   -6691.7123            0    7326.9879    23.068019    21.298623    21.495963    10561.333    7341.4671    8042.5328    6596.9638    1129.5655   -182.60786   -930.02634   -5254.1554 
17118000    125.08971   -6686.5785   -6364.7928   -6686.5785            0    6135.1049    23.086103    21.419001    21.420858    10592.213     6803.883    4918.6828    6682.7489   -393.02578   -917.10817    17.300599   -5417.0629 
17119000    126.24314   -6682.2101   -6357.4573   -6682.2101            0    6545.2032     23.07937    21.279574    21.592706    10604.592    6898.5477    6495.1359    6241.9259    895.91266     863.7647   -246.50785   -5345.1952 
17120000    125.81848   -6684.6012   -6360.9408   -6684.6012            0    5427.9523    23.133273    21.398642    21.544424    10664.934    6068.7807    4436.2731     5778.803   -308.10178   -360.53187    861.49947   -5516.6927 
17121000    126.02246   -6683.8851      -6359.7   -6683.8851            0    6476.4959    23.163129    21.259125    21.545578    10609.643    7280.5906    6088.5481    6060.3489   -439.06332    139.11568    -541.3122   -5357.5869 
17122000    131.86069   -6674.4406    -6335.237   -6674.4406            0    5700.2014    23.239031    21.354537    21.407438    10623.629      5513.68    5789.7672    5797.1571   -600.27196   -791.96298     17.00959   -5452.0779 
17123000    129.10772    -6692.702   -6360.5802    -6692.702            0    6204.4973    23.226262    21.148759    21.622076    10620.907    6913.5367    6126.1768    5573.7783   -674.31037    708.47931   -209.82996   -5399.5344 
17124000    127.42423   -6675.2389   -6347.4478   -6675.2389            0    6416.5863    23.215285    21.237872    21.515506    10608.075     5509.455    7493.9801    6246.3238   -286.42256   -350.54478    251.42445   -5354.7513 
17125000    132.78491   -6684.3231    -6342.742   -6684.3231            0    6066.1201    23.247392    21.229157    21.514472    10617.877    6337.8032    5524.8158    6335.7413   -556.83851   -16.877727   -499.08569   -5403.3982 
17126000    129.63218   -6692.7429   -6359.2721   -6692.7429            0    5570.2236    23.309756    21.238121    21.497359    10642.384    4566.0337    6091.7122    6052.9249    91.430357    817.21061    95.825279   -5494.7274 
17127000    129.65623   -6690.2755   -6356.7428   -6690.2755            0    5910.5177    23.201287    21.238475    21.548571    10618.273    6290.6653    6006.3224    5434.5654   -1372.6702    25.821832    304.58184     -5441.46 
17128000    123.11869   -6670.4196   -6353.7043   -6670.4196            0    6343.8618    23.221034    21.259389    21.486711    10607.237    6356.3837    6265.7996    6409.4022    87.720442    322.79085   -1343.7368   -5372.3363 
17129000    132.31139   -6674.6784   -6334.3154   -6674.6784            0    5889.4044    23.194687    21.361682    21.471884    10638.836    4900.5629      5802.82    6964.8303   -788.51557   -135.80926   -274.82423   -5420.5359 
17130000    127.37971   -6701.2321   -6373.5555   -6701.2321            0    6585.9345    23.256501    21.214682    21.409618    10563.062     6251.377    6612.5511    6893.8755    -282.7765     1727.056   -224.21932    -5358.983 
17131000    124.43815   -6698.0297   -6377.9201   -6698.0297            0    5651.8783    23.166148    21.280165    21.584622    10640.775    5453.9676    5549.0516    5952.6156   -648.39459    264.05779    525.09914   -5500.8346 
17132000    128.15514   -6667.8706   -6338.1993   -6667.8706            0    6293.0825    23.202161    21.245874    21.538796    10617.553    6582.1809    6351.1777     5945.889   -649.48726   -548.41264   -1248.7549   -5363.7399 
17133000    134.96775   -6692.1007   -6344.9044   -6692.1007            0    6816.7504    23.139505    21.224342    21.560577    10588.847    6347.7666    6909.1767    7193.3079    392.20523   -180.44145    4.9903044   -5292.2109 
17134000    127.04846   -6698.1637   -6371.3392   -6698.1637            0    5462.9305    23.189273    21.304074    21.502161    10622.626    5209.6255    4597.8873    6581.2786    737.76462    913.55934    558.22941   -5525.0214 
17135000    124.54137   -6693.8455   -6373.4705   -6693.8455            0    6436.4843     23.10213    21.324843    21.531937    10607.694    6415.4865    6809.9273    6084.0391   -239.59693    -192.5917    13.069639   -5377.7313 
17136000    131.29936    -6681.193   -6343.4334    -6681.193            0    5873.3533    23.224535    21.288642    21.501731     10630.86    5343.5889    6244.3264    6032.1445    216.51532    1177.9723    397.88265   -5432.8276 
17137000    132.31649    -6699.471   -6359.0949    -6699.471            0    6576.4036    23.098461    21.271526    21.587588    10606.835     6316.763    6962.2332    6450.2146   -753.06392    351.71211    525.22861   -5341.7922 
17138000    125.05853   -6689.4356   -6367.7302   -6689.4356            0    5785.9661    23.232636    21.326372    21.444366    10624.994    5216.6426    5755.4737    6385.7819    118.70811    5.2500798   -90.033448   -5471.1679 
17139000    125.74045   -6683.8063   -6360.3466   -6683.8063            0    6597.9786    23.037965     21.31811    21.586372    10601.626     7093.205    6934.8016    5765.9293   -647.76912    305.68091    18.789139   -5340.2078 
17140000    133.90808   -6696.7876   -6352.3173   -6696.7876            0    6056.3496    23.091042    21.339926    21.508269    10598.439    7139.8366    5024.1948    6005.0176   -703.41445    170.50902    321.77565   -5416.2033 
17141000    133.79342   -6707.1004    -6362.925   -6707.1004            0      6556.33    23.086783    21.328747    21.490143    10582.008    6189.3861    6730.2571    6749.3469    134.35701    1220.1333    571.68072   -5351.1014 
17142000    127.38826   -6689.3498   -6361.6513   -6689.3498            0    5452.6499    23.054778    21.408918    21.573964    10648.431    5735.4458    5755.7428    4866.7611    623.50913   -277.87676   -1273.4409   -5514.8741 
17143000    127.53507   -6678.0168   -6349.9406   -6678.0168            0    6519.2798    23.031955    21.448251    21.453452    10597.902    7338.0468    5517.1705     6702.622    668.99365    13.082907   -20.560177   -5342.3239 
17144000    128.39259   -6688.6459   -6358.3638   -6688.6459            0    5852.0416    23.019302    21.364155    21.612823    10628.926    7090.6095     5378.027    5087.4882   -673.96052   -192.84064    143.63376   -5451.2273 
17145000     128.6286   -6666.6776   -6335.7883   -6666.6776            0    6693.1615    23.177871     21.39499    21.387919    10606.062    7009.6462    5683.0043    7386.8341      270.677   -536.99073   -519.02227   -5300.4999 
17146000    125.37005   -6684.8519   -6362.3451   -6684.8519            0    6371.8654    23.013312    21.273122    21.678671    10613.118    7261.1994    7011.2536    4843.1431    164.25611   -209.74613   -1066.3219   -5376.0985 
17147000    125.29004   -6689.0379   -6366.7369   -6689.0379            0    6509.1603     23.18403    21.299252    21.442723     10588.47    6110.5761    6539.0135    6877.8915   -338.06281   -4.3266476    64.282721   -5361.5795 
17148000    129.21811   -6704.0202   -6371.6145   -6704.0202            0    5149.6187    23.049212    21.349847    21.667309    10662.421    6293.4287    5024.2293     4131.198   -747.74759   -56.464002   -158.64697   -5570.8463 
17149000    136.48383   -6683.4049   -6332.3085   -6683.4049            0    6450.2799    23.246204    21.337973    21.340395    10585.409    6739.4463    5710.7898    6900.6036   -621.10605   -99.999735   -781.88095   -5336.5315 
17150000    125.60226   -6685.5062    -6362.402   -6685.5062            0    6023.7377    23.097023    21.275959    21.591296    10610.207    6292.1202    6807.5393    4971.5534    300.67939   -834.18429   -102.29073   -5430.2949 
17151000    127.94358   -6673.1964   -6344.0694   -6673.1964            0    6740.7603    23.246705    21.179407    21.533107    10601.856    5789.7886    7401.0489    7031.4434   -729.66028     1369.889   -311.84662   -5301.8319 
17152000    126.91226   -6698.6103   -6372.1362   -6698.6103            0    5816.4122    23.232051    21.250629    21.523779    10626.196    5132.1429    5889.9377     6427.156   -689.40751    628.83861    142.31794   -5470.7542 
17153000    130.33575   -6673.1975   -6337.9168   -6673.1975            0    6834.0737    23.235817     21.15842    21.528216    10583.985    6590.3653    7297.0316    6614.8242    352.81829    651.72544   -299.94569   -5283.0327 
17154000    128.22584   -6683.6934   -6353.8403   -6683.6934            0    5652.8303    23.219229    21.270589    21.532048    10634.392    4793.2052    6177.7905    5987.4952   -717.97582    798.51334    375.84776   -5477.1332 
17155000    120.72851   -6682.8297    -6372.263   -6682.8297            0     6368.658    23.213238    21.223108    21.554319    10618.887     6067.457      6309.83     6728.687    692.70681    584.34505   -433.07445    -5385.977 
17156000    126.53033   -6702.7887   -6377.2971   -6702.7887            0    7078.1192    23.152707    21.280259    21.451639    10569.128    7216.9804    6818.9398    7198.4376    -808.0797    75.454355    -366.0796   -5286.2766 
17157000      128.507    -6692.855   -6362.2786    -6692.855            0    6602.2747    23.173286    21.137711    21.627202    10593.657    6554.5413    6496.3006    6755.9823    624.10619   -29.025726    825.90962   -5342.2428 
17158000    131.34656   -6703.5652   -6365.6842   -6703.5652            0    6830.1461    23.161934    21.265881    21.480205    10580.267    6328.3359    7073.4073    7088.6952      340.192   -1679.4745    595.26612   -5311.7767 
17159000    131.25745   -6690.0547    -6352.403   -6690.0547            0    6016.5346    23.180245    21.316558    21.496985    10622.156     5993.204    5506.5545    6549.8454    169.47804   -394.50722    46.033626    -5420.362 
17160000    126.33623    -6684.159   -6359.1668    -6684.159            0    6145.9331     23.14329    21.248336    21.586692    10615.394    5343.8252    6719.5361     6374.438    470.25365    226.53311     361.4743   -5407.6864 
17161000    124.63637   -6695.3428   -6374.7233   -6695.3428            0    5734.1318    23.197778    21.302739       21.467     10608.48    6153.4662    5444.8792    5604.0501    83.529582   -212.32017     449.7224    -5487.574 
17162000     129.6248   -6687.8813   -6354.4294   -6687.8813            0    6779.3897    23.132519    21.282659    21.543219     10606.19    6760.2125    6448.6204    7129.3363   -653.42143    234.76009   -699.33839   -5305.7906 
17163000    133.62641   -6697.7154   -6353.9696   -6697.7154            0    6903.5954    23.123676     21.30155     21.46408    10572.565    7021.0557     6092.212    7597.5186    -285.7566    117.69437     753.1668   -5289.5042 
17164000    121.18402   -6684.2014   -6372.4629   -6684.2014            0    5719.2091    23.068802    21.321912    21.639082    10643.636    6106.7956    5528.5356     5522.296    236.31342    592.30689    920.30314   -5484.6899 
17165000    126.15928   -6676.8129   -6352.2758   -6676.8129            0    6354.2988    23.096929    21.428768    21.481811     10632.18    6066.7117    5579.3644    7416.8202   -134.59921   -89.581403   -184.49473   -5366.9818 
17166000    130.02834   -6673.9674   -6339.4774   -6673.9674            0    6304.5293    23.029109    21.432873    21.502681    10613.292    6405.7075    5676.7337    6831.1468    499.30346    25.378572    638.63302   -5363.6373 
17167000    129.31113   -6691.9178   -6359.2728   -6691.9178            0    5791.8926     22.94351    21.440725     21.58691    10619.151    7141.4412    5647.3493    4586.8874   -638.33826   -478.72122   -850.11687   -5462.2857 
17168000    133.18055   -6678.8906   -6336.2918   -6678.8906            0    6647.9693     23.11956    21.411633    21.388447    10587.871     7321.006    5705.2889    6917.6129   -783.07358    563.01745   -727.63089   -5309.7574 
17169000    137.08271   -6675.0817   -6322.4448   -6675.0817            0     7362.968    22.850994    21.427046    21.629658    10590.514    9069.7343    7200.2108    5818.9587   -915.00323    318.28699   -585.11831   -5185.2212 
17170000    125.90064   -6678.0448   -6354.1731   -6678.0448            0    6603.4615    23.157293    21.345494    21.439966    10597.858    6173.7152    7412.8506    6223.8186   -93.014808    722.18077   -776.43119   -5333.5494 
17171000    131.81662   -6691.4627   -6352.3725   -6691.4627            0    6588.1939    23.081398    21.297792    21.540026    10588.707    7188.4618    6706.0037    5870.1162   -922.89522    516.43219   -328.64461   -5334.9878 
17172000    128.40702   -6684.6481   -6354.3289   -6684.6481            0    6375.3654    23.205616    21.242875    21.512274    10604.561    6116.6404    5856.6471    7152.8087    91.620344    462.01998    135.81579   -5368.3362 
17173000    128.13112   -6694.8954   -6365.2859   -6694.8954            0    5028.9894    23.235398    21.329405    21.491335    10651.046    3836.7386    6117.3154    5132.9141    426.60825  -0.55673224   -717.75422     -5584.11 
17174000    126.22246    -6691.098   -6366.3984    -6691.098            0    6661.6234    23.134193    21.231589    21.597044    10607.942    6475.1441    6264.9945    7244.7315   -849.12646    681.36524    394.02322   -5335.8055 
17175000    130.52951   -6688.2979   -6352.5187   -6688.2979            0    5123.8549    23.233843    21.349783    21.458245    10644.094    3734.2008    4255.9717    7381.3922    231.03587    799.93668     620.2679   -5557.1263 
17176000    124.34936   -6692.5378   -6372.6567   -6692.5378            0    4998.8805    23.188993     21.26189    21.644925    10671.853    4244.6421    6215.9222    4536.0773    144.02284    981.38339   -949.56162   -5594.6408 
17177000    134.18804   -6674.7155    -6329.525   -6674.7155            0    6499.5349     23.16932     21.28513    21.495723    10600.873    6587.2704    6199.1955    6712.1389   -165.53367    491.33443     618.8512   -5324.6782 
17178000    131.89859   -6687.8874   -6348.5863   -6687.8874            0    6267.7741    23.321509    21.214815    21.426659    10601.086    5831.0058    5592.6715     7379.645    852.83321   -316.55695     359.7014   -5379.5511 
17179000    128.06724     -6687.14   -6357.6949     -6687.14            0    5928.9266    23.110791    21.281428    21.652277    10649.253    5970.1451    6542.5866    5274.0481   -439.58506   -656.70984    312.06644   -5436.8826 
17180000    128.92713   -6680.2459   -6348.5887   -6680.2459            0    6795.6528    23.190274    21.262649    21.479138    10591.076    7172.7464    6251.5302    6962.6818    76.523201   -28.887136    88.300093   -5298.9323 
17181000    126.48826   -6683.7189   -6358.3356   -6683.7189            0    6993.1264    23.150915    21.242409    21.513329    10579.851    6682.3401    6685.1464    7611.8928   -261.46184   -528.08182    354.40175   -5279.3222 
17182000    128.64403   -6676.3259   -6345.3969   -6676.3259            0    6458.4005    23.131277    21.273323     21.58688    10622.453    7547.3682    5902.2993    5925.5341   -234.31478    -928.8601   -767.59494   -5344.8772 
17183000    123.50489   -6688.1155   -6370.4067   -6688.1155            0    5347.9528    23.238352    21.311694    21.486626    10641.223    5287.2157    4381.6846     6374.958   -312.01333   -183.02324    632.67857   -5540.4509 
17184000     125.9939   -6688.1013   -6363.9897   -6688.1013            0    6563.0844    23.104776    21.261092    21.581234    10601.409    5797.7832    6720.8927    7170.5771    105.17845    159.16258    979.39181   -5349.2668 
17185000    131.15107   -6680.2971    -6342.919   -6680.2971            0     6207.749    23.305267    21.150559    21.510706    10603.045    5357.0089    6525.9887    6740.2496    559.44136    678.58961    373.34338   -5382.9866 
17186000    133.55756   -6688.5005   -6344.9318   -6688.5005            0    5766.2045    23.187298    21.291591    21.545309      10636.8    5513.3936    6502.6632    5282.5567   -325.76559     12.43083    14.109472   -5450.4389 
17187000    127.28483   -6698.8689   -6371.4364   -6698.8689            0    6741.3306    23.178055    21.216423    21.546692    10595.702    6879.9867    7310.0254    6033.9796   -256.65577   -169.31196   -935.02482   -5329.7158 
17188000    131.10509   -6672.4887   -6335.2288   -6672.4887            0    6582.5146    23.184931    21.290368    21.482987     10604.34    6295.2081    6559.9631    6892.3726   -353.92181    258.01188     654.2727   -5317.2204 
17189000    120.08285   -6682.4728    -6373.567   -6682.4728            0    7248.2267    23.108075    21.254667    21.521278    10570.271    7433.8809    7309.8213    7000.9781    980.97724   -865.85826    111.61466   -5256.2052 
17190000     137.5111   -6679.6863   -6325.9474   -6679.6863            0    6348.8247    23.026707    21.380463    21.558306    10613.621    6336.1481    6182.3784    6527.9474    158.79343    669.91642    1009.5574   -5343.2206 
17191000    136.93621   -6684.9074   -6332.6473   -6684.9074            0    6912.8131     23.08537    21.349189    21.460149    10576.719    7496.9288    6051.3413    7190.1691    511.18974    -913.5598   -268.23621   -5266.3418 
17192000     127.7029   -6679.6781   -6351.1701   -6679.6781            0    5992.8897     23.11046    21.372809    21.539044    10638.898    6379.8722    5436.1265    6162.6705   -314.35311      330.195    10.929613   -5421.3289 
17193000    126.44527    -6686.197   -6360.9243    -6686.197            0    5682.4748    23.076271    21.491467    21.441817    10633.917     6078.385    4860.9357    6108.1037    280.89209   -64.154218   -202.84568   -5479.6589 
17194000    130.32813   -6687.0083   -6351.7472   -6687.0083            0    5812.0991    23.064374    21.369273    21.550513    10621.578    7142.8158    4850.5376     5442.944    131.42171    -312.3805    304.82003    -5451.425 
17195000    130.25756   -6677.2372   -6342.1576   -6677.2372            0    7085.5929    23.132019    21.327978    21.431284    10573.321    7640.7133    6980.0201    6636.0452   -1294.2697   -256.75891   -336.41461   -5249.5518 
17196000    130.25138   -6690.2718    -6355.208   -6690.2718            0    7171.2594    23.016972    21.378723    21.480036    10569.756    7819.5463    6542.4007    7151.8312   -128.98148   -646.79411   -517.16069   -5249.7652 
17197000     126.7892   -6676.1863   -6350.0288   -6676.1863            0    5761.8262    23.054845    21.382734    21.526501     10612.04    6174.2812    5541.2859    5569.9114    106.22913    234.83411    246.33827   -5458.2956 
17198000    134.02936    -6688.964   -6344.1817    -6688.964            0    5918.8758    23.081494     21.28794    21.612907    10619.663    5777.9274    5637.0632    6341.6368    59.850964    1594.9763   -117.60333   -5427.4846 
17199000    133.33562    -6682.986   -6339.9882    -6682.986            0    7147.7043     23.08635    21.443527    21.412599    10600.367    7593.6138    6137.3492    7712.1499    104.22173   -490.52976   -8.6923541   -5234.9855 
17200000    128.88382   -6693.8341   -6362.2883   -6693.8341            0    6145.9935    23.080185      21.3582    21.519265    10607.948    7139.7438    5327.1445    5971.0923   -320.05888    438.04106   -593.19037    -5411.466 
17201000    130.30273   -6686.4718    -6351.276   -6686.4718            0    5682.6889    23.024454      21.4413    21.558368    10642.811    6835.6922    4807.5924    5404.7822   -166.35469   -10.353801    237.98477   -5469.2404 
17202000    126.28892   -6679.8655    -6354.995   -6679.8655            0     6160.338    23.132817    21.477537    21.365464     10615.13    6144.4591    6268.8908     6067.664   -302.85053   -287.65047   -1140.5433   -5401.3082 
17203000    125.81735   -6705.7801   -6382.1226   -6705.7801            0    6216.5875    23.009978    21.317368    21.618399    10604.088    6693.7024    7099.5192     4856.541   -827.32209    965.49387    -969.3878   -5420.7289 
17204000     126.5613   -6684.5007   -6358.9295   -6684.5007            0    6196.1183    23.057854    21.401536     21.49446    10606.946    7438.0111    5475.8349    5674.5089    535.75389   -500.09999    666.96394   -5400.4431 
17205000     122.8538   -6678.1273   -6362.0934   -6678.1273            0    6820.2709    23.017328    21.353768    21.545738    10589.874    7415.3545    5974.2612    7071.1968    1128.6929   -508.05822    117.62464    -5308.754 
17206000    129.14254   -6705.8792   -6373.6679   -6705.8792            0    5879.1018    23.102741    21.358492    21.509362    10613.574    5076.7714    5706.9054    6853.6286    388.95897    -31.90121    366.43283    -5463.653 
17207000    122.28214   -6684.0478   -6369.4844   -6684.0478            0    7297.7401     23.09191    21.351428    21.453054    10577.327    6798.1277    6759.5994    8335.4932    249.73275    691.83779   -656.10302    -5243.739 
17208000    129.61739    -6683.591   -6350.1582    -6683.591            0    6867.4643    23.041712    21.341774    21.548243     10596.37    7516.3355    7178.6667    5907.3908    285.14216   -506.04597   -350.50966   -5288.8795 
17209000    131.11225   -6682.1582     -6344.88   -6682.1582            0    6119.5139    23.123025    21.257609    21.577173    10606.049    7269.5982    5900.8622    5188.0812    249.18764    212.96752   -809.57378   -5398.3237 
17210000    126.68025     -6684.59   -6358.7128     -6684.59            0    6318.7366    23.136732    21.326041    21.551274     10633.72    6439.7653    6973.6793    5542.7653    353.72797    -565.2886   -675.14749   -5378.7911 
17211000    129.47921   -6678.2587   -6345.1813   -6678.2587            0    5687.2772    23.194548     21.31047    21.499381    10626.858    4694.9745    6310.5525    6056.3047    188.14924    196.41277   -138.46312   -5463.7567 
17212000    127.56807   -6691.7127   -6363.5516   -6691.7127            0    6527.4276    23.186989    21.269934    21.450129    10578.898    5918.2425    6460.5909    7203.4493   -107.39082    356.59039     141.4036   -5356.4845 
17213000     125.8493   -6683.4807    -6359.741   -6683.4807            0    6883.6684    23.162491    21.253648    21.535552    10601.681    7044.6817    6357.8411    7248.4823   -635.89239    650.39042   -288.51126   -5295.4251 
17214000    129.73026   -6687.9206   -6354.1975   -6687.9206            0    5897.9524    23.244646    21.275535    21.457005    10611.396    5771.0094    5308.0362    6614.8116   -149.23625    445.15033   -1026.1157    -5441.452 
17215000    122.28525   -6686.0193   -6371.4479   -6686.0193            0    6588.1505    23.167973     21.23878    21.516393    10587.345    6453.3034    6888.4992    6422.6489   -1161.4762    -55.40132   -675.98155   -5354.2008 
17216000    124.30004   -6674.3727   -6354.6184   -6674.3727            0    6356.4154    23.273232    21.235694    21.445487    10598.858    6240.5303    5883.8524    6944.8635    34.572946    805.16689   -882.29582   -5372.0852 
17217000    131.26861   -6696.6313   -6358.9508   -6696.6313            0    5103.1689    23.163364    21.276001    21.597692    10643.856    4849.9047    5789.6861    4669.9158   -1164.2686    189.01175    656.14118   -5566.7874 
17218000    128.59302   -6671.2705   -6340.4728   -6671.2705            0    7156.2873    23.241277    21.188881    21.469224    10572.662    6966.9818    7837.7902    6664.0898    518.64907    16.959441   -2263.6538   -5237.0346 
17219000    131.59249   -6696.4205   -6357.9068   -6696.4205            0    6427.2464     23.15454    21.322862    21.470616    10600.496    6099.6635    5922.9495    7259.1263   -519.23709    1217.9362    840.07088   -5364.2715 
17220000    122.30465   -6688.1448   -6373.5236   -6688.1448            0    6307.7675    23.162586    21.232581    21.530494    10588.729    5407.5959    7322.2477    6193.4588    826.12423    955.80168   -743.58041   -5399.4418 
17221000    126.22407   -6689.5496   -6364.8458   -6689.5496            0    6756.5229    23.131351    21.291959    21.507652    10592.772    7041.3631    6267.2228    6960.9826     925.6276   -500.30578    293.53721   -5321.0664 
17222000    127.35944   -6694.6727   -6367.0483   -6694.6727            0    6016.3781    23.111997     21.36154    21.526735    10627.918    5422.6248     6356.799    6269.7104    66.171693   -984.46511   -13.162979    -5434.526 
17223000    123.04355   -6681.5538   -6365.0318   -6681.5538            0    6559.0791    23.112512    21.362608    21.490872    10610.979    6940.2568    6798.8436    5938.1369    638.27338    409.72421   -256.72936   -5350.0127 
17224000    130.99915   -6677.6435   -6340.6562   -6677.6435            0    5985.1982    23.062253    21.367072    21.560584     10624.47    5510.9812    5741.1201    6703.4933    481.20982    438.40372    579.82858   -5413.2677 
17225000     128.0405    -6695.669   -6366.2926    -6695.669            0    5524.3157    23.157261     21.28804    21.596329    10646.401    5488.1942    6480.7702    4603.9828    883.86227    195.72523   -373.80338   -5508.5496 
17226000    125.28244   -6676.6858   -6354.4044   -6676.6858            0    6686.6963    23.142177    21.448039     21.37789    10611.008     6573.178    6252.1797    7234.7314   -335.36849   -66.463647   -101.82121   -5319.6337 
17227000      135.281   -6675.8477   -6327.8456   -6675.8477            0    6050.9385    23.164908    21.263171    21.584389    10631.594    7077.7408    5852.4585    5222.6161   -85.040073    806.65317    -666.4875   -5389.6422 
17228000     132.7698   -6672.5991   -6331.0569   -6672.5991            0    7061.3759     23.12053    21.288957    21.494774    10579.985     6827.575    7297.5862    7058.9664    967.92827   -1274.4152    19.992904   -5241.4991 
17229000     124.2823   -6665.9392   -6346.2306   -6665.9392            0    7022.5927    23.229397    21.223882     21.47321    10586.679    5049.2869    7402.7569    8615.7341   -7.3181965    2177.7216   -491.81292   -5261.9714 
17230000    134.64065   -6684.8726   -6338.5177   -6684.8726            0    6776.4367    23.108157    21.251761    21.613788    10614.294     7001.112    7218.0261     6110.172    341.58804    540.47831   -577.55078   -5289.5348 
17231000    133.28223   -6678.6342   -6335.7738   -6678.6342            0      6294.82    23.230519    21.243101    21.498567    10609.291    5949.9965    6529.5483    6404.9152   -58.160007    849.57357   -244.25563   -5361.8038 
17232000    130.97313   -6687.3703   -6350.4499   -6687.3703            0    5484.2185    23.238374    21.291837    21.530919    10653.233     4384.708     5914.615    6153.3324   -1019.7187    893.54229   -468.42272   -5498.3862 
17233000    124.95478   -6687.8087   -6366.3701   -6687.8087            0    5552.7441    23.185272    21.217256    21.638223    10644.445    5728.6417    6957.3907       3972.2   -1.2881905    102.85406   -622.81915   -5504.3715 
17234000    126.39742   -6677.3868   -6352.2371   -6677.3868            0    6834.9355    23.255245    21.277253    21.392829    10585.337    6607.1297    6104.1126    7793.5642     298.1015   -133.67855    1007.5358   -5297.0852 
17235000    126.43407   -6687.0978   -6361.8539   -6687.0978            0    6264.7934    23.175437    21.159552    21.658168    10620.773    6445.3044    7160.2113    5188.8646   -128.06689    942.58307   -312.74699   -5391.4808 
17236000    127.73789   -6690.1172   -6361.5193   -6690.1172            0    5676.9696    23.330486    21.292378    21.389819    10625.639    4822.9344     6126.032    6081.9424    182.03636   -523.81828    -484.3262   -5481.7931 
17237000    127.85489   -6691.9439    -6363.045   -6691.9439            0     7700.122    23.148659    21.227172    21.507784    10568.507    8436.8656    7484.7697    7178.7308    -732.9068    333.29828   -640.01006   -5176.2188 
17238000     127.2483   -6668.0947   -6340.7562   -6668.0947            0    4999.0695    23.287554    21.272665    21.543028    10672.165    4668.9977    4958.1468    5370.0641    417.68595    353.24579    468.68599   -5562.6881 
17239000    125.30342    -6681.086   -6358.7506    -6681.086            0    6489.9815    23.185947    21.233606    21.540641    10604.915    6383.3192    6858.0581    6228.5673    716.16809   -708.24161   -546.91337   -5354.9983 
17240000    132.93927   -6691.9682     -6349.99   -6691.9682            0    6248.2867    23.187585     21.29613    21.489602     10611.69    6573.1435    5139.6176    7032.0991   -738.11619    93.203892    39.210118   -5383.0013 
17241000    121.98258   -6672.0807   -6358.2879   -6672.0807            0    6936.7593     23.13476    21.244887     21.55653    10594.934    7268.6478     6837.515    6704.1152    226.45511    -550.3185    379.14916   -5286.4459 
17242000    131.35099   -6698.2012   -6360.3088   -6698.2012            0    6895.5175    23.097827    21.274125    21.519746    10574.503    7020.6123    6990.3417    6675.5985   -296.95426    603.28333     537.9112   -5296.8939 
17243000    127.54499   -6677.5474   -6349.4457   -6677.5474            0    5438.3821    23.116426    21.352941    21.532291    10628.418    5977.4423    5142.0398    5195.6643   -730.42568    712.67162   -752.17176   -5506.4716 
17244000    127.41126   -6682.1583   -6354.4005   -6682.1583            0    6553.7876     23.02211    21.387116    21.502399    10587.277    7298.8616    6266.1227    6096.3784   -82.566034    57.053324    88.878165   -5342.4658 
17245000    132.57025    -6673.449   -6332.4201    -6673.449            0    6554.2809    23.107259    21.330355    21.526511    10610.116    6251.6864    6546.7949    6864.3615   -491.81909    862.19573    135.97198    -5318.226 
17246000    131.50773   -6703.0584   -6364.7627   -6703.0584            0     6365.793    22.996827    21.371025    21.563505    10597.724    6801.4235     6344.905    5951.0507    228.34498   -945.37494   -1155.8145   -5380.8853 
17247000    129.69838   -6688.1815   -6354.5404   -6688.1815            0    6051.9818    23.086285    21.477629    21.414822    10618.297    5880.5109    4968.9101    7306.5245    1133.1043    356.64455   -1.5971853   -5417.3488 
17248000    129.10106   -6676.9556    -6344.851   -6676.9556            0    6733.9127    23.005513    21.358136    21.583385    10605.101    7343.7116    6797.5548    6060.4718    291.61081   -184.28681    63.131417   -5303.3536 
17249000    128.51079   -6687.4852    -6356.899   -6687.4852            0    7162.4654    23.045996    21.447443    21.383075    10569.177    7799.8442    5666.3015    8021.2505    494.96428   -134.61425    639.45476   -5252.8722 
17250000    134.45561    -6669.812   -6323.9332    -6669.812            0    6615.4433    22.879903    21.423422    21.638601    10606.502    7451.5492    5746.2784    6648.5023    331.45863     627.8255   -518.89777   -5300.6236 
Loop time of 505.771 on 64 procs for 250000 steps with 1296 atoms

Performance: 85.414 ns/day, 0.281 hours/ns, 494.295 timesteps/s
99.1% CPU use with 64 MPI tasks x 1 OpenMP threads

MPI task timing breakdown:
Section |  min time  |  avg time  |  max time  |%varavg| %total
---------------------------------------------------------------
Pair    | 30.285     | 41.582     | 53.148     | 110.4 |  8.22
Bond    | 0.28159    | 0.28809    | 0.29538    |   0.7 |  0.06
Kspace  | 246.26     | 258.65     | 270.45     |  44.8 | 51.14
Neigh   | 1.7909     | 1.8263     | 1.845      |   1.0 |  0.36
Comm    | 89.67      | 90.758     | 93.389     |   9.9 | 17.94
Output  | 0.62308    | 0.62437    | 0.62559    |   0.1 |  0.12
Modify  | 100.68     | 102.48     | 104.86     |   8.5 | 20.26
Other   |            | 9.56       |            |       |  1.89

Nlocal:        20.2500 ave          25 max          13 min
Histogram: 2 2 8 3 7 11 5 4 8 14
Nghost:        2635.06 ave        2660 max        2613 min
Histogram: 1 3 8 11 14 15 4 5 1 2
Neighs:        6587.11 ave        8129 max        4188 min
Histogram: 1 3 8 3 9 7 7 4 8 14

Total # of neighbors = 421575
Ave neighs/atom = 325.28935
Ave special neighs/atom = 2.0000000
Neighbor list builds = 3368
Dangerous builds = 0

unfix		3
unfix		2
unfix		1

write_data	data.final.${pid}
write_data	data.final.0
System init for write_data ...
PPPM initialization ...
  extracting TIP4P info from pair style
  using 12-bit tables for long-range coulomb (../kspace.cpp:340)
  G vector (1/distance) = 0.36808372
  grid = 30 40 32
  stencil order = 5
  estimated absolute RMS force accuracy = 0.0043875259
  estimated relative force accuracy = 1.3212904e-05
  using double precision FFTW3
  3d grid and FFT values/proc = 5168 640
Last active /omp style is kspace_style pppm/tip4p/omp
WARNING: Not all mixed pair coeffs generated from mixing. Use write_data with 'pair ij' option to store all pair coeffs. (../write_data.cpp:312)

write_restart   restart.lmp.${pid}
write_restart   restart.lmp.0
System init for write_restart ...
PPPM initialization ...
  extracting TIP4P info from pair style
  using 12-bit tables for long-range coulomb (../kspace.cpp:340)
  G vector (1/distance) = 0.36808372
  grid = 30 40 32
  stencil order = 5
  estimated absolute RMS force accuracy = 0.0043875259
  estimated relative force accuracy = 1.3212904e-05
  using double precision FFTW3
  3d grid and FFT values/proc = 5168 640
Last active /omp style is kspace_style pppm/tip4p/omp
Total wall time: 0:08:25
