LAMMPS (30 Jul 2021)
  using 1 OpenMP thread(s) per MPI task
package omp 0
using multi-threaded neighbor list subroutines
echo both

include		in.partitions
variable        pid world 0
include		in.temp
variable        temperature equal 269.59
variable	tempDamp equal 100.0
include		in.pressure
variable        pressure equal 11500.0
variable        pressureDamp equal 1000.0 # This is 1 ps
include		in.seed
variable        seed world 745823

units		real
atom_style	full
read_restart	restart.lmp.${pid}
read_restart	restart.lmp.0
Reading restart file ...
  restart file = 30 Jul 2021, LAMMPS = 30 Jul 2021
  restoring atom style full from restart
  orthogonal box = (0.68663666 1.9002986 0.83769512) to (17.520936 21.728879 21.375501)
  4 by 4 by 4 MPI processor grid
  restoring pair style lj/cut/tip4p/long/omp from restart
  restoring bond style harmonic/omp from restart
  restoring angle style harmonic/omp from restart
  864 atoms
  576 bonds
  288 angles
Finding 1-2 1-3 1-4 neighbors ...
  special bond factors lj:    0        0        0       
  special bond factors coul:  0        0        0       
     2 = max # of 1-2 neighbors
     1 = max # of 1-3 neighbors
     1 = max # of 1-4 neighbors
     2 = max # of special neighbors
  special bonds CPU = 1.408 seconds
  read_restart CPU = 1.845 seconds
include 	in.setup
variable	out_freq equal 1000
variable	out_freq2 equal 10000
variable	out_freq3 equal 1000

timestep	2.0

neigh_modify    delay 7 every 1

include		in.tip4p
# This is TIP4P/Ice

# create groups ###
group ox type 2
288 atoms in group ox
group hy type 1
576 atoms in group hy

# set charges - beside manually ###
set group ox charge -1.1794
Setting atom values ...
  288 settings made for charge
set group hy charge 0.5897
Setting atom values ...
  576 settings made for charge

# ### TIP3P Potential Parameters ###
pair_style lj/cut/tip4p/long/omp 2 1 1 1 0.1577 8.5
pair_coeff 1 1*2 0.000 0.000
pair_coeff 2 2 0.21084 3.1668
bond_style  harmonic
bond_coeff  1 450 0.9572
angle_style harmonic
angle_coeff 1 55 104.52
kspace_style pppm/tip4p/omp 1.0e-5
pair_modify tail yes

thermo          ${out_freq}
thermo          1000
thermo_style    custom step temp pe etotal epair emol press lx ly lz vol pxx pyy pzz pxy pxz pyz enthalpy

restart 	${out_freq3} restart.lmp.${pid} restart2.lmp.${pid}
restart 	1000 restart.lmp.${pid} restart2.lmp.${pid}
restart 	1000 restart.lmp.0 restart2.lmp.${pid}
restart 	1000 restart.lmp.0 restart2.lmp.0


include         in.dump
dump            myDump all atom ${out_freq2} dump.water.${pid}
dump            myDump all atom 10000 dump.water.${pid}
dump            myDump all atom 10000 dump.water.0
dump            myDump2 all dcd ${out_freq2} dump.dcd
dump            myDump2 all dcd 10000 dump.dcd
dump_modify     myDump append yes
dump_modify     myDump2 append yes


variable natoms 	equal  "count(all)"                        # NUMBER ATOMS
variable H      	equal  "enthalpy/v_natoms"                 # ENTHALPY-per-atom
variable Vol      	equal  "vol/v_natoms"                 # volume-per-atom
fix AVG all 		ave/time ${out_freq} 1 ${out_freq} v_Vol v_H file vol_enthalpy.dat
fix AVG all 		ave/time 1000 1 ${out_freq} v_Vol v_H file vol_enthalpy.dat
fix AVG all 		ave/time 1000 1 1000 v_Vol v_H file vol_enthalpy.dat


timer           timeout 23:50:00 every 1000
New timer settings: style=normal  mode=nosync  timeout=23:50:00

fix 		1 all shake 1e-6 200 0 b 1 a 1
       0 = # of size 2 clusters
       0 = # of size 3 clusters
       0 = # of size 4 clusters
     288 = # of frozen angles
  find clusters CPU = 0.212 seconds
fix             2 all nph iso ${pressure} ${pressure} ${pressureDamp}
fix             2 all nph iso 11500 ${pressure} ${pressureDamp}
fix             2 all nph iso 11500 11500 ${pressureDamp}
fix             2 all nph iso 11500 11500 1000
fix             3 all temp/csvr ${temperature} ${temperature} ${tempDamp} ${seed}
fix             3 all temp/csvr 269.59 ${temperature} ${tempDamp} ${seed}
fix             3 all temp/csvr 269.59 269.59 ${tempDamp} ${seed}
fix             3 all temp/csvr 269.59 269.59 100 ${seed}
fix             3 all temp/csvr 269.59 269.59 100 745823

run             250000
PPPM initialization ...
  extracting TIP4P info from pair style
  using 12-bit tables for long-range coulomb (../kspace.cpp:340)
  G vector (1/distance) = 0.37494682
  grid = 24 24 24
  stencil order = 5
  estimated absolute RMS force accuracy = 0.0030836961
  estimated relative force accuracy = 9.2864593e-06
  using double precision FFTW3
  3d grid and FFT values/proc = 2535 216
Last active /omp style is kspace_style pppm/tip4p/omp
Neighbor list info ...
  update every 1 steps, delay 7 steps, check yes
  max neighbors/atom: 2000, page size: 100000
  master list distance cutoff = 10.8154
  ghost atom cutoff = 10.8154
  binsize = 5.4077, bins = 4 4 4
  1 neighbor lists, perpetual/occasional/extra = 1 0 0
  (1) pair lj/cut/tip4p/long/omp, perpetual
      attributes: half, newton on, omp
      pair build: half/bin/newton/omp
      stencil: half/bin/3d
      bin: standard
Per MPI rank memory allocation (min/avg/max) = 9.237 | 9.241 | 9.246 Mbytes
Step Temp PotEng TotEng E_pair E_mol Press Lx Ly Lz Volume Pxx Pyy Pzz Pxy Pxz Pyz Enthalpy 
18250000    273.90508    -3802.121   -3332.6571    -3802.121            0     11849.27    16.834299    19.828581    20.537806    6855.5248    10875.208    14113.956    10558.646    -59.13295   -1347.1002   -1747.9711   -2147.9576 
18251000    271.18584   -3850.7368   -3385.9336   -3850.7368            0    11148.571    16.867299     19.86745    20.578065    6895.9198    9976.6085    10265.703    13203.401   -1779.1731   -690.79443    1323.3837   -2264.7227 
18252000    272.76307   -3851.5259   -3384.0194   -3851.5259            0    9947.7191    16.873837    19.875151    20.586042    6903.9424    9397.8966    9108.2879    11336.973    513.79066   -824.81689    761.70923   -2382.4142 
18253000    268.84263   -3835.3853   -3374.5982   -3835.3853            0     12936.54    16.815502    19.806441    20.514874    6832.5864    12083.127    11222.254    15504.238   -557.36041   -1204.7694    1428.8932   -2085.5204 
18254000     253.2116   -3825.5223   -3391.5263   -3825.5223            0    10658.049    16.780342    19.765026    20.471978    6789.8162    10862.305    10245.108    10866.733    761.39885    369.46461    1428.4253   -2336.1396 
18255000    274.35436   -3822.3748   -3352.1408   -3822.3748            0    12576.201    16.797584    19.785335    20.493013    6810.7672    12830.817    13697.937    11199.848   -186.13703    601.86615    360.46203   -2102.9713 
18256000     275.0794   -3822.2431   -3350.7665   -3822.2431            0    12511.776    16.785368    19.770947     20.47811    6795.9195    12960.078    11720.495    12854.754   -1315.7639   -1762.8083    2367.3348   -2110.7054 
18257000    284.45978   -3894.5179   -3406.9636   -3894.5179            0    11361.842    16.778245    19.762556     20.46942    6787.2709    11896.339    12192.009    9997.1783   -1362.0936    592.79591    153.36161   -2282.3072 
18258000    290.41655   -3891.0956   -3393.3315   -3891.0956            0    11341.001    16.804279    19.793221    20.501181    6818.9142    10419.863    11733.161    11869.979    1831.2776    1261.6339    1849.7758   -2265.5045 
18259000    280.25703   -3851.9876   -3371.6367   -3851.9876            0    13151.583    16.759369    19.740323    20.446391    6764.3889    14029.778    13804.682    11620.289    1015.6686   -705.43385    293.32228    -2074.211 
18260000    271.98343   -3859.9701   -3393.7998   -3859.9701            0    11023.912    16.793005    19.779942    20.487427    6805.1991    12635.472    10898.004    9538.2601   -108.63871    1353.4443    1429.6385   -2299.7113 
18261000    273.78855   -3862.9196   -3393.6554   -3862.9196            0    10350.307    16.755469    19.735729    20.441633    6759.6678    10257.317    11717.656    9075.9477    -329.1217   -99.137206    2454.1018   -2373.2929 
18262000    284.94699   -3847.0393   -3358.6499   -3847.0393            0    11089.744    16.794466    19.781663    20.489209    6806.9756     10672.21    12484.276    10112.745    455.87869   -828.70514    2352.9396   -2257.7405 
18263000    281.71762   -3823.7072   -3340.8528   -3823.7072            0    11317.958    16.789921    19.776309    20.483664    6801.4502     12603.87    10299.129    11050.876    1708.8906   -1771.3415   -1023.2916   -2218.1999 
18264000    269.48244    -3842.718   -3380.8344    -3842.718            0    12559.737    16.798864    19.786843    20.494575    6812.3244    11622.936    13242.778    12813.497   -1025.8288    1321.2862   -147.23515   -2133.0149 
18265000    281.71357   -3826.0369   -3343.1895   -3826.0369            0    12515.962     16.72292    19.697391    20.401924    6720.3509    13673.659    11189.459    12684.768   -2295.4201   -784.98873    1740.6547   -2116.5073 
18266000    274.64533   -3849.0882   -3378.3555   -3849.0882            0    11743.052    16.789132    19.775379    20.482701    6800.4913    11832.652    12561.891    10834.614   -2809.5721    -181.5921   -700.00301   -2213.7009 
18267000    265.98963   -3835.9756   -3380.0785   -3835.9756            0    11570.732    16.757044    19.737585    20.443555    6761.5745    9351.0999    13173.811    12187.286    1382.1878    101.49557   -428.64416   -2239.0813 
18268000    252.09068   -3834.4642   -3402.3894   -3834.4642            0    12378.296    16.742883    19.720905    20.426278    6744.4464    13070.986    12235.695    11828.208    800.29781    1647.6842   -1677.9674   -2184.8499 
18269000    264.33048   -3851.7317   -3398.6783   -3851.7317            0      10634.5    16.802148    19.790711    20.498582     6816.321     9331.179     11353.43     11218.89    1552.6566   -698.17447   -1174.7995   -2341.5128 
18270000    270.94633   -3893.4743   -3429.0815   -3893.4743            0    8078.8434    16.818735    19.810248    20.518817    6836.5271    8448.8751    8841.1798    6946.4751     2081.639    1059.1316   -1839.8982   -2623.5907 
18271000    278.65614   -3885.9204   -3408.3133   -3885.9204            0    11726.733    16.764549    19.746425    20.452711    6770.6637    10706.997    12359.147    12114.055    1474.5668    961.45871    2227.9342   -2250.3784 
18272000     261.7356   -3817.5721   -3368.9663   -3817.5721            0    11645.187    16.778048    19.762324    20.469179    6787.0319    10305.614    11445.998    13183.948   -589.45288    472.04429    73.493127   -2216.3036 
18273000    259.78604   -3859.4481   -3414.1838   -3859.4481            0    12470.049     16.69477    19.664233     20.36758    6686.4696    12027.586    12736.087    12646.474   -747.43443   -1036.7629    -935.4153   -2198.1632 
18274000    283.11617   -3816.1166   -3330.8652   -3816.1166            0    11123.876    16.826732    19.819667    20.528573    6846.2838    9639.7386    12663.416    11068.474   -527.03878   -877.45448    692.25784   -2220.1904 
18275000    263.50462   -3824.6797   -3373.0418   -3824.6797            0    11727.692     16.77428    19.757886    20.464582    6782.4597    9306.7788    13128.787    12747.511     613.0783    818.68155    1936.4444   -2212.9945 
18276000    287.51777   -3841.0345   -3348.2389   -3841.0345            0    11459.832    16.813193     19.80372    20.512056    6829.7711    11818.303     9830.142    12731.051   -699.39182   -1867.3252   -932.26543   -2206.7799 
18277000    270.78095   -3832.1403    -3368.031   -3832.1403            0     11624.11    16.787615    19.773592    20.480851     6798.648    11845.482    11077.891    11948.956    84.869211   -339.14425   -200.65559   -2215.4853 
18278000    269.35405   -3865.9236     -3404.26   -3865.9236            0    11553.353    16.770897    19.753902    20.460455    6778.3577    10915.613    10552.708    13191.737    1340.1096   -1783.0932    1147.9459   -2262.1487 
18279000    268.47078   -3856.0381   -3395.8884   -3856.0381            0    10935.464    16.768518    19.751099    20.457553    6775.4733    11588.251    8145.5467    13072.595   -2119.1615    1245.9394    208.21877   -2315.3188 
18280000    294.60869   -3854.8567   -3349.9075   -3854.8567            0    11574.952    16.771454    19.754557    20.461134    6779.0325    11604.776    12748.153    10371.926   -1497.4085    1232.3388    2285.0699   -2205.5472 
18281000    282.10324   -3812.4932   -3328.9779   -3812.4932            0    10077.626    16.813289    19.803834    20.512173    6829.8887    8783.7165    8633.1718    12815.988   -942.88299   -123.62362    43.006406   -2325.1766 
18282000    277.61469   -3858.9824   -3383.1603   -3858.9824            0    10697.403     16.80838    19.798052    20.506185    6823.9084    10989.822    10393.293    10709.094    900.45439   -538.86487   -1283.8706   -2318.5579 
18283000    273.42099   -3842.3441   -3373.7099   -3842.3441            0    11975.919    16.774419     19.75805    20.464752    6782.6292    12037.389    11037.269      12853.1    52.217261   -1942.5899    1924.1431   -2189.0797 
18284000    255.92753   -3845.1765   -3406.5255   -3845.1765            0     11784.53    16.677653    19.644072    20.346697    6665.9242    12891.842    11150.718     11311.03    473.35096   -152.16006   -595.62834   -2260.8846 
18285000    262.35615   -3873.8561   -3424.1866   -3873.8561            0    10785.479    16.737477    19.714537    20.419683    6737.9156    9856.9936    10536.723    11962.721    439.13266   -43.421507    1323.2194   -2364.3452 
18286000    266.84702   -3864.6897   -3407.3231   -3864.6897            0    10221.756    16.766025    19.748163    20.454511    6772.4517    8947.8265    10414.333    11303.109   -377.88351    1644.2521    2232.4891   -2397.7278 
18287000    278.65747   -3819.8788   -3342.2695   -3819.8788            0    12289.736    16.763426    19.745102    20.451341     6769.303    11859.793     13608.41    11401.004   -1240.5483   -634.50323    386.93122   -2128.9857 
18288000    278.92193   -3841.8292   -3363.7666   -3841.8292            0    11275.205     16.76259    19.744117    20.450321    6768.2901    11764.161    8708.7355    13352.718   -1868.4966    188.36417    84.277023   -2250.8072 
18289000    266.45765   -3822.2612   -3365.5619   -3822.2612            0    11901.133    16.767232    19.749584    20.455983    6773.9139    12022.971    11169.363    12511.065   -1984.1798   -487.40423   -1735.5348    -2189.842 
18290000    263.51431   -3820.2576   -3368.6031   -3820.2576            0    13680.518    16.704528    19.675728    20.379485    6698.2017    11987.948    14146.461    14907.146    -288.1982   -108.05883    618.30616   -2032.2025 
18291000    264.96952   -3831.2042   -3377.0555   -3831.2042            0    11882.141    16.796799     19.78441    20.492055    6809.8126    11592.979    12497.501    11555.943   -853.18203   -1488.4522    778.73275    -2196.991 
18292000    272.29525   -3845.2813   -3378.5765   -3845.2813            0    10491.103    16.791604    19.778292    20.485718    6803.4967    9629.6039    10289.778    11553.928    1533.0822   -54.773431   -464.64966   -2337.6281 
18293000    265.74662   -3799.8313   -3344.3507   -3799.8313            0    12864.711    16.753186    19.733041    20.438848    6756.9057    13751.734    12807.181    12035.217   -757.84025    97.254099   -1648.8841   -2076.6294 
18294000     279.7282    -3830.946   -3351.5014    -3830.946            0    13727.337    16.742605    19.720577    20.425939    6744.1108    14410.909     12941.76    13829.341   -504.50553    -315.9484    1279.7381   -2001.3363 
18295000     263.6487   -3864.8673   -3412.9825   -3864.8673            0    10596.786    16.846946    19.843477    20.553235    6870.9875    9428.4376    11987.484    10374.437    815.19951   -831.21198     164.9251   -2351.1177 
18296000    275.22005   -3826.7562   -3355.0385   -3826.7562            0    11884.285     16.86775    19.867981    20.578615    6896.4727    10948.105    11688.058    13016.693   -230.61897    366.30858   -639.51325   -2159.7411 
18297000    258.95766   -3818.2379   -3374.3934   -3818.2379            0    14865.614    16.775457    19.759273    20.466019    6783.8886     14212.35    17110.152    13274.342   -1778.6864    1927.1469   -126.80234   -1903.6481 
18298000    264.15034   -3812.4448   -3359.7001   -3812.4448            0    11767.308    16.844355    19.840425    20.550074    6867.8174    12085.338    11529.499    11687.086   -448.99991    817.42209   -145.03063   -2181.0858 
18299000     280.7127   -3848.9425   -3367.8105   -3848.9425            0    9660.1802    16.817813    19.809162    20.517692    6835.4029    9299.2648    8660.0052    11021.271    397.50335   -1282.8727   -1193.7532   -2404.8129 
18300000    259.88948    -3833.146   -3387.7043    -3833.146            0    12758.177    16.819888    19.811606    20.520223    6837.9332    13089.803    13583.061    11601.667    1696.5084    1102.9774   -1438.9786   -2115.4048 
18301000     278.6029   -3843.0299   -3365.5141   -3843.0299            0    10262.973    16.845483    19.841754     20.55145    6869.1972     11722.76    9507.5598    9558.6003    1555.3243    780.31946    342.41647   -2337.3674 
18302000    273.10583   -3872.5734   -3404.4793   -3872.5734            0    10614.974    16.822876    19.815126     20.52387    6841.5787     11282.18    9414.4473    11148.294    2.1598002     1209.857    873.79133   -2345.3448 
18303000    264.61174   -3862.9121   -3409.3767   -3862.9121            0    9344.2095    16.798081    19.785921     20.49362    6811.3726    8673.0112    11761.605    7598.0119   -1427.2424     105.3608   -559.31021    -2481.152 
18304000    270.38542   -3830.8068   -3367.3754   -3830.8068            0    10938.316    16.759907    19.740957    20.447048    6765.0411     12499.48    10638.749    9676.7186   -151.81437    1490.3056    705.05571   -2288.1882 
18305000    267.44001   -3855.2355   -3396.8525   -3855.2355            0    10958.811    16.813521    19.804107    20.512457    6830.1717    10596.716    10920.117      11359.6   -689.93836    1157.7559     468.9681   -2305.2338 
18306000    280.93848    -3815.367    -3333.848    -3815.367            0    11584.866    16.753094    19.732932    20.438735    6756.7936    10486.969    11647.349    12620.282    134.95393   -974.64157   -3049.2396   -2192.2648 
18307000     263.6702   -3825.9369   -3374.0152   -3825.9369            0    11114.839    16.813451    19.804025    20.512371    6830.0865    10700.631    10240.332    12403.555   -1112.2236    1568.5944   -463.46778   -2266.8683 
18308000    267.73629    -3841.949   -3383.0582    -3841.949            0    13324.086    16.790641    19.777157    20.484542     6802.325    12265.934    14056.046    13650.278    366.62079    140.49249    3497.7698   -2061.2431 
18309000    268.81488   -3813.7191   -3352.9796   -3813.7191            0    9549.5378    16.806088    19.795351    20.503388    6821.1164    10759.002    6636.6113        11253   -135.00619    1568.4294   -1027.8985   -2403.0013 
18310000    263.58794   -3847.6834   -3395.9026   -3847.6834            0    11624.714    16.795394    19.782755    20.490341    6808.1036    10162.711    11572.564    13138.867    797.79685    217.45787    1164.5999    -2241.694 
18311000    257.41481   -3813.0218   -3371.8217   -3813.0218            0    10644.364     16.86787    19.868122    20.578761    6896.6198    11943.664     9721.693    10267.735    1199.1177    363.84834   -390.22614   -2301.2102 
18312000    272.42642   -3808.5092   -3341.5797   -3808.5092            0    12500.395    16.819014    19.810576    20.519157    6836.8673     12149.32    12530.898    12820.967    955.86103    -1090.656    -359.7322   -2095.1816 
18313000    275.58652   -3825.7073   -3353.3614   -3825.7073            0    8278.6618    16.907039    19.914258    20.626548    6944.7758    6816.7916    9762.3091    8256.8846   -475.00737    508.76503    -116.1861   -2514.8784 
18314000    271.81595   -3815.5477   -3349.6644   -3815.5477            0    11101.513     16.83598    19.830561    20.539856    6857.5787    12253.733    11728.027    9322.7776   -228.87963   -210.83663    139.20651   -2239.3938 
18315000    254.46501   -3814.7923    -3378.648   -3814.7923            0    9750.4095    16.793568    19.780604    20.488113    6805.8832    9575.1497    10080.184    9595.8954   -2224.8556   -721.18461   -61.439665   -2410.8533 
18316000    281.23323   -3805.9564   -3323.9323   -3805.9564            0    11786.615    16.864931    19.864661    20.575177    6893.0164    13859.432    10968.662    10531.751   -229.91505    51.040417    481.30203   -2139.0524 
18317000    258.60394   -3851.1458   -3407.9075   -3851.1458            0    9240.8594    16.858865    19.857516    20.567776    6885.5809     10116.54    10454.339    7151.6993    356.33631    1427.5216   -851.47036   -2479.9484 
18318000     266.9842   -3823.9102   -3366.3084   -3823.9102            0    11002.085    16.827487    19.820557    20.529495    6847.2055    10628.132    12946.038    9432.0853    103.28665    330.19736    296.37069   -2267.6461 
18319000    262.55598   -3854.3806   -3404.3686   -3854.3806            0    9930.5642     16.84141    19.836957    20.546481    6864.2164    8183.1096    10989.021    10619.562   -1099.6643    121.44418   -793.69434   -2410.2441 
18320000    258.15489   -3807.2588   -3364.7901   -3807.2588            0    11412.599    16.819751    19.811445    20.520057    6837.7669    11810.946     10513.41     11913.44   -908.15293   -124.89322   -2540.0257    -2226.705 
18321000    274.40594   -3822.5489   -3352.2265   -3822.5489            0    12305.931    16.805118    19.794209    20.502205    6819.9358     11555.08      13710.6    11652.113    2354.1948   -186.68308   -66.585085   -2128.2568 
18322000    284.31279   -3795.9617   -3308.6593   -3795.9617            0    10760.139    16.831201    19.824931    20.534025      6851.74    10455.831    11052.526    10772.059   -752.71498    1863.1147   -350.82966    -2233.446 
18323000    255.13487   -3816.8532   -3379.5608   -3816.8532            0     13013.92    16.736291     19.71314    20.418236    6736.4831    12279.965      12397.2    14364.594    947.64467   -1366.7011    1767.4499   -2101.0122 
18324000    269.69365   -3831.2628   -3369.0171   -3831.2628            0     10474.89     16.78654    19.772327     20.47954    6797.3427    10986.286    12194.921    8243.4631   -321.96037    1666.6306   -1254.9285   -2330.6175 
18325000    253.02667   -3829.8949   -3396.2159   -3829.8949            0    12184.509    16.802569    19.791207    20.499095    6816.8328    11721.247     13340.21     11492.07    1787.4284    436.56216   -525.95328   -2184.8744 
18326000    267.66213   -3873.1686   -3414.4049   -3873.1686            0    12615.346    16.771774    19.754934    20.461525    6779.4206    14744.895    12318.958    10782.184    306.39079    574.17255    815.97556   -2167.1144 
18327000    261.97908   -3893.7524   -3444.7292   -3893.7524            0    11691.311    16.782552    19.767629    20.474674    6792.4992     10800.19    12162.243    12111.501   -364.71739   -2792.1274   -326.14977   -2286.5688 
18328000    283.42677   -3845.4231   -3359.6393   -3845.4231            0    9844.0223    16.795299    19.782644    20.490226    6807.9888    8532.6636    10018.876    10980.527    707.86414    610.97896    511.67667   -2382.2506 
18329000    267.18503   -3850.2696   -3392.3236   -3850.2696            0    11249.613    16.793547     19.78058    20.488088    6805.8581    10816.315     10661.37    12271.152    323.83523   -310.66793   -1293.2331   -2275.7269 
18330000    281.86099   -3836.2798   -3353.1797   -3836.2798            0    9980.8899    16.854116    19.851922    20.561982    6879.7635    11542.734    7257.5402    11142.396    893.13498    1005.9667    2194.4867   -2351.7542 
18331000    268.65418    -3862.459   -3401.9949    -3862.459            0    11098.573    16.772835    19.756184    20.462819    6780.7071    11778.995    10327.913    11188.812   -297.56909   -1167.2555    995.10949   -2304.4608 
18332000    266.38301   -3868.9741   -3412.4027   -3868.9741            0    11439.622    16.766277     19.74846    20.454819    6772.7572    11760.796    9599.7216    12958.349   -279.56446    118.48774    704.86819   -2282.4687 
18333000    252.43932   -3834.8554    -3402.183   -3834.8554            0    12451.522    16.768665    19.751273    20.457732    6775.6517    11236.854    13080.581    13037.132   -648.10198    288.07219    251.35753   -2171.7743 
18334000    278.48481   -3846.4897   -3369.1763   -3846.4897            0    11247.815    16.860998    19.860029    20.570378    6888.1949    10864.844    11627.537    11251.064    224.99039   -680.70567    2565.1614   -2239.2517 
18335000    280.08959   -3872.4841   -3392.4201   -3872.4841            0    11675.786    16.760115    19.741202    20.447302     6765.293     12867.47     10530.75    11629.137    129.90948   -1223.9264   -526.08349   -2240.4304 
18336000    281.82397   -3849.5205   -3366.4839   -3849.5205            0    10841.901     16.77438    19.758004    20.464705    6782.5818    11679.098    10110.189    10736.416   -549.07764   -656.18326   -1620.3033   -2294.0356 
18337000    265.88654   -3854.3055    -3398.585   -3854.3055            0    14496.861    16.696573    19.666358    20.369781    6688.6372    13590.743    14186.576    15713.265    492.55456   -490.39357    -1101.134    -1984.461 
18338000    285.34818    -3837.407     -3348.33    -3837.407            0    12470.885    16.763318    19.744974    20.451208    6769.1713    12369.977    12262.098    12780.579   -434.77319   -1439.9836   -651.55511   -2117.1865 
18339000    258.24028    -3855.106    -3412.491    -3855.106            0    12573.009    16.720424     19.69445    20.398878    6717.3412    13379.484    14332.245    10007.297   -974.56203    1495.1995    572.95166   -2180.7695 
18340000    274.53662    -3854.028   -3383.4817    -3854.028            0    11579.659     16.81208     19.80241    20.510699    6828.4157    10368.667    13390.437    10979.872     1298.427    415.54665   -970.01074   -2230.3163 
18341000    245.73857   -3830.6562   -3409.4688   -3830.6562            0    10701.621     16.81145    19.801667     20.50993    6827.6476    10393.613    11544.658    10166.593   -527.37082    462.19535    2311.3217    -2343.863 
18342000    275.72838   -3805.9816   -3333.3926   -3805.9816            0    13249.758    16.773246    19.756668    20.463321    6781.2059    12745.296    15683.955    11320.024   -570.59138    38.809081    396.31004   -2023.0322 
18343000    271.41015   -3879.4736   -3414.2859   -3879.4736            0    10342.927    16.825608    19.818344    20.527203    6844.9125    11534.916    9657.8153    9836.0487   -626.87034    366.14918   -675.12113   -2381.7926 
18344000     278.8289   -3859.9829   -3382.0797   -3859.9829            0    11196.162    16.803453    19.792249    20.500174    6817.9094     10779.99    11870.832    10937.665   -1374.4354    1172.9268   -1451.9609   -2268.8205 
18345000    273.38189   -3859.3022   -3390.7349   -3859.3022            0    11898.433    16.724211    19.698911    20.403498    6721.9068    14240.013    8573.0504    12882.235    68.933411   -531.51967      71.6115   -2224.3064 
18346000    270.01833   -3828.0663   -3365.2641   -3828.0663            0    11267.763    16.849624    19.846632    20.556503     6874.265    12148.408    10768.607    10886.274   -373.54784   -400.11571   -41.099849   -2235.6246 
18347000    275.51626   -3859.3489   -3387.1235   -3859.3489            0    12258.433    16.806542    19.795887    20.503942    6821.6699    11991.058    14976.739    9807.5021    193.99185    652.14426    119.99864   -2167.5681 
18348000    265.51403   -3877.3208   -3422.2388   -3877.3208            0    9907.6499    16.805514    19.794675    20.502688    6820.4177    10057.751    9343.1039    10322.095    842.41536   -174.40946    774.06567   -2436.7368 
18349000    271.79698   -3879.0756   -3413.2248   -3879.0756            0    10741.813    16.914927    19.923549    20.636171    6954.5004    10785.628    11763.068    9676.7418   -1104.0558    89.797239    893.95754   -2323.7445 
18350000    267.55724   -3861.8899    -3403.306   -3861.8899            0    11971.896    16.841744     19.83735    20.546889    6864.6246    11128.988    12704.292    12082.407    215.45718   -1214.2999     981.2667   -2204.7575 
18351000    259.62679   -3841.5038   -3396.5124   -3841.5038            0    12853.801    16.832275    19.826197    20.535336    6853.0522    11937.145    13051.385    13572.872    1482.5804     1247.052   -1641.8527   -2111.8427 
18352000    275.74282   -3823.7235   -3351.1097   -3823.7235            0    14026.917    16.780619    19.765353    20.472316    6790.1522    13704.294    14249.546    14126.909   -130.29118    260.96011    817.65068   -1962.0606 
18353000    275.10748   -3812.9072   -3341.3824   -3812.9072            0        12082    16.822193    19.814322    20.523037    6840.7459    14368.242     11720.69    10157.068   -1639.3325    428.01004    641.16529   -2136.0185 
18354000    275.99678   -3831.1038   -3358.0548   -3831.1038            0    10458.593    16.787186    19.773088    20.480328    6798.1277    11058.777    10746.587    9570.4147   -1012.1749   -565.26949    448.06205    -2321.151 
18355000    271.28509   -3789.6217   -3324.6484   -3789.6217            0    11039.268    16.833177    19.827259    20.536436    6854.1538    11573.554    8823.4435    12720.807    415.35114   -2209.4108    162.66404   -2221.1542 
18356000    257.07347   -3845.1076   -3404.4924   -3845.1076            0    8454.6721    16.855268     19.85328    20.563388    6881.1752    9307.2546    7229.2367    8827.5249     -319.122    115.74071   -2923.9975   -2556.0248 
18357000    259.12736   -3846.4264    -3402.291   -3846.4264            0        10140    16.841325    19.836857    20.546378    6864.1123    9384.2253    8609.3652     12426.41   -102.27135   -291.33317   -1802.8169   -2387.2158 
18358000    262.69637   -3814.7492   -3364.4966   -3814.7492            0    12626.045    16.802627    19.791275    20.499166    6816.9037    9767.1397    15589.764    12521.231    1240.0856   -3078.4478   -2339.1603   -2109.2462 
18359000    271.37429   -3828.4472    -3363.321   -3828.4472            0    10174.669    16.853675    19.851403    20.561445    6879.2243     9640.564    9615.0709    11268.372   -1343.4086    2565.7097   -1290.6484   -2342.5328 
18360000    275.40851   -3838.2618    -3366.221   -3838.2618            0    9714.8055    16.803732    19.792577    20.500514    6818.2488    9192.0541    10030.156     9922.207   -523.37774   -561.50264    941.02555   -2400.2083 
18361000    271.28807   -3844.7998   -3379.8213   -3844.7998            0    11403.073    16.800732    19.789043    20.496854    6814.5976    9484.6451    12123.624    12600.948   -726.70517   -548.09558    279.74285   -2246.5393 
18362000    258.44782   -3834.8277    -3391.857   -3834.8277            0    9581.4075    16.807641    19.797181    20.505283    6823.0083    10504.363    8468.3997    9771.4598   -1501.5352    -1478.992    1161.9934    -2438.444 
18363000    263.47195    -3848.332   -3396.7501    -3848.332            0    12227.057    16.753668    19.733608    20.439436    6757.4886    11766.123    12248.092    12666.956   -1373.3872    1167.2412    2278.5734   -2191.7609 
18364000    279.17836   -3817.9287   -3339.4266   -3817.9287            0    12159.996    16.775848    19.759733    20.466495    6784.3622    9969.8055    12831.282    13678.902   -1091.5643   -613.40371   -736.93453   -2136.2805 
18365000    281.45488   -3839.9119   -3357.5079   -3839.9119            0    12468.969    16.774699     19.75838    20.465093    6782.9683    12863.783    11798.493    12744.632    61.310407   -1461.1417     702.6093   -2124.0446 
18366000    259.09404   -3824.7771   -3380.6988   -3824.7771            0    13739.358    16.762259    19.743727    20.449917    6767.8892    12790.929     16264.13    12163.015   -8.6313427   -3136.2156    378.86709   -2024.5868 
18367000    264.33161   -3856.2142   -3403.1588   -3856.2142            0    8739.6759    16.839885     19.83516     20.54462    6862.3508     9974.215    8631.3657    7613.4471    1911.6667   -185.43939   -580.93871    -2528.489 
18368000     270.2177   -3841.9356   -3378.7917   -3841.9356            0    14838.242     16.70305    19.673987    20.377682    6696.4241    12829.135    15443.376    16242.217    1296.8616   -1640.2212   -633.20813   -1929.6818 
18369000    280.23509   -3824.6904   -3344.3771   -3824.6904            0    10221.522    16.763991    19.745767     20.45203    6769.9868    9241.9752    10965.476    10457.114   -904.33595    443.41998    171.36271   -2335.1724 
18370000     246.8924   -3814.8311   -3391.6659   -3814.8311            0    11644.823    16.764948    19.746894    20.453197    6771.1462    12092.577    11241.535    11600.358   -666.36156    1452.4254   -140.76319   -2241.7371 
18371000    282.65854   -3823.4638   -3338.9967   -3823.4638            0    12937.937    16.720733    19.694815    20.399255    6717.7142    12565.163     13578.48    12670.166   -447.68232   -958.21231   -4.2280991   -2071.4545 
18372000     282.3209   -3839.9652   -3356.0769   -3839.9652            0    9910.5181    16.830188    19.823739    20.532791     6850.504    11033.653    10885.158    7812.7424    344.87086    366.59286   -877.98339   -2365.9411 
18373000    262.55981   -3845.7956    -3395.777   -3845.7956            0    13382.951    16.781898     19.76686    20.473877    6791.7057    13060.589    13137.011    13951.252     147.2726   -1045.7594   -1060.7783    -2070.195 
18374000    272.45683   -3829.4464   -3362.4647   -3829.4464            0    10781.052    16.847939    19.844647    20.554447    6872.2029    11595.296    11783.336    8964.5232   -22.125887   -407.77623    167.31291   -2281.9442 
18375000    279.49225   -3787.7464   -3308.7063   -3787.7464            0    13861.363    16.778995     19.76344    20.470335    6788.1812    13071.832    12697.442    15814.816    680.23793    1142.8462    510.42378   -1936.4499 
18376000     272.5305   -3845.6437   -3378.5357   -3845.6437            0    11093.545    16.900075    19.906056    20.618052    6936.1977    10057.075    11543.042    11680.519   -638.15594    100.04313    2061.5135   -2256.3423 
18377000     272.1971   -3817.0888   -3350.5523   -3817.0888            0    12481.908    16.757748    19.738413    20.444413    6762.4261    14556.059    8755.2249    14134.439    1490.1676   -491.84806   -840.03492   -2119.5485 
18378000    267.43167   -3832.8193   -3374.4506   -3832.8193            0    11448.127    16.751085    19.730565    20.436285    6754.3633    11849.277    11571.924     10923.18   -371.60085   -208.96062   -823.88575   -2246.7476 
18379000    279.82999   -3830.1729   -3350.5539   -3830.1729            0    12311.223    16.781265    19.766114    20.473105    6790.9371    11478.592    12153.591    13301.485   -1335.1519     865.5803   -377.22108   -2131.2645 
18380000    257.61401   -3836.6947   -3395.1531   -3836.6947            0    11407.988    16.757349    19.737944    20.443927    6761.9438    10162.294    11090.202    12971.469    601.25794   -1764.2396   -621.66792   -2270.1428 
18381000    266.85861   -3833.4424   -3376.0559   -3833.4424            0    10647.066    16.756273    19.736676    20.442614    6760.6408    10957.844    11016.336    9967.0179    197.25375    411.95711    717.94676    -2326.287 
18382000    276.84196    -3784.427   -3309.9294    -3784.427            0     13670.12    16.762867    19.744443    20.450659    6768.6255    15282.867    12872.937    12854.557   -256.72909     729.5269   -278.64494   -1960.5045 
18383000    256.23339   -3826.4435   -3387.2682   -3826.4435            0    11140.343    16.847676    19.844337    20.554125    6871.8804     12990.74    10214.828     10215.46   -438.67167   -1223.2164    2016.8493   -2270.7906 
18384000    261.99673   -3853.8601   -3404.8066   -3853.8601            0    11693.523    16.776131    19.760066    20.466841    6784.7057    9621.3717    11185.164    14274.034   -82.959147    390.09485    292.54315   -2247.7562 
18385000    259.73036   -3844.6909    -3399.522   -3844.6909            0    12400.759    16.786085    19.771791    20.478985    6796.7903    12432.438    11226.956    13542.883    607.37677    1466.9524    2266.0061   -2170.3065 
18386000    271.16377    -3831.859   -3367.0936    -3831.859            0    11606.328    16.825013    19.817643    20.526476     6844.186    10228.021    11949.867    12641.095   -617.74248    1169.5578    483.65859    -2208.603 
18387000    254.04826    -3815.454    -3380.024    -3815.454            0     12364.21    16.829398    19.822807    20.531826    6849.5383    12334.328    12474.545    12283.756    -573.0044   -2524.7772    1012.4808   -2144.9199 
18388000    269.62005   -3828.0465   -3365.9269   -3828.0465            0    13330.605    16.751299    19.730818    20.436546    6754.6226    13126.063    13300.455    13565.298    1134.7103     30.51553    19.658141   -2052.7391 
18389000    251.99712   -3834.9587   -3403.0443   -3834.9587            0    12183.709    16.767463    19.749856    20.456265     6774.194    11416.204    12351.642    12783.282   -448.97123    -686.3859    1622.2238   -2199.3587 
18390000    274.54807    -3811.114    -3340.548    -3811.114            0    11955.161    16.760153    19.741246    20.447347     6765.338    12008.213    13252.257    10605.014    1259.7414    546.69971   -550.35743   -2160.9859 
18391000    266.66729   -3854.7772   -3397.7186   -3854.7772            0    9852.2822    16.829223    19.822602    20.531613    6849.3255     8605.114    10208.148    10743.585   -175.10869    237.47095   -1015.5926   -2413.5703 
18392000    258.02355   -3815.3943   -3373.1508   -3815.3943            0    11465.223    16.775311      19.7591     20.46584    6783.7106    11842.189    12203.517    10349.964    -17.00023   -130.81968    285.36414   -2238.8566 
18393000     255.4498   -3815.5079   -3377.6757   -3815.5079            0     14074.05    16.724024    19.698691     20.40327    6721.6816    14203.017    10718.208    17300.925   -633.48307   -1098.7293   -562.34626    -1998.013 
18394000     261.7253   -3826.3016   -3377.7134   -3826.3016            0    11679.576    16.709368    19.681428     20.38539    6704.0252    13177.565    11435.165    10425.997   -1501.1287   -2.9912908   -505.23603   -2235.7857 
18395000    279.07269   -3836.3523   -3358.0313   -3836.3523            0     10844.54    16.772584    19.755888    20.462513    6780.4029    11331.623    8360.8146    12841.182    1057.9387    -1019.924     -812.456   -2285.6665 
18396000    274.88253   -3894.1737   -3423.0345   -3894.1737            0    11882.199    16.811023    19.801164    20.509408    6827.1272    10704.009    13213.845    11728.742    105.28778    314.17488   -113.88853   -2239.9638 
18397000    269.34067   -3889.8591   -3428.2185   -3889.8591            0    10098.268    16.790907     19.77747    20.484867    6802.6486    11258.917    9083.5315    9952.3544    509.87462    403.62913    32.972651   -2426.3728 
18398000     260.1092   -3857.3558   -3411.5376   -3857.3558            0    13710.237    16.734897    19.711498    20.416535    6734.8001    14954.775    14726.911    11449.024    955.43408    610.15127    1781.9599    -2064.916 
18399000    279.87401   -3808.6676   -3328.9731   -3808.6676            0    11842.763    16.747588    19.726446    20.432018    6750.1335    10404.498    11814.077    13309.714    1358.6502    240.49661    2342.1052   -2163.1269 
18400000    258.77366   -3819.0527   -3375.5235   -3819.0527            0    12407.881    16.797603    19.785357    20.493036    6810.7905    10867.392      12391.7    13964.551   -21.158248    218.81446    3.8712115   -2143.0686 
18401000     270.6491   -3823.5997   -3359.7164   -3823.5997            0     12589.31    16.813287    19.803831     20.51217    6829.8856    14781.677    10976.983    12009.271   -471.89016    1001.6171    860.98275   -2105.7345 
18402000    256.66397   -3829.8407   -3389.9274   -3829.8407            0    9879.1868    16.853347    19.851016    20.561043    6878.8216    7056.2238    12239.574    10341.763   -972.07397   -389.79241    2513.4768   -2398.8419 
18403000    268.16966   -3828.2916    -3368.658   -3828.2916            0    10170.494    16.806933    19.796347    20.504419    6822.1456    9453.3485    10853.945    10204.189    776.70313     517.5653    72.958134   -2356.7549 
18404000    258.50691   -3843.1906   -3400.1186   -3843.1906            0    10492.388    16.812893    19.803368    20.511691    6829.4066    10176.823    12260.052     9040.289    1157.1464     681.6146    468.01145    -2355.078 
18405000    272.08338   -3855.3864   -3389.0448   -3855.3864            0    11906.609    16.767475    19.749871     20.45628     6774.209     12207.94    12201.755    11310.132    1998.4454   -838.63429   -1440.2678   -2212.7327 
18406000    250.10905   -3851.7768   -3423.0985   -3851.7768            0     9584.618    16.841986    19.837635    20.547184    6864.9208    10594.487    9343.8388    8815.5279   -197.07249   -546.93451   -200.29604   -2463.5073 
18407000    272.61548   -3874.5838   -3407.3302   -3874.5838            0    10440.054    16.773744    19.757255    20.463928    6781.8098    10485.316     11438.62    9396.2266   -377.88532   -76.875457    1529.7295   -2374.7489 
18408000    265.99055   -3861.7382   -3405.8395   -3861.7382            0    11064.839    16.774055    19.757621    20.464308     6782.187    10192.616    10555.135    12446.767    58.033252    904.75719    129.25657   -2311.4025 
18409000    263.43455   -3839.0398    -3387.522   -3839.0398            0    12025.422      16.8215    19.813505     20.52219    6839.8996     12505.57    11815.781    11754.914    511.81934   -547.98647    24.226538    -2187.951 
18410000     290.7462    -3833.105   -3334.7759    -3833.105            0    11962.981    16.806403    19.795723    20.503772    6821.5005    10127.005     14523.55    11238.388   -395.30265   -386.63583   -1542.1092   -2144.6437 
18411000    271.18692    -3881.581   -3416.7759    -3881.581            0     12009.21    16.760954     19.74219    20.448325    6766.3083    12245.509    12761.814    11020.307   -40.995086   -423.26272   -1402.3131    -2231.711 
18412000    264.18664   -3871.7658   -3418.9589   -3871.7658            0    9807.4841    16.821603    19.813626    20.522316    6840.0251    10384.293    9447.4692    9590.6906   -360.92779   -1393.1723    98.075161   -2440.6158 
18413000    255.57359   -3822.2806   -3384.2362   -3822.2806            0    13374.518    16.807153    19.796606    20.504688     6822.414    15232.066    12270.662    12620.827    -788.6529    192.16773    -93.84721   -2053.4996 
18414000    274.31981   -3871.4375   -3401.2628   -3871.4375            0    11354.179    16.823377    19.815716    20.524481    6842.1899    13127.407    11519.102    9416.0291    817.74165   -315.08293   -272.54916    -2268.271 
18415000    258.98115   -3831.4929    -3387.608   -3831.4929            0    10837.526    16.816239    19.807308    20.515772    6833.4842    11001.465    10155.611    11355.502    1110.8205   -1065.9038    953.47079   -2307.5471 
18416000    263.29493   -3836.7859   -3385.5074   -3836.7859            0    10274.382    16.854502    19.852377    20.562453    6880.2364    9055.8122    9812.8309    11954.503    760.02972    629.64929   -1214.6414   -2354.5637 
18417000    259.11461     -3877.01   -3432.8964     -3877.01            0    10430.375    16.761391    19.742705    20.448858    6766.8377    9884.2252    11502.842    9904.0565   -494.71859   -536.63517    308.46567     -2403.55 
18418000    282.10752   -3847.5903   -3364.0677   -3847.5903            0    13861.738    16.761665    19.743027    20.449192    6767.1696    14063.678    11831.801    15689.734   -849.84486    1951.4311   -1847.8399   -1996.0219 
18419000    284.66203   -3839.6013   -3351.7003   -3839.6013            0    9859.0883    16.825433    19.818138    20.526989    6844.6987    9978.5706    10501.968    9096.7268    985.75907   -829.83912   -1583.9908   -2367.5374 
18420000    272.26433    -3870.819   -3404.1672    -3870.819            0    10868.835    16.796743    19.784345    20.491987    6809.7448      12527.1    8892.2577    11187.147    1311.5697     200.7396    329.54064   -2324.7491 
18421000    272.68662   -3858.5577   -3391.1821   -3858.5577            0     9563.947    16.792232    19.779031    20.486484    6804.2594    10797.836    8986.9805    8907.0242   -244.04548     991.2178    941.54068   -2442.1216 
18422000    282.97244   -3859.0096   -3374.0045   -3859.0096            0    12845.997    16.748206    19.727174    20.432772    6750.8811     13182.24    13475.057    11880.695   -118.39544    2014.9463    1422.4178    -2109.256 
18423000    265.32623   -3844.0255   -3389.2654   -3844.0255            0    11265.038    16.775788    19.759662    20.466422    6784.2893    11750.739    10877.824    11166.552    431.25558   -1461.2071    652.96191   -2274.6811 
18424000    268.97892   -3844.3657    -3383.345   -3844.3657            0    10451.102    16.833977    19.828201    20.537412    6855.1311    11475.658    12227.761    7649.8885   -1612.0269   -443.96169   -354.49304   -2338.4955 
18425000    271.35151    -3817.923   -3352.8358    -3817.923            0    12263.123    16.791405    19.778057    20.485475    6803.2542    12064.691    11132.101    13592.576    1882.9544     -314.791   -1660.5094   -2136.1074 
18426000    270.49895   -3866.2403   -3402.6144   -3866.2403            0    10226.216    16.798391    19.786286    20.493998    6811.7496    10275.361    8352.5303    12050.758    69.656195   -1329.0675   -1093.0986   -2386.7177 
18427000    273.70606    -3812.482   -3343.3592    -3812.482            0    11367.397     16.75764    19.738286    20.444281    6762.2954    12063.904    10334.095    11704.193    588.21244   -230.28792    1370.8964   -2222.2935 
18428000    266.78972   -3818.1303   -3360.8618   -3818.1303            0     10918.43     16.80299    19.791703    20.499609    6817.3457    10167.556    12417.197    10170.536   -1232.1005    568.65337   -718.59147   -2275.3079 
18429000    263.13053   -3817.6268   -3366.6301   -3817.6268            0    11490.323    16.768602    19.751198    20.457655    6775.5749    10467.527    12822.142      11181.3    1571.5345      717.722    458.62275    -2231.216 
18430000    265.76319   -3855.0625   -3399.5535   -3855.0625            0    9800.9792    16.789916    19.776303    20.483658    6801.4446    7645.8157    10106.975    11650.147     1860.058   -201.47265    70.161262   -2427.3738 
18431000    278.51836   -3829.3605   -3351.9895   -3829.3605            0    13355.338     16.69071    19.659451    20.362627    6681.5926     13249.89    14399.948    12416.177    2408.1163      213.018   -179.78943   -2050.5896 
18432000    287.06143   -3845.0591   -3353.0456   -3845.0591            0    10638.386    16.775663    19.759515     20.46627    6784.1383    8559.4208    13239.023    10116.716   -20.017753   -1100.4936   -30.510024   -2300.4868 
18433000    258.27261   -3868.6885   -3426.0181   -3868.6885            0    8843.8461    16.831934    19.825795     20.53492    6852.6358    9832.3932    8722.5794    7976.5658    950.28214   -432.88222   -915.02101   -2542.1759 
18434000    266.91219   -3860.3355   -3402.8572   -3860.3355            0     12878.51    16.746409    19.725058     20.43058    6748.7083     12822.11    11609.112    14204.308    -1135.178   -795.97055   -1001.5586   -2135.3157 
18435000    270.41465    -3811.955   -3348.4735    -3811.955            0    13459.587     16.75999    19.741054    20.447148    6765.1406    13911.386    11050.913    15416.463    747.98255     1220.441    294.04037   -2020.5152 
18436000    289.15054    -3818.068   -3322.4739    -3818.068            0    12384.865    16.705227    19.676551    20.380338    6699.0431    12479.877    14019.408     10655.31    1455.3336   -216.65805    -1236.945    -2112.489 
18437000    261.66661   -3831.4193   -3382.9317   -3831.4193            0    9292.4671    16.768957    19.751617    20.458089    6776.0058    8663.2638    10401.753    8812.3846   -2129.3546   -1278.2374    1917.7481     -2464.64 
18438000     259.9889   -3788.8184   -3343.2063   -3788.8184            0    9758.1111    16.864313    19.863933    20.574423    6892.2586      9319.22    11037.136    8917.9772   -924.32403   -2512.3472    678.96043   -2362.3549 
18439000    262.35215   -3841.2585   -3391.5959   -3841.2585            0    10337.875    16.819291    19.810903    20.519496    6837.2058    10838.431    11142.612    9032.5824   -1329.8336    1215.1097    545.22222   -2360.7688 
18440000    289.18033   -3838.1535   -3342.5083   -3838.1535            0    12333.975    16.812365    19.802745    20.511046    6828.7626    12499.131     11118.24    13384.553   -98.161174    1123.6205   -979.15277   -2114.1616 
18441000    276.60338   -3829.4492   -3355.3605   -3829.4492            0    11603.973    16.791572    19.778254    20.485679    6803.4573    10866.635    11787.159    12158.126   -623.78646   -2515.5974   -1094.5791   -2203.9975 
18442000    271.95946   -3825.4853   -3359.3561   -3825.4853            0    11478.805    16.733063    19.709338    20.414298    6732.5867    12018.046    10200.255    12218.112    2734.6186    703.41199   -391.10505   -2232.2767 
18443000    265.37973   -3845.7533   -3390.9015   -3845.7533            0    12759.162    16.767585        19.75    20.456415    6774.3424    12771.018    14013.805    11492.663   -339.10613   -1562.4351    219.61261   -2130.3367 
18444000    287.12857   -3854.4647   -3362.3362   -3854.4647            0    13582.438    16.741389    19.719145    20.424456    6742.6416    13379.785    14413.446    12954.083   -1546.2749   -911.74241   -1048.9164   -2026.7138 
18445000     268.8286   -3837.9021   -3377.1391   -3837.9021            0    11031.699    16.791901    19.778641     20.48608    6803.8567    12435.375    9611.2709     11048.45    1796.5046   -1226.8764    989.30251   -2282.4937 
18446000    261.67504   -3811.0952   -3362.5932   -3811.0952            0    11368.158    16.787907    19.773937    20.481208    6799.0036    11226.397    11345.441    11532.636    2870.5213    913.84942    442.99697   -2235.3665 
18447000    264.07128     -3820.71   -3368.1008     -3820.71            0    12053.571    16.791272    19.777901    20.485313    6803.0927    11239.088    12645.842    12275.781   -15.808835   -592.23913   -189.09303   -2172.1922 
18448000    269.71608   -3829.3494   -3367.0652   -3829.3494            0    10268.013    16.851081    19.848347    20.558279    6876.0473    9853.6283    10742.594    10207.815   -202.66611    1488.8198    799.25269   -2337.3879 
18449000    278.13365   -3807.3911   -3330.6795   -3807.3911            0    12575.389    16.789481    19.775791    20.483127    6800.9156    11716.222    14662.331    11347.615   -1210.8706    541.99934    -392.2722   -2083.3974 
18450000    261.68517   -3824.0264    -3375.507   -3824.0264            0    12353.424    16.811577    19.801817    20.510084    6827.8021    11388.574    12719.613    12952.086   -393.86755   -784.68364    229.57455   -2145.3963 
18451000     266.7114   -3837.5237   -3380.3895   -3837.5237            0     12159.06    16.874224    19.875607    20.586514    6904.4173     11486.24    13731.728    11259.212    1875.8771    1374.2989   -565.08308    -2156.047 
18452000    273.80189   -3817.0548   -3347.7677   -3817.0548            0     12549.03    16.780421     19.76512    20.472075    6789.9125    13428.135    14253.494    9965.4608   -1289.9621   -12.399125   -1046.1081   -2105.1137 
18453000    266.85247   -3873.2908   -3415.9148   -3873.2908            0    12553.894    16.771694     19.75484    20.461428    6779.3241    13098.074    12390.878    12172.729   -328.60703   -1077.2936    1345.1789   -2174.7178 
18454000    251.83921    -3851.796   -3420.1522    -3851.796            0    11380.569    16.852626    19.850167    20.560164    6877.9392    11343.546    12897.417    9900.7449    1891.2325   -164.75325   -1250.8489   -2278.5936 
18455000    258.92968   -3868.7228   -3424.9262   -3868.7228            0    12371.955    16.798831    19.786804    20.494535    6812.2846    11938.859     13852.22    11324.787   -562.27862    -207.2017    814.53685   -2195.7702 
18456000    254.54367   -3832.3024   -3396.0233   -3832.3024            0    11472.548    16.834589    19.828922    20.538159    6855.8788    11827.278    10034.772    12555.594    73.928444   -886.48181   -451.36599   -2248.9295 
18457000    264.88414   -3839.0475   -3385.0451   -3839.0475            0    13241.347    16.805245    19.794359    20.502359    6820.0903    13793.405    9777.3755     16153.26     -769.465    1407.8233    1095.1022   -2068.0075 
18458000    263.53303   -3798.2944   -3346.6078   -3798.2944            0    13388.893    16.788332    19.774438    20.481726    6799.5202    11909.322    14063.755    14193.601    1259.0977    2226.9232    519.34866   -2018.9113 
18459000    261.48892    -3831.763   -3383.5799    -3831.763            0     10677.94    16.781396    19.766268    20.473264     6791.096    9391.8752    11388.431    11253.514   -366.96008    286.94109   -2767.8975   -2326.0243 
18460000    289.03119   -3857.0452   -3361.6556   -3857.0452            0    12005.939    16.782961    19.768111    20.475173    6792.9956    12279.001    11281.429    12457.387    593.47712   -1406.1448   -515.09431   -2172.2408 
18461000    278.34734   -3862.2384   -3385.1606   -3862.2384            0    11630.822    16.706866    19.678482    20.382338    6701.0147    12358.618    11843.094    10690.754    486.99938    -1347.521    905.58539   -2248.5103 
18462000    268.20217   -3846.8695   -3387.1802   -3846.8695            0    12630.432    16.732921     19.70917    20.414124    6732.4145    12198.115    12496.894    13196.287     1022.419   -528.50406     511.4664   -2147.0567 
18463000    281.53304   -3850.6185   -3368.0805   -3850.6185            0    12552.301    16.785483    19.771082     20.47825    6796.0584    13180.742    11504.865    12971.297   -246.38723   -396.98086   -412.07246   -2123.9775 
18464000    262.63465   -3847.8914   -3397.7446   -3847.8914            0    10069.278    16.830655    19.824288    20.533359    6851.0733    10037.258    10989.733    9180.8434   -2978.9207   -1472.3506    1236.0977   -2391.6638 
18465000    252.96701   -3870.6624   -3437.0856   -3870.6624            0    12079.201    16.807073    19.796513     20.50459    6822.3169    11046.515    11692.311    13498.777   -779.38597   -1492.0529    206.28931   -2235.2474 
18466000    269.16956   -3846.3883   -3385.0409   -3846.3883            0    11652.756    16.831722    19.825545    20.534662    6852.3771    11688.914    11098.441    12170.914   -1294.4017    621.68603   -431.17756    -2220.524 
18467000     268.1155   -3839.3384   -3379.7976   -3839.3384            0    13516.291    16.734004    19.710446    20.415446    6733.7222    13473.953    12339.255    14735.666   -2437.4581    411.28367    1397.8283   -2052.4379 
18468000    269.09779   -3836.6036   -3375.3792   -3836.6036            0    10710.256     16.84638    19.842811    20.552545    6870.2952    10678.779    11039.604    10412.385   -353.33791   -2001.9848    141.45068   -2302.2522 
18469000    270.45289   -3837.4691   -3373.9221   -3837.4691            0    10117.956    16.869828    19.870429    20.581151    6899.0223    9355.2426    11276.352    9722.2743    1636.4352    1065.1785   -762.81034   -2355.9023 
18470000    260.66047   -3838.6066   -3391.8435   -3838.6066            0    12621.217    16.779484    19.764016    20.470931    6788.7746    13660.972    11908.863    12293.817   -54.739468   -159.34936   -1152.2393   -2142.2506 
18471000    277.00156   -3854.1627   -3379.3915   -3854.1627            0    12204.362    16.792779    19.779676    20.487152    6804.9249    13186.955    12452.132        10974    673.73948    383.81939   -391.97705   -2168.1958 
18472000    265.92966   -3848.9217   -3393.1273   -3848.9217            0    12729.462    16.831351    19.825108    20.534209    6851.9235    10820.501    12181.338    15186.546   -138.13216    1947.2652   -924.77654   -2121.0942 
18473000    259.10131    -3848.311   -3404.2202    -3848.311            0    9864.5871    16.902932    19.909421    20.621537     6939.716    9564.7132    10024.699    10004.349    982.20475   -685.39881    369.79766   -2405.8388 
18474000    266.40085   -3827.3727   -3370.7708   -3827.3727            0     11664.96    16.830055    19.823582    20.532628    6850.3414    11029.616    12760.336    11204.928  -0.11097001   -230.99009   -55.223807   -2205.3806 
18475000    277.82544   -3851.4769   -3375.2936   -3851.4769            0    13919.441    16.745754    19.724286     20.42978    6747.9164    12318.333    16765.788    12674.202    714.80277   -271.64402   -818.40288   -2005.4614 
18476000    269.06871   -3811.0145     -3349.84   -3811.0145            0    11954.529    16.787482    19.773436    20.480689    6798.4868    9792.6313    13502.028    12568.928    -1612.499      1822.01    255.67773   -2164.5609 
18477000    276.46795   -3776.7675   -3302.9109   -3776.7675            0    11255.727    16.832691    19.826687    20.535844    6853.5609    11883.174    12472.569    9411.4387   -25.502222   -133.53435    408.62635   -2177.8767 
18478000    272.69574    -3801.989   -3334.5979    -3801.989            0    11416.411    16.823001    19.815273    20.524022    6841.7315    13773.144    10174.744    10301.346   -949.36214    891.06887    236.49647   -2195.4725 
18479000    263.76064   -3813.8418   -3361.7651   -3813.8418            0    10946.658    16.828228     19.82143    20.530399    6848.1105    9629.7043    11608.379    11601.889    658.67484   -814.60452   -413.69316   -2268.4932 
18480000    276.12033   -3816.2207   -3342.9599   -3816.2207            0    12036.927    16.853474    19.851167    20.561199     6878.978    12110.101    12576.886    11423.793    1187.8382    9.5223861    56.844323   -2135.3813 
18481000    283.77095     -3841.74   -3355.3663     -3841.74            0    11684.995     16.82145    19.813446     20.52213    6839.8391    10326.453    12426.865    12301.667   -1047.6898   -931.18719   -15.511029   -2189.7642 
18482000    271.25029   -3842.9138   -3378.0001   -3842.9138            0    10780.061    16.784428    19.769839    20.476963    6794.7774    11183.162    10718.789    10438.232   -87.913038    201.46715   -304.12968   -2309.7515 
18483000    268.29075    -3843.032   -3383.1908    -3843.032            0    12234.887    16.749718    19.728955    20.434617    6752.7097    11319.945    11792.479    13592.236    569.35636     40.63978    840.22493   -2178.2827 
18484000    264.20042   -3797.3681   -3344.5376   -3797.3681            0    10719.747    16.815925    19.806939     20.51539     6833.102    11382.373    9841.5323    10935.335    352.57425     779.0443   -1267.0872   -2276.2743 
18485000    255.59405   -3815.5762   -3377.4968   -3815.5762            0    10211.741    16.782274    19.767302    20.474336    6792.1621    9690.1287    11547.314    9397.7794    870.04971   -1596.3099    93.976165   -2365.9553 
18486000     274.4373   -3815.1767   -3344.8006   -3815.1767            0    12880.546    16.768531    19.751115    20.457569    6775.4894    12688.747    10874.748    15078.142   -1141.9729     -13.7956   -1132.6882   -2072.0279 
18487000    268.53135   -3827.1467   -3366.8932   -3827.1467            0    13007.463    16.814149    19.804846    20.513222    6830.9365    13436.275    13303.289    12282.826    48.824011    146.12946   -776.24496    -2071.061 
18488000     266.0757   -3830.6966    -3374.652   -3830.6966            0    13183.614    16.808332    19.797995    20.506126    6823.8501    13875.669    13493.424    12181.749    582.87717   -123.82308   -1885.3737   -2062.6338 
18489000    268.11865   -3834.3322    -3374.786   -3834.3322            0    9979.2087    16.829686    19.823147    20.532177    6849.8903    9698.4971    10436.647    9802.4814    34.950769    1282.2794    -637.5719   -2377.8768 
18490000    255.62854    -3804.476   -3366.3374    -3804.476            0    11690.393    16.789866    19.776245    20.483597    6801.3839    10998.583    11995.103    12077.492    123.39866   -198.22447   -1106.0251   -2206.7533 
18491000    274.33024   -3853.9002   -3383.7076   -3853.9002            0    12336.038    16.760584    19.741754    20.447873    6765.8604    12855.725    13862.809     10289.58   -1280.6502    243.80097    619.26513   -2166.4721 
18492000    256.39291   -3807.0239   -3367.5752   -3807.0239            0     11371.95    16.811163     19.80133     20.50958    6827.2986    12460.468    10402.011    11253.372   -65.360611   -544.34351    446.15834   -2235.2798 
18493000    268.79472   -3813.0967   -3352.3917   -3813.0967            0    9327.9505    16.924753    19.935123    20.648159    6966.6277     8113.982    9588.0204    10281.849    350.87009    1236.6501    1212.8907   -2404.6615 
18494000    280.64131   -3814.8505   -3333.8409   -3814.8505            0    12610.563    16.784537    19.769967    20.477096    6794.9096    12540.385    14413.878    10877.424   -1049.3758   -1001.7144   -320.15317   -2084.1747 
18495000    280.67542   -3808.0551    -3326.987   -3808.0551            0    11153.764    16.828171    19.821363    20.530329    6848.0409    7794.8346    13622.795    12043.662    525.48423    237.79296   -172.55747   -2213.0422 
18496000    259.00645   -3806.0308   -3362.1026   -3806.0308            0    11584.828    16.804354    19.793309    20.501273    6819.0058    12277.774    10710.963    11765.748    5.9365773    1141.0726    1032.6618   -2210.0122 
18497000    266.56332   -3807.6235   -3350.7431   -3807.6235            0    11567.255    16.795134    19.782449    20.490024    6807.7878    9797.6191    12414.277    12489.871    564.48051      227.525    581.37211   -2202.2927 
18498000    269.70293   -3802.1517   -3339.8902   -3802.1517            0    10388.954    16.832162    19.826063    20.535198    6852.9141    10759.522    10953.064    9454.2758    318.51846   -1492.6222   -1308.9376   -2301.5898 
18499000    255.27019   -3842.5127   -3404.9884   -3842.5127            0     11022.44    16.817581    19.808889     20.51741    6835.1205    11213.056     9414.109    12440.154    861.47587    667.24053    -216.4976   -2306.2361 
18500000    282.57285   -3804.9705   -3320.6503   -3804.9705            0    11126.494    16.806922    19.796334    20.504406    6822.1325    9016.3611    13438.071     10925.05      168.246   -549.65625   -180.10814   -2213.6331 
Loop time of 522.376 on 64 procs for 250000 steps with 864 atoms

Performance: 82.699 ns/day, 0.290 hours/ns, 478.582 timesteps/s
99.1% CPU use with 64 MPI tasks x 1 OpenMP threads

MPI task timing breakdown:
Section |  min time  |  avg time  |  max time  |%varavg| %total
---------------------------------------------------------------
Pair    | 21.951     | 27.875     | 33.221     |  48.4 |  5.34
Bond    | 0.2767     | 0.2977     | 0.31791    |   1.2 |  0.06
Kspace  | 221.81     | 230.31     | 244.35     |  31.1 | 44.09
Neigh   | 6.0291     | 6.9659     | 8.5487     |  21.6 |  1.33
Comm    | 114.6      | 128.32     | 136.43     |  40.3 | 24.56
Output  | 1.2138     | 1.2152     | 1.2221     |   0.1 |  0.23
Modify  | 120.21     | 122.48     | 124.15     |   6.7 | 23.45
Other   |            | 4.913      |            |       |  0.94

Nlocal:        13.5000 ave          19 max           8 min
Histogram: 4 2 7 9 9 12 9 6 2 4
Nghost:        2323.48 ave        2355 max        2297 min
Histogram: 5 4 10 10 7 10 9 3 1 5
Neighs:        4516.89 ave        6387 max        2588 min
Histogram: 2 6 4 9 11 8 10 6 5 3

Total # of neighbors = 289081
Ave neighs/atom = 334.58449
Ave special neighs/atom = 2.0000000
Neighbor list builds = 14809
Dangerous builds = 0

unfix		3
unfix		2
unfix		1

write_data	data.final.${pid}
write_data	data.final.0
System init for write_data ...
PPPM initialization ...
  extracting TIP4P info from pair style
  using 12-bit tables for long-range coulomb (../kspace.cpp:340)
  G vector (1/distance) = 0.37508056
  grid = 24 24 24
  stencil order = 5
  estimated absolute RMS force accuracy = 0.0030688106
  estimated relative force accuracy = 9.241632e-06
  using double precision FFTW3
  3d grid and FFT values/proc = 2535 216
Last active /omp style is kspace_style pppm/tip4p/omp
WARNING: Not all mixed pair coeffs generated from mixing. Use write_data with 'pair ij' option to store all pair coeffs. (../write_data.cpp:312)

write_restart   restart.lmp.${pid}
write_restart   restart.lmp.0
System init for write_restart ...
PPPM initialization ...
  extracting TIP4P info from pair style
  using 12-bit tables for long-range coulomb (../kspace.cpp:340)
  G vector (1/distance) = 0.37508056
  grid = 24 24 24
  stencil order = 5
  estimated absolute RMS force accuracy = 0.0030688106
  estimated relative force accuracy = 9.241632e-06
  using double precision FFTW3
  3d grid and FFT values/proc = 2535 216
Last active /omp style is kspace_style pppm/tip4p/omp
Total wall time: 0:08:45
