LAMMPS (30 Jul 2021)
Processor partition = 0
  using 2 OpenMP thread(s) per MPI task
using multi-threaded neighbor list subroutines
variable        pid world 0 1
variable        phase world IceIII Liquid

shell cd ${phase}
shell cd IceIII
include Restart.lmp
echo both
log log.lammps
#include		in.partitions
include		in.temp
variable        temperature equal 256.86
variable	tempDamp equal 100.0
include		in.pressure
variable        pressure equal 9750.0
variable        pressureDamp equal 1000.0 # This is 1 ps
include		in.seed
variable        seed equal 745823

units		real
atom_style	full

read_restart	restart.lmp.${pid}
read_restart	restart.lmp.0
Reading restart file ...
  restart file = 30 Jul 2021, LAMMPS = 30 Jul 2021
  restoring atom style full from restart
  orthogonal box = (0.091299563 0.21440581 0.0012735800) to (19.908701 19.785595 20.698724)
  4 by 2 by 4 MPI processor grid
  restoring pair style lj/cut/tip4p/long/omp from restart
  restoring bond style harmonic/omp from restart
  restoring angle style harmonic/omp from restart
  972 atoms
  648 bonds
  324 angles
Finding 1-2 1-3 1-4 neighbors ...
  special bond factors lj:    0        0        0       
  special bond factors coul:  0        0        0       
     2 = max # of 1-2 neighbors
     1 = max # of 1-3 neighbors
     1 = max # of 1-4 neighbors
     2 = max # of special neighbors
  special bonds CPU = 0.002 seconds
  read_restart CPU = 0.011 seconds
include 	in.setup
variable	out_freq equal 1000
variable	out_freq2 equal 10000
variable	out_freq3 equal 1000

timestep	2.0

neigh_modify    delay 7 every 1

include		in.tip4p
# This is TIP4P/Ice

# create groups ###
group ox type 2
324 atoms in group ox
group hy type 1
648 atoms in group hy

# set charges - beside manually ###
set group ox charge -1.1794
Setting atom values ...
  324 settings made for charge
set group hy charge 0.5897
Setting atom values ...
  648 settings made for charge

# ### TIP3P Potential Parameters ###
pair_style lj/cut/tip4p/long/omp 2 1 1 1 0.1577 8.5
pair_coeff 1 1*2 0.000 0.000
pair_coeff 2 2 0.21084 3.1668
bond_style  harmonic
bond_coeff  1 450 0.9572
angle_style harmonic
angle_coeff 1 55 104.52
kspace_style pppm/tip4p/omp 1.0e-5
pair_modify tail yes

thermo          ${out_freq}
thermo          1000
thermo_style    custom step temp pe etotal epair emol press lx ly lz vol pxx pyy pzz pxy pxz pyz enthalpy

restart 	${out_freq3} restart.lmp.${pid} restart2.lmp.${pid}
restart 	1000 restart.lmp.${pid} restart2.lmp.${pid}
restart 	1000 restart.lmp.0 restart2.lmp.${pid}
restart 	1000 restart.lmp.0 restart2.lmp.0


include         in.dump
dump            myDump all atom ${out_freq2} dump.water.${pid}
dump            myDump all atom 10000 dump.water.${pid}
dump            myDump all atom 10000 dump.water.0
dump            myDump2 all dcd ${out_freq2} dump.dcd
dump            myDump2 all dcd 10000 dump.dcd
dump_modify     myDump append yes
dump_modify     myDump2 append yes


variable natoms 	equal  "count(all)"                        # NUMBER ATOMS
variable H      	equal  "enthalpy/v_natoms"                 # ENTHALPY-per-atom
variable Vol      	equal  "vol/v_natoms"                 # volume-per-atom
fix AVG all 		ave/time ${out_freq} 1 ${out_freq} v_Vol v_H file vol_enthalpy.dat
fix AVG all 		ave/time 1000 1 ${out_freq} v_Vol v_H file vol_enthalpy.dat
fix AVG all 		ave/time 1000 1 1000 v_Vol v_H file vol_enthalpy.dat


timer           timeout 02:55:00 every 1000
New timer settings: style=normal  mode=nosync  timeout=02:55:00

fix 		1 all shake 1e-6 200 0 b 1 a 1
Finding SHAKE clusters ...
       0 = # of size 2 clusters
       0 = # of size 3 clusters
       0 = # of size 4 clusters
     324 = # of frozen angles
  find clusters CPU = 0.001 seconds
fix             2 all nph aniso ${pressure} ${pressure} ${pressureDamp}
fix             2 all nph aniso 9750 ${pressure} ${pressureDamp}
fix             2 all nph aniso 9750 9750 ${pressureDamp}
fix             2 all nph aniso 9750 9750 1000
fix             3 all temp/csvr ${temperature} ${temperature} ${tempDamp} ${seed}
fix             3 all temp/csvr 256.86 ${temperature} ${tempDamp} ${seed}
fix             3 all temp/csvr 256.86 256.86 ${tempDamp} ${seed}
fix             3 all temp/csvr 256.86 256.86 100 ${seed}
fix             3 all temp/csvr 256.86 256.86 100 745823


run             250000
PPPM initialization ...
  extracting TIP4P info from pair style
  using 12-bit tables for long-range coulomb (../kspace.cpp:340)
  G vector (1/distance) = 0.37338408
  grid = 24 24 25
  stencil order = 5
  estimated absolute RMS force accuracy = 0.0032901924
  estimated relative force accuracy = 9.9083166e-06
  using double precision FFTW3
  3d grid and FFT values/proc = 3458 576
Last active /omp style is kspace_style pppm/tip4p/omp
Neighbor list info ...
  update every 1 steps, delay 7 steps, check yes
  max neighbors/atom: 2000, page size: 100000
  master list distance cutoff = 10.8154
  ghost atom cutoff = 10.8154
  binsize = 5.4077, bins = 4 4 4
  1 neighbor lists, perpetual/occasional/extra = 1 0 0
  (1) pair lj/cut/tip4p/long/omp, perpetual
      attributes: half, newton on, omp
      pair build: half/bin/newton/omp
      stencil: half/bin/3d
      bin: standard
Setting up Verlet run ...
  Unit style    : real
  Current step  : 31500000
  Time step     : 2
  Walltime left : 2:54:59.95
Per MPI rank memory allocation (min/avg/max) = 10.19 | 10.20 | 10.21 Mbytes
Step Temp PotEng TotEng E_pair E_mol Press Lx Ly Lz Volume Pxx Pyy Pzz Pxy Pxz Pyz Enthalpy 
31500000    267.43228   -4678.5853   -4162.8196   -4678.5853            0    10086.016    19.817402    19.571189    20.697451    8027.5089    8780.2915    11597.417    9880.3404    955.52104    439.38295     1233.739   -2982.0196 
31501000    250.88171    -4695.343   -4211.4965    -4695.343            0    10293.647    19.945677    19.512416    20.515858    7984.5332    10273.419    10224.398    10383.123    732.81033    1511.5178    647.15419   -3012.8402 
31502000    257.18529   -4690.8272   -4194.8238   -4690.8272            0    11042.517    19.755804    19.810295    20.363439     7969.605    9997.3794    11555.992     11574.18     1348.674   -506.75214    34.762614   -2911.3684 
31503000    257.19471    -4711.545   -4215.5234    -4711.545            0    10569.149    19.654835    19.945213    20.427843    8008.1205    9623.9667     10766.49    11316.992   -899.82008   -1125.0453    1146.8847   -2981.1501 
31504000    254.31068   -4729.2168   -4238.7573   -4729.2168            0    10306.359    19.848794    19.638447    20.422472    7960.6693    9959.1818    10128.523    10831.374   -67.097076    408.57636   -1269.9204   -3042.2075 
31505000    262.95736    -4702.805   -4195.6696    -4702.805            0     11206.96    19.722027    19.592536    20.517373    7928.0056     10895.32    12141.341     10584.22   -707.14561     501.7402   -686.23332   -2899.9003 
31506000    255.60667   -4687.4728   -4194.5138   -4687.4728            0    9580.4944    19.923169    19.710502    20.425902    8021.1629    9037.7401    10803.407    8900.3363    153.75787   -1264.5165    -766.2544   -3073.7834 
31507000    257.37776   -4700.7172   -4204.3426   -4700.7172            0    9732.9066    19.675293     19.86995    20.504082    8016.0115    10683.144    9083.4513    9432.1245   -504.26254   -592.55762   -44.465762   -3066.5142 
31508000    259.09262   -4706.9849    -4207.303   -4706.9849            0    9764.2943    20.060322    19.784799    20.287125    8051.7457    9456.6766    10118.795    9717.4114    849.43044    974.82885    879.26279   -3060.7166 
31509000    272.53593   -4710.1034   -4184.4949   -4710.1034            0    9896.5131    19.684291    19.831431    20.551192    8022.5205     10080.18    10492.744    9116.6158    32.885599   -1355.9351   -739.51903   -3026.6006 
31510000    263.87098   -4695.2244    -4186.327   -4695.2244            0     9419.289    19.780617    19.973684    20.370403    8048.1793    10907.769    7576.2498    9773.8484    2.4480831   -438.34916   -318.79563   -3080.7432 
31511000    244.45104   -4680.1491   -4208.7047   -4680.1491            0    11325.723     19.96875    19.904561    20.064099    7974.8612    10308.429    10955.973    12712.767    986.06248    -1955.732    99.491697   -2891.4646 
31512000    263.00668   -4671.7993   -4164.5688   -4671.7993            0    8342.5869    19.862326    19.914001    20.426404    8079.4267    6763.9346    9092.3624    9171.4636    541.29762    239.81447    -682.4345   -3181.5605 
31513000    267.26769   -4686.5149   -4171.0667   -4686.5149            0    9085.7687    20.136376    19.450923    20.607227    8071.2553    7121.8924    10816.747    9318.6672   -557.62425   -24.629079   -132.41883    -3101.572 
31514000    270.96214   -4750.8562   -4228.2829   -4750.8562            0    8720.5242    19.805406    19.818048    20.493566    8043.8167    9387.0111    9301.2394    7473.3221    655.15278   -473.65854    -354.3418   -3205.2711 
31515000    256.09622   -4721.4475   -4227.5444   -4721.4475            0    10645.975    19.806891    19.655846    20.693466    8056.4049      10295.7    10593.955    11048.271   -107.56277    144.08686    243.11651   -2976.7019 
31516000    265.58556   -4714.6235   -4202.4194   -4714.6235            0    10016.488    19.848455    19.550419    20.647318    8012.1012    9822.9488    10687.254    9539.2624     305.4507    1914.9037   -716.38756     -3032.01 
31517000    259.05604   -4712.1732   -4212.5618   -4712.1732            0     8108.446    19.508908    19.783217    20.832478    8040.2731    6920.1123    10581.142    6824.0839   -840.30782   -129.06257    1193.6251   -3261.7725 
31518000    256.11075   -4720.8199   -4226.8888   -4720.8199            0    9426.6235    19.736878    19.654475    20.460826    7937.1221    8541.6591    9604.6746    10133.537    257.68424    -1338.135   -2539.2817    -3135.712 
31519000    260.76847   -4706.4751   -4203.5611   -4706.4751            0    10084.685    19.936672    19.577679    20.447707    7981.0214    9522.4956    8839.0869    11892.473    -400.0298    752.84004    -74.81761   -3029.7541 
31520000    255.12034   -4714.9304   -4222.9094   -4714.9304            0     9631.659    19.870989     19.88172    20.461819    8083.8389    11341.581    9446.2539     8107.142     425.3582      1398.92   -889.45925   -3087.3898 
31521000    253.02176   -4727.3299   -4239.3562   -4727.3299            0    10517.448    19.473006    20.004437    20.552143    8006.0155    10753.329    10369.288    10429.727    888.64325    816.39879    54.401933   -3011.3439 
31522000    259.85745   -4718.9665   -4217.8095   -4718.9665            0     9638.773      19.8815    19.827317    20.461356    8065.8011    8633.7748    10084.611    10197.933   -780.88334    196.57351   -969.62721   -3083.9868 
31523000    245.31543   -4702.5752   -4229.4638   -4702.5752            0    11210.114    19.723165    19.492239    20.686879    7953.0428    10089.547     13837.32    9703.4761    542.00958   -678.24161    442.03875   -2929.2366 
31524000    267.14257   -4685.5324   -4170.3255   -4685.5324            0    8681.0624    19.649145    20.022856    20.598263    8104.0158    7553.3166    8903.9157     9585.955   -347.21712    1001.5097     1194.048   -3144.3215 
31525000    260.68402   -4689.9794   -4187.2283   -4689.9794            0    8194.5727     19.93144    19.875713    20.362849     8066.775    8224.0084    6693.9485    9665.7613    205.60787    2276.1634    1363.3107   -3223.1726 
31526000    262.46791   -4681.8512   -4175.6598   -4681.8512            0    10332.843    19.638392    19.864411    20.644274    8053.4361    9974.6205     10158.98     10864.93   -407.30283    820.56457    1453.2003   -2962.0559 
31527000    264.27493   -4678.0291   -4168.3526   -4678.0291            0    11022.666    19.897663    19.604768    20.558484    8019.6397    9238.9135    13175.248    10653.836   -532.18991   -599.71032    1597.7075   -2879.1613 
31528000    246.24515   -4710.6746   -4235.7701   -4710.6746            0    9368.8702    19.766301    19.970047    20.483081    8085.3679    8213.7073    10537.151    9355.7529    -178.0939    -1361.914    -2814.654   -3131.0229 
31529000    260.70318   -4699.1168   -4196.3288   -4699.1168            0    8956.8993    19.994958    19.616696    20.538373    8055.8689    9773.9665     9572.565    7524.1665    503.39524    2186.4829     378.5323   -3144.0132 
31530000    263.18606   -4700.0794    -4192.503   -4700.0794            0     7540.774     19.79707    20.126514    20.398329    8127.6326     8287.495     6964.737    7370.0899   -412.25255   -1097.1201    786.92797    -3298.671 
31531000    260.66492   -4667.7097   -4164.9955   -4667.7097            0    10892.193    19.926395    19.796147    20.242756    7985.0756    9164.5779    13194.906    10317.096   -216.58423   -31.900061    237.44106   -2896.5545 
31532000    265.13525   -4703.4783   -4192.1427   -4703.4783            0    8876.0864    19.867425    19.858921    20.390115    8044.8305     7729.874    10020.364    8878.0209   -286.08898    509.37036    891.13284   -3150.7505 
31533000    255.87178    -4681.242   -4187.7717    -4681.242            0     12226.77    19.511081    19.958994    20.364451    7930.3562    16306.034    9412.7199    10961.555   -432.28206    87.534277   -511.21781   -2773.6711 
31534000    247.65835   -4704.5452   -4226.9152   -4704.5452            0    9541.8343    20.062095    19.750282    20.280545    8035.8014    7801.2471    11009.921    9814.3352    -357.9649    307.23386    1376.7028   -3108.6702 
31535000    248.46191   -4732.2279   -4253.0483   -4732.2279            0     8977.074    19.569346     20.04767      20.3661    7990.0244    9549.0904    7533.2143    9848.9175   -567.78455     133.3022   -1630.6721    -3206.983 
31536000    238.70639   -4701.9655   -4241.6001   -4701.9655            0    9163.6639    19.899487       19.717    20.427025    8014.7102    10648.648    7056.4742    9785.8694   -80.556474   -60.184597    1149.6232   -3170.4931 
31537000    256.64402   -4698.2824   -4203.3228   -4698.2824            0     11027.15    19.629707    19.881994    20.469856    7988.9288    14468.741    7822.0215    10790.688    508.22198   -122.44213   -228.76391   -2918.5459 
31538000    259.74362   -4701.9969   -4201.0595   -4701.9969            0    8088.6316    20.163405    19.673717    20.398037    8091.6795    7260.5238    8882.0582    8123.3127   -43.219853    972.65969    233.65555   -3246.5294 
31539000    250.34703   -4717.9631   -4235.1478   -4717.9631            0    9887.6154    19.803445    19.894462    20.415161    8043.1427    10375.074    8728.7858    10558.986   -536.91704    1984.2475   -94.815885   -3075.3207 
31540000    248.53227   -4688.7405   -4209.4251   -4688.7405            0    10191.052    20.029225     19.60694    20.383898    8004.9976    9744.6703    8887.7376    11940.749   -798.36402    2522.8396   -592.66359   -3019.6739 
31541000     259.2079   -4702.5548   -4202.6506   -4702.5548            0    10338.873    19.709179    19.567436    20.710162    7987.0418    10765.944    11796.271     8454.404    725.95296   -540.26092    843.62199   -2998.3496 
31542000    255.01187   -4711.3805   -4219.5686   -4711.3805            0     10505.66    19.899005    19.861462    20.277464    8014.1273    11270.992    9382.2392    10863.749   -177.37138   -401.51427    267.34064   -2991.6899 
31543000    262.64982   -4695.2645   -4188.7222   -4695.2645            0    10537.885    19.712909    19.878816    20.434762    8007.7558    10066.974    11070.826    10475.854   -492.60957    814.78971   -470.33714   -2958.0564 
31544000    252.50167   -4718.5377    -4231.567   -4718.5377            0    11038.518    19.824598     19.64852    20.462383    7970.5897    11323.603    11353.539    10438.413   -156.58868    622.03901    1236.7123   -2948.4179 
31545000    245.29698   -4718.4213   -4245.3455   -4718.4213            0    10171.223    19.822882    19.719464    20.406738    7976.9249     8994.394    11656.276    9862.9979   -41.920336   -26.279841    1613.5344   -3062.0736 
31546000    256.74964    -4729.787   -4234.6237    -4729.787            0    9936.4482    19.900498    19.799237    20.438088    8052.9061    8945.5378    10186.949    10676.858   -274.18865    1053.5706   -792.68173   -3067.6537 
31547000    255.51769   -4721.1124   -4228.3251   -4721.1124            0    9914.4952    19.833117    19.877967    20.445739    8060.5699    11826.184    9514.8431    8402.4583    522.39284   -85.479702   -980.00322   -3062.8252 
31548000    254.37503   -4727.5579   -4236.9743   -4727.5579            0    9796.2894    19.803802    19.869629    20.311724    7992.5453    9050.1554    9139.2267    11199.486   -323.64834    563.41088    21.017979   -3095.0886 
31549000    261.98167   -4711.9106   -4206.6569   -4711.9106            0    8514.9775    19.868028    19.755669    20.475358    8036.7048    8455.5635    8923.0581    8166.3111   -193.52557    1112.4947   -935.08798   -3208.6411 
31550000    253.73116   -4739.8841   -4250.5422   -4739.8841            0    8589.6169    20.031413    19.775964      20.4011    8081.7016    8100.5895    9294.0718    8374.1894   -198.20772    1105.8054   -141.51704   -3238.1414 
31551000    280.80752   -4684.4955   -4142.9346   -4684.4955            0    9481.2249    19.922984    19.925766    20.406642    8101.0433     9016.411    9325.6665    10101.597   -250.44385   -173.86478    -381.4678   -3022.7714 
31552000    252.76143   -4714.4648   -4226.9931   -4714.4648            0    9527.4114     19.87549    19.673484    20.493296    8013.2911    10162.782    9183.1892    9236.2632   -543.06034  -0.90346171   -1131.4452   -3113.5661 
31553000    246.87106    -4713.305   -4237.1934    -4713.305            0    11108.869    19.583692     19.94107    20.275111    7917.8316    11775.001    10146.586    11405.019    -156.2651    1321.7774    805.45356   -2954.4139 
31554000    267.10699   -4698.1242   -4182.9859   -4698.1242            0    9766.2746    19.715838    19.880885    20.478072     8026.755    9846.6766    8962.2946    10489.852    481.13638   -886.62797    1103.8678   -3039.7264 
31555000    261.99738   -4713.9362   -4208.6523   -4713.9362            0    9134.9355    20.082174    19.516521    20.536288    8048.8734    7395.8411    12617.184    7391.7815   -27.516735    434.75968   -590.72536   -3136.3519 
31556000    272.34835   -4698.5926   -4173.3459   -4698.5926            0    8941.2547    19.818649    19.974015    20.425344    8085.5356    9342.5647    8738.2069    8742.9927   -95.928456   -1258.6923   -1286.7843   -3118.9999 
31557000     237.8822    -4703.149   -4244.3731    -4703.149            0    9656.9213    19.973654    19.864467    20.199569    8014.5018     8712.162     8986.485    11272.117    654.62246    403.27453   -494.83512   -3115.6404 
31558000    259.75174    -4723.954   -4223.0009    -4723.954            0     7543.087    19.953997    19.851821     20.48195    8113.3748    6543.7715    9013.8897    7071.5997    418.21955    669.08038   -680.66503   -3330.4633 
31559000    250.65588   -4690.9707   -4207.5598   -4690.9707            0    10741.489    20.007606    19.801153    20.246956    8021.3106    8625.5786    12043.093    11555.794     367.9179    840.17073    597.83447   -2950.9926 
31560000    255.77203   -4697.0968   -4203.8189   -4697.0968            0     11020.65    19.972582    19.758632    20.240943    7987.7016    8913.8463    11835.856    12312.249   -251.39562    1740.9419    297.60631   -2919.9965 
31561000     256.8356   -4698.8034   -4203.4744   -4698.8034            0    7653.4008    19.814251    19.678125    20.685558    8065.4501    8051.4258    7724.9869    7183.7898   -546.89354   -447.71778   -933.29377    -3303.233 
31562000    269.64092   -4693.6535   -4173.6283   -4693.6535            0    8979.8998    19.756783    19.868989     20.60702    8089.2301    8090.3867    9062.8299    9786.4829   -290.38735    408.96365    1192.4895   -3114.2415 
31563000    262.03672   -4678.6715   -4173.3116   -4678.6715            0     10957.06    19.936389    19.658432    20.389075    7990.8485     9342.845    11775.528    11752.807   -448.33486    162.11992    -1410.503   -2896.3942 
31564000    254.95718    -4686.768   -4195.0616    -4686.768            0    10452.349    19.917648    19.767841     20.30572    7994.9489     7910.175    11611.256    11835.617   -305.11813    -401.2148    476.11834   -2976.3372 
31565000    256.54358   -4714.3462   -4219.5803   -4714.3462            0    11742.124    19.703762    19.896427    20.362772    7982.9082    13228.135    10106.015    11892.221    20.041732   -55.964747   -1456.7145   -2852.5326 
31566000    266.75913   -4686.1489   -4171.6815   -4686.1489            0    9404.0856    19.864305    19.703817    20.536375    8037.9909    8691.7494    10018.254    9502.2538   -311.00851     1537.728   -1630.0552   -3069.2796 
31567000    252.71097   -4715.1384    -4227.764   -4715.1384            0    8532.8548    19.820158    20.026444    20.288336    8052.9939    7812.7702    8397.0311    9388.7631     -236.111   -24.952102   -348.59996   -3225.6258 
31568000    252.92642   -4712.5065   -4224.7166   -4712.5065            0    7954.4681    19.822217    19.827523    20.602539    8097.3221    6860.2667    8452.1727    8550.9647      82.3371   -2606.6757     701.7101   -3285.3644 
31569000    245.82814   -4724.9515   -4250.8512   -4724.9515            0    10114.216    19.802174    19.840441    20.381843    8007.6975    11970.532    10349.872    8022.2437   -183.74943    809.37413    154.34626   -3069.6721 
31570000    253.28591   -4690.9569   -4202.4737   -4690.9569            0     7798.224    20.072226     19.71024    20.337531    8046.1049    6244.5734    8123.7877    9026.3109    1023.3486    295.26155   -1547.4375   -3287.3974 
31571000    259.73405    -4701.171    -4200.252    -4701.171            0    10320.176    19.663596    19.817868    20.535089    8002.3302    10468.677    10431.971    10059.881    985.64917    758.07986    119.67079   -2995.8278 
31572000    274.22335   -4690.9292   -4162.0664   -4690.9292            0    7739.4431    19.824513      19.8388    20.600964    8102.2465    8541.3754    7425.8288    7251.1251    126.77509    267.76292    730.40025   -3247.5509 
31573000    251.58988   -4724.8429   -4239.6307   -4724.8429            0    11341.235    19.825482     19.72612    20.349146    7958.1405    11293.569    11308.753    11421.383    968.80669    1144.1417   -815.25299    -2923.352 
31574000    254.47203   -4724.8426   -4234.0719   -4724.8426            0    10124.023    20.026465    19.615536    20.297893     7973.618    10065.443    9758.9524    10547.672    322.17286   -482.76819   -652.97428   -3056.7793 
31575000    256.15605   -4718.5828   -4224.5643   -4718.5828            0    8618.6125    19.794339     19.79926    20.529076    8045.6168    9061.9454    8017.6521      8776.24   -650.93767   -422.86799     1234.958   -3213.2816 
31576000    262.56822   -4700.0956   -4193.7107   -4700.0956            0    11881.644    19.686642    19.694674    20.409506    7913.2145    12052.237    12374.939    11217.755   -593.94477    1608.4989   -1330.1836   -2822.4963 
31577000    256.38209    -4747.933   -4253.4786    -4747.933            0     11025.24    19.666701    19.686089    20.440383    7913.7071    11727.436    9725.2019    11623.082    99.670087   -516.49018    205.59222   -2981.0193 
31578000    261.84399   -4694.1586   -4189.1705   -4694.1586            0    8262.9255    19.853524     19.86136    20.537522    8098.3143    9369.8549    8345.8423    7073.0792    1218.6817    892.86221    439.63678   -3213.2726 
31579000     255.8039   -4712.3246   -4218.9852   -4712.3246            0    9646.2079    19.810165    19.695954    20.444519    7977.0448    9173.6293    9850.6638    9914.3305   -249.25943    1421.8738   -368.89681   -3096.7742 
31580000    265.03791   -4690.7166   -4179.5687   -4690.7166            0    10208.558    19.787709     19.65835    20.466008    7961.1481    10055.667    11477.281    9092.7242   -307.54826    983.70923   -2051.8319   -2994.3023 
31581000    261.86265   -4686.1414   -4181.1172   -4686.1414            0    10242.907    19.849953    19.671369    20.376602     7956.569    11309.765    9480.9759    9937.9818    512.98497   -1114.7399   -1969.2388   -2992.5467 
31582000    253.05589   -4719.4761   -4231.4366   -4719.4761            0    8333.3293    19.809601    19.628418    20.565411    7996.4717    10970.253    8160.6038    5869.1307   -252.03013    19.087554    1280.7096   -3259.6009 
31583000    258.57562   -4694.7552   -4196.0704   -4694.7552            0    7341.7317    19.772858    19.743216     20.75346    8101.7316    5521.5154    9626.8224    6876.8571    -995.5808   -743.09416   -372.14243   -3328.6048 
31584000    264.14606    -4677.452   -4168.0241    -4677.452            0    9205.5669    20.031732    19.529162    20.534849    8033.2932    8247.1493    9213.4263    10156.125   -166.67415     1065.655   -66.606109   -3089.5244 
31585000    250.16113   -4716.2688    -4233.812   -4716.2688            0    9177.8488    19.607656     19.83625    20.674833    8041.3184    11422.717    6708.1791    9402.6499    650.02162   -165.96549   -461.44489   -3157.4855 
31586000    249.19689   -4692.4974   -4211.9002   -4692.4974            0     11601.76    19.854243    19.684238    20.369269    7960.6288    11232.336    11279.863    12293.082   -355.37259    1353.8694   -1244.3741   -2864.9636 
31587000    256.79615   -4717.6465   -4222.3936   -4717.6465            0    10963.511    19.756454    19.762644      20.2957    7924.2485    12007.243    9521.8699     11361.42   -194.82998    893.92586    618.77648   -2955.3731 
31588000    257.16111   -4716.1509   -4220.1941   -4716.1509            0    9188.2276    19.780245    19.799931    20.568727      8055.69    10408.247    8976.5153    8179.9208      21.2566    44.749724   -656.02222   -3140.7246 
31589000    254.64728   -4738.5632   -4247.4545   -4738.5632            0    8876.0547    19.975775    19.502518    20.434313    7960.7568    8060.5157    9957.6278    8610.0207    73.484729   -1030.7472    169.29459   -3216.9492 
31590000    250.61655   -4709.8167   -4226.4816   -4709.8167            0    9920.5909    19.784733    19.834341    20.515024    8050.4475    9014.5817    11218.966    9528.2248   -442.68619    1087.3182    474.74647   -3061.7296 
31591000    254.39567   -4709.6601   -4219.0367   -4709.6601            0    10233.637    19.868078    19.456435    20.581652    7956.0839    9007.9635    11821.808    9871.1409   -214.59009   -1119.0834   -1470.9621   -3031.6142 
31592000     255.7696    -4705.051   -4211.7779    -4705.051            0    11322.563    19.593281    19.913546    20.300109    7920.5282    12861.212    11009.917    10096.559   -643.83461    885.03265    1002.5238   -2903.8772 
31593000    280.41885   -4715.3149   -4174.5036   -4715.3149            0    10993.735    19.638435    19.829599    20.416899    7950.7956    11416.662    11271.715    10292.828    96.782383   -135.01245   -1165.8502   -2899.7338 
31594000    259.70823   -4705.2281   -4204.3589   -4705.2281            0    11471.173    20.021771    19.577196    20.360734    7980.7998      10798.4    12584.112    11031.005   -239.15851   -1049.3504   -1751.3027   -2869.2087 
31595000    253.51377   -4737.8568   -4248.9342   -4737.8568            0    11613.987    19.845452    19.914274    20.152994    7964.6199     12175.72    10678.832    11987.408    706.85434    1225.1368    103.19554   -2899.9021 
31596000    256.40501   -4698.7152   -4204.2166   -4698.7152            0    10247.771    19.746102    19.918016    20.426527    8033.8179    11791.952     7642.248    11309.113   -15.741443   -771.76909   -102.20548   -3003.5366 
31597000    259.16681   -4703.1333   -4203.3083   -4703.1333            0    10809.919    19.887668    19.858106    20.287353    8012.1131    9360.0507    11838.512    11231.193    240.44471   -88.140889   -1498.8867   -2940.1861 
31598000    255.69046   -4704.0017   -4210.8811   -4704.0017            0    9934.7009    19.702369    19.719999    20.546132    7982.8028    8948.5336    11399.137    9456.4324   -366.68128   -750.48855   -224.38018   -3054.2734 
31599000    252.82279   -4694.8956   -4207.3056   -4694.8956            0    10362.335    19.876222    19.866181    20.204703    7978.1226    10002.743     10472.29    10611.973   -403.33943    1160.3579   -873.46739   -3001.6196 
31600000     260.7442   -4702.3683   -4199.5012   -4702.3683            0    11658.238     19.97584    19.801845    20.156443    7973.0522     11036.97     12047.87    11889.873    566.81086    378.75069   -422.55075   -2843.8955 
31601000    243.92255    -4731.604   -4261.1788    -4731.604            0     8777.402    19.911832    19.878625    20.388989    8070.3662    9562.7968    8593.9505    8175.4586   -724.24098   -1343.0163   -433.45462   -3228.0961 
31602000    262.69305   -4703.4591   -4196.8335   -4703.4591            0    9812.3889    20.040353    19.645149    20.311916     7996.714    8894.6814     10121.87    10420.615    389.71076    439.25599   -224.40062   -3052.4747 
31603000    265.51114   -4705.1543   -4193.0938   -4705.1543            0    9990.6408    19.555466    19.845018     20.65184    8014.5368    12984.304    8111.4398    8876.1784   -563.46269   -687.11376    -1391.482   -3025.3497 
31604000     265.9328   -4710.3062   -4197.4324   -4710.3062            0    9746.4605    19.819577    19.716978    20.448807    7991.0294    9097.8896    9377.3384    10764.153    586.97382    965.54842    232.94054   -3061.5705 
31605000    274.91697   -4706.0867   -4175.8862   -4706.0867            0    9541.9684    19.729077     19.99581    20.443876    8065.0862    7755.3833    10608.031    10262.491   -612.83604    721.11948    1499.7769   -3053.5503 
31606000    253.03591    -4733.729    -4245.728    -4733.729            0    8299.2898    19.930333    19.746433    20.546891    8086.2903    6729.6072     8998.906    9169.3561    105.45079   -129.90565    799.92536   -3266.9907 
31607000    255.26411   -4707.8673    -4215.569   -4707.8673            0    9008.5297    19.876318    19.968571     20.41723    8103.6326    9282.4726    7867.7586    9875.3578   -61.683256    83.517043   -967.49576   -3150.9124 
31608000    264.74604   -4685.7658   -4175.1808   -4685.7658            0    11774.361    19.913776    19.875564    20.102215    7956.4068    12805.139    8910.3945     13607.55    1173.2063     174.9965   -128.67962   -2808.9306 
31609000     250.2611   -4700.7524   -4218.1028   -4700.7524            0    8814.1686     19.88593    19.723851     20.52927    8052.1368    8774.1058    9192.2621    8476.1378   -164.60118    615.76304   -1058.5629    -3183.036 
31610000    272.86119   -4707.6069   -4181.3711   -4707.6069            0    9664.4073    20.011066     19.54642     20.48742    8013.5455    8591.4475    11521.025    8880.7494    890.22407    759.95814   -562.00483   -3051.8982 
31611000    277.09343   -4710.6769   -4176.2789   -4710.6769            0    10132.693    19.760648    20.040615    20.208118    8002.7287    12052.668    7734.1879    10611.222   -152.45741    -575.2101    2011.8197   -2993.6762 
31612000    265.61821   -4702.6548   -4190.3877   -4702.6548            0    11483.065    19.924989    19.598133    20.405087     7968.035     10343.46    13717.197    10388.538    244.81353     69.44794    1000.8236   -2855.9911 
31613000    252.15076   -4726.0711   -4239.7771   -4726.0711            0    8161.0061    19.622307    19.823851    20.658125    8035.7975    5976.5382    11053.451     7453.029   -55.151027    381.29509    181.55741   -3283.3573 
31614000    260.20713   -4694.3674    -4192.536   -4694.3674            0    10501.693    19.714622    19.748839    20.478035    7972.9365    9574.7404    10462.821    11467.516    68.351422    617.97811   -1267.4876   -2971.4297 
31615000    251.60491   -4698.4224   -4213.1811   -4698.4224            0    8991.1277    19.938826    19.831068    20.391846    8063.1033    10164.649    8355.2224    8453.5115    133.22284    937.05935   -757.55519   -3155.8956 
31616000    251.69945   -4729.1097   -4243.6861   -4729.1097            0    9103.9665    19.742318    19.894586    20.439649    8027.9837    9380.0157    9155.6492    8776.2347    -913.6646   -386.16071   -814.34686   -3177.7946 
31617000    247.42475   -4715.5219   -4238.3424   -4715.5219            0     10099.32    19.712387    19.658211    20.599605     7982.558    9832.7481    10346.129    10119.083   -1515.6391   -1140.6264    616.23939   -3062.6056 
31618000    254.35647   -4735.3383   -4244.7905   -4735.3383            0    7158.0405    20.041639    19.674774    20.577909    8114.1724    7392.0604    7549.6088    6532.4521   -37.245556    259.45071   -1763.3926   -3397.7303 
31619000    252.85935   -4723.9528   -4236.2923   -4723.9528            0    10777.791    19.685999    20.049341     20.17601    7963.2957    9489.3924    11773.578    11070.403    253.28675    670.75766    729.49191   -2984.5974 
31620000    247.20075   -4680.9992   -4204.2518   -4680.9992            0    11232.117    19.861033    19.837582    20.283431    7991.5682    12373.278    9490.4323    11832.642   -38.624279    157.48253   -955.16789   -2895.1617 
31621000    260.71469   -4739.7344   -4236.9242   -4739.7344            0    9409.7727    19.731718    19.525651    20.675725    7965.8327    10290.347    8936.1569    9002.8139   -270.10425    179.30321    2021.7016    -3143.758 
31622000    254.33027   -4684.1211   -4193.6238   -4684.1211            0    9946.9748    19.905307    19.654973    20.671161     8087.349    10715.258    8721.3629    10404.303   -414.55722   -1244.9248    9.5388024    -3020.421 
31623000    261.43361     -4712.01   -4207.8133     -4712.01            0    9375.7073    19.831895    19.838358    20.368961     8013.806    7748.6814    10407.749    9970.6911    582.48549    314.63062    1296.6374   -3112.0449 
31624000    262.41491   -4712.1929   -4206.1036   -4712.1929            0    11909.231    19.776124    19.860684    20.362658    7997.7869    10658.156    13316.614    11752.923   -914.55284   -975.62662   -450.57586   -2817.0167 
31625000    256.99173   -4679.1044   -4183.4743   -4679.1044            0    9651.2677    19.799467    19.766461     20.53965    8038.5081    8442.5281    11310.344    9200.9307    598.76523    722.30188   -297.05912   -3052.0234 
31626000    246.51851   -4714.7301   -4239.2985   -4714.7301            0    8787.5652    19.674488    19.704203    20.664436     8010.984    10349.909    8246.1005    7766.6856   -121.59642   -658.25501   -762.34379   -3212.6298 
31627000    253.99593   -4708.5934   -4218.7408   -4708.5934            0    10682.247    19.795395     19.97986    20.282417    8021.8831    9994.1566    10853.679    11198.905   -883.03975    452.44688   -2582.2291   -2969.0148 
31628000    260.05503   -4722.9522   -4221.4142   -4722.9522            0     9704.215    20.027428    19.704858    20.268799    7998.8306    8713.2288    11151.188    9248.2286   -47.207885   -262.30147   -1601.3416   -3089.3716 
31629000    271.61287    -4695.357   -4171.5287    -4695.357            0    8471.5709    19.687828    19.961764    20.495209    8054.6945    9218.7175    6625.5901     9570.405    208.25122   -73.437794   -240.67306   -3176.3779 
31630000    241.51037   -4725.2455   -4259.4725   -4725.2455            0    8489.5329    19.615576    19.905495    20.642144    8059.8847    10981.804     6034.682    8452.1126   -534.17351   -265.69671   -500.03325    -3261.569 
31631000    254.96944   -4746.2515   -4254.5215   -4746.2515            0    9485.1389    20.042151    19.648858     20.38527    8027.8291    7591.2528    10874.413    9989.7512    729.01828   -140.66681   -1059.5634   -3144.0237 
31632000    252.39621   -4661.9045   -4175.1372   -4661.9045            0    8906.7621    19.807161    19.877945    20.431016    8044.2153    8607.2008    7989.1964    10123.889    274.96686   -761.48078   -657.49881   -3130.2259 
31633000    272.54919   -4699.9134   -4174.2794   -4699.9134            0    10091.938    19.827625    19.608305    20.557359    7992.4161    9652.5724    11235.309    9387.9315    766.83959    1355.3727    545.32186   -2997.9511 
31634000    251.33734   -4722.0748   -4237.3497   -4722.0748            0    8287.1236    19.708024    19.830088    20.592812    8047.9147    9042.8994    8516.8253     7301.646    378.77413   -14.510372    230.59747   -3264.6852 
31635000    264.02253   -4738.2642   -4229.0745   -4738.2642            0    10566.309    20.040116    19.877824    20.203781    8048.2551    7569.3764    12010.243    12119.309   -570.05935    -206.5087   -73.205892   -2988.8482 
31636000     269.4071   -4725.6352    -4206.061   -4725.6352            0    9589.8606    19.891426    19.947682    20.217709    8022.1412    12205.635    5723.4986    10840.448   -124.43787    333.11817   -1431.2589   -3084.0981 
31637000    251.24117   -4704.7735   -4220.2338   -4704.7735            0    11015.122    19.791288    19.572836      20.5474    7959.4797    10122.925    12693.469    10228.973    605.60779    350.83028   -1520.5357    -2941.589 
31638000    257.09675   -4723.8754   -4228.0427   -4723.8754            0    9188.9561    19.795961    19.912732    20.387948    8036.7594    9683.0794    7252.2461    10631.543   -537.86083    1623.9476    565.93869   -3151.0246 
31639000    265.02868   -4763.8254   -4252.6953   -4763.8254            0    10275.113    19.991675    19.653755    20.317569    7983.0063     9452.779    10683.607    10688.952   -854.26406   -262.63218   -1089.5222    -3056.426 
31640000    269.47967   -4721.2439   -4201.5297   -4721.2439            0    8427.5334    19.783932    19.861445    20.492109    8052.1176    9449.9766    8030.5915    7802.0322    168.06545   -1199.0486    545.00669   -3211.8687 
31641000    250.93766   -4701.3457   -4217.3913   -4701.3457            0    9345.9735    19.996425    19.694535    20.323578    8003.8372    7452.0028    10058.754    10527.164    574.67273   -496.74159    1907.3064   -3126.4568 
31642000    256.00347   -4696.2376   -4202.5134   -4696.2376            0     9909.017    19.603362    19.579793    20.725277     7954.978    10202.607    10131.921    9392.5224   -803.60666   -234.96367   -669.21485   -3052.9169 
31643000    249.36641   -4718.8488   -4237.9247   -4718.8488            0    9031.3451     19.95984    19.720801    20.530487    8081.2929    8735.7195     8522.048    9836.2678   -246.83486   -455.15031    -1015.267   -3173.5141 
31644000    266.29235   -4719.2446   -4205.6774   -4719.2446            0    7734.6267    19.998858    19.704565    20.398565    8038.4381     7834.584    6642.7749    8726.5211   -385.20264    468.27731   -409.09669   -3298.9288 
31645000    263.97568   -4718.4786   -4209.3793   -4718.4786            0    9860.7533    19.820788    19.706412    20.476719    7998.1372    11425.824    8797.8085    9358.6279   -133.71185    -1191.527    -140.1235   -3059.1754 
31646000    254.56234   -4718.4717   -4227.5269   -4718.4717            0    8627.7138    19.843331    19.562858    20.582812    7990.0885    8202.7102    7709.4504    9970.9807   -359.55723   -604.51922    593.34463   -3222.1631 
31647000    247.87161   -4726.4032   -4248.3619   -4726.4032            0    8216.8608    19.924239    19.841517    20.369285    8052.5308    8610.0157    7918.5483    8122.0185   -110.10097   -171.88203    17.811711    -3283.391 
31648000    253.51689   -4723.3932   -4234.4646   -4723.3932            0    9149.6978     19.88217    19.770787    20.578182    8088.9982     10556.67    7315.3979    9577.0253   -285.88033    778.47937   -66.348635   -3155.0771 
31649000    260.77223   -4706.5493   -4203.6281   -4706.5493            0    7026.4258    19.849846    19.813787    20.703229    8142.5929    7082.2451    7139.6805     6857.352   -141.53946   -226.13584   -663.43625   -3369.2305 
31650000    247.62198   -4704.7219   -4227.1621   -4704.7219            0    9268.2167    20.002437    19.628673    20.508023    8051.8864    9873.0324    8938.7043    8992.9133   -701.31471   -1346.8974    -1809.264   -3138.8093 
31651000    261.14591   -4683.2938    -4179.652   -4683.2938            0     9683.743    19.806621    19.860943     20.42587    8035.0914    9148.7679     7567.191     12335.27    305.19825    840.31252    940.51535   -3044.8764 
31652000    261.50596   -4700.9366   -4196.6004   -4700.9366            0    8894.6236    19.672218    19.924291    20.531493    8047.4213    11672.687    7826.5698    7184.6136   -393.21195    770.96297    159.71304   -3152.6972 
31653000    251.43235   -4700.0391   -4215.1306   -4700.0391            0    10612.433    19.790478    19.738479    20.518269     8015.132    9355.6872    12644.107    9837.5043   -922.41917    719.76477   -60.762014   -2974.6171 
31654000    261.05156   -4721.7258   -4218.2659   -4721.7258            0    9757.6752    19.851476    19.761799    20.438292    8017.9601    11374.332    7587.8224    10310.871   -810.80594    457.92155   -730.04647   -3077.2646 
31655000    253.65009   -4711.6341   -4222.4486   -4711.6341            0    9739.2065    19.990754    19.900252    20.248361    8055.2242    10358.255    8615.2792    10244.085    1022.7206    466.91228   -924.91959   -3078.3141 
31656000    248.21471   -4719.6754   -4240.9725   -4719.6754            0    9706.0866     19.99061    19.868216    20.209689    8026.8391    8410.5569    11174.943    9532.7602     286.1997    933.52319   -1135.4183   -3104.7468 
31657000    259.02156   -4705.2657   -4205.7208   -4705.2657            0    10619.248    19.919339    19.744047    20.411144    8027.4656    10072.723    11661.065    10123.957   -725.06839    385.96445    1081.0055   -2962.5005 
31658000    244.19703   -4725.2581   -4254.3036   -4725.2581            0    8317.6854    19.850619    19.959109     20.34406      8060.33     7758.049    7600.2027    9594.8045    611.22604   -54.731229   -103.14289    -3276.546 
31659000    249.34394   -4717.4709   -4236.5902   -4717.4709            0    9973.8687    19.837363    19.915672    20.249457    8000.0424    11127.216    9659.0205    9135.3702   -776.40574   -268.09081   -59.193337   -3072.9148 
31660000    258.02155   -4697.4412    -4199.825   -4697.4412            0    10126.517    19.803131    19.822937    20.334268    7982.3435    9056.8896    11089.113    10233.547   -1191.7017    638.63976   -2081.8752   -3020.9537 
31661000    253.10741    -4724.443   -4236.3041    -4724.443            0    9867.0336    19.787905     19.64477    20.753185    8067.3617     10292.23    11264.127    8044.7438    153.32186    977.76576    310.86591   -3075.4062 
31662000      255.217   -4696.5406   -4204.3332   -4696.5406            0    9298.6435    19.714636    19.873125    20.564061     8056.823    10901.246    7939.4717     9055.213   -726.38874    -2.518399   -1132.3867   -3111.7379 
31663000    270.41275   -4698.2525   -4176.7387   -4698.2525            0     12550.33    19.804379     19.65133    20.359339    7923.4958    13509.237    12086.809    12054.945   -93.280063    -2114.509     205.1469    -2726.472 
31664000     254.9914   -4717.0092   -4225.2369   -4717.0092            0    10395.561    19.683151    19.847411    20.423791    7978.7501    11730.422    8168.6559    11287.605   -489.85505    98.022942     140.7898   -3015.5898 
31665000     250.8876   -4694.5058   -4210.6479   -4694.5058            0    12193.345    19.816853    19.550201    20.582885    7974.2922    12675.824    12612.441    11291.771    48.407729   -84.000754   -3756.4883      -2792.6 
31666000    248.28051   -4676.4183   -4197.5884   -4676.4183            0    8570.5857    19.755949    20.007681    20.365327    8049.8174     8225.762    8892.0284    8593.9668   -532.78631    251.31132   -819.66553    -3191.416 
31667000    261.20041   -4709.6596   -4205.9127   -4709.6596            0    10228.029    19.879212    19.717199    20.386271    7990.6514    8398.0504    12736.759    9549.2762    17.203882    434.26963    225.89815   -3013.9847 
31668000    265.23303   -4698.6503   -4187.1261   -4698.6503            0    8003.6461    19.748368    20.026815    20.557149    8130.2889    7797.6221    8942.6369    7270.6791   -551.76471    544.25812   -499.11539   -3238.1184 
31669000    272.68509   -4708.7545   -4182.8584   -4708.7545            0    8605.2054    20.031878    19.667559    20.393642    8034.6489     8773.486    8947.3825    8094.7476    285.27869    249.24855    -1135.978   -3174.5252 
31670000    264.85948   -4714.7468    -4203.943   -4714.7468            0    9887.5797    19.842022    19.787947    20.479946    8041.1003    9964.2209    9589.1351    10109.383   -36.542917   -23.829964    289.96709   -3044.4147 
31671000    263.80826   -4704.0352   -4195.2588   -4704.0352            0    9569.9876    19.914569    19.894888    20.330727    8054.9958    9637.9295    8388.0593    10683.974    126.16166    484.86877   -887.20095   -3071.0355 
31672000    259.42801   -4727.1909   -4226.8621   -4727.1909            0    10190.869    19.952659    19.728162    20.332451    8003.4486    10452.216    9902.2211     10218.17   -185.15344    271.01416     63.49863   -3037.3626 
31673000    256.65235   -4722.7609   -4227.7852   -4722.7609            0    10546.345    19.830084    19.626138     20.55134    7998.3343    10058.994    11240.813    10339.228   -343.75147    455.91245   -874.96402   -2997.5804 
31674000    260.22309    -4711.289   -4209.4269    -4711.289            0    9693.7262    19.941067    19.605997    20.586678    8048.6603    8164.8273    11260.613     9655.738   -241.55956   -553.53924    -266.6869   -3071.5632 
31675000     260.8063    -4723.035   -4220.0481    -4723.035            0     9624.388    19.759066    19.997874    20.387174    8055.7743    10390.065    7955.8691     10527.23   -818.63435    134.63706    859.26839   -3089.3249 
31676000    246.34293   -4714.4227   -4239.3296   -4714.4227            0    10317.096    19.675085    19.829452    20.416475    7965.4093     10210.97    10118.435    10621.882    396.17482   -312.15499    558.40778   -3040.8202 
31677000    250.34723   -4696.6017    -4213.786   -4696.6017            0    8340.3433    20.084529    19.525101    20.456324    8021.9978    5968.2199    10332.412    8720.3975   -139.39848    20.858644    545.06776   -3238.0275 
31678000    254.42645    -4703.306   -4212.6232    -4703.306            0    9964.5311    19.674426    19.785626    20.567821    8006.4528    12662.323    8975.3675    8255.9024   -25.370827    883.60108    312.02709   -3049.1057 
31679000    262.13288   -4688.5987   -4183.0533   -4688.5987            0    10371.386    19.883469    19.551702    20.554122    7990.5312    10718.733    10739.444    9655.9816    350.84702    483.32681    1395.9166   -2974.4373 
31680000    255.73662   -4691.4206    -4198.211   -4691.4206            0    9088.6478    19.855562      19.8954    20.436802    8073.2387    9019.4059    8703.1493    9543.3882    37.204967    958.76892   -723.16334   -3128.1145 
31681000     257.7323   -4720.1054    -4223.047   -4720.1054            0    11623.668    19.784883    19.942396    20.374574    8038.9506    10457.834    12421.924    11991.247    29.786201    750.18894   -290.39405   -2860.2898 
31682000    262.75238   -4725.7325   -4218.9925   -4725.7325            0    8251.8379    19.881699    19.735669     20.61236    8087.8495    8109.3737    8776.8485    7869.2915   -233.26329   -32.091523    120.26289   -3245.6635 
31683000    255.67608   -4743.1228   -4250.0299   -4743.1228            0    8197.4165    19.866924    19.919017    20.443651    8090.1581    6876.1214    9276.0562    8440.0719     343.0042    712.41094    269.69135   -3282.8442 
31684000    245.69711    -4720.802   -4246.9545    -4720.802            0    7538.9978    19.846492     19.88211    20.518289    8096.3142    6580.5874    9003.6475    7032.7584    343.50094   -426.41182    1320.5739   -3356.7765 
31685000    271.59698   -4715.5779   -4191.7803   -4715.5779            0    8972.1416    20.019793    19.702636     20.48426    8079.8663    6832.6151    11881.744    8202.0656    139.67663     2298.706   -1389.7603    -3134.534 
31686000    262.14381   -4683.6183   -4178.0519   -4683.6183            0    12290.264    19.773762    19.892508    20.240362    7961.5405    12160.471    13165.538    11544.784    642.70901    525.62989    118.33125   -2751.0182 
31687000    260.24595   -4737.2164   -4235.3102   -4737.2164            0    9450.0229    19.932882    19.796198    20.360639    8034.2119    10632.051    8498.3329    9219.6848   -751.59466    1330.0641    -47.85092   -3128.0441 
31688000    267.79089    -4717.075   -4200.6177    -4717.075            0    9250.2623     19.61306    20.033329    20.557712     8077.431    11557.278    8176.0728    8017.4359    190.17439    229.60524    1074.3916   -3110.9272 
31689000    244.66499   -4704.3871   -4232.5301   -4704.3871            0    11623.749    19.927443    19.556203    20.402448    7950.9388    8337.9127    15257.291    11276.044    -24.01398    1391.2066    16.724093   -2884.6833 
31690000    277.26852   -4704.6584   -4169.9228   -4704.6584            0    8865.0973    19.685303    19.977221    20.413908    8027.9258    9788.8594    8208.2891    8598.1433    467.35075    251.49172   -527.29274   -3132.0055 
31691000    258.93603   -4708.6667   -4209.2868   -4708.6667            0    9812.5458      20.0209    19.620235    20.444928    8031.0692    11639.321    9352.6075    8445.7086    459.81042   -295.03606   -149.15726   -3059.9933 
31692000    258.66372   -4697.5795   -4198.7247   -4697.5795            0    10018.144    19.548856    19.908484    20.534832    7991.9119    11660.063    8333.2834    10061.084    181.71507    555.28841   -658.03381   -3031.0716 
31693000    264.87967   -4712.4118   -4201.5691   -4712.4118            0    9534.7931    19.805555    19.625274    20.651393    8026.9785    11422.406    7790.7619    9391.2112   -379.97554    -283.6864    682.14935   -3085.3762 
31694000    271.55137   -4724.0965   -4200.3868   -4724.0965            0    10026.735    19.965674    19.734622    20.434076    8051.3332    8407.7978     10993.45    10678.956      558.902     1125.497    354.84162   -3023.0433 
31695000    260.90579   -4717.1672   -4213.9885   -4717.1672            0     9578.672    19.901071    19.911944    20.309634     8048.079    9347.9867     9309.939     10078.09      153.241   -850.27167   -154.83111   -3089.7112 
31696000    252.01598   -4710.8965   -4224.8625   -4710.8965            0    8369.8258    20.043726    19.630876    20.540595     8082.229    8304.7488    9342.9244    7461.8042    597.89909    -374.9663   -32.311196   -3238.3026 
31697000    251.87816    -4695.305   -4209.5368    -4695.305            0     8437.532    19.876699     19.81509    20.415088    8040.6576     7266.475    8319.6974    9726.4237    -351.6369    -814.8935     1234.537   -3220.1117 
31698000    265.65301   -4720.6785   -4208.3444   -4720.6785            0    9169.1531    19.697898    19.617907    20.846692     8055.819    9417.1881    9882.0124    8208.2587   -80.314825    975.88618   -791.53549   -3131.0986 
31699000    264.27273   -4699.7741   -4190.1019   -4699.7741            0    8643.0563    19.561986    20.006363    20.529266      8034.42     10000.22    7935.2866    7993.6626    56.739246      973.601   -381.47289   -3177.3624 
31700000    252.15241   -4708.8577   -4222.5605   -4708.8577            0     10478.26    19.939022    19.869191    20.109049    7966.6468    9971.9213    10091.594    11371.266   -7.6366986   -620.73588    56.220759     -3005.14 
31701000    254.98241    -4692.665     -4200.91    -4692.665            0    11731.011    19.748194    19.645871    20.497733    7952.5149    10237.006    13402.161    11553.865   -523.55489    478.74471    1412.9054   -2840.3559 
31702000    261.50111   -4696.5385   -4192.2116   -4696.5385            0    11432.127    19.829634    19.523599    20.527758    7947.2358    11286.244     12288.84    10721.298   -673.81827   -952.95689   -291.76972    -2867.202 
31703000    251.48216   -4726.2334   -4241.2289   -4726.2334            0    10876.858    19.732522     19.72904    20.552036    8000.9839    11953.886    10982.307    9694.3808    193.45756     -28.3362    -111.8273   -2972.0503 
31704000    246.56316    -4715.584   -4240.0662    -4715.584            0    8837.4276    19.940602    19.635668    20.486348     8021.369    8615.3431    8153.4142    9743.5255    209.27206    900.25221    621.81524   -3206.2335 
31705000    234.66372   -4701.3479   -4248.7792   -4701.3479            0    9625.0798    19.911965    19.725197     20.45002    8032.1018    8020.1266    11713.436    9141.6766   -173.93481    1122.7596   -337.21417   -3121.2977 
31706000    250.70874   -4733.8832   -4250.3704   -4733.8832            0    8666.6171    19.859096    20.124357    20.167352    8059.9134    7455.1346     8018.787     10525.93    320.63718    549.87825   -32.242063   -3231.6479 
31707000    255.97465   -4702.5862   -4208.9176   -4702.5862            0    10155.241    19.753802    19.765846    20.433716    7978.3569    11131.293    8750.2677    10584.164    306.15058    1597.4737    493.25327   -3027.2928 
31708000    257.80578   -4705.7665   -4208.5664   -4705.7665            0    9426.6569    19.671617    19.856939    20.605202    8048.7647    10156.791    8210.5749     9912.605    -658.7105    998.08228     385.8269   -3102.0374 
31709000    249.34317    -4700.777   -4219.8977    -4700.777            0    10376.803    19.728351    19.931274    20.411152     8025.893    11815.721    9140.0825    10174.606   -85.524199    471.08973   -837.50267    -3005.299 
31710000    259.27588   -4681.7829   -4181.7476   -4681.7829            0    10106.679    19.778767    19.774626    20.499011    8017.5264    9788.6852    9647.0459    10884.305     156.9041    882.27788   -203.30827   -2999.9999 
31711000    264.75204   -4720.5655   -4209.9689   -4720.5655            0    9705.5141    19.674148    19.731546    20.551572    7978.1479    10916.095    8254.6123    9945.8353   -488.94486    1839.2217    700.02258   -3080.7022 
31712000    261.02801   -4713.7843   -4210.3699   -4713.7843            0    9049.5746    19.774097    19.729664    20.524473    8007.3415    8615.6993    9519.6426    9013.3819    664.14326    1146.9428    1198.3937   -3153.5708 
31713000    274.81457   -4692.5778   -4162.5748   -4692.5778            0    12807.707      19.7294    19.950984    20.101725    7912.4598    13287.044      11568.6    13567.478    281.80575   -274.42045    715.05723    -2684.628 
31714000    266.37356   -4720.4243   -4206.7005   -4720.4243            0    10723.693    20.052329    19.746879    20.343658    8055.4967    8360.0701    11717.496    12093.513    101.04154    297.70348   -979.95759   -2946.8686 
31715000    245.30987   -4739.4185   -4266.3178   -4739.4185            0    9069.1981      19.8539    19.876324    20.375372     8040.581    9455.1276    8524.8021    9227.6644    208.36625    772.86899    305.54567   -3202.8308 
31716000    253.02901   -4720.6577     -4232.67   -4720.6577            0    9613.3996    20.053974    19.903195    20.208661    8066.0474    8099.4323    10627.472    10113.294   -415.44658    -1194.223   -384.69823   -3101.7975 
31717000      242.604   -4716.4436   -4248.5614   -4716.4436            0    9714.1959    19.747655    19.797676      20.4623    7999.8929    9205.9877    11569.102     8367.498   -200.24014   -2652.1665    501.76948   -3115.2039 
31718000    269.37267   -4711.6031   -4192.0953   -4711.6031            0    7685.9629    19.791697    19.779613    20.622796    8073.2493    8239.6418    6809.1845    8009.0624    1060.3548    378.65476   -392.78882   -3287.1496 
31719000    266.09116   -4718.4543   -4205.2751   -4718.4543            0    9455.3356     19.97522     19.50961    20.743381    8083.8769    11780.975    8058.8066    8526.2254    180.68995   -1373.9782   -264.29871   -3090.5378 
31720000    235.77739   -4695.2185   -4240.5019   -4695.2185            0     10408.16    19.826061    19.877797    20.335091    8014.0271    9048.9398    12406.764    9768.7771    171.61744     494.7438   -776.45639    -3024.034 
31721000    253.06149   -4703.7254    -4215.675   -4703.7254            0    9779.1702    19.811853    19.529501     20.63823    7985.2533    9697.1134     9143.483    10496.914   -397.75542    329.99533    223.87939   -3076.8248 
31722000    239.73468   -4704.1821   -4241.8336   -4704.1821            0    9136.8464    19.715943    19.920717    20.488113    8046.8235    9101.6436    8537.1924    9771.7031    315.47451    783.40047   -286.55769   -3169.5821 
31723000    260.08688   -4728.5569   -4226.9575   -4728.5569            0    9832.4702     19.84904    19.497453    20.646903    7990.4695    8495.1712    11317.522    9684.7175   -4.7400535   -403.12397   -1381.2716   -3081.1522 
31724000      253.085    -4694.772   -4206.6763    -4694.772            0     10236.29    19.836881    19.714162    20.465774     8003.499    11348.137    9624.2314    9736.5009   -308.96503    1492.0116   -401.67163   -3011.8677 
31725000    248.36826   -4707.5996   -4228.6005   -4707.5996            0    11989.421      19.6869    19.783997    20.382554    7938.7106    11442.719    12334.348    12191.195   -383.29142    1238.5172   -895.24133   -2840.4899 
31726000     257.7059   -4726.8791   -4229.8716   -4726.8791            0    7971.5083    19.991333    20.026895    20.344321    8145.1402    9550.4346    5454.4992     8909.591   -842.39022    752.72693    103.18863   -3282.9479 
31727000    276.01547    -4690.853    -4158.534    -4690.853            0    8806.7675    19.993064    19.598344    20.531803    8044.9955    7564.6766    10861.153    7994.4731   -640.63171    50.496307   -763.38339   -3125.2535 
31728000    255.14145   -4679.4978    -4187.436   -4679.4978            0    8063.6238    19.409306    20.151908    20.561245    8042.2134    10476.959    5843.0474    7870.8653    492.73033    2096.4092   -345.50641   -3241.6743 
31729000    267.95528   -4717.5684   -4200.7941   -4717.5684            0    9404.7024    20.083872    19.756792    20.399974    8094.5641     6702.799    11059.686    10451.622   -286.60677    -480.7717   -512.46414   -3090.5603 
31730000    264.10347   -4687.9556   -4178.6098   -4687.9556            0    9579.0862    19.819278    19.859395    20.414395     8035.083    11142.704    7194.0697    10400.485   -848.65821   -611.41637    335.68899   -3056.0995 
31731000    264.86052   -4696.7903   -4185.9845   -4696.7903            0    10407.595    19.706275    19.648806     20.63903     7991.531    9798.2902    12412.469    9012.0246   -715.76084   -895.51562    1205.1939   -2972.9972 
31732000    257.54974    -4688.681   -4191.9747    -4688.681            0    10909.046    19.566999    19.824796    20.546719    7970.3142     12366.91    11338.821    9021.4078   -336.26295      2140.42    1120.5282   -2923.9196 
31733000    269.52677   -4750.7215   -4230.9165   -4750.7215            0    9883.1298    19.693356    19.763147    20.478322    7970.2182    8901.0618    12311.145    8437.1823   -148.16807    729.75346    158.74896   -3082.1266 
31734000    267.13228   -4715.1467   -4199.9596   -4715.1467            0    9632.4656    19.754029    19.921174    20.367771    8015.1955     11014.51    7499.8153    10383.072   -358.70481   -579.49274   -1115.1717   -3073.9879 
31735000    257.42466   -4725.7353   -4229.2702   -4725.7353            0     10335.04    19.930145    19.819511    20.246361    7997.4288    8892.7124    11532.322    10580.085    290.64354   -535.42404    44.112103   -3023.8501 
31736000    250.90844   -4721.1195   -4237.2215   -4721.1195            0    8429.0875    19.976267    19.899322    20.372693    8098.4342    9220.0117    6949.4679     9117.783    544.80305   -238.93356    1270.5972   -3241.6843 
31737000    248.85461   -4693.7827   -4213.8457   -4693.7827            0    10315.664    19.890617    19.707036    20.425017    8006.3021    9033.4971    11270.697    10642.797   -339.63889    -400.8794   -135.70279   -3009.3506 
31738000    266.64378   -4711.4555   -4197.2106   -4711.4555            0    11265.389    19.807189    19.840683    20.437477    8031.6865    11330.251    12019.033    10446.884   -39.836512    506.21733   -609.19129   -2877.6515 
31739000    261.02542   -4719.1564   -4215.7469   -4719.1564            0     10617.73    19.888216    19.759241    20.342062    7993.9433     8489.501    12275.921    11087.768   -106.07106    1702.3241   -219.90925   -2977.8952 
31740000     255.5057    -4700.204   -4207.4398    -4700.204            0    8424.3669    19.614603    19.732386    20.780773    8043.0513    7867.4014    10569.632    6836.0675    304.94251   -1470.4728    979.18496   -3219.2645 
31741000    248.17216   -4708.5878   -4229.9669   -4708.5878            0    9673.6099    19.896575    19.658402    20.436739    7993.5211    9148.2227    9968.4615    9904.1454   -452.17362    922.97983    373.62959   -3102.2435 
31742000    258.05763    -4715.904   -4218.2182    -4715.904            0    8864.3538    19.686875    19.835681    20.618359    8051.5221    9491.2471     8438.232    8663.5823    346.96373   -1137.3021    750.11392   -3177.3375 
31743000    261.97309   -4702.7271   -4197.4899   -4702.7271            0    9563.2659    19.974704    19.884063    20.283324    8056.0958    9359.9108    8237.6948    11092.192    57.572122     440.5805   -27.394001   -3073.9028 
31744000    268.00774     -4713.35   -4196.4745     -4713.35            0    9069.1498    19.816416    19.762733     20.44137    8005.3831    9876.9364    7812.7257    9517.7873    34.846715    551.96267    622.42919   -3137.6485 
31745000    276.53632   -4693.2568   -4159.9332   -4693.2568            0    9054.7304    19.934764    19.598868    20.423098    7979.2801    8715.8681    9163.9523    9284.3708     233.0205   -220.91371   -207.58906   -3106.2377 
31746000    260.21726   -4691.2212   -4189.3703   -4691.2212            0    10526.116    19.706456    19.824066    20.570212    8036.0018    11309.979    10475.505    9792.8637    298.48358    1884.4457   -192.60277   -2955.7428 
31747000    246.83474   -4688.6078   -4212.5663   -4688.6078            0    9629.4157    20.075566     19.47787    20.522909    8025.0578    9103.5569    11149.762    8634.9281   -530.36858   -897.20662      78.8823   -3085.5661 
31748000    258.87277   -4691.2783   -4192.0204   -4691.2783            0     9576.525    19.884114    20.013586    20.298461     8077.822    10432.149    8123.1291    10174.297    268.32976    1305.3138    487.72081   -3063.8411 
31749000    247.38083    -4708.418   -4231.3233    -4708.418            0    10190.111    19.957329    19.499186    20.644083    8033.6798    10487.905    10357.207    9725.2202    429.20292    -1202.611    549.69896   -3037.4196 
31750000    267.94954   -4695.0881   -4178.3249   -4695.0881            0    8967.9236    19.690962    20.036984    20.528094    8099.3079    9720.4595    9044.8071    8138.5042    38.209487    -357.8833    259.94558   -3119.0329 
Loop time of 406.9 on 64 procs for 250000 steps with 972 atoms

Performance: 106.169 ns/day, 0.226 hours/ns, 614.402 timesteps/s
193.0% CPU use with 32 MPI tasks x 2 OpenMP threads

MPI task timing breakdown:
Section |  min time  |  avg time  |  max time  |%varavg| %total
---------------------------------------------------------------
Pair    | 25.363     | 36.918     | 51.021     |  92.8 |  9.07
Bond    | 0.84358    | 1.2364     | 1.9739     |  21.7 |  0.30
Kspace  | 174.14     | 188.13     | 199.58     |  41.1 | 46.24
Neigh   | 2.4242     | 2.6378     | 2.7771     |   6.0 |  0.65
Comm    | 77.386     | 81.263     | 85.783     |  26.8 | 19.97
Output  | 0.53046    | 0.53085    | 0.53256    |   0.0 |  0.13
Modify  | 75.869     | 79.006     | 83.195     |  18.7 | 19.42
Other   |            | 17.18      |            |       |  4.22

Nlocal:        30.3750 ave          34 max          24 min
Histogram: 2 0 1 3 2 2 6 3 3 10
Nghost:        2684.75 ave        2711 max        2652 min
Histogram: 2 0 4 2 4 8 3 1 4 4
Neighs:        9693.09 ave       12578 max        7526 min
Histogram: 3 3 4 4 7 4 4 1 0 2

Total # of neighbors = 310179
Ave neighs/atom = 319.11420
Ave special neighs/atom = 2.0000000
Neighbor list builds = 7576
Dangerous builds = 0

unfix		3
unfix		2
unfix		1

write_data	data.final.${pid}
write_data	data.final.0
System init for write_data ...
PPPM initialization ...
  extracting TIP4P info from pair style
  using 12-bit tables for long-range coulomb (../kspace.cpp:340)
  G vector (1/distance) = 0.37194172
  grid = 24 24 24
  stencil order = 5
  estimated absolute RMS force accuracy = 0.0035408917
  estimated relative force accuracy = 1.066329e-05
  using double precision FFTW3
  3d grid and FFT values/proc = 3211 432
Last active /omp style is kspace_style pppm/tip4p/omp
WARNING: Not all mixed pair coeffs generated from mixing. Use write_data with 'pair ij' option to store all pair coeffs. (../write_data.cpp:312)

write_restart   restart.lmp.${pid}
write_restart   restart.lmp.0
System init for write_restart ...
PPPM initialization ...
  extracting TIP4P info from pair style
  using 12-bit tables for long-range coulomb (../kspace.cpp:340)
  G vector (1/distance) = 0.37194172
  grid = 24 24 24
  stencil order = 5
  estimated absolute RMS force accuracy = 0.0035408917
  estimated relative force accuracy = 1.066329e-05
  using double precision FFTW3
  3d grid and FFT values/proc = 3211 432
Last active /omp style is kspace_style pppm/tip4p/omp
Total wall time: 0:06:47
