LAMMPS (30 Jul 2021)
Processor partition = 0
  using 1 OpenMP thread(s) per MPI task
using multi-threaded neighbor list subroutines
variable        pid world 0 1
variable        phase world IceII IceIII

shell cd ${phase}
shell cd IceII
include Restart.lmp
echo both
log log.lammps
#include		in.partitions
include		in.temp
variable        temperature equal 137.19
variable	tempDamp equal 100.0
include		in.pressure
variable        pressure equal 10668.8
variable        pressureDamp equal 1000.0 # This is 1 ps
include		in.seed
variable        seed equal 745823

units		real
atom_style	full
box tilt large
read_restart	restart.lmp.${pid}
read_restart	restart.lmp.0
Reading restart file ...
  restart file = 30 Jul 2021, LAMMPS = 30 Jul 2021
  restoring atom style full from restart
  triclinic box = (-10.450054 -9.1506169 0.23152595) to (12.430054 12.140615 21.628473) with tilt (-9.0874667 1.6003997 2.7929475)
  4 by 4 by 4 MPI processor grid
  restoring pair style lj/cut/tip4p/long/omp from restart
  restoring bond style harmonic/omp from restart
  restoring angle style harmonic/omp from restart
  1296 atoms
  864 bonds
  432 angles
Finding 1-2 1-3 1-4 neighbors ...
  special bond factors lj:    0        0        0       
  special bond factors coul:  0        0        0       
     2 = max # of 1-2 neighbors
     1 = max # of 1-3 neighbors
     1 = max # of 1-4 neighbors
     2 = max # of special neighbors
  special bonds CPU = 0.012 seconds
  read_restart CPU = 0.024 seconds
include 	in.setup
variable	out_freq equal 1000
variable	out_freq2 equal 10000
variable	out_freq3 equal 1000

timestep	2.0

neigh_modify    delay 7 every 1

include		in.tip4p
# This is TIP4P/Ice

# create groups ###
group ox type 2
432 atoms in group ox
group hy type 1
864 atoms in group hy

# set charges - beside manually ###
set group ox charge -1.1794
Setting atom values ...
  432 settings made for charge
set group hy charge 0.5897
Setting atom values ...
  864 settings made for charge

# ### TIP3P Potential Parameters ###
pair_style lj/cut/tip4p/long/omp 2 1 1 1 0.1577 8.5
pair_coeff 1 1*2 0.000 0.000
pair_coeff 2 2 0.21084 3.1668
bond_style  harmonic
bond_coeff  1 450 0.9572
angle_style harmonic
angle_coeff 1 55 104.52
kspace_style pppm/tip4p/omp 1.0e-5
pair_modify tail yes

thermo          ${out_freq}
thermo          1000
thermo_style    custom step temp pe etotal epair emol press lx ly lz vol pxx pyy pzz pxy pxz pyz enthalpy

restart 	${out_freq3} restart.lmp.${pid} restart2.lmp.${pid}
restart 	1000 restart.lmp.${pid} restart2.lmp.${pid}
restart 	1000 restart.lmp.0 restart2.lmp.${pid}
restart 	1000 restart.lmp.0 restart2.lmp.0


include         in.dump
dump            myDump all atom ${out_freq2} dump.water.${pid}
dump            myDump all atom 10000 dump.water.${pid}
dump            myDump all atom 10000 dump.water.0
dump            myDump2 all dcd ${out_freq2} dump.dcd
dump            myDump2 all dcd 10000 dump.dcd
dump_modify     myDump append yes
dump_modify     myDump2 append yes


variable natoms 	equal  "count(all)"                        # NUMBER ATOMS
variable H      	equal  "enthalpy/v_natoms"                 # ENTHALPY-per-atom
variable Vol      	equal  "vol/v_natoms"                 # volume-per-atom
fix AVG all 		ave/time ${out_freq} 1 ${out_freq} v_Vol v_H file vol_enthalpy.dat
fix AVG all 		ave/time 1000 1 ${out_freq} v_Vol v_H file vol_enthalpy.dat
fix AVG all 		ave/time 1000 1 1000 v_Vol v_H file vol_enthalpy.dat


timer           timeout 10:00:00 every 1000
New timer settings: style=normal  mode=nosync  timeout=10:00:00

fix 		1 all shake 1e-6 200 0 b 1 a 1
Finding SHAKE clusters ...
       0 = # of size 2 clusters
       0 = # of size 3 clusters
       0 = # of size 4 clusters
     432 = # of frozen angles
  find clusters CPU = 0.004 seconds
fix             2 all nph tri ${pressure} ${pressure} ${pressureDamp}
fix             2 all nph tri 10668.8 ${pressure} ${pressureDamp}
fix             2 all nph tri 10668.8 10668.8 ${pressureDamp}
fix             2 all nph tri 10668.8 10668.8 1000
fix             3 all temp/csvr ${temperature} ${temperature} ${tempDamp} ${seed}
fix             3 all temp/csvr 137.19 ${temperature} ${tempDamp} ${seed}
fix             3 all temp/csvr 137.19 137.19 ${tempDamp} ${seed}
fix             3 all temp/csvr 137.19 137.19 100 ${seed}
fix             3 all temp/csvr 137.19 137.19 100 745823


run             250000
PPPM initialization ...
  extracting TIP4P info from pair style
  using 12-bit tables for long-range coulomb (../kspace.cpp:340)
  G vector (1/distance) = 0.37019623
  grid = 30 40 32
  stencil order = 5
  estimated absolute RMS force accuracy = 0.0039581875
  estimated relative force accuracy = 1.1919964e-05
  using double precision FFTW3
  3d grid and FFT values/proc = 5168 640
Last active /omp style is kspace_style pppm/tip4p/omp
Neighbor list info ...
  update every 1 steps, delay 7 steps, check yes
  max neighbors/atom: 2000, page size: 100000
  master list distance cutoff = 10.8154
  ghost atom cutoff = 10.8154
  binsize = 5.4077, bins = 7 5 4
  1 neighbor lists, perpetual/occasional/extra = 1 0 0
  (1) pair lj/cut/tip4p/long/omp, perpetual
      attributes: half, newton on, omp
      pair build: half/bin/newton/tri/omp
      stencil: half/bin/3d/tri
      bin: standard
Setting up Verlet run ...
  Unit style    : real
  Current step  : 34750000
  Time step     : 2
  Walltime left : 9:59:59.89
Per MPI rank memory allocation (min/avg/max) = 9.447 | 9.452 | 9.456 Mbytes
Step Temp PotEng TotEng E_pair E_mol Press Lx Ly Lz Volume Pxx Pyy Pzz Pxy Pxz Pyz Enthalpy 
34750000    137.57626   -6620.3458   -6266.4393   -6620.3458            0    11311.201    22.880109    21.291232    21.396947    10423.431    11723.344    11105.897    11104.362    497.49858     234.7723   -952.68026   -4546.9666 
34751000    137.13264   -6647.7047   -6294.9393   -6647.7047            0    10581.688    22.951969    21.367839    21.253637    10423.506    12538.169    8943.7256    10263.169   -591.36089   -628.40693    15.856848   -4686.3519 
34752000    135.99982   -6644.1112   -6294.2599   -6644.1112            0    10796.917    23.098668    21.170649    21.306862    10419.349    10292.127      10886.9    11211.723   -664.77858   -85.220727   -633.75257   -4653.6088 
34753000    137.32445   -6662.2409   -6308.9821   -6662.2409            0     9566.349    23.212495    21.086863    21.415247    10482.307     9151.908    9330.9607    10216.178   -230.08081    162.84756    556.83431   -4846.5389 
34754000    134.86162   -6661.3253    -6314.402   -6661.3253            0     10082.89    23.220271    20.977906    21.434859    10441.191    9060.2788    11472.548    9715.8418     570.4117   -240.01077    126.12028   -4779.0395 
34755000    137.38119   -6653.6687    -6300.264   -6653.6687            0     10278.24     23.25724    21.074095    21.299703    10439.523    9686.2871    10772.064    10376.368    311.44184    616.30837   -97.891082   -4735.4048 
34756000    138.65199   -6645.3263   -6288.6525   -6645.3263            0    10646.432    22.966269    21.220272    21.452423    10454.848    10894.466    10049.775    10995.057   -381.20827   -364.61538    516.52482   -4665.3565 
34757000    134.92661    -6650.453   -6303.3625    -6650.453            0    10741.105     23.01469    21.326489    21.233676    10421.967    10924.019    9900.4739    11398.821    4.6870267    415.41809     490.9238   -4670.7823 
34758000    139.44446   -6654.3945   -6295.6821   -6654.3945            0     10926.34    22.847038    21.284179    21.510882    10460.321    11853.701    10537.065    10388.255     234.7489    205.92102   -125.72316   -4628.8355 
34759000    143.84786   -6635.4045   -6265.3647   -6635.4045            0    11796.494    23.070283    21.213037    21.256444    10402.708     12385.96    11255.677    11747.844   -543.27326   -719.27924    813.68262   -4475.6853 
34760000    138.54579    -6645.917   -6289.5164    -6645.917            0    11425.054    23.053932     21.05071    21.488241    10428.279    11461.998    11566.793     11246.37    317.54551     -285.972    307.45238   -4551.9285 
34761000    139.36385    -6652.267    -6293.762    -6652.267            0    10697.356    23.171878    21.161785    21.289192    10439.332    10108.924    11321.028    10662.116    398.83859   -580.84471    788.10278   -4665.1221 
34762000    141.54149   -6641.3524   -6277.2455   -6641.3524            0    10168.357    23.108516    21.125964    21.437201     10465.42    9923.2109    11148.578     9433.283   -388.09887    190.88396    -425.9397   -4725.2754 
34763000    144.72117   -6661.7545   -6289.4681   -6661.7545            0    10033.337    23.027025    21.308325    21.346892    10474.223    10365.423    9605.2281    10129.359    725.14121   -699.51447    446.42865   -4756.8178 
34764000    129.96152   -6652.3939   -6318.0759   -6652.3939            0    9862.4157    23.038815    21.355617    21.262672    10461.407    8956.4781    10049.359     10581.41     766.6509     261.2948    490.70867   -4813.3781 
34765000    138.36625    -6648.423   -6292.4842    -6648.423            0    10776.496    22.901741    21.240586    21.457269    10437.811    11135.847    11497.742     9695.899   -259.47944    547.15097    652.31479   -4652.0346 
34766000    137.88057    -6647.156   -6292.4667    -6647.156            0    11491.675    23.014904    21.257686    21.267576    10405.025    11079.786     12049.46    11345.778    1373.7164   -298.47451   -370.25979   -4548.6439 
34767000    139.19178   -6653.8595   -6295.7971   -6653.8595            0    10300.549    23.006844    21.119854    21.506765    10450.163    11490.811    11230.895    8179.9412   -161.51304    385.76868   -893.39526   -4725.9429 
34768000      136.347   -6654.4905   -6303.7462   -6654.4905            0    12125.817    23.170686    21.197259    21.116903    10371.673    11400.374    11382.974    13594.103   -292.00404    218.18711    531.18498   -4469.5925 
34769000    133.38887   -6645.4595   -6302.3248   -6645.4595            0    11195.839    23.039465    21.132502    21.433315    10435.485    11248.478    11867.753    10471.287   -423.83168    910.83646   -414.51414   -4598.4205 
34770000    135.37778    -6649.032   -6300.7809    -6649.032            0     11602.82    23.105147    21.137497    21.320738    10412.728    11607.284    11315.971    11885.205    673.57417   -207.87177    600.48073   -4538.7887 
34771000    135.15682   -6662.7401   -6315.0574   -6662.7401            0    10298.063    23.048137    21.248925    21.336656    10449.588    10868.485    10077.424    9948.2785   -423.08445    163.74543    787.35088   -4745.6686 
34772000    137.29025    -6644.427   -6291.2562    -6644.427            0    10169.936    23.039088     21.21344    21.370851    10444.754    10399.786    9583.5201    10526.502   -490.89465    706.16247   -345.63378   -4742.1103 
34773000    139.86059   -6662.4945   -6302.7116   -6662.4945            0    10407.372    22.966773     21.30704    21.308123    10427.214    10125.173    9760.1825    11336.762   -369.41651    390.96345     262.9555   -4720.0602 
34774000     145.3335   -6629.9497   -6256.0881   -6629.9497            0    10862.029    23.037424    21.128803     21.39984     10416.44      11755.1    10467.077    10363.911   -9.7001027    348.10451   -116.63541   -4606.0036 
34775000    139.36602   -6634.9104   -6276.3998   -6634.9104            0    10107.849    23.139213    21.290364    21.237332    10462.407    9670.9652    9414.6431    11237.938     455.2995    516.58338    387.21857   -4734.1091 
34776000    143.73149   -6634.8359   -6265.0954   -6634.8359            0    12521.366    22.918358    21.086102    21.457263    10369.412    14742.207    12642.304    10179.587   -89.438761   -1985.1886    -829.2912   -4371.5239 
34777000    140.13972   -6650.7219    -6290.221   -6650.7219            0    10695.323    23.101535    21.205591    21.337022    10452.617    10454.828    10571.285    11059.855   -889.77618    211.14659    565.57096   -4659.8186 
34778000    133.76226   -6661.9255   -6317.8303   -6661.9255            0    9664.5125    23.106469    21.204199    21.406265    10488.089    8991.0442     9599.386    10403.107   -340.98223   -186.05313    77.323574   -4839.5656 
34779000    129.57812   -6640.2464   -6306.9146   -6640.2464            0    10324.297    23.227845    21.084441     21.32709     10444.86    8416.8404    11937.538    10618.513    240.50407    731.30389   -217.14896   -4734.2396 
34780000    141.00714   -6635.4417   -6272.7094   -6635.4417            0     11214.15    23.022148    21.233022    21.324619    10424.109    11747.049     10222.34    11673.061   -198.64456    40.636148    129.44179   -4567.8789 
34781000    139.46961   -6638.5384   -6279.7614   -6638.5384            0    10916.681    23.014041    21.168801    21.436625    10443.487     11585.41    11261.254    9903.3796   -734.68028    115.80189   -346.73202   -4617.0684 
34782000    139.78192   -6643.4921   -6283.9117   -6643.4921            0    10459.179    23.122336    21.298984    21.154446    10418.189     9890.948    10377.245    11109.344    489.78875    54.724044    136.68315   -4694.7586 
34783000    144.89952    -6668.099   -6295.3538    -6668.099            0    10563.798    23.056071    21.138655     21.38472    10422.364    9954.8215    11119.889    10616.684    818.33089   -299.73986     1035.355   -4689.6619 
34784000    139.20548   -6661.0824   -6302.9848   -6661.0824            0    10951.301    23.160942    21.196257    21.228074    10421.398    10972.691    9957.7641    11923.449   -755.65963    56.611822     461.4109   -4638.5469 
34785000    138.21126   -6675.1603   -6319.6203   -6675.1603            0    9544.6579    23.211654     21.00524    21.492736    10479.136     9159.025    10304.293    9170.6558    102.46191    -229.6078   -319.53393   -4860.9346 
34786000    134.57231   -6650.2077   -6304.0286   -6650.2077            0    10978.658    23.161669    21.153198    21.268079    10420.154    10395.861    11375.242    11164.871   -5.7400228   -190.61589   -81.439259    -4635.632 
34787000    140.12384   -6653.3088   -6292.8488   -6653.3088            0    11241.743    23.010529    21.148742    21.397715    10413.065     12522.58    11038.111    10164.536   -209.46988   -994.17176   -377.89634   -4585.6343 
34788000    134.42301   -6640.3854   -6294.5904   -6640.3854            0    11422.946    23.156075    21.028685    21.405666    10423.314    11721.479    12483.534    10063.825    439.47451   -743.71315   -723.40867   -4558.1502 
34789000    137.96966   -6651.0753   -6296.1567   -6651.0753            0    10512.315    23.158919     21.24048    21.208286    10432.495    10188.427    9392.5226    11955.994   -790.03816     26.91935    133.11375   -4696.7371 
34790000    133.22708   -6652.3075   -6309.5889   -6652.3075            0    10021.362    22.960161    21.256644    21.431677    10459.858    10695.411    10519.695    8848.9795    -218.3418   -818.69154   -49.202156   -4780.8673 
34791000    138.25285    -6665.072    -6309.425    -6665.072            0    10239.897    23.049841    21.272418    21.293724    10440.864     10198.67    9086.0993     11434.92     149.9973    818.39788    313.06432   -4750.2032 
34792000     135.5467    -6645.221   -6296.5353    -6645.221            0      11234.1    22.835959     21.35568    21.375919    10424.553    11741.741    11164.895    10795.665   -1105.8774   -339.87865     213.4499   -4588.5992 
34793000    143.18289   -6655.3918   -6287.0625   -6655.3918            0    10721.317    23.167277    21.199282    21.244476    10433.792    9798.4194    9936.9907    12428.542    399.67359   -396.64442    1002.0156   -4655.6409 
34794000    140.50858   -6652.4671   -6291.0173   -6652.4671            0    10445.875    23.048674    21.149173    21.418067    10440.459    11757.001    9330.8191    10249.803    77.001319   -1192.5168   -265.15435    -4700.493 
34795000    133.21639   -6671.0626   -6328.3715   -6671.0626            0    10260.173    23.210735    21.077665    21.274894    10408.276    10171.315    9794.7068    10814.498     -1216.03    209.39676    422.28803   -4770.9386 
34796000    140.45131   -6651.4176   -6290.1152   -6651.4176            0    11012.753    23.001698    21.095992    21.497791    10431.666    10977.978    11745.977    10314.304     -1216.07    69.898009    371.52565   -4614.6883 
34797000    139.99646   -6665.6631   -6305.5307   -6665.6631            0      11136.8    23.070723    21.232968    21.227499    10398.501    10034.657    11321.615    12054.127    366.84247     621.8314   -37.139592   -4616.6187 
34798000    143.61231   -6661.8538   -6292.4199   -6661.8538            0    9797.9296    22.940555    21.314965    21.419018     10473.41    10806.207    9001.2336     9586.348    496.43503   -225.52093    41.067223   -4795.8455 
34799000    140.74494   -6643.3518    -6281.294   -6643.3518            0    10612.567    22.961414     21.37262    21.267787    10437.073    10847.493    10056.638    10933.572   -362.31769    103.46208   -236.72731   -4665.9126 
34800000    141.61177    -6662.657   -6298.3693    -6662.657            0    10877.608    22.995777    21.211432    21.407026    10441.777    10065.482    11327.316    11240.028     713.4507   -205.98802    -478.0743   -4641.8988 
34801000    138.04817   -6633.7748   -6278.6543   -6633.7748            0    10869.389    23.048409    21.177473    21.360271    10426.099    10269.234    10793.016    11545.917    1696.2271     86.27536   -133.78815   -4625.9206 
34802000    134.37005   -6650.2202   -6304.5614   -6650.2202            0    10089.754    23.141388    21.143885    21.300571    10422.345    10029.642    10601.294    9638.3251   -501.67584   -222.12144    185.18279   -4770.9268 
34803000    131.95541   -6649.5273     -6310.08   -6649.5273            0    10514.919     23.14274    21.065435    21.421006    10442.995    9700.7174    10975.732    10868.308   -230.65573    953.33202    395.47107    -4708.654 
34804000    137.53752   -6643.6732   -6289.8663   -6643.6732            0    10311.948    23.205705    21.186067    21.251428    10448.002    10061.785    10477.092    10396.967   -891.84833    866.80095   -244.84386   -4718.5998 
34805000    142.05017   -6649.9468   -6284.5314   -6649.9468            0    11922.539    22.956042    21.121867    21.446987    10399.096    12688.747    12098.281    10980.591   -9.4132264   -460.29773     -339.023   -4476.3572 
34806000    141.91401   -6644.0337   -6278.9686   -6644.0337            0     9711.921    23.040121    21.274881    21.328819    10454.872    10130.029    10028.765    8976.9685   -889.03934    490.51779   -1097.1884   -4798.1572 
34807000    138.60331   -6657.4678   -6300.9193   -6657.4678            0    9912.6253    23.010434    21.306932    21.323696    10454.619     9678.542     9200.638    10858.696    875.17012    315.49546    888.61133   -4789.5424 
34808000    135.28129   -6636.2359    -6288.233   -6636.2359            0    12446.768     22.90914    21.217401     21.35484    10379.998    13540.736    12152.256    11647.313    683.73246   -262.88542    301.95551    -4404.021 
34809000     138.3752   -6644.5833   -6288.6216   -6644.5833            0    12066.495    23.035035    21.202491    21.270395    10388.463    11455.879    11067.635     13675.97   -411.63293    661.92128   -157.47994   -4460.4863 
34810000     131.8749   -6658.6661    -6319.426   -6658.6661            0    11098.905    23.065212     21.13403    21.389772    10426.677    10695.382    11112.058    11489.277   -44.674931   -163.62431   -65.257291   -4631.6998 
34811000    136.51724   -6654.3838   -6303.2015   -6654.3838            0    9300.1635    23.177818    21.211604    21.336996    10490.093    8848.1605    9214.0632    9838.2667    -258.7884   -474.61251    195.17586   -4880.3951 
34812000    140.63579   -6651.5599   -6289.7829   -6651.5599            0    10490.267    23.130717    21.161099    21.344782     10447.66    10491.754    11331.921    9647.1276    615.53906   -692.73284   -644.57527   -4691.3976 
34813000    138.97987   -6637.0054   -6279.4881   -6637.0054            0    10963.638    23.009072    21.296177    21.317832     10445.85    10061.653    10591.368    12237.893    122.19459    145.29068    349.92769   -4609.2656 
34814000    133.80289   -6649.9106   -6305.7108   -6649.9106            0    10580.879    23.098958    21.130927     21.43331     10461.65    10071.999     11732.18    9938.4572   -1019.0737    1472.6064    315.33084   -4691.3604 
34815000    133.88807   -6666.3311   -6321.9122   -6666.3311            0    11081.068    23.098715    21.124581     21.34567    10415.634    11188.991    11657.983    10396.229    10.855778   -175.44462   -656.11793   -4638.6832 
34816000    138.91217   -6640.4066   -6283.0634   -6640.4066            0    10241.269    23.240819    21.164419    21.265211    10459.898    10389.624    9892.7837    10441.399    60.010874   -659.33976    165.66377   -4720.7898 
34817000    133.76136   -6658.1661   -6314.0732   -6658.1661            0    11601.029    22.964851    21.106211    21.466858    10405.007     11634.95    11810.712    11357.425   -976.68279    1354.3265   -49.645819   -4553.6592 
34818000    129.91931   -6646.5406   -6312.3311   -6646.5406            0    10755.802    23.082636    21.290991    21.218656    10427.955    10926.052    10288.723    11052.629    220.90184    608.23768    46.360525   -4676.5777 
34819000    133.18581   -6668.0863    -6325.474   -6668.0863            0    10905.253    22.918933    21.192581    21.507504    10446.439    12629.424    10527.643    9558.6912    720.83767    110.68058   -482.56799   -4664.0522 
34820000    135.85804    -6653.247   -6303.7605    -6653.247            0    10285.481    23.045911    21.401141    21.195107    10453.613    9814.6282     8626.274    12415.541   -389.66862    87.251627    494.83015   -4735.6851 
34821000    137.85673   -6649.6636   -6295.0355   -6649.6636            0    10394.736    23.068355    21.243626    21.325173    10450.518    10697.284    10849.786    9637.1372   -35.519828   -391.25754   -888.73811   -4710.7729 
34822000    142.68002    -6635.635   -6268.5993    -6635.635            0     10441.08     22.99828    21.248479    21.395509    10455.524    11146.612     10417.76    9758.8665   -438.53596    241.02354    500.00226   -4676.5112 
34823000    133.07159   -6655.1693   -6312.8507   -6655.1693            0    10535.755    23.116933    21.206988    21.268989     10426.92    9968.5788    10769.079    10869.607    750.79722    266.43041   -367.19023   -4710.7213 
34824000    138.22984   -6652.1592   -6296.5713   -6652.1592            0    11714.684    22.933367    21.214756    21.396496    10409.947    12028.201    11296.924    11818.927    865.02492   -916.05723   -359.96003   -4518.0667 
34825000    130.09865   -6631.1644   -6296.4935   -6631.1644            0     11303.06    22.991758    21.269245    21.311644    10421.763    10442.622    11173.423    12293.136    71.149729    743.72217    1034.8287   -4578.5331 
34826000    139.55025   -6664.3829   -6305.3984   -6664.3829            0     9801.381     23.09836    21.183288    21.407875    10474.857    9854.5219    9809.3767    9740.2445   -657.08107   -800.04814    25.017907     -4808.09 
34827000     137.5626   -6667.3937   -6313.5223   -6667.3937            0    9505.8126    23.249699     21.14798     21.30001    10472.878    8918.8342     9225.114    10373.489   -1290.4074   -1006.7776   -266.77858   -4861.6408 
34828000    135.86711   -6623.7093   -6274.1995   -6623.7093            0    11824.592    23.127608    21.022796    21.422574    10415.805    11120.011    12362.738    11991.027    -1069.547    543.31961   -242.57909   -4477.9986 
34829000    138.04185   -6666.2372   -6311.1329   -6666.2372            0    10981.317    23.071683    21.187298    21.317852    10420.734    10481.031    10785.177    11677.742     -873.385    614.66487    253.02402   -4642.2395 
34830000    139.88158   -6642.2167   -6282.3799   -6642.2167            0    10506.601    22.931396    21.407448    21.310948    10461.601    11000.028    10047.872    10471.902   -376.02262    321.39497    98.065034   -4679.3697 
34831000    135.27367   -6654.4251   -6306.4418   -6654.4251            0    10587.453    23.010173    21.166472    21.406843    10426.079    11563.378    9560.4809    10638.499    335.82801    264.14413   -31.074666   -4696.5809 
34832000    137.84834   -6660.0292   -6305.4227   -6660.0292            0      10740.1    23.000792    21.258522    21.347687    10438.226    10895.795    10644.754     10679.75   -545.02085    458.91544    152.08206   -4670.4486 
34833000    137.27098   -6648.3042   -6295.1829   -6648.3042            0    10685.582    23.108601    21.194033    21.320319    10441.935    9843.7165    10570.091    11642.939    526.66608    91.964968   -137.42487   -4667.9301 
34834000    141.78556   -6636.4459   -6271.7112   -6636.4459            0    10234.496    23.056801    21.251375    21.341467    10457.078    9897.6096    10558.129    10247.751    62.355354    675.09737   -122.24505   -4710.8916 
34835000    140.59665   -6672.0787   -6310.4024   -6672.0787            0    9677.6288    23.035444    21.248292    21.416079    10482.396    9262.0083    9783.9872    9986.8909   -312.68223    1127.7248     731.4746   -4830.9349 
34836000    140.17432   -6663.3847   -6302.7948   -6663.3847            0     10592.95    23.143379     21.28199    21.162379    10423.258    9847.0044     10378.03    11553.814    987.82597    499.77558   -213.77675   -4692.5338 
34837000    134.72887    -6657.766   -6311.1842    -6657.766            0    11103.375    22.956258    21.181951    21.422006    10416.629    12369.956    9760.8666    11179.303   -349.12599   -331.95411    483.77055   -4624.4056 
34838000    136.28102   -6646.4952   -6295.9206   -6646.4952            0    10707.361    23.215495    21.153472    21.275722    10448.258    10339.469    10714.445    11068.168   -620.74389    426.54848   -220.05865   -4664.3636 
34839000    137.19116    -6677.969   -6325.0531    -6677.969            0    10738.062    23.125127    20.992868    21.509388    10442.007    11617.284    11833.981    8762.9198   -459.33361   -192.56487   -408.26771   -4689.7972 
34840000    138.22911   -6664.0785   -6308.4925   -6664.0785            0    10485.839    23.181023    21.169042    21.264796    10435.062    10205.302     9849.068    11403.148   -788.07056    175.90709   -233.94896   -4712.7085 
34841000    132.88728   -6657.2147   -6315.3703   -6657.2147            0    10618.601    23.047659    21.173926    21.397801    10442.328    11364.235    9851.4589    10640.107    531.86383   -856.25924    147.00126   -4698.2567 
34842000    141.41393   -6656.5106   -6292.7319   -6656.5106            0    10706.802    22.967764    21.263052    21.330505    10417.067    10818.594    10517.476    10784.336    850.46086   -44.863655    149.35788   -4666.1307 
34843000    135.73018   -6648.5825   -6299.4249   -6648.5825            0    10870.625    22.877592    21.299933     21.38046    10418.509    11376.466    10209.503    11025.907   -191.62045    1073.9627   -216.93302   -4647.7065 
34844000     140.5215   -6656.0991   -6294.6161   -6656.0991            0    10622.113    23.011424    21.278619    21.326853    10442.722    10202.388    10800.304    10863.647   -76.142211    218.32173   -720.99032   -4676.9067 
34845000    132.22468    -6656.737   -6316.5971    -6656.737            0    11136.268    23.034068    21.176673    21.340017    10409.339    11496.874    10817.615    11094.314   -589.90509    1108.9048    435.40246   -4626.0056 
34846000    137.96535   -6636.1489   -6281.2415   -6636.1489            0    11185.063    23.169315    21.090694    21.342726    10429.271    11188.419      11036.6     11330.17    272.96451   -530.15271   -730.60496   -4579.9909 
34847000    138.44657    -6663.798   -6307.6526    -6663.798            0    9378.7561    23.143352    21.176851     21.39938    10487.907    9173.6486    9695.8988    9266.7209   -505.55767     57.38434   -111.92107   -4873.1216 
34848000    130.83693    -6662.882    -6326.312    -6662.882            0    9820.6305    23.115079    21.167955    21.370913    10456.765    9656.8763    10139.283    9665.7323   -221.61109    826.56272    511.36686   -4828.6541 
34849000    137.64509   -6648.2643   -6294.1807   -6648.2643            0    10547.944    23.235148    21.110731    21.279914    10438.031    10276.841    10556.725    10810.267    1308.5035   -977.33081   -642.98845   -4688.4885 
34850000    134.16247   -6656.4786   -6311.3539   -6656.4786            0    10493.803    23.038556    21.223489    21.351043    10439.775    10723.398    10232.248    10525.764    239.97247   -148.10656   -212.75486   -4713.6366 
34851000    141.68653   -6674.1008   -6309.6209   -6674.1008            0    11183.266    22.991921    21.118632    21.405029    10393.381    10727.919    12654.371    10167.508    766.22146    210.21715   -859.88461   -4614.4971 
34852000     136.2515   -6652.3792   -6301.8805   -6652.3792            0     10066.93    23.104385    21.345498    21.212587    10461.509    9492.8243    9708.4897    10999.476   -12.093766   -254.96877     146.3728   -4765.9651 
34853000    138.66218   -6643.6186   -6286.9186   -6643.6186            0    10160.021    23.110124    21.141491     21.41943    10465.158    10506.222    9921.0531    10052.788   -211.56193    48.194068   -436.05476   -4736.2596 
34854000    138.28449   -6641.6741   -6285.9457   -6641.6741            0     11352.96    23.009343    21.185287    21.314607    10390.008    12299.407    10595.854    11163.618     11.96532   -852.34614    1039.9245   -4565.6588 
34855000    137.60441   -6645.2791   -6291.3002   -6645.2791            0    10491.423    23.103372    21.074356    21.470386    10453.688     10688.16    10839.229    9946.8804    290.19768   -110.24034      282.126   -4691.8164 
34856000    137.41599   -6666.1035   -6312.6092   -6666.1035            0    10506.712    23.076483     21.22883    21.308488    10438.746     10737.03    10310.696    10472.411    424.13288   -1243.7994    228.41667   -4713.0842 
34857000     134.9889   -6649.2065   -6301.9558   -6649.2065            0    10933.218    23.124612    21.105131     21.34252    10416.173    10011.855    11979.961    10807.839    456.79348   -694.74122   -655.99683   -4641.0993 
34858000    136.28847   -6653.2049   -6302.6111   -6653.2049            0    11280.577    23.054497    21.116069    21.378498    10407.488     11051.87     12079.03    10710.831    190.53324   -141.51033    321.15135   -4590.4165 
34859000    130.12746   -6640.7533   -6306.0084   -6640.7533            0    11490.904    23.164487    21.092637    21.342794    10428.092    11935.426    11242.312    11294.975    671.54401   -592.36295   -309.36578    -4558.437 
34860000    133.29763    -6653.236    -6310.336    -6653.236            0     9292.538    23.146426    21.121446    21.433774    10478.672    9324.3184    9175.3063    9377.9892    1149.5173    25.089593    91.587528    -4890.244 
34861000    135.35529   -6645.4547   -6297.2615   -6645.4547            0    10712.409    23.077782    21.206817    21.339727    10443.797    10296.264    10619.617    11221.345   -117.63588   -418.93048    207.28316   -4665.6324 
34862000     136.2646   -6655.2252   -6304.6928   -6655.2252            0    9935.5292    23.162357    21.121614    21.412497    10475.557    9101.8644    10538.941    10165.782     598.2638    433.76124     317.0109   -4786.7897 
34863000    134.90911   -6639.3153   -6292.2698   -6639.3153            0     10794.29    22.857693    21.266178    21.459509    10431.376    11961.921    9781.4575     10639.49   -669.30199    109.42022    1405.5748   -4650.1246 
34864000    136.39215   -6636.7931   -6285.9326   -6636.7931            0    11249.214    23.097381     21.17844    21.327769     10432.83    11425.084    11583.445    10739.113    703.23907   -241.19732   -1048.7276   -4574.3408 
34865000    137.35255   -6642.0574   -6288.7263   -6642.0574            0    11614.551     23.06468    21.141061    21.366398    10418.508    11376.611     12831.17    10635.874    482.53419    545.82156   -726.46566   -4523.9736 
34866000    133.33904   -6661.2822   -6318.2756   -6661.2822            0    11234.217    23.126192    21.078442    21.372739    10418.444    10652.202    12164.084    10886.365   -416.50396    33.300069   -137.76029   -4611.3227 
34867000    130.79937   -6660.9091   -6324.4357   -6660.9091            0    12129.624     23.18484     20.95093     21.36456    10377.706    11927.179    13337.273    11124.422    132.54307   -241.77643     89.35059   -4488.6389 
34868000    133.70955   -6660.9293   -6316.9696   -6660.9293            0    10118.421    23.111669    21.158244    21.383866     10456.76    8868.9561    10874.937     10611.37   -75.215558    877.12519     363.0069   -4773.8991 
34869000    136.60187   -6653.5554   -6302.1555   -6653.5554            0    10672.832    23.034409     21.25408    21.298555    10427.244    10817.794    9917.3479    11283.355   -124.64907   -258.56976    782.47505   -4679.1309 
34870000    132.26417   -6643.9144   -6303.6729   -6643.9144            0     10983.82    22.938522     21.22566    21.421657    10429.889    11221.487    10515.056    11214.919    322.45003    699.35131    767.62553   -4632.9324 
34871000     131.6889   -6637.0658   -6298.3041   -6637.0658            0    11551.741    22.955158    21.234406      21.3345    10399.271    12710.276    11298.437    10646.509   -734.67506    249.99783    40.193884   -4546.3359 
34872000    139.08484   -6634.2609   -6276.4736   -6634.2609            0    10683.277    23.108679    21.110572    21.414114    10446.606    11471.065    10650.664    9928.1014    442.10449   -341.00519   -73.243887    -4648.844 
34873000    137.85352   -6660.6521   -6306.0323   -6660.6521            0    10170.836    23.176104    21.211483    21.237059    10440.128    9973.5627    10089.399    10449.545    317.75455   -483.37116   -356.44756   -4757.4355 
34874000    135.07217   -6638.9281   -6291.4632   -6638.9281            0     11341.49    23.011754     21.12235    21.451576    10426.803    12172.415    10919.118    10932.937    -269.4266   -399.50377    -84.75302   -4566.8283 
34875000    143.11441   -6659.8006   -6291.6475   -6659.8006            0     9449.192    23.103171     21.24037    21.351371    10477.543    8584.2976    8817.7292    10945.549   -465.09886    218.19985    963.30064   -4847.7711 
34876000    138.13351    -6659.122   -6303.7819    -6659.122            0    10938.192    23.194294    21.157131    21.268497    10436.977    10712.164    11035.744    11066.669    1339.1464   -1160.5156   -358.24905   -4638.8512 
34877000    138.06229   -6657.3344   -6302.1775   -6657.3344            0    10365.002    23.012154    21.235928    21.409529    10462.504      10668.4     10522.49    9904.1157   -967.22258   -878.50497    201.24838   -4720.6348 
34878000    139.42071   -6656.7662   -6298.1149   -6656.7662            0    11030.952    23.022996      21.1579     21.36788    10408.684    11631.491     10966.42    10494.946    216.05331   -258.12656    -218.6392   -4623.6166 
34879000    137.03018   -6635.6976   -6283.1958   -6635.6976            0    9763.3597    23.005751    21.352468    21.322647    10474.315    9550.5323    9706.9822    10032.565   -733.86455    186.86352   -259.90769   -4791.7729 
34880000    132.61452   -6665.6542   -6324.5115   -6665.6542            0    11499.812    22.981605    21.181779     21.37303    10404.204    12185.083    11212.052    11102.303   -695.28873    279.95025    501.68979   -4579.5915 
34881000    129.86492    -6658.471   -6324.4014    -6658.471            0    9725.4155    23.088364    21.205238     21.34611    10450.933    9214.1091    9835.5756    10126.562    1645.0938    97.591003   -299.62464   -4842.0912 
34882000    139.19574   -6645.3779   -6287.3053   -6645.3779            0    10352.919    23.057979    21.222337    21.400484    10472.203    10665.895    9949.0631      10443.8   -351.38237   -69.400844    1832.6601   -4706.1419 
34883000    139.01867   -6641.1578   -6283.5407   -6641.1578            0    11714.263    23.226091    21.036508    21.308732    10411.358    12364.568    11095.449    11682.773    85.341287   -421.38846    334.72317   -4504.8589 
34884000    129.74181   -6644.5436   -6310.7907   -6644.5436            0    11382.914    23.077261    21.109143    21.333141    10392.252     11394.06    11499.003     11255.68   -1243.0907   -46.241983      442.044   -4585.5924 
34885000    131.24824    -6648.501   -6310.8729    -6648.501            0    12109.881    23.100788    21.003628    21.374291    10370.813    11158.515      12319.6    12851.529    534.02747    192.57768    135.94303   -4479.2815 
34886000    141.76661   -6652.0477   -6287.3617   -6652.0477            0    9995.6064    23.207461    21.176756    21.259246    10448.042    8857.7985    10334.909    10794.112    -453.4172    21.198168   -264.36706   -4764.2914 
34887000    134.14532   -6649.4403   -6304.3596   -6649.4403            0    11168.645    22.952554    21.179627    21.479458    10441.734      12107.9    11104.628    10293.407   -902.15597    -525.5834   -71.867117   -4603.5762 
34888000    132.89092   -6655.2104   -6313.3566   -6655.2104            0    10620.288     23.12618    21.180787    21.277755    10422.497     8980.418    10878.214    12002.231    43.146855    1424.5875    108.18142   -4699.0576 
34889000    139.77943   -6674.3191    -6314.745   -6674.3191            0    9547.6999    23.016722    21.215668    21.431145    10465.152    10612.353    9513.2063    8517.5404   -119.67801   -710.71323     201.5366   -4857.5415 
34890000    140.72805   -6669.9265   -6307.9122   -6669.9265            0    9559.2634    23.107879    21.260238    21.303033    10465.733    9192.0003    9518.6583    9967.1315    225.38894    230.74179    160.62882   -4848.8628 
34891000    134.04349   -6656.4377    -6311.619   -6656.4377            0    10739.844     23.00746    21.197417    21.381551    10427.755    11035.499    11051.233    10132.799    849.73653    182.43529   -418.06831   -4678.3238 
34892000    138.07683   -6653.5837   -6298.3895   -6653.5837            0    10993.985    23.010926    21.237949    21.334081     10426.07    10849.334    9706.8038    12425.817    116.18132   -778.19265     1341.115   -4626.7152 
34893000    140.04985   -6658.1851   -6297.9154   -6658.1851            0    9936.7917    23.262841    20.983542    21.402992    10447.588     9958.877    10507.469    9344.0287    385.48634    300.08563    101.60118   -4783.8727 
34894000    132.57829   -6647.6725   -6306.6229   -6647.6725            0    10897.879    23.096117    21.133523    21.360206    10425.966    10427.432     11706.69    10559.515   -274.56497   -135.92645    153.08492   -4649.5783 
34895000    139.20233   -6642.3862   -6284.2967   -6642.3862            0     10539.03    23.081289    21.134745    21.438486    10458.061    11056.827    10204.221    10356.042   -318.72614    56.268225    797.71016   -4676.8828 
34896000    139.53713   -6662.8049   -6303.8541   -6662.8049            0    10778.271    22.925895    21.360695    21.263546    10413.036    11316.235    9615.4896     11403.09   -16.683777    544.60516    744.85618   -4667.0287 
34897000    138.07757   -6669.5363   -6314.3402   -6669.5363            0    10120.833    22.962672    21.251526    21.380284    10433.403    10839.929    10151.405    9371.1649    1043.9266    194.98558    83.927862   -4774.3494 
34898000    138.07045   -6671.9548    -6316.777   -6671.9548            0    10379.381     23.04454    21.226978    21.323822    10430.888    10342.538    10256.746    10538.859   -184.22619    328.10426    -849.1255   -4737.8261 
34899000    138.14783   -6629.7839   -6274.4071   -6629.7839            0    11589.391    23.043281    21.131893    21.353439    10398.017    11863.236    11433.352    11471.586   -279.09721   -347.06252    4.7564349   -4516.9406 
34900000    135.70904   -6657.6972   -6308.5939   -6657.6972            0     10871.56     23.11678    21.163473    21.296747    10419.037    9859.7261    11059.384     11695.57    994.37611   -839.44582    22.588752   -4656.6498 
34901000    142.16885   -6655.3127    -6289.592   -6655.3127            0    9536.0071    23.111466    21.249567    21.345592    10483.005     9386.121    9406.1579    9815.7425   -960.90622   -717.73965    304.48228   -4831.6903 
34902000      136.879   -6667.9436   -6315.8307   -6667.9436            0    10824.996    23.081109     21.10282    21.406157    10426.436    10398.166    11669.241    10407.582     369.6354    92.718056   -585.54989    -4669.794 
34903000    143.56351   -6652.3109   -6283.0025   -6652.3109            0    10196.128    23.023367    21.280896     21.30995    10440.978    9782.7328    9778.9339    11026.717    75.875685    -243.3589    553.20069   -4730.4285 
34904000    139.73941   -6663.7832   -6304.3121   -6663.7832            0     10300.99    22.915931     21.30651    21.411607    10454.399    11832.147    9643.5382    9427.2832    313.53884    -988.6484   -642.33187   -4733.7543 
34905000    128.87647    -6645.919   -6314.3922    -6645.919            0    10625.005    23.071854    21.255404    21.272915    10432.271    9757.3621    11052.427    11065.225    1202.1012   -290.04517   -145.60132   -4697.8618 
34906000    133.34687   -6666.0437    -6323.017   -6666.0437            0    11592.057    23.091393    21.076212    21.355532    10393.291    11602.916    11144.896    12028.358    370.97963   -187.83008    538.19232   -4565.9454 
34907000     131.0095   -6644.5459    -6307.532   -6644.5459            0    10797.262    23.282828    20.933739    21.396524    10428.594    9807.6238     12308.41    10275.754     192.8384    390.74301    -1182.884   -4665.3726 
34908000    139.03287   -6664.6487   -6306.9951   -6664.6487            0    11232.604    23.091819    21.085613    21.337327    10389.254    10973.191     12057.29     10667.33   -280.68605    61.208005   -189.49121   -4605.0689 
34909000    136.45163   -6643.6657   -6292.6522   -6643.6657            0    12072.195    23.047014    21.145229    21.345661    10402.475    11769.299    12781.812    11665.474    163.17036   -265.82923    32.511114   -4461.1864 
34910000    136.05247   -6648.5085   -6298.5219   -6648.5085            0    12124.717    22.874999     21.28069    21.351948    10394.038    12478.244    12075.649    11820.256   -518.60425    652.12616    133.34327   -4460.5799 
34911000    133.64081   -6665.6712   -6321.8884   -6665.6712            0     9947.847    22.984282    21.310854    21.356439    10460.697     9757.984    8962.0985    11123.459    180.07753    434.50154    320.26618   -4804.2594 
34912000     136.0853   -6640.0029   -6289.9318   -6640.0029            0    11504.835    23.045649     21.19279    21.285809    10396.023    12011.881    10461.732    12040.891    460.71777   -67.964434   -47.643032   -4545.6224 
34913000    138.35902   -6655.7918   -6299.8716   -6655.7918            0     10953.77    23.069608    21.138984    21.377626    10425.186    10612.871    10827.773    11420.668     211.8164    88.125838    445.95323   -4634.4534 
34914000     128.1749   -6648.9663   -6319.2442   -6648.9663            0    9823.3876    23.228052    21.120822    21.338872    10468.756    9241.5959    9818.4932    10410.074   -1189.9573     790.3564    622.29244   -4819.4481 
34915000    136.41395   -6652.9993   -6302.0828   -6652.9993            0    10701.921    23.240631     21.00825    21.378422    10437.907    10649.195    11172.452    10284.116   -205.97622    630.57289   -174.02654   -4672.9703 
34916000    137.40766   -6638.9947   -6285.5219   -6638.9947            0    10139.767     23.10899    21.099742    21.503575    10485.008    11039.203    9813.6157    9566.4818   -628.98063   -1911.7454   -623.73927   -4735.0188 
34917000    133.47741   -6643.0748   -6299.7123   -6643.0748            0    10917.205    23.176159    21.211182    21.170615    10407.342    11033.857     10321.49    11396.267    168.27875   -719.52646   -146.73765   -4642.6945 
34918000    137.00583   -6642.1649   -6289.7257   -6642.1649            0    9831.7447    22.965288    21.203915    21.508227    10473.518      10995.2    8670.1524     9829.882   -118.48314   -581.94901   -25.936897   -4787.9709 
34919000    142.15363   -6633.7141   -6268.0325   -6633.7141            0    10867.192    22.988682    21.366963    21.250067    10437.997    10061.393    10305.052     12235.13   -57.804197    1265.7825   -191.33744   -4613.7473 
34920000    138.16683   -6662.6296   -6307.2039   -6662.6296            0    10533.009    22.954961    21.271021    21.399989    10449.089    10787.043    10289.308    10522.676   -635.98582   -309.20987   -238.24992   -4702.0866 
34921000    132.66958   -6645.1103   -6303.8259   -6645.1103            0    10456.177    23.078657    21.223113    21.318076    10441.614    10149.883    10838.768     10379.88   -165.97632    745.52782    602.27792   -4711.5568 
34922000    141.29024   -6655.9836   -6292.5231   -6655.9836            0    10539.974    23.052493    21.180336    21.360961    10429.693    11101.703     10583.28    9934.9381   -321.55908   -302.61868    405.03437   -4689.3259 
34923000    137.06776   -6656.5655    -6303.967   -6656.5655            0    11397.079    23.212715    21.024445    21.332725    10411.105    10460.869    12370.052    11360.316    -473.6088    266.40824   -567.37631   -4573.4883 
34924000     136.9734   -6670.1389   -6317.7832   -6670.1389            0    9973.1246     23.15129    21.094195    21.421581    10461.397    10246.921    10274.714    9397.7387    591.90721   -677.99341    -77.42029   -4796.1961 
34925000    137.46986   -6652.9631   -6299.3303   -6652.9631            0     10144.95    23.054961    21.220194    21.380268    10459.885    10586.541     9400.829    10447.479    429.07386   -322.92968    51.909932   -4751.7518 
34926000    135.19016   -6660.2034   -6312.4349   -6660.2034            0    10905.976     23.05874    21.274536    21.255895    10427.377    11988.261    9862.1445    10867.523    172.41773   -641.08022   -696.55454   -4653.9349 
34927000    143.11021    -6644.309   -6276.1667    -6644.309            0    10799.484    22.819976     21.28899      21.4693    10430.092    11491.855    10912.378    9994.2179    282.67315    337.69949    -392.8311   -4633.4336 
34928000     138.6323    -6655.441   -6298.8179    -6655.441            0    9928.9136    23.061123    21.277421    21.326416    10464.472    9714.9568    9421.6174    10650.166    234.70086    1361.8628    -388.5883   -4783.5308 
34929000    131.74178   -6631.5219   -6292.6242   -6631.5219            0    12177.407    23.058633    21.086864    21.378445    10394.933    11981.397    12184.173     12366.65   -316.05807   -245.45082   -634.91328   -4446.5363 
34930000    137.46709   -6648.0721   -6294.4463   -6648.0721            0    10488.792    23.183758    21.084522      21.3349    10428.893    10001.089    11520.319    9944.9688    36.312748   -963.43219    106.35273   -4699.1565 
34931000     132.5019   -6643.3455   -6302.4924   -6643.3455            0    11045.743    23.247334    21.056876    21.317017    10435.026    10627.133      10918.1    11591.995   -145.19339   -209.61478    14.660616   -4621.5055 
34932000    142.59042   -6658.4375   -6291.6323   -6658.4375            0    10264.228    23.121557    21.191256    21.338019    10455.092    10761.354    10251.601    9779.7295   -1589.7415   -5.5662171   -407.14207   -4726.5757 
34933000    133.20565   -6655.9272   -6313.2638   -6655.9272            0    10987.455    23.047615    21.199893    21.336507    10425.166    10849.963    10531.172    11581.231    125.57244    193.49133    462.02262   -4642.7272 
34934000     133.6712   -6649.6875   -6305.8265   -6649.6875            0    11113.126    22.917804    21.292911    21.333128    10410.284     11688.36    10209.477     11441.54    1066.5747   -1068.8659   -23.629354   -4618.5949 
34935000    138.82168   -6647.9665   -6290.8562   -6647.9665            0    10394.158    22.940365    21.356219    21.337069    10453.445    10549.978    11060.923    9571.5725    -180.8971    1353.9878   -908.24427    -4706.238 
34936000     137.1041   -6647.4434   -6294.7514   -6647.4434            0    9731.3413     22.95391    21.328849    21.453199    10503.067    10413.588    9468.0101    9312.4253   -1165.6409    990.99816    -512.6083    -4804.139 
34937000    130.73996   -6652.0414   -6315.7208   -6652.0414            0    10519.071    23.029617    21.258079    21.301405    10428.431    10398.031    10161.738    10997.442   -151.62149    613.87734    57.459257   -4715.8967 
34938000    140.22005   -6641.5853   -6280.8778   -6641.5853            0    10029.057    23.060648    21.190203    21.371121    10443.208    10843.199    10347.856    8896.1172    314.90191   -598.71346   -78.948202   -4753.4175 
34939000    134.30544   -6669.6311   -6324.1386   -6669.6311            0    10413.354    23.132491    21.074403    21.416123    10440.434    10427.916    10316.464    10495.682   -388.30567    165.51789    805.54562   -4738.5699 
34940000    139.40569   -6632.1411   -6273.5284   -6632.1411            0    9583.4185    23.169726    21.139484    21.390018    10476.746    8599.1111    9777.3739    10373.771    -766.5661    174.60904     534.6154    -4809.253 
34941000    140.33239   -6646.2391   -6285.2426   -6646.2391            0    10859.043    23.129371    21.106408     21.38292     10438.67    11353.068    9864.5636    11359.497    488.86185     -780.864    264.24094   -4632.0913 
34942000    141.09618   -6654.1273    -6291.166   -6654.1273            0    11321.084    23.023015    21.189618    21.338205     10409.82    11348.668     11609.96    11004.624    395.57634   -948.68965    254.76722   -4572.4381 
34943000    134.28765    -6649.449   -6304.0022    -6649.449            0    11483.255    23.028987    21.057574    21.451585    10402.616    10819.593    13322.652    10307.521    233.16321    1392.8498   -1479.7475   -4561.8605 
34944000    136.27315   -6653.3098   -6302.7554   -6653.3098            0    9891.0995    22.966925    21.331998    21.377832     10473.65    10888.824    9397.8628     9386.612   -1311.7254   -450.55683    20.679293   -4791.9153 
34945000    141.42441   -6650.8375   -6287.0318   -6650.8375            0    10807.186    22.995154    21.284159    21.331224    10440.194    10751.549    10695.259    10974.752    163.78701    18.457702   -358.60439   -4641.5347 
34946000      137.111   -6660.4714   -6307.7617   -6660.4714            0    10052.677    23.180597    21.131652    21.307069    10437.147    9004.9221    10380.623    10772.485   -37.288905    547.77326    -259.2339   -4777.5927 
34947000    130.49699   -6637.6154   -6301.9198   -6637.6154            0    10085.307    23.008047    21.183749    21.490628    10474.461     10998.18    9770.6457    9487.0942   -783.29551   -396.63447    1023.0271   -4761.2957 
34948000    141.55389   -6647.3809   -6283.2422   -6647.3809            0    11024.331    23.124378    21.157088    21.282644    10412.416    10925.856    11286.213    10860.925   -1344.0956    162.94864   -973.28484   -4609.1488 
34949000    136.24413   -6635.2804   -6284.8007   -6635.2804            0    11212.358     23.00585    21.192992     21.36796    10418.222    11689.848      11034.2    10913.027   -548.56832   -310.60914    490.45486   -4581.2053 
34950000    134.36355   -6655.5135   -6309.8714   -6655.5135            0    10444.338      23.0054    21.260182    21.367808    10450.973    9946.2334    10414.818    10971.963    171.39157    747.96126   -156.99706   -4717.9796 
34951000    139.05242   -6660.1522   -6302.4484   -6660.1522            0    9112.5133    23.106863    21.318144    21.281703     10483.27    10007.935    8570.9708    8758.6343    1299.1644   -201.33686   -538.55964   -4909.2568 
34952000    133.71675   -6641.0616   -6297.0835   -6641.0616            0     11217.45    22.968438    21.109918    21.462173    10406.188    11310.964    11441.092    10900.293    45.282917   -369.10638    266.35723   -4594.6831 
34953000    127.77347   -6652.5256   -6323.8361   -6652.5256            0     11595.39    23.175409    21.142687    21.228444    10401.734    11325.456    10937.834    12522.881   -184.91359   -295.81119    386.03405   -4564.8314 
34954000    133.53396   -6655.1382   -6311.6302   -6655.1382            0    9869.8326     23.13329     21.12568     21.44691    10481.244    9137.7368    10809.963    9661.7986    506.11596    -990.9637   -606.37908   -4802.9455 
34955000    134.69711    -6651.885   -6305.3849    -6651.885            0    11081.207    23.091409    21.166832    21.299023    10410.366    11838.848    10524.495    10880.278   -616.39911   -394.16176   -742.30546   -4622.9862 
34956000    131.71796   -6654.3204    -6315.484   -6654.3204            0    11559.323      22.9854    21.177107    21.366969    10400.677    11395.521    12545.265    10737.184   -31.440857    23.848203    22.086513   -4562.1288 
34957000    132.54833   -6655.3242   -6314.3517   -6655.3242            0     10901.96    22.932397    21.235735    21.413959    10428.305    11515.545    10326.897    10863.439    647.69305    285.07101    630.25671   -4656.3148 
34958000    139.65916   -6654.3979   -6295.1332   -6654.3979            0    10543.868    23.088896    21.203951    21.284477    10420.366    10403.263    10379.257    10849.084   -890.20643    347.29876     242.5792   -4692.7779 
34959000    137.19985   -6639.3599   -6286.4216   -6639.3599            0    11216.378    23.047411    21.005558    21.518718    10417.722    11089.454    12752.972    9806.7079    233.51465    40.840173   -354.29266   -4582.2973 
34960000     138.0331   -6654.9806   -6299.8989   -6654.9806            0     11082.07    23.176478    21.122173    21.259074    10407.116    9858.9095    11707.779     11679.52   -676.43902     881.4673     358.4201   -4617.8944 
34961000    131.70905    -6635.508   -6296.6945    -6635.508            0    10450.293     23.06989    21.193161    21.431027    10478.141    10510.156    9927.5937     10913.13   -561.13462   -220.87523    29.325934   -4699.7544 
34962000    136.45526   -6666.8296   -6315.8068   -6666.8296            0    9661.7175     23.11717    21.183161    21.369615    10464.588    10094.675    9749.0763    9141.4015    733.31209   -271.49977    388.92574    -4841.281 
34963000    136.06625   -6652.0953   -6302.0732   -6652.0953            0    10540.225    23.037586    21.198911    21.345619    10424.596    10793.602    9991.4891    10835.584    1465.6652    -1165.995    425.64652   -4699.6212 
34964000    138.39098   -6653.7113    -6297.709   -6653.7113            0    11190.069    22.951853    21.301659    21.319404    10423.324    12229.281    10180.515    11160.409    662.56372   -81.499768    -486.7698   -4596.6676 
34965000    131.57982    -6652.521   -6314.0399    -6652.521            0    11458.297    23.031958    21.217462    21.266257    10392.388     12034.33    10962.159    11378.403    1.9498287   -661.08158   -1014.1206   -4577.3938 
34966000    138.40028   -6654.1441   -6298.1178   -6654.1441            0    11126.068    23.054321    21.082978    21.415225     10408.95    11084.743    11205.359    11088.101     8.615093    -678.4612    703.58624   -4609.1378 
34967000     135.4206   -6655.7368   -6307.3756   -6655.7368            0    10242.264    23.131553     21.10811    21.417815    10457.534    9771.9578    11896.055    9058.7801   -242.58202    391.85268   -78.807753   -4745.3031 
34968000    141.16086   -6655.0241   -6291.8964   -6655.0241            0    10530.077    23.054619    21.311263    21.273675    10452.247    10491.859    10351.997    10746.376   -169.62525     893.7907    45.686577    -4686.741 
34969000    139.04767   -6665.0135   -6307.3219   -6665.0135            0    10300.016    22.972062    21.195821    21.433141    10436.047    10570.592    11033.936    9295.5197    801.61623    741.51221   -133.86819   -4739.6693 
34970000    135.01834   -6666.9561   -6319.6297   -6666.9561            0    10933.091    22.936064    21.287213    21.338748    10418.535    12240.895    9421.7066    11136.672   -766.57059   -64.615572    628.26992    -4658.416 
34971000    133.79937   -6651.1108   -6306.9201   -6651.1108            0    11341.277    23.138599    21.152452    21.289709    10419.995    11487.501    11343.669    11192.663   -46.394663    72.646863   -838.17363   -4583.4436 
34972000    130.67341   -6651.8182   -6315.6688   -6651.8182            0    10331.862    23.156042    21.100059    21.345724    10429.389    9432.7896    11033.285     10529.51    296.56194    708.57915    1035.8875   -4744.1726 
34973000    137.22798   -6665.1773   -6312.1667   -6665.1773            0    10804.845     23.06228    21.151212    21.378931    10428.539    11047.945    11327.808    10038.781   -932.25459   -505.13532   -204.56684   -4668.8628 
34974000    140.91784   -6652.0882   -6289.5856   -6652.0882            0    9941.9231     23.20204    21.189183    21.287562    10465.653    9368.9328    10282.772    10174.065    337.29956    88.508156    138.32679   -4772.1418 
34975000    135.29704   -6653.4313   -6305.3879   -6653.4313            0    10973.638    22.911708    21.301699    21.350241    10420.162    10829.499    11518.119    10573.295   -258.66451    612.67203    168.53755   -4637.7529 
34976000    135.54749   -6644.5838   -6295.8961   -6644.5838            0    10811.685     23.04365    21.204932    21.290971    10403.599    10770.753    10023.668    11640.633    481.35118    867.89519    150.93304   -4655.4843 
34977000    141.33718   -6636.0632   -6272.4819   -6636.0632            0    10929.602    22.962266    21.234621    21.402836    10435.916    10582.361     11194.23    11012.215     761.9956   -509.09948   -179.77103   -4609.0279 
34978000     145.3473   -6656.0577   -6282.1607   -6656.0577            0    10252.234    23.038533    21.359503    21.242643    10453.326    9199.3181    10135.282    11422.103    358.30424   -366.16289   -673.50757   -4719.1968 
34979000    140.93402    -6645.136   -6282.5918    -6645.136            0    11930.774    23.040897    21.093156    21.343975    10373.284     12444.35    11609.082    11738.891    1475.7727    26.726957    522.47025   -4477.6601 
34980000    142.81182   -6648.9367    -6281.562   -6648.9367            0     10998.69    23.016679    21.227755    21.363476    10438.032    11846.739    10981.191     10168.14   -1305.3526   -389.07044    -1007.628   -4607.2534 
34981000    145.65671   -6655.8902   -6281.1972   -6655.8902            0    10484.391    23.176639    21.166919    21.278002     10438.52    9094.6914    12511.596    9846.8863    1002.2007    431.66065   -783.24808   -4685.1047 
34982000    139.27114    -6659.967   -6301.7004    -6659.967            0     9464.776     23.03971     21.21932    21.441305    10482.375    9505.1476    9610.1249    9279.0556   -364.64229    90.117636    778.87506   -4854.7758 
34983000    139.55844   -6664.9437   -6305.9381   -6664.9437            0    10516.293    23.259888     20.97476    21.341607    10411.942    9794.5738    11749.661    10004.643    896.00907   -375.53259   -970.54182   -4709.0655 
34984000    134.65158   -6647.0294   -6300.6464   -6647.0294            0    11326.334    23.074453    21.199136     21.30649     10422.25    11180.383    10824.484    11974.136   -949.48456   -544.07564   -296.16924   -4579.0682 
34985000    139.72953   -6656.3934   -6296.9476   -6656.3934            0    11827.236    22.972015    21.214378    21.331962    10395.855    12411.644    11753.739    11316.325    824.99229    862.72493   -533.85541   -4503.7864 
34986000    135.71392   -6652.1531   -6303.0373   -6652.1531            0    11073.885    22.972075    21.255075    21.334162    10416.899    11578.231    11524.444    10118.979    227.10262   -242.16075    117.83879    -4620.695 
34987000     138.4303   -6674.5434   -6318.4399   -6674.5434            0    10398.938    23.084062    21.133253    21.414198    10446.731    9981.0839    10836.984    10378.747    424.79933   -857.16104   -119.88306   -4734.1112 
34988000     139.3093   -6641.6933   -6283.3286   -6641.6933            0    10658.726     23.19089    21.027554    21.404792    10437.997    9804.0918    11477.382    10694.705    725.07808     107.0119     1390.861   -4660.7776 
34989000    138.36575   -6662.2375      -6306.3   -6662.2375            0    10761.579     23.13098    21.134539    21.355342    10439.828     10540.48    11486.905    10257.352   -408.34155    192.38492    72.334957   -4667.8047 
34990000    140.38316   -6647.6486   -6286.5215   -6647.6486            0     10755.75    23.187633     21.00408     21.36535    10405.671    10601.846    11593.178    10072.227    188.81724    414.07348    110.81829   -4654.2715 
34991000    132.42304   -6651.0053   -6310.3551   -6651.0053            0    10582.572    22.995575    21.211358    21.423762    10449.812    10196.071    11096.084    10455.559    196.15198    342.27972    248.62482   -4697.5734 
34992000    134.83759   -6645.3345    -6298.473   -6645.3345            0    11483.386    23.114602    21.145864    21.261501    10392.159    10092.463    12491.004    11866.691    1422.3679    716.91651    417.59692   -4558.0628 
34993000    137.03708   -6642.5228   -6290.0033   -6642.5228            0    10549.042    22.927163     21.28689    21.368073    10428.645    10990.545    10571.187    10085.395   -254.27269    245.87539   -314.95094   -4685.5879 
34994000    131.80944    -6646.267   -6307.1952    -6646.267            0    9532.8938    23.128407    21.203166    21.359905      10474.8    9661.6871    8969.3156    9967.6787    341.74223    1016.1619    186.12317   -4850.9102 
34995000    146.46489   -6651.8918   -6275.1198   -6651.8918            0      10286.5     23.01143    21.165637    21.430807    10437.908     10835.08     10347.23     9677.189   -122.89341    32.021864    147.92255   -4709.2451 
34996000    135.06389   -6660.6123   -6313.1687   -6660.6123            0    10069.428    23.117364     21.24816    21.280698     10453.11    10338.422    10194.114    9675.7476    316.86766   -801.84253   -945.21615   -4778.1057 
34997000    135.22303   -6647.9877   -6300.1347   -6647.9877            0    10414.007    23.039051    21.162847    21.416093    10441.885    10244.222    10325.117    10672.683    406.08571    336.97772    719.12149    -4714.246 
34998000    142.52652   -6652.8231   -6286.1823   -6652.8231            0    11714.778    22.863372    21.249891    21.388426    10391.442    12567.406    10426.184    12150.746     475.4695   -349.29467    1063.4871   -4510.8249 
34999000    139.42378   -6663.7249   -6305.0657   -6663.7249            0    10922.123    23.141232    21.161757    21.263743    10413.049    10534.001    11145.919    11086.449    243.02301   -532.49686   -1191.9967   -4646.3923 
35000000    138.50718   -6630.7281   -6274.4268   -6630.7281            0    10850.356    22.979422    21.135507    21.544999    10464.012    11516.974     11423.26    9610.8332   -560.31494   -205.68092    283.27267   -4618.5878 
Loop time of 551.977 on 64 procs for 250000 steps with 1296 atoms

Performance: 78.264 ns/day, 0.307 hours/ns, 452.917 timesteps/s
99.1% CPU use with 64 MPI tasks x 1 OpenMP threads

MPI task timing breakdown:
Section |  min time  |  avg time  |  max time  |%varavg| %total
---------------------------------------------------------------
Pair    | 30.761     | 42.023     | 53.068     | 109.2 |  7.61
Bond    | 0.28035    | 0.28826    | 0.2971     |   0.7 |  0.05
Kspace  | 280.6      | 291.75     | 302.91     |  41.7 | 52.86
Neigh   | 2.0366     | 2.0589     | 2.0788     |   0.8 |  0.37
Comm    | 93.085     | 95.219     | 98.197     |  16.8 | 17.25
Output  | 0.62418    | 0.62618    | 0.62779    |   0.1 |  0.11
Modify  | 107.28     | 109.78     | 111.38     |  11.8 | 19.89
Other   |            | 10.23      |            |       |  1.85

Nlocal:        20.2500 ave          27 max          14 min
Histogram: 5 7 5 11 4 5 12 9 3 3
Nghost:        2664.67 ave        2680 max        2649 min
Histogram: 8 6 5 3 4 9 9 8 8 4
Neighs:        6677.55 ave        8943 max        4568 min
Histogram: 4 8 6 10 4 6 11 9 3 3

Total # of neighbors = 427363
Ave neighs/atom = 329.75540
Ave special neighs/atom = 2.0000000
Neighbor list builds = 3525
Dangerous builds = 0

unfix		3
unfix		2
unfix		1

write_data	data.final.${pid}
write_data	data.final.0
System init for write_data ...
PPPM initialization ...
  extracting TIP4P info from pair style
  using 12-bit tables for long-range coulomb (../kspace.cpp:340)
  G vector (1/distance) = 0.37153736
  grid = 30 36 32
  stencil order = 5
  estimated absolute RMS force accuracy = 0.0036763526
  estimated relative force accuracy = 1.1071227e-05
  using double precision FFTW3
  3d grid and FFT values/proc = 4896 600
Last active /omp style is kspace_style pppm/tip4p/omp
WARNING: Not all mixed pair coeffs generated from mixing. Use write_data with 'pair ij' option to store all pair coeffs. (../write_data.cpp:312)

write_restart   restart.lmp.${pid}
write_restart   restart.lmp.0
System init for write_restart ...
PPPM initialization ...
  extracting TIP4P info from pair style
  using 12-bit tables for long-range coulomb (../kspace.cpp:340)
  G vector (1/distance) = 0.37153736
  grid = 30 36 32
  stencil order = 5
  estimated absolute RMS force accuracy = 0.0036763526
  estimated relative force accuracy = 1.1071227e-05
  using double precision FFTW3
  3d grid and FFT values/proc = 4896 600
Last active /omp style is kspace_style pppm/tip4p/omp
Total wall time: 0:09:12
