LAMMPS (30 Jul 2021)
Processor partition = 1
  using 2 OpenMP thread(s) per MPI task
using multi-threaded neighbor list subroutines
variable        pid world 0 1
variable        phase world IceIII Liquid

shell cd ${phase}
shell cd Liquid
include Restart.lmp
echo both
log log.lammps
#include		in.partitions
include		in.temp
variable        temperature equal 257.65
variable	tempDamp equal 100.0
include		in.pressure
variable        pressure equal 9500.0
variable        pressureDamp equal 1000.0 # This is 1 ps
include		in.seed
variable        seed equal 745823

units		real
atom_style	full
read_restart	restart.lmp.${pid}
read_restart	restart.lmp.1
Reading restart file ...
  restart file = 30 Jul 2021, LAMMPS = 30 Jul 2021
  restoring atom style full from restart
  orthogonal box = (0.66103335 1.8701412 0.80645914) to (17.546539 21.759037 21.406737)
  2 by 4 by 4 MPI processor grid
  restoring pair style lj/cut/tip4p/long/omp from restart
  restoring bond style harmonic/omp from restart
  restoring angle style harmonic/omp from restart
  864 atoms
  576 bonds
  288 angles
Finding 1-2 1-3 1-4 neighbors ...
  special bond factors lj:    0        0        0       
  special bond factors coul:  0        0        0       
     2 = max # of 1-2 neighbors
     1 = max # of 1-3 neighbors
     1 = max # of 1-4 neighbors
     2 = max # of special neighbors
  special bonds CPU = 0.002 seconds
  read_restart CPU = 0.014 seconds
include 	in.setup
variable	out_freq equal 1000
variable	out_freq2 equal 10000
variable	out_freq3 equal 1000

timestep	2.0

neigh_modify    delay 7 every 1

include		in.tip4p
# This is TIP4P/Ice

# create groups ###
group ox type 2
288 atoms in group ox
group hy type 1
576 atoms in group hy

# set charges - beside manually ###
set group ox charge -1.1794
Setting atom values ...
  288 settings made for charge
set group hy charge 0.5897
Setting atom values ...
  576 settings made for charge

# ### TIP3P Potential Parameters ###
pair_style lj/cut/tip4p/long/omp 2 1 1 1 0.1577 8.5
pair_coeff 1 1*2 0.000 0.000
pair_coeff 2 2 0.21084 3.1668
bond_style  harmonic
bond_coeff  1 450 0.9572
angle_style harmonic
angle_coeff 1 55 104.52
kspace_style pppm/tip4p/omp 1.0e-5
pair_modify tail yes

thermo          ${out_freq}
thermo          1000
thermo_style    custom step temp pe etotal epair emol press lx ly lz vol pxx pyy pzz pxy pxz pyz enthalpy

restart 	${out_freq3} restart.lmp.${pid} restart2.lmp.${pid}
restart 	1000 restart.lmp.${pid} restart2.lmp.${pid}
restart 	1000 restart.lmp.1 restart2.lmp.${pid}
restart 	1000 restart.lmp.1 restart2.lmp.1


include         in.dump
dump            myDump all atom ${out_freq2} dump.water.${pid}
dump            myDump all atom 10000 dump.water.${pid}
dump            myDump all atom 10000 dump.water.1
dump            myDump2 all dcd ${out_freq2} dump.dcd
dump            myDump2 all dcd 10000 dump.dcd
dump_modify     myDump append yes
dump_modify     myDump2 append yes


variable natoms 	equal  "count(all)"                        # NUMBER ATOMS
variable H      	equal  "enthalpy/v_natoms"                 # ENTHALPY-per-atom
variable Vol      	equal  "vol/v_natoms"                 # volume-per-atom
fix AVG all 		ave/time ${out_freq} 1 ${out_freq} v_Vol v_H file vol_enthalpy.dat
fix AVG all 		ave/time 1000 1 ${out_freq} v_Vol v_H file vol_enthalpy.dat
fix AVG all 		ave/time 1000 1 1000 v_Vol v_H file vol_enthalpy.dat


timer           timeout 23:50:00 every 1000
New timer settings: style=normal  mode=nosync  timeout=23:50:00

fix 		1 all shake 1e-6 200 0 b 1 a 1
Finding SHAKE clusters ...
       0 = # of size 2 clusters
       0 = # of size 3 clusters
       0 = # of size 4 clusters
     288 = # of frozen angles
  find clusters CPU = 0.000 seconds
fix             2 all nph iso ${pressure} ${pressure} ${pressureDamp}
fix             2 all nph iso 9500 ${pressure} ${pressureDamp}
fix             2 all nph iso 9500 9500 ${pressureDamp}
fix             2 all nph iso 9500 9500 1000
fix             3 all temp/csvr ${temperature} ${temperature} ${tempDamp} ${seed}
fix             3 all temp/csvr 257.65 ${temperature} ${tempDamp} ${seed}
fix             3 all temp/csvr 257.65 257.65 ${tempDamp} ${seed}
fix             3 all temp/csvr 257.65 257.65 100 ${seed}
fix             3 all temp/csvr 257.65 257.65 100 745823

run             250000
PPPM initialization ...
  extracting TIP4P info from pair style
  using 12-bit tables for long-range coulomb (../kspace.cpp:340)
  G vector (1/distance) = 0.37469703
  grid = 24 24 24
  stencil order = 5
  estimated absolute RMS force accuracy = 0.0031116766
  estimated relative force accuracy = 9.3707217e-06
  using double precision FFTW3
  3d grid and FFT values/proc = 3549 432
Last active /omp style is kspace_style pppm/tip4p/omp
Neighbor list info ...
  update every 1 steps, delay 7 steps, check yes
  max neighbors/atom: 2000, page size: 100000
  master list distance cutoff = 10.8154
  ghost atom cutoff = 10.8154
  binsize = 5.4077, bins = 4 4 4
  1 neighbor lists, perpetual/occasional/extra = 1 0 0
  (1) pair lj/cut/tip4p/long/omp, perpetual
      attributes: half, newton on, omp
      pair build: half/bin/newton/omp
      stencil: half/bin/3d
      bin: standard
Setting up Verlet run ...
  Unit style    : real
  Current step  : 30250000
  Time step     : 2
  Walltime left : 23:49:59.95
Per MPI rank memory allocation (min/avg/max) = 10.20 | 10.20 | 10.20 Mbytes
Step Temp PotEng TotEng E_pair E_mol Press Lx Ly Lz Volume Pxx Pyy Pzz Pxy Pxz Pyz Enthalpy 
30250000    254.00874   -3852.0998   -3416.7375   -3852.0998            0    11571.947    16.885506    19.888895    20.600278    6918.2747     10097.52    11665.573    12952.747    1534.2724    1150.7767   -301.97427   -2249.1751 
30251000    266.60627   -3911.6371   -3454.6831   -3911.6371            0    10056.524    16.933124    19.944984    20.658372    6976.9705    9086.5546    9882.6832    11200.334    1562.8101    482.55791   -96.222983   -2431.4121 
30252000    261.64638   -3898.8151   -3450.3621   -3898.8151            0    9153.0545     16.87611    19.877829    20.588815    6906.7329    9859.2504    9431.9704    8167.9426   -288.34876    320.42185    918.17289   -2528.3968 
30253000    253.11454   -3866.9175   -3433.0878   -3866.9175            0    11358.624    16.861381    19.860479    20.570845    6888.6636    11666.988    12471.525    9937.3591   -475.97574   -149.51483   -343.93827    -2291.954 
30254000    233.28574   -3883.4852   -3483.6414   -3883.4852            0     8757.748    16.911301    19.919278    20.631747     6950.029    8290.4306    7408.1373    10574.676    564.61351    3111.0852    2257.7237   -2595.9644 
30255000    275.25444   -3899.5806   -3427.8039   -3899.5806            0    8725.1059    16.927311    19.938136    20.651279    6969.7865    9616.4859    9634.7704    6924.0615    543.74558    1101.6588    221.21639   -2540.9214 
30256000    260.45367    -3867.057   -3420.6484    -3867.057            0    10875.639     16.85539    19.853424    20.563537    6881.3245    10547.109    13782.635    8297.1742   -661.57985    713.68839    928.57496   -2329.2012 
30257000    247.63417   -3856.8505    -3432.414   -3856.8505            0    11056.617    16.864188    19.863785    20.574269    6892.1046    9415.5898    12996.564    10757.699   -1484.3793    1064.7719    142.41831   -2321.0662 
30258000    268.62547   -3897.1555   -3436.7406   -3897.1555            0    9045.5581    16.976545    19.996128    20.711346    7030.7804    8627.3416    8927.7855    9581.5474   -158.05646   -1339.3721    464.66156   -2509.2387 
30259000    267.69525   -3876.3741   -3417.5536   -3876.3741            0    8040.8106    16.998201    20.021635    20.737765    7057.7204    6445.4658    7038.6427    10638.323    203.99977    682.77247   -1206.5455    -2589.916 
30260000    261.28733   -3854.5538   -3406.7162   -3854.5538            0    10328.001    16.838944    19.834052    20.543472    6861.2011     9584.082    10572.433    10827.487    865.64782    640.62265   -1429.9186   -2373.2595 
30261000    257.55764   -3857.9175   -3416.4725   -3857.9175            0    8900.2262    16.904551    19.911328    20.623513    6941.7107    7894.5161    8473.9404    10332.222   -881.44051    403.68853   -907.25914   -2515.4338 
30262000    262.05208   -3829.5671   -3380.4188   -3829.5671            0    8742.1366    16.880846    19.883407    20.594593    6912.5489     10571.76     8005.565    7649.0846   -1867.9406    1228.3863    303.51416   -2499.1027 
30263000    263.01527   -3838.3183   -3387.5191   -3838.3183            0    11211.048    16.837768    19.832667    20.542038     6859.764    12796.197    11477.814    9359.1333    34.156637    376.31455   -2076.5873   -2265.9364 
30264000    258.79676   -3881.3408    -3437.772   -3881.3408            0    8572.4231    16.845245    19.841474     20.55116    6868.9065    10354.033    8827.1888    6536.0473     439.1496   -89.473653    312.89062   -2579.0213 
30265000    248.88567   -3866.8346   -3440.2531   -3866.8346            0     8451.311    16.933277    19.945164    20.658558    6977.1592     9290.377    7432.2308    8631.3253   -366.75598   -92.542614    146.57641   -2580.2924 
30266000    262.69394   -3872.7717   -3422.5233   -3872.7717            0    9608.7827    16.883375    19.886386    20.597678    6915.6562    10189.997    8636.6615    9999.6895    526.06439    955.59213    1340.6383    -2453.403 
30267000    263.45386   -3853.7132   -3402.1623   -3853.7132            0    11346.644    16.890414    19.894676    20.606265    6924.3091    10685.439    12364.499    10989.993    386.47835    11.144411   -152.26555   -2256.3334 
30268000    245.47486   -3851.7569   -3431.0214   -3851.7569            0    10475.622    16.844483    19.840576     20.55023    6867.9738    10353.522    10781.015    10292.329    -152.6329    79.048338    285.73359   -2381.7585 
30269000    261.43565   -3878.0221   -3429.9304   -3878.0221            0    10220.395    16.862121    19.861352    20.571749    6889.5717    11999.321    8730.6995    9931.1638    446.36536   -511.63427   -1465.0652   -2403.0123 
30270000    251.01417   -3889.5825   -3459.3528   -3889.5825            0    10080.536    16.864323    19.863945    20.574434    6892.2703    10380.184    10453.027    9408.3979    197.24211   -272.51328   -488.36607   -2446.0906 
30271000    251.32339   -3899.4721   -3468.7124   -3899.4721            0    10820.319    16.864826    19.864537    20.575048    6892.8868    10753.456    9995.2677    11712.233     532.3943    -276.5172    580.52117   -2380.9924 
30272000    251.49269   -3853.3686   -3422.3188   -3853.3686            0     10850.41     16.89675     19.90214    20.613995    6932.1048    10567.651    11573.731    10409.848   -1029.2697    -506.6025    625.11369    -2325.368 
30273000    252.69411   -3896.5616   -3463.4525   -3896.5616            0    7896.3074    16.908623    19.916125    20.628481    6946.7288    6002.8378    9822.5534    7863.5308    1433.1634    48.783018    1043.8638   -2663.4704 
30274000    268.33757   -3837.1263   -3377.2049   -3837.1263            0    8785.6846     16.91001    19.917759    20.630173    6948.4384     9232.338    8497.3002    8627.4154    237.30779   -903.55012    -1291.562   -2486.9001 
30275000    253.20575   -3844.3605   -3410.3745   -3844.3605            0    8057.8014    16.901316    19.907518    20.619566    6937.7261    9182.0879    9064.1895    5927.1269   -511.00272    923.28307     216.9172   -2595.0893 
30276000    267.45189   -3850.4369   -3392.0335   -3850.4369            0    9977.4674    16.948417    19.962996    20.677029    6995.8901    11475.437    8165.0828    10291.882   -501.36448   -1699.0424    2073.8059   -2374.0537 
30277000    266.01003   -3846.1012   -3390.1691   -3846.1012            0    10940.622    16.874074     19.87543    20.586331    6904.2327     10618.73    9480.7588    12722.376    741.13259    1033.2061    1857.4435   -2288.5453 
30278000    256.31688   -3874.8056   -3435.4872   -3874.8056            0    9147.6174    16.971124    19.989743    20.704732    7024.0475    8902.0291    7645.4717    10895.352   -357.01325    1008.3903    -657.4353   -2498.4188 
30279000    251.07452   -3876.6419   -3446.3088   -3876.6419            0    9833.1938    16.921171    19.930904    20.643789    6962.2052    9406.8581    10869.406    9223.3177   -97.137883   -204.42588    1839.3138   -2447.8795 
30280000     269.5335   -3853.7995   -3391.8283   -3853.7995            0    9876.3434     16.94335    19.957028    20.670847    6989.6177    10826.338    7706.4426    11096.249   -844.64764     -637.216   -671.70046   -2385.0693 
30281000    269.42288   -3849.6033   -3387.8217   -3849.6033            0    7869.8221    16.929379    19.940572    20.653803    6972.3416    7662.2384    7674.7485    8272.4794   -1015.1298    322.38781    540.99756   -2587.5832 
30282000    257.92227   -3854.4812   -3412.4112   -3854.4812            0    10243.668    16.878771    19.880963    20.592061    6910.0002    12300.353    8397.6767    10032.974   -861.70041    94.444033    1695.3081   -2380.1029 
30283000    253.33685   -3846.0427    -3411.832   -3846.0427            0    12042.644    16.916014     19.92483    20.637498     6955.842    11511.392    11998.107    12618.434    102.48376    2075.3408    1375.1392   -2190.1802 
30284000     249.8399   -3883.6317   -3455.4146   -3883.6317            0    9563.8669    16.896983    19.902414     20.61428    6932.3914    8108.3512    8134.9575    12448.292   -40.243104   -655.12726   -89.108244   -2488.4903 
30285000    248.79304   -3901.8214   -3475.3986   -3901.8214            0      9477.19    16.888619    19.892562    20.604076    6922.1021    8265.4065    9367.9677    10798.196    244.63357    183.61113    1812.9042   -2518.6596 
30286000    259.26288   -3903.2021   -3458.8344   -3903.2021            0    8888.2152    16.864999    19.864741     20.57526    6893.0998    7455.7355    8979.4806     10229.43   -318.20406    406.34929    133.05679   -2565.3129 
30287000    269.75297   -3887.0212   -3424.6738   -3887.0212            0    10837.637     16.82265     19.81486    20.523594     6841.303    10755.355    10375.573    11381.982    948.78847   -339.78313    262.47417   -2343.3661 
30288000    268.77399   -3903.5846   -3442.9152   -3903.5846            0    9368.0232    16.901326     19.90753    20.619578    6937.7386    7683.7912    8862.8391    11557.439   -168.43958    1116.0022     819.5787   -2495.0605 
30289000    270.15419   -3914.2996   -3451.2646   -3914.2996            0    9239.2446    16.911876    19.919956    20.632449    6950.7386    8077.4608    8291.6633     11348.61    388.65351   -441.33392     185.1587    -2514.688 
30290000    252.11258    -3887.087   -3454.9747    -3887.087            0    9954.3941    16.948055     19.96257    20.676588    6995.4424    9218.7647    11614.593    9029.8246   -862.53289   -1349.0167   -217.31592    -2439.414 
30291000    258.01169    -3893.024   -3450.8008    -3893.024            0    8724.4221    16.974762    19.994028    20.709171    7028.5657    8887.9579    7643.8885    9641.4198     -186.925    269.41593    308.14177    -2556.509 
30292000    251.48569   -3865.5503   -3434.5124   -3865.5503            0     10313.05     16.91182     19.91989    20.632381    6950.6694    9670.3827     11349.57    9919.1976    -755.4838    -577.8922   -625.27415   -2389.0952 
30293000    255.83781    -3868.949   -3430.4518    -3868.949            0    10217.992    16.930341    19.941705    20.654976    6973.5301    10083.139    11036.144    9534.6923    -428.0183    83.089506   -973.69606   -2391.2638 
30294000    262.45985   -3890.9834   -3441.1362   -3890.9834            0    9350.7405    16.955691    19.971565    20.685904    7004.9024     10457.42      8676.89    8917.9119   -1001.6253    461.75407   -199.60542   -2485.8709 
30295000    247.96007   -3933.0204   -3508.0253   -3933.0204            0    8419.9155    16.951189    19.966261    20.680411    6999.3235    8197.2083    7277.0049    9785.5333    327.72526   -454.42783    75.109232   -2648.5376 
30296000     261.8299   -3898.0095    -3449.242   -3898.0095            0    10036.599    17.003328    20.027674     20.74402    7064.1084    11616.548     9053.916    9439.3343   -126.98979    260.55782   -1102.3793   -2415.2437 
30297000    254.83868   -3900.6098    -3463.825   -3900.6098            0    8017.9136    16.986146    20.007436    20.723058    7042.7154    9189.8394    7958.7334    6905.1678    14.312674     813.0433    218.15017   -2640.2989 
30298000    266.25656   -3851.4427   -3395.0881   -3851.4427            0    10525.612    16.902086    19.908425    20.620506    6938.6749    8837.1084    12490.458     10249.27    1895.8634    1095.4982    1633.4952    -2329.965 
30299000    256.98344   -3857.7489   -3417.2881   -3857.7489            0    9298.6846     16.92831    19.939313    20.652498    6971.0206    9149.4701    8948.3273    9798.2562   -1726.1824    11.389857   -57.087575   -2471.9356 
30300000    242.30189   -3846.4702   -3431.1731   -3846.4702            0    8702.0915    16.908756    19.916281    20.628643    6946.8926    8133.6403    8702.8565    9269.7777   -397.90325   -855.38969   -319.36251   -2549.5354 
30301000    264.11303   -3848.8077    -3396.127   -3848.8077            0    8816.2895    16.909269    19.916885    20.629268    6947.5242    9719.9554    8621.6904    8107.2226    2930.7533   -462.07387    166.51875   -2502.8384 
30302000    262.22948   -3884.6016   -3435.1493   -3884.6016            0    10212.209    16.886871    19.890503    20.601943    6919.9526    11167.411    9540.5639    9928.6523    970.03196    1586.7654    -547.3802    -2404.529 
30303000     238.5638   -3828.7292    -3419.839   -3828.7292            0     10334.29    16.924234    19.934512    20.647526    6965.9868    10365.772    8844.9703    11792.128    910.16483   -1324.3406   -1506.6607   -2369.9601 
30304000    260.48744   -3831.2466   -3384.7801   -3831.2466            0    9328.1467    16.937633    19.950294    20.663872    6982.5444    10459.009     8977.152    8548.2792    752.41163   -517.01002   -902.70589   -2434.8646 
30305000    256.35817   -3832.4384   -3393.0493   -3832.4384            0    11098.075    16.834995    19.829401    20.538655    6856.3755    11530.487    10089.419    11674.319   -129.25502   -1735.7185    2067.4689   -2283.3172 
30306000    275.24233   -3856.3553   -3384.5994   -3856.3553            0     11088.03    16.839383    19.834569    20.544008    6861.7378    11777.208    11164.498    10322.385   -228.08643    1206.3014    -755.2325   -2275.0046 
30307000    250.56804   -3863.5652   -3434.1002   -3863.5652            0    8296.4135    16.923109    19.933187    20.646154     6964.598       6831.2    9359.1264    8698.9142   -836.46072   -976.51046    1371.5943   -2591.4209 
30308000     245.8156   -3848.0563   -3426.7368   -3848.0563            0    11106.291    16.934323    19.946395    20.659834    6978.4519    11295.678    11121.718    10901.478    568.43728   -447.56547    49.177609   -2296.4099 
30309000    260.96769   -3894.6987    -3447.409   -3894.6987            0    8876.7025    16.953237    19.968674     20.68291    7001.8615     7986.141    8951.6852    9692.2813   -1200.9734    1162.6353   -25.902414   -2540.9648 
30310000    260.94834    -3923.129   -3475.8725    -3923.129            0    10483.264    16.886635    19.890226    20.601656    6919.6634    9384.9403    10938.978    11125.875   -698.78217   -1173.8931   -485.01311   -2417.9414 
30311000     262.6113    -3863.416   -3413.3092    -3863.416            0    10005.722    16.896253    19.901554    20.613389    6931.4926     9788.198      8017.84    12211.129   -794.86635   -1617.1524   -1256.5797   -2401.8436 
30312000    267.13782   -3880.1915   -3422.3264   -3880.1915            0     9666.491    16.951755    19.966928    20.681101    7000.0246    9335.8454    8883.8115    10779.816    805.63348   -210.54128   -453.86461    -2435.492 
30313000    267.13517   -3850.7201   -3392.8596   -3850.7201            0    9379.6838    16.905903    19.912921    20.625162    6943.3766    9694.4343    6816.9805    11627.637    -2129.694   -1009.2343    40.234375   -2443.0538 
30314000    268.90509   -3889.3227   -3428.4286   -3889.3227            0     9268.002    16.910898    19.918804    20.631256    6949.5328     10735.17    9658.3454    7410.4908   -1110.1945    203.16214   -2.3950844   -2489.0999 
30315000     256.7157   -3921.4755   -3481.4736   -3921.4755            0     7868.878    16.939533    19.952532    20.666191    6984.8951    7001.9764    8587.2864    8017.3712   -93.615725   -276.48179   -2261.6154   -2679.8904 
30316000    263.96964   -3870.3809   -3417.9459   -3870.3809            0    8940.6107    16.925793    19.936349    20.649428    6967.9123    9072.6798    10124.318    7624.8341    1866.5862    1092.5741    314.31068   -2509.4024 
30317000    239.54092   -3898.2537   -3487.6888   -3898.2537            0    8819.4767    16.926416    19.937082    20.650187     6968.681    9762.7091    9161.9639     7533.757    1562.1558    1995.8265    1156.7888    -2591.356 
30318000    258.28123   -3898.6149   -3455.9297   -3898.6149            0    9953.4617    16.868985    19.869436    20.580122    6897.9883    11230.031     10978.49    7651.8642    1764.1398     1271.964   -241.02429   -2454.6106 
30319000    236.20925   -3878.6601   -3473.8056   -3878.6601            0    9885.7316    16.947595    19.962028    20.676026    6994.8726    10244.409    11354.955    8057.8309    861.06951    1401.9192   -2366.1221    -2465.332 
30320000    258.14766   -3880.0749   -3437.6187   -3880.0749            0    8663.1252    16.939625    19.952641    20.666304    6985.0095    8103.2582     9726.629    8159.4885    261.26041    104.33284    1426.1932    -2555.113 
30321000    269.96141   -3908.2295   -3445.5249   -3908.2295            0    8657.8702    16.875015    19.876539    20.587479     6905.388    7892.9257    8842.4393    9238.2455     818.6659    251.92664   -514.57701   -2573.6081 
30322000    274.32762   -3848.9783   -3378.7902   -3848.9783            0    7915.6244    16.947667    19.962113    20.676114    6994.9618    7342.8885    8142.0858     8261.899     -948.502    -921.6463    445.92489   -2571.2829 
30323000    244.42667   -3859.5101   -3440.5712   -3859.5101            0     11055.22    16.849241     19.84618    20.556034    6873.7954    11675.293    11155.944    10334.422    -734.4007    742.33481   -614.90286   -2332.3158 
30324000    252.34582   -3862.6459   -3430.1337   -3862.6459            0    8416.2385    16.889955    19.894136    20.605705    6923.7445    7645.1121    8472.0536    9131.5499   -151.80607   -284.37676   -983.77132   -2580.2981 
30325000    256.42812   -3862.0745   -3422.5654   -3862.0745            0    10405.984    16.871191    19.872034    20.582813    6900.6944    10694.361    11543.253    8980.3378   -1395.4284    306.73253    422.40758   -2375.3119 
30326000    255.74625   -3885.3838   -3447.0435   -3885.3838            0     9704.275     16.87562    19.877252    20.588218    6906.1314    10735.148    9857.2351    8520.4423   -1194.6385   -571.76539    197.62305   -2469.6402 
30327000    247.39733   -3909.6463   -3485.6157   -3909.6463            0    10361.454    16.846521    19.842977    20.552716    6870.4674    9535.9234    11711.298     9837.141     853.9393   -38.341346   -577.71236   -2447.4113 
30328000    268.84345    -3884.015   -3423.2265    -3884.015            0    8506.4639    16.911263    19.919234    20.631702    6949.9828    8953.8113    8330.1423    8235.4381   -818.63781   -1525.3214    -283.0328   -2561.0252 
30329000    262.48213   -3911.6595   -3461.7741   -3911.6595            0    9173.4714    16.869182    19.869668    20.580362    6898.2294    7457.1326    9714.2697    10349.012   -700.70877    374.97553   -839.02785   -2538.8899 
30330000    274.00305   -3883.5557   -3413.9239   -3883.5557            0    9491.2933    16.896806    19.902206    20.614064     6932.174    8712.9166     10134.95    9626.0133     86.57393   -469.89068   -1393.1524    -2454.367 
30331000    262.18622    -3902.825   -3453.4468    -3902.825            0    9732.0133    16.888559    19.892491    20.604002    6922.0279    9616.1691    9573.0596    10006.811    194.50051   -187.57159   -199.62978   -2470.9935 
30332000    261.02677   -3916.4893   -3469.0984   -3916.4893            0    10765.921    16.847461    19.844084    20.553863    6871.6177    11003.226    10649.079    10645.457   -1200.9822    604.60311   -1603.4542   -2390.1863 
30333000    256.95845   -3878.7934   -3438.3754   -3878.7934            0    9937.6337    16.824187     19.81667    20.525469    6843.1786    9732.5458    10140.328    9940.0275    470.96398   -392.99029   -1381.1043   -2446.5922 
30334000    277.77172    -3872.319   -3396.2277    -3872.319            0    11387.169    16.850554    19.847726    20.557636    6875.4022    11221.452    12468.216    10471.838    524.92239   -234.37979    953.31707   -2254.4285 
30335000    259.57276   -3886.8983   -3441.9994   -3886.8983            0    10448.382    16.875378    19.876967    20.587922    6905.8342    10745.165    10161.538    10438.445    54.903505    632.78261    -1472.998   -2389.6958 
30336000    269.70999   -3920.7838   -3458.5101   -3920.7838            0      8103.71    16.903094    19.909612    20.621735    6939.9154    9097.1691    9208.5448    6005.4162   -803.92098    518.75083   -588.73626    -2638.321 
30337000    255.14879   -3905.8025   -3468.4862   -3905.8025            0    9358.2022    16.892578    19.897225    20.608905     6926.971    9241.5634    10001.432     8831.611   -1537.5211    160.91388   -1194.3698   -2523.0948 
30338000    267.89422   -3872.1488   -3412.9873   -3872.1488            0    9298.4274    16.937818    19.950512    20.664098    6982.7738    9549.2888    10103.983    8242.0105   -849.55563    969.23024    -807.3325   -2466.0671 
30339000    250.85249   -3914.2632   -3484.3106   -3914.2632            0    10249.828    16.921538    19.931337    20.644237    6962.6583    9666.6591    9435.0833    11647.742   -203.37207   -1714.1419    -1249.499     -2443.51 
30340000    268.64741   -3889.0773   -3428.6248   -3889.0773            0    10364.821     16.90639    19.913494    20.625756    6943.9759    7108.0521    14242.915    9743.4957    859.68555    251.71115   -1477.7357   -2378.9714 
30341000    245.62028   -3873.9003   -3452.9155   -3873.9003            0    10401.597    16.925627    19.936153    20.649225     6967.707    9507.5971     10350.98    11346.214    199.23585   -1872.2287   -1286.2885   -2395.9379 
30342000    260.79629   -3852.8494   -3405.8535   -3852.8494            0    9028.8326    16.910297    19.918096    20.630523    6948.7914    9480.4848    10142.225    7463.7884      -710.36   -1496.8574    408.73775   -2490.8626 
30343000    246.95889    -3877.895   -3454.6159    -3877.895            0    10232.245    16.885723    19.889152    20.600543    6918.5422    9805.7474    10831.724    10059.264    99.832791    170.45926   -75.732219    -2422.184 
30344000    258.36466   -3893.5353   -3450.7071   -3893.5353            0    9655.4326    16.866728    19.866778    20.577369    6895.2196    9588.1714    8267.4211    11110.705     177.4467   -1904.1804   -305.26042   -2479.7596 
30345000    260.62288   -3920.0689   -3473.3703   -3920.0689            0    7806.4804    16.898413    19.904099    20.616025    6934.1525    7761.7283    8246.2702    7411.4427    444.33407   -285.03334    1061.0586   -2683.9204 
30346000    265.82579   -3886.5909   -3430.9746   -3886.5909            0    9245.2736    16.861414    19.860519    20.570886    6888.7048    9575.5715    9295.4048    8864.8445   -1354.0618    251.95781   -228.08929    -2502.151 
30347000    260.21342   -3894.0201   -3448.0232   -3894.0201            0    8800.3415    16.884052    19.887183    20.598504    6916.4877    9324.7539    10814.625    6261.6458    237.19685   -328.05529   -1504.8107   -2560.3338 
30348000    258.69756   -3931.7098   -3488.3111   -3931.7098            0    6800.4944    16.938544    19.951368    20.664984    6983.6721    5646.4114    7388.4423    7366.6294   -372.01296    1853.5854   -624.52621   -2795.6828 
30349000    254.46934   -3875.0257    -3438.874   -3875.0257            0    10410.488    16.856426    19.854643      20.5648    6882.5929    9598.4919    9653.4688    11979.502    407.19736   -561.35185    16.792902   -2393.9155 
30350000    249.67524   -3912.9894   -3485.0545   -3912.9894            0    7256.5053    16.929065    19.940203     20.65342     6971.954    7384.4704    8106.9604    6278.0852    1011.3149   -344.43247   -767.39082   -2747.2218 
30351000    254.37506   -3927.9591   -3491.9689   -3927.9591            0    10206.935    16.907785    19.915137    20.627458    6945.6954    9077.5948     9465.706    12077.505    2214.8463   -1470.8265    865.78734   -2458.0488 
30352000     263.4464   -3890.6147   -3439.0766   -3890.6147            0    8565.7072    16.946273    19.960471    20.674413    6993.2354    7826.1798    8159.1793    9711.7625   -861.72049   -1860.9392    161.45935   -2565.4672 
30353000     256.5542   -3905.1978   -3465.4727   -3905.1978            0    8925.8257    16.949776    19.964598    20.678688     6997.574    9864.6949    7781.6057    9131.1766    2583.3338    241.56535    581.71428   -2554.5704 
30354000    259.66102   -3890.0778   -3445.0277   -3890.0778            0    9781.5346    16.892836    19.897529     20.60922    6927.2882    10545.901    8569.0549    10229.648    -81.94074    7.9365938    435.56762   -2456.8248 
30355000    259.80107    -3882.658   -3437.3679    -3882.658            0    9310.2234    16.940629    19.953823    20.667528    6986.2507    9995.9352    6975.3757    10959.359    -1545.723   -242.11999    780.30193   -2488.7744 
30356000    240.43475   -3902.6543   -3490.5574   -3902.6543            0     10611.79    16.875592    19.877219    20.588183    6906.0969    11627.621    11254.342    8953.4065    368.16736    1006.5439   -616.81144   -2421.7555 
30357000    266.52187   -3938.9929   -3482.1836   -3938.9929            0    9224.2532    16.826618    19.819534    20.528435    6846.1455    8831.9057    7095.7329    11745.121   -597.56925   -113.40159   -245.71679   -2561.1971 
30358000    263.22785   -3895.7928   -3444.6292   -3895.7928            0    9308.5791     16.87946    19.881774    20.592902    6910.8463    11137.679     8021.011    8767.0474    0.5015323    1292.7562   -709.00551   -2506.4399 
30359000    257.15858   -3889.1104   -3448.3494   -3889.1104            0    9641.3442    16.875504    19.877114    20.588075    6905.9881    7833.8718    11891.479    9198.6821    797.74898     472.4029    1184.6977   -2477.3045 
30360000    255.91142   -3900.1187   -3461.4953   -3900.1187            0    8571.9495    16.900647    19.906729    20.618749    6936.9018    9971.4715    9103.8488     6640.528    484.31793    107.29082   -28.858568   -2594.2918 
30361000    268.00406    -3894.031   -3434.6813    -3894.031            0    7617.7737     16.89897    19.904755    20.616704    6934.8376    10234.907    6273.7001    6344.7142     669.0545   -1019.8211     -433.304   -2664.2387 
30362000    265.33111    -3911.535   -3456.7666    -3911.535            0    8690.9064    16.948417    19.962997     20.67703    6995.8911    8403.3242    7997.8703    9671.5248     1081.406   -2180.9282    1605.1005   -2570.0517 
30363000    242.11495   -3906.4165   -3491.4398   -3906.4165            0    9779.5913    16.899175    19.904996    20.616954    6935.0896    11242.164    9944.6156     8151.994   -1189.4022    173.92566    1.8339219   -2502.3205 
30364000    260.88684   -3905.3495   -3458.1984   -3905.3495            0    8320.5878    16.964092    19.981459    20.696152    7015.3188    7651.6382    8304.8112    9005.3141    671.26531   -1026.5766    -545.3781   -2606.9088 
30365000    253.06139   -3907.6614   -3473.9228   -3907.6614            0    9422.6649    16.940957    19.954209    20.667927    6986.6563    9280.6812    8815.1166    10172.197   -1334.5795   -1007.5939    341.14862   -2513.8172 
30366000    249.46727   -3901.6077   -3474.0293   -3901.6077            0    12026.007    16.841667    19.837259    20.546794    6864.5299    13817.927    10463.011    11797.085     -419.031   -1515.7794   -386.82648   -2270.0802 
30367000    241.58667   -3901.0925   -3487.0212   -3901.0925            0    9108.3535     16.90762    19.914943    20.627257     6945.492    8711.5953    8465.1363    10148.329    1599.9783   -892.57004   -246.02338   -2564.4099 
30368000    254.62171   -3919.1154   -3482.7025   -3919.1154            0    9507.6179    16.880731    19.883272    20.594453    6912.4081    9994.0616    8591.9595    9936.8325    23.994402   -1971.5789   -928.21717   -2524.2359 
30369000    262.18078   -3893.8135   -3444.4447   -3893.8135            0    9833.7904    16.889472    19.893567    20.605116     6923.151    10153.854    8018.0432    11329.474   -256.08388    613.85426   -305.61978   -2451.5558 
30370000    250.98693   -3901.8555   -3471.6725   -3901.8555            0    8996.5154    16.878613    19.880776    20.591868    6909.8059    8448.1991    9313.8193     9227.528    -92.08352   -1378.5877    132.75684   -2565.0717 
30371000    252.74946   -3908.4226   -3475.2187   -3908.4226            0     10760.99    16.840741    19.836168    20.545665    6863.3979     10889.81    11917.098    9476.0624    -66.85423   -1612.9324   -947.41149   -2398.0907 
30372000     257.3727   -3850.2348   -3409.1068   -3850.2348            0    8819.2904    16.917928    19.927085    20.639833    6958.2037    10098.065    7878.4774    8481.3288   -328.29264   -127.26965   -225.11259   -2514.1406 
30373000    238.42696   -3892.6866    -3484.031   -3892.6866            0    9748.2127    16.882268    19.885082    20.596328     6914.296     8521.849    12696.529    8026.2602     137.7958    495.78816   -708.08803   -2501.0415 
30374000    255.05192    -3874.545   -3437.3947    -3874.545            0    7922.4374    16.906841    19.914025    20.626306    6944.5318    8290.4227    6901.2713    8575.6182     370.7465    221.76719   -2700.7798   -2635.0192 
30375000     263.0623   -3854.8001   -3403.9203   -3854.8001            0    7564.2469     16.94966    19.964461    20.678546    6997.4302    9395.6223    6950.7415    6346.3768   -1004.7006   -836.48961   -1371.3093   -2631.9863 
30376000    262.02453   -3897.8173   -3448.7163   -3897.8173            0    8876.4176    16.908665    19.916174    20.628532    6946.7806      8756.02    10771.434    7101.7989    933.20024   -937.96296    1173.0382   -2549.4316 
30377000    263.63401   -3881.1814   -3429.3217   -3881.1814            0    8299.0699    16.874225    19.875609    20.586516    6904.4189    7038.5799    8504.2184    9354.4113   -1378.9121    651.84228    549.07203   -2593.6563 
30378000    263.22177   -3900.8725   -3449.7194   -3900.8725            0    10828.233    16.871767    19.872713    20.583516    6901.4017     10162.98    10179.663    12142.056    1786.2173   -793.80929    495.14847   -2359.8592 
30379000    277.90238   -3899.4787   -3423.1635   -3899.4787            0    8252.2573    16.915231    19.923908    20.636542     6954.876    7922.3934    7897.9474     8936.431    11.492083    83.765713    2276.7081   -2586.1392 
30380000    244.60051   -3888.5731   -3469.3362   -3888.5731            0    8355.1533    16.903761    19.910398    20.622549    6940.7377    8505.8185    8656.1825    7903.4589    273.15289   -842.99144     121.5061    -2623.598 
30381000     252.3184   -3908.2778   -3475.8126   -3908.2778            0    8926.6923    16.959842    19.976454    20.690967    7010.0479    8378.5471    8207.8116    10193.718    2231.7861   -315.63246   -282.54537    -2563.198 
30382000    254.99799   -3844.3294   -3407.2716   -3844.3294            0    8548.1041    17.006075     20.03091    20.747371    7067.5329    7599.9458    10212.146    7832.2208   -752.22304    2154.4666   -837.87255   -2526.1952 
30383000     258.1521   -3885.1334   -3442.6695   -3885.1334            0    9399.3504    16.925911    19.936487    20.649571    6968.0574    8768.2524    9605.9111    9823.8876    2314.5642    2106.7503    620.56546    -2487.489 
30384000    252.17219     -3903.06   -3470.8455     -3903.06            0    9139.4117    16.817589    19.808898    20.517419    6835.1301    8976.0556     8886.487    9555.6923   -553.02526     98.84326    1323.5845   -2559.7982 
30385000     242.7658   -3888.7527   -3472.6604   -3888.7527            0       8073.1    16.902139    19.908487     20.62057    6938.7399    8604.5131    9077.8047    6536.9822   -1352.7851    833.56359    204.62706   -2655.7079 
30386000    263.18477   -3904.6098   -3453.5201   -3904.6098            0    8635.9339    16.926972    19.937738    20.650867    6969.3688    10446.963    8954.9681    6505.8706   -169.82662    127.25102    132.53663   -2575.7543 
30387000    251.88468   -3873.8828   -3442.1611   -3873.8828            0    11352.911    16.846316    19.842735    20.552466    6870.2167    10185.368      11879.8    11993.565   -789.08293    -448.1246   -954.22399   -2304.6554 
30388000    257.87119   -3851.6316   -3409.6492   -3851.6316            0    8960.1781    16.859069    19.857756    20.568025    6885.8308    7013.9822    10094.337    9772.2148   -481.36139   -117.70532    541.15248   -2509.8432 
30389000    243.65246    -3862.838    -3445.226    -3862.838            0    8816.1388    16.822168    19.814292    20.523006    6840.7151    7752.3018    8546.6558    10149.459   -477.65602    71.462288    1124.6129   -2565.6856 
30390000    257.03467    -3878.511   -3437.9623    -3878.511            0    9030.6914    16.855713    19.853803     20.56393    6881.7195    9873.3988    8616.6811    8601.9943    1234.4045    1072.8689    132.08588   -2531.6167 
30391000    264.64983   -3944.3222   -3490.7214   -3944.3222            0    5365.1833    16.961074    19.977905    20.692471    7011.5762     6025.172     5506.731    4563.6468   -39.478323     196.4962    317.24569   -2942.0958 
30392000    251.82431   -3900.1635   -3468.5452   -3900.1635            0     8865.412    16.921026    19.930734    20.643612    6962.0267    8979.6787    9336.8922     8279.665    1236.6755    842.37097   -980.25865   -2568.4043 
30393000    256.27465   -3892.4966   -3453.2506   -3892.4966            0    7901.9884     16.96514    19.982694    20.697431    7016.6194    5893.7451    8228.2633    9583.9567    994.90906    436.08769   -1381.3555   -2644.6386 
30394000    256.96185   -3888.3837   -3447.9598   -3888.3837            0    8241.4019    16.891484    19.895937    20.607571    6925.6252    8041.1832    6949.5368    9733.4857   -537.80547    104.86047    699.33322   -2615.5524 
30395000    270.45699   -3879.7678   -3416.2138   -3879.7678            0     7400.532    16.994811    20.017642    20.733629    7053.4984    7942.3851    9065.1421    5194.0689   -1793.3124   -2559.9978    441.12596   -2654.9356 
30396000    270.43935   -3928.4009   -3464.8771   -3928.4009            0    9451.4737    16.939024    19.951933     20.66557    6984.2658    10613.941    9875.2093    7865.2707    43.570594    91.772703    37.447421   -2502.1656 
30397000    239.06142   -3912.2221    -3502.479   -3912.2221            0    8659.1907    16.918191    19.927394    20.640154    6958.5279    8539.1638    8988.7013     8449.707    405.18244    951.23233   -321.06832   -2623.7184 
30398000    250.39724   -3953.5854   -3524.4131   -3953.5854            0    10510.553    16.868559    19.868935    20.579603    6897.4659    9163.6218    12065.328    10302.709   -1482.5983    149.84864   -2616.5281   -2467.1307 
30399000    268.64063   -3904.0135   -3443.5727   -3904.0135            0    9259.7776    16.953643    19.969152    20.683405    7002.3642    9642.5987    9679.6046    8457.1296   -177.26086    511.64069   -1341.2745   -2497.9429 
30400000    254.21357   -3931.1853   -3495.4719   -3931.1853            0    9649.1547    16.868875    19.869306    20.579988    6897.8531    10604.678    10117.646    8225.1402   -233.67567    710.13322   -550.38975   -2524.7852 
30401000    264.35404   -3895.0846   -3441.9908   -3895.0846            0    7342.5983    16.925278    19.935741    20.648799    6967.2755    6849.9378    7600.3357    7577.5214    -74.02859     462.9509    1085.0426   -2695.9052 
30402000    245.51364   -3903.6022   -3482.8002   -3903.6022            0    11942.074    16.859846    19.858671    20.568972    6886.7825    13156.938    11187.636     11481.65    1397.8215   -1189.0218    463.68591   -2283.3782 
30403000    255.52749   -3870.8454     -3432.88   -3870.8454            0    9324.7751    16.876123    19.877843     20.58883     6906.748    9359.8784    8068.0268     10546.42    1042.2579   -294.16757    203.81116   -2493.6156 
30404000     241.3563    -3882.409   -3468.7325    -3882.409            0    8050.0904    16.863586    19.863077    20.573536    6891.3674    8314.2147      9160.16    6675.8964    119.12142    1133.9606    949.64767   -2659.6701 
30405000    256.64459   -3892.4714   -3452.5913   -3892.4714            0    8746.4048    16.902689    19.909134    20.621241    6939.4166    9954.2089    7204.4554    9080.5502   -635.59205    1688.1538   -2077.1909   -2567.4178 
30406000    235.57241   -3908.7711    -3505.008   -3908.7711            0    8535.0241    16.928724    19.939801    20.653004    6971.5332     7840.079    7736.4852    10028.508   -296.81799    1574.6562   -181.34823   -2637.2294 
30407000    242.46403   -3864.0725   -3448.4975   -3864.0725            0    10396.536    16.891732     19.89623    20.607874    6925.9312    8368.7709    10625.991    12194.847   -659.32189     1684.059    135.97489   -2398.3683 
30408000    252.14391   -3885.5362   -3453.3702   -3885.5362            0    7928.3069    16.928994    19.940119    20.653333    6971.8662    8057.1902     8344.448    7383.2825     429.1688   -121.92912    575.30085   -2647.2396 
30409000    270.91394   -3904.2297   -3439.8924   -3904.2297            0    9102.2284    16.948472    19.963061    20.677096     6995.959     9130.591    9328.0012    8848.0931   -228.35262    1498.4657    3530.7878   -2511.2022 
30410000    279.57195   -3885.6737   -3406.4969   -3885.6737            0    11075.088    16.908684    19.916196    20.628555    6946.8037     12061.61    9363.5714    11800.084   -602.45458   -33.623632   -2322.3033   -2284.4575 
30411000    250.00829   -3866.3918   -3437.8861   -3866.3918            0    9486.8294    16.901371    19.907582    20.619633    6937.7935    8912.5184    10550.433    8997.5368   -483.35326    40.380408    416.61178    -2478.003 
30412000    248.16369   -3869.5654   -3444.2213   -3869.5654            0    9826.6493    16.877987    19.880039    20.591105    6909.0374    10323.448    11129.196    8027.3037   -108.16447    912.10696    400.11858   -2454.0761 
30413000    255.54767   -3884.8587   -3446.8588   -3884.8587            0    8523.9755    16.863007    19.862395    20.572829    6890.6573    7670.4266    8605.8584    9295.6415   -329.97588   -1415.7692    606.82053   -2590.2574 
30414000    250.61843   -3878.6557   -3449.1043   -3878.6557            0    11277.393    16.822753    19.814981     20.52372    6841.4288    11192.662    12076.807    10562.711    -384.8855    369.59882   -372.83955   -2323.8999 
30415000    261.20871   -3885.6334   -3437.9306   -3885.6334            0    10236.969    16.835708    19.830241    20.539525    6857.2468    10390.184    10211.326    10109.397   -103.02987     397.0727   -528.07696   -2414.1732 
30416000    257.93755   -3873.3929   -3431.2968   -3873.3929            0     8283.882    16.895035    19.900119    20.611903    6929.9939    9306.1805    8170.2085    7375.2568    -8.728448   -675.36258    1028.5001   -2594.0709 
30417000      253.517    -3905.975   -3471.4556    -3905.975            0    9497.6424    16.799848    19.788002    20.495776    6813.5222    10146.911    9740.7629    8605.2532   -235.13893    172.91186   -1378.7298   -2527.6916 
30418000    276.90395   -3892.4369    -3417.833   -3892.4369            0    10944.881    16.805485    19.794642    20.502653    6820.3832     11064.06    11304.887    10465.696   -1224.0516    835.67506   -446.88541   -2329.1643 
30419000    267.86648   -3887.6675   -3428.5536   -3887.6675            0    9980.3114    16.871735    19.872675    20.583477    6901.3622    10915.491    9950.2411    9075.2021   -44.674813    364.68819   -224.59161   -2424.0423 
30420000    274.88521   -3906.7236   -3435.5798   -3906.7236            0    10127.701    16.861292    19.860375    20.570737    6888.5549    9722.5212    11278.965    9381.6171    276.38001   -247.33546   -1952.9075   -2418.1255 
30421000    261.50836   -3912.1563   -3463.9399   -3912.1563            0    9790.4704    16.881309    19.883953    20.595158    6913.1181    11302.675     8200.896      9867.84   -584.40928    498.83989   -638.02747   -2476.8575 
30422000    259.11949   -3913.1225   -3469.0006   -3913.1225            0    9165.9575    16.919848    19.929345    20.642174    6960.5719    8734.4257    10081.424    8682.0223     68.08516   -122.56175   -410.99399   -2538.5386 
30423000     252.8209   -3889.3261   -3455.9997   -3889.3261            0     10634.06     16.85795    19.856438     20.56666    6884.4599    11736.599    10943.401    9222.1802    679.71951   -1162.1304   -346.47735   -2388.3105 
30424000    258.16759   -3919.5436   -3477.0532   -3919.5436            0    9266.3777    16.855614    19.853687     20.56381    6881.5986    10497.596    8944.1481    8357.3893    89.557201     -578.422    1145.6648   -2547.0698 
30425000    262.22382   -3871.9158   -3422.4732   -3871.9158            0    12439.312    16.816286    19.807364     20.51583     6833.542    13041.722    12875.612    11400.603    520.68227   -854.72145   -1569.3116   -2182.7688 
30426000    265.01232   -3905.4324   -3451.2104   -3905.4324            0    11726.473    16.804528    19.793514    20.501485    6819.2174    13740.398    11132.004    10307.017    460.89003    -936.2797    60.854267   -2284.9975 
30427000     267.7811   -3863.8017    -3404.834   -3863.8017            0    9608.6201    16.902206    19.908566    20.620651    6938.8218    10957.722    9553.5003    8314.6375   -1147.7904    495.98309   -1543.1079    -2432.484 
30428000    265.35361    -3887.713    -3432.906    -3887.713            0    9792.2663    16.906824    19.914006    20.626286    6944.5118     8155.631    11765.048    9456.1194    419.94823   -1214.9559   -1522.5701   -2441.1591 
30429000    257.79059   -3888.1048   -3446.2606   -3888.1048            0    8106.5587    16.911171    19.919125    20.631589     6949.869    8481.1424    6631.6328     9206.901     1299.809     1579.022   -659.83763   -2624.6065 
30430000    244.47984   -3850.3367   -3431.3066   -3850.3367            0    9151.6485    16.916748    19.925695    20.638393    6956.7474    7292.5307     10326.74    9835.6749   -1424.1572    -1440.986   -1202.5322   -2502.8076 
30431000    278.49533   -3889.4505    -3412.119   -3889.4505            0    10292.888    16.915897    19.924692    20.637355    6955.6976    9982.3282    11905.125    8991.2115   -412.99613    434.38536   -82.285143   -2367.9908 
30432000    265.81003   -3859.1282   -3403.5389   -3859.1282            0    9396.9029    16.948913    19.963581    20.677635    6996.5052     11112.92    8372.8304    8704.9581    1147.3028    29.036586   -444.64188   -2444.7085 
30433000    254.86736   -3883.4903   -3446.6564   -3883.4903            0    10063.865    16.881811    19.884544     20.59577    6913.7349    10497.699    11090.328    8603.5664   -974.24248    1808.8993   -746.17789   -2431.9196 
30434000    252.86362   -3908.0087   -3474.6091   -3908.0087            0    8239.5194    16.960957    19.977767    20.692328    7011.4307    8903.4765    8623.4251    7191.6567    394.57002    304.69044    2634.3352   -2632.0809 
30435000    270.22746   -3869.8086   -3406.6479   -3869.8086            0    11493.717    16.907685    19.915019    20.627336    6945.5718    13386.429    10299.884    10794.839    578.30738    191.85672   -1016.9043   -2242.4029 
30436000    259.76634    -3850.888   -3405.6574    -3850.888            0    8712.5886    16.923506    19.933655    20.646638    6965.0885    8906.5063    9231.3738    7999.8857    442.28384   -50.589201    829.48786   -2520.6442 
30437000    252.93154   -3897.9025   -3464.3865   -3897.9025            0    6346.5373    16.959413    19.975948    20.690444    7009.5157    7543.6866    8038.5723     3457.353    1383.0223    658.36043   -588.75752   -2815.6016 
30438000    273.86239   -3878.2969   -3408.9062   -3878.2969            0    10974.196    16.848482    19.845286    20.555108    6872.8664    11951.744    10805.368    10165.476    57.108663    1195.4671   -333.43047   -2308.9218 
30439000    240.52141   -3886.2091   -3473.9637   -3886.2091            0    9265.4701     16.90632    19.913412    20.625671    6943.8905    8498.0039        10300    8998.4067    1989.7124   -1435.7076    1421.6831    -2535.654 
30440000    262.61716   -3855.3938    -3405.277   -3855.3938            0    9914.1058    16.941372    19.954698    20.668434    6987.1702    10610.002     9772.881    9359.4343   -558.18184   -1823.8764    699.78901   -2395.0225 
30441000    250.28205   -3890.8472   -3461.8724   -3890.8472            0    8125.8982    16.974592    19.993827    20.708962    7028.3537    7006.2894    9602.3206    7769.0847     600.7746    215.85939    353.16011    -2628.957 
30442000    265.47292   -3892.9031   -3437.8916   -3892.9031            0    11020.569     16.88712    19.890796    20.602247    6920.2588    12242.063    8763.8457    12055.797    1430.4093    1572.2939    1116.9215   -2325.6421 
30443000    263.29377    -3875.595   -3424.3185    -3875.595            0     8518.142     16.93006    19.941374    20.654633     6973.183    8191.9494    9156.1014    8206.3753    415.26087    896.15999    2133.4396   -2558.0514 
30444000    258.52217   -3846.5825   -3403.4844   -3846.5825            0    9931.0665    16.837074    19.831849    20.541191    6858.9153    10652.157    9246.2654    9894.7773   -35.947287    211.49461    79.668001   -2410.0774 
30445000     257.7257   -3875.1326   -3433.3996   -3875.1326            0    9705.0228    16.844267    19.840322    20.549966    6867.7099     8883.122    10597.383    9634.5635   -1684.6731     324.1143    340.95614    -2461.359 
30446000    256.74822   -3868.0385   -3427.9808   -3868.0385            0    10820.994    16.844456    19.840544    20.550197    6867.9412    12596.667    8780.5809    11085.735    136.65979    1734.5189    820.27206   -2344.1297 
30447000    246.62223   -3853.0755   -3430.3734   -3853.0755            0    11172.657    16.794499    19.781702     20.48925     6807.016    11503.996    11644.574    10369.401   -252.03875    898.95408    172.75249   -2321.2264 
30448000     251.8063   -3862.1566   -3430.5693   -3862.1566            0    8513.8796    16.930103    19.941425    20.654686    6973.2361    10501.651    6579.8017    8460.1863   -478.35202   -177.37019   -1252.1444    -2564.729 
30449000     265.1815   -3857.1998   -3402.6878   -3857.1998            0    10626.435    16.880872    19.883438    20.594625     6912.581     9342.843     10951.19    11585.271    597.34919    -201.7151   -385.72817   -2331.4061 
30450000    251.88369   -3872.6564   -3440.9364   -3872.6564            0     8479.017    16.936525     19.94899    20.662521    6981.1753    9225.4635    7576.3163    8635.2712    456.10573    245.69242   -215.91195   -2577.6598 
30451000     241.8361   -3863.1932   -3448.6944   -3863.1932            0    10255.538    16.941663    19.955041    20.668789    6987.5303    7918.4354    11931.543    10916.635    444.65626     551.6602   -816.79354    -2403.594 
30452000    254.67047    -3875.093   -3438.5966    -3875.093            0    9253.6128     16.94013    19.953236    20.666919    6985.6338    9400.0712    10596.165    7764.6026    20.952881   -142.07808   -402.83421   -2495.8542 
30453000     250.0824   -3886.3497    -3457.717   -3886.3497            0    11363.682    16.817055     19.80827    20.516768    6834.4792    11781.942     12834.28    9474.8255    16.737857   -573.25304   -590.76493   -2325.0548 
30454000    257.55331   -3903.3107   -3461.8731   -3903.3107            0    10793.526    16.856887    19.855186    20.565363    6883.1575    8767.7529    11871.023    11741.801    370.40021   -1030.6769   -425.20182   -2378.3781 
30455000    252.03107   -3909.3932   -3477.4206   -3909.3932            0    8943.2986    16.867329    19.867486    20.578102    6895.9573    9639.7145    9101.8487    8088.3324   -31.970074   -331.87543    1312.0189   -2577.9889 
30456000     248.1148   -3911.3732    -3486.113   -3911.3732            0    9036.3434    16.891098    19.895483      20.6071     6925.151    8560.6931    9218.1807    9330.1564    1016.3493   -329.66796    106.14117   -2573.4764 
30457000    255.85674   -3899.2286   -3460.6989   -3899.2286            0    10059.528    16.877507    19.879474    20.590519    6908.4478    9036.4694    9967.2869    11174.828    1171.9858   -25.787974    882.73137   -2447.1751 
30458000    247.04344    -3845.838    -3422.414    -3845.838            0    11186.038    16.795907     19.78336    20.490967    6808.7279    9078.7126    13201.406    11277.996   -205.70765    -1290.888    5.2495644   -2311.6593 
30459000    261.80222   -3901.1468   -3452.4268   -3901.1468            0    8100.0745    16.924612    19.934957    20.647987    6966.4531    6886.8092    9444.1769    7969.2375   -161.29924   -346.88864   -6.9220423   -2629.4708 
30460000    267.59272    -3861.645   -3403.0002    -3861.645            0    10252.082    16.859258    19.857979    20.568256    6886.0626    10241.789    8952.3328    11562.123   -425.61233    83.597185    645.14866   -2373.4231 
30461000    263.61297   -3907.9276    -3456.104   -3907.9276            0    8851.5542    16.886482    19.890045    20.601468    6919.4747    9723.2016     8666.798    8164.6631    808.09865    2117.5578    13.966704   -2562.8632 
30462000    253.39054   -3834.6798   -3400.3771   -3834.6798            0    11956.235    16.792471    19.779313    20.486776    6804.5502    13380.831    11881.865    10606.008     615.3589     62.97053    166.75141   -2213.8716 
30463000    261.97781   -3871.0528   -3422.0318   -3871.0528            0    8512.4222    16.888973    19.892979    20.604507    6922.5373    8036.6886    9777.0863    7723.4917    -281.6718   -2298.9919   -120.15027   -2562.6338 
30464000    262.09754   -3895.0748   -3445.8486   -3895.0748            0    10037.049    16.854743    19.852661    20.562747    6880.5313    11424.848    10694.923    7991.3768    1781.2511   -653.55685    392.99108    -2438.676 
30465000    244.71615   -3912.3824   -3492.9473   -3912.3824            0    9220.0455    16.881294    19.883934    20.595139    6913.0992    8519.0301    10726.023    8415.0835    332.58957    -1372.473   -332.52403    -2563.378 
30466000    262.03989   -3897.4232   -3448.2958   -3897.4232            0    10099.907    16.904247    19.910971    20.623142    6941.3368    10914.116    9850.3205    9535.2847   -499.74039   -1770.5463    63.780505   -2425.8592 
30467000    244.93527   -3900.1656   -3480.3549   -3900.1656            0    9435.0253    16.915039    19.923682    20.636308     6954.639    10456.106    8580.9798    9267.9906    716.70395   -700.18399    1134.1381   -2523.3954 
30468000    258.89812   -3882.3328   -3438.5903   -3882.3328            0    10931.356    16.875555    19.877174    20.588137    6906.0505    9663.5836    11545.265    11585.218    437.47973    407.34409    1680.7152   -2337.6097 
30469000    257.12276   -3870.1028   -3429.4032   -3870.1028            0    8668.4333    16.920804    19.930471    20.643341    6961.7518    9006.8732    8580.4926    8417.9342   -1138.4713    1621.9001    -25.81396    -2549.297 
30470000    239.09459   -3856.5683   -3446.7684   -3856.5683            0    11638.105    16.812072      19.8024    20.510689    6828.4059    11256.589    11946.757    11710.969    648.49208    2781.9514   -690.29574   -2287.7842 
30471000    272.55479   -3924.4736    -3457.324   -3924.4736            0    9890.8378    16.853578    19.851289    20.561326    6879.1051    8991.1301    10931.489    9749.8947   -439.66387    1291.3753    27.503826   -2465.0287 
30472000    256.00117   -3897.8468   -3459.0695   -3897.8468            0    8203.8105     16.89209    19.896651     20.60831    6926.3711     7589.682     10653.87    6367.8796    394.40962    1901.7841   -344.69074   -2630.3697 
30473000      249.015    -3899.399   -3472.5958    -3899.399            0    9347.0055     16.88996    19.894142    20.605712    6923.7513    9169.3614    8622.9073    10248.748    1497.4058    122.44182   -146.48968   -2528.7744 
30474000     253.5725   -3870.7722   -3436.1576   -3870.7722            0    8883.0745    16.881392     19.88405    20.595259    6913.2197    10077.514    8153.4974    8418.2123    1400.9544    1161.6335    72.381572   -2540.5463 
30475000    262.11402   -3909.0885   -3459.8341   -3909.0885            0    11282.471    16.826004     19.81881    20.527685    6845.3954    12999.512    9874.2021    10973.698    109.65392    206.55068   -798.69094   -2333.4704 
30476000    251.00773   -3885.5499   -3455.3313   -3885.5499            0    10054.929     16.90748    19.914778    20.627086    6945.3191    8683.0493    12482.046     8999.693    1589.6794   -157.14995   -104.10543   -2436.8639 
30477000    264.54183   -3843.8603   -3390.4447   -3843.8603            0    11377.784    16.898246    19.903902    20.615821    6933.9462    10014.744    13104.607    11014.003   -720.07596    -1462.017   -43.739654    -2239.872 
30478000    255.23538   -3865.4853   -3428.0206   -3865.4853            0     10591.93     16.90135    19.907558    20.619608    6937.7685    10406.181    12190.404    9179.2056    151.10274    657.46483    583.98599   -2356.3265 
30479000      255.209   -3889.1945    -3451.775   -3889.1945            0    9537.9335    16.946267    19.960464    20.674406    6993.2284    9614.1146    9601.9828     9397.703    774.69361    1478.2549    116.52282   -2479.0101 
30480000     259.5501   -3866.0118   -3421.1518   -3866.0118            0    9573.8362    16.928821    19.939915    20.653122    6971.6527    11264.146    8347.5598    9109.8024    2114.0427    1401.8894   -6.3136133   -2447.7377 
30481000     255.9253   -3880.5896   -3441.9424   -3880.5896            0    11777.593    16.892092    19.896653    20.608313    6926.3733     14056.66    10849.707    10426.412   -800.49781    945.91993    48.014272     -2252.24 
30482000    259.75997   -3885.3419   -3440.1222   -3885.3419            0    11081.571    16.883595    19.886645    20.597947    6915.9266    12107.575    11149.464    9987.6748    157.76289    184.28728   -320.41685   -2322.4162 
30483000    250.22309   -3869.7161   -3440.8422   -3869.7161            0     11004.54    16.875597    19.877224    20.588189    6906.1028    11326.879     10688.85     10997.89   -1764.1889   -350.28344    740.62565   -2332.4823 
30484000    264.00567   -3874.8544   -3422.3578   -3874.8544            0    10465.636    16.942793    19.956372    20.670168    6988.9289    8887.4396    14038.485     8470.982    1171.8143    1588.7403    962.15488   -2355.6336 
30485000    263.94661   -3910.2466   -3457.8512   -3910.2466            0    9663.5576    16.887336    19.891051     20.60251    6920.5245    10384.933    10108.067    8497.6728   -473.81871   -1183.6157    263.91768   -2482.5204 
30486000    256.08866   -3904.4427   -3465.5155   -3904.4427            0    8015.3442    16.944429    19.958299    20.672164    6990.9531    6543.2499    10615.074    6887.7081   -183.58574     171.1693    169.67839    -2648.304 
30487000    264.22913   -3919.5219   -3466.6422   -3919.5219            0     7143.523    16.942645    19.956198    20.669987    6988.7454    7408.8626    6835.6473    7186.0591   -1128.1756    641.36736     739.3098    -2738.548 
30488000    255.28926   -3874.9965   -3437.4395   -3874.9965            0    10352.186    16.879287     19.88157     20.59269    6910.6334    11760.277    10167.921    9128.3599   -952.38817    833.77548   -555.58105   -2394.0996 
30489000    257.40714   -3927.4529   -3486.2658   -3927.4529            0    7603.3324    16.945697    19.959792    20.673711    6992.5227    7929.3867    7586.1829    7294.4275    629.60952    541.55586   -256.52375   -2710.8873 
30490000    254.93087   -3886.9862   -3450.0434   -3886.9862            0    9845.8735    16.870133    19.870788    20.581522     6899.396    10358.725    9099.1769    10079.719    1383.4213   -1090.1084    7.8387431   -2459.3456 
30491000    253.20772   -3916.7729   -3482.7835   -3916.7729            0    9252.6783    16.875374    19.876962    20.587917    6905.8294    8811.1069    10038.066    8908.8616    1576.2948    404.38104    1519.1219   -2550.9052 
30492000     257.9276   -3911.5192   -3469.4401   -3911.5192            0    8649.5652    16.972915    19.991852    20.706917    7026.2713    7987.0329    9056.7641    8904.8985   -1382.6325    944.45109    683.92067   -2583.1108 
30493000    271.54059   -3904.9456   -3439.5343   -3904.9456            0    8716.9696     16.98526    20.006393    20.721978    7041.6138    8192.6446    10280.998    7677.2664    2275.9876   -81.942929   -173.78125   -2544.3476 
30494000    269.98126    -3897.828   -3435.0894    -3897.828            0    10343.621     16.88193    19.884683    20.595915      6913.88    10929.451    10837.195    9264.2152   -1432.7465   -51.397332   -404.67101    -2392.123 
30495000    253.00576   -3878.3091   -3444.6659   -3878.3091            0    8633.2543    16.967874    19.985915    20.700767    7020.0128    10808.449    7275.0823    7816.2318    856.54259   -2681.0718   -723.14477   -2560.7961 
30496000     261.8885   -3902.5142   -3453.6462   -3902.5142            0    8324.8245       16.929    19.940125     20.65334    6971.8731    9384.8441    7813.2456    7776.3838   -149.94055   -1975.4739    12.640863   -2607.1979 
30497000    247.07715   -3873.4002   -3449.9184   -3873.4002            0    11238.852    16.884927    19.888214    20.599572    6917.5636    11597.025    10779.005    11340.527    467.06228   -737.79672   -1538.3899   -2316.0804 
30498000    274.56404   -3871.9905   -3401.3971   -3871.9905            0    8828.7392    16.901394     19.90761    20.619661    6937.8224    9107.3754    7215.5335    10163.309    97.507272    103.16547    -61.47553   -2508.0962 
30499000    255.77155   -3878.9982   -3440.6145   -3878.9982            0    10017.566    16.874182    19.875557    20.586463    6904.3654    8653.1506    11678.905    9720.6414   -2248.5747    -68.92657    2481.3956   -2431.9149 
30500000    278.29042   -3868.1863   -3391.2061   -3868.1863            0      9907.06    16.891823    19.896336    20.607985    6926.0426    11559.358    9293.7271    8868.0947    21.736054   -118.34121   -1168.4855   -2390.5016 
Loop time of 328.062 on 64 procs for 250000 steps with 864 atoms

Performance: 131.683 ns/day, 0.182 hours/ns, 762.052 timesteps/s
195.2% CPU use with 32 MPI tasks x 2 OpenMP threads

MPI task timing breakdown:
Section |  min time  |  avg time  |  max time  |%varavg| %total
---------------------------------------------------------------
Pair    | 26.364     | 32.674     | 38.484     |  53.9 |  9.96
Bond    | 0.7606     | 1.0423     | 1.3381     |  12.4 |  0.32
Kspace  | 143.51     | 148.97     | 156.83     |  28.0 | 45.41
Neigh   | 3.3054     | 3.7211     | 4.1263     |  10.7 |  1.13
Comm    | 65.263     | 68.515     | 72.83      |  18.5 | 20.88
Output  | 0.55288    | 0.55315    | 0.55486    |   0.0 |  0.17
Modify  | 62.928     | 64.718     | 66.195     |   8.2 | 19.73
Other   |            | 7.868      |            |       |  2.40

Nlocal:        27.0000 ave          33 max          23 min
Histogram: 3 2 4 4 5 5 6 1 1 1
Nghost:        2647.19 ave        2696 max        2614 min
Histogram: 3 3 5 4 8 4 2 2 0 1
Neighs:        8907.28 ave       12392 max        6691 min
Histogram: 3 4 5 3 9 3 4 0 0 1

Total # of neighbors = 285033
Ave neighs/atom = 329.89931
Ave special neighs/atom = 2.0000000
Neighbor list builds = 13568
Dangerous builds = 0

unfix		3
unfix		2
unfix		1

write_data	data.final.${pid}
write_data	data.final.1
System init for write_data ...
PPPM initialization ...
  extracting TIP4P info from pair style
  using 12-bit tables for long-range coulomb (../kspace.cpp:340)
  G vector (1/distance) = 0.37466624
  grid = 24 24 24
  stencil order = 5
  estimated absolute RMS force accuracy = 0.0031151411
  estimated relative force accuracy = 9.3811548e-06
  using double precision FFTW3
  3d grid and FFT values/proc = 3549 432
Last active /omp style is kspace_style pppm/tip4p/omp
WARNING: Not all mixed pair coeffs generated from mixing. Use write_data with 'pair ij' option to store all pair coeffs. (../write_data.cpp:312)

write_restart   restart.lmp.${pid}
write_restart   restart.lmp.1
System init for write_restart ...
PPPM initialization ...
  extracting TIP4P info from pair style
  using 12-bit tables for long-range coulomb (../kspace.cpp:340)
  G vector (1/distance) = 0.37466624
  grid = 24 24 24
  stencil order = 5
  estimated absolute RMS force accuracy = 0.0031151411
  estimated relative force accuracy = 9.3811548e-06
  using double precision FFTW3
  3d grid and FFT values/proc = 3549 432
Last active /omp style is kspace_style pppm/tip4p/omp
Total wall time: 0:05:28
