LAMMPS (30 Jul 2021)
  using 1 OpenMP thread(s) per MPI task
package omp 0
using multi-threaded neighbor list subroutines
echo both

include		in.partitions
variable        pid world 0
include		in.temp
variable        temperature equal 244.19
variable	tempDamp equal 100.0
include		in.pressure
variable        pressure equal 4500.0
variable        pressureDamp equal 1000.0 # This is 1 ps
include		in.seed
variable        seed world 745823

units		real
atom_style	full
read_restart    restart.lmp.${pid}
read_restart    restart.lmp.0
Reading restart file ...
  restart file = 30 Jul 2021, LAMMPS = 30 Jul 2021
  restoring atom style full from restart
  triclinic box = (-3.3148604 -0.16086055 -0.050237163) to (14.924859 22.740860 19.280235) with tilt (-0.70292470 -6.9678264 0.46396110)
  4 by 4 by 4 MPI processor grid
  restoring pair style lj/cut/tip4p/long/omp from restart
  restoring bond style harmonic/omp from restart
  restoring angle style harmonic/omp from restart
  1008 atoms
  672 bonds
  336 angles
Finding 1-2 1-3 1-4 neighbors ...
  special bond factors lj:    0        0        0       
  special bond factors coul:  0        0        0       
     2 = max # of 1-2 neighbors
     1 = max # of 1-3 neighbors
     1 = max # of 1-4 neighbors
     2 = max # of special neighbors
  special bonds CPU = 1.182 seconds
  read_restart CPU = 1.506 seconds

include 	in.setup
variable	out_freq equal 1000
variable	out_freq2 equal 10000
variable	out_freq3 equal 1000

timestep	2.0

neigh_modify    delay 7 every 1

include		in.tip4p
# This is TIP4P/Ice

# create groups ###
group ox type 2
336 atoms in group ox
group hy type 1
672 atoms in group hy

# set charges - beside manually ###
set group ox charge -1.1794
Setting atom values ...
  336 settings made for charge
set group hy charge 0.5897
Setting atom values ...
  672 settings made for charge

# ### TIP3P Potential Parameters ###
pair_style lj/cut/tip4p/long/omp 2 1 1 1 0.1577 8.5
pair_coeff 1 1*2 0.000 0.000
pair_coeff 2 2 0.21084 3.1668
bond_style  harmonic
bond_coeff  1 450 0.9572
angle_style harmonic
angle_coeff 1 55 104.52
kspace_style pppm/tip4p/omp 1.0e-5
pair_modify tail yes

thermo          ${out_freq}
thermo          1000
thermo_style    custom step temp pe etotal epair emol press lx ly lz vol pxx pyy pzz pxy pxz pyz enthalpy

restart 	${out_freq3} restart.lmp.${pid} restart2.lmp.${pid}
restart 	1000 restart.lmp.${pid} restart2.lmp.${pid}
restart 	1000 restart.lmp.0 restart2.lmp.${pid}
restart 	1000 restart.lmp.0 restart2.lmp.0


include         in.dump
dump            myDump all atom ${out_freq2} dump.water.${pid}
dump            myDump all atom 10000 dump.water.${pid}
dump            myDump all atom 10000 dump.water.0
dump            myDump2 all dcd ${out_freq2} dump.dcd
dump            myDump2 all dcd 10000 dump.dcd
dump_modify     myDump append yes
dump_modify     myDump2 append yes


variable natoms 	equal  "count(all)"                        # NUMBER ATOMS
variable H      	equal  "enthalpy/v_natoms"                 # ENTHALPY-per-atom
variable Vol      	equal  "vol/v_natoms"                 # volume-per-atom
fix AVG all 		ave/time ${out_freq} 1 ${out_freq} v_Vol v_H file vol_enthalpy.dat
fix AVG all 		ave/time 1000 1 ${out_freq} v_Vol v_H file vol_enthalpy.dat
fix AVG all 		ave/time 1000 1 1000 v_Vol v_H file vol_enthalpy.dat



fix 		1 all shake 1e-6 200 0 b 1 a 1
       0 = # of size 2 clusters
       0 = # of size 3 clusters
       0 = # of size 4 clusters
     336 = # of frozen angles
  find clusters CPU = 0.281 seconds
fix             2 all nph tri ${pressure} ${pressure} ${pressureDamp}
fix             2 all nph tri 4500 ${pressure} ${pressureDamp}
fix             2 all nph tri 4500 4500 ${pressureDamp}
fix             2 all nph tri 4500 4500 1000
fix             3 all temp/csvr ${temperature} ${temperature} ${tempDamp} ${seed}
fix             3 all temp/csvr 244.19 ${temperature} ${tempDamp} ${seed}
fix             3 all temp/csvr 244.19 244.19 ${tempDamp} ${seed}
fix             3 all temp/csvr 244.19 244.19 100 ${seed}
fix             3 all temp/csvr 244.19 244.19 100 745823


run             250000
PPPM initialization ...
  extracting TIP4P info from pair style
  using 12-bit tables for long-range coulomb (../kspace.cpp:340)
  G vector (1/distance) = 0.37999904
  grid = 24 27 36
  stencil order = 5
  estimated absolute RMS force accuracy = 0.0023317237
  estimated relative force accuracy = 7.0219167e-06
  using double precision FFTW3
  3d grid and FFT values/proc = 4050 480
Last active /omp style is kspace_style pppm/tip4p/omp
Neighbor list info ...
  update every 1 steps, delay 7 steps, check yes
  max neighbors/atom: 2000, page size: 100000
  master list distance cutoff = 10.8154
  ghost atom cutoff = 10.8154
  binsize = 5.4077, bins = 5 5 4
  1 neighbor lists, perpetual/occasional/extra = 1 0 0
  (1) pair lj/cut/tip4p/long/omp, perpetual
      attributes: half, newton on, omp
      pair build: half/bin/newton/tri/omp
      stencil: half/bin/3d/tri
      bin: standard
Per MPI rank memory allocation (min/avg/max) = 9.327 | 9.338 | 9.355 Mbytes
Step Temp PotEng TotEng E_pair E_mol Press Lx Ly Lz Volume Pxx Pyy Pzz Pxy Pxz Pyz Enthalpy 
10000000     247.2245   -4824.8607   -4330.3812   -4824.8607            0    4438.2535     18.23972     22.90172    19.330472    8074.7434    4862.2084    4198.0828    4254.4693    1052.0152   -526.25278   -1815.0237   -3807.7242 
10001000     236.9644   -4847.0911    -4373.133   -4847.0911            0    3735.5051    18.098031    22.938518    19.548174    8115.2686    4438.0589    3952.1191    2816.3373     250.4421    334.71933   -2909.2126   -3931.0253 
10002000    250.68224   -4865.5442   -4364.1487   -4865.5442            0    3272.8886    18.226073    23.038224    19.281447    8096.2092    4641.9908    2360.9719    2815.7029    1998.6466   -805.81953   -223.66824   -3977.7027 
10003000    242.72625   -4859.1375    -4373.655   -4859.1375            0    4273.8267    17.994718    23.028291    19.535967    8095.4627    4837.5842    4991.9896    2991.9065   -465.31791    859.74861    299.45201   -3869.0699 
10004000    236.78548    -4879.543   -4405.9428    -4879.543            0    5649.5634    18.043241    22.924087    19.354772    8005.6143    4845.3618    5974.7508    6128.5776   -274.82324    280.53691    1922.0563   -3746.3355 
10005000     236.6663   -4842.1385   -4368.7767   -4842.1385            0    2586.0635    18.197706    23.110743    19.413648    8164.6527    3636.2584    1385.1215    2736.8106   -1506.7903    99.451159    186.04362   -4060.8461 
10006000    257.77462   -4873.7511     -4358.17   -4873.7511            0    3761.1371    18.125635    22.966345    19.493485    8114.7402    2769.0849    4186.7244    4327.6019   -1348.9262    481.07656   -625.60703   -3913.0576 
10007000    246.93482   -4860.0725   -4366.1724   -4860.0725            0    5416.4019    18.190011    22.934778    19.201986    8010.7587    6054.1658    4352.4696    5842.5703   -199.23706   -685.67854    1447.9772   -3733.3812 
10008000    253.61969   -4867.0761   -4359.8054   -4867.0761            0    3251.4216    18.227589     22.88602    19.485407    8128.4733    2453.5803    2933.5285    4367.1559    282.01825   -1872.6444   -730.33113   -3974.3642 
10009000    257.98755   -4845.9634   -4329.9564   -4845.9634            0    5805.2464    18.141729    22.666535    19.468847    8005.7873    5729.3615    5844.0951    5842.2825   -267.85697   -485.97386    82.652184   -3652.1579 
10010000    247.93272   -4848.8496   -4352.9535   -4848.8496            0    2977.7065    18.297232    22.801985    19.506134    8138.2168    1610.5444    2810.0841    4512.4911   -985.47556   -339.20006   -1600.1799   -3999.5368 
10011000    241.87974   -4858.0696   -4374.2802   -4858.0696            0     5153.554    18.080373    22.823628    19.503122    8048.1525    6146.7627     4493.617    4820.2822    93.632389    634.10686    179.77554   -3769.3868 
10012000     256.4348   -4834.3777   -4321.4764   -4834.3777            0    4548.8569    18.177101    23.047314    19.265509    8070.9643    4548.2031    5177.8509    3920.5167   -1731.5412    938.46488   -59.455722   -3786.0453 
10013000    244.72455   -4809.0037   -4319.5244   -4809.0037            0    5940.9086    18.032361    22.992816    19.429041    8055.5673    6287.4307    5371.6741    6163.6212   -112.49121    259.71848   -1396.1893   -3621.5735 
10014000    242.06092   -4860.0067    -4375.855   -4860.0067            0     3933.366    18.074659    22.944339    19.497072    8085.6524    5298.7858    3814.3743    2686.9377    51.134389    343.28817    804.04028   -3912.0288 
10015000    251.53465    -4861.112   -4358.0116    -4861.112            0     5404.484    18.231247    22.958331     19.23622    8051.4932    4221.2146     4430.252    7561.9853    302.51723   -125.35869    694.08361   -3723.4022 
10016000    247.39129   -4853.6663   -4358.8532   -4853.6663            0    4953.7741    18.002454    22.866962    19.573719    8057.7454    6474.0547    4991.7458    3395.5219    1108.6367    472.02374    991.90279   -3776.7156 
10017000    250.34873   -4862.2061   -4361.4777   -4862.2061            0    5387.5199    18.280109    22.823431    19.299399    8051.9953    2356.8933    5718.8353    8086.8311   -744.61356     243.7044   -261.58616   -3728.8207 
10018000    244.82442   -4872.1815   -4382.5025   -4872.1815            0     3120.445    18.057831    22.988254    19.545379     8113.639    2695.4934    2054.1717    4611.6699    996.98763   -653.63227    604.70281    -4013.263 
10019000    240.89365    -4851.733    -4369.916    -4851.733            0     4267.773    18.130987    22.970475    19.341534    8055.3113    4477.4262    3916.7168    4409.1761    1162.9728     427.1491   -20.931656   -3868.5446 
10020000    245.24849   -4858.3679   -4367.8407   -4858.3679            0    5005.2772    18.190327      22.7883    19.419819    8050.0319    3757.6566    6914.7389    4343.4361    1197.3573    1284.8905    499.44671   -3780.2138 
10021000    241.14831   -4868.0846   -4385.7582   -4868.0846            0    3863.2682    18.127921    22.726469    19.559223    8058.0799    4975.1878    3507.3252    3107.2916    735.58554   -745.10211   -1270.6178   -3931.7514 
10022000    234.46973   -4834.1905   -4365.2221   -4834.1905            0    6062.2258    18.213565     22.62726    19.526921    8047.4952    8188.2789    5700.1432    4298.2552   -279.73556   -825.77962    1065.8316   -3653.7322 
10023000    238.79667   -4868.0738   -4390.4509   -4868.0738            0     5262.548    18.077706    22.860223    19.464845    8044.0491    4161.2478    5187.0103    6439.3858    169.56048   -46.630869    254.78545   -3773.0793 
10024000    253.20923   -4831.2389   -4324.7892   -4831.2389            0     3988.716    18.112551    23.253005    19.295285     8126.619    5407.7699    2035.1926    4523.1854    914.96599   -260.34558    853.56483    -3852.053 
10025000    258.50376   -4851.2079   -4334.1685   -4851.2079            0     5587.204    17.941853    23.174583     19.36296    8051.0212    7000.1697    4868.0312    4893.4112   -578.13419     1130.932    115.16235    -3678.142 
10026000    254.40408   -4860.2508   -4351.4112   -4860.2508            0    3670.8884    18.012784      23.2287    19.333056    8089.2127    4044.6917    2837.4194    4130.5542    609.97804   -320.81607   -724.71067   -3918.3459 
10027000     255.1189    -4837.741   -4327.4717    -4837.741            0    5460.5688    18.020301    23.215099    19.261411    8057.8774    3681.7544    6273.6215    6426.3306     601.7483    626.65376    308.41324   -3685.7682 
10028000    239.88779   -4861.6052      -4381.8   -4861.6052            0    5493.8892    18.068447    22.866935    19.500246    8056.9168    7280.9122    4131.8025    5068.9528   -142.23924   -675.87992    171.52035   -3736.2577 
10029000    245.45234   -4854.5534   -4363.6184   -4854.5534            0    5841.7225    18.163074    22.826756    19.368569    8030.2873    3825.9967    6375.4634    7323.7073    880.07532    641.04228    1400.1078   -3679.4738 
10030000    246.69536    -4832.731   -4339.3098    -4832.731            0    4986.2369    18.260073    22.574349    19.628159    8090.9092    4358.1489    5847.9961    4752.5656    307.13876    136.08794   -379.70328   -3750.9458 
10031000    249.21114   -4831.6513   -4333.1982   -4831.6513            0    2728.5802    18.375274    22.731949    19.567151    8173.3126    2480.3857    3121.1412    2584.2135    303.88835    719.23845    75.839935   -4007.9532 
10032000    243.06239   -4838.9397   -4352.7849   -4838.9397            0    3968.0649     18.19763    22.899647    19.443371     8102.428    2995.0404    4341.2504    4567.9038   -1398.4009    798.78112   -1345.1068   -3883.8961 
10033000    242.92359   -4837.2855   -4351.4083   -4837.2855            0    2188.7076    18.046321    23.265237    19.477082    8177.4906    2109.5018    2110.5902    2346.0308    1242.0429    183.52244    263.17294   -4090.3823 
10034000    229.69583   -4854.1697   -4394.7497   -4854.1697            0    6042.4967     17.98883    23.250467    19.201698    8031.0854    6113.8696    5568.5787    6445.0418    -895.4933   -563.23929    297.21987   -3687.0214 
10035000    243.69772   -4887.9531   -4400.5276   -4887.9531            0    4890.1904    17.955862    23.110501    19.414626     8056.467    7415.4936    3634.7154    3620.3623    628.72385   -110.93415   -38.059936   -3825.9532 
10036000    231.35987   -4856.1701   -4393.4218   -4856.1701            0     4139.353    18.206803    23.111248    19.246761    8098.6892    2962.3103    5167.0718    4288.6769    607.96285   -876.27664   -398.34834   -3904.5184 
10037000    259.27588   -4879.0812   -4360.4975   -4879.0812            0    4578.8876     18.12016    22.825728    19.461911      8049.56    4545.7064    6103.1315    3087.8248   -92.173332   -383.94094     203.4066   -3822.9609 
10038000    245.08748   -4862.6351   -4372.4298   -4862.6351            0    3623.8968    18.207503    22.859708    19.467913    8102.8997    3492.8428    3217.2085    4161.6391    100.71932    358.82523    397.67314    -3944.185 
10039000    245.20877   -4864.8407   -4374.3929   -4864.8407            0    3073.8677    18.140938    22.716577     19.75682    8141.7856    4483.9783     3151.951     1585.674    592.31936   -265.05458     1681.302   -4009.4031 
10040000    249.69948   -4855.2537   -4355.8239   -4855.2537            0    4581.6271    18.111524    22.973411    19.427064    8083.2803    5055.7794    4571.0918    4118.0101    657.79814    259.62695   -794.02388   -3815.7126 
10041000     240.9999   -4847.3217   -4365.2921   -4847.3217            0    5068.5688    18.106572    23.035813    19.325485    8060.6523    6694.2643    4017.0635    4494.3787   -980.71533   -927.81373    959.93577   -3769.4497 
10042000    252.54953   -4872.0092   -4366.8789   -4872.0092            0    5010.5588    18.022933    23.012697    19.400763    8046.5887    5448.3836    4764.9583    4818.3344    395.81572    -332.3279    677.14759   -3778.8836 
10043000    247.49584   -4838.2477   -4343.2254   -4838.2477            0    4453.2371    18.236235    23.043352     19.28835    8105.4272    4973.9207    3767.8015     4617.989    149.01675    994.36658    323.87215   -3816.8112 
10044000    235.56583   -4864.4017    -4393.241   -4864.4017            0    5469.4872    18.110218    22.728062    19.478609    8017.5936    5758.8938    6193.6219    4455.9458   -1459.3381    462.55809   -1254.1839   -3753.7027 
10045000    238.84047   -4871.5647   -4393.8542   -4871.5647            0      5460.42    18.336374    22.687309    19.347112    8048.4564    3800.8228    5790.7568    6789.6803   -87.004525   -65.070143    -707.6461   -3752.9184 
10046000    236.17831   -4862.6467   -4390.2609   -4862.6467            0    5231.6336    18.130074    22.769144    19.555476    8072.6231    3558.6849    6687.1611    5449.0548    16.430879    871.92003    880.86652   -3774.3359 
10047000    244.17295   -4850.1771    -4361.801   -4850.1771            0    4226.8029    18.276462    22.776839    19.413285    8081.3626    2442.0837    5255.3236    4983.0013    1015.3774   -1041.8988     1081.207   -3863.6369 
10048000    234.06188   -4848.5192   -4380.3666   -4848.5192            0    4083.1133    18.231277    22.651833    19.547426    8072.5366    3300.1317    5920.7104    3028.4978    58.377113   -255.13381   -1311.2673    -3899.663 
10049000     254.0771   -4852.1617   -4343.9761   -4852.1617            0    3326.4292     18.12394    23.095641      19.4106    8124.9671    2027.5241    3212.4926     4739.271    1398.2665    117.68547    866.81446   -3949.8132 
10050000    241.79005   -4882.0802   -4398.4702   -4882.0802            0    3776.8216    18.089542    23.093201    19.349954    8083.3549    4735.7763    2395.3272    4199.3613   -427.64936   -251.27493   -1829.9488   -3953.2304 
10051000    258.74173   -4821.6829   -4304.1675   -4821.6829            0    6757.4914    17.885658    23.102659    19.463873     8042.594    7104.1416    7151.3289    6017.0038    388.36496    376.59464   -776.57527   -3511.5612 
10052000    250.29681   -4885.4766   -4384.8521   -4885.4766            0    4828.6427    18.193468    22.987288    19.206106    8032.3487    2455.2988    4985.8424    7044.7869    344.42409   -1206.9577    846.38958   -3819.2076 
10053000    237.22739   -4878.4478   -4403.9637   -4878.4478            0    5984.3435    18.020474    22.972213    19.410054    8035.1829    7925.5796    5341.0156    4686.4353   -134.02874    862.34443   -511.81277    -3702.689 
10054000    249.95108   -4832.7086   -4332.7755   -4832.7086            0    4767.1068    18.232007    22.884085    19.398848    8093.6413    3336.5937    5211.3315     5753.395    472.40213    253.72336   -313.46299   -3770.0784 
10055000    253.91396   -4856.7152    -4348.856   -4856.7152            0    5360.6403    18.109936    22.885865    19.477392    8072.6299    6393.1242    5498.2214    4190.5753   -1232.4239    -768.3163    2460.2191   -3717.7423 
10056000    245.35224   -4808.6237   -4317.8889   -4808.6237            0    5404.8798    18.177236    22.979072    19.376141    8093.3367    5203.5561    4797.8379    6213.2456   -2069.1931   -6.2904016   -725.79635   -3679.9346 
10057000    232.83537   -4863.8625    -4398.163   -4863.8625            0    4237.1691    18.055788    23.051091    19.478795    8107.1835    4222.0345    4306.0437    4183.4289    1600.1599    299.31844    1813.2552   -3897.1815 
10058000    245.73944   -4863.2718   -4371.7626   -4863.2718            0    3475.4015    17.957295    23.152011    19.455299    8088.4917    4116.4177    2510.1701    3799.6167   -932.32525   -597.95027   -1162.4337    -3961.796 
10059000    248.51117   -4862.3109   -4365.2578   -4862.3109            0    4650.4315    17.892371    23.175159    19.420829    8053.0124    4876.9109    4472.9859    4601.3977    554.45677    464.63504    703.47163   -3819.0882 
10060000    244.94043   -4855.8427   -4365.9316   -4855.8427            0    4694.6782    18.032499    23.317401    19.225047     8083.575    5664.2814     3579.417    4840.3362    382.13774    400.92303   -536.35187   -3812.4729 
10061000     250.3233   -4841.1132   -4340.4357   -4841.1132            0     4009.316    17.992161    23.208335    19.336674    8074.3785    5872.8869    2261.8099    3893.2513    227.46525    721.56963   -289.06848   -3868.3125 
10062000    262.83816   -4842.9702   -4317.2614   -4842.9702            0    4455.2676    18.130815    22.872903     19.54766    8106.5003    3378.7914    5712.5584    4274.4529    199.26214   -659.49305    1696.1503   -3790.5374 
10063000    254.22561   -4844.9012   -4336.4185   -4844.9012            0    2861.8604    18.155945    22.887782    19.605728    8147.1468    3189.6883     3474.477    1921.4159    164.32816   -1723.1442    696.02118   -3996.3786 
10064000    250.70761   -4875.2857   -4373.8395   -4875.2857            0    5234.7334    18.066415    22.784529    19.532923    8040.4298    7621.0834    3973.4772    4109.6395    1582.9137   -1280.5992    1422.4811   -3760.0072 
10065000    235.78978   -4861.1124   -4389.5037   -4861.1124            0     5197.765     18.36928    22.594043    19.451228    8072.9655    4507.1631    6618.8431    4467.2889    832.81339    298.02743    -1615.762     -3777.54 
10066000    244.72574   -4826.5183   -4337.0366   -4826.5183            0    3435.7435    18.223852    22.797046    19.553302    8123.4189    1860.7066    4116.1591    4330.3647    1319.5411    60.273389    687.86173   -3929.9981 
10067000    253.37555   -4884.7306   -4377.9482   -4884.7306            0    3886.0614    18.184871    23.042068     19.29101    8083.2618    2010.7942    4518.5073    5128.8826   -310.11073   -54.719788    182.53973   -3919.8357 
10068000    249.89695   -4858.4474   -4358.6226   -4858.4474            0    5494.9298    18.025167     22.97949    19.344306    8012.5885    5283.9435    5082.3587    6118.4873    23.018136   -510.64136    116.90016   -3716.5105 
10069000    238.25378   -4881.6729   -4405.1358   -4881.6729            0    3621.6534     18.08516    22.891421    19.496865    8071.6049    3442.0145    3643.2942    3779.6515    542.14843    192.98215    -1167.807    -3978.809 
10070000    241.20875   -4838.2365   -4355.7892   -4838.2365            0     4018.167    18.256895    22.982328    19.323308    8107.7888    4551.9068    4632.6324    2869.9618    730.62268    182.61965   -89.988422   -3880.6659 
10071000    242.16663   -4837.7129   -4353.3498   -4837.7129            0    5977.4827    17.928195    22.981775    19.458014    8017.1248    7300.7344    5086.8976    5544.8161    -591.1179    330.17915    502.01382   -3654.4533 
10072000    252.67757   -4818.8173   -4313.4309   -4818.8173            0    2218.8071    18.250279    23.102305    19.486798    8216.0924    3554.2377    2304.3554    797.82829   -555.07016   -231.78357   -1128.6819   -4047.5662 
10073000    240.42141   -4879.9183   -4399.0457   -4879.9183            0    3489.2536    18.072595    22.839934    19.554358    8071.5866     4005.001    3357.0277     3105.732    3.4396326    733.02622   -617.98095   -3988.3054 
10074000    243.54675   -4893.7247   -4406.6011   -4893.7247            0    3108.5363    18.159903    23.097771    19.297166    8094.2596    2225.0451    1786.8888    5313.6749    1564.1339   -371.44176    781.00767   -4039.6493 
10075000    235.60846   -4853.6525   -4382.4064   -4853.6525            0    2315.4889    18.103604    23.238456    19.456757    8185.4538    2044.6143    1981.1607    2920.6916   -937.64785    162.14093    1656.3012   -4105.9916 
10076000    250.14639   -4854.0096   -4353.6859   -4854.0096            0    5550.0903    17.866726    23.181468    19.408759    8038.6604    6392.2993    5873.9601    4384.0116   -1654.4943    953.68818   -1167.3153   -3703.0177 
10077000    226.72615   -4864.8886   -4411.4083   -4864.8886            0    3679.7328    18.168227    23.058916    19.268239    8072.2284    3266.3113    3645.8466    4127.0405     634.3907    313.45559     -1117.67   -3978.2112 
10078000    257.40285   -4833.9398   -4319.1023   -4833.9398            0    5784.8196    17.893774    22.995214     19.44862    8002.5462    6964.5335    5494.4054    4895.5199   -512.10774   -859.86287    267.08573   -3643.9622 
10079000    230.15105   -4837.3359   -4377.0054   -4837.3359            0    4200.6981    18.141753    22.864626    19.508009    8092.0082    3054.1756    3836.4944    5711.4243    1651.8397    -607.0125     1357.731   -3881.2657 
10080000    255.32829   -4847.9769   -4337.2888   -4847.9769            0    5561.2647    18.147465    22.867169    19.436505    8065.7831    5654.4049    5499.4955    5529.8938   -989.39808    920.70978    -876.5234   -3683.1107 
10081000    237.64651   -4832.8707   -4357.5484   -4832.8707            0    3003.9603    18.302923    23.210939    19.217783     8164.253    1954.7457    2564.2108    4492.9245    1564.5323   -477.46834   -1433.7521    -3999.875 
10082000    237.86659   -4878.7061   -4402.9435   -4878.7061            0    4505.6555    17.977996    23.030164    19.494969     8071.623    5884.9232    4713.3064     2918.737   -929.29541    1079.7826    -247.6724   -3872.5543 
10083000    245.11253   -4839.4031   -4349.1477   -4839.4031            0    5426.5077    17.992062    23.128319    19.332342    8044.6933    7292.7421    4045.0959    4941.6851    2540.8161   -135.77269    989.15235   -3712.4903 
10084000    247.49775   -4823.8105   -4328.7844   -4823.8105            0    5559.9438    18.119105    22.936052    19.406668    8065.0373    5460.4066    5535.7388     5683.686   -1249.5128    1132.3502    29.150128   -3674.8222 
10085000    241.28402   -4864.1297   -4381.5319   -4864.1297            0    4836.9858    18.044268    22.877181     19.51986     8057.837     5965.509    4464.6673    4080.7811   -327.39407   -1076.2239   -797.03919   -3813.1121 
10086000    238.84151   -4857.8573   -4380.1447   -4857.8573            0    5555.2089    18.111634    22.763878    19.514954    8045.8403    5065.1668    5889.4802    5710.9796    19.007223    936.18077     1276.596   -3728.2947 
10087000    242.88508   -4865.8519   -4380.0518   -4865.8519            0    3077.3397    18.196003    22.923577    19.449551    8112.7477    2256.5984    3397.2457    3578.1751   -704.25999    88.590361   -254.15533   -4015.9529 
10088000    238.63689   -4846.7123   -4369.4091   -4846.7123            0     2238.714    18.212134    22.940042    19.482072     8139.359    2833.2455    2671.7544    1211.1421   -226.71149    272.57982   -1117.4284   -4103.6643 
10089000    233.12888   -4881.0336    -4414.747   -4881.0336            0    4526.1071    18.082222    22.882571     19.43403    8041.1744    4162.3656    4848.8346     4567.121    -303.4823    1621.5587     1086.588   -3883.9601 
10090000    239.79213   -4860.8927   -4381.2788   -4860.8927            0    3580.8685    18.205659    23.027601    19.348435    8111.4959    3900.8299    2575.1483    4266.6274   -127.09442   -130.16719   -1796.0211   -3957.6698 
10091000    231.17567    -4840.073   -4377.6931    -4840.073            0    4178.7599    18.110008    23.065906    19.370654     8091.582    4694.4699    3853.5329    3988.2769   -10.316234    -392.1444    1531.5067   -3884.5684 
10092000    241.18068   -4863.6694   -4381.2782   -4863.6694            0    3665.3767    18.028793    22.997757    19.502402    8086.1211    3473.8074    4520.9222    3001.4006    -592.0107   -916.52787   -648.74318   -3949.0284 
10093000    256.51564    -4862.279    -4349.216    -4862.279            0    3728.6259    18.151707    23.049139    19.384312    8110.0322    2628.2935    3696.5506    4861.0337   -21.460332    -409.2755    1508.2372   -3908.2072 
10094000    247.93908   -4865.9778    -4370.069   -4865.9778            0    2890.9229    18.309299    22.963733    19.369032    8143.7067    2623.2295    2295.7671    3753.7721     427.2475   -37.127758    5.4796149    -4026.721 
10095000    228.12311   -4868.4345   -4412.1601   -4868.4345            0     4166.002    18.055597    22.937052    19.485678     8069.841    3369.3618    4714.9175    4413.7267   -1631.1783    1025.9548    619.07104   -3921.8619 
10096000    244.57509    -4842.849   -4353.6686    -4842.849            0    5413.2268    18.155271    23.089014    19.180199    8040.0958    3119.0392    4758.7437    8361.8975   -542.51963    -311.3014   -37.926025   -3718.9323 
10097000    240.23656   -4849.0545   -4368.5517   -4849.0545            0    4071.3599    17.952092    22.984172    19.613062    8092.6236    3334.3738    5090.2936    3789.4123    -717.6131   -135.97154    1780.7196   -3888.0392 
10098000    235.47998   -4843.5029   -4372.5139   -4843.5029            0    3794.2328    18.394848    22.979267    19.238897    8132.2837    4799.6603    3399.4482    3183.5899   -1673.2369   -1134.7477   -935.46903    -3922.514 
10099000     230.5166   -4835.4517     -4374.39   -4835.4517            0    5425.1894    18.091206     22.78436    19.546633    8057.0546    4919.2635    6038.7158    5317.5888    670.88648    1012.7764    2115.2798   -3736.9092 
10100000    240.08505   -4847.2742   -4367.0744   -4847.2742            0    4849.9232    18.238894    22.982084    19.180879    8040.0066    6243.4315    3501.1719    4805.1663   -1533.3124    521.90791    584.56956   -3798.3955 
10101000     227.8705   -4869.3718   -4413.6027   -4869.3718            0    3814.2832    18.083483    22.961163    19.542113     8114.233    5097.0219     3227.983    3117.8446   -10.745043    645.95785    1389.3417   -3962.2289 
10102000    243.06733   -4848.5575   -4362.3928   -4848.5575            0     4518.586    18.064929    22.970627    19.457564    8074.1638    5569.0449    3694.1456    4292.5673   -722.11461   -596.51025   -1558.5527   -3830.3139 
10103000    246.55296   -4841.8046   -4348.6683   -4841.8046            0    6047.4807    18.178163     22.89606    19.298065    8032.0153    5119.2303    5798.6623    7224.5495    442.87158   -345.97361    1372.7243   -3640.2742 
10104000    248.70774   -4842.3515   -4344.9053   -4842.3515            0    5532.6038    17.857317    22.931519    19.616047     8032.681     5994.168    5555.0199    5048.6235    981.63922    838.71745   -1079.9093   -3696.7695 
10105000    246.93703   -4815.3973   -4321.4927   -4815.3973            0    4553.9041    18.371903    22.922092    19.228544    8097.5716    1555.6345    5850.1179      6255.96    21.254214    472.11472   -816.62002   -3783.7004 
10106000    239.27468   -4880.5965   -4402.0175   -4880.5965            0    3052.7953    18.070519    22.826559    19.660968    8109.9089    4867.6162    2398.0175    1892.7522   -709.31593   -277.17554    94.291004   -4040.9491 
10107000    249.17933   -4853.4299   -4355.0405   -4853.4299            0    5934.2418    18.147035    22.900539    19.374225    8051.4801    5416.7533    6100.4327    6285.5393   -305.53763   -36.477689     1444.458   -3658.2265 
10108000    245.64125   -4838.8837   -4347.5708   -4838.8837            0    3635.8195    17.964112    22.992309    19.618867    8103.3062    3746.9056    3395.1078    3765.4452   -1999.3149   -78.753553   -1454.5153   -3917.8955 
10109000    243.55122   -4874.9677   -4387.8351   -4874.9677            0     3889.905    18.140872    23.166882    19.293777    8108.5467    5052.0714    2437.2057    4180.4379   -465.30435   -548.46166    170.66324   -3927.8351 
10110000     259.9703   -4861.9864   -4342.0137   -4861.9864            0    5051.1008    18.049431    22.948333    19.386654    8030.0364    5721.4366    4323.2641    5108.6016    664.52741     833.4417    113.15384   -3750.4801 
10111000    246.76436   -4826.5319   -4332.9727   -4826.5319            0    4216.3155    18.134878    23.049038    19.401746    8109.7649    5542.7234    3506.2137    3600.0092    635.67072   -584.71148   -1325.1254   -3834.2981 
10112000    241.36881    -4846.926   -4364.1586    -4846.926            0    3212.9029    18.144751    23.019513    19.399211    8102.7273    3101.8589    3563.8622    2972.9878    1481.4793   -321.03037   -671.36258     -3984.49 
10113000    253.79251   -4885.5661   -4377.9497   -4885.5661            0    4757.3573    17.925345    22.971696    19.512351    8034.7094    5072.7135     4172.081    5027.2772    661.60112   -853.37449   -35.101786   -3820.4922 
10114000     249.3455   -4851.1639   -4352.4421   -4851.1639            0    4779.7457     18.19454     22.96786    19.355975    8088.6615    4103.8255    5284.3978    4951.0138   -351.47606   -267.42449    -1378.726   -3788.6003 
10115000     230.3078   -4822.8977   -4362.2536   -4822.8977            0      5850.21    17.993845    23.044051    19.428416    8056.0133    6426.7012    5526.9776    5596.9513    1097.7833    414.02846    2106.1769   -3674.9201 
10116000    240.50252   -4859.2841   -4378.2493   -4859.2841            0    3587.1978    18.138883     23.05189    19.372895    8100.4956    3116.8169    3122.7454    4522.0311   -711.08659    697.13515   -1385.4244    -3954.467 
10117000    226.16219   -4854.4319   -4402.0796   -4854.4319            0    4545.4929    18.047961    22.988806    19.441665    8066.3678    4929.5992    5086.5218    3620.3577    791.59771      377.785    1012.3688   -3867.3492 
10118000    237.01818   -4860.0604   -4385.9947   -4860.0604            0    5458.5824    17.940513    23.030321    19.521679    8065.8848    7221.9337    4695.7569    4458.0566   -66.355302    1232.5701   -2495.0186   -3743.8872 
10119000    238.17152   -4867.7204   -4391.3479   -4867.7204            0    4042.3322    17.996482    23.145708    19.367783    8067.4819    4332.4156    3447.5579     4347.023   -1500.4909    703.34553    1216.2393   -3915.7435 
10120000    246.73561   -4869.2271   -4375.7254   -4869.2271            0    3632.4459     18.05268    23.133171    19.302061    8060.8443    1781.2945    3869.9117    5246.1315   -726.72713   -1343.4575    341.28142   -3948.6981 
10121000    243.46055   -4872.4246   -4385.4734   -4872.4246            0    4254.2446    17.994001    22.846471    19.629093    8069.5086    5453.9743    4552.3336    2756.4259   -53.769977   -267.55964   -638.66409   -3884.8105 
10122000    258.52469   -4860.0361   -4342.9548   -4860.0361            0    3986.2168    18.176662    22.858631    19.485955      8096.29    3404.3937    5363.8557     3190.401    252.74479    634.53622    436.77788   -3872.2779 
10123000    247.26849   -4862.1278   -4367.5602   -4862.1278            0    6418.5645    18.146316    22.804434    19.416201    8034.7437    3945.1713     8452.357    6858.1653   -373.31566    714.87611   -548.30827   -3615.4425 
10124000    251.70982   -4857.3298   -4353.8791   -4857.3298            0    5627.7887    18.062803     22.85613    19.503839    8052.0774     8413.771     5173.865    3295.7302    586.08258    215.92599   -166.03014   -3693.0006 
10125000    241.34946    -4820.258   -4337.5292    -4820.258            0    6086.9554    18.223451    23.063668    19.179897    8061.3033    4248.2591    6794.6597    7217.9473   -260.82053    387.28544    1043.2581   -3621.9112 
10126000     247.0615   -4873.9726    -4379.819   -4873.9726            0    4132.6872    17.831755    23.191754    19.429934    8035.2428    4835.3222    3853.1133    3709.6261   -124.47883    367.62011   -122.76937   -3895.5269 
10127000    241.90516   -4858.0499   -4374.2097   -4858.0499            0    5827.3366      18.0236     23.19182    19.204299     8027.399    7053.3437    4944.5961    5484.0699   -278.23368    305.71275     216.8651   -3691.9954 
10128000     244.5875   -4874.7019   -4385.4966   -4874.7019            0    4588.8973    18.032671      23.0721    19.414392    8077.3885    4378.7891    4223.8834    5164.0195   -824.41834    -284.4037    -928.5744   -3844.9226 
10129000    250.63782   -4816.4643   -4315.1577   -4816.4643            0    5796.5681    18.095706     22.94786    19.469476    8084.8505    4347.6013    6380.6888    6661.4141   -406.06655    1007.7149   -108.96641   -3631.6887 
10130000    227.88519   -4860.1147   -4404.3162   -4860.1147            0    4759.6324    18.211314    22.879468    19.406578    8086.0452     6734.345    4507.2784    3037.2738    49.927798    1247.1637   -924.14007   -3843.0286 
10131000    240.04628   -4882.2291   -4402.1068   -4882.2291            0    4596.8357    18.319297    22.436316    19.590647    8052.0992    5598.9742    5074.7933    3116.7397   -409.31807    37.121499    1242.4939    -3862.293 
10132000    247.81006   -4833.0216   -4337.3709   -4833.0216            0    4704.2031    18.284776    22.857505    19.433003    8121.9139    4443.6124    3841.7779    5827.2191    463.68278   -956.63634   -232.63072   -3780.1591 
10133000    249.50761   -4839.0652   -4340.0192   -4839.0652            0    4893.4029     18.11527    22.846464    19.412011    8034.0467      3106.34     4887.661    6686.2078    1854.8606    -301.2097    1332.1123   -3766.6673 
10134000    237.85965   -4864.5253   -4388.7766   -4864.5253            0    5044.4136    18.060153    22.970163    19.399016    8047.5779    4724.2107    3411.5222     6997.508   -166.26527    158.71683   -1442.8033   -3796.7356 
10135000    236.20993   -4861.0316   -4388.5826   -4861.0316            0    5056.4821     18.06225    23.073614    19.336913    8058.8783    6146.1342    3931.1667    5092.1452    861.35124   -235.87124    613.68409   -3794.2918 
10136000     244.7098   -4838.5461   -4349.0963   -4838.5461            0    5509.4404    18.056973    22.891403    19.492154    8057.0708    7564.2254     5115.443    3848.6527    722.52873    884.81813   -416.95153   -3701.7144 
10137000    242.24203   -4867.7152   -4383.2012   -4867.7152            0    4343.2882    18.131913    22.881438    19.415323    8055.1113    4003.0653    4499.3147    4527.4846    -331.7635   -257.34506    404.70605   -3872.9711 
10138000    252.71462   -4875.4582   -4369.9978   -4875.4582            0    5834.8177    18.135924    22.875816    19.335477    8021.7878    6493.5908     5740.652    5270.2104   -318.28085     403.1438   -1635.2741   -3687.3851 
10139000    241.51187   -4875.2048   -4392.1513   -4875.2048            0    7346.7753     18.02677    22.779851    19.415089    7972.7504     7649.359    7810.6463    6580.3207    181.51863   -16.012862   -326.67334   -3537.9095 
10140000    246.47393   -4848.0496   -4355.0713   -4848.0496            0    2811.9667    18.222436    22.938538    19.485404    8144.8217    2297.0352    3215.1493    2923.7157   -138.36731    279.81726    517.44438    -4021.055 
10141000    240.66772   -4860.2882    -4378.923   -4860.2882            0    4402.9953    18.130917    22.623624    19.714765    8086.7416    4356.1364    6000.5929    2852.2565   -752.72879    704.14909   -236.87666   -3859.6477 
10142000    246.24095   -4862.6578   -4370.1455   -4862.6578            0    5908.0835    18.174993    22.734234     19.40503    8018.0527    4775.3701    7412.2708    5536.6095   -2417.5839    586.53893   -762.27737   -3679.2833 
10143000    233.64388    -4843.487   -4376.1703    -4843.487            0    3931.9946    18.158441    22.939565    19.411653    8085.8606    5527.9956    2771.5754    3496.4128   -593.50502   -124.26579    -1327.476   -3912.4939 
10144000    243.71723   -4852.7875   -4365.3229   -4852.7875            0    6036.0627    18.068673    22.677633    19.552843    8011.8703    7316.7532    6795.6946    3995.7403   -804.12552    195.31838    392.04964   -3660.0397 
10145000    237.61122   -4845.9352   -4370.6835   -4845.9352            0    3513.2107    18.291018    22.694518    19.521147     8103.342    4927.9518    3534.1811    2077.4992   -515.96511   -368.93637    562.53241    -3955.496 
10146000    244.78429   -4866.8797   -4377.2809   -4866.8797            0    4286.9785    18.127248    22.829003    19.541431    8086.7717    3456.0584    4789.2842    4615.5929    1185.8322   -723.35882    2039.7985   -3871.6864 
10147000    239.66152   -4875.3478   -4395.9951   -4875.3478            0     4813.103    18.053474    22.965769    19.373049     8032.297    3125.5041    5702.8648    5610.9402   -454.34152    -706.2366   -1333.9228   -3832.1747 
10148000    234.11014   -4844.9522    -4376.703   -4844.9522            0    4249.8669    18.020014    23.108294    19.428557    8090.2798    5392.5503    3566.2744     3790.776    347.56562     48.18917    244.10923   -3875.2678 
10149000    243.02187   -4832.4487   -4346.3749   -4832.4487            0    4414.3032    17.965434    23.047701    19.562925    8100.2629    6229.6743    3228.9989    3784.2365   -1245.3203   -156.08911   -2673.4453   -3824.8955 
10150000    243.15958    -4872.586   -4386.2368    -4872.586            0    6346.2125    18.100525    23.038635    19.252405    8028.4721    5101.0883     6356.274    7581.2751    10.019817    321.51938    3083.8298   -3643.1776 
10151000    259.95574   -4842.0674   -4322.1238   -4842.0674            0    3452.7094     18.15474    22.902461    19.495175    8105.8641    4815.3648    3481.4516    2061.3117   -646.20387    355.55868    -1540.988   -3913.9593 
10152000    242.85285   -4848.9387    -4363.203   -4848.9387            0    5237.6451    18.184266    22.737892    19.444289    8039.6665    5439.5837    5366.2077     4907.144      1258.31    222.66621    1589.5537   -3749.0876 
10153000    250.29649   -4854.8504   -4354.2265   -4854.8504            0    4493.7753    18.095471    22.737137    19.553312    8044.9993    5017.9928    4763.1737    3700.1593    162.49777   -448.66809   -152.07457   -3826.9805 
10154000    242.73427   -4854.7622   -4369.2637   -4854.7622            0    4441.7549    18.140151    22.553585    19.716647    8066.5817    3411.9687    6149.0487    3764.2473   -748.50731   -848.44287   -1082.5645   -3846.7231 
10155000    244.52101    -4876.492   -4387.4198    -4876.492            0    3020.6712    18.200613    22.889842    19.441487    8099.5014    2970.5476    3248.6977    2842.7682   -145.37445   -836.89887     189.8543   -4030.6093 
10156000    230.25052   -4859.4963   -4398.9668   -4859.4963            0    3513.3257    18.092592    23.081802    19.451989    8123.3382    3031.7119    2884.2518    4624.0133   -139.44611   -852.10827   -636.38818   -3982.7412 
10157000    249.44081   -4872.8192   -4373.9068   -4872.8192            0    5504.5374    18.116401    23.033274    19.270272    8041.0996    7110.2374    4313.8795    5089.4952    233.70084     527.4991   -1026.1742   -3728.3831 
10158000    245.15454   -4890.0632   -4399.7239   -4890.0632            0    4243.1827    18.078087    22.911548    19.435552    8050.1466    5181.2816    3080.0761    4468.1904   -1532.2339   -693.46286   -1745.9493   -3901.5609 
10159000    249.44917   -4890.4794   -4391.5502   -4890.4794            0    3910.8868    18.242159    22.740465    19.579149    8122.1197    3853.3305    3657.9195    4221.4104    67.741354     1436.413    2.5221685   -3928.2948 
10160000    254.51103    -4864.994   -4355.9405    -4864.994            0    5902.8991    18.270394    22.817171    19.332153     8059.163    5261.5625    6103.5225    6343.6123   -185.01424   -396.26928   -1669.4516   -3662.1455 
10161000     241.1949   -4872.4299   -4390.0103   -4872.4299            0     4989.566    18.097813    22.762233     19.61235    8079.2415    4461.0988     5280.462     5227.137   -1865.6143   -437.66639    347.69498   -3802.1025 
10162000    242.78189    -4856.751   -4371.1573    -4856.751            0    1319.9667    18.206046    22.946898    19.579985    8179.9748    687.60703    2062.7968    1209.4962   -631.07943    179.05104     105.1822   -4213.6898 
10163000    244.51161   -4856.6757   -4367.6222   -4856.6757            0    5694.2492    18.187748    22.737573    19.354739    8004.0603    6991.2907    5540.9203    4550.5366   -1702.6912   -246.76296    1077.6697   -3702.9268 
10164000    234.68112   -4849.2207   -4379.8294   -4849.2207            0    5090.7501    18.041043    22.948739    19.469417    8060.7122    5090.8327    5332.4828    4848.9348    10.110074    593.90839    2115.8668    -3781.375 
10165000    240.28995    -4857.467   -4376.8574    -4857.467            0     5896.112    18.047038    23.087988    19.309714    8045.7743    7463.6757    4804.9293    5419.7309    -867.8108   -670.56488    491.18785   -3685.0113 
10166000    261.20305   -4846.8395   -4324.4011   -4846.8395            0    5087.0199    17.912097    23.308738    19.283624    8051.0743    5711.8356    4438.2387    5110.9854    139.05628    34.565128   -533.75198   -3727.1002 
10167000     242.1638   -4867.9089   -4383.5514   -4867.9089            0    5831.0354     18.02923    23.033772    19.323759    8024.7935    6353.4931    4431.3358    6708.2772   -1297.6593     3.809486    -2041.726   -3701.1256 
10168000    240.63344   -4828.4033   -4347.1067   -4828.4033            0    4328.0488    18.092587    23.092166    19.380371    8097.0617    2578.9029    4335.2267    6070.0169    1995.8066     333.0304    3548.0929   -3836.0189 
10169000    249.47139   -4837.4782   -4338.5046   -4837.4782            0    3706.3553    18.195761    22.994854    19.359421    8100.1536    3292.8635    3380.2592    4445.9433   -1494.1584    845.59362   -633.94702   -3900.6638 
10170000    250.39181    -4865.769   -4364.9545    -4865.769            0    3934.1678    18.144621    22.821964    19.520586    8083.3942    3406.4076    3759.8986    4636.1971    636.57216   -1089.2424    1023.6989   -3901.1633 
10171000    243.00772   -4842.7254   -4356.6799   -4842.7254            0    3936.0083    18.194398      22.9278    19.433709    8106.9176    3131.9913    3655.2443    5020.7894   -248.91188    -284.0576    1155.0389   -3891.3214 
10172000    247.10879   -4878.0414   -4383.7933   -4878.0414            0    5746.4004    18.155683    22.829446    19.318871    8007.3667    6643.1424    5365.7071    5230.3517   -914.05818   -522.03053   -2042.5762   -3712.7331 
10173000    249.75616   -4891.6181   -4392.0749   -4891.6181            0    5300.9753     18.13791    22.929316    19.429016    8080.3309     4957.156    6030.3675    4915.4023    382.77156    461.81209    261.68362   -3767.3903 
10174000     251.0169   -4885.8773   -4383.8125   -4885.8773            0    5461.1618    18.046386    22.847994    19.461871    8024.5911     6322.893    5569.5306    4491.0616    751.28475    -565.6466    468.02122   -3744.6904 
10175000    244.76172    -4865.473   -4375.9194    -4865.473            0    5396.7311    18.095847    22.945975    19.331334    8026.8887     5690.171    5216.2929    5283.7294   -111.06289     242.6525   -1804.9221   -3744.1568 
10176000     241.8996   -4862.3004   -4378.4713   -4862.3004            0    5484.8822    18.046766    22.910912    19.423955    8031.1814    6201.5653     4841.711    5411.3702    776.52839   -451.21149   -1020.4133    -3736.046 
10177000    256.40927   -4865.7722   -4352.9219   -4865.7722            0    5048.3656    18.208188    22.735483     19.46454    8057.7737     5115.952    5042.5315    4986.6134    626.85731   -777.78724    1.2637882   -3759.6665 
10178000    250.38626   -4865.1243   -4364.3209   -4865.1243            0    4009.8557    18.225028    22.921704    19.421091    8113.1356    3102.6232    4105.0559    4821.8879    2089.6326    439.59615    2228.4261   -3889.8677 
10179000    248.55349    -4851.637   -4354.4994    -4851.637            0    4061.1429    18.109403    23.010045    19.418111    8091.4916    2837.3575    4669.2172     4676.854     153.0346    1503.0029   -226.85072   -3875.2597 
10180000    249.36327   -4856.4891   -4357.7318   -4856.4891            0     6203.274    18.167026    22.817891    19.377718    8032.7078    5515.3496    6792.4763    6301.9961    -1088.079   -1289.9596   -1658.4603   -3631.0257 
10181000    250.21999   -4888.6678   -4388.1969   -4888.6678            0    4265.5529    18.292831    22.555261    19.539529    8062.0012    4010.4556    4899.6496    3886.5534    265.87306   -987.79424     1793.892   -3886.6702 
10182000    245.11163   -4853.5717   -4363.3181   -4853.5717            0    5809.2958    18.295397    22.701541    19.400204    8057.5587    5658.9467    6049.5807    5719.3599   -1059.3675     -170.895   -690.17746   -3680.6606 
10183000    238.48503   -4873.6594   -4396.6599   -4873.6594            0    3967.5315    17.987143    22.889519    19.626302     8080.483     5199.403     4532.259    2170.9325   -180.59975    436.13803    341.14301   -3929.1039 
10184000    236.53994   -4871.5668   -4398.4577   -4871.5668            0    2395.2085    18.236005    23.174522    19.230692    8127.0961    1509.6635    1457.0852     4218.877    -158.5154   -1054.1538     357.9834   -4114.5647 
10185000    261.41722   -4855.7832   -4332.9165   -4855.7832            0    6873.7528    17.953752    22.944099    19.404923    7993.5217    8560.2084     6792.319    5268.7311    871.53635    249.79386    3092.7703   -3531.5928 
10186000    241.76086   -4834.1967   -4350.6451   -4834.1967            0    3606.6312    18.130249    23.203399    19.270098    8106.6106    3988.5585    3351.7582    3479.5767   -1398.5921    -334.0631   -1811.4784   -3924.2453 
10187000    238.36859   -4856.4487    -4379.682   -4856.4487            0    5478.8989    18.029055    22.931709     19.51134    8066.7107    7065.2138    5229.5547    4141.9281    701.25067   -735.73796    2375.4027   -3735.1186 
10188000    250.84456   -4853.8471    -4352.127   -4853.8471            0    5698.4466    18.197939    22.834546      19.3169     8026.977    4758.7534    4527.9908    7808.5957   -182.29627   -606.28425   -716.06695   -3685.0371 
10189000    240.52623   -4884.0889   -4403.0067   -4884.0889            0    5566.8566    18.233272    22.564627     19.48277    8015.7374    4248.0229    6943.7806    5508.7662    1185.1009   -74.892247    1029.8336   -3752.2339 
10190000    250.21109   -4824.3571    -4323.904   -4824.3571            0    5635.2028    18.361391     22.55931    19.458703    8060.1898     5421.885    5823.0002    5660.7233   -2068.3465    742.25486    474.83191   -3661.4882 
10191000    238.93283   -4833.7354   -4355.8402   -4833.7354            0    4937.7099    18.176478    22.805375    19.487483    8077.9787    6477.0983    4911.0878    3424.9437    797.81084   -431.71599    157.02504   -3774.1334 
10192000    252.31716   -4863.3149   -4358.6494   -4863.3149            0    4159.5367    18.164698    22.870011    19.489821    8096.5948    4407.6973    4005.0043    4065.9085   -1509.8006   -426.35109   -2200.4896   -3867.4891 
10193000     243.2955   -4863.8972   -4377.2761   -4863.8972            0    5185.7522    18.106967    23.111203     19.31091    8081.1096    5216.7125    4349.7265    5990.8175    1499.7887    344.92832    925.21592   -3766.1109 
10194000    248.55853   -4864.2297    -4367.082   -4864.2297            0    4311.7474    17.964706    23.318596    19.271378    8073.0063    4256.5438    4279.2917    4399.4067   -658.33628    550.84662    492.73193   -3859.4318 
10195000    231.42729   -4830.9203   -4368.0372   -4830.9203            0    5745.3046    18.021224    22.973653    19.408976     8035.575    6621.8554    6277.9814     4336.077   -1491.8001   -64.076053     289.8462   -3694.7414 
10196000      237.903   -4856.2206   -4380.3852   -4856.2206            0    4756.6405    18.147933    22.835756    19.570393     8110.397    3986.7707    4429.3127    5853.8379    343.72752    216.68747   -2.3682005   -3817.7611 
10197000     230.1229    -4827.839   -4367.5648    -4827.839            0    5881.1401     18.36321    22.351368    19.580046    8036.4903    4402.4416    8014.5625    5226.4163    1874.9096    244.00626    1195.5028   -3678.2718 
10198000    233.75731   -4840.7135     -4373.17   -4840.7135            0    4656.2622    18.232129    22.786489    19.483274    8094.2523     3713.211    5243.7672    5011.8084    453.16723   -365.77716    482.30967   -3823.5152 
10199000    247.81937    -4848.349   -4352.6796    -4848.349            0    5639.5037    18.133973    22.883522    19.395157    8048.3924     5926.399    5381.5742     5610.538   -14.724359    127.62468   -1226.3504   -3690.7285 
10200000    235.34056   -4842.6994   -4371.9892   -4842.6994            0    3958.7829    18.187984    22.956824    19.336965    8073.9242    4369.0855    4296.2048    3211.0583   -292.24418   -10.245936   -603.10044   -3905.8429 
10201000    240.79369   -4853.1516   -4371.5345   -4853.1516            0    4183.7366    18.094132    22.985767    19.361054    8052.4076    2277.8664    4783.7484    5489.5951    73.498474   -1157.0359   -530.07783   -3880.2128 
10202000    247.36964   -4860.7886   -4366.0188   -4860.7886            0    5742.8941    18.022129    22.982445    19.440727    8052.2056    7219.3433    5227.4265    4781.9126    52.596058     -75.8764   -1044.0938   -3691.6126 
10203000    233.30145    -4866.131   -4399.4993    -4866.131            0    5250.6486    18.091821     22.87925    19.495132    8069.5674    5024.5838    5686.6502    5040.7117   -34.553174      401.155    1061.1612   -3781.5696 
10204000    239.96234   -4881.4947   -4401.5403   -4881.4947            0    3912.1243    18.235046    22.695202    19.508859    8073.7033    3521.5282    5079.1788    3135.6659    1107.0316    1150.6069    1020.2123   -3940.9007 
10205000    232.88117   -4863.3866   -4397.5955   -4863.3866            0     4857.419    18.282593    22.677861     19.42485    8053.7389    3913.9785    5193.7186    5464.5599     1110.937    430.78767    677.17746   -3827.0648 
10206000    246.98221   -4885.6122   -4391.6173   -4885.6122            0    4716.3857    18.129716    22.799617    19.504242    8062.0901    5261.4902    5204.5106    3683.1563    231.51476    388.09411   -1032.4172   -3837.0773 
10207000    238.12062   -4844.9338   -4368.6631   -4844.9338            0    2646.0411    18.173255    22.909686    19.492582    8115.6113    2723.6207     2785.691    2428.8117    454.07637   -627.95078   -2178.2062   -4055.4833 
10208000    254.49419   -4859.6956   -4350.6758   -4859.6956            0    4335.9127    17.955871    23.147632    19.421592    8072.3107    5661.1057    4390.7301    2955.9025   -794.40765   -482.58663   -586.57202   -3840.2245 
10209000    243.67609   -4854.9441   -4367.5618   -4854.9441            0    3121.6743    18.057193    23.104573    19.429197    8105.9337    2973.5034    4359.3068    2032.2129   -114.51933   -256.11992     234.8284   -3998.5277 
10210000    245.70203   -4837.9673   -4346.5329   -4837.9673            0    5400.2057    17.876944    23.225967    19.416617    8061.9599    6598.7106     5706.309    3895.5976    567.03475   -520.38221    1311.6774   -3711.6015 
10211000     249.7386   -4868.1018   -4368.5937   -4868.1018            0    4080.5473    18.108822     23.22504    19.233522    8089.1982    4326.6761    3732.7755    4182.1902   -287.78414   -509.11407    757.02612   -3887.2007 
10212000    239.45801   -4844.6151   -4365.6695   -4844.6151            0    5997.9812    18.027387    22.911323    19.493182    8051.2943    6123.9328    5402.0957    6467.9151    131.08882   -655.92325    757.66076   -3661.3873 
10213000    246.14764    -4865.575   -4373.2494    -4865.575            0    4411.8631    18.278542    22.771134     19.42145    8083.6566    4419.3525    4961.5068    3854.7302   -689.99017     1297.888    1461.0902   -3853.1267 
10214000    241.47081     -4852.93   -4369.9586     -4852.93            0    4981.7545    18.077964    22.610835    19.676442    8042.9003    4450.7606    4983.9269    5510.5761   -1027.7762   -188.16716    514.76397   -3785.6115 
10215000     245.8831   -4903.9425    -4412.146   -4903.9425            0    4185.0836    18.049053    22.698783    19.692677    8067.9234    6117.7767    3916.1835    2521.2906   -453.57358    -167.0751    518.74789    -3919.719 
10216000     239.3697   -4853.4496   -4374.6806   -4853.4496            0    5359.7773    18.170317    22.746756    19.455039    8041.0742    4088.3995    6115.2303    5875.7022   -353.20204   -439.08356    654.92008   -3746.1352 
10217000     233.3509   -4864.4842   -4397.7536   -4864.4842            0    3596.2284    18.192107    22.872127    19.453766    8094.5598    3728.2014    4061.0311    2999.4526   -153.25199   -12.785338   -259.67704   -3973.2157 
10218000    247.12558   -4841.3775   -4347.0958   -4841.3775            0    4043.8077    17.932207    23.016102    19.601112    8089.9571    4491.8994    4151.7095    3487.8141   -312.54498   -315.55211   -900.13204   -3869.9923 
10219000    240.35634   -4859.4598   -4378.7175   -4859.4598            0    6138.1579    18.207611    22.946383     19.21229    8026.8717    4942.7834    6068.0833    7403.6071    191.76604    283.61533   -815.34798    -3660.162 
10220000    234.09267   -4877.4629   -4409.2486   -4877.4629            0    4742.1907    18.085116    22.727106    19.544461    8033.2102    4560.5436    4959.5436     4706.485   -52.348518    93.529886   -427.81489   -3853.6719 
10221000    245.77327   -4872.3152   -4380.7383   -4872.3152            0      4448.61    18.354778    22.756508    19.403332    8104.5904    2858.0812    4682.4209    5805.3278   -15.970565    753.75314   -416.47343   -3854.9254 
10222000     245.8261    -4899.809   -4408.1265    -4899.809            0    4325.6911    17.976847    22.955021    19.597436    8087.0566    5629.1682    4389.6985    2958.2065   -922.26156    673.98863   -1908.6083   -3897.9483 
10223000    237.53435   -4873.1107   -4398.0127   -4873.1107            0    4944.6165    18.081353    23.179946    19.199739    8047.0864    3885.8868    4487.4008    6460.5619    -166.8583   -438.00577    1027.3774   -3817.7199 
10224000     246.4179   -4853.0632    -4360.197   -4853.0632            0    5579.6059    18.001243    23.066753    19.384562    8049.0559    6254.8542    5350.3407    5133.6229   -1527.6329     1306.084   -690.81946   -3705.2225 
10225000    239.13398   -4874.7983   -4396.5008   -4874.7983            0    2694.1983     18.06116    23.094257    19.456866    8115.6353    2157.3454    1715.2614     4209.988   -1444.2438   -442.05554   -520.88302   -4077.6203 
10226000    244.37367    -4869.325   -4380.5474    -4869.325            0    4350.4915    18.215223    23.080762     19.18903    8067.4756      3351.33    4109.1597    5590.9847   -1233.4388   -897.82417    219.95302   -3868.6866 
10227000     256.3965   -4825.0364   -4312.2118   -4825.0364            0    4833.1754    18.169977    22.913241    19.393575    8074.1868    3546.9613    5682.6357    5269.9292    190.39914    1045.8333   -462.85036   -3743.0873 
10228000    250.75357   -4850.3609   -4348.8228   -4850.3609            0    4970.0703    18.226728    22.782036     19.46692    8083.4824    3903.3281    6219.7608    4787.1221    357.89644    125.66588    461.62542   -3762.9047 
10229000    246.51857   -4849.4509   -4356.3833   -4849.4509            0    3240.6259     18.24213    22.712274    19.594746    8118.4997    3803.5572    3476.8782    2441.4424    592.88781    76.866849    1493.3036   -3972.6932 
10230000    266.49312   -4856.5704   -4323.5513   -4856.5704            0    4917.9393    18.097896    22.899574    19.498382    8080.7942    4642.5574    5181.3366    4929.9241   -1670.6023    83.832456   -573.44384   -3743.9717 
10231000    251.49164   -4844.6597   -4341.6454   -4844.6597            0    3788.7463    18.286411    22.845087    19.398065    8103.6316    3820.9722      2853.89    4691.3766   -291.69278   -1494.3947   -1430.1072   -3893.8794 
10232000    245.29931   -4858.3972   -4367.7683   -4858.3972            0    4140.9459    18.025591    22.913333    19.617037    8102.3534    5932.6913    3031.0912    3459.0553   -378.94154   -641.42927    526.23907   -3878.4554 
10233000    245.96926   -4872.3343   -4380.3654   -4872.3343            0    5139.4553    17.971488    23.102506    19.336815    8028.3831    6394.8562    3814.7891    5208.7207   -1042.9901   -1427.1114   -1870.9876   -3778.6085 
10234000    253.90203   -4856.3553   -4348.5199   -4856.3553            0    4774.9681    18.069937    23.042473    19.410669    8082.1374    4780.5248    5249.5195    4294.8599   -105.41881    630.48769    1500.4114   -3785.6959 
10235000    232.35863   -4865.9116   -4401.1656   -4865.9116            0    4811.8025    18.097053    22.985249    19.422899    8079.2519     3975.427    5417.6724    5042.3081   -859.80195    1054.0752    1449.6592   -3834.2025 
10236000    233.11043   -4849.7343   -4383.4847   -4849.7343            0    4133.8395    18.058482    23.213024    19.327364    8101.8761    3053.8761    3553.7215    5793.9207   -918.53254     275.0946    709.93451   -3895.0403 
10237000    238.23459   -4853.2921   -4376.7935   -4853.2921            0    5941.0891    18.029855    22.845166    19.444912    8009.2628    6509.8123    5512.9596    5800.4953   -1847.9127   -1021.3198   -766.79515   -3682.8334 
10238000     249.5012   -4836.9927   -4337.9595   -4836.9927            0    6101.5011    18.120377    22.833917    19.365828    8012.7893     6194.483    5415.7477    6694.2726   -116.94815   -835.65071    823.68219   -3624.9484 
10239000    237.27935   -4840.8367   -4366.2487   -4840.8367            0    3578.0159    18.079697    22.857386    19.588338    8094.9709    4594.7051    3012.5637     3126.779    -98.96374   -1594.2399    1068.2686   -3943.8394 
10240000    239.96703   -4827.5446   -4347.5808   -4827.5446            0    5169.5482    18.156713    22.987984    19.370373     8084.927    4333.8643    5467.6283    5707.1519    198.75456    32.129004   -193.83453   -3738.0375 
10241000    238.52448   -4866.4675   -4389.3891   -4866.4675            0    5291.2222     18.05784     23.12962    19.289643     8056.724    7142.3759    4007.2555    4724.0352   -308.98667        552.4   -326.80286   -3767.6755 
10242000    234.52994   -4843.1525   -4374.0636   -4843.1525            0    5538.2442    18.034966    23.312796    19.133494    8044.5909     7108.566    4515.5802    4990.5865    705.03922    -218.4923   -947.69713   -3724.3051 
10243000    253.22101   -4851.7736   -4345.3003   -4851.7736            0    4216.1239    17.995855    23.175208    19.346327    8068.5344    4004.0449    4234.4068    4409.9199   -361.37358     335.2702   -1642.4452   -3849.1835 
10244000    250.92463   -4849.7641   -4347.8839   -4849.7641            0    5127.1038    17.990919    23.110108    19.397016    8064.7376    5763.6771     3778.795    5838.8395     323.6928   -68.057874   -309.34742   -3744.8548 
10245000    258.58524    -4852.335   -4335.1326    -4852.335            0     2821.701    18.299681    22.849778    19.466124    8139.6361    1683.7883    3597.5605    3183.7542   -422.91907    59.783557   -467.50227   -4000.1734 
10246000    231.13262   -4840.3371   -4378.0433   -4840.3371            0    3988.5452    18.237362    22.588632    19.705271    8117.7255    4319.3836    4975.5845    2670.6676    2083.2407    237.23317    1225.6115   -3905.8446 
10247000    251.30751   -4870.0551    -4367.409   -4870.0551            0    5782.4327    18.119239     22.68788    19.514212    8022.0409    5423.1959    6689.8011    5234.3012   -1126.5379    674.02914    -2175.831   -3690.9035 
10248000    243.01269   -4838.4378   -4352.3824   -4838.4378            0    4029.7996    18.297356     22.89402    19.404557    8128.5696    1894.6835    5297.4854      4897.23    620.08433    559.99778    473.19464   -3874.6623 
10249000    240.49531   -4867.0328   -4386.0124   -4867.0328            0    3829.5039    18.005506    23.105632     19.37784    8061.7354    4392.1574     2990.154    4106.2005   -282.95066    234.42265   -88.547173   -3935.7695 
10250000    249.51144   -4838.4353   -4339.3816   -4838.4353            0    3628.3612    17.936967    23.338573    19.391414    8117.6962    3709.7582    3029.7532    4145.5722    232.82513    1811.1254    915.44093   -3909.8262 
Loop time of 559.816 on 64 procs for 250000 steps with 1008 atoms

Performance: 77.168 ns/day, 0.311 hours/ns, 446.576 timesteps/s
99.2% CPU use with 64 MPI tasks x 1 OpenMP threads

MPI task timing breakdown:
Section |  min time  |  avg time  |  max time  |%varavg| %total
---------------------------------------------------------------
Pair    | 28.614     | 31.701     | 35.184     |  29.4 |  5.66
Bond    | 0.28736    | 0.29499    | 0.30829    |   1.0 |  0.05
Kspace  | 256.57     | 268.45     | 290.96     |  50.5 | 47.95
Neigh   | 3.9959     | 4.6869     | 6.4431     |  29.4 |  0.84
Comm    | 97.327     | 120.93     | 133.11     |  81.6 | 21.60
Output  | 1.4864     | 1.4887     | 1.5058     |   0.3 |  0.27
Modify  | 118.44     | 122.76     | 128.31     |  23.1 | 21.93
Other   |            | 9.508      |            |       |  1.70

Nlocal:        15.7500 ave          19 max          11 min
Histogram: 2 2 6 7 0 7 16 11 9 4
Nghost:        2477.08 ave        2498 max        2453 min
Histogram: 2 3 4 10 11 7 8 10 7 2
Neighs:        5152.22 ave        6259 max        3616 min
Histogram: 2 2 6 7 7 2 14 11 9 4

Total # of neighbors = 329742
Ave neighs/atom = 327.12500
Ave special neighs/atom = 2.0000000
Neighbor list builds = 8551
Dangerous builds = 0

unfix		3
unfix		2
unfix		1

write_data	data.final.${pid}
write_data	data.final.0
System init for write_data ...
PPPM initialization ...
  extracting TIP4P info from pair style
  using 12-bit tables for long-range coulomb (../kspace.cpp:340)
  G vector (1/distance) = 0.38282683
  grid = 24 30 36
  stencil order = 5
  estimated absolute RMS force accuracy = 0.0019899742
  estimated relative force accuracy = 5.9927481e-06
  using double precision FFTW3
  3d grid and FFT values/proc = 4050 480
Last active /omp style is kspace_style pppm/tip4p/omp
WARNING: Not all mixed pair coeffs generated from mixing. Use write_data with 'pair ij' option to store all pair coeffs. (../write_data.cpp:312)

write_restart   restart.lmp.${pid}
write_restart   restart.lmp.0
System init for write_restart ...
PPPM initialization ...
  extracting TIP4P info from pair style
  using 12-bit tables for long-range coulomb (../kspace.cpp:340)
  G vector (1/distance) = 0.38282683
  grid = 24 30 36
  stencil order = 5
  estimated absolute RMS force accuracy = 0.0019899742
  estimated relative force accuracy = 5.9927481e-06
  using double precision FFTW3
  3d grid and FFT values/proc = 4050 480
Last active /omp style is kspace_style pppm/tip4p/omp
Total wall time: 0:09:22
