#include		in.partitions
include		in.temp
variable        temperature equal 270.77
variable	tempDamp equal 100.0
include		in.pressure
variable        pressure equal 8370.2
variable        pressureDamp equal 1000.0 # This is 1 ps
include		in.seed
variable        seed equal 745823

units		real
atom_style	full
read_restart    restart.lmp.${pid}
read_restart    restart.lmp.1
Reading restart file ...
  restart file = 30 Jul 2021, LAMMPS = 30 Jul 2021
  restoring atom style full from restart
  triclinic box = (-3.1693961 -0.33056955 0.081378224) to (14.779395 22.910569 19.148620) with tilt (-0.12240279 -6.4789816 0.62928127)
  2 by 4 by 4 MPI processor grid
  restoring pair style lj/cut/tip4p/long/omp from restart
  restoring bond style harmonic/omp from restart
  restoring angle style harmonic/omp from restart
  1008 atoms
  672 bonds
  336 angles
Finding 1-2 1-3 1-4 neighbors ...
  special bond factors lj:    0        0        0       
  special bond factors coul:  0        0        0       
     2 = max # of 1-2 neighbors
     1 = max # of 1-3 neighbors
     1 = max # of 1-4 neighbors
     2 = max # of special neighbors
  special bonds CPU = 0.002 seconds
  read_restart CPU = 0.009 seconds

include 	in.setup
variable	out_freq equal 1000
variable	out_freq2 equal 10000
variable	out_freq3 equal 1000

timestep	2.0

neigh_modify    delay 7 every 1

include		in.tip4p
# This is TIP4P/Ice

# create groups ###
group ox type 2
336 atoms in group ox
group hy type 1
672 atoms in group hy

# set charges - beside manually ###
set group ox charge -1.1794
Setting atom values ...
  336 settings made for charge
set group hy charge 0.5897
Setting atom values ...
  672 settings made for charge

# ### TIP3P Potential Parameters ###
pair_style lj/cut/tip4p/long/omp 2 1 1 1 0.1577 8.5
pair_coeff 1 1*2 0.000 0.000
pair_coeff 2 2 0.21084 3.1668
bond_style  harmonic
bond_coeff  1 450 0.9572
angle_style harmonic
angle_coeff 1 55 104.52
kspace_style pppm/tip4p/omp 1.0e-5
pair_modify tail yes

thermo          ${out_freq}
thermo          1000
thermo_style    custom step temp pe etotal epair emol press lx ly lz vol pxx pyy pzz pxy pxz pyz enthalpy

restart 	${out_freq3} restart.lmp.${pid} restart2.lmp.${pid}
restart 	1000 restart.lmp.${pid} restart2.lmp.${pid}
restart 	1000 restart.lmp.1 restart2.lmp.${pid}
restart 	1000 restart.lmp.1 restart2.lmp.1


include         in.dump
dump            myDump all atom ${out_freq2} dump.water.${pid}
dump            myDump all atom 10000 dump.water.${pid}
dump            myDump all atom 10000 dump.water.1
dump            myDump2 all dcd ${out_freq2} dump.dcd
dump            myDump2 all dcd 10000 dump.dcd
dump_modify     myDump append yes
dump_modify     myDump2 append yes


variable natoms 	equal  "count(all)"                        # NUMBER ATOMS
variable H      	equal  "enthalpy/v_natoms"                 # ENTHALPY-per-atom
variable Vol      	equal  "vol/v_natoms"                 # volume-per-atom
fix AVG all 		ave/time ${out_freq} 1 ${out_freq} v_Vol v_H file vol_enthalpy.dat
fix AVG all 		ave/time 1000 1 ${out_freq} v_Vol v_H file vol_enthalpy.dat
fix AVG all 		ave/time 1000 1 1000 v_Vol v_H file vol_enthalpy.dat



fix 		1 all shake 1e-6 200 0 b 1 a 1
       0 = # of size 2 clusters
       0 = # of size 3 clusters
       0 = # of size 4 clusters
     336 = # of frozen angles
  find clusters CPU = 0.000 seconds
fix             2 all nph tri ${pressure} ${pressure} ${pressureDamp}
fix             2 all nph tri 8370.2 ${pressure} ${pressureDamp}
fix             2 all nph tri 8370.2 8370.2 ${pressureDamp}
fix             2 all nph tri 8370.2 8370.2 1000
fix             3 all temp/csvr ${temperature} ${temperature} ${tempDamp} ${seed}
fix             3 all temp/csvr 270.77 ${temperature} ${tempDamp} ${seed}
fix             3 all temp/csvr 270.77 270.77 ${tempDamp} ${seed}
fix             3 all temp/csvr 270.77 270.77 100 ${seed}
fix             3 all temp/csvr 270.77 270.77 100 745823


run             250000
PPPM initialization ...
  extracting TIP4P info from pair style
  using 12-bit tables for long-range coulomb (../kspace.cpp:340)
  G vector (1/distance) = 0.38314704
  grid = 24 30 32
  stencil order = 5
  estimated absolute RMS force accuracy = 0.0019750578
  estimated relative force accuracy = 5.9478279e-06
  using double precision FFTW3
  3d grid and FFT values/proc = 5355 768
Last active /omp style is kspace_style pppm/tip4p/omp
Neighbor list info ...
  update every 1 steps, delay 7 steps, check yes
  max neighbors/atom: 2000, page size: 100000
  master list distance cutoff = 10.8154
  ghost atom cutoff = 10.8154
  binsize = 5.4077, bins = 5 5 4
  1 neighbor lists, perpetual/occasional/extra = 1 0 0
  (1) pair lj/cut/tip4p/long/omp, perpetual
      attributes: half, newton on, omp
      pair build: half/bin/newton/tri/omp
      stencil: half/bin/3d/tri
      bin: standard
Per MPI rank memory allocation (min/avg/max) = 10.33 | 10.34 | 10.34 Mbytes
Step Temp PotEng TotEng E_pair E_mol Press Lx Ly Lz Volume Pxx Pyy Pzz Pxy Pxz Pyz Enthalpy 
 1500000    276.36557   -4787.5548   -4234.7895   -4787.5548            0    8674.0811    17.948791    23.241138    19.067242    7953.9062    8407.5878    7824.6224    9790.0332   -1161.3954   -917.75123    -3065.179   -3228.5999 
 1501000    263.88487   -4790.9323   -4263.1299   -4790.9323            0    6723.6342    17.926981    23.076953    19.352786    8006.2496    5810.5353    6509.8116    7850.5558    1519.4275   -116.37417    948.02024   -3478.0586 
 1502000    274.85804   -4806.7109   -4256.9609   -4806.7109            0    8390.7225    17.924637    23.012243      19.3447    7979.4197    9271.5625    8549.1172    7351.4878   -820.37627     186.8685   -998.57796   -3280.5186 
 1503000    269.47989   -4791.5119   -4252.5188   -4791.5119            0      9807.24    17.954912    22.671507    19.417734    7904.2782    10963.859    9386.3634     9071.498   -32.744406    45.489057   -1164.2193   -3121.9815 
 1504000    259.23549   -4818.1623   -4299.6592   -4818.1623            0    7404.4578    18.279845    22.534232    19.375835    7981.3378    6687.1967    7470.0079    8056.1688    325.24949   -919.89243     -643.076   -3437.7831 
 1505000      269.106   -4795.1092   -4256.8639   -4795.1092            0    7056.5158    18.046993    22.767475    19.474689    8001.8468    7471.9211    6832.4733    6865.1529    1021.1432    -1052.492     1159.293   -3433.3775 
 1506000    270.39569    -4776.357   -4235.5323    -4776.357            0    8333.3064    18.188547    22.603784    19.367216    7962.4434     7363.111    8733.7089    8903.0993    32.237681    493.72434   -2208.0631   -3267.8348 
 1507000    257.66944   -4765.5723   -4250.2016   -4765.5723            0     9735.942    18.017978    22.464332    19.609616    7937.2243    9993.7712    11185.292    8028.7627    581.58317    1215.4365   -1062.7715   -3123.2052 
 1508000    268.83131   -4785.6295   -4247.9337   -4785.6295            0    8446.4596    18.404616    22.518935    19.249926     7978.177    6393.9249    8300.5575    10644.897    1190.7075    435.96338     1259.999   -3265.1583 
 1509000    281.36852   -4782.6193   -4219.8475   -4782.6193            0    10177.487    17.974135    22.648022     19.45454    7919.5269    10069.656    9570.3212    10892.483     80.59352   -310.55909     899.7293   -3044.3664 
 1510000    268.75873    -4762.685   -4225.1344    -4762.685            0    9943.4779    18.048601    22.717651    19.350172    7933.9922    7787.2501    11608.213     10434.97    162.64699    467.87765   -196.54594   -3074.5831 
 1511000    273.62706   -4810.0694   -4262.7815   -4810.0694            0    7911.2892    18.013175    22.750607     19.49472    7989.1444    7945.8015    7429.9488    8358.1172   -597.43308   -939.40661   -1880.6132   -3341.0097 
 1512000    263.58321   -4734.8307   -4207.6317   -4734.8307            0    8205.2536    18.201572    22.802502     19.26744    7996.7847    9891.2029    6527.7016    8196.8564    1020.6542    -1740.009    1409.0208   -3250.6948 
 1513000    276.58013   -4755.7246   -4202.5302   -4755.7246            0    9209.5931    17.971583      22.6305    19.455543    7912.6845    10000.477    11221.486    6406.8155    -693.7594    269.23747   -574.07989    -3139.758 
 1514000    275.13031   -4804.2201   -4253.9254   -4804.2201            0    9066.4871    18.146181    22.767447    19.237043    7947.6347    8393.7819    9083.0578    9722.6218   -1680.9789   -230.91995   -51.011252   -3203.0461 
 1515000    282.72447    -4815.188   -4249.7041    -4815.188            0    7425.4808    17.969909    22.714762    19.574018    7989.7658    9086.5652    7841.6914    5348.1859    596.79174   -14.586746    203.15412   -3384.4683 
 1516000     280.3122   -4801.6365   -4240.9775   -4801.6365            0    6751.8572    18.194034    22.988936    19.146289    8008.1547     5375.397     7647.982    7232.1925   -1502.9362   -329.70783   -128.73015   -3452.4232 
 1517000    266.37952    -4781.783    -4248.991    -4781.783            0    9162.0349    17.824935    22.855225    19.452872    7924.9622    9522.1051    9783.9188    8180.0809    712.87956    998.09087    1015.4319   -3190.0664 
 1518000    267.59057   -4801.2204   -4266.0062   -4801.2204            0    8229.2132    18.123466    23.026744    19.094972    7968.7977    8732.0664    8573.4244    7382.1489     216.3647   -45.684156   -49.539133   -3309.6338 
 1519000     251.5309   -4739.7396   -4236.6468   -4739.7396            0    11208.686    17.735666    22.991199    19.323353    7879.3725    11602.157    12678.718    9345.1837   -137.15777    2060.5207   -319.61405   -2948.6279 
 1520000     264.5364    -4790.553   -4261.4475    -4790.553            0    7373.4078    17.922786    23.260232    19.140055    7979.2623    6516.3468    7458.8153    8145.0614    598.04596    699.71518     -458.809   -3403.4088 
 1521000     269.6793   -4824.1159    -4284.724   -4824.1159            0    7478.6033    17.803943     23.16857    19.346407    7980.2363    7558.3203    7323.0357    7554.4539   -645.76894    493.23056   -1728.5024   -3414.3375 
 1522000    270.68813   -4790.3774   -4248.9677   -4790.3774            0    7551.3476    18.018711    23.299575    18.984225     7970.115    6119.4701    7346.1894    9188.3832    1003.0217     289.9048    1135.1788   -3371.2296 
 1523000    257.21703    -4793.987   -4279.5212    -4793.987            0    9453.8887     17.75804    22.929032    19.422475    7908.3399    10215.732    9029.9192    9116.0151    307.90693    99.594734    339.17856   -3189.1567 
 1524000     283.5529   -4760.2145   -4193.0737   -4760.2145            0    9733.2636    17.976401    23.309126    18.951485    7940.9414    6550.3456    9230.9625    13418.483   -80.546597    1114.9409   -908.97468   -3065.8597 
 1525000    280.79559   -4782.3141   -4220.6882   -4782.3141            0    8483.9752    17.642512    23.280604    19.435174    7982.5764    11688.806    7128.8463    6634.2737   -795.85073    699.06877   -715.30512   -3233.0034 
 1526000    293.66991   -4825.7054   -4238.3293   -4825.7054            0    8304.8151    18.038865    22.986971    19.175958    7951.4811    6677.6542     7967.189    10269.602    906.40003     957.5751    1043.4373   -3275.2681 
 1527000    276.75601   -4768.6107   -4215.0645   -4768.6107            0    10241.431    17.913626    22.891387    19.317822    7921.6156    11108.277    9834.8824    9781.1335   -1167.1598    1174.8077   -263.34792   -3031.8859 
 1528000    266.22583   -4802.1788   -4269.6942   -4802.1788            0    7932.0434    18.020247    22.928603    19.333671    7988.2686    9166.5286    7933.8301    6695.7716    1777.7259   -430.89569    1926.5229   -3345.6056 
 1529000    282.36169   -4816.2166   -4251.4584   -4816.2166            0    8640.2008    17.998414    22.639681    19.506888    7948.6345    8660.9192    9632.3682    7627.3148   -603.75343    1155.1065   -3351.6306   -3249.8631 
 1530000    281.14695   -4781.2024   -4218.8738   -4781.2024            0    9037.6531    18.232176    22.413826    19.513968    7974.4383    9228.0073     9563.776    8321.1761    729.73198    710.55142   -360.09144   -3167.8037 
 1531000    264.81991   -4751.2044   -4221.5319   -4751.2044            0    6765.8284    18.082818     22.53064    19.658951    8009.3997    5151.0754    8756.4068    6390.0031   -516.23176   -55.449675    363.50704    -3431.223 
 1532000     273.6548   -4783.0547   -4235.7113   -4783.0547            0      7924.43     18.20728    22.496732    19.453232    7968.1276    8450.3105    7212.2792    8110.7003    455.65574    203.78044    452.66706   -3314.8373 
 1533000    261.27002   -4776.1725   -4253.6001   -4776.1725            0    7538.2351    18.071148    22.609196     19.58126    8000.3962    8153.7457    7257.8144     7203.145    69.171009   -756.78428   -914.21883   -3374.0572 
 1534000    261.13805   -4812.8592   -4290.5508   -4812.8592            0     8552.166    18.308549    22.510234    19.336381    7969.0974    4600.1597    10626.302    10430.036   -28.322655    1342.1888   -1008.4435   -3296.6086 
 1535000    265.15553   -4821.0434   -4290.6996   -4821.0434            0    7585.9793    18.034589    22.674289    19.473936     7963.311    7336.5005     8125.877    7295.5604   -865.76454   -91.888678    679.85019   -3409.6888 
 1536000    270.05855   -4821.2443   -4281.0938   -4821.2443            0    9022.3897    18.076297     22.76528     19.28581    7936.3414    9716.0274    8708.7172    8642.4243    243.65344    569.50445    260.85847   -3236.8118 
 1537000    271.05312   -4798.1449   -4256.0052   -4798.1449            0    7864.1603     17.92855    22.850334    19.439512    7963.8502    7893.3149    8765.5851    6933.5808    1260.4395    114.28555   -1659.4643   -3342.6256 
 1538000    272.91692   -4784.8092   -4238.9417   -4784.8092            0    9111.2364    17.917483    22.786371    19.353578    7901.5708    9502.1534    9423.0108     8408.545    1094.8947    211.96315    1445.7307   -3188.9964 
 1539000    263.13511   -4794.6702   -4268.3674   -4794.6702            0    8908.4948    17.981363    22.869265    19.353547     7958.576    10446.892    8301.5041    7977.0883   -138.10732   -426.40718   -1241.9593   -3234.3792 
 1540000    267.06919     -4788.99   -4254.8187     -4788.99            0    7478.5612     18.06394    22.751285    19.425653    7983.5129    9214.5773     7419.669    5801.4372    1215.0637    400.70814   -793.80436   -3384.0797 
 1541000    283.10185   -4820.3823   -4254.1437   -4820.3823            0    7804.1289    18.177388    22.803999    19.283315    7993.2644    6151.3098    9929.3976    7331.6792    1537.1677    1031.5552   -7.0499599   -3344.3886 
 1542000    277.61686   -4800.1017   -4244.8337   -4800.1017            0    9614.4411     17.98391    22.617179     19.49207    7928.3082    8787.3244    10848.287    9207.7116     330.5521   -1080.1948   -1213.2341    -3133.152 
 1543000    278.93731   -4793.5469   -4235.6378   -4793.5469            0     6627.852    18.089677     22.68191    19.572816    8030.8913    6605.9316    7328.0708    5949.5537    1575.5269   -548.94598    901.21172   -3459.3684 
 1544000     258.2588   -4792.5482   -4275.9986   -4792.5482            0    10773.589    18.121703    22.612662    19.240913    7884.5401    8590.8295    11632.277    12097.659   -1546.4765    1528.7386   -1307.6545    -3037.166 
 1545000    271.63183   -4847.1109   -4303.8137   -4847.1109            0     5260.028    18.144157    22.795041    19.451699    8045.1604    3587.0658    5465.0709    6727.9472    151.90896    343.18906    1742.7288   -3686.6524 
 1546000    269.05568   -4809.7482   -4271.6036   -4809.7482            0    9536.8207    18.043137     22.80243     19.20913    7903.1618    10084.542    8251.4528    10274.467     568.4637   -1850.8136   -1994.9793   -3172.3943 
 1547000    286.26093   -4823.2523   -4250.6951   -4823.2523            0    6701.9636    18.030717    23.028682    19.305675    8016.1731    7320.7791    6301.8243    6483.2874     1928.411   -610.06497     1680.446   -3467.1842 
 1548000    270.01701   -4822.8629   -4282.7955   -4822.8629            0    7795.4735    17.987654    22.824824     19.33273    7937.3433    6769.6416    8797.9754    7818.8036    305.79103    714.91532   -1769.0126    -3380.407 
 1549000    281.06688   -4794.4817   -4232.3132   -4794.4817            0    8510.5505    18.054732    22.665406    19.434096    7952.7788    8778.5536     8022.515     8730.583   -966.28588   -666.23113   -2564.0687    -3245.233 
 1550000    261.06481   -4804.6851   -4282.5232   -4804.6851            0    6467.5898    18.210839    22.604434     19.37859    7977.1135    6158.6603    6800.8728    6443.2363   -959.13129   -356.20901   -2124.3798   -3530.0966 
 1551000    278.92782   -4745.2541    -4187.364   -4745.2541            0    8670.0818    17.962289    22.920148    19.414655    7992.9805    8444.0629    9311.3096    8254.8728    45.228187    -145.4891    1216.0455   -3176.6976 
 1552000    274.35959   -4819.4774   -4270.7243   -4819.4774            0    9992.2693    18.099957    22.648093    19.305754    7913.9988    7319.5779    12007.858    10649.373   -1700.0526    1015.2881    90.102143    -3117.441 
 1553000     279.0719   -4848.5069   -4290.3286   -4848.5069            0    9047.1521    18.070561    22.849234    19.237479    7943.1257    9381.6545    8879.7511    8880.0506    -1043.025    599.81654    190.70704   -3242.2853 
 1554000     279.1405   -4771.3657   -4213.0502   -4771.3657            0    8567.1012    18.016555    22.602307    19.523064    7950.0984    5786.6019    10934.164    8980.5382       374.29     528.0468    1300.4093   -3219.7459 
 1555000    286.61634   -4796.2356   -4222.9675   -4796.2356            0    10385.866    18.193078    22.605955    19.266329       7923.7    8180.5238    11422.483    11554.592   -1343.5745      711.708   -2105.0223   -3022.7868 
 1556000    295.83756   -4810.5063   -4218.7946   -4810.5063            0    7542.3086    18.099915    22.697339    19.488594    8006.3023    8302.9371    7682.4873    6641.5013    335.58063   -329.29486    1362.7405   -3338.1267 
 1557000    260.97479   -4822.2841   -4300.3023   -4822.2841            0    8403.9033    18.019409    22.743974    19.452226    7972.1634     7323.045    7930.6653    9957.9994     85.94691    462.14159    598.50007   -3323.2156 
 1558000    270.03753   -4796.4902   -4256.3817   -4796.4902            0    8560.0029     18.02949    22.738622    19.377789    7944.2299    7683.7198    9666.1886    8330.1002   -1386.1575    590.30088   -762.61624   -3264.6331 
 1559000    272.32383   -4803.5933    -4258.912   -4803.5933            0    8902.0984    17.993149    22.730071    19.416093    7940.9017    9119.1172    10909.033    6678.1452   -301.75897    145.13523   -1435.4995   -3227.9608 
 1560000    272.03832   -4799.4906   -4255.3804   -4799.4906            0    8775.5364    18.200356    22.571064    19.282517     7921.285    7454.6637     9325.716    9546.2295   -49.653241   -75.429483   -590.38599   -3241.5969 
 1561000    283.21146   -4803.4278   -4236.9699   -4803.4278            0     6257.352    18.159867    22.620572    19.547497    8029.8493    5836.5571    7566.1297    5369.3693    128.21168    609.87668   -1503.8587   -3504.1895 
 1562000    294.95638   -4782.4899   -4192.5407   -4782.4899            0    8960.1133    18.080174    22.577698    19.490636    7956.2468    8381.3145    9464.8109    9034.2144    207.62128   -130.78969    399.92126   -3152.8656 
 1563000    267.96275   -4765.0157   -4229.0571   -4765.0157            0    8752.8313    18.128899    22.655373    19.485871     8003.178    9497.6148    8287.2464    8473.6327    355.82317   -877.96187   -593.32318   -3207.4429 
 1564000    266.64193   -4798.0322   -4264.7153   -4798.0322            0    7124.1645    18.130293    22.640003    19.519365    8012.1115    7952.4223    7722.9468    5697.1245    775.37215    607.16588   -1396.3931   -3432.2679 
 1565000    254.79269   -4783.7688   -4274.1519   -4783.7688            0    10629.964    18.011354    22.814019    19.208042    7892.8031    10747.844    10711.978    10430.069    1160.9711   -242.68846    1194.4951   -3050.5534 
 1566000    282.42523   -4781.6476   -4216.7622   -4781.6476            0    8041.0807    17.997449    22.792385    19.512569    8004.1493    7445.5861    8891.5944    7786.0616     1102.216    770.58805    2417.0295   -3278.1083 
 1567000    271.59272   -4812.9406   -4269.7216   -4812.9406            0    7271.9391    18.182292    22.744918    19.310776    7986.0633    6369.6554    8104.4573    7341.7045   -788.05822   -424.06446   -2046.1266   -3422.7695 
 1568000    268.34554    -4791.061   -4254.3367    -4791.061            0    8383.1452    17.998318    22.793232    19.414586    7964.6364    10371.352    6825.2383    7952.8454   -11.557617   -319.47039    900.36441   -3280.5837 
 1569000     254.9882   -4805.6914   -4295.6835   -4805.6914            0      7701.53    18.045911    22.774393    19.418736    7980.8029    5072.4715    9226.9239    8805.1946    2388.7288   -534.62655    498.23132   -3399.2884 
 1570000    276.30716   -4792.8866   -4240.2381   -4792.8866            0    8586.5803    17.977002     22.75703    19.442636    7954.0439    9189.4622    8135.9132    8434.3656   -483.35343    670.74577   -429.36988   -3244.1813 
 1571000    267.27367   -4787.6888   -4253.1084   -4787.6888            0     7171.962    18.067913    22.810273    19.384412     7988.976    8363.6314    6178.0832    6974.1713    157.99843   -637.00689    1733.3807   -3417.4958 
 1572000     282.4443   -4774.3205   -4209.3971   -4774.3205            0    6808.3315    18.174086    22.891058    19.333262    8043.1019      6114.93     6369.757    7940.3074   -1304.6631   -263.17919   -675.64067   -3410.7771 
 1573000    263.68211   -4797.7371   -4270.3403   -4797.7371            0    12280.747    17.737856    22.856891    19.300824    7825.1764    12777.319    12634.167    11430.756   -499.73509   -392.97722    3106.7822   -2868.8348 
 1574000    263.88219   -4823.8164   -4296.0195   -4823.8164            0     7807.004    17.977806    22.974491    19.319185    7979.4211    6466.6932    8538.5493    8415.7695    673.82485    281.38143    2897.3523   -3387.5053 
 1575000    281.10159   -4832.8117   -4270.5738   -4832.8117            0    7089.0349    17.963132    23.004362    19.303121    7976.6366    6854.7149    8097.7843    6314.6054    523.54122   -206.75287    1822.7472   -3445.8988 
 1576000    276.75863   -4804.7038   -4251.1524   -4804.7038            0    5931.8994    18.024105    22.866992    19.405018    7997.9153    6560.6618    5992.1702    5242.8662    867.52999   -285.25412    205.60954   -3559.2474 
 1577000    257.64576    -4820.538   -4305.2146    -4820.538            0    8938.8521    18.317058    22.523858    19.215432    7927.7266    6721.6945    9025.3349    11069.527   -315.64312   -5.5392337   -940.52127   -3271.7245 
 1578000    294.44362   -4804.9722   -4216.0485   -4804.9722            0    7023.0095    17.959291    22.810059    19.533837    8002.0846    7576.4599    7308.9146    6183.6541    1369.1441    754.04531    2903.1524   -3396.4479 
 1579000    265.19254   -4821.0627   -4290.6449   -4821.0627            0    7806.1124    18.227064    22.773274    19.262779    7995.7851    7902.9943    6974.1259    8541.2168   -1083.5997   -542.91073    218.17329   -3380.3716 
 1580000    276.57146   -4776.5782   -4223.4011   -4776.5782            0    8430.6163    18.068981    22.566314    19.516547    7957.8775    8115.8831    10386.305    6789.6609    -523.4296    2308.1245   -1950.8618    -3244.965 
 1581000    276.36787   -4804.7681   -4251.9982   -4804.7681            0    6686.8989    18.064244    22.858612    19.402773    8011.8617    5675.1462    6947.2109    7438.3397    -1364.384    783.27924   -53.324067   -3470.6689 
 1582000    253.38433   -4797.2169    -4290.417   -4797.2169            0    8048.1895    18.090558    22.855892    19.280415    7971.9857    7848.3211    7250.4162    9045.8311   -842.63552   -1333.2858    1500.4618   -3354.7084 
 1583000    269.15624   -4778.3187    -4239.973   -4778.3187            0    8411.8392    17.901617    22.771984    19.502212    7950.1807    8974.3686    8573.9965    7687.1525    266.00135   -659.50724    1606.6282   -3264.6603 
 1584000    286.53158   -4787.2978   -4214.1992   -4787.2978            0    9080.5647    18.063709    22.831612    19.295493    7957.9161     7973.349      10014.6    9253.7453   -591.82414    251.58441    1688.9029   -3160.3267 
 1585000     259.6217   -4800.3465    -4281.071   -4800.3465            0    7540.2671    17.970245    22.958494    19.323894    7972.4542    7759.0056    8021.4752    6840.3205   -480.50305    373.75196   -312.83554   -3404.3636 
 1586000      259.656    -4790.948   -4271.6039    -4790.948            0    8344.0179    18.124323    22.780796    19.270832    7956.6669    8614.2287    8240.1488    8177.6762   -623.69688   -932.15201    1623.8056   -3303.3656 
 1587000     256.1643   -4779.6143    -4267.254   -4779.6143            0     6998.453    18.108745    22.627537    19.500894     7990.614    7022.6144     7444.367    6528.3775   -2243.4458   -284.88214   -91.747593   -3451.6899 
 1588000    267.19352    -4799.529   -4265.1089    -4799.529            0    7190.2294    18.066151    22.862977    19.340397    7988.4736    6447.4092    8139.3503    6983.9286    -476.0044   -748.75678    300.58536   -3427.4206 
 1589000    262.37714   -4831.1871   -4306.4004   -4831.1871            0    8514.1191    17.898125    22.809845     19.44616    7938.9622    8787.3588    8563.7189    8191.2796    390.41875    319.02934     2973.761   -3320.6219 
 1590000    262.27261   -4796.5896    -4272.012   -4796.5896            0    8160.2814    18.094964    22.780698    19.334774    7970.1015    8117.0533    8753.1763    7610.6146   -317.17409    145.69899   -267.30245   -3323.4955 
 1591000    260.77982   -4791.3516   -4269.7597   -4791.3516            0    7496.7463    18.013407    22.561959    19.662532    7991.2018    9023.1161    8009.1491    5457.9736    829.29585   -343.57115     1176.948   -3396.0628 
 1592000    277.97596   -4824.9465   -4268.9602   -4824.9465            0    8604.4818    18.131118    22.803799    19.273048     7968.603    8028.1392    9438.5717    8346.7344    642.90715   -160.50457    921.66351   -3268.9998 
 1593000    270.89828   -4771.9424   -4230.1123   -4771.9424            0    8708.7181    18.005912    22.827467     19.36522     7959.674    9145.2929    8677.7835    8303.0781   -431.53679    916.25772   -439.36816   -3219.1723 
 1594000    272.96727   -4803.1259   -4257.1577   -4803.1259            0    9163.5534    18.094481    22.946821    19.170194    7959.6721    9733.6564    8158.5107    9598.4931     470.6895   -235.08018    273.80687   -3193.4189 
 1595000    273.35032   -4838.7268   -4291.9924   -4838.7268            0    10667.005    17.928592    22.568618     19.42359    7859.2414    9500.4744    11348.397    11152.144     237.4015   -655.58006   -576.50389   -3069.3513 
 1596000    271.83042   -4779.5174    -4235.823   -4779.5174            0    9032.9945    18.134348    22.654312     19.30126    7929.3663    7774.0236    9547.7285    9777.2316    481.14106   -1182.7677   -1265.3789   -3191.2324 
 1597000    270.70726     -4796.22    -4254.772     -4796.22            0    9669.2068    17.982472    22.643593    19.432747    7912.7771    10214.687     9313.197    9479.7365    232.59039    177.35002   -30.126025   -3138.9481 
 1598000    274.70747   -4814.0306   -4264.5817   -4814.0306            0     9153.377    18.139578    22.791205    19.262647    7963.6183    10093.957    8945.3208    8420.8536    382.06499    984.35213    -727.2203   -3201.4975 
 1599000    264.91962   -4783.6129   -4253.7409   -4783.6129            0    9776.0263    17.840408    22.766766    19.499044    7919.8956    9761.8616    11331.534    8234.6829    537.30278   -217.29037   -1000.1431   -3124.5751 
 1600000    273.38215     -4801.91   -4255.1119     -4801.91            0    7850.9911    18.124285    22.892965     19.21824    7974.0056     8250.172    7700.1543     7602.647    2304.0176    652.92951    521.76208    -3342.099 
 1601000    259.88404   -4827.1494   -4307.3492   -4827.1494            0    7303.8039     17.99239     22.82738    19.431058    7980.7074    8001.7504    7085.9223    6823.7389    252.45129   -323.90637    825.97723   -3457.2563 
 1602000    269.26021   -4799.6078   -4261.0542   -4799.6078            0    6400.6113    18.101349    22.799707    19.437864    8022.1126    5411.1725    7387.5264    6403.1349   -398.67094    677.02488   -346.76387   -3512.2192 
 1603000    282.30208   -4804.8243   -4240.1853   -4804.8243            0    8089.3664    18.064864     22.72559    19.418529    7971.9796      7018.93    9298.3917    7950.7776    654.44983    675.73147     2597.742   -3299.6901 
 1604000    270.60299   -4777.5145   -4236.2751   -4777.5145            0    7989.5476    17.986565    22.850377    19.327656    7943.6628    7403.4473    8428.0324     8137.163    2049.6206    -161.3384    -391.1615   -3310.6846 
 1605000    294.48874   -4793.8493   -4204.8354   -4793.8493            0    9544.7452    17.980007    22.800599    19.346382    7931.1448    10419.708    7822.4531    10392.075   -434.41438   -482.16125   -233.25715   -3100.8176 
 1606000    260.33678   -4808.7273   -4288.0216   -4808.7273            0    6923.1717    18.106292     22.80931    19.421879    8021.0812    8202.3348    6606.9904    5960.1899   -871.33289    -322.3506    22.868153   -3478.1542 
 1607000    273.24131   -4791.6501   -4245.1338   -4791.6501            0    8800.9218     18.06387    22.598455     19.44417    7937.4124    8175.9371    9147.5959    9079.2324   -396.68321     45.25771   -658.09814   -3226.3477 
 1608000    274.92778   -4776.9622   -4227.0727   -4776.9622            0    8321.6297    18.023564    22.810575    19.379733    7967.5483    9257.7301    7762.4131    7944.7459    -2642.888   -387.43795   -450.44064   -3260.1116 
 1609000    269.17458    -4818.106   -4279.7236    -4818.106            0    7086.2187    18.062524    22.926997    19.337749    8008.1376    8870.0896    6338.7026     6049.864     413.3165   -462.10099    2069.0959   -3452.1207 
 1610000    277.67954   -4773.8045   -4218.4111   -4773.8045            0    10937.231    18.041476    22.798704    19.238743    7913.3233     11108.49    9761.1214    11942.082   -2083.6022    561.97402   -1912.3632   -2956.1704 
 1611000    281.62911   -4762.2098   -4198.9168   -4762.2098            0    8551.8282    17.862564    22.794673    19.541128    7956.5867    9845.6248    8310.5089    7499.3508    1124.5994   -108.38761    199.66205   -3206.5741 
 1612000    279.09966   -4801.1925   -4242.9587   -4801.1925            0    8611.9705    18.111065    22.894759    19.198357    7960.5693    8242.0481    8035.0403    9558.8231    1441.8477   -785.54333    1042.2199    -3243.137 
 1613000    283.99538   -4835.0873   -4267.0615   -4835.0873            0    9335.5494    17.859659    22.730641    19.466061    7902.4711    9905.2038    8961.1879    9140.2564   -828.72809   -1303.6383   -653.80573   -3191.1447 
 1614000    272.14355   -4788.4402   -4244.1195   -4788.4402            0    6087.2851    18.135645    23.098002    19.133398    8014.9265    2994.7505    6885.3747      8381.73    119.88731   -1080.9097    1888.7107   -3532.5799 
 1615000    269.42391   -4802.3617   -4263.4805   -4802.3617            0    6737.5266    17.739789    23.194791    19.472118    8012.2058    7318.5939    7060.7083    5833.2775   -214.25168    707.24563   -2203.9505   -3476.2019 
 1616000    256.94258   -4793.7683   -4279.8514   -4793.7683            0    7343.7835    18.039471    23.292844    19.038424    7999.7668     5205.343    6517.7675     10308.24   -288.70903     177.4728   -953.96791    -3423.064 
 1617000    267.21822    -4833.883   -4299.4136    -4833.883            0    8474.7012    17.779022    23.056617    19.302205    7912.4391    9569.6847    8785.4797    7068.9392    354.74312   -421.57267    1331.4952   -3321.4771 
 1618000    250.01378   -4779.3017   -4279.2433   -4779.3017            0    8016.0262    17.817812    23.257557    19.187862    7951.4265    8364.2113     7277.501    8406.3662    279.11998   -968.29248    1210.3094   -3349.6776 
 1619000    270.97512   -4827.4763   -4285.4926   -4827.4763            0    8963.9755     17.76944    23.200219    19.277249    7947.1402    10444.439    7745.5564    8701.9308    667.79895   -635.57502    1136.4736   -3246.5599 
 1620000    269.25013   -4805.0549   -4266.5213   -4805.0549            0    7926.7762    17.928862     23.12099    19.313707    8006.1696    9057.0901    6995.7726     7727.466    1137.4832   -804.42285    1472.2416   -3340.9769 
 1621000    259.05553   -4804.7567   -4286.6136   -4804.7567            0    9044.7819    17.994248    22.853145     19.28735    7931.4438    10730.449    8626.6446    7777.2525   -1002.1937    589.42448   -326.56788   -3240.3859 
 1622000    279.01988   -4783.2731   -4225.1989   -4783.2731            0    9402.0955    17.979392    22.768909    19.337054     7916.032    7575.1811    10968.877    9662.2284     74.56017   -1075.6242    1780.5449   -3139.7533 
 1623000    267.36597    -4798.008    -4263.243    -4798.008            0    9337.6388    18.043826    22.743675    19.354828    7942.8907     9737.465    9704.7855    8570.6659    172.02915   -380.21992   -487.77793   -3181.5811 
 1624000    269.21488   -4784.0079   -4245.5449   -4784.0079            0    7435.2904    18.073757    22.893788    19.315016    7992.1048    8036.2032    6848.5368    7421.1313    255.07308   -421.70362   -1421.6122   -3378.9124 
 1625000    284.33959    -4797.681   -4228.9667    -4797.681            0    7773.5289     17.94109    22.899579    19.345529    7947.9827    8195.8861    7721.1811    7403.5195    1027.3426   -1620.7284   -731.77256   -3327.9123 
 1626000    276.98831   -4821.0344   -4267.0236   -4821.0344            0    9586.6756    18.119981      22.5007    19.483839    7943.7997    8795.6127    10297.444    9666.9702   -207.27846    321.50779    -2027.485   -3156.3864 
 1627000    266.88651   -4798.8805   -4265.0745   -4798.8805            0    7650.3011    18.332073    22.566996    19.305467    7986.6682    6414.8038    8043.8467    8492.2527    647.16099   -1692.7393   -727.78939   -3373.9876 
 1628000    270.40912   -4815.2293   -4274.3777   -4815.2293            0    8585.8678    17.862077    22.693063    19.579438    7936.4321    8692.8551    8623.5684    8441.1798     64.91664   -652.77949   -607.03365   -3280.6088 
 1629000    278.72133    -4760.071   -4202.5939    -4760.071            0    6843.6459    18.369726    22.831299     19.17552    8042.3034    4470.0787    6561.9026    9498.9565    450.35904   -464.03795   -883.29708   -3399.9113 
 1630000    264.32676   -4833.5434   -4304.8573   -4833.5434            0    8142.2817    17.916722    22.760456    19.470641    7939.9867    9068.8331    8097.5837    7260.4283     264.0668     485.7155     450.4313    -3362.009 
 1631000    268.84748     -4836.94   -4299.2118     -4836.94            0     9158.993    18.064755     22.89092    19.158065     7922.221    7484.5182    9259.5875    10732.873    554.77694   -1364.6259    973.75279    -3241.005 
 1632000    279.08995   -4783.0115   -4224.7972   -4783.0115            0    8673.7301    17.662162    23.033462      19.5625    7958.4306    12648.102    7756.7047    5616.3839   -1510.7251   -1004.9279   -871.66407   -3218.0759 
 1633000     272.3949   -4775.0398   -4230.2164   -4775.0398            0    8069.9373    17.999962    22.968457    19.271955    7967.6304    7838.8127    8955.8509    7415.1485     23.50962    607.99717   -1161.4105    -3292.492 
 1634000     254.7747   -4794.5507   -4284.9698   -4794.5507            0    9608.8375    17.878495    23.012177    19.287591    7935.3602    9527.9237    8491.6834    10806.905   -212.92926    1132.8729   -74.898131   -3172.9478 
 1635000    264.89035   -4800.9074    -4271.094   -4800.9074            0    9513.6465    17.911099    23.038398    19.199582    7922.5739    9935.6556    9228.9467    9376.3374    523.93449   -184.86276    1475.5587   -3171.8624 
 1636000     281.5279   -4799.2646    -4236.174   -4799.2646            0    9907.5103    17.940064    22.804895    19.384838    7930.7498    10056.796    10525.135    9140.6001   -686.42328   -839.64515    949.28853    -3090.253 
 1637000    267.67158   -4801.3873   -4266.0111   -4801.3873            0    8513.8031     18.12349    22.637393    19.384106    7952.6891    8282.8584    8338.9979    8919.5528    423.69249    632.21351    927.07185   -3278.5647 
 1638000    269.90318   -4812.3411   -4272.5014   -4812.3411            0    9029.2788    18.140055    22.632255    19.375155    7954.4764    6776.2636    10583.672    9727.9006   -290.52923    734.27801   -1436.6054   -3225.0339 
 1639000    264.07335    -4815.207   -4287.0277    -4815.207            0    8253.3444    18.042034    22.704585    19.364342    7932.3488    7440.6873    7737.0847    9582.2613     630.2747   -1116.0646    2558.4112   -3332.2381 
 1640000    274.43536   -4790.7394   -4241.8347   -4790.7394            0    7717.1571    17.933931    23.105057    19.251545    7977.1568    7139.2924    7340.7313    8671.4474    372.90822   -631.04889   -688.57388   -3344.0311 
 1641000    251.61171   -4771.4003   -4268.1458   -4771.4003            0     8834.348    17.906884    22.912703    19.359044    7942.9214    8362.5305    9126.8358    9013.6779   -416.21113    196.11485    422.65584   -3244.7805 
 1642000    272.13271   -4794.6863   -4250.3872   -4794.6863            0    8707.1505     18.07292    23.006133    19.063307    7926.2939     8337.819    8077.3591    9706.2735   -275.99173    1014.4078   -535.27994   -3243.8679 
 1643000    274.99125   -4830.6308   -4280.6143   -4830.6308            0    6938.3203     17.85192    23.014087    19.485662    8005.5995     5940.715    7807.0405    7067.2055    926.92499    270.28243   -124.97714   -3470.5415 
 1644000    271.72547    -4793.026   -4249.5414    -4793.026            0    8413.9767    18.024238    22.942839    19.275795    7971.0651    9490.7158    8219.8445    7531.3699    1794.4049   -1450.1565    170.88035   -3271.4183 
 1645000    267.32181   -4800.3691   -4265.6925   -4800.3691            0    6663.9671    18.027502    22.821906    19.468047    8009.5824    8154.7204    6200.0955    5637.0854   -917.67158   -610.87342   -1142.4486   -3487.2642 
 1646000    281.49263    -4836.559   -4273.5389    -4836.559            0    8500.4569    18.122677    22.619093    19.346213    7930.3708    9022.9644    8220.9984    8257.4079   -630.06832    1.8889942   -1956.0958   -3290.4073 
 1647000    271.46537   -4844.4781   -4301.5138   -4844.4781            0    6565.5028    18.144593    22.746747    19.384353     8000.513    7218.2014    6547.8086    5930.4985    527.61165    -82.33069     2619.792   -3535.4557 
 1648000     260.7838   -4797.0689   -4275.4691   -4797.0689            0    7355.5207    18.132081    22.591893    19.532673    8001.3256    6931.9198    7288.4265    7846.2157    763.70218   -1682.8909    900.37263   -3417.1451 
 1649000    271.72077   -4782.7123   -4239.2372   -4782.7123            0    6905.0813     18.21552    22.604945    19.440668    8004.9054     4855.346    8592.2852    7267.6127    20.493533    1012.7471    1502.5922    -3433.115 
 1650000     270.6799   -4820.3014   -4278.9082   -4820.3014            0     6892.928    18.120373    22.634355    19.472459     7986.492    5249.9353    8684.0027     6744.846   -249.69941    343.23951     58.01933   -3476.0558 
 1651000    285.13824   -4772.7793   -4202.4676   -4772.7793            0    9590.5645    18.295761    22.447814    19.369013    7954.8509    8889.6546    8963.2387      10918.8     302.0692   -839.38318   -1453.0129   -3089.8341 
 1652000    282.67682   -4811.0938   -4245.7052   -4811.0938            0    10130.126     17.93655    22.586912    19.443177    7877.0392    9003.9709    11563.079    9823.3269    911.36776    310.57687    1931.7949   -3081.9712 
 1653000    278.61607    -4807.374   -4250.1074    -4807.374            0    6980.0348    18.054495    22.866886    19.366467    7995.4473    5828.5037    7552.2396    7559.3609   -123.85982   -53.396101    1219.4392   -3436.1977 
 1654000    267.23654   -4798.1904   -4263.6843   -4798.1904            0    9262.0118    17.902902    22.749623    19.531495     7954.871    9349.4528    10023.589    8412.9931   -1419.4066    43.968098   -773.05082   -3189.1647 
 1655000    272.27016   -4807.1943   -4262.6203   -4807.1943            0    10503.201    18.123131    22.817746     19.16449    7925.0724    9197.9394    11499.309    10812.355     617.7139    1556.5114   -769.17688   -3048.6703 
 1656000    253.00059   -4784.0127   -4277.9802   -4784.0127            0    8636.3012    17.870434    22.797682    19.554585    7966.6252    10836.737    8271.9113    6800.2554   -210.09078    295.80159   -838.16765   -3274.5711 
 1657000     269.1014   -4797.6902   -4259.4541   -4797.6902            0    8220.9106    18.072213    22.885804    19.207715    7944.2556    6508.2427    9718.3143    8436.1748   -878.07759    953.60684    2523.9906   -3306.9891 
 1658000    262.87708   -4819.1998   -4293.4132   -4819.1998            0    6961.2321    17.874798    23.112585    19.301423    7974.0511    7769.6769    5704.6327    7409.3866   -1526.7216   -129.04882   -1607.6925   -3483.8682 
 1659000    260.30413   -4801.1431   -4280.5027   -4801.1431            0    9538.2285    17.926173    22.979811    19.246894    7928.5667    9788.6592    8373.5187    10452.507    48.950265    967.50578    1034.2785   -3177.5972 
 1660000    276.85031   -4799.1732   -4245.4384   -4799.1732            0    5987.2219    17.920122    23.147282    19.372923    8035.9295    6981.1512    6314.6709    4665.8436   -875.95884   -27.736488    1346.3041   -3543.7612 
 1661000    253.38754   -4790.7188   -4283.9124   -4790.7188            0    10209.741     17.93476    23.137019    19.066618    7911.8239    10781.534    9673.1718    10174.518     2421.359    1131.7702    622.45258   -3105.8529 
 1662000      259.542   -4765.8666   -4246.7505   -4765.8666            0    9373.0128    17.871764    23.044204    19.267374    7935.0861     10139.04     8670.579      9309.42   -384.04868   -1109.8232   -84.422261   -3162.0578 
 1663000    276.95254   -4817.8756   -4263.9363   -4817.8756            0    9753.6925    17.880211    23.089676     19.18771    7921.6131     9861.535    9212.7215    10186.821   -391.23555    947.53502   -511.42512   -3137.1058 
 1664000    254.60569   -4785.3582   -4276.1154   -4785.3582            0      8804.13    17.965915    22.957075    19.279543    7951.7483    9982.6887    8065.5079    8364.1934    1151.8184   -129.40214     1042.975   -3255.1172 
 1665000    263.02921   -4797.8072   -4271.7163   -4797.8072            0    8966.0246    17.909888    22.889942     19.41969    7961.2242    10135.053    7424.2893    9338.7317    433.09244   -594.79233   -1873.4536   -3230.7044 
 1666000    279.50687   -4774.3308   -4215.2826   -4774.3308            0    6471.3756     17.97863    22.906356    19.413719    7995.0527    7352.6051    6091.5992    5969.9224    990.50755    -134.1946    89.974614   -3460.7225 
 1667000    265.66344   -4800.0416   -4268.6819   -4800.0416            0    9551.2062    18.049836    22.683344    19.323339    7911.5672    9417.8553    9569.5176    9666.2456    -228.8394    -838.7026   -2003.5347   -3166.6437 
 1668000     275.9721   -4786.0627   -4234.0844   -4786.0627            0      10045.5    18.017436     22.84836    19.311468    7949.9303    10551.364    9786.3483    9798.7893   -219.64428   -135.90408   -435.89449   -3069.3932 
 1669000     280.5501   -4777.2102   -4216.0753   -4777.2102            0    10575.069    17.957046    22.953336    19.249999    7934.3513    9902.4675    10033.513    11789.227   -264.99182    182.98317    396.69349   -2992.3878 
 1670000    274.17244   -4791.4942   -4243.1155   -4791.4942            0    7468.2866    17.888916    22.940471    19.442954    7979.0025    10334.872     6820.095    5249.8929   -159.19147   -888.38327   -87.670165   -3374.0641 
 1671000    287.74372   -4826.5896   -4251.0666   -4826.5896            0    6940.3597    18.139846    22.883934    19.255299    7993.0872    5841.4267     6622.455    8357.1974   -459.02529     1409.569    -131.0635   -3442.0221 
 1672000    259.78424   -4801.9994   -4282.3988   -4801.9994            0    8068.8775    17.930601    22.889485    19.419577    7970.2259    8249.4197    8260.9188    7696.2941   -1148.5002    -215.0359    1277.7252   -3344.4921 
 1673000    273.47025   -4835.0026   -4288.0283   -4835.0026            0    8024.6594     17.95828    23.111364    19.090318    7923.2522    5721.6719     8581.374    9770.9324   -799.99017    1022.6731   -841.29056   -3360.7588 
 1674000    260.57195   -4800.5088   -4279.3327   -4800.5088            0     7764.771     17.93472    22.877533    19.440639     7976.536    7455.5866    7925.7875    7912.9389     516.0321   -80.530373    1894.7387   -3376.0601 
 1675000    267.36314   -4806.8702   -4272.1109   -4806.8702            0    8387.6388    18.015672    22.921112    19.305309    7971.9192     9045.762    7486.8511    8630.3034   -123.04332   -300.02902   -36.971931    -3296.945 
 1676000    266.95721     -4797.24   -4263.2926     -4797.24            0    8705.9335    17.997689    23.020824    19.146382    7932.7601    7836.8209    8097.7083    10183.271     963.3606    470.06679   -740.42881    -3256.093 
 1677000    287.67055   -4815.4966     -4240.12   -4815.4966            0    7581.8261    17.928712    22.735686    19.505578    7950.8939    8425.1627    7383.8079    6936.5077    219.02517   -289.41931     46.98255   -3360.9645 
 1678000    280.41487   -4812.3811   -4251.5168   -4812.3811            0    6695.3616    18.266515    22.722741    19.248562    7989.4098    5385.8245    6505.4782    8194.7822    1422.9817   -261.04852    503.17583    -3471.391 
 1679000    274.12194   -4793.2564   -4244.9787   -4793.2564            0    8361.0011    17.854279    22.707932    19.682214    7979.8336    8224.1855     10072.21    6786.6082   -1231.3861    817.28802    253.16202   -3271.9447 
 1680000     272.7852   -4799.4123   -4253.8082   -4799.4123            0    5949.8846     18.39758    22.388831     19.55261    8053.7259    4988.9193    6872.3435    5988.3911    425.09984   -2870.6409    350.97286   -3554.9625 
 1681000    269.36532   -4808.8589    -4270.095   -4808.8589            0    10494.526     18.07922    22.582397    19.336678    7894.6265    10490.201    11279.047    9714.3301   -230.88782   -130.05306   -1251.1656   -3061.8074 
 1682000    274.08462   -4797.5657   -4249.3626   -4797.5657            0    8510.6964    18.126972    22.722435    19.428266    8002.2877    8381.2649    8618.7963     8532.028    108.21257    36.495761    1624.1824   -3256.1204 
 1683000    262.99512   -4805.0877    -4279.065   -4805.0877            0    8615.1548    18.101342      22.5929    19.358626    7916.9388    8219.7819    9675.2551    7950.4274    897.76451   -268.39173    749.45203   -3284.3555 
 1684000    260.86501   -4815.7874   -4294.0252   -4815.7874            0    8181.9972    17.976123    22.898984    19.315568     7950.963    10138.255    7485.7649     6921.972   -915.14192    1306.2735    441.30089   -3345.2683 
 1685000    283.97885   -4804.0704   -4236.0776   -4804.0704            0    8191.4425    18.100293    22.939816    19.285055    8007.4903    9209.5481     7678.922    7685.8573    456.07224   -282.64285   -1066.3611   -3279.4725 
 1686000    280.53287   -4798.6718   -4237.5714   -4798.6718            0    8631.6275    17.896751    22.874152    19.426169    7952.5493    8374.6462     9737.562    7782.6745    568.18024    483.32966    144.77531   -3236.4772 
 1687000    263.28719   -4801.3595   -4274.7526   -4801.3595            0    7104.2168    18.033277    23.116694    19.134411    7976.5572    7152.2273    6038.3742     8122.049   -1140.3283   -1217.7238   -1052.7347   -3448.3198 
 1688000    276.00766   -4790.6871   -4238.6377   -4790.6871            0    7835.0601    17.805142    23.037092    19.385716    7951.6076    8380.1603    7939.7669     7185.253    -1072.595    109.42786   -1348.4764   -3330.0368 
 1689000    265.51891   -4821.0855   -4290.0148   -4821.0855            0    9505.8368    18.134125    22.959042    19.056066    7933.8432     7545.626      9678.83    11293.054    1508.9506     190.1251    3749.8266   -3190.1233 
 1690000    296.10289   -4796.5174   -4204.2751   -4796.5174            0    8528.0705    17.840135    22.966407    19.449231    7968.8124    11872.906    7709.5733    6001.7325   -337.63547   -1170.1735     793.1618   -3213.1687 
 1691000    275.26361   -4792.3899   -4241.8287   -4792.3899            0    7445.7761    18.067104    23.068946    19.161014    7986.1004    7464.4622     6434.268     8438.598    87.693796   -896.64282    146.89202   -3374.6259 
 1692000    278.21522   -4797.7594   -4241.2946   -4797.7594            0    9601.3974    17.737233    23.011438     19.46514    7944.8763    10660.578    8648.8661    9494.7483   -2111.9938    514.72569   -846.13773   -3128.8011 
 1693000    281.43293   -4814.6032   -4251.7025   -4814.6032            0    8720.0404    17.980236    22.886693    19.226135    7911.7114    7603.8367    9563.8205    8992.4639   -871.64274    689.23943    8.8040718   -3245.5477 
 1694000    259.29189   -4765.0937   -4246.4779   -4765.0937            0    8856.3044    17.802106    23.059942    19.345727    7941.7214    10902.992    7808.3592     7857.562   -645.40894    -906.3385   -2131.2947   -3220.7243 
 1695000    264.64422   -4776.1525   -4246.8314   -4776.1525            0    8064.3201    17.900716    23.221672    19.140765    7956.5203     7919.932    7814.5824    8458.4459   -1646.4395    -780.1817   -1353.6937   -3311.0663 
 1696000    271.40363   -4814.5251   -4271.6843   -4814.5251            0    7110.6745    17.936479    23.019721    19.423625     8019.874      6491.92    7309.1552    7530.9481    267.32081    1003.0034    1003.0328   -3440.0082 
 1697000    276.05999    -4808.197   -4256.0429    -4808.197            0    9663.3357    18.013687    22.711849      19.3329    7909.5561    10948.311    9445.4304    8596.2654    71.496641    -819.8294   -120.03457   -3141.3505 
 1698000    270.40743    -4799.738   -4258.8897    -4799.738            0    7821.3844    17.794671    22.886535    19.482953    7934.5954    8965.2035    7605.3219    6893.6277    134.34924   -205.24298   -516.80055   -3353.8153 
 1699000    280.04266   -4799.6881   -4239.5682   -4799.6881            0    7962.2315    18.105041    22.925716     19.18658    7963.7934    6053.9796     8332.494     9500.221    1070.1845    1597.1899   -299.57503   -3314.8047 
 1700000     265.9165   -4791.7675   -4259.9017   -4791.7675            0    8944.9944    17.914067    22.856996    19.395879    7941.8706    9555.5673    9482.3221    7797.0938     1303.347    777.38696   -1775.2926   -3223.8563 
 1701000    279.14498   -4820.8319   -4262.5075   -4820.8319            0    8766.4922    18.062831    22.847769    19.281162     7957.247    8251.8163    8764.1338    9283.5264    1286.4331   -599.60181   -17.910387   -3245.1711 
 1702000    262.34117   -4777.0415   -4252.3267   -4777.0415            0    8602.2102    17.900119    22.841411    19.464077      7958.16    7142.6878    10300.848    8363.0945    2671.1191    1268.2556    591.94693   -3253.9404 
 1703000    260.52371   -4809.6416    -4288.562   -4809.6416            0    7945.7641    18.073317    22.880299     19.26884    7968.1065    7761.3692    6766.2668    9309.6563    1446.4876   -957.36663   -1420.2018   -3365.2113 
 1704000    259.49009   -4822.1633   -4303.1511   -4822.1633            0    8909.1935    18.240384    22.538146     19.38186     7967.969    7288.1505     9870.211    9569.2191   -674.96164    151.16212   -796.52895   -3267.8613 
 1705000    268.69882   -4826.1366   -4288.7058   -4826.1366            0    8793.9227    17.946834    22.584753    19.514618    7909.7588    8441.4603    9221.4425    8718.8653   -272.19329   -342.91743    22.901529   -3274.2765 
 1706000    268.25048   -4817.7476   -4281.2135   -4817.7476            0    6366.8799    18.093321    22.767241    19.402887    7992.7282    6748.0498    7051.7643    5300.8257   -336.13327   -327.54224   -917.64034   -3539.0535 
 1707000    268.09082   -4794.3356   -4258.1208   -4794.3356            0    7211.5967     18.25394    22.780162    19.189922     7979.701    5191.1514    7684.8223    8758.8163   -429.09936   -1255.9694    475.53764   -3418.8658 
 1708000    274.49377   -4787.2126   -4238.1912   -4787.2126            0    7620.6308    17.948034    22.883339    19.424549    7977.8751    7515.5709    8036.7527    7309.5686   -1297.6968   -591.80223   -1479.9964   -3351.5374 
 1709000    281.43884   -4819.2838   -4256.3714   -4819.2838            0    9756.9772    18.009038    22.815353    19.199697    7888.8204    8228.0979    10136.672    10906.162    295.05331    278.47863    1789.2276   -3133.8277 
 1710000    270.74932   -4786.1513   -4244.6192   -4786.1513            0    6530.3813    17.849059    22.987798    19.535618    8015.6707    7636.9357     6518.031    5436.1771    -277.3126    226.28774   -1073.9456   -3481.2154 
 1711000    287.63663   -4827.9436   -4252.6348   -4827.9436            0    9253.2607    18.052999    22.777528    19.221552    7903.9541    8780.4051    9557.9943    9421.3827   -513.38482   -139.53389    292.48416   -3186.0016 
 1712000    271.13156   -4794.1428   -4251.8462   -4794.1428            0    9136.7747    18.134816    22.648953    19.288824    7922.5871    10626.305    9614.1276    7169.8914   -912.90962   -977.87811   -1857.1367   -3196.1576 
 1713000    273.62573   -4808.8745   -4261.5892   -4808.8745            0     7770.143    17.829814    23.022497      19.4007    7963.7317    7295.8242    8689.7245    7324.8804    2329.9763   -805.58513    197.37593   -3359.1426 
 1714000    269.99732   -4799.6893   -4259.6613   -4799.6893            0    6807.9157    17.883972    23.179204    19.265885    7986.4075    7584.1526    6085.1179    6754.4765   -521.91562   -598.17859    690.83008   -3466.7191 
 1715000    256.27161   -4824.6771   -4312.1023   -4824.6771            0    7642.0251    17.903078    23.093307    19.225515     7948.621    8554.2214    6762.3219     7609.532   -1503.2284    633.94647    282.77106   -3426.2197 
 1716000    270.80012   -4810.4064   -4268.7727   -4810.4064            0    8457.2401    17.998738    22.992379    19.320617    7995.5246    8163.1985    9725.6437    7482.8779   -1013.5725    1255.0904   -167.92448   -3282.6033 
 1717000    265.33688   -4835.4066   -4304.7001   -4835.4066            0    6714.0209    18.101389    22.829196    19.344123    7993.7686    5214.7415    8533.3979    6393.9232    103.82434    1591.2949     60.12188   -3521.9734 
 1718000    270.75828   -4776.8535   -4235.3035   -4776.8535            0    7836.2967    17.969387    22.956554    19.407155    8005.7465    6209.8262    8313.3988    8985.6649    278.50179   -1727.0516    281.18026   -3320.3719 
 1719000    278.55987    -4810.288   -4253.1339    -4810.288            0    8464.2565    18.053749    22.897447    19.158501    7919.8326    8203.9085    7365.8441    9823.0169   -200.35904   -736.73517    871.35624     -3275.49 
 1720000    254.87284   -4803.1771   -4293.3999   -4803.1771            0    8633.8158    17.822799    22.862317    19.401287    7905.4517    10669.625    8344.0364    6887.7861    254.65872   -499.55329    167.24876   -3297.9822 
 1721000    269.99304   -4808.1984   -4268.1789   -4808.1984            0    8649.0713    18.096038    22.842122    19.246723    7955.6696    6654.9973    9346.2739    9945.9425   -446.44751   -615.58477   -50.077653    -3264.668 
 1722000    269.28504   -4836.7699   -4298.1665   -4836.7699            0    8931.2744    17.899701    22.670456    19.562962    7938.5401    11329.775     9119.509    6344.5395    257.69778    140.07563   -300.53644   -3264.1441 
 1723000      263.034   -4817.9025   -4291.8019   -4817.9025            0    8330.4647     18.16001    22.607387    19.380228      7956.56    6499.6707    8178.5089    10313.215    687.02102   -495.73634   -2772.3807   -3325.1493 
 1724000    262.41452   -4783.6319   -4258.7705   -4783.6319            0    8764.5715    17.912216    22.834888    19.507888    7979.1836    8500.2324    10104.203    7689.2796    1336.4131     1528.235    565.06089    -3238.853 
 1725000    267.90998   -4817.4306   -4281.5776   -4817.4306            0    9560.1323    18.081652    22.832761    19.113623    7891.1364    7610.5974    10128.913    10940.886    1270.8718    1042.0488   -2321.8994   -3181.3581 
 1726000    264.08665   -4800.4074   -4272.2014   -4800.4074            0    6408.6732    17.799267    23.019546    19.544179     8007.857    8889.2127    5339.6226    4997.1842    1471.8849   -1991.7292    1719.8163   -3523.7557 
 1727000    290.96504   -4783.9023   -4201.9363   -4783.9023            0    8870.1921     18.06734    22.937183    19.204257    7958.5109    9582.0558    8595.7471    8432.7734   -19.381229   -189.15354    1185.5944   -3172.4022 
 1728000    280.42957   -4791.8905   -4230.9967   -4791.8905            0     9590.477    18.065676    22.884805    19.246304    7956.9893    9437.4238    9975.3891     9358.618    1463.1372      756.969    968.22549   -3118.0744 
 1729000     266.5143   -4771.7628   -4238.7012   -4771.7628            0    8541.4885    17.805043    22.931713    19.520276    7970.1313     10024.53    8166.0234    7433.9123    796.68526    -1360.816    239.08414   -3245.8712 
 1730000    282.19879   -4779.8528   -4215.4204   -4779.8528            0    6140.5352    18.231079    22.975138    19.170492    8029.7821    5613.9935    6015.4568    6792.1553    924.19724   -338.99391   -521.53155    -3496.326 
 1731000    284.25808   -4795.0052   -4226.4539   -4795.0052            0    9030.8683     17.87704    22.686032    19.595045    7946.9493    9133.5989    10507.291    7451.7148    1329.8403    871.34331   -822.25692   -3179.7934 
 1732000     272.5479   -4802.7808   -4257.6513   -4802.7808            0    8392.0231     18.07583    22.860708    19.260698    7959.0267    8462.8879     8382.505    8330.6765   -2160.6119    -21.93727   -744.21544   -3283.5536 
 1733000    262.33071   -4808.4564   -4283.7625   -4808.4564            0    7754.9623    17.999755    22.848374     19.44699    7997.8691     9175.762    8469.0503    5620.0745    363.76174    608.78273    1097.8034   -3379.2182 
 1734000    278.05727   -4787.0225   -4230.8736   -4787.0225            0    7680.7386    17.961253    22.847293    19.332188    7933.2731    9404.3364    7167.8895      6469.99    541.76969   -1053.3249    1721.3293   -3342.2225 
 1735000    252.61718    -4798.627   -4293.3614    -4798.627            0    8076.6918    18.006552    22.874004    19.386683    7985.0242    10036.955    7166.1005    7027.0198   -938.71645   -787.88588     629.1237   -3352.8033 
 1736000    276.94446   -4817.4485   -4263.5253   -4817.4485            0    10206.645    18.013026    22.663639    19.298321    7878.3605    10330.412    10052.311    10237.211   -2374.9134   -38.299003   -1708.4401   -3090.8042 
 1737000    266.66476   -4807.7217   -4274.3592   -4807.7217            0    6522.2137    18.041063    22.942437    19.366229    8015.7976    7780.5338    6191.9417    5594.1658     757.1835   -395.71801    1302.8536   -3511.8982 
 1738000    278.84345    -4804.694   -4246.9727    -4804.694            0    8179.3439    17.902592    22.833221    19.526184    7981.7935    9125.1083     7657.667    7755.2565    486.55934    716.21405    -1522.174   -3294.8457 
 1739000    258.81977   -4766.7332   -4249.0617   -4766.7332            0    9147.0684    18.173445    22.605531     19.30147    7929.4371    9120.9053    9465.4007    8854.8992    554.24975    36.853133    -1331.036     -3191.27 
 1740000    274.10349   -4793.3519    -4245.111   -4793.3519            0    7557.7249    17.944481    22.817007    19.532507    7997.3767    5798.8522    8923.2319    7951.0905    36.192663    262.19832    472.38656   -3363.6268 
 1741000      261.852   -4809.5469   -4285.8106   -4809.5469            0    7339.8346    18.129235    22.742684    19.335171    7972.0354    7167.1198    6871.2806    7981.1034    461.47937   -1249.8041   -2181.8395   -3432.4523 
 1742000     272.8291   -4816.0169    -4270.325   -4816.0169            0     6526.784      18.0953    22.675694    19.509394    8005.1624    7919.3009    6471.5248    5189.5262   -542.36792   -354.48065   -1600.7037    -3508.342 
 1743000    288.70308   -4808.1599    -4230.718   -4808.1599            0    7489.6487    18.211479     22.75501    19.309117    8001.7438    6876.4918    7331.2247    8261.2296   -102.77641    252.59309    1509.4613   -3356.6968 
 1744000    264.18878   -4769.7124   -4241.3022   -4769.7124            0    10502.558    17.956565    22.805699    19.340137    7920.0185     11363.94    10584.839    9558.8957    1021.6921   -150.32893   -1344.3544   -3028.2006 
 1745000    283.53553    -4777.489   -4210.3829    -4777.489            0    10147.259    17.901963    22.892853    19.320741    7918.1613    10795.174    9027.1829    10619.421   -332.27397   -519.12475    321.00638    -3038.595 
 1746000    270.92156    -4795.975   -4254.0985    -4795.975            0    8254.9705    17.922613    23.047971    19.184901    7924.8965    8022.3264    6923.1984    9819.3867   -181.72561    -526.4976   -595.87241    -3300.018 
 1747000    280.13651   -4830.9283   -4270.6207   -4830.9283            0    6473.6548    17.992425    23.166419    19.190482    7998.9777    8046.7964    4936.6438    6437.5241    1032.5246   -636.74688   -311.13042   -3515.4243 
 1748000    275.66737   -4778.1977   -4226.8289   -4778.1977            0    8652.8193    17.849484    23.016191    19.339674    7945.2631    9150.4444    10187.429    6620.5847   -42.475419   -510.46478   -1012.1917   -3224.1964 
 1749000    276.19042   -4821.6887   -4269.2737   -4821.6887            0    9856.5822    17.953768    23.016624    19.110101    7896.9652    9045.4575    9671.4002    10852.889   -1621.7593   -17.746542   -2226.0993   -3134.0996 
 1750000    280.41471   -4789.2877   -4228.4236   -4789.2877            0     8978.936    17.841382    23.039989    19.436261    7989.5714    9932.7245    8331.4747    8672.6088    411.94929    429.96303   -901.67483   -3182.2007 
Loop time of 511.008 on 64 procs for 250000 steps with 1008 atoms

Performance: 84.539 ns/day, 0.284 hours/ns, 489.229 timesteps/s
193.6% CPU use with 32 MPI tasks x 2 OpenMP threads

MPI task timing breakdown:
Section |  min time  |  avg time  |  max time  |%varavg| %total
---------------------------------------------------------------
Pair    | 36.851     | 40.04      | 44.357     |  28.4 |  7.84
Bond    | 0.7995     | 1.0152     | 1.394      |  11.5 |  0.20
Kspace  | 253.67     | 261.22     | 269.96     |  28.1 | 51.12
Neigh   | 4.6742     | 5.0088     | 5.488      |  13.0 |  0.98
Comm    | 78.042     | 85.861     | 91.746     |  45.5 | 16.80
Output  | 0.83022    | 0.83053    | 0.83208    |   0.0 |  0.16
Modify  | 96.179     | 98.656     | 100.63     |  10.2 | 19.31
Other   |            | 18.37      |            |       |  3.60

Nlocal:        31.5000 ave          36 max          28 min
Histogram: 4 5 3 4 0 4 3 6 2 1
Nghost:        2892.19 ave        2928 max        2870 min
Histogram: 2 8 6 3 5 1 2 3 0 2
Neighs:        10463.7 ave       11955 max        9210 min
Histogram: 4 4 4 2 2 4 3 6 1 2

Total # of neighbors = 334839
Ave neighs/atom = 332.18155
Ave special neighs/atom = 2.0000000
Neighbor list builds = 10423
Dangerous builds = 0

unfix		3
unfix		2
unfix		1

write_data	data.final.${pid}
write_data	data.final.1
System init for write_data ...
PPPM initialization ...
  extracting TIP4P info from pair style
  using 12-bit tables for long-range coulomb (../kspace.cpp:340)
  G vector (1/distance) = 0.38374176
  grid = 24 30 36
  stencil order = 5
  estimated absolute RMS force accuracy = 0.0019067472
  estimated relative force accuracy = 5.7421125e-06
  using double precision FFTW3
  3d grid and FFT values/proc = 6048 1440
Last active /omp style is kspace_style pppm/tip4p/omp
WARNING: Not all mixed pair coeffs generated from mixing. Use write_data with 'pair ij' option to store all pair coeffs. (../write_data.cpp:312)

write_restart   restart.lmp.${pid}
write_restart   restart.lmp.1
System init for write_restart ...
PPPM initialization ...
  extracting TIP4P info from pair style
  using 12-bit tables for long-range coulomb (../kspace.cpp:340)
  G vector (1/distance) = 0.38374176
  grid = 24 30 36
  stencil order = 5
  estimated absolute RMS force accuracy = 0.0019067472
  estimated relative force accuracy = 5.7421125e-06
  using double precision FFTW3
  3d grid and FFT values/proc = 6048 1440
Last active /omp style is kspace_style pppm/tip4p/omp
Total wall time: 0:08:31
