#include		in.partitions
include		in.temp
variable        temperature equal 80.10
variable	tempDamp equal 100.0
include		in.pressure
variable        pressure equal 2030.0
variable        pressureDamp equal 1000.0 # This is 1 ps
include		in.seed
variable        seed equal 745823

units		real
atom_style	full
box tilt large
read_restart	restart.lmp.${pid}
read_restart	restart.lmp.0
Reading restart file ...
  restart file = 30 Jul 2021, LAMMPS = 30 Jul 2021
  restoring atom style full from restart
  triclinic box = (-10.599759 -9.1565407 0.10947568) to (12.579759 12.146539 21.750523) with tilt (-9.0977546 1.9214342 2.7651504)
  2 by 2 by 4 MPI processor grid
  restoring pair style lj/cut/tip4p/long/omp from restart
  restoring bond style harmonic/omp from restart
  restoring angle style harmonic/omp from restart
  1296 atoms
  864 bonds
  432 angles
Finding 1-2 1-3 1-4 neighbors ...
  special bond factors lj:    0        0        0       
  special bond factors coul:  0        0        0       
     2 = max # of 1-2 neighbors
     1 = max # of 1-3 neighbors
     1 = max # of 1-4 neighbors
     2 = max # of special neighbors
  special bonds CPU = 0.001 seconds
  read_restart CPU = 0.005 seconds
include 	in.setup
variable	out_freq equal 1000
variable	out_freq2 equal 10000
variable	out_freq3 equal 1000

timestep	2.0

neigh_modify    delay 7 every 1

include		in.tip4p
# This is TIP4P/Ice

# create groups ###
group ox type 2
432 atoms in group ox
group hy type 1
864 atoms in group hy

# set charges - beside manually ###
set group ox charge -1.1794
Setting atom values ...
  432 settings made for charge
set group hy charge 0.5897
Setting atom values ...
  864 settings made for charge

# ### TIP3P Potential Parameters ###
pair_style lj/cut/tip4p/long/omp 2 1 1 1 0.1577 8.5
pair_coeff 1 1*2 0.000 0.000
pair_coeff 2 2 0.21084 3.1668
bond_style  harmonic
bond_coeff  1 450 0.9572
angle_style harmonic
angle_coeff 1 55 104.52
kspace_style pppm/tip4p/omp 1.0e-5
pair_modify tail yes

thermo          ${out_freq}
thermo          1000
thermo_style    custom step temp pe etotal epair emol press lx ly lz vol pxx pyy pzz pxy pxz pyz enthalpy

restart 	${out_freq3} restart.lmp.${pid} restart2.lmp.${pid}
restart 	1000 restart.lmp.${pid} restart2.lmp.${pid}
restart 	1000 restart.lmp.0 restart2.lmp.${pid}
restart 	1000 restart.lmp.0 restart2.lmp.0


include         in.dump
dump            myDump all atom ${out_freq2} dump.water.${pid}
dump            myDump all atom 10000 dump.water.${pid}
dump            myDump all atom 10000 dump.water.0
dump            myDump2 all dcd ${out_freq2} dump.dcd
dump            myDump2 all dcd 10000 dump.dcd
dump_modify     myDump append yes
dump_modify     myDump2 append yes


variable natoms 	equal  "count(all)"                        # NUMBER ATOMS
variable H      	equal  "enthalpy/v_natoms"                 # ENTHALPY-per-atom
variable Vol      	equal  "vol/v_natoms"                 # volume-per-atom
fix AVG all 		ave/time ${out_freq} 1 ${out_freq} v_Vol v_H file vol_enthalpy.dat
fix AVG all 		ave/time 1000 1 ${out_freq} v_Vol v_H file vol_enthalpy.dat
fix AVG all 		ave/time 1000 1 1000 v_Vol v_H file vol_enthalpy.dat


timer           timeout 10:00:00 every 1000
New timer settings: style=normal  mode=nosync  timeout=10:00:00

fix 		1 all shake 1e-6 200 0 b 1 a 1
       0 = # of size 2 clusters
       0 = # of size 3 clusters
       0 = # of size 4 clusters
     432 = # of frozen angles
  find clusters CPU = 0.000 seconds
fix             2 all nph tri ${pressure} ${pressure} ${pressureDamp}
fix             2 all nph tri 2030 ${pressure} ${pressureDamp}
fix             2 all nph tri 2030 2030 ${pressureDamp}
fix             2 all nph tri 2030 2030 1000
fix             3 all temp/csvr ${temperature} ${temperature} ${tempDamp} ${seed}
fix             3 all temp/csvr 80.1 ${temperature} ${tempDamp} ${seed}
fix             3 all temp/csvr 80.1 80.1 ${tempDamp} ${seed}
fix             3 all temp/csvr 80.1 80.1 100 ${seed}
fix             3 all temp/csvr 80.1 80.1 100 745823


run             250000
PPPM initialization ...
  extracting TIP4P info from pair style
  using 12-bit tables for long-range coulomb (../kspace.cpp:340)
  G vector (1/distance) = 0.36833629
  grid = 27 40 32
  stencil order = 5
  estimated absolute RMS force accuracy = 0.0043101849
  estimated relative force accuracy = 1.2979994e-05
  using double precision FFTW3
  3d grid and FFT values/proc = 10353 2240
Last active /omp style is kspace_style pppm/tip4p/omp
Neighbor list info ...
  update every 1 steps, delay 7 steps, check yes
  max neighbors/atom: 2000, page size: 100000
  master list distance cutoff = 10.8154
  ghost atom cutoff = 10.8154
  binsize = 5.4077, bins = 7 5 5
  1 neighbor lists, perpetual/occasional/extra = 1 0 0
  (1) pair lj/cut/tip4p/long/omp, perpetual
      attributes: half, newton on, omp
      pair build: half/bin/newton/tri/omp
      stencil: half/bin/3d/tri
      bin: standard
Per MPI rank memory allocation (min/avg/max) = 12.66 | 12.67 | 12.68 Mbytes
Step Temp PotEng TotEng E_pair E_mol Press Lx Ly Lz Volume Pxx Pyy Pzz Pxy Pxz Pyz Enthalpy 
32250000    83.155399    -6805.676   -6591.7638    -6805.676            0     2811.536    23.179518    21.303079    21.641048    10686.243    2574.9062    3287.4505    2572.2513   -279.49964   -89.122602   -298.28182   -6153.5918 
32251000    81.238651   -6815.8413   -6606.8598   -6815.8413            0    1627.5748    23.230272    21.379332    21.599785    10727.483    822.87096    1256.1748    2803.6786    230.22775    109.84106     1103.784   -6352.2268 
32252000     80.17914   -6813.5447   -6607.2887   -6813.5447            0     1905.873    23.230853    21.342495    21.631116    10724.802    1783.7465    2561.9287    1371.9438   -874.23444    144.95064   -396.33288   -6309.1907 
32253000    78.724092   -6812.2312   -6609.7183   -6812.2312            0    1906.6691    23.246609    21.385528     21.60941    10742.924    1268.8494    1546.5381    2904.6199   -441.45789    160.35954    171.38622   -6310.9918 
32254000    75.748265     -6814.86   -6620.0022     -6814.86            0    2892.2469     23.16085    21.343915    21.624161    10689.757    3172.6101    2956.2863    2547.8443   -426.76051   -482.51761    -618.0052   -6169.1034 
32255000    79.826169   -6815.2036   -6609.8556   -6815.2036            0    2150.4921    23.275981    21.258325    21.677964    10726.438    2635.7837    2220.9553    1594.7374     106.6621   -1393.2382   -673.28057   -6273.4453 
32256000    80.029466   -6807.8279    -6601.957   -6807.8279            0     1996.408    23.117504    21.423218    21.646868     10720.64    2192.3815    1437.0742    2359.7682    435.55745   -579.17952    991.35735   -6289.8195 
32257000    80.096436   -6817.1667   -6611.1235   -6817.1667            0    2448.9613    23.292078    21.199143      21.6741    10702.066    1754.7988    2990.4172    2601.6679    547.81191    -60.91379     751.5153   -6228.8929 
32258000    83.397158    -6817.715   -6603.1809    -6817.715            0    1637.5895    23.169109    21.431374    21.627308     10738.95    1914.4693    1312.8658    1685.4333   -43.095491    408.82512   -232.30103   -6346.7073 
32259000    82.491927   -6808.2158   -6596.0104   -6808.2158            0    1903.2394    23.288373    21.323907     21.63873    10745.774    1356.9415    1902.0753    2450.7014   -157.97723    257.64528    441.26331   -6297.7422 
32260000    82.075721   -6815.2587   -6604.1239   -6815.2587            0    2434.2977    23.220713    21.436087    21.501414     10702.57      2712.74    1968.1043    2622.0488   -280.16255   -196.33486   -647.06423   -6224.1641 
32261000    80.382433   -6814.5528   -6607.7739   -6814.5528            0    1780.4842    23.335929    21.378657    21.502113    10727.207    913.40122    1905.6303    2522.4211   -361.99805    510.97987    -504.2036   -6329.2255 
32262000    83.139793   -6809.2952   -6595.4232   -6809.2952            0    2286.4112    23.244366    21.354582     21.59569    10719.533    2150.3796    1764.3269    2944.5273    88.210266   -669.03335   -82.967953   -6237.9808 
32263000    79.723949   -6805.9713   -6600.8863   -6805.9713            0    1929.4627    23.265087    21.400626    21.557342    10733.129    2394.1741    1434.7205    1959.4935   -625.32213    136.53309    71.828337   -6298.8642 
32264000    72.817598   -6804.7789     -6617.46   -6804.7789            0    1788.6081    23.298821    21.300032    21.614215    10726.392    1698.2585     1365.881    2301.6848   -347.01487   -468.42499    1191.8529   -6337.6619 
32265000    82.169126   -6818.7603   -6607.3852   -6818.7603            0    2128.8613    23.194397    21.388983    21.627667    10729.585    1904.4239    2278.6896    2203.4704    41.118911     433.9847    358.45911    -6274.261 
32266000    79.397422   -6811.3918   -6607.1468   -6811.3918            0    2673.8725    23.299244    21.219393    21.635488    10696.495    2090.1333    3353.5446    2577.9394    346.13451    263.75078    480.40345   -6190.0296 
32267000    80.844927   -6814.0072   -6606.0385   -6814.0072            0    2335.4825     23.14397    21.443225    21.573401    10706.476    2251.2623    1841.8238    2913.3615    28.329766    642.72636    318.64571   -6241.3693 
32268000    77.460119   -6816.7771   -6617.5156   -6816.7771            0    1899.5943    23.269489    21.353381    21.621041    10743.112    1715.1123     1588.026    2395.6445   -577.09126   -241.46733   -448.09746   -6319.8924 
32269000    78.419959   -6815.3423   -6613.6117   -6815.3423            0    1086.6327    23.227199    21.460431    21.616636    10775.152    1373.9341    538.07388    1347.8903    -156.1077   -385.92995   -532.93009   -6442.8533 
32270000    77.899658   -6812.3409   -6611.9487   -6812.3409            0     2471.061    23.256111    21.327061     21.58337    10705.017    2542.9415    2390.7672    2479.4742    636.17331   -702.49465   -451.47644   -6226.1625 
32271000    77.685293   -6818.9283   -6619.0876   -6818.9283            0    1941.6302    23.236455    21.329202    21.648537     10729.34    1626.7088    2071.6347    2126.5471   -305.42051    338.89507   -191.86528   -6315.2682 
32272000    81.625555   -6816.8015   -6606.8247   -6816.8015            0    1916.5705    23.182995    21.383468    21.627363    10721.394    2166.6375    2095.5949    1487.4792   -944.04636     54.66997   -32.825808   -6307.1488 
32273000    81.376262   -6820.5098   -6611.1743   -6820.5098            0    1471.4841     23.36304    21.284943    21.612941    10747.704    398.33754    1529.5138    2486.6008    435.65238    490.61128    1225.6453   -6380.5277 
32274000    86.542919   -6808.6331   -6586.0067   -6808.6331            0    2021.3462    23.248229    21.379789    21.580668    10726.503    1865.1578    2174.8745    2024.0064    810.92181     366.0962    722.27206   -6269.7973 
32275000    84.395797   -6812.1848   -6595.0818   -6812.1848            0    2625.4427    23.268477     21.34036    21.553255    10702.434    2269.4781     2670.734     2936.116    86.911869    -855.7774   -255.94508   -6185.2921 
32276000    82.663494   -6809.8516   -6597.2048   -6809.8516            0    1921.2312    23.302429    21.450616     21.45165    10722.639    1926.2655    1073.6026    2763.8256   -269.24028   -687.72683   -211.45219   -6296.7652 
32277000    81.588036   -6809.1637   -6599.2834   -6809.1637            0    2929.1972    23.238729    21.350839    21.507774    10671.434    2479.1054    3069.7009    3238.7852   -306.17404    233.79874    51.792798   -6143.4068 
32278000    78.030956    -6817.781   -6617.0512    -6817.781            0     1906.589    23.275286    21.393064    21.544672    10727.731    1468.3657    1812.3353    2439.0659    159.21885    20.464391    1025.4894   -6318.7597 
32279000    77.586967   -6815.2893   -6615.7016   -6815.2893            0    2152.8041    23.282537    21.298276    21.612927    10717.373    1648.0218    2251.4059    2558.9845    485.25521   -138.19418    973.73479   -6279.2142 
32280000    83.453977   -6810.7431   -6596.0628   -6810.7431            0    2303.4886     23.21824    21.365903     21.59375    10712.199    2039.2206    2553.2918    2317.9534    805.29495    191.09434    72.120357    -6236.197 
32281000    80.184879   -6804.0201   -6597.7494   -6804.0201            0    2097.1032    23.276389     21.35424    21.582419    10727.533    1741.5271    1959.6791    2590.1035   -98.314078   -561.89555    517.24984   -6269.6575 
32282000    80.685713   -6808.0416   -6600.4825   -6808.0416            0    2135.6957    23.266425    21.424111    21.518928    10726.378    1439.9471    1575.6901    3391.4499   -460.55388    560.35591   -165.02888   -6266.3887 
32283000     81.07022   -6817.6464   -6609.0982   -6817.6464            0    2432.0056    23.210377    21.347322    21.629494    10716.969    2830.6762    2128.5276     2336.813    277.62917   -128.25518   -387.55893   -6228.9855 
32284000     80.05097   -6818.8034   -6612.8772   -6818.8034            0    1509.4157    23.232102    21.363371    21.648987    10744.739    1314.9663    1488.1476    1725.1332    124.59318    -86.75937    254.75774   -6376.3502 
32285000    77.814183   -6818.9344   -6618.7621   -6818.9344            0    2409.9496    23.191514    21.333867    21.638677    10706.053     2619.934    2435.9455    2173.9695    43.675777    119.30745   0.94820856   -6242.4803 
32286000    78.709276   -6816.4639   -6613.9891   -6816.4639            0    2156.1468    23.212479    21.354571    21.602428    10708.162    1951.1672    2087.1514     2430.122   -680.34694   -463.64049   -76.514146   -6277.2689 
32287000    84.545248   -6821.9015    -6604.414   -6821.9015            0    2755.5715    23.175161    21.343807    21.591303    10680.055    2728.7624    2840.6799    2697.2721    510.50718    221.97248    325.18862   -6175.2127 
32288000    78.319688   -6810.5978   -6609.1251   -6810.5978            0    1805.7482    23.251873    21.309902    21.655471    10730.181    1522.9186    1840.8986    2053.4274    -31.58544    427.16545    211.19541    -6326.546 
32289000    80.443761   -6814.8302   -6607.8936   -6814.8302            0    1831.1323     23.21219    21.362291    21.645794    10733.404     2015.789    1972.3437    1505.2641    -511.8688    153.96338   -210.51623    -6321.256 
32290000    76.730659   -6811.2864   -6613.9015   -6811.2864            0    1461.9082    23.243565    21.359146    21.665104    10755.916    1337.6639    702.81881     2345.242    715.43003     40.78024    529.10513   -6384.5807 
32291000    78.677793   -6819.5017   -6617.1078   -6819.5017            0    1814.3989    23.224553    21.300448    21.696213    10732.973    1751.3312    1930.6248    1761.2408    284.86379   -48.751691    95.434476    -6333.101 
32292000    80.767419   -6819.5912    -6611.822   -6819.5912            0    2235.7451    23.126288    21.378173    21.678608    10717.856    3094.4213    1696.9039    1915.9102   -52.299682    193.17755   -383.49587   -6262.3551 
32293000    80.775882   -6812.6506   -6604.8595   -6812.6506            0    1967.3235    23.254129    21.264858    21.725175    10743.007    2598.0321    1706.5325    1597.4059   -912.68416    249.66078    14.599602   -6296.6277 
32294000    81.068645   -6813.8506   -6605.3065   -6813.8506            0     1963.528    23.155735    21.388273    21.664953     10729.81    1810.5028    1986.1374    2093.9438    178.70865    208.37523    196.91929   -6298.0472 
32295000    76.162382   -6825.7234   -6629.8003   -6825.7234            0    2101.8809    23.193685    21.305333    21.680101    10713.204    2451.6665    2209.6966    1644.2795   -19.786563   -485.30949    92.920217   -6301.4001 
32296000    79.110704   -6809.4549   -6605.9474   -6809.4549            0    1512.4191    23.236017    21.335882    21.678596    10747.401    1995.5626    608.36021    1933.3344    646.02571   -214.32475   -79.911946   -6368.8911 
32297000    79.675176   -6822.7238   -6617.7643   -6822.7238            0    1724.4892    23.190103    21.343518    21.707153    10744.137    1102.0855    2307.1088    1764.2732    -101.3052    96.835359     40.15839   -6347.5503 
32298000    81.240682   -6811.6623   -6602.6756   -6811.6623            0    2343.8114    23.226918    21.295601    21.671721    10719.509    2349.5545    2857.9632    1823.9164    654.52586     210.6707    -759.1915   -6236.2604 
32299000    80.215188   -6806.7232   -6600.3745   -6806.7232            0    1936.9641    23.204771     21.37515    21.649786    10738.413    2366.7588    877.23616    2566.8972    318.41539    2.4848872   -92.149859    -6297.029 
32300000    84.051864   -6823.8376   -6607.6193   -6823.8376            0    2313.6163    23.272431    21.228169    21.670754    10706.026    1839.4949    2823.5438    2277.8103   -467.95929    560.39691   -442.36271   -6246.3796 
32301000    79.684023   -6803.8154   -6598.8331   -6803.8154            0     2309.278     23.13538    21.394726    21.639142    10710.837    2672.2448    2322.1426    1933.4466    498.40289    376.04111   -388.90302   -6238.1087 
32302000    80.210432   -6824.5408   -6618.2044   -6824.5408            0    878.79872    23.335153    21.267614    21.696265    10767.488    539.01096    991.79481    1105.5904     217.4163    -518.6341    414.02484   -6480.2042 
32303000    80.650511   -6821.8543   -6614.3858   -6821.8543            0    2893.8848    23.028907     21.45313    21.617986    10680.196     3587.506    2526.8576     2567.291    237.40003    358.56903    448.09414   -6163.6352 
32304000    81.051718    -6812.057   -6603.5564    -6812.057            0    1594.4327    23.296591    21.286494    21.663698    10743.088    1677.7902    1029.0152    2076.4926   -86.141502   -318.42069    404.72968   -6353.7456 
32305000    82.514068   -6819.1755   -6606.9131   -6819.1755            0    1892.7764    23.148032    21.395796     21.64802    10721.627    2295.5123    2100.2953    1282.5217   -325.65696    275.51016   -47.900696   -6310.9511 
32306000    83.218732   -6810.4463   -6596.3711   -6810.4463            0    2200.3509    23.269406    21.300836    21.643452    10727.746    2099.5703    2342.6397    2158.8427   -92.996526   -415.23524   -564.37606   -6252.1193 
32307000     78.92479   -6812.5572    -6609.528   -6812.5572            0    1804.3987    23.202825    21.384874    21.636978    10736.041    1849.3768    2123.6234    1440.1957   -174.81744    215.90163    743.85552   -6327.0058 
32308000     77.81849   -6811.8167   -6611.6334   -6811.8167            0       2737.2    23.149215     21.37942     21.61874    10699.478    3353.3538     1766.139    3092.1071   -382.25319   -531.99334    183.95286   -6184.5183 
32309000    80.421881   -6813.7745   -6606.8941   -6813.7745            0    1676.8053    23.335687    21.287442    21.616471    10738.135    787.22395    2107.9937    2135.1984   -314.92171   -164.43387     100.8866   -6344.2985 
32310000    78.003316   -6820.6791   -6620.0203   -6820.6791            0    1594.8295    23.190867    21.412818    21.599022    10725.682    1735.8083    1662.2177    1386.4625   -358.69732    742.57367    465.97941   -6370.5522 
32311000    80.056048   -6816.7693     -6610.83   -6816.7693            0    2091.9623    23.304818    21.300524    21.596775    10720.744     1802.581     1826.842    2646.4639   -50.418043   -5.4890291    928.63691   -6283.7495 
32312000    78.931166   -6805.7091   -6602.6634   -6805.7091            0    2229.1839    23.161542    21.465504    21.543712    10710.978    1958.2008     2045.845     2683.506    220.25564   -374.00634    190.91057   -6254.4457 
32313000    82.003391   -6805.1615   -6594.2128   -6805.1615            0    1700.0582    23.296154    21.320196    21.605987    10731.231    1191.8223    1965.8595    1942.4929    -135.4393    71.324479   -46.230659   -6328.1469 
32314000    76.987051   -6810.6268   -6612.5823   -6810.6268            0    2220.0921    23.136502    21.462625    21.576246    10714.118      2725.22    1379.6192    2555.4372    -281.0409    177.41763    388.37901   -6265.6831 
32315000    76.702937   -6820.8201   -6623.5064   -6820.8201            0    1943.3664    23.294009    21.261953    21.664849    10730.083    2307.8144    2132.2347    1390.0501   -110.15228   -336.31517   -28.344871   -6319.3944 
32316000    82.073256   -6809.9593   -6598.8308   -6809.9593            0    1966.3642    23.148927    21.375803    21.696255    10735.891    2363.1122    2060.2362    1475.7441    387.56756    2.4092485    327.20463   -6290.9533 
32317000    77.001869   -6819.9362   -6621.8536   -6819.9362            0    2100.3887     23.16532    21.363154    21.690345    10734.211     2728.461    1923.0875    1649.6175    23.841956    -310.6937   -410.19268   -6293.0431 
32318000    78.725149   -6818.7165   -6616.2009   -6818.7165            0    2039.8257    23.198364      21.3303    21.664062    10719.986    2249.6519    2316.3071    1553.5181   -864.75499   -310.48116   -737.33827   -6297.2945 
32319000    77.050647   -6821.6253   -6623.4172   -6821.6253            0    2398.4382    23.091436    21.422657    21.659561     10714.55    2673.7645    2505.6317    2015.9185   -626.06353     162.5091   -611.36542   -6248.6355 
32320000    80.976313    -6818.828   -6610.5214    -6818.828            0    1784.2515    23.266798    21.260098    21.719353    10743.574    1291.3888    2572.9417    1488.4239   -514.58556    89.055581    351.23784   -6330.9577 
32321000    78.635468   -6810.0275   -6607.7426   -6810.0275            0    1705.9442    23.085468    21.446984    21.731608    10759.616    2447.2564    1268.1313     1402.445     180.0492   -440.35358    398.50576   -6340.0493 
32322000    83.331636   -6803.0692   -6588.7037   -6803.0692            0    2524.6486    23.248168    21.202212    21.733492    10712.712    1973.9803    3044.6957    2555.2699   -270.39586   -382.29489    391.88782   -6194.2679 
32323000     77.29439    -6814.962   -6616.1269    -6814.962            0    1872.5286     23.12639    21.422787    21.634207    10718.273    2428.9501    966.72782    2221.9079   -290.72527   -23.018274    71.755458   -6323.4225 
32324000    82.317319   -6820.4531   -6608.6968   -6820.4531            0    2921.6935    23.248613    21.270999     21.62385    10693.453    1876.2653    4019.5869    2869.2284    578.07871   -121.65299   -177.35985   -6153.0498 
32325000    79.856867   -6813.0496   -6607.6227   -6813.0496            0    1437.5714    23.202716    21.450683    21.612431    10756.812     1602.549    890.73946    1819.4256    401.66224    294.23784   -225.28046   -6382.1007 
32326000    79.489764   -6815.4512   -6610.9687   -6815.4512            0    1564.4108    23.322083    21.319047    21.610784    10744.981    858.95833    1934.1972    1900.0769   -398.27477     919.0287   -818.66601   -6365.8184 
32327000    77.371769   -6813.6982    -6614.664   -6813.6982            0    2550.6994    23.203508    21.332033    21.614715    10698.808    3190.2802    2832.3781    1629.4398   -274.36698   -81.510662   -793.11021   -6216.6755 
32328000    81.981476    -6806.587   -6595.6946    -6806.587            0    1968.8396    23.291836    21.315449    21.601994     10724.87    1301.2047    1804.2778    2801.0364    218.72647    21.769107    560.20925    -6287.746 
32329000    79.278653   -6820.9956   -6617.0561   -6820.9956            0    1359.6686    23.229184    21.387527    21.622457    10742.357    1345.2549    1085.6721     1648.079    757.19438    178.96831    31.235524   -6404.0419 
32330000    83.159713   -6811.4407   -6597.5174   -6811.4407            0    2345.2998    23.245559    21.289515    21.661977    10720.224    2121.1295    2702.3431    2212.4267    509.22603    315.40796   -162.37519   -6230.8451 
32331000    78.978329   -6816.6004   -6613.4334   -6816.6004            0    2108.9419    23.206408    21.347453    21.623386    10712.176    2346.7036    2012.7256    1967.3964    21.011667    388.48725   -104.24369   -6283.9617 
32332000    78.769513   -6816.0241   -6613.3943   -6816.0241            0    2232.6055    23.190422    21.366178    21.622755    10713.873    2842.7752    2098.6156    1756.4256   -113.80476    221.69438   -936.15215   -6264.5478 
32333000    79.887034   -6813.8522   -6608.3477   -6813.8522            0    2021.3366    23.275342    21.304799    21.643814    10732.659    1934.1825    2771.3299    1358.4973   -493.47779   -141.34503   -605.10926   -6291.9584 
32334000    85.317702   -6811.3531   -6591.8785   -6811.3531            0    2059.0579    23.143756    21.435574    21.646082    10738.615    2676.1015    1066.2316    2434.8404   -203.99639   -211.49317   -240.60281    -6269.406 
32335000    77.601829   -6811.5539   -6611.9279   -6811.5539            0    1778.7905    23.343456    21.227332    21.695149    10750.365    357.63414    2772.2813    2206.4562    714.88338    282.81077    527.72609   -6333.0437 
32336000    80.025103   -6822.3879   -6616.5282   -6822.3879            0    2172.8961    23.155405    21.401637    21.624785    10716.456     2443.534    2004.0561    2071.0982    558.17788   -49.680658   -54.767226   -6276.9295 
32337000     78.12283   -6820.7871   -6619.8209   -6820.7871            0    1470.7446    23.404699    21.205541    21.640292    10740.278    1116.1969    1663.4127    1632.6241   -156.64363   -253.91254    168.26563   -6389.4494 
32338000    81.488181    -6813.013   -6603.3897    -6813.013            0    2670.3537    23.109748    21.452318    21.571728    10694.349    3327.0513    2261.1325    2422.8775   -556.31429    56.957257   -279.19053    -6186.905 
32339000    80.272044   -6830.7452   -6624.2503   -6830.7452            0    1434.8586    23.304979    21.319365    21.621687    10742.678    1374.5088    942.77689    1987.2902   -995.73162    558.87774    -278.6021   -6399.4496 
32340000    78.097107    -6815.526   -6614.6259    -6815.526            0    1481.4082    23.199102    21.486515    21.589676     10761.76    1856.5816    253.79809    2333.8448     421.9945   -155.43732    276.40202   -6382.1201 
32341000    79.559308   -6824.0464    -6619.385   -6824.0464            0    2398.5309     23.25658     21.31454     21.58569    10700.098    1882.6602    2955.3084    2357.6242    857.42188    -756.6453   -552.04798   -6245.0943 
32342000    79.415838   -6812.9171   -6608.6247   -6812.9171            0    2381.4224    23.271032    21.310168    21.610383    10716.797     2318.463    2521.4447    2304.3593     681.6761    113.65944    479.41167   -6236.4239 
32343000    78.502981   -6811.2381    -6609.294   -6811.2381            0    1910.0422    23.203858    21.406327    21.607064    10732.431    1307.4968    1715.0982    2707.5315   -3.8370006    549.52122    157.68745   -6310.3313 
32344000    81.964817   -6817.2114   -6606.3619   -6817.2114            0    1329.2497    23.338465     21.22759    21.709791    10755.451    1497.6018    1417.3764     1072.771   -407.56924    24.549832   -541.01309   -6397.8595 
32345000    79.782367   -6827.2538   -6622.0186   -6827.2538            0    2455.5653    23.078864    21.435797    21.619703    10695.567    2867.2181    2184.2093    2315.2686    432.32679    487.54756   -390.84639     -6238.99 
32346000    83.147909   -6813.1308   -6599.2378   -6813.1308            0    1574.4565    23.384401    21.218297    21.670675    10752.494    544.90931    2989.1697    1189.2903   -183.99255    359.75026   -224.34794   -6352.3409 
32347000    80.022913   -6816.2645   -6610.4104   -6816.2645            0    2431.9659     23.09264    21.480031    21.590852    10709.724    2305.7612     1620.723    3369.4135    573.07317    11.423001    46.442485   -6230.5608 
32348000    79.943883   -6828.3266   -6622.6758   -6828.3266            0    1818.3649    23.303628    21.257666    21.648349    10724.175    1343.0513    2072.7066    2039.3367    729.63282   -174.30385    195.97633   -6338.2816 
32349000    80.448631   -6813.8013   -6606.8521   -6813.8013            0    2267.1546     23.13323    21.401961    21.629421     10708.65    2608.8982    1734.0343    2458.5314   -23.186805    436.10922   -1.7997388   -6252.7799 
32350000    80.149777   -6822.3663   -6616.1859   -6822.3663            0    2285.9878    23.334146    21.195509    21.672138    10718.587    2270.5754    2405.7502    2181.6377   -212.58517   -130.79096   -195.42737   -6258.8412 
32351000    75.896626   -6815.2745   -6620.0351   -6815.2745            0    1711.4176    23.152066    21.406862    21.671142    10740.501    2371.2235    1620.3772     1142.652    360.53617    434.22531   -233.46612     -6351.96 
32352000    80.451898   -6818.0549   -6611.0973   -6818.0549            0    2085.2381    23.267029    21.252995    21.704082     10732.54    1908.6955    2684.1392    1662.8797    395.26112   -444.57729   -218.38185   -6284.7094 
32353000    82.199791   -6811.8753   -6600.4213   -6811.8753            0    1669.0877    23.200186    21.388029    21.667217    10751.408    1812.2045    903.39649    2291.6621    574.02125    51.455805    247.86911   -6338.7113 
32354000    80.946569   -6814.8331    -6606.603   -6814.8331            0    2422.7733    23.186794    21.327352    21.657709    10710.017    2792.1907    1560.0262    2916.1029   -796.79083    127.04504    -257.3383   -6228.1789 
32355000    80.901163   -6811.9472   -6603.8339   -6811.9472            0    2307.9188    23.185273    21.315851    21.693771    10721.361    2333.0902    2886.5565    1704.1096    327.04095   -449.48804   -956.89452   -6242.9676 
32356000    79.147295   -6819.5371   -6615.9355   -6819.5371            0    1158.0943      23.1394    21.420066    21.713177    10762.082    2331.8594    164.80825    977.61536    113.60854   -393.44494   -69.844841   -6434.1681 
32357000    78.650327   -6816.9267   -6614.6036   -6816.9267            0    1758.6887    23.269456    21.245312    21.749774    10752.368    1619.8057    2672.7178    983.54257    241.78937   -666.06627   -314.71378   -6338.8196 
32358000    80.924579   -6820.6846    -6612.511   -6820.6846            0    1938.2998    23.063881    21.457884    21.671956    10725.496    2386.3747    1173.8553    2254.6694   -413.26056    359.92775    217.23221   -6309.3215 
32359000    77.924027   -6814.0808    -6613.626   -6814.0808            0    2871.7999    23.303082    21.123692    21.730477    10696.765    2665.7003    3473.0371    2476.6624    -377.7618   -24.924934     396.0598   -6165.6213 
32360000    77.854296   -6813.8947   -6613.6193   -6813.8947            0    1639.1574    23.090328    21.419652    21.692121    10728.636    2257.8491    1422.3091    1237.3138    879.51664    -497.2316   -339.96324   -6357.1466 
32361000    79.753011   -6814.8961   -6609.7364   -6814.8961            0    1415.0458    23.265652    21.290149    21.720139    10758.619    1417.3491    2204.4777    623.31055   -549.25194   -425.87802   -570.53874   -6387.7109 
32362000    80.791426   -6814.0934   -6606.2624   -6814.0934            0    2059.8592    23.092582    21.489028    21.644623    10740.866    2393.1778    1476.4064    2309.9935   -268.85172    293.90004    428.88667   -6283.5968 
32363000    77.300697   -6806.6191   -6607.7677   -6806.6191            0    1653.0177    23.256385    21.348649    21.645562    10746.857    2033.2523     1470.098    1455.7029   -115.28038    202.24477    414.36819   -6348.6871 
32364000    81.709552   -6814.1581   -6603.9652   -6814.1581            0    2216.4063    23.203252     21.35677    21.616818    10712.139    1410.2153    2880.2323    2358.7714    138.01331    -151.4974    -183.4188   -6257.7059 
32365000    80.930322   -6812.9161   -6604.7278   -6812.9161            0    1872.1264    23.186981    21.427663    21.600608    10732.107    2448.2222    705.74533    2462.4117   -762.41988   -545.68178    327.37876   -6311.7086 
32366000    75.994135   -6818.3874   -6622.8971   -6818.3874            0    2053.0177    23.263838     21.31056    21.627386     10722.11    1674.8634     2361.008    2123.1817    760.41256   -454.81063   -90.437618   -6301.8647 
32367000    76.487192   -6827.9842   -6631.2255   -6827.9842            0    2290.2236    23.144548    21.394822    21.626619    10708.929     2418.358    2400.9457    2051.3671   -185.63561   -792.96415   -279.40489   -6273.5413 
32368000    78.605814   -6820.1464   -6617.9377   -6820.1464            0    2470.6808    23.330819    21.197582    21.647027    10705.688    2189.7141     3331.113    1891.2154   -204.93878   -337.32575   -255.20514   -6232.1867 
32369000    78.424079   -6814.0675   -6612.3264   -6814.0675            0    2214.2376    23.067712    21.463263    21.651896    10720.035    2411.0448    1558.6286    2673.0393   -171.90257    777.95013   -345.96296   -6266.1509 
32370000    77.073128   -6809.9716   -6611.7056   -6809.9716            0    2582.5586    23.264426    21.268191    21.643804    10709.187    2600.4698     2708.706       2438.5   -253.84392    176.33506   -480.47505   -6208.3552 
32371000    81.462889   -6818.7666   -6609.2083   -6818.7666            0    2668.4563    23.143655    21.394267    21.606391    10698.221    3106.7501    2490.2285    2408.3903    -54.46913   -244.47624   -7.6832835   -6192.8689 
32372000    82.197308   -6808.8613   -6597.4138   -6808.8613            0    1468.5048     23.26066    21.328319    21.677158    10754.272     2068.456    1259.9007    1077.1578    225.06378   -58.854722    344.30082   -6367.0934 
32373000    78.714942   -6817.2836   -6614.7943   -6817.2836            0    2296.3602    23.156707    21.349681    21.653727    10705.349    2186.4306    2296.6109     2406.039    252.64165   -153.19595   -135.01966   -6256.2715 
32374000    80.013222   -6810.1469   -6604.3178   -6810.1469            0    2161.0787     23.21903    21.256304     21.68625    10703.265    1784.6157    1819.5233     2879.097    219.22344    459.42077    676.75415   -6266.9817 
32375000     83.79561   -6818.6563   -6603.0972   -6818.6563            0    1577.1002    23.200987     21.38235    21.656689    10743.702    1497.6906    1761.2703    1472.3396    1209.9383    79.216242    372.29679   -6355.9879 
32376000    79.739861   -6818.3991   -6613.2732   -6818.3991            0    1500.3265    23.314494    21.358821    21.614049     10763.15    721.63742    1766.4945    2012.8476    453.58551     171.9236   -296.39899   -6377.7677 
32377000    79.592649   -6816.7691   -6612.0219   -6816.7691            0     1571.304    23.281869    21.401306    21.574305    10749.665    1658.6968    1426.5974    1628.6177   -408.24746   -306.11676   -373.97894   -6365.6841 
32378000     78.00411   -6813.2108   -6612.5499   -6813.2108            0    1972.7112    23.224463    21.341114    21.641333    10726.222    2114.6985    1590.2377    2213.1975    68.307666   -266.73971    577.61864   -6303.9568 
32379000     82.40348   -6806.9208   -6594.9429   -6806.9208            0    2222.6493    23.201048    21.303997    21.668639    10710.268    2048.3201    2568.7301    2050.8977   -67.630937   -212.24908    179.63604   -6247.7689 
32380000    77.576172   -6824.1084   -6624.5485   -6824.1084            0    1951.4811    23.239317    21.277648    21.665486    10713.106     2513.358     1659.007    1682.0783    332.86817    341.80882    582.17464   -6319.6497 
32381000    76.689116   -6820.8625   -6623.5844   -6820.8625            0    1577.7834    23.237194    21.342519    21.645702    10734.975    944.22857    1695.2406    2093.8809    673.06843   -459.37467    143.41708   -6376.5689 
32382000    80.563808   -6806.5752   -6599.3297   -6806.5752            0    2298.3173    23.217313    21.371999    21.602572    10719.204     2019.851    1644.3682    3230.7327   -127.71371    391.66227    110.14022    -6240.037 
32383000    81.277609   -6811.5497    -6602.468   -6811.5497            0    2461.4835    23.323229    21.311221    21.571054    10721.817    1635.2797    2778.4438    2970.7271   -224.97494    504.22602    -555.2513   -6217.5739 
32384000    76.453458   -6816.9942   -6620.3223   -6816.9942            0    1969.3695    23.196661    21.452174    21.559845    10728.584    2143.6712    1412.7432    2351.6941    -201.1589   -301.15721   -415.22861   -6312.1841 
32385000    79.125535   -6825.3159   -6621.7703   -6825.3159            0    1872.9105    23.318346    21.276185    21.624118    10728.275    844.23359    2262.3122    2512.1857    123.34745    456.14272    692.56296    -6328.733 
32386000    80.940501   -6808.3807   -6600.1662   -6808.3807            0    2535.5137    23.140667    21.387328    21.617749    10698.992    2739.3578    2061.5075    2805.6756      85.7396    628.48891    578.95444   -6204.5403 
32387000    80.203205   -6817.9074   -6611.5895   -6817.9074            0    1227.1084    23.335666    21.276429    21.628507    10738.546    350.80191    1811.2677    1519.2555     400.9442    684.07088    813.78431   -6419.4113 
32388000    77.429644    -6818.363     -6619.18    -6818.363            0    1969.6208     23.24002    21.340052    21.626349    10725.441    2076.5664    1922.3148    1909.9813   -200.82412    183.34561   -341.10634   -6311.0927 
32389000    82.914492   -6829.9242   -6616.6317   -6829.9242            0    1553.6842    23.272163    21.409974    21.534849    10729.877    1595.0425    1052.7776    2013.2327    94.898157  -0.91091149    8.9218592   -6373.5046 
32390000     78.58232   -6812.8502    -6610.702   -6812.8502            0    2231.9659     23.35378    21.313593    21.520654    10711.969    2287.0337    1759.3312    2649.5329    42.874464   -990.35686    196.75039   -6262.0174 
32391000    78.718944   -6820.0451   -6617.5454   -6820.0451            0    1833.9279    23.211932    21.396582    21.603806     10729.66     1050.022    1711.1106    2740.6511   -173.79566    612.37934   -630.08423   -6330.5704 
32392000    80.280237   -6816.4546   -6609.9385   -6816.4546            0    2007.8295    23.294052    21.253985    21.639304    10713.434    1552.7421    2369.3688    2101.3777    209.27988   -88.466358    151.74704   -6296.2263 
32393000    81.859236   -6818.0147   -6607.4368   -6818.0147            0    2008.1905    23.113416    21.427536    21.646288    10720.617    2437.5182    1257.4085    2329.6447    739.70619    437.60455    227.45159   -6293.4579 
32394000    81.016309   -6821.6158   -6613.2063   -6821.6158            0    1694.6356    23.328301     21.23208    21.686184    10741.348    758.35556    2705.3328    1620.2184   -324.65656    277.62656    379.80678    -6347.739 
32395000    80.753855   -6807.0445   -6599.3101   -6807.0445            0    1950.0731    23.126109    21.461062    21.632743    10736.565    2374.4568    2363.2756    1112.4869     741.0683    -549.3418   -105.78656   -6293.9642 
32396000    80.392516   -6819.1984   -6612.3935   -6819.1984            0    1957.7475    23.369742    21.166479     21.69435    10731.222    1293.0197    2715.5274    1864.6952   -166.65541   -7.9552767   -22.909147   -6305.9985 
32397000    79.407705   -6822.9905    -6618.719   -6822.9905            0    2050.6213    23.104102    21.469577    21.602419    10715.562    2392.6533    1958.5742    1800.6364    250.94473     125.4427    34.889586   -6298.2572 
32398000     79.21435   -6825.5014   -6621.7273   -6825.5014            0    1815.2241    23.288885    21.309625    21.628216    10733.595    1651.3485    1898.3747    1895.9491   -457.24415   -333.60043   -798.70271   -6337.5749 
32399000    80.292523   -6807.1651   -6600.6175   -6807.1651            0    1953.0889    23.243594    21.363314    21.640049    10745.587    1891.4149    2141.5137    1826.3381   -256.12315    385.60398   -714.81471   -6294.5424 
32400000    79.198479   -6819.2656   -6615.5324   -6819.2656            0     2148.529    23.135456    21.392411    21.642573    10711.411    2094.8717    1792.1501    2558.5652    393.83346    646.61382    16.266359      -6279.9 
32401000     83.31295   -6815.0871   -6600.7696   -6815.0871            0     2125.571    23.312612    21.211841    21.656583    10709.255    1727.7806    3112.0957    1536.8367    93.812916   -150.32765   -674.53046   -6268.7905 
32402000    76.749594   -6817.5102   -6620.0766   -6817.5102            0    1805.3494    23.026329    21.462813    21.726776    10737.585    2381.5334    1155.5818    1878.9328    360.04415    648.62323    237.39028   -6337.3649 
32403000    81.266482   -6807.2243   -6598.1712   -6807.2243            0    1825.3863    23.308057    21.212875    21.724126    10741.079    1747.9538    2141.0083    1587.1969   -18.796496    235.63158   -368.92602   -6312.2288 
32404000    82.104097   -6821.0532   -6609.8454   -6821.0532            0    1393.6254    23.121755    21.435374    21.684631    10747.412    1385.6613    1554.3294    1240.8853    714.84543    416.70295    92.690295   -6391.4086 
32405000    77.568876   -6818.9566   -6619.4154   -6818.9566            0    2419.1399    23.308844    21.189283    21.696485    10715.844    2526.0329    2482.4818     2248.905   -352.38509    135.78852   -276.41199   -6241.3532 
32406000    77.047877   -6824.4917   -6626.2908   -6824.4917            0    2576.0308    23.165784     21.38262    21.600887    10699.895    2794.0251    2160.1342    2773.9332   -511.48247    329.30386   -24.251611   -6224.3089 
32407000    79.063346   -6820.5852   -6617.1996   -6820.5852            0    1203.4967    23.267831    21.310767    21.707653    10763.855    1467.6557    1213.1324    929.70216    114.71007   -98.976995     31.80309   -6428.2749 
32408000    78.986555   -6818.4149   -6615.2268   -6818.4149            0    2890.5982    23.156074    21.329626     21.65011    10693.215    2995.4267    2934.0624    2742.3056    950.20466   -434.60355    171.29097   -6164.4392 
32409000    80.738366   -6818.1905    -6610.496   -6818.1905            0    1692.9607    23.174762    21.326863    21.753864    10751.738      2499.07    2192.3032    387.50888   -1005.7664    136.48914   -89.806851   -6345.0345 
32410000    79.904001   -6819.6154   -6614.0672   -6819.6154            0    2294.9138    23.189448    21.315289    21.682749    10717.561    2575.5839    1752.3284    2556.8293    -310.8821   -156.64545    165.89803   -6255.3615 
32411000    76.981027   -6817.8205   -6619.7915   -6817.8205            0    2804.0222    23.056029    21.428507     21.61951    10681.255    3513.8558    2410.7522    2487.4587   -72.587794   -124.77141    645.62283   -6182.9945 
32412000    78.151739   -6810.3419   -6609.3013   -6810.3419            0    1387.0584     23.29333    21.309076    21.669613    10755.915    940.92429    1741.8219    1478.4291     124.3481   -798.71283   -196.57627   -6391.7218 
32413000    79.767497   -6817.3356   -6612.1386   -6817.3356            0     2426.919    23.074155    21.452332    21.635853    10709.627    3022.3932    2102.0617     2156.302   -232.55377    497.66792   -574.31514   -6233.0807 
32414000    80.542072   -6824.1869   -6616.9974   -6824.1869            0    1741.5711    23.301508     21.24999    21.691551    10740.719    1632.0194    2022.2741      1570.42   -208.04892   -431.54246    120.78233   -6344.1935 
32415000    78.353627   -6813.0675   -6611.5076   -6813.0675            0    1887.4282    23.129463    21.396901     21.70781     10743.17    2086.9368    1297.2664    2278.0813   -87.836444    513.79541    271.53796   -6315.7889 
32416000    81.421454   -6810.8238   -6601.3721   -6810.8238            0      1868.91    23.192643    21.323822    21.723073    10743.272    2236.7778    1518.4775    1851.4748    631.74951   -487.45504    289.66986    -6308.552 
32417000    82.667038   -6824.4728   -6611.8169   -6824.4728            0    3116.8435    23.152947    21.238649    21.727355    10684.151    4242.5494    3180.1927    1927.7884   -834.16316   -927.04555    175.52799   -6126.1585 
32418000    82.142008   -6813.0565   -6601.7512   -6813.0565            0    1452.0942    23.100287     21.43042    21.713181    10749.086    2066.4046    681.25697     1608.621   -76.691299   -367.13334    261.97363   -6374.1145 
32419000     84.12394   -6807.3343   -6590.9306   -6807.3343            0    2264.2085     23.26416     21.22579    21.714289     10722.52    2842.6228    2051.1409    1898.8619   -788.24054   -102.67889     495.5227   -6236.8606 
32420000    80.459573   -6818.7876   -6611.8103   -6818.7876            0    1602.9457     23.10841    21.463017     21.67969     10752.61    1103.0324    1871.3301    1834.4744     331.6619    218.11124    7.0286562   -6360.4431 
32421000    78.305394   -6813.4909    -6612.055   -6813.4909            0    1938.5631      23.2614    21.262816    21.714117    10739.865    1307.2335    2230.2963    2278.1596    418.44874     253.1908    491.39718    -6308.418 
32422000    78.539008   -6810.0927   -6608.0559   -6810.0927            0    1271.9622    23.101396    21.510673     21.68247    10774.596    2016.0039    699.95078    1099.9318    217.70719   -481.38995    172.18853   -6408.1843 
32423000    79.256654   -6819.3286   -6615.4457   -6819.3286            0    1550.8024    23.253065    21.294738    21.705843    10748.038    1533.4803    1425.9357    1692.9912   -302.24228    198.65615    379.63015   -6372.3588 
32424000     77.84494   -6817.4127   -6617.1613   -6817.4127            0     2707.626    23.148428    21.362823    21.616312    10689.607    2682.6326    2573.5662    2866.6793   -34.753076   -69.303524    409.38072   -6195.0506 
32425000    81.326707   -6815.8715   -6606.6635   -6815.8715            0    2419.1396    23.218776    21.349581    21.611237    10712.931    2688.3551    1597.2249    2971.8389   -1009.3779   -366.46197    296.09689   -6228.7041 
32426000    80.307875   -6824.2769   -6617.6898   -6824.2769            0     1365.151     23.21789    21.390053     21.66314    10758.606    908.36974    1872.3345    1314.7488     362.1122   -171.47159    391.57909   -6403.4932 
32427000    84.081197   -6812.5083   -6596.2146   -6812.5083            0    1871.4809    23.192288     21.38251    21.679651    10751.141    2668.9782    1075.8495     1869.615   -182.29677     -829.504    436.77941   -6302.7769 
32428000    80.221225   -6813.6236   -6607.2594   -6813.6236            0    2094.7186    23.216728    21.347933    21.648748     10729.75    2195.5091    1776.1509    2312.4958   -552.53845    111.53446    284.50096   -6279.4728 
32429000    80.314144   -6815.1673   -6608.5641   -6815.1673            0    1830.3196    23.152663    21.396489    21.653559    10726.864    2089.1256    1879.4262    1522.4071    555.57932   -691.38337   -446.33884   -6322.2283 
32430000     81.18338    -6815.627   -6606.7877    -6815.627            0    2323.8672    23.228573    21.311231     21.65902    10721.854     2495.073    2426.0664    2050.4623   -562.18159   -459.22824   -56.944159    -6243.411 
32431000     77.42039   -6812.4905   -6613.3313   -6812.4905            0    1338.7508    23.141281    21.426211     21.72351    10771.168    1774.0753    1166.7828    1075.3942   -667.03986    679.34395     93.39267   -6403.0317 
32432000    82.057291   -6814.8462   -6603.7588   -6814.8462            0    2140.8092    23.200732    21.269712    21.739827    10728.015    2490.8858      2644.26    1287.2818    87.693383   -703.91804   -64.690037   -6268.8141 
32433000    78.791478   -6818.5021   -6615.8158   -6818.5021            0    2245.6113    23.137712    21.359849    21.689118    10719.154    2336.5165    1774.5467    2625.7706    -362.2214     369.6485    228.64192   -6264.7642 
32434000    80.611068   -6823.4187   -6616.0516   -6823.4187            0    2867.3871    23.226249    21.223614    21.703172    10698.469    3710.0619    2188.5376    2703.5617    10.413063   -440.20661    209.37203   -6168.6642 
32435000    82.719911   -6816.1573   -6603.3654   -6816.1573            0    1861.4331    23.153036    21.382315    21.703405    10744.607    2573.0093    1617.8079    1393.4821     41.52991    257.85071    626.75933   -6311.6806 
32436000    80.718275    -6809.301   -6601.6582    -6809.301            0    1474.6661    23.300256     21.25938    21.724064    10760.993    870.53054    2005.0796    1548.3881    150.08874    708.58474   -46.879389    -6370.227 
32437000    74.178867   -6811.8979   -6621.0772   -6811.8979            0    2529.8401       23.142    21.332388    21.705341    10715.365     2783.609    2431.2411    2374.6703    270.13703    571.20197   -266.23825   -6225.7325 
32438000    82.537007   -6814.4131   -6602.0917   -6814.4131            0    1993.4073    23.230026    21.330093    21.686429    10745.595    2075.5927    1555.5045    2349.1246    611.88662    -518.6406    172.46802   -6289.6979 
32439000    79.025083   -6827.6653   -6624.3781   -6827.6653            0    1983.7573    23.271118    21.313154    21.619552    10722.885    1402.8467    2068.4755    2479.9498    283.72538   -1.8307223   -253.82469   -6314.1536 
32440000    83.785288   -6806.2815   -6590.7489   -6806.2815            0     2401.844    23.161854    21.397197    21.625573    10717.607    2283.4376    1825.4742    3096.6201   -780.25564    473.94128   -333.40701    -6215.328 
32441000    82.375717   -6812.3502   -6600.4437   -6812.3502            0    2411.7765    23.291715    21.244294    21.649062    10712.303    1850.0356    3137.2913    2248.0024    267.61955   -141.36757   -170.71971   -6223.6568 
32442000    81.263127   -6814.7735   -6605.7291   -6814.7735            0    1666.5809    23.092478    21.488053    21.655061     10745.51    2428.5972    1213.3678    1357.7777     370.7083   -244.70906    -542.2948   -6344.5555 
32443000    79.145436   -6817.4196   -6613.8227   -6817.4196            0    1645.1403    23.404693     21.16603    21.704812    10752.226    751.46989    2343.9469    1840.0042    190.61387   -177.94812   -119.79248    -6355.848 
32444000    81.228662    -6819.118   -6610.1622    -6819.118            0     1723.817    23.174115    21.425521    21.619172    10734.297    1683.2382    1416.7504    2071.4624    373.93449   -13.373406    178.93542   -6340.3009 
32445000    80.188701   -6808.5216   -6602.2411   -6808.5216            0    2448.4855    23.271055    21.306527    21.587145    10703.454     2448.072    2132.9986    2764.3858   -172.45929   -498.03069   -434.03704   -6220.0352 
32446000    77.002578   -6813.7432   -6615.6588   -6813.7432            0    1963.3609    23.219344    21.368867     21.61455    10724.515    2103.0559    2074.0897    1712.9371    4.3393026   -348.65023   -550.72863   -6308.5773 
32447000    82.401827   -6819.0976   -6607.1239   -6819.0976            0    2171.6858    23.160181    21.381244    21.646589     10719.25    2356.5159    2100.6658    2057.8758     358.5077    129.50115    635.10377   -6267.6259 
32448000    77.676394   -6803.7315   -6603.9137   -6803.7315            0    2139.7919    23.327808    21.229207    21.678637     10735.93    1573.0149    2446.0292    2400.3317    17.527202    368.87933     239.7957   -6268.8811 
32449000    85.267627    -6821.356   -6602.0102    -6821.356            0    1956.8174    23.082776     21.47132    21.641068    10725.696    2630.0268     1149.068    2091.3574   -241.67414    492.76862    313.80809   -6295.9184 
32450000    77.298868   -6816.9025   -6618.0559   -6816.9025            0    1810.2748    23.331406    21.256486    21.660194    10742.237    806.17372    2338.9969    2285.6537    291.44859    332.48874    59.830615   -6334.4501 
32451000    82.678653   -6818.9017   -6606.2159   -6818.9017            0    3015.4132    23.078785    21.457787    21.587837    10690.721    4009.6098    1925.8961    3110.7339    75.709075   -330.09362    -78.06939   -6136.0732 
32452000    80.690269   -6820.0678    -6612.497   -6820.0678            0    785.11933    23.284562    21.290589    21.769533    10792.073    538.29901    1199.5528    617.50621   -216.34022   -2.2840549    653.56076   -6488.9261 
32453000    79.340116   -6832.6242   -6628.5266   -6832.6242            0    1904.2797    23.092278    21.422067     21.67838    10723.955    2482.0925    1977.7042    1253.0425    365.44703   -549.24916    137.27589   -6330.7013 
32454000    80.546933   -6822.8211    -6615.619   -6822.8211            0    2652.4271    23.202173     21.27306    21.702209    10711.803    2622.0528    2866.1224    2469.1061   -89.182005   -524.81885   -30.468622   -6201.2551 
32455000    74.985311   -6810.6543   -6617.7592   -6810.6543            0    2266.8927    23.163066     21.30249    21.736497    10725.461    3412.8489    2000.8452    1386.9841    -398.4324   -1071.4683   -783.04347   -6263.1721 
32456000     79.74316   -6825.3239   -6620.1895   -6825.3239            0    2552.2519    23.081771    21.361689    21.700672    10699.855      2354.47     2620.857    2681.4287    147.53403    572.16967    84.337057   -6221.9198 
32457000    79.120568    -6821.832   -6618.2992    -6821.832            0    1765.0976    23.207932     21.26962    21.749878     10736.26    1960.7782    2553.0828     781.4317    24.063686   -171.91057   -273.03711   -6341.9249 
32458000    75.791238    -6806.306   -6611.3376    -6806.306            0    634.30342    23.169123    21.425465    21.761453    10802.587    951.48107    1311.0207   -359.59152    720.21863   -199.80218   -560.40008   -6511.4065 
32459000    80.402868   -6811.7383   -6604.9068   -6811.7383            0    2309.7831    23.225939    21.310139    21.667784    10724.426    2546.1712    2747.9215    1635.2565   -19.245804   -478.91492    32.735264   -6243.6458 
32460000    78.518864   -6812.7244   -6610.7394   -6812.7244            0      2397.43    23.158076    21.397592    21.646945    10726.647    2309.2346    1891.7819    2991.2734   -455.96821   -262.93143   -65.279069   -6235.6923 
32461000    79.825287   -6812.1369   -6606.7912   -6812.1369            0      1450.57    23.258816    21.306116    21.721467    10764.182    2425.3137    1335.5305    590.86574   -287.48816    -260.6895   -665.10955   -6379.0741 
32462000    79.190379   -6820.1357   -6616.4233   -6820.1357            0    2688.3322    23.137828    21.349688    21.646518    10693.064    2229.4769    3622.7454    2212.7743    876.45242    1.5590571   -441.66258    -6197.185 
32463000    80.813064     -6820.63   -6612.7433     -6820.63            0    1646.9814     23.25725    21.198115     21.77007    10732.859    1379.3477    2752.0731     809.5235    311.11723    206.15468    70.113961    -6354.945 
32464000    83.329422   -6824.8681   -6610.5083   -6824.8681            0    1320.6767    23.176473    21.331158      21.7622    10758.819    1845.6546    1287.7508    828.62482   -99.242441   -66.590175    201.44474   -6403.2857 
32465000    75.499348   -6819.4355    -6625.218   -6819.4355            0     1628.083    23.189599    21.334772    21.766654    10768.939     2270.615    1377.1867    1236.4472    418.01576   -424.35088    116.69932   -6369.5212 
32466000     80.12105   -6820.7464   -6614.6399   -6820.7464            0    2043.6742    23.118621    21.318989    21.780517    10734.868    3054.3213    1703.5623    1373.1391     107.1001    -370.3522   -558.61238   -6294.6883 
32467000    79.103071   -6814.2831   -6610.7953   -6814.2831            0    2278.5423    23.186123    21.287108    21.702368    10711.541     2290.167    2390.4499    2155.0099     351.8968    660.56419   -262.82539   -6254.8486 
32468000    77.946063    -6805.738   -6605.2265    -6805.738            0    1833.3724     23.20169    21.318353    21.724236    10745.281    1644.6424    2159.4563    1696.0186    672.59252    475.28934   -148.76078   -6317.9207 
32469000    79.894766   -6820.0044     -6614.48   -6820.0044            0    2311.9025    23.202436    21.295283    21.712695    10728.296    2283.1646     2161.481    2491.0618     60.48455    576.66352    555.15394   -6252.7569 
32470000    75.818974   -6818.3593   -6623.3196   -6818.3593            0    2423.7198    23.220315    21.344931    21.615128    10713.236    2704.7548    2260.6849    2305.7197    246.55275   -100.64494   -565.02969   -6244.6339 
32471000    77.563588   -6816.6023   -6617.0747   -6816.6023            0    1498.6116     23.23471    21.412769    21.601508    10747.171    1706.8728    1116.9058    1672.0563    451.90249   -324.82124   -160.80422   -6382.1876 
32472000    82.477956   -6830.5867   -6618.4172   -6830.5867            0    2803.4353    23.280171    21.241451     21.59459    10678.624    2045.1903    3915.0601    2450.0556    566.13571   -273.39865   -238.56011   -6181.8192 
32473000     80.11995   -6822.2285   -6616.1248   -6822.2285            0    2234.8893    23.182281    21.358135    21.596738    10693.199    2751.7011    1682.3688    2270.5981   -312.30938    607.37712    159.83803   -6267.5953 
32474000    81.623976   -6810.7393   -6600.7666   -6810.7393            0    1976.4628    23.303825    21.297186    21.618217    10729.249    1333.4388    2191.6302    2404.3195    127.10021   -128.79114    372.91839   -6291.4994 
32475000    82.328904   -6828.2065   -6616.4204   -6828.2065            0     1821.402    23.233585    21.411824    21.582501    10736.721    1086.8343    1878.2576     2499.114   -449.84306    1003.8034   -152.69586   -6331.2179 
32476000    78.914468   -6817.4312   -6614.4286   -6817.4312            0    1715.3071    23.276857    21.372707     21.57627    10733.967    1494.4779    1154.9685     2496.475    304.60975   -98.440386    47.101984   -6345.9077 
32477000    85.791585   -6814.2215   -6593.5279   -6814.2215            0    2077.0855    23.264882    21.360778    21.557958    10713.356    2131.5792    1534.1002    2565.5771   -560.39074   -227.53513   -428.95579   -6268.9972 
32478000    84.900027   -6815.4535   -6597.0534   -6815.4535            0    1846.2378    23.232124    21.374274     21.61148    10731.608    1883.9983    1480.4295    2174.2856   -123.59541    245.11954   -204.94068   -6308.0996 
32479000    79.451266     -6811.42   -6607.0364     -6811.42            0    1451.8062    23.300883    21.296159    21.703543    10769.717    1995.3188    1917.2521     442.8476     231.0532   -728.48034   -386.70622   -6379.0081 
32480000    80.017416   -6805.0911   -6599.2512   -6805.0911            0    2156.8385    23.143038    21.402238    21.656236    10726.611    2124.3303    1808.6504    2537.5348    694.91481      145.756     717.5811   -6261.8427 
32481000    82.127885   -6812.4793   -6601.2103   -6812.4793            0     1870.117     23.27217    21.269863    21.657736     10720.49    1889.0546    1833.3559    1887.9405   -467.01099    203.37995    630.46181   -6308.8225 
32482000    79.313637   -6810.6459   -6606.6164   -6810.6459            0    2803.0579    23.154241    21.427355    21.527582    10680.569    1810.6433    1975.2249    4623.3053    347.81241    158.84805    714.07538   -6169.9977 
32483000    77.691239   -6813.7517   -6613.8958   -6813.7517            0    2378.2279    23.269111    21.299444    21.601851    10706.291    2577.8666    2784.1844    1772.6327    -495.9135   -185.71821   -397.64349   -6242.5586 
32484000    80.852632   -6817.4802   -6609.4917   -6817.4802            0    1762.6521    23.186309    21.436237    21.582099     10726.89    2055.2293    1401.5505    1831.1766    677.86267   -225.49644    47.506713   -6333.7412 
32485000    79.360854   -6816.2175   -6612.0665   -6816.2175            0    2121.3127    23.292361    21.325691    21.582773    10720.718    2389.7277    1918.4999    2055.7105    282.33509   -960.83511   -140.82333   -6280.3978 
32486000     78.50756   -6816.0879    -6614.132   -6816.0879            0    1775.6375    23.260837    21.359107    21.619677     10741.32    1566.7615    1441.3797    2318.7713      303.305   -271.57656    306.11674   -6335.9764 
32487000    79.367357   -6819.8887    -6615.721   -6819.8887            0    2697.3205    23.148648    21.399221    21.565112    10682.559    2861.9392    2085.7381    3144.2842    68.910256    758.09254    335.56086   -6195.4943 
32488000    79.861121   -6803.6763   -6598.2385   -6803.6763            0    2141.1161    23.389089    21.212337    21.607619    10720.344    1083.6315    3082.2132    2257.5036    105.81325    524.39517    236.45257   -6263.4852 
32489000    78.194353   -6813.2077   -6612.0575   -6813.2077            0    1677.0314    23.177817    21.449488    21.607938    10742.436    1910.3905    934.85289    2185.8507    373.27793    237.15562   -203.20393   -6349.3213 
32490000    82.415628   -6819.6935   -6607.6843   -6819.6935            0    2164.8773     23.34681    21.201589    21.658221    10720.591    1839.3192    2616.6756    2038.6371    882.21423   -247.26641   -253.41803   -6269.2083 
32491000    77.813969   -6813.2239   -6613.0522   -6813.2239            0    2135.4914    23.019876    21.490112    21.668941    10719.619    2900.7371     1487.995     2017.742    501.04669     491.9695    -119.5208   -6279.2009 
32492000    77.817221   -6812.9679   -6612.7879   -6812.9679            0      2286.12    23.315156    21.218575    21.670511    10720.713     1946.311    3431.2632    1480.7858    87.930309   -497.06658   -130.94277   -6255.3516 
32493000    79.619147   -6813.1423   -6608.3269   -6813.1423            0    1794.2529    23.149017    21.420866    21.657911    10739.552      2157.37     739.6104    2485.7784   -437.94563    224.33207    946.99791   -6327.3014 
32494000    80.551362   -6818.9127   -6611.6993   -6818.9127            0    2062.2464    23.228915    21.308621    21.668185    10725.235    1119.5455    3031.2073    2035.9864    467.43419    53.322895   -133.88154   -6289.1298 
32495000    85.284138   -6814.3016   -6594.9133   -6814.3016            0    1473.4456     23.21872     21.35052    21.673158    10744.073    1424.1731    1892.1039    1104.0596   -448.96999    56.452469   -475.54482   -6364.0373 
32496000    81.272733   -6823.3986   -6614.3294   -6823.3986            0    1964.0688    23.164611    21.351401    21.675346    10720.559    2415.8824    2433.8854    1042.4387   -503.40768   -83.687625   -500.57984   -6307.2505 
32497000    81.808397   -6819.8251    -6609.378   -6819.8251            0    1805.8609    23.281824    21.274815    21.671996    10734.497    1143.7832    1735.5426     2538.257    157.04523   -68.976663    695.18142   -6326.6675 
32498000    79.469644   -6812.6954   -6608.2646   -6812.6954            0    977.12555      23.1612    21.476516    21.637765    10763.098    1191.6459    826.39268    913.33804   -714.68992   -391.22828   -40.285338   -6454.8864 
32499000    81.808953   -6825.3801   -6614.9316   -6825.3801            0    2649.6633     23.27876      21.2362    21.628308    10692.006    2542.1254    2985.6424    2421.2222   -23.232928   -220.90228   -186.71243   -6201.7644 
32500000    83.974746   -6807.9609    -6591.941   -6807.9609            0    2139.5532    23.150168    21.439651    21.609519    10725.485    2467.4582    1868.5631    2082.6384    293.13567   -268.23629    155.43262   -6257.2717 
Loop time of 504.01 on 64 procs for 250000 steps with 1296 atoms

Performance: 85.713 ns/day, 0.280 hours/ns, 496.022 timesteps/s
387.4% CPU use with 16 MPI tasks x 4 OpenMP threads

MPI task timing breakdown:
Section |  min time  |  avg time  |  max time  |%varavg| %total
---------------------------------------------------------------
Pair    | 39.957     | 48.864     | 56.564     |  72.2 |  9.70
Bond    | 1.5185     | 1.6918     | 2.1326     |  12.2 |  0.34
Kspace  | 249.51     | 256.84     | 263.95     |  28.8 | 50.96
Neigh   | 0.61841    | 0.63658    | 0.66873    |   1.5 |  0.13
Comm    | 51.304     | 57.911     | 61.956     |  31.2 | 11.49
Output  | 0.55932    | 0.55963    | 0.56115    |   0.1 |  0.11
Modify  | 121.53     | 125.09     | 127.44     |  15.7 | 24.82
Other   |            | 12.42      |            |       |  2.46

Nlocal:        81.0000 ave          96 max          63 min
Histogram: 2 0 0 3 2 1 4 0 2 2
Nghost:        3685.12 ave        3721 max        3661 min
Histogram: 4 1 1 2 2 2 1 0 1 2
Neighs:        26046.4 ave       30744 max       20169 min
Histogram: 2 0 0 2 2 2 4 0 2 2

Total # of neighbors = 416743
Ave neighs/atom = 321.56096
Ave special neighs/atom = 2.0000000
Neighbor list builds = 1518
Dangerous builds = 0

unfix		3
unfix		2
unfix		1

write_data	data.final.${pid}
write_data	data.final.0
System init for write_data ...
PPPM initialization ...
  extracting TIP4P info from pair style
  using 12-bit tables for long-range coulomb (../kspace.cpp:340)
  G vector (1/distance) = 0.36852498
  grid = 30 40 32
  stencil order = 5
  estimated absolute RMS force accuracy = 0.0042661274
  estimated relative force accuracy = 1.2847316e-05
  using double precision FFTW3
  3d grid and FFT values/proc = 11832 2400
Last active /omp style is kspace_style pppm/tip4p/omp
WARNING: Not all mixed pair coeffs generated from mixing. Use write_data with 'pair ij' option to store all pair coeffs. (../write_data.cpp:312)

write_restart   restart.lmp.${pid}
write_restart   restart.lmp.0
System init for write_restart ...
PPPM initialization ...
  extracting TIP4P info from pair style
  using 12-bit tables for long-range coulomb (../kspace.cpp:340)
  G vector (1/distance) = 0.36852498
  grid = 30 40 32
  stencil order = 5
  estimated absolute RMS force accuracy = 0.0042661274
  estimated relative force accuracy = 1.2847316e-05
  using double precision FFTW3
  3d grid and FFT values/proc = 11832 2400
Last active /omp style is kspace_style pppm/tip4p/omp
Total wall time: 0:08:24
