#include		in.partitions
include		in.temp
variable        temperature equal 100.22
variable	tempDamp equal 100.0
include		in.pressure
variable        pressure equal 2036.9
variable        pressureDamp equal 1000.0 # This is 1 ps
include		in.seed
variable        seed equal 745823

units		real
atom_style	full
#include		in.box
read_restart	restart.lmp.${pid}
read_restart	restart.lmp.0
Reading restart file ...
  restart file = 30 Jul 2021, LAMMPS = 30 Jul 2021
  restoring atom style full from restart
  orthogonal box = (0.17436977 0.11885248 0.11835927) to (18.033203 23.510325 22.094837)
  2 by 4 by 4 MPI processor grid
  restoring pair style lj/cut/tip4p/long/omp from restart
  restoring bond style harmonic/omp from restart
  restoring angle style harmonic/omp from restart
  864 atoms
  576 bonds
  288 angles
Finding 1-2 1-3 1-4 neighbors ...
  special bond factors lj:    0        0        0       
  special bond factors coul:  0        0        0       
     2 = max # of 1-2 neighbors
     1 = max # of 1-3 neighbors
     1 = max # of 1-4 neighbors
     2 = max # of special neighbors
  special bonds CPU = 0.002 seconds
  read_restart CPU = 0.013 seconds
include 	in.setup
variable	out_freq equal 1000
variable	out_freq2 equal 10000
variable	out_freq3 equal 1000

timestep	2.0

neigh_modify    delay 7 every 1

include		in.tip4p
# This is TIP4P/Ice

# create groups ###
group ox type 2
288 atoms in group ox
group hy type 1
576 atoms in group hy

# set charges - beside manually ###
set group ox charge -1.1794
Setting atom values ...
  288 settings made for charge
set group hy charge 0.5897
Setting atom values ...
  576 settings made for charge

# ### TIP3P Potential Parameters ###
pair_style lj/cut/tip4p/long/omp 2 1 1 1 0.1577 8.5
pair_coeff 1 1*2 0.000 0.000
pair_coeff 2 2 0.21084 3.1668
bond_style  harmonic
bond_coeff  1 450 0.9572
angle_style harmonic
angle_coeff 1 55 104.52
kspace_style pppm/tip4p/omp 1.0e-5
pair_modify tail yes

thermo          ${out_freq}
thermo          1000
thermo_style    custom step temp pe etotal epair emol press lx ly lz vol pxx pyy pzz pxy pxz pyz enthalpy

restart 	${out_freq3} restart.lmp.${pid} restart2.lmp.${pid}
restart 	1000 restart.lmp.${pid} restart2.lmp.${pid}
restart 	1000 restart.lmp.0 restart2.lmp.${pid}
restart 	1000 restart.lmp.0 restart2.lmp.0


include         in.dump
dump            myDump all atom ${out_freq2} dump.water.${pid}
dump            myDump all atom 10000 dump.water.${pid}
dump            myDump all atom 10000 dump.water.0
dump            myDump2 all dcd ${out_freq2} dump.dcd
dump            myDump2 all dcd 10000 dump.dcd
dump_modify     myDump append yes
dump_modify     myDump2 append yes


variable natoms 	equal  "count(all)"                        # NUMBER ATOMS
variable H      	equal  "enthalpy/v_natoms"                 # ENTHALPY-per-atom
variable Vol      	equal  "vol/v_natoms"                 # volume-per-atom
fix AVG all 		ave/time ${out_freq} 1 ${out_freq} v_Vol v_H file vol_enthalpy.dat
fix AVG all 		ave/time 1000 1 ${out_freq} v_Vol v_H file vol_enthalpy.dat
fix AVG all 		ave/time 1000 1 1000 v_Vol v_H file vol_enthalpy.dat


timer           timeout 23:50:00 every 1000
New timer settings: style=normal  mode=nosync  timeout=23:50:00

fix 		1 all shake 1e-6 200 0 b 1 a 1
       0 = # of size 2 clusters
       0 = # of size 3 clusters
       0 = # of size 4 clusters
     288 = # of frozen angles
  find clusters CPU = 0.001 seconds
fix             2 all nph aniso ${pressure} ${pressure} ${pressureDamp}
fix             2 all nph aniso 2036.9 ${pressure} ${pressureDamp}
fix             2 all nph aniso 2036.9 2036.9 ${pressureDamp}
fix             2 all nph aniso 2036.9 2036.9 1000
fix             3 all temp/csvr ${temperature} ${temperature} ${tempDamp} ${seed}
fix             3 all temp/csvr 100.22 ${temperature} ${tempDamp} ${seed}
fix             3 all temp/csvr 100.22 100.22 ${tempDamp} ${seed}
fix             3 all temp/csvr 100.22 100.22 100 ${seed}
fix             3 all temp/csvr 100.22 100.22 100 745823


run             250000
PPPM initialization ...
  extracting TIP4P info from pair style
  using 12-bit tables for long-range coulomb (../kspace.cpp:340)
  G vector (1/distance) = 0.37190312
  grid = 24 27 25
  stencil order = 5
  estimated absolute RMS force accuracy = 0.0031407039
  estimated relative force accuracy = 9.4581364e-06
  using double precision FFTW3
  3d grid and FFT values/proc = 4410 672
Last active /omp style is kspace_style pppm/tip4p/omp
Neighbor list info ...
  update every 1 steps, delay 7 steps, check yes
  max neighbors/atom: 2000, page size: 100000
  master list distance cutoff = 10.8154
  ghost atom cutoff = 10.8154
  binsize = 5.4077, bins = 4 5 5
  1 neighbor lists, perpetual/occasional/extra = 1 0 0
  (1) pair lj/cut/tip4p/long/omp, perpetual
      attributes: half, newton on, omp
      pair build: half/bin/newton/omp
      stencil: half/bin/3d
      bin: standard
Per MPI rank memory allocation (min/avg/max) = 10.19 | 10.22 | 10.23 Mbytes
Step Temp PotEng TotEng E_pair E_mol Press Lx Ly Lz Volume Pxx Pyy Pzz Pxy Pxz Pyz Enthalpy 
30750000    103.79822   -4552.8292   -4374.9226   -4552.8292            0    1867.3715    17.858833    23.391473    21.976477    9180.5504    2147.7359    1806.0295     1648.349    15.864653    355.56635    280.88145   -4124.9022 
30751000    96.981981   -4549.8097   -4383.5859   -4549.8097            0    2753.9635    17.907436    23.186968    22.019972    9143.1139    1678.1051    3358.6797    3225.1057   -417.76767    291.30662    845.07139   -4016.3643 
30752000    98.576623   -4554.9176   -4385.9606   -4554.9176            0    2260.8257    18.026034    23.325034    21.824171    9176.1441    1818.0098    1599.7078    3364.7596   -393.26798   -129.26588   -321.43168   -4083.4064 
30753000    97.942496   -4560.3357   -4392.4656   -4560.3357            0    974.80238    18.073388    23.143792    22.068782    9231.0785    1772.3028     375.9904    776.11391    247.58574    952.33211    968.43108    -4261.232 
30754000    97.523899   -4571.6527   -4404.5001   -4571.6527            0      1370.75    17.967113    23.224101    22.038043    9195.8153    2489.0893    1668.1508   -44.990022    296.45619   -147.61551    126.97299   -4220.6667 
30755000    103.00124   -4560.7769   -4384.2363   -4560.7769            0    1515.9706    17.999585     23.34074    21.870366    9188.2578    922.42227    2253.6251    1371.8643    402.76735    345.72178    201.99667   -4181.0942 
30756000     100.5215   -4553.6376   -4381.3471   -4553.6376            0     1759.043     18.02327     23.20527    21.953672    9181.7905    1473.5331      1754.21    2049.3858   -89.323008   -75.823762    305.47176    -4145.799 
30757000    102.35638   -4559.0515   -4383.6162   -4559.0515            0    3024.6104    17.950708    23.137625    21.919669    9104.0441    3189.0495    3535.3314    2349.4504   -274.22201   -60.654861    -77.52558   -3982.0292 
30758000    106.29502    -4562.567    -4380.381    -4562.567            0    2833.3093    18.013513    23.185416    21.858714    9129.3095    3415.7995    3511.3411    1572.7872   -629.28151   -373.03949     321.8315   -4003.1496 
30759000    106.40798   -4558.2692   -4375.8896   -4558.2692            0    2217.9737    18.002011    23.089383    22.056206    9167.7796     1742.412    2617.4412    2294.0678     212.7939   -34.695051     221.9699   -4079.3406 
30760000    101.02107   -4556.6549   -4383.5083   -4556.6549            0    2735.6525    17.894769    23.257462    21.941615    9131.8132    2659.6391    2830.1385    2717.1798    64.176077   -774.26327   -331.67687   -4019.1792 
30761000    96.306726   -4551.7094    -4386.643   -4551.7094            0     2937.992    17.973465    23.386822    21.759774    9146.5516    2403.8639     2445.615     3964.497     517.1077   -185.65654    634.55715   -3994.7352 
30762000    106.60488   -4552.4053   -4369.6882   -4552.4053            0    2448.7225    17.900469    23.376421    21.861177    9147.7855     2551.797    1258.0721    3536.2985   -281.11188   -112.01274    155.31001   -4043.0015 
30763000    98.365576   -4546.9016   -4378.3064   -4546.9016            0    1594.1961    17.846157    23.392511    22.083882    9219.2793    1976.9543    1509.4652    1296.1688   -217.35937    322.14529    147.17077   -4163.9608 
30764000    101.16762   -4571.0788    -4397.681   -4571.0788            0    2138.9408    17.876777    23.361041    21.961084    9171.3906    2022.0921    2482.0226    1912.7076   -205.51971    136.88583    74.729764   -4111.5863 
30765000    101.55786   -4559.8086   -4385.7419   -4559.8086            0    2535.3802    17.833135    23.387168    21.960606    9159.0338    2384.9114    2800.5606    2420.6686    -99.63883   -188.38558    147.07168   -4047.0782 
30766000    101.82067   -4563.5406   -4389.0234   -4563.5406            0    1025.8021    17.889085    23.418312    22.009635    9220.5445    1404.5729    508.75267    1164.0806   -260.10372   -105.41726    438.96175   -4251.0816 
30767000    101.73205    -4559.487   -4385.1217    -4559.487            0     2056.839    17.971288    23.172953    22.025981    9172.6717    1596.5453    2901.6743    1672.2973    142.95526    98.312278    31.134922   -4109.9701 
30768000    95.546346   -4563.1363   -4399.3731   -4563.1363            0    2725.0254    17.973089    23.193911    21.935869    9144.3232    2214.2895    3511.7162    2449.0705   -447.78766    45.605392    59.322359   -4035.9621 
30769000      101.397   -4565.2639   -4391.4729   -4565.2639            0    2276.2963    17.975172    23.412503     21.79688    9173.0814    1712.0973    1837.5664    3279.2251   -395.68433    397.68683    300.02201     -4086.95 
30770000    99.671102   -4567.5941   -4396.7613   -4567.5941            0    2493.6443    17.796456    23.483766    21.890566    9148.6765    3676.6483    1343.4813    2460.8032    229.46416   -202.62034   -447.03924   -4064.0491 
30771000    101.27774   -4568.6212   -4395.0346   -4568.6212            0    3335.5678    17.849135    23.274212    21.905021    9099.8836    3164.8475    3537.0374    3304.8186   -523.86377   -441.20175    49.065786   -3952.3632 
30772000    104.81986    -4558.936   -4379.2783    -4558.936            0    2570.8757    17.891311    23.293959    21.937961    9142.8523    2722.5982    1966.2128    3023.8162    303.96633   -346.13708   -129.62629     -4036.48 
30773000    95.830301   -4559.2544   -4395.0045   -4559.2544            0    2685.9359    17.953143    23.196493    21.976901    9152.2791    3270.6026    2740.4009    2046.8043    389.80898    194.42254   -34.616782   -4036.4949 
30774000    107.74389     -4552.17   -4367.5007     -4552.17            0    2906.4588    18.068418    23.165515    21.800358    9124.8501    3082.2413    2677.4259    2959.7091    297.84016   -386.54253    14.293068   -3980.7191 
30775000    98.192041   -4553.4017   -4385.1039   -4553.4017            0    1973.6924    18.117034    23.165139    21.823347    9158.9014     847.6165     2510.329    2563.1317    451.38013    64.980356     426.6507   -4121.4716 
30776000    104.27494   -4555.3147   -4376.5911   -4555.3147            0    2079.4277    17.944399    23.289937    21.912271    9157.6622    2366.4336    2565.9671    1305.8824    -3.422947    62.055795   -52.509862   -4098.8729 
30777000    104.98532   -4560.6446   -4380.7033   -4560.6446            0    2370.5682     18.00601    23.100639    22.018465    9158.5878       1850.3    2691.3482    2570.0566    68.637721    664.86027    865.74367   -4064.0698 
30778000    96.234847    -4558.028   -4393.0848    -4558.028            0    1630.9837    18.104049    23.015163    22.028354    9178.5021    951.20425     1991.336     1950.411    185.96555   -625.38862   -123.75928   -4174.7629 
30779000    98.796566   -4570.2292   -4400.8952   -4570.2292            0    1825.7465    17.984153    23.290244    21.913405    9178.5463    1137.5821     2547.778    1791.8795   -558.34831    628.53735   -106.59842   -4156.5014 
30780000     100.5987   -4553.2025   -4380.7797   -4553.2025            0    2185.5238    17.878923     23.25623    22.068453    9175.9821     2346.134    2831.4078    1379.0295     671.9767   -384.09864    37.597165   -4088.3079 
30781000     104.2712   -4554.2988   -4375.5816   -4554.2988            0    2246.6382    17.921644    23.285023     21.92302    9148.6052    3006.3967    2102.7722    1630.7457    104.42791    -55.57856    270.38201   -4075.8283 
30782000    104.46465   -4559.8677   -4380.8188   -4559.8677            0    1853.6829    17.898244    23.286154    22.040933    9186.2481    2392.5589    2300.1468    868.34297    814.54353   -438.41342    288.91715   -4132.4772 
30783000    101.70426   -4560.5213   -4386.2037   -4560.5213            0    1954.8366    17.985709    23.234532    21.959705    9176.7305     1803.619    2010.1088    2050.7821    571.46952   -142.81098   -200.46558   -4124.5816 
30784000    99.654351   -4568.8309   -4398.0267   -4568.8309            0    1684.0699    17.937445    23.255377    22.033246    9190.9934    2373.8783    1359.5631    1318.7682   -738.85325   -21.123371   -35.487002    -4172.292 
30785000    98.183812   -4570.4675   -4402.1838   -4570.4675            0    2636.5399    17.900436    23.382906    21.860177    9149.8875    2685.0589    2639.5075    2585.0533    191.85704   -297.57053    120.77735   -4050.3593 
30786000    98.046824   -4565.3194   -4397.2705   -4565.3194            0    1661.5478    17.858092    23.482375    21.902788    9184.9433    1681.2067    1704.0109    1599.4258   -121.90771   -32.811839    198.28037   -4174.7012 
30787000    102.65469   -4560.5372   -4384.5905   -4560.5372            0    2163.5703    17.937568    23.369171    21.869434    9167.3626    2528.9628    1978.5764    1983.1716   -310.33088   -189.44253   -296.90842   -4095.3286 
30788000    98.947389   -4560.6502   -4391.0578   -4560.6502            0    1599.4638     17.91907    23.346672     21.97128    9191.6991    1667.0402    1082.9201    2048.4312   -242.67184    60.087243     388.3855   -4176.6473 
30789000    99.934314   -4560.0202   -4388.7362   -4560.0202            0    1397.6485    17.968603    23.475828    21.839096    9212.3382    1043.9489     800.7079    2348.2888   -265.32407   -407.15457   -331.85677   -4200.9586 
30790000     104.1377   -4569.7434   -4391.2549   -4569.7434            0    2055.1801    17.958544    23.289355    21.904514    9161.4073     1099.961    3003.9711    2061.6084   -658.24721   -165.21638    704.11313   -4116.6629 
30791000    94.797669   -4552.6931   -4390.2131   -4552.6931            0    1324.6162    18.039535     23.25652    21.941451    9205.2464    1712.4725    416.05854    1845.3176        -1025   -598.42498   -340.49193   -4212.3846 
30792000    102.36897   -4567.9468   -4392.4899   -4567.9468            0    2060.6504    17.940941    23.413831    21.841306    9174.7938    1574.1129    1064.9865    3542.8519   -143.95568    116.73865    554.61635   -4116.7647 
30793000    104.81292   -4565.3209   -4385.6752   -4565.3209            0    1589.7149    18.037604    23.320223    21.881258    9204.1533    620.45276    1776.1846    2372.5073   -381.68959    113.94697    56.280268   -4172.2828 
30794000    99.607607   -4554.3092   -4383.5852   -4554.3092            0    2032.1697    18.119517    23.200349    21.819885     9172.624    921.59513    2891.1116    2283.8025    286.84454   -302.90104   -236.16916   -4111.7351 
30795000    94.811719   -4568.0473   -4405.5432   -4568.0473            0    2346.0966    18.088723    23.162125    21.837256     9149.226    1415.1493    3007.3322    2615.8084    479.57042    189.00364    207.73204   -4092.4987 
30796000    102.70664   -4557.5983   -4381.5626   -4557.5983            0    2916.1364    18.062648    23.175414      21.8232    9135.3954    3224.5626    3492.7415    2031.1049   -764.27111    265.32782    29.836938   -3993.0447 
30797000    97.355411   -4561.4342   -4394.5704   -4561.4342            0    2221.8425    18.058652    23.219969    21.864103    9168.0845    2184.8724    2392.0022    2088.6529   -143.55728   -173.90617    613.65679   -4097.4943 
30798000    98.139673   -4553.0641   -4384.8561   -4553.0641            0    1718.7353    18.058858    23.225457    21.941718    9202.9098    1656.7068    1841.7169     1657.782   -202.59978   -640.01929    209.66449    -4154.176 
30799000    101.71133   -4556.6794   -4382.3497   -4556.6794            0    1580.9797    18.054698    23.224859    21.961365    9208.7913     1083.649    1305.0988    2354.1912   -394.69787   -412.70783    70.364976   -4170.0229 
30800000    96.524731   -4560.0245   -4394.5844   -4560.0245            0    2249.4148    18.031579     23.15485    21.988801    9180.7314    1457.3703     3474.093    1816.7812  -0.66266038    419.84138    476.08151   -4093.4068 
30801000    104.58028   -4560.5329   -4381.2859   -4560.5329            0    2051.5472    18.047482    23.270066    21.849111    9175.8858     1772.897    2233.2193    2148.5253   -450.84641    623.95821    8.6563657   -4106.7461 
30802000    97.455194   -4558.4295   -4391.3947   -4558.4295            0    1422.7632    17.894792    23.505089    21.866353    9197.3965    1620.2031    1027.9551    1620.1314    738.01162   -437.82953    296.31822   -4200.5529 
30803000    97.649768   -4562.7062   -4395.3379   -4562.7062            0    2284.1834    17.770898    23.542057    21.898578    9161.5656    2416.5789    1790.9851    2644.9864   -490.48358    403.36583    251.34549   -4090.1435 
30804000    101.94588   -4555.5542   -4380.8224   -4555.5542            0    2258.4156    17.941015     23.38671    21.853303    9169.2378    1698.8279    2148.5126    2927.9065    1210.9446   -220.54125    281.59988   -4078.8182 
30805000    97.589927   -4555.4927   -4388.2269   -4555.4927            0    2550.9025    17.909204    23.343336      21.9318    9168.8205    1928.5015    3230.4974    2493.7087    -409.8204     159.2091   -359.55615   -4047.1258 
30806000    105.15989   -4557.9506   -4377.7102   -4557.9506            0    889.84393    17.963588    23.386105    22.007858    9245.4652    1335.6172    766.40305    567.51152     203.6725   -55.315359    493.26421   -4257.7275 
30807000    104.83857   -4567.6204   -4387.9306   -4567.6204            0    1917.4955    17.848252     23.27883    22.105957    9184.7251      2512.72    2492.9853    746.78108    99.485542    155.06204    313.53444   -4131.0825 
30808000    92.648333   -4547.1126   -4388.3165   -4547.1126            0    2532.4146    17.867811    23.333189    21.966181    9157.9868    2554.2219    2266.2265    2776.7953    477.62582    -185.8102    236.74539   -4050.0876 
30809000    98.963983   -4556.6402   -4387.0193   -4556.6402            0    1347.8685    17.925573    23.499134    21.867009    9211.1589    2034.5164    844.58995    1164.4991   -675.51807   -139.81884    28.564552    -4205.953 
30810000    99.322796   -4572.9167   -4402.6808   -4572.9167            0    1971.6781    17.911762     23.38019    21.915253    9177.6784    2356.9726    1447.7112    2110.3503    355.37642   -21.591004      521.872   -4138.7775 
30811000    101.57025    -4563.046   -4388.9581    -4563.046            0    1860.6637    18.020489    23.245794    21.916907    9181.0047    1773.3892    1195.3488     2613.253    25.491545    556.41928   -52.196879   -4139.8235 
30812000    99.018383   -4553.2764   -4383.5623   -4553.2764            0    1717.7127    18.114265    23.189171    21.939119    9215.6315    558.98686    2087.0743    2507.0769   -12.502565    58.769617    155.83706   -4152.7008 
30813000    103.19982    -4551.436    -4374.555    -4551.436            0    2270.0161    17.885431    23.274383    22.082826    9192.4706    2716.0219    1870.4054     2223.621   -541.89052    41.152361       266.74   -4070.2304 
30814000    103.19007   -4565.5123    -4388.648   -4565.5123            0    2265.8966    17.871231    23.319398    22.008021    9171.7622    2641.9273    2055.4711    2100.2913     67.77192    100.94771    432.12663     -4085.56 
30815000    96.556641   -4567.9222   -4402.4274   -4567.9222            0    1579.0195    17.902353    23.328634    22.023147     9197.691    1875.3938    1821.2461    1040.4185    5.9187643    298.96461   -327.78498   -4190.6195 
30816000    102.88865    -4553.648   -4377.3004    -4553.648            0    2052.3514    17.986348    23.211312    22.054178     9207.327    2954.2631    2237.6962    965.09481   -466.57323    33.644251    336.45876   -4101.7118 
30817000    96.329237   -4569.5635   -4404.4585   -4569.5635            0    1806.0601     17.97107    23.202951    22.016086    9180.3085    2466.1375    2369.5219    582.52092    171.23555    503.27383    375.91257   -4162.6535 
30818000    102.34978   -4565.9851   -4390.5611   -4565.9851            0    1993.5485    17.952582     23.28261    21.945366    9172.7889    1079.3169     1639.811    3261.5176   -919.96795   -447.48816    35.453696   -4123.8727 
30819000    93.432521   -4566.2743   -4406.1342   -4566.2743            0    2312.1238    17.920446    23.242542    22.010006    9167.5357    2280.0273    1938.7805    2717.5635    317.50515   -295.31549    295.31085   -4097.0053 
30820000    96.232089    -4555.781   -4390.8425    -4555.781            0    1817.7063    17.978969    23.462819    21.788154    9191.0561    1768.1058    1162.1244    2522.8888     64.17371   -79.978454    319.93206   -4147.1933 
30821000    97.830247     -4561.31   -4393.6323     -4561.31            0    973.97155    18.072415    23.313095    21.898955    9226.5533     663.9579     971.5294    1286.4273   -605.74045    514.61021   -224.84087   -4262.5748 
30822000    109.56034   -4556.4272   -4368.6445   -4556.4272            0    336.26051    18.000443    23.285136    22.051279    9242.6338    384.35225   -427.69621    1052.1255   -202.14944   -324.84185   -67.428701   -4323.3185 
30823000    93.429568   -4560.2956   -4400.1605   -4560.2956            0    2491.6115    17.943209    23.255699    21.933109    9152.2884    2416.9785    2073.9076    2983.9484   -104.20952    358.86854   -355.90544   -4067.5883 
30824000    101.44348   -4565.9568   -4392.0861   -4565.9568            0    2399.7006     17.77466    23.614003    21.806577    9152.8941    2878.2927    1553.1395    2767.6695    290.53923    320.68585    127.80449   -4071.7607 
30825000    94.175316   -4554.7925   -4393.3793   -4554.7925            0     2156.668    17.966784    23.383382    21.884778    9194.3242     914.3303    1829.9894    3725.6842   -758.17738    125.52558    25.301991   -4104.1921 
30826000    101.56088   -4566.2027   -4392.1308   -4566.2027            0    2230.2686    17.989996    23.312004    21.887831     9179.381    1125.0275    2714.1703    2851.6079    478.92247   -6.7679245   -501.76037   -4093.5606 
30827000    94.452775   -4557.6833   -4395.7945   -4557.6833            0    3081.6848    17.957805    23.257184    21.874405    9135.8006     2192.267    3328.9824    3723.8052   -597.67827   -150.15713    83.455517   -3985.2022 
30828000    107.01412    -4554.339   -4370.9205    -4554.339            0    2209.7093    17.969895    23.285997    21.901915    9164.7888    1837.7839    1903.5064    2887.8374    382.32566   -435.78882    -33.74933   -4075.5729 
30829000    97.134981   -4556.7864   -4390.3004   -4556.7864            0    1201.9408    17.908878    23.444118    21.936737    9210.3114     1768.761    282.50787    1554.5537    122.17273   -330.61335   -12.972383   -4228.8521 
30830000    103.94143   -4551.6503   -4373.4983   -4551.6503            0     2084.018    17.853237    23.351374     22.00317    9173.0691    1257.3266    2443.0087    2551.7187    27.704723   -259.75307   -264.73858   -4094.6988 
30831000    101.12586   -4562.7735   -4389.4472   -4562.7735            0    1950.0609    17.970957    23.248601    22.001597    9192.2584    2257.9274    2001.3611     1590.894    123.17101    78.472411    64.519162   -4128.0227 
30832000    98.258721   -4566.0004   -4397.5883   -4566.0004            0    1555.1982    18.101591    23.161914    21.906406     9184.644     1031.471    1437.0374    2197.0861    105.13694   -112.25048     679.9957   -4189.2716 
30833000    94.443366    -4558.672   -4396.7993    -4558.672            0    2605.8384    17.942588    23.291713    21.858744    9135.0668    3454.9576     1728.787    2633.7707    99.847345   -388.18084   -219.16748    -4049.635 
30834000    106.90386   -4556.5048   -4373.2753   -4556.5048            0     2305.088    17.933601    23.389644    21.848872    9164.7399    2562.0065    2107.7171    2245.5404    349.94528   -207.23442     104.1793   -4065.1811 
30835000    98.579069   -4554.9961    -4386.035   -4554.9961            0    2481.5721    17.745636    23.481794    21.939427    9142.1459    2768.5296    1931.4067      2744.78    80.925619    390.15317    -714.4366   -4055.1699 
30836000    102.31089   -4565.2795   -4389.9222   -4565.2795            0    1752.4997    17.806143     23.35934    22.026956    9161.8866    1758.7411    1587.1406    1911.6174   -504.14191   -48.385387   -493.34326   -4155.7589 
30837000    98.965174    -4567.827   -4398.2041    -4567.827            0    1057.9791    17.877945    23.374283    22.049652       9214.2    1961.9574    219.88118     992.0987   -137.37236    298.44714     445.2669   -4256.0332 
30838000    102.41982   -4552.7948   -4377.2507   -4552.7948            0     2626.128    17.994973    23.211633     21.92275    9156.9729    2638.6402    2886.6894    2353.0543    451.26461   -29.731618   -595.42415   -4026.5443 
30839000     97.40286   -4567.7092    -4400.764   -4567.7092            0    2724.2973    17.977008    23.299162    21.821212    9139.7978    2186.0114    2436.5123    3550.3683    63.319329   -326.53131     84.09387     -4037.63 
30840000    102.62031   -4561.6523   -4385.7646   -4561.6523            0    1912.9416    18.000774    23.262864    21.887563    9165.4073    2444.0816    985.48009     2309.263   -203.96583    128.61184    175.15573   -4130.0654 
30841000     95.05589   -4564.0683   -4401.1458   -4564.0683            0     2814.712     18.02088    23.245053    21.786126    9126.1279    2311.7132    2450.8343    3681.5884   -974.33034    -102.8104     9.172529   -4026.5211 
30842000    100.35778   -4553.4875   -4381.4777   -4553.4875            0    2505.8494    17.951487    23.244909    21.922972    9148.0329    2687.0079    2819.1906    2011.3498    351.96844   -164.43805     255.9652   -4047.1606 
30843000    100.16322   -4571.1719   -4399.4956   -4571.1719            0    2837.7617    17.978053    23.290319    21.826724    9139.1678    3154.4793     2584.558    2774.2478    470.85374   -440.33284   -135.72645   -4021.2634 
30844000    98.552423   -4560.1341   -4391.2186   -4560.1341            0    2202.6991    17.962064    23.345846    21.841131    9158.8509    2455.3106    1854.8126    2297.9741   -397.12453    135.58219    733.51577   -4096.9987 
30845000    95.996675   -4560.0567   -4395.5217   -4560.0567            0    2227.8003    17.859284    23.427725    21.894222     9160.595    2383.0421    1602.8601    2697.4988    33.783055    265.25588    89.334643   -4097.8923 
30846000    108.62922   -4568.5487   -4382.3619   -4568.5487            0    2686.7162    17.980591    23.346594    21.778341    9142.2331    2806.4612    2526.6487    2727.0386    495.43851   -76.471307   -284.13979   -4024.1418 
30847000    103.52005   -4565.8203   -4388.3905   -4565.8203            0    1768.3567    18.033674    23.296618    21.871239     9188.624    1772.1425    1469.9865     2062.941    456.15688   -63.828248   -296.50186   -4151.4189 
30848000    98.911857   -4570.3923   -4400.8608   -4570.3923            0    2367.4652    18.048116    23.281967    21.816947    9167.3858    2330.2242    3345.9294    1426.2419   -746.81934    279.08403    168.07306    -4084.338 
30849000    99.253516   -4559.5155   -4389.3983   -4559.5155            0    1147.7779    18.015553     23.23062    21.986649    9201.6869    1174.2202    885.97582    1383.1377    35.408663    -948.3118    69.017166   -4235.3698 
30850000    99.323904   -4568.6743   -4398.4365   -4568.6743            0    1850.1718    18.021653    23.256272    21.902489    9179.6935    1378.2664    1997.0319     2175.217    389.58318    -126.5161    423.43381   -4150.7421 
30851000    100.14889   -4574.7028    -4403.051   -4574.7028            0    1690.8253    17.983183    23.256254    21.959381    9183.8847    2052.3747    1430.4426    1589.6585    -780.7267   -26.666486    147.73525   -4176.5861 
30852000    103.01766   -4560.7378   -4384.1691   -4560.7378            0    2243.2743    17.970767      23.3788    21.824618     9169.285    3196.9706    1788.1846    1744.6678     541.7803   -240.80046    167.03445   -4084.1881 
30853000     104.9888   -4565.5516   -4385.6044   -4565.5516            0    1589.3146    17.913385    23.452193    21.844075    9176.8742    1112.2494    958.38447      2697.31   -60.718048    204.78935   -212.98063    -4172.898 
30854000    104.85701   -4572.2964   -4392.5751   -4572.2964            0    1765.4591    17.958078    23.385072    21.925679    9207.7098    1367.8143    1189.9067    2738.6565   -114.58664   -506.42152    53.727393   -4155.5004 
30855000    103.32382   -4560.0364   -4382.9429   -4560.0364            0    2036.2354    17.985473    23.418784    21.806061    9184.6672     1781.366     2274.057    2053.2832   -429.15957    389.66616    265.94685   -4110.1913 
30856000    94.396551   -4561.5933   -4399.8008   -4561.5933            0    1511.7966    17.999201    23.215922    22.021063    9201.8985    1691.8404    1387.6067    1455.9427    771.13137   -83.942539    591.21252   -4196.9173 
30857000    97.417106   -4565.0045   -4398.0349   -4565.0045            0    2118.3482    17.921446    23.323324    21.946551    9173.3881    2667.8194    1408.8075    2278.4178   -1.3456928   -63.066105   -116.53887   -4114.6329 
30858000    98.032266    -4557.558    -4389.534    -4557.558            0    2353.9993    18.019773     23.32261    21.796169    9160.2352    1224.2769    3196.3646    2641.3564    330.23166      57.4595    362.91469   -4075.0571 
30859000    103.76915   -4570.3023   -4392.4455   -4570.3023            0    2683.3362    17.908352    23.273103    21.908818    9131.2213    2003.0609    3689.9463    2357.0015    730.36657    84.175231    188.82309    -4035.107 
30860000    97.591571   -4558.1897   -4390.9211   -4558.1897            0    2200.8116    17.976206    23.111674    22.046948    9159.6302     2232.674    3027.3215    1342.4392    503.54673    462.13902   -156.39734   -4096.9283 
30861000     101.5644   -4562.7052   -4388.6273   -4562.7052            0    1429.7248    18.027282    23.275262    21.960909    9214.5716    1068.4919    1943.4785     1277.204   -185.59973   -323.73136    264.02974   -4196.4937 
30862000    101.96796   -4565.6817   -4390.9121   -4565.6817            0    1443.0749    17.981384    23.460582     21.75974    9179.4277    1974.9208    781.64435    1572.6596    27.654424    335.62819    219.87889    -4197.724 
30863000    96.274238   -4556.4403   -4391.4296   -4556.4403            0    1202.8505    17.985398    23.494872     21.80264    9213.0245    1847.9345    293.69193    1466.9251   -347.54822    88.523072   -77.120051   -4229.8115 
30864000    101.91435   -4548.0912   -4373.4135   -4548.0912            0    2072.5414    17.998176    23.249703      21.9285    9176.0297    1262.4276    2925.4524    2029.7441   -10.241165    10.341577   -710.57292   -4096.0598 
30865000    103.15191   -4557.7383   -4380.9395   -4557.7383            0    1535.8148    17.921809    23.340182    22.002028    9203.4103    1591.3516    1606.1287    1409.9641   -495.49524   -120.94118   -550.27314   -4174.7989 
30866000    98.364148   -4566.0751   -4397.4823   -4566.0751            0    1112.6072    18.028312    23.273162    21.970798    9218.4156    604.12757    1452.0359    1281.6581    64.468664   -320.12237   -42.806425   -4247.9021 
30867000    97.637284   -4569.3986   -4402.0516   -4569.3986            0    2741.4406    17.976253    23.248079     21.85473    9133.3832    3018.7807    3602.5998    1602.9414   -117.94037    40.249635    84.115046   -4036.8889 
30868000    96.524085   -4564.6655   -4399.2265   -4564.6655            0     1872.535    17.929177    23.210581    22.056055    9178.5524    1974.5888    2374.9809    1268.0353    448.35453   -373.76631   -290.63856   -4148.5694 
30869000    101.82054   -4556.3591   -4381.8422   -4556.3591            0    2905.1008    17.942139      23.2071     21.95144    9140.2504    2612.5412    2403.9922     3698.769   -194.46436    123.99165    196.98664   -3994.5888 
30870000    98.163163   -4563.4375   -4395.1892   -4563.4375            0    1982.0941    18.044506    23.231438    21.885432    9174.3695    1104.4078    2088.9528    2752.9216    89.477005   -74.510062    772.30877   -4129.9875 
30871000     104.7076   -4575.1002    -4395.635   -4575.1002            0    1671.3203    18.012901    23.218758    21.964482    9186.3631    1464.9956    2011.1192    1537.8461   -463.70395    67.595586   -140.95406    -4171.722 
30872000    104.27969   -4558.2606   -4379.5288   -4558.2606            0    1143.6539     17.90524    23.343271    22.008832     9198.963     1059.627    1112.5512    1258.7834    318.09999    483.36183    308.46509   -4226.0991 
30873000    98.427119   -4573.4457   -4404.7449   -4573.4457            0    1257.1473    17.939727    23.347657    21.965193    9200.1339    1625.2638    1599.5172    546.66101   -445.48472    174.94185   -418.96085   -4236.0678 
30874000    101.93747   -4555.2045   -4380.4871   -4555.2045            0     1469.747    18.011438    23.253925    21.930499    9185.2963    1534.1098    1599.5507    1275.5805   -69.130522    56.699803   -329.11244   -4183.6026 
30875000    105.83709   -4555.4802   -4374.0791   -4555.4802            0    1267.8413    17.991532    23.210905    22.029259    9199.4126    1663.2484    706.63692    1433.6387   -305.21659   -387.60132    337.34811   -4203.9804 
30876000    104.65265   -4568.5242   -4389.1532   -4568.5242            0    2486.7076    17.944154    23.265122    21.918029    9150.1838    3164.7337     1637.367    2658.0221     489.4431   -66.585081    373.22182   -4057.3119 
30877000    103.58505    -4561.868   -4384.3267    -4561.868            0    2266.8555    17.988946    23.166345    21.939759    9143.1339     2232.497    2105.2046    2462.8648   -5.5463852   -226.59567    431.38337   -4082.0569 
30878000    104.88659   -4568.2103   -4388.4383   -4568.2103            0    2045.0418    17.962733    23.250819    21.948363    9166.6958    1469.6631    2700.3498    1965.1125   -38.427014   -332.71798    29.762457   -4115.0431 
30879000    103.07418   -4557.9364   -4381.2708   -4557.9364            0    1374.3174    17.837203    23.451451    22.057873    9226.9913    2153.4218     1529.431    440.09958   -410.84935    53.247634    173.19948   -4196.3341 
30880000     98.19708   -4565.7618   -4397.4554   -4565.7618            0    2441.7335    17.856584    23.379317    21.960617    9168.0028     3158.649     2403.722    1762.8294   -726.88267   -185.27595    372.64578   -4070.9811 
30881000    96.599019   -4568.4435   -4402.8761   -4568.4435            0    1638.2028     17.87507    23.332688    22.005906    9178.0788    1837.7125    2447.6318    629.26409    33.365008    282.16937    114.54564    -4183.598 
30882000    100.44166   -4550.4583   -4378.3047   -4550.4583            0    2170.0184    17.890672    23.451263    21.875366    9178.0036    2445.3492    1634.2431     2430.463    -303.4492     506.3069    412.20551   -4087.8439 
30883000    96.938447   -4560.7061   -4394.5569   -4560.7061            0    2315.8469    17.876933    23.444631    21.847925     9156.861    2857.9311    1535.8824    2553.7272   -54.998232   -267.52772   -73.858902   -4085.2908 
30884000    100.88312   -4569.5604   -4396.6502   -4569.5604            0    3029.0244    18.073897    23.193168    21.730852    9109.3761    3149.8748    2061.0659    3876.1326   -520.31951    256.32408   -229.31527   -3994.2416 
30885000    91.955878   -4562.2925   -4404.6833   -4562.2925            0    2638.0621    17.959565    23.279759    21.870995    9144.1392    3136.1401     2352.028    2426.0183    241.68123    -46.62956    94.909733   -4052.8769 
30886000    95.589609   -4551.8025   -4387.9651   -4551.8025            0    2360.6777    17.871542    23.491894     21.80884    9156.1445    3070.7162    2178.0311    1833.2859     -166.931    91.873794   -373.22124   -4072.7368 
30887000    95.313433   -4562.3225   -4398.9586   -4562.3225            0     1211.101    17.979528    23.424548    21.854779    9204.4094    1431.7538    1287.7978    913.75153    38.724869     -269.364    102.49027   -4236.3842 
30888000    99.605486   -4558.2774    -4387.557   -4558.2774            0    2028.9465    17.843708    23.538444    21.867413    9184.6004    2366.2158    2067.2669     1653.357    158.95435   -291.39373    428.48957   -4115.7837 
30889000    93.728141   -4571.6297   -4410.9828   -4571.6297            0    2410.4143    17.984885    23.307482    21.853699    9160.6854    1868.9164    2838.5462    2523.7802    62.504878    216.05801    344.81822   -4088.9534 
30890000    100.09151    -4564.948   -4393.3945    -4564.948            0    1703.7441    18.074001    23.272374    21.864955    9196.9448     1067.023    1177.2411    2866.9681   -362.94102    261.66333   -634.34683   -4164.8747 
30891000    101.38996   -4575.2361   -4401.4572   -4575.2361            0    1827.2481    18.056717    23.286192    21.859536    9191.3266    592.89167    1975.6165    2913.2362    31.816622   -153.39696    374.67995   -4156.5218 
30892000      98.8684   -4569.2218   -4399.7647   -4569.2218            0    1998.7011    17.965154    23.440274    21.837077    9195.7709    1129.2144     1446.226    3420.6628   -527.74738   -381.42948   -28.492614   -4131.7172 
30893000    96.150814   -4560.3676   -4395.5684   -4560.3676            0     2309.244    17.939435    23.222536    22.002882     9166.383    2117.4729    2953.4244    1856.8347    371.62015   -11.606378    51.689377   -4086.8634 
30894000    97.661971   -4561.5541   -4394.1648   -4561.5541            0    2043.9278    17.998141    23.181182     22.01651    9185.6879    2147.0494     1642.302    2342.4322   -26.051385    178.32866    63.794143   -4120.3524 
30895000     98.51359   -4551.6866   -4382.8377   -4551.6866            0    1288.3439    17.901456    23.292945    22.127531    9226.6854      1416.97    1572.5549    875.50692   -612.63791   -30.979401    197.25163   -4209.4759 
30896000    99.104991   -4565.7822   -4395.9197   -4565.7822            0    1861.2888    17.819968    23.252851    22.170346    9186.6165    2825.4798    2313.9448    444.44181    350.07876    609.45995   -646.36782   -4146.5491 
30897000    96.776196   -4569.3784   -4403.5073   -4569.3784            0    1936.4639     17.93052    23.259843    21.984454    9168.8603    2032.2028    1673.4462    2103.7428   -834.34052    87.119706     492.9164   -4144.5664 
30898000    96.681479   -4565.6055   -4399.8968   -4565.6055            0    1944.6291    17.800093    23.415499    21.992438    9166.4059      2611.91    1852.4933    1369.4839    622.37147   -493.45779    233.51741   -4139.9337 
30899000    104.87771   -4554.7322   -4374.9754   -4554.7322            0    2002.2372    17.832473    23.365982    21.999893    9166.7669    2440.9611    911.61325    2654.1372    340.89171    261.19722   -368.35451   -4107.3005 
30900000    99.508946   -4567.2122   -4396.6572   -4567.2122            0    1591.0759    17.958699    23.311205    21.937138    9183.7397    986.57985    1823.8586    1962.7893    269.17567    193.17711    221.42874   -4183.5558 
30901000    104.31758   -4562.2884   -4383.4916   -4562.2884            0    924.57638    18.016145    23.250119    22.033979    9229.5387    1248.5605    1128.2793    396.88936    268.50625    154.15703    -11.94345   -4259.0405 
30902000    97.303339   -4569.0578   -4402.2832   -4569.0578            0    1067.3723    17.966517    23.300707    21.992222      9206.66    1339.5255    873.32916    989.26217     47.21277   -409.79601    36.163134   -4258.9674 
30903000    102.18085   -4562.6989   -4387.5644   -4562.6989            0     2461.592    17.980186    23.283802    21.879841    9159.9322    2348.9002     2853.096    2182.7797    31.985883    285.28868    538.65913   -4058.7247 
30904000    98.823526   -4566.4901   -4397.1099   -4566.4901            0    2703.2877    17.898832    23.462105      21.7633    9139.3731    2746.5815    3066.4312    2296.8506    231.09908    123.51735   -113.06113   -4036.7931 
30905000    100.42188   -4567.1702   -4395.0505   -4567.1702            0    1105.1822    18.008522    23.387125    21.897778    9222.6337    1035.2427    1481.3462    798.95775    150.65999   -133.09055   -253.81411   -4246.4006 
30906000    95.670083   -4573.7638   -4409.7885   -4573.7638            0    2199.4919    18.047877    23.257411     21.77338    9139.3085    1529.8283    2778.0021    2290.6454   -471.09419   -281.16983    494.18568   -4116.6239 
30907000    92.255556   -4554.2812   -4396.1583   -4554.2812            0    1769.9742    18.081307    23.251051    21.822446    9174.3611    2077.4949    1502.4173    1730.0105    711.74548   -55.885101     242.9342   -4159.3382 
30908000    99.324656   -4567.2115   -4396.9725   -4567.2115            0    2799.4569    18.023269    23.302719    21.773339    9144.6101    2355.9353    3053.7151    2988.7203    559.52546    243.16494    521.28914   -4023.6236 
30909000    100.86681   -4566.0305   -4393.1482   -4566.0305            0    2024.9622    17.974358    23.343897    21.892028    9185.7099    2196.0952    2634.1861    1244.6053    70.412267    116.71595    -68.67428   -4121.8758 
30910000      105.857   -4561.8693    -4380.434   -4561.8693            0    2495.3268    17.820087    23.440979    21.952389     9169.958    3467.4023    1711.0068    2307.5713   -138.05612    181.33415    180.14822   -4046.7229 
30911000    97.024132   -4568.6759   -4402.3799   -4568.6759            0    1847.8577    17.919099    23.396852    21.923929    9191.6181    2360.9983    2696.1802     486.3945    668.95107    314.44115     207.0616   -4154.6739 
30912000    98.052609   -4564.2088     -4396.15   -4564.2088            0     1314.701    17.835111    23.516019    21.978145     9217.872     2020.996    409.13393     1513.973   -472.22805    -544.2695   -310.45695   -4219.4106 
30913000    100.21171   -4562.8872   -4391.1278   -4562.8872            0    1372.8641     17.94194    23.485203    21.877313    9218.4454     1552.337    1101.8836    1464.3718    101.48461    -337.7611    297.77275   -4206.5578 
30914000    95.888408   -4560.8911   -4396.5416   -4560.8911            0    1734.3061    17.925732    23.488753    21.838665    9195.2375    1752.0038    1164.5674    2286.3471    276.14787   -402.80459   -24.682587   -4163.9658 
30915000    97.489991   -4559.7942   -4392.6997   -4559.7942            0    1743.2756    17.895164    23.390529    21.950803    9188.1088    1515.1492    1394.6477    2320.0298     268.0204    373.01814   -295.59219   -4159.1022 
30916000    97.981784   -4551.8576   -4383.9201   -4551.8576            0    1435.9822     17.93333    23.401315    21.945264    9209.6263    923.90219    1665.2523    1718.7922   -624.00495   -730.66717   -51.855355   -4191.0491 
30917000    95.114912    -4566.664   -4403.6402    -4566.664            0     1926.298    17.938932    23.303376    21.951711    9176.6423    1668.3751    827.62695    3282.8918    83.775342   -161.12285    144.76448   -4145.8401 
30918000    107.51919   -4559.5216   -4375.2373   -4559.5216            0    1852.1952      17.9761    23.220741    21.999232    9182.8837    1444.3451    1617.3746     2494.866    790.57123    224.67192    337.96637   -4127.1859 
30919000    103.40284   -4555.2025   -4377.9736   -4555.2025            0    2155.3184    17.952549     23.17621    22.034987    9168.1422     2433.049    2144.1014     1888.805    267.20655    -341.7892    210.43021   -4089.7904 
30920000    100.49397   -4562.0879   -4389.8447   -4562.0879            0    1992.2442    17.939767    23.278263     21.98367    9180.5263    1849.2191    2699.2913    1428.2222    36.242943    526.40264     456.3721    -4123.106 
30921000    96.830627   -4557.9125   -4391.9481   -4557.9125            0    1506.9141    18.088661    23.271576     21.84039    9193.7481    867.62931    1216.0855    2437.0275    310.33141    45.247032    255.24663    -4189.899 
30922000    96.243769   -4557.2381   -4392.2796   -4557.2381            0    1343.5412    17.991278    23.206837    22.043953    9203.8059    659.84382    2363.5535    1007.2263    115.23694   -484.34421   -218.57698   -4211.9386 
30923000    97.232665   -4561.2345    -4394.581   -4561.2345            0    2277.7678    17.948016    23.269503    21.937705     9162.094     2293.819    1785.5372    2753.9472   -277.13475   -340.74783    465.34108   -4090.2263 
30924000    99.000427   -4567.5539   -4397.8706   -4567.5539            0    2667.8554    17.918597    23.265953    21.960286    9155.0946    2139.3058    2690.1467    3174.1136   -226.22628    -169.7851    64.233127   -4041.6648 
30925000     103.6938    -4562.483   -4384.7553    -4562.483            0    2298.7415    17.936943    23.266495    21.960024    9164.5727    2200.5016    1634.2219     3061.501   -425.88865   -196.78565    272.00767    -4077.515 
30926000     97.31171   -4561.7844   -4394.9954   -4561.7844            0    2018.0488    17.947671    23.307498    21.957445    9185.1353    2706.6174    1234.3604    2113.1687   -283.71332   -129.24567     74.81553   -4124.6661 
30927000    102.54955   -4554.0071   -4378.2407   -4554.0071            0    1524.9956     17.75691    23.417337    22.117725    9196.9824    2359.5457    1355.7764    859.66477   -293.56775   -212.24781    -565.2878   -4173.6952 
30928000     104.6308   -4564.7038   -4385.3702   -4564.7038            0    1467.6333    17.865059    23.453777     21.99365    9215.4078    1225.7298    1116.1433    2061.0266    210.01305    59.215573   -67.082263   -4188.1243 
30929000    95.774028    -4553.583   -4389.4296    -4553.583            0    2223.3409    17.847412    23.290101    22.061528    9170.2718    2732.7272    1826.6164    2110.6792    -579.4403   -220.67519     112.8486   -4092.0822 
30930000    98.514588   -4562.6403   -4393.7896   -4562.6403            0    1431.4798    17.920268    23.350892    21.973857    9195.0534    1837.8948    1997.4662    459.07844   -186.54995   -148.86857    76.936371   -4201.8276 
30931000    102.02846   -4561.3801   -4386.5068   -4561.3801            0    3025.4569    17.906623    23.279029    21.904963    9131.0576     3368.312    3124.3221    2583.7365    -153.3954    -285.3319    89.972994   -3983.6154 
30932000    104.69872   -4554.6113   -4375.1612   -4554.6113            0    2539.3025    17.835428    23.395191    21.921908    9147.2063    3089.4953    2368.6076    2159.8044    252.38946    -11.34456   -92.677225   -4036.4116 
30933000     94.76305   -4559.3571   -4396.9365   -4559.3571            0     2402.234    17.873404    23.237061    22.054906    9159.9625      2806.44     3566.086    834.17603   -100.66592   -67.670983    187.58534   -4076.0253 
30934000    96.384357   -4565.3737   -4400.1742   -4565.3737            0    1635.3696     17.91153    23.271326    22.078254    9202.7696    1478.0976    1901.9603    1526.0509   -71.902954    436.71294   -10.734037   -4180.6864 
30935000    103.75277   -4560.4698   -4382.6411   -4560.4698            0    2577.2523    17.913403    23.303739     21.97051    9171.5734    2657.5351    3230.0381    1844.1838   -367.79364    59.079436     -80.1669    -4037.913 
30936000     99.26128   -4554.6166   -4384.4862   -4554.6166            0    2826.7824    17.768271    23.496391    21.923555    9152.8704    2475.3962    2703.6355    3301.3155    8.6514002   -127.04705   -93.469414   -4007.1525 
30937000    97.960512   -4561.1315   -4393.2305   -4561.1315            0    2115.1785    17.801267    23.464704    21.931146    9160.6717    2616.1238    1265.9977    2463.4141    272.68056   -50.058869    676.32432   -4110.6448 
30938000    102.32781   -4551.2825   -4375.8962   -4551.2825            0    2622.6506    17.777307    23.509284    21.913612    9158.3943    2364.1833    2734.4871    2769.2814    371.50451     239.2717    681.87545   -4025.5998 
30939000    100.84333   -4574.5805   -4401.7385   -4574.5805            0    1974.0782    17.914102    23.294041    22.033141    9194.2498    2231.9184    2296.9483    1393.3679    4.5829803    159.24905    31.787858   -4137.0369 
30940000    105.18394   -4555.2895   -4375.0078   -4555.2895            0    1887.2143    17.875597    23.279725    22.081994    9189.1782    2241.5968    2160.3048    1259.7413   -421.68462   -503.75158    101.13349   -4122.0932 
30941000    98.814949   -4558.2704    -4388.905   -4558.2704            0    1504.8147    17.931802    23.304625    22.092005    9232.1148    1764.9276    1517.4599    1232.0566   -782.73527    5.8437098    936.02549   -4186.2953 
30942000    100.36954   -4560.2013   -4388.1713   -4560.2013            0     1893.646    17.965819    23.354572    21.944449    9207.5402    702.98644    2617.2204    2360.7312    240.09017    135.65663   -263.21186   -4133.8877 
30943000    94.152365   -4546.7994   -4385.4255   -4546.7994            0    3191.4925    17.892566    23.288997    21.904566    9127.6308    2571.0999    3168.3242    3835.0534    78.527844   -815.14686    126.11731   -3960.5832 
30944000     102.3044    -4552.619   -4377.2728    -4552.619            0    1711.9569     17.98795     23.35754    21.883974    9194.6449    1572.6079    1308.9394    2254.3232  0.036649501    171.97287    436.13861   -4147.7089 
30945000    100.53081   -4566.5895   -4394.2831   -4566.5895            0    1032.4549    18.033561    23.348436    21.880346    9212.8387    369.36167    1885.8557    842.14746    6.0060337   -50.588211    827.82318   -4255.5626 
30946000    99.070997   -4561.0504   -4391.2461   -4561.0504            0    1383.8522    17.945552    23.231231    22.063687    9198.2906    1371.4004     1541.241    1238.9151   -382.05694    68.761101    207.02864   -4205.6056 
30947000    102.21563   -4563.8469   -4388.6528   -4563.8469            0      1557.92    18.018441    23.319632    21.886126     9196.187    824.14796    1451.4465    2398.1655   -435.81914    161.08648    186.34205   -4179.7093 
30948000    103.45165   -4563.7956    -4386.483   -4563.7956            0    1584.4713    17.942957    23.315745    21.973204    9192.5647    2331.4424     833.2941    1588.6773    26.060197   -213.74605   -177.19664   -4174.0623 
30949000    103.39925   -4558.1127   -4380.8899   -4558.1127            0    1535.4635    18.061726    23.325443     21.81321    9189.8562    580.66657    2488.1107    1537.6131   -482.29585   -271.96103     530.5611      -4175.1 
30950000    102.17693    -4565.226   -4390.0982    -4565.226            0    1978.9465     17.94088    23.404795    21.812262    9159.0261    2674.7859    1939.9408    1322.1128   -443.71312    90.067052   -13.219888   -4125.7604 
30951000    99.628871   -4561.4028   -4390.6423   -4561.4028            0    1851.0764    17.917281    23.324632    21.963093    9178.6835    1729.6461    1893.4792    1930.1039     497.7681   -434.20056    250.17092   -4142.8541 
30952000    102.51226   -4562.8138   -4387.1113   -4562.8138            0    2461.0391    17.970131    23.382044    21.748225    9138.1343    2077.7246    2398.7214    2906.6712   -470.59882   -180.54229    152.61405   -4059.1279 
30953000    98.631421   -4570.5556   -4401.5047   -4570.5556            0    2656.4962    17.914553    23.343361    21.853689    9138.9037    2463.9926    2303.1754    3202.3207    -767.6584   -393.31689    79.497571   -4047.4428 
30954000    96.612248   -4566.8366   -4401.2465   -4566.8366            0    445.68131    17.969548     23.46202    21.892365    9229.8627   -394.61113    207.52536    1524.1297    472.08081   -71.150896    304.85458   -4341.2542 
30955000     93.63785   -4562.1657   -4401.6737   -4562.1657            0    1502.6199    17.909504    23.385072    21.907083    9175.0156    1708.5998    1291.7055    1507.5543    376.90163     42.75943   -221.84479   -4200.6108 
30956000    96.323878   -4561.8929    -4396.797   -4561.8929            0    2504.1555    17.934117    23.265376     21.91763     9144.999    1981.3945    2880.5448    2650.5273   -199.42194    72.154185    558.85156   -4062.8167 
30957000    97.768196   -4561.3389   -4393.7676   -4561.3389            0    1828.5336    17.956986    23.206437    22.028165    9179.5254     1126.242    2762.1653    1597.1936   -24.099638    214.17516   -95.991576   -4148.9745 
30958000    101.89802   -4557.5099   -4382.8601   -4557.5099            0    2025.9899    18.047416    23.011868    22.062138    9162.5107    1273.6572    2890.4652    1913.8472   -516.69899   -148.15869   -366.40347   -4112.1356 
30959000    99.836097   -4561.8662   -4390.7505   -4561.8662            0    2931.5836    17.905805    23.265727    21.925303    9133.8964    3889.5214    2242.1381    2663.0913   -40.052551    168.49382   -772.01533   -4000.2386 
30960000    101.93221   -4553.7548   -4379.0464   -4553.7548            0    2634.5773    17.956489    23.234386    21.949813    9157.6381    3783.4153    2582.3792    1537.9373   -351.60111    185.22758   -74.183729   -4027.1861 
30961000    99.515009   -4562.9525   -4392.3872   -4562.9525            0    2340.4671    17.887674    23.203259    22.046031    9150.2563    3025.0748    1717.8582    2278.4682    488.47772    191.88646   -214.17096   -4080.0587 
30962000    104.18311   -4566.4889   -4387.9226   -4566.4889            0    2579.3198    17.864336    23.220136    22.101858    9168.1227    2585.5327    1946.5475    3205.8791   -726.67457   -129.48399   -309.85162   -4043.0478 
30963000    102.57565   -4558.1767   -4382.3656   -4558.1767            0     2008.805    17.921082    23.320062    21.970464    9181.9125     2221.039    1696.7904    2108.5856   -652.55133    482.01078   -142.42585    -4113.369 
30964000    101.61765   -4569.1402    -4394.971   -4569.1402            0    1693.4122    17.870841    23.320836    22.025666    9179.4816    1727.4035    1160.3988    2192.4343   -4.1241301   -531.13373    124.34724   -4168.2683 
30965000    96.389718   -4574.4274   -4409.2187   -4574.4274            0    3106.1959    17.896786    23.372547    21.792533    9115.6749    3515.9092    2853.1362    2949.5423    457.22638   -400.92546    105.55436   -3996.2725 
30966000    101.71144   -4568.3063   -4393.9764   -4568.3063            0    2684.2761    17.962288    23.185777    21.914465    9126.7085    2409.2558    3616.0745     2027.498   -360.17627    -524.0018    98.496851   -4036.6894 
30967000    98.359866   -4567.9875    -4399.402   -4567.9875            0    3022.1874    17.988415    23.019442    22.021961    9118.9255    3517.3567    3519.8802    2029.3254    131.62269    362.73316   -601.70479   -3997.4808 
30968000    100.19173   -4558.4753   -4386.7501   -4558.4753            0    2309.2765    17.993744    23.187824    21.939435    9153.9166    1855.0174    3519.9035    1552.9086    316.88557    510.94911     69.00445   -4078.4606 
30969000    97.415599   -4551.7748   -4384.8078   -4551.7748            0    2533.3502    17.893504    23.346503    21.900186    9148.8186    2945.0474    2458.1035    2196.8995   -203.42051   -545.49281   -358.51288   -4046.7926 
30970000    96.800088   -4564.3344   -4398.4224   -4564.3344            0    2025.4231    17.802512    23.431202    21.977914    9167.7409    2588.3607    1248.8058    2239.1027   -63.076873   -353.72443   -260.16038   -4127.6191 
30971000    95.225876   -4553.8578   -4390.6439   -4553.8578            0    1367.2237    17.919688    23.217039    22.092785    9191.5284    940.63657    1656.8468    1504.1878   -736.80715   -285.96529    249.40657   -4207.3689 
30972000    102.09518   -4573.3251   -4398.3374   -4573.3251            0    1469.1439    17.900864     23.27515    22.063085    9192.4802    2173.6262    1406.1194    827.68605   -1424.6128   -590.43419   -8.6860256   -4201.3797 
30973000    94.524074   -4556.2631    -4394.252   -4556.2631            0    1522.9082    17.908411    23.335553    21.993988    9191.3464     2061.731    1591.2525    915.74107   -264.60077    303.11501    91.482827   -4190.1117 
30974000    97.983357   -4559.8456   -4391.9054   -4559.8456            0    1395.2733    17.885603    23.369122     22.02109    9204.1736    2149.1911    784.65466    1251.9741    -352.9295    449.36872   -123.40721   -4204.6131 
30975000    96.942049   -4564.3692   -4398.2138   -4564.3692            0    1964.4016    17.912699    23.335348    21.949035    9174.6761    2054.1624    1843.1306    1995.9118     103.0365    72.763289    123.69123   -4135.3705 
30976000    98.207953   -4558.3582   -4390.0331   -4558.3582            0    1782.7656    17.938862    23.269352    21.996034    9181.7095    843.22321    2098.2452    2406.8285   -354.84544   -667.34121     48.46631   -4151.3104 
30977000    105.59322   -4550.5248   -4369.5417   -4550.5248            0    1913.3853    18.060094    23.218321    21.883466    9176.2858    721.92176    1873.2565    3144.9775      91.1214   -143.50931    -504.2585   -4113.4796 
30978000    106.19606   -4562.3223   -4380.3059   -4562.3223            0    2671.8206    17.875629    23.229939    21.987535    9130.3185    2212.7646    3004.8035    2797.8935    278.49589   -154.78353    -129.4899   -4024.5361 
30979000    98.981735   -4554.2399   -4384.5886   -4554.2399            0    2269.0625    17.808765    23.384415    21.912311    9125.3286    2803.0562    1480.0332     2524.098   -403.17199   -8.9915071    115.94237   -4082.6137 
30980000    101.10182   -4549.9686   -4376.6835   -4549.9686            0    1769.5981    17.945316    23.337667    21.928744    9183.7976    1216.8892    1441.0728    2650.8322   -472.80781    158.50564    58.258456   -4139.6702 
30981000    102.34702   -4556.9889   -4381.5696   -4556.9889            0    2629.0825    17.976095    23.316279    21.778936    9128.3287    2290.4061    2449.7112    3147.1302   -225.22295     37.23157   -260.61605    -4031.567 
30982000    103.07221   -4567.6505   -4390.9883   -4567.6505            0      1237.16    18.014694    23.271893     21.97104    9211.0515    1192.5194    1801.9615    716.99916   -353.87712     504.2974    92.439083   -4224.7959 
30983000    96.889863   -4560.4218   -4394.3559   -4560.4218            0     1749.428    17.905887    23.592003    21.737337    9182.6282    1647.5964     1134.967    2465.7208   -180.76917    122.20883    339.99322   -4160.0738 
30984000    99.928534   -4553.2482   -4381.9741   -4553.2482            0    2829.5478    17.957201    23.335812    21.803832    9136.8056    2443.2916    2810.2753    3235.0764   -326.25733   -360.06436   -951.93898   -4004.9342 
30985000     99.45287   -4569.9447   -4399.4859   -4569.9447            0    1392.9657    18.120682    23.303492    21.805616    9207.9702    776.98711    1726.6558     1675.254   -555.50667   -357.54841    597.98655   -4212.4262 
30986000     95.56711   -4556.9438    -4393.145   -4556.9438            0    2531.3133    18.000522    23.255364    21.853475    9148.0545    815.36982    2751.1431    4027.4268     90.94974     111.1337   -41.167788   -4055.4299 
30987000    101.63165   -4568.5066   -4394.3134   -4568.5066            0    1764.6719    18.005841    23.436737    21.778589    9190.5242    1132.6545    1076.6757    3084.6855    363.16183   -268.76616    794.81575   -4157.7867 
30988000    100.07329   -4554.9377   -4383.4156   -4554.9377            0    2568.3594     17.91978    23.345423    21.905055    9163.8672    2151.1265    1691.2152    3862.7364   -300.70874   -207.71692   -343.29675   -4040.1656 
30989000    97.834408   -4554.4995   -4386.8146   -4554.4995            0    2084.5481    17.933516    23.176952    22.062015    9169.9493     3333.807    1238.7799    1681.0573   -155.07545   -276.13636    358.70951    -4108.039 
30990000    98.405702   -4558.0918   -4389.4278   -4558.0918            0    2041.2543    18.129391    23.066324    21.986035    9194.0852    746.86958    3728.3908    1648.5026    693.96948    262.90225    187.67584   -4115.7235 
30991000    97.641171   -4563.7391   -4396.3855   -4563.7391            0    2468.0226     17.98774    23.310434    21.840509    9157.7697    1800.3965    2811.9632    2791.7081    145.72158    243.66556    124.54297   -4066.7646 
30992000    98.794667   -4558.3598   -4389.0291   -4558.3598            0    2746.3221    17.886865    23.248492    21.993756    9145.9418    1933.5548    3695.3638    2610.0478    601.20196    18.328203   -361.57872   -4022.7132 
30993000    100.20014   -4550.7827   -4379.0431   -4550.7827            0    2783.3908    17.855053    23.287275    22.045768    9166.5319    2755.5549    2790.3006    2804.3171    413.44872   -464.59474    596.52303    -4006.947 
30994000    99.763572    -4554.957   -4383.9656    -4554.957            0    1840.2084     17.85825    23.337177    22.061534    9194.3903    1558.9638    1939.6881    2021.9732    108.13221    248.14927    172.18541   -4137.2107 
30995000     105.8093   -4559.0805    -4377.727   -4559.0805            0    2409.5869    17.811652    23.384778    22.021245    9172.3222    1962.0321    1953.9359    3312.7926    62.343742    230.16682    23.538785   -4055.3992 
30996000    98.390685   -4559.5388   -4390.9006   -4559.5388            0    2223.1802    17.862972    23.350116    22.000868    9176.6166     2044.338    2415.7444    2209.4581    1168.6061    297.01064   -25.602745    -4093.369 
30997000    98.996801   -4562.0806   -4392.4035   -4562.0806            0    2343.2924    17.901325    23.375375    21.887765    9158.9392    1765.7472    2434.9446    2829.1855   -16.374702   -293.06841    137.93335   -4079.4012 
30998000     103.0494    -4555.636   -4379.0128    -4555.636            0    1322.0804    17.926421    23.418399    21.969814    9223.1053    1821.4558    1305.2758    839.50966   -392.24868   -662.77889     56.20195   -4201.1804 
30999000    99.498194   -4569.9292   -4399.3927   -4569.9292            0    1099.9717    17.941871    23.618567    21.764852    9223.1016    1170.7733     -346.831    2475.9727    173.03839    335.32652    385.83394   -4251.4361 
31000000    102.25823    -4548.376   -4373.1089    -4548.376            0     2786.833    17.898547    23.381414    21.834153    9137.4471    3152.0143    2998.6949    2209.7897   -561.73763    160.09714   -183.02461   -4001.7347 
Loop time of 387.561 on 64 procs for 250000 steps with 864 atoms

Performance: 111.466 ns/day, 0.215 hours/ns, 645.060 timesteps/s
193.5% CPU use with 32 MPI tasks x 2 OpenMP threads

MPI task timing breakdown:
Section |  min time  |  avg time  |  max time  |%varavg| %total
---------------------------------------------------------------
Pair    | 17.667     | 24.945     | 33.945     | 104.9 |  6.44
Bond    | 1.0376     | 1.1834     | 1.4458     |   9.0 |  0.31
Kspace  | 192.89     | 204.79     | 220.09     |  47.6 | 52.84
Neigh   | 0.50123    | 0.5813     | 0.68538    |   7.2 |  0.15
Comm    | 52.424     | 62.362     | 67.86      |  49.1 | 16.09
Output  | 0.53532    | 0.53559    | 0.53728    |   0.0 |  0.14
Modify  | 70.105     | 73.328     | 79.768     |  23.0 | 18.92
Other   |            | 19.83      |            |       |  5.12

Nlocal:        27.0000 ave          39 max          16 min
Histogram: 2 2 8 4 1 5 1 2 3 4
Nghost:        2151.28 ave        2257 max        2052 min
Histogram: 12 4 0 0 0 0 0 0 10 6
Neighs:        6646.72 ave        9436 max        4098 min
Histogram: 4 2 4 6 1 5 1 2 2 5

Total # of neighbors = 212695
Ave neighs/atom = 246.17477
Ave special neighs/atom = 2.0000000
Neighbor list builds = 1802
Dangerous builds = 0

unfix		3
unfix		2
unfix		1

write_data	data.final.${pid} nocoeff
write_data	data.final.0 nocoeff
System init for write_data ...
PPPM initialization ...
  extracting TIP4P info from pair style
  using 12-bit tables for long-range coulomb (../kspace.cpp:340)
  G vector (1/distance) = 0.37213087
  grid = 24 27 25
  stencil order = 5
  estimated absolute RMS force accuracy = 0.003109605
  estimated relative force accuracy = 9.3644832e-06
  using double precision FFTW3
  3d grid and FFT values/proc = 4410 672
Last active /omp style is kspace_style pppm/tip4p/omp

write_restart   restart.lmp.${pid}
write_restart   restart.lmp.0
System init for write_restart ...
PPPM initialization ...
  extracting TIP4P info from pair style
  using 12-bit tables for long-range coulomb (../kspace.cpp:340)
  G vector (1/distance) = 0.37213087
  grid = 24 27 25
  stencil order = 5
  estimated absolute RMS force accuracy = 0.003109605
  estimated relative force accuracy = 9.3644832e-06
  using double precision FFTW3
  3d grid and FFT values/proc = 4410 672
Last active /omp style is kspace_style pppm/tip4p/omp
Total wall time: 0:06:27
