LAMMPS (30 Jul 2021)
Processor partition = 0
  using 2 OpenMP thread(s) per MPI task
using multi-threaded neighbor list subroutines
variable        pid world 0 1
variable        phase world IceVI IceV

shell cd ${phase}
shell cd IceVI
include Restart.lmp
echo both
log log.lammps
#include		in.partitions
include		in.temp
variable        temperature equal 250.77
variable	tempDamp equal 100.0
include		in.pressure
variable        pressure equal 8389.7
variable        pressureDamp equal 1000.0 # This is 1 ps
include		in.seed
variable        seed equal 745823

units		real
atom_style	full
read_restart	restart.lmp.${pid}
read_restart	restart.lmp.0
Reading restart file ...
  restart file = 30 Jul 2021, LAMMPS = 30 Jul 2021
  restoring atom style full from restart
  orthogonal box = (-0.099414079 -0.11727964 -0.11220655) to (24.829415 24.847281 22.922207)
  4 by 4 by 2 MPI processor grid
  restoring pair style lj/cut/tip4p/long/omp from restart
  restoring bond style harmonic/omp from restart
  restoring angle style harmonic/omp from restart
  1920 atoms
  1280 bonds
  640 angles
Finding 1-2 1-3 1-4 neighbors ...
  special bond factors lj:    0        0        0       
  special bond factors coul:  0        0        0       
     2 = max # of 1-2 neighbors
     1 = max # of 1-3 neighbors
     1 = max # of 1-4 neighbors
     2 = max # of special neighbors
  special bonds CPU = 0.002 seconds
  read_restart CPU = 0.008 seconds
include 	in.setup
variable	out_freq equal 1000
variable	out_freq2 equal 10000
variable	out_freq3 equal 1000

timestep	2.0

neigh_modify    delay 7 every 1

include		in.tip4p
# This is TIP4P/Ice

# create groups ###
group ox type 2
640 atoms in group ox
group hy type 1
1280 atoms in group hy

# set charges - beside manually ###
set group ox charge -1.1794
Setting atom values ...
  640 settings made for charge
set group hy charge 0.5897
Setting atom values ...
  1280 settings made for charge

# ### TIP3P Potential Parameters ###
pair_style lj/cut/tip4p/long/omp 2 1 1 1 0.1577 8.5
pair_coeff 1 1*2 0.000 0.000
pair_coeff 2 2 0.21084 3.1668
bond_style  harmonic
bond_coeff  1 450 0.9572
angle_style harmonic
angle_coeff 1 55 104.52
kspace_style pppm/tip4p/omp 1.0e-5
pair_modify tail yes

thermo          ${out_freq}
thermo          1000
thermo_style    custom step temp pe etotal epair emol press lx ly lz vol pxx pyy pzz pxy pxz pyz enthalpy

restart 	${out_freq3} restart.lmp.${pid} restart2.lmp.${pid}
restart 	1000 restart.lmp.${pid} restart2.lmp.${pid}
restart 	1000 restart.lmp.0 restart2.lmp.${pid}
restart 	1000 restart.lmp.0 restart2.lmp.0


include         in.dump
dump            myDump all atom ${out_freq2} dump.water.${pid}
dump            myDump all atom 10000 dump.water.${pid}
dump            myDump all atom 10000 dump.water.0
dump            myDump2 all dcd ${out_freq2} dump.dcd
dump            myDump2 all dcd 10000 dump.dcd
dump_modify     myDump append yes
dump_modify     myDump2 append yes


variable natoms 	equal  "count(all)"                        # NUMBER ATOMS
variable H      	equal  "enthalpy/v_natoms"                 # ENTHALPY-per-atom
variable Vol      	equal  "vol/v_natoms"                 # volume-per-atom
fix AVG all 		ave/time ${out_freq} 1 ${out_freq} v_Vol v_H file vol_enthalpy.dat
fix AVG all 		ave/time 1000 1 ${out_freq} v_Vol v_H file vol_enthalpy.dat
fix AVG all 		ave/time 1000 1 1000 v_Vol v_H file vol_enthalpy.dat




fix 		1 all shake 1e-6 200 0 b 1 a 1
Finding SHAKE clusters ...
       0 = # of size 2 clusters
       0 = # of size 3 clusters
       0 = # of size 4 clusters
     640 = # of frozen angles
  find clusters CPU = 0.001 seconds
fix             2 all nph aniso ${pressure} ${pressure} ${pressureDamp}
fix             2 all nph aniso 8389.7 ${pressure} ${pressureDamp}
fix             2 all nph aniso 8389.7 8389.7 ${pressureDamp}
fix             2 all nph aniso 8389.7 8389.7 1000
fix             3 all temp/csvr ${temperature} ${temperature} ${tempDamp} ${seed}
fix             3 all temp/csvr 250.77 ${temperature} ${tempDamp} ${seed}
fix             3 all temp/csvr 250.77 250.77 ${tempDamp} ${seed}
fix             3 all temp/csvr 250.77 250.77 100 ${seed}
fix             3 all temp/csvr 250.77 250.77 100 745823


run             250000
PPPM initialization ...
  extracting TIP4P info from pair style
  using 12-bit tables for long-range coulomb (../kspace.cpp:340)
  G vector (1/distance) = 0.37437951
  grid = 30 30 30
  stencil order = 5
  estimated absolute RMS force accuracy = 0.0032792158
  estimated relative force accuracy = 9.8752609e-06
  using double precision FFTW3
  3d grid and FFT values/proc = 5400 960
Last active /omp style is kspace_style pppm/tip4p/omp
Neighbor list info ...
  update every 1 steps, delay 7 steps, check yes
  max neighbors/atom: 2000, page size: 100000
  master list distance cutoff = 10.8154
  ghost atom cutoff = 10.8154
  binsize = 5.4077, bins = 5 5 5
  1 neighbor lists, perpetual/occasional/extra = 1 0 0
  (1) pair lj/cut/tip4p/long/omp, perpetual
      attributes: half, newton on, omp
      pair build: half/bin/newton/omp
      stencil: half/bin/3d
      bin: standard
Setting up Verlet run ...
  Unit style    : real
  Current step  : 2500000
  Time step     : 2
Per MPI rank memory allocation (min/avg/max) = 10.54 | 10.55 | 10.55 Mbytes
Step Temp PotEng TotEng E_pair E_mol Press Lx Ly Lz Volume Pxx Pyy Pzz Pxy Pxz Pyz Enthalpy 
 2500000    255.10384   -9107.5262    -8134.954   -9107.5262            0    8428.0934    24.928829     24.96456    23.034413    14335.173    7588.2885    8009.4812    9686.5107   -4.3809707   -1268.9379    446.84077   -6372.9448 
 2501000    252.49951   -9159.8807   -8197.2374   -9159.8807            0    8176.1286    24.934773    24.964299    23.022881    14331.262    8072.9722    7083.9732    9371.4405    568.52345    514.22858   -883.83031   -6488.3712 
 2502000    248.58051   -9138.5754   -8190.8731   -9138.5754            0    7822.5846    25.077938    25.048563    22.843856     14349.74    7774.4816    7669.8665    8023.4056    330.18768    217.13183   -535.38151    -6553.792 
 2503000    256.91626   -9165.7569   -8186.2749   -9165.7569            0    8642.0695    24.945913     24.94304    22.951937    14281.312    8724.6991    8572.9809    8628.5284    356.05925   -137.47087   -331.99424   -6386.3195 
 2504000    253.44112   -9193.8206   -8227.5875   -9193.8206            0    8422.8751    24.876857    24.926143    23.031195    14281.278     9199.467    8685.4906    7383.6677    159.62587   -454.25142    703.90577   -6473.2897 
 2505000    237.57729   -9084.5832   -8178.8302   -9084.5832            0    8779.1893    24.800963    25.091128    23.074124    14358.661    9826.0127    7168.1557    9343.3995    220.83081   -518.99005     -150.354   -6340.4123 
 2506000    252.69386    -9119.801   -8156.4167    -9119.801            0    7969.2879    24.970827    25.061553    22.936827    14354.043    8792.2104    6712.7259    8402.9275    847.06428   -653.24588    223.26414    -6488.134 
 2507000    246.27984   -9153.3333   -8214.4022   -9153.3333            0     7649.451    24.968308    24.980977    22.985976    14337.106    7494.4684    8457.6345      6996.25    -783.4837    289.59442   -250.04304   -6614.9633 
 2508000    245.16335   -9147.3505    -8212.676   -9147.3505            0     7435.285    25.125947    24.908252     22.90559    14335.313    5860.5378    8073.6476    8371.6696   -436.65727   -161.60304    617.14145   -6658.2119 
 2509000    258.81365   -9131.4867    -8144.771   -9131.4867            0    8083.6726     25.08102    24.922801    22.960333    14352.258    6157.5312    9068.2752    9025.2116    110.01373   -129.10741    910.10514   -6452.7536 
 2510000    246.17069   -9109.8207   -8171.3057   -9109.8207            0    7149.5363    25.067367    24.797761    23.117125    14369.942    5876.6447    8869.6193     6702.345   -350.19692   -436.30573   -940.12068   -6672.9712 
 2511000    249.02511   -9149.8441   -8200.4468   -9149.8441            0    8459.8999    24.926662    24.958417    23.016225    14319.085    8349.5617    8338.6003    8691.5375   -904.16287    14.112963    94.261962    -6433.773 
 2512000    258.11577   -9131.2303   -8147.1753   -9131.2303            0    6815.0596    24.980627    24.912391    23.174209    14421.939    5918.9389    7882.3144    6643.9256   -178.33324   -390.95638    644.78654   -6713.7693 
 2513000    255.99982   -9135.0063   -8159.0182   -9135.0063            0    6607.9588    25.002542    25.086966     22.95718    14399.614    5643.9382    7201.1644    6978.7736    8.7493223   -918.44746   -78.626554   -6771.3231 
 2514000    246.23459   -9174.1609   -8235.4024   -9174.1609            0    7816.5625    24.909098    24.964601    23.042345    14328.783    7906.9821    8138.4192    7404.2861   -631.08216    450.16949      57.8539   -6601.9706 
 2515000      249.008     -9147.28   -8197.9479     -9147.28            0    6653.5104    24.815017     25.08488    23.171205    14423.651    9050.0904    5290.0534    5620.3874    516.55829    984.91782   -6.8724856   -6798.3544 
 2516000    252.51227   -9134.3452   -8171.6532   -9134.3452            0      8269.46    24.963222    25.021163    22.951033    14335.418    8065.9769    8280.9564    8461.4469   -731.58416    615.46247   -223.01188    -6442.779 
 2517000    255.40629   -9157.7143    -8183.989   -9157.7143            0    8349.5447    24.944709    25.087267    22.883088    14320.112    8173.1327    7411.6763    9463.8251   -393.21226    216.07204    306.24972   -6440.2354 
 2518000    249.97589   -9172.3508   -8219.3287   -9172.3508            0    9032.3409     24.80788     25.03229    23.009007    14288.548    10689.716    7584.1446    8823.1618   -1228.7346    379.59943      1019.53   -6337.1349 
 2519000    250.10343    -9156.609   -8203.1007    -9156.609            0    8793.7684     24.84478    24.976767    22.994399    14268.997    8767.9761    7948.2037    9665.1254   -555.97517   -743.62258    760.94741    -6373.129 
 2520000    245.57037   -9154.6674   -8218.4411   -9154.6674            0    8989.1902    24.999682    25.009782    22.887389    14310.034    10091.731    7565.5135    9310.3264    366.96046    37.874227    545.64831   -6342.4226 
 2521000    258.96024   -9194.2334   -8206.9589   -9194.2334            0    7693.9879    24.970398    24.984577    22.940971    14312.294    7972.2001    6784.6834    8325.0803    673.87584    -490.1077   -81.674782   -6600.9918 
 2522000    251.30529    -9111.515   -8153.4246    -9111.515            0    8257.5543    24.938956    24.953633    23.034482    14334.762    9121.6011    7454.8138    8196.2481   -402.33997   -170.33222   -443.88001   -6427.1184 
 2523000    246.03756   -9178.1593   -8240.1519   -9178.1593            0     8387.984    24.918216    24.952873    22.985036     14291.66    7875.1133    8571.6026    8717.2362   -894.19271  -0.48585904   -443.20786   -6491.8511 
 2524000    251.29929    -9077.725   -8119.6575    -9077.725            0    8337.7786    25.092747    24.851052    23.007186    14346.848    6486.1299    9951.1459    8576.0601    111.16028   -195.02815   -117.93482   -6375.1102 
 2525000    245.67558   -9108.5812   -8171.9538   -9108.5812            0    7505.6716    25.060585    24.865271    23.097835    14393.144    7061.4248    8346.2311    7109.3587   -281.63401    647.74853   -99.576617    -6596.444 
 2526000    249.92844   -9115.9469   -8163.1057   -9115.9469            0    7604.0656    25.171315    24.765593    23.066038    14378.965    5537.1795    9482.0195    7792.9977    139.41553   -1240.8553    85.024827   -6568.5145 
 2527000    246.78043   -9121.6045   -8180.7649   -9121.6045            0    8142.4444    25.068174    24.940518    22.923323    14331.965    6328.1622     9355.084    8744.0869    37.805415   -792.53655    489.64714   -6478.8556 
 2528000     248.6531   -9150.4952   -8202.5161   -9150.4952            0    9239.6125    25.117613    24.814156    22.876131     14258.06    7172.6812    10609.817     9936.339    39.869022    -238.1485   -300.62202   -6281.2387 
 2529000    242.22747   -9138.6291   -8215.1475   -9138.6291            0    8105.1512    25.003018    24.850578     23.05631    14325.795    7532.2159    9294.0611    7489.1764   -27.733373    -68.83383    774.08118   -6521.7624 
 2530000    249.92708    -9110.084    -8157.248    -9110.084            0    8300.5794    24.920617     24.81155    23.201111    14345.691     8635.389    10481.934    5784.4151   -282.08748     499.5899   -529.24479   -6420.6241 
 2531000    256.28814   -9119.4595   -8142.3722   -9119.4595            0    8550.2613    24.978906    24.940028    22.990092    14322.243    8649.1768    8329.0619    8672.5453   -170.21344    459.09786   -1543.5844   -6356.4344 
 2532000    254.69367   -9130.0595    -8159.051   -9130.0595            0    8796.9998    25.035168    24.874919    22.951827    14293.199    7235.0979    10187.437    8968.4643   -574.81875   -1123.1621    983.99757   -6325.3019 
 2533000    254.97472   -9150.9545   -8178.8746   -9150.9545            0    7634.7116    25.019405    24.955053    22.989845    14353.952    6482.7882    9035.0799    7386.2667    211.72177    286.38274    172.25166   -6580.6418 
 2534000    242.26862   -9163.4852   -8239.8467   -9163.4852            0    7011.8561     24.95255    24.907495    23.136706     14379.59    6018.6608    8249.5149    6767.3927    -345.7999   -558.22557    170.18765   -6769.3793 
 2535000    245.93847   -9188.5906    -8250.961   -9188.5906            0    8511.3295    24.876196    24.893141    23.108595    14309.921    8526.7885     9189.421     7817.779    -69.58705    591.26295    1268.5372   -6474.6847 
 2536000    250.16744   -9161.4539   -8207.7015   -9161.4539            0    8026.7875    24.980751    24.994617    22.921708    14311.955    7965.5487    7706.6789    8408.1347    493.56351   -402.31802    1628.1654   -6532.3088 
 2537000    257.00882   -9173.0223   -8193.1874   -9173.0223            0    7186.4432    25.056037    24.983256    22.921083    14348.171    6035.7269    7532.0991    7991.5035   -728.90923    701.26168   -464.74348      -6689.4 
 2538000    258.62123   -9153.4253   -8167.4432   -9153.4253            0    8062.5516     24.94606    24.833168    23.150536    14341.518    7849.3158     9190.956     7147.383   -842.32182   -603.84288    668.13263   -6481.1094 
 2539000    249.02875   -9166.6655   -8217.2544   -9166.6655            0    8098.9849    24.881396    24.906069    23.088349    14307.798    8399.7693    8982.7911    6914.3943   -178.39401   -464.89446   -449.84529   -6527.2832 
 2540000    243.33956   -9134.0093   -8206.2879   -9134.0093            0     9721.998    24.924016    24.998177    22.879757    14255.346    8808.8394    9803.1248     10554.03    341.59629   -1284.4032    776.85294   -6185.0884 
 2541000    242.84554   -9163.6812   -8237.8433   -9163.6812            0    9679.6092    24.836261    24.898096    23.024947    14238.066    10102.363    9228.2111    9708.2533   -172.20964    196.20278   -577.89164   -6227.8958 
 2542000    252.06984   -9169.5094   -8208.5042   -9169.5094            0    8221.2682    24.910433    24.913919    23.062089    14312.714    8065.4972    8480.4228    8117.8845    813.91994    1202.7177    836.96108   -6492.4275 
 2543000    249.56732   -9118.9254    -8167.461   -9118.9254            0    8701.9751    25.109754    24.896455    22.873201    14299.041    7356.5405    9867.2524    8882.1325   -155.56861    321.11684    136.03287   -6352.7785 
 2544000     250.5975   -9149.6544   -8194.2625   -9149.6544            0    8451.9521    25.024121    24.941173    22.925823    14308.715    7827.5023    8410.0125    9118.3415   -750.06667    55.557378    380.87699   -6430.5265 
 2545000    242.16718   -9174.6015   -8251.3497   -9174.6015            0    8139.2908    24.987304    24.835251    23.044061     14300.36    7907.3165    8789.6136    7720.9423   -154.83011   -1121.9239   -259.72334   -6553.8511 
 2546000    249.46233   -9087.6701   -8136.6059   -9087.6701            0    10679.971    24.920089    24.873533    22.962719    14233.457      9235.64     11368.43    11435.844    305.85673   -771.60555    186.85453   -5919.6535 
 2547000     249.0573   -9163.3136   -8213.7936   -9163.3136            0     10069.61    24.879637    24.885274    22.946047    14206.737    9035.7482    11109.665    10063.416   -215.58671     46.22349   -581.35971   -6127.4643 
 2548000    255.68178   -9184.4442   -8209.6686   -9184.4442            0    7777.9902    24.982886    24.963156    22.960012     14319.05    7328.6597    7452.8281    8552.4828    817.25822     84.25019    470.78355   -6585.4013 
 2549000    253.28132   -9136.4891   -8170.8652   -9136.4891            0    8014.9035    24.998498    24.985884    22.983391    14355.646    7043.6339    8454.5586    8546.5179    173.87669   -89.902836    579.44594    -6492.846 
 2550000    252.87958   -9122.5873    -8158.495   -9122.5873            0    7798.1331     24.99756    25.056714    22.905444    14346.979    7438.1984    7502.3593    8453.8415   -589.81495   -1196.3588    1127.2933   -6526.8451 
 2551000    253.94489   -9144.0529   -8175.8992   -9144.0529            0     8403.152    24.855157    24.978243    23.089579    14334.892    9089.1135     8293.453    7826.8894   -708.82627   -1494.9109     934.2821   -6419.1388 
 2552000    258.56725   -9174.7594   -8188.9831   -9174.7594            0     9299.509    24.799909    24.971502    23.023425      14258.2    8448.8796    9718.1871    9731.4604    397.07195   -320.08544    703.85548   -6255.2319 
 2553000    253.81666    -9168.324   -8200.6592    -9168.324            0    8590.9032    24.894256    25.043578    22.940807    14302.245     8575.725    7818.5233    9378.4614    -737.3694   -607.86078    1339.1953   -6408.7379 
 2554000    246.17076   -9118.7232    -8180.208   -9118.7232            0    7445.4041    24.953791    25.070093    23.010334    14395.123    7972.1666    6645.4646     7718.581   -104.75643   -560.67192   -133.49837   -6617.1339 
 2555000    256.70873    -9142.877   -8164.1863    -9142.877            0    8378.6723    24.928203    25.004104    22.996156    14333.674    7723.5142    8972.3655    8440.1372   -633.65302    744.09284    230.17911   -6412.6924 
 2556000    248.76132   -9110.1443   -8161.7527   -9110.1443            0    9214.5708    24.837189    24.947437     23.07617    14298.554    9644.9638    9186.3701    8812.3785    -492.3451   -526.44076    5.3114701   -6240.2406 
 2557000    258.98697   -9180.7846   -8193.4082   -9180.7846            0     9457.236    24.835606    24.918698    23.057805    14269.806    9747.6496    10266.722    8357.3363   -47.642339    515.68666    117.79635   -6225.2582 
 2558000     239.8951   -9128.5454   -8213.9558   -9128.5454            0      8134.59    25.040566    24.927032    22.964532    14334.162     8475.703    7998.1118    7929.9553   -96.952083   -815.22724    -140.7008   -6513.4275 
 2559000    249.76495    -9139.948   -8187.7302    -9139.948            0    8479.2058    25.049922    24.891765    22.934693    14300.624     7371.212    8924.9254    9141.4801   -151.66636    43.644188    731.52618   -6419.3076 
 2560000     252.6072   -9200.3532   -8237.2993   -9200.3532            0    7997.7328    25.086746    24.835482    23.009539    14335.896    7233.5195    8368.1662    8391.5129    298.36997   -261.97752   -164.31149   -6565.1786 
 2561000    255.15814   -9184.7409   -8211.9617   -9184.7409            0    7705.9373    24.971896    24.924834     22.98824    14308.348    7831.1295    8177.7583     7108.924   -301.86839   -784.97615    1141.3602   -6603.9438 
 2562000    253.55296   -9154.2954   -8187.6358   -9154.2954            0    8885.1329    25.043107    24.811967    23.014127    14300.259    6576.2916    10423.084    9656.0228    123.23048   -1161.6094      1679.78   -6334.6004 
 2563000    262.40291   -9135.5799   -8135.1804   -9135.5799            0    8977.9839    24.997821      24.8252    23.047237     14302.56    8472.8563     9871.059    8590.0363   -101.34358   -1209.8885    1184.0055   -6262.4792 
 2564000    254.10237   -9142.5229   -8173.7688   -9142.5229            0    9424.0653    24.971264    24.839496    22.996821    14264.321    9705.7414    9916.5846    8649.8698   -278.16686   -968.26999    832.19662   -6213.2759 
 2565000    247.29715   -9189.7593   -8246.9498   -9189.7593            0    8255.7004    25.101883    24.884879    22.864351    14282.384    7148.4806    8262.0758    9356.5447    160.52033   -486.03305   -294.90107   -6527.3376 
 2566000    261.04459   -9119.5439   -8124.3229   -9119.5439            0    8017.5079     24.96739    24.961737    23.025353    14350.078    7686.1767    8596.2246    7770.1225    614.27073   -133.79551   -341.09446   -6446.4095 
 2567000    251.61829   -9190.6917   -8231.4081   -9190.6917            0    8595.8983    24.814648     24.95864    23.079462     14294.03    9973.9848    8388.1429    7425.5673    -647.9273   -185.49531    186.28338   -6439.4747 
 2568000    242.26696   -9151.2759   -8227.6438   -9151.2759            0    8732.8977    24.907517    24.968696    22.924139     14256.71    9267.4825    8333.5277    8597.6829   -297.05329   -1116.8037    610.63126   -6411.9041 
 2569000    248.08999   -9180.3843   -8234.5521   -9180.3843            0    9869.7332    24.790526    24.940546     23.00208    14221.939    10260.916    9210.8392    10137.444     44.21354   -847.44007   -246.32363   -6187.4472 
 2570000    241.50944   -9145.1233   -8224.3792   -9145.1233            0     7982.466    24.856934    24.981385    23.059774    14319.212    7785.9154    8518.1849    7643.2978   -478.47923    98.695277    -580.7595   -6557.3927 
 2571000    247.43702   -9132.1462   -8188.8035   -9132.1462            0    8464.2777    24.897374    25.132258    22.908868    14334.703    7336.2174    8029.8674    10026.748   -430.30316    204.45055   -544.72904   -6419.2875 
 2572000     255.1444   -9133.4649   -8160.7381   -9133.4649            0    8688.2342    24.828222    25.029776     23.02863    14311.024    9793.4982    8803.9834    7467.2211   -343.63847   -380.83295    153.84476   -6347.4028 
 2573000    236.94662   -9175.3909   -8272.0424   -9175.3909            0     9315.754    24.870558    24.970029    22.952805    14254.118    8074.2605    9396.8454    10476.156    643.05265    676.58923    122.21144   -6335.4676 
 2574000    253.97453   -9140.5625   -8172.2957   -9140.5625            0    8262.8186    24.898944    24.970924     23.00812     14305.29    9025.3793    7187.0411    8576.0353   -278.32966    -493.4475   -772.38298   -6448.4406 
 2575000    259.21993   -9145.4904   -8157.2258   -9145.4904            0    8647.8831      24.8187    24.957192     23.09817    14307.124    9266.0903    8459.3059     8218.253    203.99094    405.22724    505.38912   -6352.8041 
 2576000    247.93261   -9137.1841   -8191.9519   -9137.1841            0    8466.5103    24.954246    25.015115     22.94712    14324.357    8298.4631    7870.0482    9231.0195   -72.881482    902.05341   -621.74834   -6423.2466 
 2577000    250.44835   -9188.7966   -8233.9732   -9188.7966            0    8203.8735    24.968876    25.078619    22.850968    14308.931    7888.5324    7717.1583    9005.9298   -329.85216    861.33985   -1152.9061     -6521.98 
 2578000    250.09482   -9110.1066   -8156.6311   -9110.1066            0    8444.4337    24.872635    25.043684    23.021878    14340.383    9575.5854     8329.439    7428.2766   -729.27653   -457.08616   -311.32843   -6390.5641 
 2579000    246.77224   -9148.6859   -8207.8775   -9148.6859            0    8681.1386      24.7015    25.112346    23.103404    14331.333    10925.311     6460.971    8657.1338    -60.24151    303.89867    72.275802   -6393.4519 
 2580000    254.62799   -9164.1223   -8193.3643   -9164.1223            0    7398.5268    24.877781    25.104236    23.011743    14371.701    7968.5457    6362.3706     7864.664    603.60982    770.90615    233.63549   -6642.6589 
 2581000    257.13799   -9141.4836   -8161.1564   -9141.4836            0    7169.2158    24.801327    25.205827    22.955036    14350.065     9586.969     5935.575    5985.1034    185.07893    17.868098    -179.6366   -6660.7759 
 2582000    252.13287   -9161.6455      -8200.4   -9161.6455            0    8511.0016    24.902694    25.045493    22.976557    14330.485    8788.1814    7497.2719    9247.5515   -504.95059    1275.7461   -637.73047   -6421.6396 
 2583000    235.99816   -9142.2412   -8242.5086   -9142.2412            0    7991.3993    24.868574    24.972972    23.062707    14322.914    9213.7681    6961.9111    7798.5187   -89.356095   -1545.1925    511.12166    -6573.225 
 2584000    250.45881   -9103.6437   -8148.7805   -9103.6437            0    8328.5488    24.798705    25.016224    23.092718    14326.029    9018.2252    8109.9411    7857.4802   -416.49093   -977.82774   -199.93969   -6408.6931 
 2585000    253.68636   -9179.4218   -8212.2537   -9179.4218            0    7558.2919    24.930416    25.026406    22.988149    14342.736    8455.2136    6549.8935    7669.7687    86.098431   -1928.2489   -133.25947   -6631.2549 
 2586000    250.61769   -9145.5546   -8190.0857   -9145.5546            0    7964.2462    25.047838    25.065871    22.878415    14364.119     7115.477    7759.4498    9017.8119   -397.59458    497.69331    8.9175427   -6521.6881 
 2587000    247.87413   -9137.9056   -8192.8964   -9137.9056            0    8787.1764    24.959484    24.941097     22.96112    14293.686    8054.3147    8973.8121    9333.4024   -803.59438   -160.82466   -634.61407   -6361.1326 
 2588000    257.29386   -9123.4154   -8142.4939   -9123.4154            0    9864.5511    24.899123    24.747136       23.159    14270.158    9672.6405      10882.5    9038.5129   -382.78585   -1344.7927   -339.23004   -6089.5267 
 2589000    244.36425   -9182.9548   -8251.3269   -9182.9548            0    9199.8999    24.949467    24.805608    23.010091     14240.64    8074.7601    10779.025    8745.9141   -716.73882   -288.93332    79.682801   -6340.6445 
 2590000    255.92232   -9161.6562   -8185.9636   -9161.6562            0    7936.2317     25.10246    24.907315    22.930342     14336.85    7073.8829     9121.942    7612.8701   -730.66723    430.54147   -523.70584   -6526.5909 
 2591000    249.70929    -9177.588   -8225.5823    -9177.588            0    9548.7177     24.98611    24.909018    22.902346     14253.95     10539.88    8385.9216    9720.3514    540.28653   -568.82162   -91.767816   -6240.6021 
 2592000    247.66064    -9129.255   -8185.0597    -9129.255            0    8625.8972    25.049607    24.772578    23.065396    14313.078    7817.5501    10011.499    8048.6427    298.75389   -454.34245    536.77009   -6384.4765 
 2593000    245.74086     -9113.87   -8176.9938     -9113.87            0    8247.5701    25.095263    24.798749    23.041116    14339.204    6423.4032    10004.423    8314.8839   -465.05166   -32.308324     948.1639   -6452.2407 
 2594000    249.71072   -9154.1252   -8202.1141   -9154.1252            0    7876.4305     25.04591    24.962744    22.948236    14347.573    7702.1863    7027.2283    8899.8768    209.69005   -119.90159    922.67113   -6554.0133 
 2595000    241.12615    -9168.476   -8249.1932    -9168.476            0    9046.2784    24.947362    24.855787     23.02003    14274.405    7868.7085    10090.516    9179.6112   -302.24753   -292.17866    405.30766    -6365.961 
 2596000    251.96252   -9146.1815   -8185.5855   -9146.1815            0    8474.9734    24.965976    24.816907    23.107571     14316.95    7999.4768    8911.7151    8513.7283    687.56498   -165.66117   -688.51162   -6416.0278 
 2597000    251.55994   -9138.1593   -8179.0981   -9138.1593            0    8580.9301    25.032833     24.94674    22.926627    14317.394     8898.917    7302.0158    9541.8575   -40.857327     392.0532   -405.46337   -6387.3613 
 2598000    243.73098   -9181.8791   -8252.6654   -9181.8791            0    7661.1446    25.046118    24.916058     22.92818    14308.343    6452.9687    8620.4278    7910.0374    204.42849    412.67969   -24.795013   -6653.9952 
 2599000     244.2088   -9104.0514   -8173.0161   -9104.0514            0    7806.0986    24.991484    24.938906    23.069641    14378.391     7048.414    8773.2336    7596.6482     274.2847   -540.43673   -682.78617   -6536.1235 
 2600000    245.03436   -9170.9328   -8236.7501   -9170.9328            0    7739.1736     24.93604    24.900666    23.103339    14345.418    8025.0444    7303.6488    7888.8276   -194.61922   -238.23232    255.02176   -6617.6128 
 2601000    253.91805   -9177.6029   -8209.5515   -9177.6029            0    8415.6322    24.852848    24.957359    23.040199    14290.947     9048.163    8623.5972    7575.1364   -336.98003   -25.194525   -57.476861   -6455.5755 
 2602000    252.45666   -9121.7223   -8159.2424   -9121.7223            0    8703.7571    24.937509    25.074098    22.909539    14325.003    8819.0883    8432.2373    8859.9458   -425.51235    553.79657    368.23853   -6340.8928 
 2603000    253.20759   -9149.1062   -8183.7635   -9149.1062            0    8604.6189    24.914405    24.995516    22.989901    14316.924    8643.8783    8404.4018    8765.5766    466.64689     352.4863    192.35293   -6387.1392 
 2604000    249.44819   -9160.8954   -8209.8852   -9160.8954            0     7167.976    24.973306    24.964826    23.083697    14391.629    7744.1106    6450.4959    7309.3213    666.73697   -709.61363    1993.0026   -6705.4192 
 2605000     261.9244   -9182.1587   -8183.5834   -9182.1587            0    7739.8851    25.087006    24.891415    22.985995    14353.629    7271.1916    8530.6788     7417.785   -457.50108    171.23739    660.81769   -6563.3703 
 2606000    248.81285   -9167.5942   -8219.0061   -9167.5942            0    9546.4881    25.019221    24.778802      22.9992    14258.269    8417.2819    10666.582    9555.6002    -587.8163    579.38996    201.47309   -6233.8881 
 2607000    257.02474   -9167.3491   -8187.4535   -9167.3491            0    8725.8452     24.97447    24.749504    23.090599    14272.432    8624.6842    10173.657    7379.1942   -150.41818   -750.79263    530.61032   -6371.1795 
 2608000    253.83284   -9166.2292   -8198.5027   -9166.2292            0    9038.1705    24.903058    24.900625    23.032591    14282.549    7413.0897     10099.95    9601.4717    -287.4088   -483.80803   -231.03087   -6315.8849 
 2609000    255.64778    -9191.805   -8217.1591    -9191.805            0    6380.9154    24.969115    25.085159    23.003754    14408.498    5622.5709    6627.6329    6892.5422   -167.12926   -398.55932    565.60393   -6876.3171 
 2610000    246.12135   -9160.9307   -8222.6039   -9160.9307            0    7174.5621    25.068404    25.036783    22.916752    14383.292    6363.3079    6759.5132    8400.8652    380.61077   -688.30506    464.31869   -6717.6279 
 2611000    251.53168    -9148.171   -8189.2175    -9148.171            0     8386.346    24.944659    24.980896    22.987339    14324.328    7646.3635    9084.8267    8427.8479   -189.90774   -8.4158429   -126.47776   -6437.2625 
 2612000    254.68603   -9159.5453    -8188.566   -9159.5453            0    8189.6684    24.777108    24.965903    23.210628    14357.698    8496.9074     8651.975    7420.1227    79.710657   -1033.5876     745.7209   -6473.7126 
 2613000    247.77091   -9145.8457     -8201.23   -9145.8457            0    8240.6622     24.95688    24.995493     22.98739    14339.753    7932.9169    8041.7588    8747.3108   -806.25901   -15.256896    266.18131   -6477.8555 
 2614000    261.99902   -9136.3061   -8137.4463   -9136.3061            0     7334.973    24.972654    25.083779    22.980557    14395.217    6866.2189    6325.4046    8813.2954   -1300.0768    760.50817   -476.88045   -6597.5459 
 2615000    252.35619   -9102.6653   -8140.5684   -9102.6653            0    9238.3017    24.861551     25.02715    23.037863    14334.475    9622.0429    9116.4967    8976.3655   -963.90817    883.53243    572.46319    -6209.268 
 2616000    243.91315   -9135.3102   -8205.4021   -9135.3102            0    10400.241    24.774032    24.985314    23.016542    14246.939    12121.262    9816.0385    9263.4225    239.82707    445.79834    1315.0946   -6044.4712 
 2617000    242.12737   -9180.8497   -8257.7498   -9180.8497            0     8206.404    24.860487    25.091588    22.941651    14310.752    9338.8416     6636.217    8644.1533   -680.68552    -792.2372   -660.28966   -6545.0106 
 2618000    243.31353   -9180.1902   -8252.5681   -9180.1902            0    8268.1862    24.869906    24.981527    23.020658    14302.464    8080.9268    8072.5741    8651.0576   -668.08023   -275.22276   -523.87455   -6527.9339 
 2619000    249.63698   -9143.8387   -8192.1086   -9143.8387            0     8166.318    24.952612    24.872635    23.077563    14322.794    8160.6319    8604.6689    7733.6532    78.815967    489.30246    82.582022   -6486.3015 
 2620000    247.85949   -9146.7094    -8201.756   -9146.7094            0    9050.0074    24.982285     25.01015      22.8593    14282.735    8615.3242    9001.5939    9533.1041    174.32949   -887.28773   -663.52857   -6316.6481 
 2621000    254.27101   -9172.0129   -8202.6159   -9172.0129            0     9951.885    24.943106    24.910171    22.910567    14235.184    9062.1573    9957.4462    10836.051    130.49361   -223.37104   -596.95005   -6136.5493 
 2622000    252.63042   -9129.9091   -8166.7667   -9129.9091            0    8529.2727    24.736344     25.00877    23.143617    14317.232     10066.12     8134.521     7387.177    1036.9005    293.19478    184.55408   -6385.8362 
 2623000    253.16672   -9194.3179   -8229.1309   -9194.3179            0    6795.7269    24.924577    25.095173    22.946468    14352.708    6703.1383    5680.5343    8003.5081    506.05693   -404.70278    1129.3848   -6806.6526 
 2624000    255.64049   -9129.9606   -8155.3425   -9129.9606            0    7071.1626    24.940446    25.158694    22.956787    14404.673    6579.6906    6069.0237    8564.7734   -308.71816    621.42494     4.327524   -6669.8511 
 2625000    250.63804   -9098.3931   -8142.8466   -9098.3931            0    8926.4126    24.916547    25.045915    22.974485    14337.405    9508.9818     7699.634     9570.622    429.92411   -214.24357   -31.171217   -6276.3663 
 2626000     260.9236   -9198.9288    -8204.169   -9198.9288            0    7884.8622    24.829898    24.928558    23.132666    14318.508    8351.6207    8026.0632    7276.9027   -443.69549    -234.4986    1549.5612   -6557.6461 
 2627000    250.59897   -9133.7601   -8178.3626   -9133.7601            0     9043.714    24.890289    24.964755    22.975906    14276.767    8308.3586    9021.0686    9801.7148    824.78022   -322.11189   -1023.7125   -6295.3527 
 2628000    243.47737   -9128.4322   -8200.1854   -9128.4322            0     8900.663    24.921844    25.094349    22.849224    14289.846    7895.3697    8277.5549    10529.065   -559.35429    -898.8384    47.730716   -6345.2628 
 2629000    246.85302   -9119.6594   -8178.5431   -9119.6594            0    9137.4189     24.91525    25.000023    22.968261    14306.513    9042.0476    9242.4128    9127.7963   -360.44809    265.44585    332.49805   -6272.0589 
 2630000    248.12322   -9169.5639    -8223.605   -9169.5639            0    8957.2651    24.731287     24.94376    23.179614    14299.302    10438.904    9042.8846    7390.0072    493.10698    797.27815   -1088.8861    -6355.651 
 2631000    248.63179   -9169.4482   -8221.5504   -9169.4482            0    9568.8984    24.877087    24.938952    22.958878    14243.882    10221.934    9588.3883    8896.3729   -31.174723   -1916.7214    -26.00037   -6233.7801 
 2632000    247.36894   -9143.0012    -8199.918   -9143.0012            0    8203.1715    24.974846    25.081845    22.869324    14325.692    7533.2326    7751.0811    9325.2008   -517.81735    87.737638   -1223.0437    -6486.066 
 2633000    253.42037    -9174.695   -8208.5409    -9174.695            0    7870.6403    24.896248    25.073764    22.982351    14346.563    9008.9108    6772.3094    7830.7008   -262.29796    341.83905    265.32721   -6561.7675 
 2634000    241.83113   -9159.6733   -8237.7028   -9159.6733            0    7661.7247    24.880797    24.987635     23.06561    14340.173    8355.9668    7278.1733    7351.0341   -200.18564     236.8391    -17.20794   -6635.3548 
 2635000    246.68794   -9197.2024   -8256.7155   -9197.2024            0    8085.9301     24.91388    24.905563    23.031152    14290.696    8457.2634    7901.5724    7898.9545   -432.52332    378.79074    894.73989   -6571.4852 
 2636000    255.14312   -9166.0676   -8193.3457   -9166.0676            0    7596.9516    25.030442    24.920253    23.028329    14364.264    6501.7067    9065.2029    7223.9452   -138.31303   -919.23698   -250.83855    -6601.875 
 2637000    254.30362   -9182.3287   -8212.8073   -9182.3287            0    7447.5271    25.045399    24.806487    23.094819    14348.543    7129.9722    8752.5038    6460.1053   -168.40696   -1656.4215    316.63879   -6654.3469 
 2638000    251.35445   -9150.3073   -8192.0295   -9150.3073            0    8378.1156    25.039249    24.974871     22.88411    14310.624    7873.8243    8712.5715    8547.9509    -971.0493   -1135.6974    168.94101   -6443.4684 
 2639000    241.95284   -9158.6902   -8236.2556   -9158.6902            0    8599.1651    25.014867    24.980989    22.937657    14333.653    8124.7313    7947.2537    9725.5104   -360.69614   -8.2991043    971.39893   -6438.6722 
 2640000    252.58168   -9152.3083   -8189.3517   -9152.3083            0    8253.4191    24.989315    24.886485     23.05596    14338.414    8300.6981    9359.8362     7099.723   -503.86811    23.634846    266.95661   -6463.4705 
 2641000    246.79205   -9179.4969    -8238.613   -9179.4969            0     7981.261     24.90136    24.955437     23.01445    14301.739    8894.7634    7964.0339    7084.9858    577.39896   -1404.1875    659.27345    -6573.912 
 2642000    250.37098   -9188.1041   -8233.5758   -9188.1041            0    8649.7531    24.780864    25.052178    22.984962      14269.4    9968.3569    7475.5749    8505.3275    444.53589   -1611.1563    263.40655   -6433.5227 
 2643000    256.15368   -9175.1447     -8198.57   -9175.1447            0    7007.3229    24.763331     25.07839     23.13161    14365.296    7868.4913    6276.0775    6877.3998    -475.9077    673.10472   -164.10011   -6730.5141 
 2644000    245.41596   -9140.4511   -8204.8135   -9140.4511            0    8176.1425    24.846634    25.090449    22.985626    14329.543     8922.385    7193.1836    8412.8589    48.240461     362.2307    284.93387   -6496.1495 
 2645000    258.53765   -9135.1867   -8149.5232   -9135.1867            0    8585.6568    24.920762    25.063121    22.959715    14340.456     8693.768    7701.6605    9361.5418    223.32174   -296.33188    59.042575   -6353.9117 
 2646000    244.86701   -9149.9117    -8216.367   -9149.9117            0    7129.9503    24.950931    25.013904     23.07327    14400.494    7022.3732    8024.7573    6342.7204   -226.29288   -1058.6512    294.42372   -6718.9603 
 2647000    245.45915   -9147.2911   -8211.4889   -9147.2911            0    8687.7488    24.830096    24.892238    23.155227    14311.705    10181.976    8406.5319    7474.7385    613.62459    847.67877   -13.884291   -6398.1685 
 2648000    247.99207   -9185.2359   -8239.7771   -9185.2359            0    8514.1589    24.930729    24.921047    22.997301     14288.22    7966.8642    9580.3907    7995.2218   -336.88495   -330.30448     759.5929   -6465.6049 
 2649000    255.31843   -9163.0171   -8189.6268   -9163.0171            0    8629.0953     24.97165     25.05208    22.832978    14284.123    9540.0043    6361.5077     9985.774    676.52527   -570.66495    793.13236   -6392.0198 
 2650000    241.22752   -9137.0746   -8217.4053   -9137.0746            0    8955.2469    24.832101     24.99775    23.019747     14289.43    7517.5907     9681.488     9666.662    17.811941   -279.12642    625.65748   -6351.1615 
 2651000    252.45386   -9141.9104   -8179.4412   -9141.9104            0    10369.327    24.799257    24.942298    22.984096    14216.823    11367.023    9099.6976     10641.26   -688.98971   -17.182096    10.137551    -6029.488 
 2652000    244.37776    -9159.172   -8227.4925    -9159.172            0    7817.5015    25.046844    24.975467    22.880427    14313.002    7269.0251    8192.6293      7990.85   -924.57833    266.54541    469.70461   -6595.6637 
 2653000    254.17833   -9158.1868   -8189.1431   -9158.1868            0      7135.79    25.091168    24.935547    22.991031    14384.615    6288.6386    6959.4745    8159.2569   -373.97399   -790.92154    780.23299   -6692.1625 
 2654000    250.06344   -9194.8799    -8241.524   -9194.8799            0    6562.1048    24.922008    24.876118    23.139173    14345.426    8205.3504    5981.5422    5499.4218    193.30545    737.91515     34.46159   -6868.6442 
 2655000    255.73134   -9180.3333   -8205.3688   -9180.3333            0    7663.9815     24.89437    24.964078    23.046058    14322.319     7734.938    8175.9283    7081.0783   -23.626757   -59.538306    266.84562   -6604.5445 
 2656000    243.11434   -9211.4374   -8284.5746   -9211.4374            0    8530.3164    24.989324    24.925994    22.866576    14243.219    8300.4726    9238.1704    8052.3061    448.77427   -306.59452    560.61856    -6512.634 
 2657000    256.93513   -9185.4225   -8205.8685   -9185.4225            0    8395.1837    24.996275       24.902    22.939202    14278.673    7435.6666    9807.0717    7942.8128    211.33368   -817.18712     727.5758   -6457.6572 
 2658000     249.1685   -9148.1466   -8198.2027   -9148.1466            0    8257.8849    24.941438    24.842006    23.110486     14319.15    7838.1428    9213.3645    7722.1475     238.2258   -61.055012     166.1448   -6473.7076 
 2659000    251.05856   -9131.9083   -8174.7586   -9131.9083            0    7950.6447     25.12386    24.782397    23.025454    14336.326    7970.2063     8769.951    7111.7768     262.0451   -88.658169   -318.50928   -6512.4329 
 2660000    249.11274   -9142.5776   -8192.8462   -9142.5776            0    9338.6707    24.938891    24.935077    22.943729    14267.631    10067.962    8422.7965    9525.2534   -363.03878   -231.65513   -3.8336442   -6249.6673 
 2661000    246.43537   -9191.3471    -8251.823   -9191.3471            0    9482.5945    24.937397    24.876518    22.975985    14253.281    9268.2467     9882.707      9296.83    -337.8599   -431.13214   -584.21077    -6280.681 
 2662000    245.58067    -9138.024   -8201.7585    -9138.024            0    9397.5533    24.999635    24.861209    22.933403    14253.595    8394.1651    9705.1602    10093.335   -460.44447   -33.811838    -128.9624   -6248.2508 
 2663000    251.09893   -9149.4018   -8192.0981   -9149.4018            0    7184.6624    25.127356    24.978591    22.911463    14380.286      6356.48    7035.3197    8162.1874   -575.97259     1013.026   -91.998829   -6685.3183 
 2664000    244.14599   -9157.4257   -8226.6298   -9157.4257            0    7371.8603    25.081987    24.955807    22.921696    14347.634    6669.0359    6821.9238     8624.621    487.95507   -536.45042    669.18889    -6684.101 
 2665000    254.02644   -9154.8437    -8186.379   -9154.8437            0    8989.9731    24.942246    24.823872    23.054161    14274.286    7669.3488    10129.787    9170.7832   -721.63259    11.583216    279.73951    -6314.884 
 2666000    255.55925   -9144.8795   -8170.5712   -9144.8795            0    7395.3961    25.055077    24.937313    22.990277     14364.47    7094.3429    8252.3003     6839.545     589.8257   -55.161295    82.577778   -6621.3018 
 2667000    243.42998   -9194.7244   -8266.6583   -9194.7244            0    6249.1205    25.095342    24.886156    23.067817    14406.465    6210.1973    6806.1136    5731.0506    333.11001   -251.51901    597.85779   -6953.6961 
 2668000    256.71208   -9124.4064   -8145.7029   -9124.4064            0    8881.2412    24.991718    24.920599    22.926565    14278.862    9228.8165    9288.2589    8126.6483   -192.33282     871.1791     265.5046   -6296.2505 
 2669000    247.43339    -9145.134   -8201.8051    -9145.134            0    7632.5344    25.050459    24.989349    22.918336    14346.756    7647.3024    7556.2669    7694.0339    643.09378    423.03299    550.04976   -6604.8292 
 2670000    249.67613   -9160.7992   -8208.9199   -9160.7992            0    7996.0585    24.942096    24.884019    23.109364    14343.049    8024.8601    8737.4038    7225.9114    232.08014   -448.89837   -613.84102   -6536.3151 
 2671000    253.05311   -9180.3709    -8215.617   -9180.3709            0    8642.6404    24.941236    24.877081    22.998641    14269.855    8205.9084    10050.793    7671.2193    -799.3072    339.89765   -641.11092   -6416.9868 
 2672000     246.9309   -9152.0488   -8210.6356   -9152.0488            0    9412.2754    25.037978    24.818174    23.005149    14295.328    7782.8472    10047.817    10406.162   -300.53497    1062.8949    14.565718    -6248.339 
 2673000     254.8817   -9180.2104   -8208.4851   -9180.2104            0    8372.6244    25.044754    24.861627      22.9977    14319.595     7340.587    8886.3422    8890.9438    736.87507   -63.291907   -579.59967   -6459.9746 
 2674000    251.02746   -9183.9021   -8226.8709   -9183.9021            0    7516.0621     24.99838    24.893231    23.018932    14324.461    7392.8153    8289.1936    6866.1773    -15.44159    45.914535    653.25331   -6656.7086 
 2675000    246.05899   -9155.6868   -8217.5977   -9155.6868            0    7772.9465    25.037438     24.98742    22.964536    14367.096    6782.8478    8648.8202    7887.1715    590.01921   -198.23378   -490.15405   -6588.9372 
 2676000     242.3968   -9157.9335   -8233.8063   -9157.9335            0    6110.8588    24.933755    25.003439     23.13291    14421.741    6845.3127    6558.1644    4929.0993    60.391318   -287.57952    374.83196    -6948.532 
 2677000    247.55602   -9128.2846   -8184.4882   -9128.2846            0    7975.2708    24.960023    24.985232      22.9962    14341.165    7374.4751    7818.2479    8733.0895    284.74425   -542.56992   -692.44549   -6516.4508 
 2678000    246.40169   -9145.0084   -8205.6127   -9145.0084            0    6994.0762    24.997519    25.138071    22.901748    14391.216    6844.2744    5817.0106    8320.9436   -91.533673   -80.724386   -314.00706   -6737.6881 
 2679000    251.25427   -9175.6594   -8217.7635   -9175.6594            0    7981.2027    24.875663    24.983675    23.081469    14344.798    8796.1035    8160.1467    6987.3579   -318.25056    230.73517   -137.64911   -6548.0626 
 2680000    253.16228    -9197.793   -8232.6229    -9197.793            0    7557.3572    24.860147     24.94853    23.116326    14337.303    8398.4547    7443.0407    6830.5761    578.94935    519.26628   -173.81696   -6652.4184 
 2681000     249.8701   -9151.5812   -8198.9625   -9151.5812            0    9156.8475    24.905521    25.045558    22.830912    14241.299    8730.1151     8311.464    10428.963     658.6621   -87.488988   -1149.0004   -6297.1334 
 2682000    253.56168   -9133.2432   -8166.5504   -9133.2432            0    8991.5852    24.924468    24.971338    22.969552    14296.188    8632.3372    8973.8621    9368.5565   -207.71573    1498.2678   -185.51602   -6291.8478 
 2683000    256.67318   -9189.7893   -8211.2341   -9189.7893            0    7767.3364    24.960267    24.977085    22.974624    14323.178    7872.4866    8372.6988    7056.8238    129.07569    297.40979    1600.1393    -6588.724 
 2684000     252.4012   -9157.9022   -8195.6337   -9157.9022            0    8694.6613    24.978585    24.802614    23.102139    14312.565    7075.7022    10720.946    8287.3362    37.979878   -408.43411     1514.822   -6380.7616 
 2685000    256.21714   -9118.8735   -8142.0569   -9118.8735            0     8141.016    24.947337    24.977027    23.004544    14334.368     8137.523    8269.7234    8015.8015    -374.4204   -608.08205   -612.24367   -6440.1607 
 2686000    247.05123   -9104.0377   -8162.1657   -9104.0377            0    6788.0847    25.068619    25.070412    22.951509    14424.578    6425.8783    6775.4409     7162.935    113.72085    22.393005   -513.98499   -6734.1721 
 2687000     244.7274   -9200.4771   -8267.4647   -9200.4771            0    6057.6145    25.019808     24.88071    23.135634    14402.177    5842.2869    6044.9384    6285.6182   -308.97242   -1393.6619    649.02224   -6995.1174 
 2688000    255.09524   -9135.2739   -8162.7346   -9135.2739            0     8212.947     24.93756    24.997875    22.976057    14322.953    7328.0314    8371.0525    8939.7571   -790.17019   -584.90614    660.99865   -6447.1684 
 2689000    240.74063   -9167.2967   -8249.4836   -9167.2967            0    8188.1861     24.99939    25.103101    22.778188     14294.73    7851.2147    7408.8361    9304.5074    68.702524    850.25901   -150.65854   -6542.4599 
 2690000    255.59877   -9125.2325   -8150.7734   -9125.2325            0     8461.705    24.855105    24.965854    23.102231    14335.602    7410.6826     9290.057    8684.3754   -795.90001   -487.65326   -515.59217   -6381.6843 
 2691000    246.11214   -9135.8046   -8197.5129   -9135.8046            0    6528.8183    24.983923    24.982637    23.110722    14424.887    6616.3167    6111.2081    6858.9302    92.042247    -874.1335    200.30287   -6824.0312 
 2692000    240.94634   -9088.7522   -8170.1549   -9088.7522            0    8375.3339    25.040823    25.030566    22.921546    14366.903    7409.7358    8206.7864    9509.4796   -227.49906   -945.72986    316.52929   -6415.3002 
 2693000    252.30408   -9163.5281   -8201.6298   -9163.5281            0    8487.4827    24.971352    24.988001    22.934194    14310.574    7667.2574    8402.3764    9392.8142   -33.017766   -521.70633   -268.24444   -6430.2494 
 2694000    243.59414   -9137.8367   -8209.1447   -9137.8367            0    7130.7991    24.843279    25.049322    23.127796    14392.597    7201.7561    7419.2599    6771.3813   -331.21484   -220.77928   -187.32477    -6712.381 
 2695000    242.28019   -9115.4172   -8191.7346   -9115.4172            0      9230.04    24.853204    25.000602    23.001701    14291.993    9168.0282    9171.9101    9350.1817   -811.31147    729.86214    1266.1327   -6267.8799 
 2696000    259.87462   -9161.1007   -8170.3401   -9161.1007            0    9692.3797    24.808578    24.919815    23.001269    14219.963    9148.4634    10867.903    9060.7726    435.52119   -438.84082    1170.8378   -6160.2997 
 2697000     245.7943    -9132.946    -8195.866    -9132.946            0    8542.2907    24.872245    25.009548    23.034874    14328.696    9515.8798    8036.6095    8074.3828   -440.16078    -165.1368   -245.61987   -6410.7892 
 2698000    258.70343   -9166.4264   -8180.1309   -9166.4264            0    8689.0546    24.871199    25.076094    22.936613    14304.935     9360.294    7768.6405    8938.2294   -459.95276   -56.254514   -1115.0489   -6367.3959 
 2699000     249.4452   -9117.6946   -8166.6958   -9117.6946            0    8068.4524    24.931093     24.97895    22.997498     14321.75    8117.5477    8156.2194      7931.59   -92.570128   -495.38076    143.19273    -6481.454 
 2700000    251.43357   -9162.4251   -8203.8457   -9162.4251            0    8225.5073    25.048724    24.907025    22.916986     14297.66    7584.1437    9257.7366    7834.6415   -796.75009    280.68955    676.04692     -6488.69 
 2701000    253.36748   -9133.8287   -8167.8763   -9133.8287            0     8889.933    25.015333    24.924611     22.97373    14324.062    7966.8939     9754.634     8948.271    934.65479    1025.7238    -290.0693   -6310.7538 
 2702000    247.95514   -9157.5901    -8212.272   -9157.5901            0    7986.0534    24.905577    24.889916    23.083855    14309.629    8364.5127    8517.6699    7075.9777   -148.80418    231.26684    286.25767   -6545.6525 
 2703000    249.54845   -9198.7715    -8247.379   -9198.7715            0    6952.8984    25.074259    24.932648    22.904668    14319.258    5398.5322    7757.7626    7702.4004   -1455.8134   -1207.1393   -381.59269   -6795.3935 
 2704000    252.21143   -9141.8924   -8180.3474   -9141.8924            0    8550.4948    25.043572    24.968777    22.869372    14300.387    7238.7033    9123.5324    9289.2488   -168.14097    706.84615   -901.40901   -6397.0863 
 2705000     249.6475   -9183.1375   -8231.3674   -9183.1375            0    7642.2756    24.865194    24.906347    23.128789    14323.686    8617.4097     7528.729    6780.6881   -233.03246   -990.03585   -350.95708   -6634.9246 
 2706000      242.529   -9205.2732    -8280.642   -9205.2732            0    6868.6134    24.903661    24.984229     23.06715    14352.352    7273.0776    6283.7984    7048.9641   -571.67487   -548.73748    73.922165   -6842.9427 
 2707000    250.60939   -9146.4772   -8191.0399   -9146.4772            0    9453.4892    24.925258    25.002368    22.865955    14249.846    9643.7207    8782.8047    9933.9421    406.53903   -636.24908    632.66427   -6226.4216 
 2708000    249.02245   -9146.6899   -8197.3027   -9146.6899            0    8471.3789    24.964038    24.994074    22.922495     14302.56    8022.3235    8646.4748    8745.3384   -171.90563   -161.95103   -98.031757   -6430.2734 
 2709000    249.81848   -9118.5737   -8166.1517   -9118.5737            0    8000.4026    24.840104    24.917981    23.179927    14347.569    8829.1606     8469.859     6702.188   -716.26399   -75.151248    309.99917   -6492.1109 
 2710000    254.07871   -9151.7773   -8183.1134   -9151.7773            0    8311.3844    24.955835    24.944841    22.980346     14305.71     8780.645    8538.3494    7615.1587    506.30572    637.29448   -103.93205   -6449.0751 
 2711000    260.81149   -9160.7358   -8166.4035   -9160.7358            0    8618.6585    25.041628    24.949292    22.890626    14301.397    8038.5497     9323.808    8493.6178    727.98666   -896.58497    369.80545   -6368.7995 
 2712000    245.68716   -9139.4444   -8202.7728   -9139.4444            0    8331.2659    24.986309    24.981045    22.945454    14322.188     8354.452    8337.9168    8301.4288   -342.51841    398.38959    698.37324   -6462.5845 
 2713000     243.1063   -9133.0575   -8206.2254   -9133.0575            0    7962.8512    24.950945    24.984252    22.990099    14331.584    7980.1642    7854.8318    8053.5578   0.41815914    1408.2537   -466.30779   -6541.8983 
 2714000    252.23786   -9144.9088    -8183.263   -9144.9088            0    7445.0526    24.827508    25.042982    23.097646    14361.073    8081.5129    7554.9874    6698.6576    1079.7247    665.49101   -455.19608   -6623.9599 
 2715000    249.80237   -9169.1089   -8216.7484   -9169.1089            0    8385.2577    24.884707    24.989797    22.998476    14301.919     7934.738    8609.2627    8611.7724    351.88311    893.00542    591.26602   -6467.7612 
 2716000    247.45253   -9177.7224   -8234.3205   -9177.7224            0    8724.8597    24.865305    25.034114    22.967252    14296.675    10344.649    7315.8758    8514.0539   -207.86906   -223.05404   -698.87349   -6415.1668 
 2717000    251.87928   -9124.3168   -8164.0381   -9124.3168            0     9843.388    24.874481    25.042821    22.890531    14259.134    10807.165    8051.7418    10671.257    937.99815   -630.92177    47.444713   -6117.0579 
 2718000     252.9306   -9154.0659   -8189.7791   -9154.0659            0    7922.9186    24.898932    24.953383    23.019696    14302.427    7988.8853    9121.9962    6657.8743   -418.93994   -370.76269    -588.3308   -6537.1674 
 2719000    246.53016   -9182.1082   -8242.2228   -9182.1082            0    8264.9128    24.930406    24.854206    23.083954    14303.405    7932.4329    9046.0733    7816.2322   -751.09939   -36.759592     16.56109    -6518.158 
 2720000    259.14657   -9194.2518   -8206.2669   -9194.2518            0    7871.6706    24.943883    25.024257    22.968413    14336.933    7948.1448    7074.1838    8592.6831    558.62108   -867.74043    345.38848   -6560.3836 
 2721000    249.49137   -9151.7117   -8200.5368   -9151.7117            0    8392.1801    24.915083    25.110871    22.842011    14290.863    9172.6287    6122.3057    9881.6057   -625.60416   -380.60267   -413.57129    -6451.459 
 2722000    249.87317   -9169.4624   -8216.8319   -9169.4624            0    9258.4129    24.827471    24.949281    22.989943    14240.605    10004.518     8747.368    9023.3523    147.29118    633.69375    1324.5106    -6294.002 
 2723000    256.06817    -9177.507   -8201.2583    -9177.507            0    8094.2335    24.903955    25.093993    22.881049    14299.275    8576.4752    7753.9742    7952.2511    228.16327    866.20275   -179.72785   -6513.2848 
 2724000    255.23535   -9101.6287   -8128.5551   -9101.6287            0     9913.349    24.838902    24.979289    22.981833    14259.264    10801.115    9184.9021    9754.0302   -152.93474   -616.94365    737.60909   -6067.0073 
 2725000    249.84084   -9168.7906   -8216.2834   -9168.7906            0    8870.7464    24.892043    24.900156    23.032209    14275.726    8786.9233    9507.1103    8318.2056   -139.31095     967.6178    712.33701   -6369.4222 
 2726000    250.43886   -9144.6453   -8189.8581   -9144.6453            0    9796.0925    24.943489    24.963927    22.847298    14226.726    7979.2997    10505.569    10903.408   -276.81051    177.76567    219.32346   -6157.3433 
 2727000    248.36546   -9123.5959   -8176.7135   -9123.5959            0      8134.44    24.987501     24.99068    22.979335    14349.552    7751.8835    8636.2813    8015.1552    947.47636   -367.05643    675.98818   -6474.3907 
 2728000    249.95118   -9121.7307   -8168.8028   -9121.7307            0     7179.078    24.907244    24.943368    23.166804    14392.853    7061.7094    8733.6713    5741.8533    48.144501   -452.46747   -239.04093   -6661.8784 
 2729000    249.74766    -9175.622   -8223.4701    -9175.622            0    7544.5779    24.870198    25.156858     22.93855    14351.642    9014.5296    4920.8122    8698.3918   -417.97451    956.05624    745.48688   -6644.3599 
 2730000    242.94374   -9114.1236   -8187.9112   -9114.1236            0    8965.3781    24.867863    25.042567    22.984804    14313.905    9763.8503    7688.7917    9443.4922    275.97904   -1.1611508   -290.29069   -6316.3561 
 2731000    253.07251   -9132.0333   -8167.2055   -9132.0333            0    7336.4916    24.992473    25.049812    22.965711    14377.839    6573.4044    8324.8929    7111.1775   -314.53823   -186.65363    320.40415   -6628.8457 
 2732000    247.21627   -9125.1446   -8182.6434   -9125.1446            0    7842.9036    24.961644    25.034392    22.986342    14364.155     7541.616    7607.2505    8379.8442   -932.83254   -393.90687   -151.74126   -6539.6612 
 2733000    255.08264   -9141.3865   -8168.8952   -9141.3865            0    8162.1815    24.905956     25.03507     23.01964     14353.26    7849.2184    8286.3839    8350.9423   -121.27088   -463.20886   -388.51906   -6460.3255 
 2734000    252.87959   -9150.4155   -8186.3232   -9150.4155            0    7227.2871     24.97194    24.975032     23.05101    14376.339    7056.6971    7428.4013     7196.763   -487.52754   -801.19567    437.62364   -6671.0202 
 2735000     245.0563   -9155.9203    -8221.654   -9155.9203            0    6298.2565    24.990303     24.97676    23.046873    14385.324    6056.4773     6937.783    5900.5091   -455.94649    235.45482   -457.57542     -6900.31 
 2736000    255.78054   -9147.5751   -8172.4231   -9147.5751            0    9823.4789    24.901389     24.95207    22.900899    14229.273    10255.059    9515.1495    9700.2278   -698.01912   -11.372156    1549.9163   -6133.8612 
 2737000    248.91498   -9155.2488   -8206.2714   -9155.2488            0    9835.3729    24.825164    24.918031    23.008092    14232.672    11415.978    9213.4348    8876.7064    269.72421   -400.08823    5.2425578   -6164.7536 
 2738000    258.57401   -9128.9403   -8143.1383   -9128.9403            0     7825.335    24.936767    24.959795    23.097439    14376.229    6927.6365    9236.4516    7311.9168   -18.720564    609.43351    304.51756   -6502.4585 
 2739000    250.39516   -9151.8527   -8197.2322   -9151.8527            0     7946.616    24.986885    25.089962    22.900448    14356.749    8269.9327    6703.4992     8866.416    55.186839    1327.0188    763.29459    -6533.382 
 2740000    255.75376   -9126.8847   -8151.8347   -9126.8847            0    9369.1128    24.899871     25.04508        22.89    14274.645    9789.1506    8536.6066    9781.5812    950.69799   -132.32869   -423.12315   -6201.3629 
 2741000    253.74926   -9141.7729    -8174.365   -9141.7729            0    8687.7522    24.843659    24.965752     23.07335    14311.029    9225.2236    8609.9665    8228.0666    387.12808    61.487727   -160.60696   -6361.1296 
 2742000    250.97116   -9130.1611   -8173.3446   -9130.1611            0    7929.6562    24.925854    24.961897    23.084856    14363.319     8618.501    7891.4268    7279.0409   -654.29746   -814.96545    554.88906   -6512.2856 
 2743000    254.06157   -9160.5041   -8191.9055   -9160.5041            0    9246.8499    24.862824     24.97483    22.970179    14263.214    8949.2868    9050.9382    9740.3246   -259.66058    359.97208   -316.05891   -6268.4281 
 2744000    249.24257   -9161.8721   -8211.6458   -9161.8721            0    9021.2643    24.890683    25.102158    22.835337    14267.743    10070.943    8230.9653    8761.8849   -132.34092   -614.47721   -406.92415   -6334.4974 
 2745000    256.98968   -9155.6747   -8175.9128   -9155.6747            0    9904.1305    24.910609    24.924574    22.950367    14249.569    10054.618    9743.1194    9914.6541    816.51862   -1065.8758   -1608.2937   -6117.6824 
 2746000    240.22365   -9129.0296   -8213.1875   -9129.0296            0    9259.0345    24.864688    24.944681    23.007613    14270.281    9741.9622    8734.9224    9300.2189   -554.83727    45.732335     307.4648   -6286.2212 
 2747000    259.86558   -9130.5942   -8139.8681   -9130.5942            0    10173.369    24.887631    25.068466    22.838557    14248.855    9839.1457    9113.5033    11567.459   -687.78283    139.10406    153.40488   -6025.7917 
 2748000     240.2361   -9160.1681   -8244.2785   -9160.1681            0    7839.3891      24.8878    25.067332     22.98558     14340.03    8559.6988    6539.1712    8419.2972   -207.20471     328.3798    4.1318433   -6604.7907 
 2749000    243.79159   -9177.2182   -8247.7735   -9177.2182            0    9617.1241    24.910578    24.891186    22.974368    14245.345    9951.6426    9160.0637    9739.6661    769.92588   -439.05937    441.86534   -6249.7799 
 2750000    262.89788   -9162.4054   -8160.1188   -9162.4054            0    9053.0718     24.90261     24.94049    22.994393    14281.433    8564.0485    9658.6102    8936.5569    -796.9938   -378.59527    37.070064   -6274.5445 
Loop time of 550.663 on 64 procs for 250000 steps with 1920 atoms

Performance: 78.451 ns/day, 0.306 hours/ns, 453.998 timesteps/s
195.0% CPU use with 32 MPI tasks x 2 OpenMP threads

MPI task timing breakdown:
Section |  min time  |  avg time  |  max time  |%varavg| %total
---------------------------------------------------------------
Pair    | 71.691     | 74.893     | 80.63      |  20.1 | 13.60
Bond    | 0.73389    | 0.95918    | 1.378      |  12.3 |  0.17
Kspace  | 256.89     | 268.08     | 276.99     |  29.2 | 48.68
Neigh   | 4.3181     | 5.0308     | 5.5878     |  14.8 |  0.91
Comm    | 79.625     | 88.866     | 98.105     |  46.0 | 16.14
Output  | 0.70521    | 0.70544    | 0.70711    |   0.0 |  0.13
Modify  | 89.031     | 95.27      | 99.797     |  32.1 | 17.30
Other   |            | 16.86      |            |       |  3.06

Nlocal:        60.0000 ave          63 max          56 min
Histogram: 2 0 6 0 6 6 0 3 4 5
Nghost:        3376.88 ave        3404 max        3339 min
Histogram: 1 2 2 4 3 3 5 5 3 4
Neighs:        21271.5 ave       22578 max       19895 min
Histogram: 2 3 3 4 4 3 3 5 1 4

Total # of neighbors = 680687
Ave neighs/atom = 354.52448
Ave special neighs/atom = 2.0000000
Neighbor list builds = 9651
Dangerous builds = 0

unfix		3
unfix		2
unfix		1

write_data	data.final.${pid}
write_data	data.final.0
System init for write_data ...
PPPM initialization ...
  extracting TIP4P info from pair style
  using 12-bit tables for long-range coulomb (../kspace.cpp:340)
  G vector (1/distance) = 0.3744763
  grid = 30 30 30
  stencil order = 5
  estimated absolute RMS force accuracy = 0.0032681735
  estimated relative force accuracy = 9.8420074e-06
  using double precision FFTW3
  3d grid and FFT values/proc = 5400 960
Last active /omp style is kspace_style pppm/tip4p/omp
WARNING: Not all mixed pair coeffs generated from mixing. Use write_data with 'pair ij' option to store all pair coeffs. (../write_data.cpp:312)

write_restart   restart.lmp.${pid}
write_restart   restart.lmp.0
System init for write_restart ...
PPPM initialization ...
  extracting TIP4P info from pair style
  using 12-bit tables for long-range coulomb (../kspace.cpp:340)
  G vector (1/distance) = 0.3744763
  grid = 30 30 30
  stencil order = 5
  estimated absolute RMS force accuracy = 0.0032681735
  estimated relative force accuracy = 9.8420074e-06
  using double precision FFTW3
  3d grid and FFT values/proc = 5400 960
Last active /omp style is kspace_style pppm/tip4p/omp
Total wall time: 0:09:10
