LAMMPS (30 Jul 2021)
Processor partition = 0
  using 2 OpenMP thread(s) per MPI task
using multi-threaded neighbor list subroutines
variable        pid world 0 1
variable        phase world IceIII Liquid

shell cd ${phase}
shell cd IceIII
include Restart.lmp
echo both
log log.lammps
#include		in.partitions
include		in.temp
variable        temperature equal 252.28
variable	tempDamp equal 100.0
include		in.pressure
variable        pressure equal 1250.0
variable        pressureDamp equal 1000.0 # This is 1 ps
include		in.seed
variable        seed equal 745823

units		real
atom_style	full

read_restart	restart.lmp.${pid}
read_restart	restart.lmp.0
Reading restart file ...
  restart file = 30 Jul 2021, LAMMPS = 30 Jul 2021
  restoring atom style full from restart
  orthogonal box = (0.029118266 -0.24940814 -0.19761739) to (19.970883 20.249409 20.897615)
  2 by 4 by 4 MPI processor grid
  restoring pair style lj/cut/tip4p/long/omp from restart
  restoring bond style harmonic/omp from restart
  restoring angle style harmonic/omp from restart
  972 atoms
  648 bonds
  324 angles
Finding 1-2 1-3 1-4 neighbors ...
  special bond factors lj:    0        0        0       
  special bond factors coul:  0        0        0       
     2 = max # of 1-2 neighbors
     1 = max # of 1-3 neighbors
     1 = max # of 1-4 neighbors
     2 = max # of special neighbors
  special bonds CPU = 0.003 seconds
  read_restart CPU = 0.009 seconds
include 	in.setup
variable	out_freq equal 1000
variable	out_freq2 equal 10000
variable	out_freq3 equal 1000

timestep	2.0

neigh_modify    delay 7 every 1

include		in.tip4p
# This is TIP4P/Ice

# create groups ###
group ox type 2
324 atoms in group ox
group hy type 1
648 atoms in group hy

# set charges - beside manually ###
set group ox charge -1.1794
Setting atom values ...
  324 settings made for charge
set group hy charge 0.5897
Setting atom values ...
  648 settings made for charge

# ### TIP3P Potential Parameters ###
pair_style lj/cut/tip4p/long/omp 2 1 1 1 0.1577 8.5
pair_coeff 1 1*2 0.000 0.000
pair_coeff 2 2 0.21084 3.1668
bond_style  harmonic
bond_coeff  1 450 0.9572
angle_style harmonic
angle_coeff 1 55 104.52
kspace_style pppm/tip4p/omp 1.0e-5
pair_modify tail yes

thermo          ${out_freq}
thermo          1000
thermo_style    custom step temp pe etotal epair emol press lx ly lz vol pxx pyy pzz pxy pxz pyz enthalpy

restart 	${out_freq3} restart.lmp.${pid} restart2.lmp.${pid}
restart 	1000 restart.lmp.${pid} restart2.lmp.${pid}
restart 	1000 restart.lmp.0 restart2.lmp.${pid}
restart 	1000 restart.lmp.0 restart2.lmp.0


include         in.dump
dump            myDump all atom ${out_freq2} dump.water.${pid}
dump            myDump all atom 10000 dump.water.${pid}
dump            myDump all atom 10000 dump.water.0
dump            myDump2 all dcd ${out_freq2} dump.dcd
dump            myDump2 all dcd 10000 dump.dcd
dump_modify     myDump append yes
dump_modify     myDump2 append yes


variable natoms 	equal  "count(all)"                        # NUMBER ATOMS
variable H      	equal  "enthalpy/v_natoms"                 # ENTHALPY-per-atom
variable Vol      	equal  "vol/v_natoms"                 # volume-per-atom
fix AVG all 		ave/time ${out_freq} 1 ${out_freq} v_Vol v_H file vol_enthalpy.dat
fix AVG all 		ave/time 1000 1 ${out_freq} v_Vol v_H file vol_enthalpy.dat
fix AVG all 		ave/time 1000 1 1000 v_Vol v_H file vol_enthalpy.dat


timer           timeout 02:55:00 every 1000
New timer settings: style=normal  mode=nosync  timeout=02:55:00

fix 		1 all shake 1e-6 200 0 b 1 a 1
Finding SHAKE clusters ...
       0 = # of size 2 clusters
       0 = # of size 3 clusters
       0 = # of size 4 clusters
     324 = # of frozen angles
  find clusters CPU = 0.001 seconds
fix             2 all nph aniso ${pressure} ${pressure} ${pressureDamp}
fix             2 all nph aniso 1250 ${pressure} ${pressureDamp}
fix             2 all nph aniso 1250 1250 ${pressureDamp}
fix             2 all nph aniso 1250 1250 1000
fix             3 all temp/csvr ${temperature} ${temperature} ${tempDamp} ${seed}
fix             3 all temp/csvr 252.28 ${temperature} ${tempDamp} ${seed}
fix             3 all temp/csvr 252.28 252.28 ${tempDamp} ${seed}
fix             3 all temp/csvr 252.28 252.28 100 ${seed}
fix             3 all temp/csvr 252.28 252.28 100 745823


run             250000
PPPM initialization ...
  extracting TIP4P info from pair style
  using 12-bit tables for long-range coulomb (../kspace.cpp:340)
  G vector (1/distance) = 0.37137187
  grid = 24 24 25
  stencil order = 5
  estimated absolute RMS force accuracy = 0.0035382332
  estimated relative force accuracy = 1.0655284e-05
  using double precision FFTW3
  3d grid and FFT values/proc = 3458 576
Last active /omp style is kspace_style pppm/tip4p/omp
Neighbor list info ...
  update every 1 steps, delay 7 steps, check yes
  max neighbors/atom: 2000, page size: 100000
  master list distance cutoff = 10.8154
  ghost atom cutoff = 10.8154
  binsize = 5.4077, bins = 4 4 4
  1 neighbor lists, perpetual/occasional/extra = 1 0 0
  (1) pair lj/cut/tip4p/long/omp, perpetual
      attributes: half, newton on, omp
      pair build: half/bin/newton/omp
      stencil: half/bin/3d
      bin: standard
Setting up Verlet run ...
  Unit style    : real
  Current step  : 3250000
  Time step     : 2
  Walltime left : 2:54:59.94
Per MPI rank memory allocation (min/avg/max) = 10.19 | 10.19 | 10.21 Mbytes
Step Temp PotEng TotEng E_pair E_mol Press Lx Ly Lz Volume Pxx Pyy Pzz Pxy Pxz Pyz Enthalpy 
 3250000    254.27683   -4649.4618   -4159.0676   -4649.4618            0    666.25498    19.941764    20.498817    21.095233    8623.3638     2106.098   -535.73548    428.40248   -227.61437    923.74915   -1365.9795   -4075.2774 
 3251000    253.97596   -4716.3581   -4226.5441   -4716.3581            0    1778.5445    20.186053    20.152844     21.10237    8584.5786    1288.1985    2313.1991    1734.2359   -215.05753    984.52581    1326.8424   -4003.8751 
 3252000    251.65425     -4700.69   -4215.3536     -4700.69            0    1118.6624    20.003798    20.147232    21.297878    8583.4955    1005.2096    1818.6803    532.09722    42.354066    650.67299     1801.196   -4075.3178 
 3253000    255.51509   -4714.6227   -4221.8403   -4714.6227            0     35.74713    20.322268    20.206519     21.06659    8650.8329   -669.37362    715.78452    60.830493    77.158817    414.00272   -1343.1034   -4217.3303 
 3254000    241.73028   -4712.4888   -4246.2916   -4712.4888            0    1467.3334    20.189025     20.15433    20.728118    8434.1937    853.39703    1560.5671    1988.0362   -484.26616     931.1171    516.01905   -4065.8037 
 3255000    252.61215   -4698.1195   -4210.9357   -4698.1195            0    799.22779    20.428569    20.085294    20.929586    8587.6983   -941.98996     1501.388    1838.2854    11.822477    813.53003   -735.48497   -4110.8382 
 3256000    253.03618    -4684.058   -4196.0565    -4684.058            0    934.82896    20.118285    20.050743    21.274094    8581.6835    656.18342    1635.0973     513.2062   -287.12771    -766.4669   -59.488811   -4079.0579 
 3257000    255.78364    -4700.262   -4206.9618    -4700.262            0    1494.0587    20.076867    20.094648    21.380321     8625.625    2204.4598    1705.9462    571.77003   -814.46026    90.712036    827.81908   -4019.0153 
 3258000    263.89825   -4717.6436   -4208.6936   -4717.6436            0    23.177384    20.146718    20.264075    21.012192    8578.3242    67.873898   -506.06375    507.72201   -32.449497   -1053.7662   -223.94583   -4205.7939 
 3259000    259.59347   -4681.2693   -4180.6215   -4681.2693            0    859.95019    20.426269    20.058211    20.943835    8580.9914    781.64949    1270.9317    527.26935    394.69153   -380.83523    1106.1352    -4073.003 
 3260000    251.24742   -4679.4826   -4194.9308   -4679.4826            0    789.71509    20.284293    20.244181    21.155039    8687.0819   -1460.0693    2293.6828    1535.5318    419.18754    342.48471    359.62096   -4094.8801 
 3261000    252.58361   -4696.6541   -4209.5253   -4696.6541            0    2424.4028    20.192813    20.065901    20.957147    8491.5637    2474.5218    1746.0923    3052.5942    69.391485    1723.9366    996.39189   -3909.2855 
 3262000    263.52736    -4674.863   -4166.6283    -4674.863            0    1466.6847    20.070744    20.419947    21.086835    8642.3029    1940.6362    1963.7054    495.71261   -112.44608   -233.90318     99.15554   -3981.7686 
 3263000    266.46373   -4681.6086   -4167.7109   -4681.6086            0    1542.6327    20.038179    20.108323    21.299362    8582.2409    2099.8804    1565.5204    962.49739   -311.66957   -459.44421     1211.396   -3974.6301 
 3264000    246.29522   -4699.3925   -4224.3915   -4699.3925            0    472.09253    20.041165    20.124905    21.443476    8648.7231    239.62943    1687.6218   -510.97368   -1528.9914   -57.064728   -267.17365   -4164.8451 
 3265000    255.73654   -4719.3036   -4226.0942   -4719.3036            0    220.14814    20.268473    20.190703    21.172003    8664.3186    996.98818   -1469.8832    1133.3395     62.63934   -188.18289    265.50799   -4198.2762 
 3266000    246.00197    -4680.833   -4206.3975    -4680.833            0    976.89319    20.087116     20.18689    21.124757    8566.0128    2352.4923     475.3181    102.86921    -488.2118   -586.82136    990.88642   -4084.3576 
 3267000    245.49724    -4685.916    -4212.454    -4685.916            0    358.91912    20.274296    20.208289    21.254301     8708.075    961.91427   -306.13668    420.97977   -243.31489   -44.391856     679.3673   -4166.8718 
 3268000    234.58331   -4689.1523   -4236.7387   -4689.1523            0    207.75271    20.306719    20.017523    21.133871    8590.7116    804.34079    592.04082   -773.12349   -552.28941     1181.449      22.6044     -4210.71 
 3269000    254.75023   -4710.1629   -4218.8556   -4710.1629            0     2815.241    20.048439     20.17148    21.064758    8518.7289     4744.152   -82.831388    3784.4024   -799.43459    1854.6504   -473.84986   -3869.0988 
 3270000    246.75772   -4694.7716   -4218.8786   -4694.7716            0    731.04468    20.396244    20.117783    21.009678    8620.8424   -867.15322    2169.9294    890.35786   -422.67163   -106.22197    533.83779   -4126.9672 
 3271000    257.76823   -4737.4777   -4240.3499   -4737.4777            0   -46.919871    20.204204     20.11219    21.260842    8639.3595    1256.5476   -750.43308   -646.87413   -429.86927   -68.396173   -617.12194   -4246.2617 
 3272000    259.62375   -4705.0409   -4204.3347   -4705.0409            0    1086.4522    20.049933    20.121697    21.305782    8595.5765    141.16358    1659.6191    1458.5741    -39.94333   -1331.8568    1043.3063   -4068.1396 
 3273000    239.25306   -4699.4456   -4238.0259   -4699.4456            0    1483.7525    20.413591    20.183859    20.863582    8596.3181   -541.06391    2343.3059    2649.0157    -586.4344   -633.91984    113.82899   -4052.0101 
 3274000    275.24818   -4690.8587   -4160.0194   -4690.8587            0    425.20402    20.148813    20.221982      21.0503    8576.9225    1487.5412   -156.41372   -55.515444   -213.46762   -993.01938     518.9519   -4106.8325 
 3275000    256.18445    -4678.042   -4183.9688    -4678.042            0    2297.3089    20.272933    20.084549    21.107082    8594.2279    676.23789    3730.1901    2485.4986   -225.60792   -1102.2392   -61.231098   -3896.0287 
 3276000    264.16438   -4690.4956   -4181.0324   -4690.4956            0    2625.7213    20.127496    20.089068    21.169879    8559.8846    3512.9813    2461.3021    1902.8806   -145.52705    -704.2287   -640.84248   -3853.2449 
 3277000    260.06044   -4672.6883   -4171.1399   -4672.6883            0    2227.1135    20.219503    20.144663    20.970171     8541.467    4941.0543    882.18874    858.09743   -210.40964    239.70991    621.96503   -3893.7116 
 3278000    250.43774   -4712.9185   -4229.9282   -4712.9185            0    457.25878    20.073153    20.298068    21.107034    8599.9811    491.55143   -662.61112     1542.836   -642.20118   -1497.8591   -1318.5095    -4172.578 
 3279000    252.50968   -4692.3074   -4205.3212   -4692.3074            0    863.60968    20.087464    20.000555    21.413879    8603.2493    1550.7144    1956.9019   -916.78725   -251.49038    852.79178    913.58635   -4096.9645 
 3280000    258.68127   -4685.6828   -4186.7943   -4685.6828            0    2319.3486    20.085779      20.1799    21.152879    8573.8752    2078.2095    2802.4062    2077.4299    545.37134    338.14965   -382.10126   -3896.7802 
 3281000    253.17964   -4670.4684   -4182.1902   -4670.4684            0   -92.572152    20.179765    20.137539    21.248282    8634.6815   -501.30395   -235.72129    459.30879    387.65315   -139.41571   -440.48409   -4193.8476 
 3282000    253.07723   -4691.8556   -4203.7749   -4691.8556            0    1035.6295     20.23547    20.077542    21.089404    8568.1715     2444.136   -179.47023    842.22268    370.32969    608.44651   -778.64359   -4074.3647 
 3283000    244.37601   -4671.7886   -4200.4889   -4671.7886            0    1946.6058    20.101252    20.218499    21.003374     8536.131    1282.7887    2589.5332    1967.4957    157.68907     663.2856    1325.8632   -3958.1545 
 3284000    243.96738    -4690.913   -4220.4014    -4690.913            0    1569.3073    20.080476    20.317956    21.125677    8619.1541    3162.4396    128.95995    1416.5224    735.90125   -691.36276    576.77277   -4023.1371 
 3285000    239.31396   -4719.6978   -4258.1607   -4719.6978            0    1168.2084    20.234522      20.3699    20.787423    8568.0604    2473.3751   -1406.7547    2438.0048    141.57592    824.39725    924.95316   -4112.1856 
 3286000    246.63875   -4720.3375   -4244.6739   -4720.3375            0    2056.4811    20.135429    20.146053    21.163856    8585.1063    1621.7335    2438.5645    2109.1453    -10.52143    174.03347    8.5980465   -3987.1922 
 3287000    260.24618   -4716.5133   -4214.6067   -4716.5133            0    1076.8637    20.436183    20.070416    20.825508    8541.8463   -594.37886    1756.1167    2068.8533   -423.01765   -780.60036   -48.997436   -4080.4574 
 3288000    256.28336   -4683.7025   -4189.4384   -4683.7025            0    1298.4217    19.993615    20.225105    21.214186    8578.4429    2841.2708    1194.8155   -140.82109   -361.67272   -113.19927    95.839952   -4026.9958 
 3289000    243.78086   -4702.8248   -4232.6729   -4702.8248            0    1987.9851    19.962408    20.138324    21.108924    8485.9869    2203.0217     2280.854    1480.0795   -99.728904    798.63761   -884.02251    -3986.641 
 3290000    253.23403   -4710.5011    -4222.118   -4710.5011            0   -652.34355    20.049884    20.303095    21.266482    8657.0468    145.08403   -1744.3954   -357.71928    478.61133   -1599.3538    173.97756   -4304.4791 
 3291000    246.55061   -4687.3717   -4211.8781   -4687.3717            0   0.84997686    20.368639    20.084456    20.942642    8567.4887   -1644.9507    2446.6671   -799.16646    215.32399   -114.47489    340.08416   -4211.7719 
 3292000    254.18188   -4709.6679   -4219.4567   -4709.6679            0    2397.9948    20.171864    20.254826    21.069596    8608.5649     1874.892    2929.4602    2389.6322   -607.60108    29.238444   -886.19264   -3918.3954 
 3293000    261.98885   -4699.2716    -4194.004   -4699.2716            0    2869.2836    20.303344    20.156213    20.818345    8519.6684    2863.8124     2391.022    3353.0165   -390.75501   -1063.4006    532.19863   -3837.4937 
 3294000    240.10369     -4711.46   -4248.3998     -4711.46            0    2349.8889    20.172217    20.129753    21.099682    8567.7737    2732.6637    2134.2804    2182.7227    228.79871    595.14278   -475.85601   -3954.7761 
 3295000    247.95324    -4729.315   -4251.1164    -4729.315            0    820.56221    20.201487    20.075656    21.380768    8671.1434    1349.3037    409.91351    702.46946    300.74928    537.16765    535.10824   -4147.3483 
 3296000     250.4749   -4711.8418   -4228.7799   -4711.8418            0    281.53224    20.356898    20.009361    21.051943    8575.0567   -731.05172    689.72452    885.92391    416.33088   -176.13546   -735.89517    -4193.572 
 3297000    259.51023   -4722.3546   -4221.8673   -4722.3546            0    1586.8568    20.217215    20.103105     20.89775    8493.4473    1423.2931     613.5317    2723.7456   -334.48556    1691.1949   -747.51738   -4025.3062 
 3298000    240.08638   -4705.3077   -4242.2809   -4705.3077            0    620.76836      20.1711    20.264948    21.046013    8602.9009    275.71742   -289.92879    1876.5165   -217.47523   -238.54367    1310.3226   -4164.3966 
 3299000    248.54764   -4681.3444   -4201.9994   -4681.3444            0    526.92824    20.194998    20.443201     20.81958    8595.3722    156.98789   -596.65819     2020.455   -471.34242   -1463.9351    209.89306   -4135.9465 
 3300000    249.70384   -4723.3094   -4241.7346   -4723.3094            0    1789.3496    20.239215    20.028455    21.182014    8586.3457    1289.2628     1912.119    2166.6671     218.5823    1806.6558   -1357.7104   -4017.6668 
 3301000    268.95217   -4655.8244   -4137.1275   -4655.8244            0    2091.8012     20.09662    20.044823    21.325993     8590.818    4181.5802    72.206286    2021.6171   -1019.2806   -744.47496    1305.5406   -3875.0493 
 3302000    252.13601   -4727.8674   -4241.6019   -4727.8674            0    2954.9044    20.265543     19.85894    21.158648    8515.3443    1668.2262    5266.4377    1930.0492    518.34035    591.23403    1285.3903   -3874.6395 
 3303000     243.7413    -4715.264   -4245.1884    -4715.264            0    801.23971    20.279184    20.276535    20.787347    8547.5819    1048.6362   -921.47105     2276.554    -181.6205    357.48219   -504.15706   -4145.3076 
 3304000    264.92311   -4691.1406   -4180.2141   -4691.1406            0    1252.3723    20.195166    20.287521    20.989359    8599.5471    2118.6285    44.300576    1594.1879    423.27559    710.43492   -574.38009   -4023.1471 
 3305000    254.54065   -4689.5693   -4198.6662   -4689.5693            0    2842.1477    20.046011    20.145681    21.279086    8593.3578    2961.2576    3001.8868    2563.2988   -25.770436   -1141.3774    1468.9661   -3842.4732 
 3306000    253.37634    -4658.242   -4169.5844    -4658.242            0     3298.989    20.055449    20.206375     21.18102    8583.5645    4863.7114    2780.8675    2252.3883   -288.78518    -759.2579     123.8414   -3756.6087 
 3307000    245.58822   -4714.0675   -4240.4299   -4714.0675            0     2498.143    20.076783    20.248308     20.77509     8445.508    2529.0157    1546.3365    3419.0768    593.18154   -1895.1983   -333.37996    -3932.736 
 3308000    257.32054   -4701.4234   -4205.1591   -4701.4234            0    687.34559    20.317008    20.256021    20.875023    8590.9434   -9.7021939    642.31007    1429.4289   -1186.3976    50.539404    600.35601   -4119.0415 
 3309000    255.29383   -4710.7246    -4218.369   -4710.7246            0    461.85543    20.291945    20.119466    21.140663    8630.9527   -207.51339    1113.6041    479.47559   -485.72461   -31.126911    -442.3652   -4160.2336 
 3310000    250.25111   -4689.7854    -4207.155   -4689.7854            0    1698.1563    20.175326    20.048405    21.241673    8591.8977    1566.1671    2482.3723    1045.9296   -692.86073   -374.63279   -421.18609   -3994.3692 
 3311000    251.88067   -4688.3309   -4202.5579   -4688.3309            0     184.8951    20.296965    20.028311    21.230305    8630.4148    389.95292   -342.96076    507.69315    146.96175    1502.1278    746.18955   -4179.2859 
 3312000    253.74519   -4663.4443   -4174.0754   -4663.4443            0    1639.5632    20.450879    20.211964    20.873937    8628.2926    202.33497    1860.4087    2855.9458   -178.08135    339.34193   -1392.8846   -3967.7613 
 3313000    261.69957    -4680.547   -4175.8374    -4680.547            0    2560.6176    20.350204    20.108664    20.857513    8535.2159     1883.575    3237.5143    2560.7634    823.50221   -906.63637    665.02992   -3857.0984 
 3314000    248.41436   -4686.9221   -4207.8341   -4686.9221            0    1119.6344    20.095882    20.365488    21.165567    8662.2719    1778.0629     75.45978    1505.3806   -408.16264    240.43919    1183.4813   -4066.3903 
 3315000    260.73546   -4726.4683    -4223.618   -4726.4683            0    1761.8421    20.011188    20.270015    21.000779    8518.4847    1642.5286    1803.3223    1839.6755   -731.17632   -982.95235   -859.23422   -4004.7385 
 3316000     260.2299   -4671.2126   -4169.3373   -4671.2126            0     404.9284    20.350468    20.082256     21.17138    8652.3896   -898.72691     1592.628    520.88415   -220.37586   -215.71235   -103.39984   -4118.2409 
 3317000    242.58072    -4697.686   -4229.8487    -4697.686            0    3077.9105    20.142515    20.192671    20.883447     8493.949    3101.2686    3704.1785    2428.2844    115.65389    -629.0588   -1099.8141   -3848.5709 
 3318000    255.68994   -4704.2505   -4211.1309   -4704.2505            0    1819.4138    20.270864    20.185175    21.041571    8609.5993    1918.0428      1268.72    2271.4785   -671.58325    778.76673   -172.17393   -3982.6814 
 3319000    247.00092   -4723.3876   -4247.0256   -4723.3876            0    2495.2214    20.092415    19.919196    21.210499    8488.9666    1817.8148    4027.0221    1640.8274    25.214293    497.41834   -94.067848     -3938.11 
 3320000    259.36391   -4706.7223   -4206.5172   -4706.7223            0    610.01172    20.139596    20.039008    21.306895    8598.9837   -122.66853    2022.5203   -69.816561    155.55337    161.11399    581.98703   -4130.0172 
 3321000    262.58276   -4710.5782   -4204.1652   -4710.5782            0    2278.2723    20.130617    19.957867    21.048768     8456.641    1665.4165    2740.8624    2428.5381   -745.59998    1685.2854    749.74495   -3923.1827 
 3322000    271.50541   -4676.2327   -4152.6117   -4676.2327            0    1275.5831    20.330961    20.179496    21.010697    8620.0282    1232.4918    931.82348    1662.4341   -121.07254   -897.52136   -452.82479   -3992.2527 
 3323000    255.61132   -4739.0836   -4246.1156   -4739.0836            0   -540.18585    20.264007    20.261664    20.951078    8602.1462     1197.314   -2243.0868   -574.78484   -28.644987    157.07344   -710.11362   -4313.8838 
 3324000    237.18739   -4699.5134   -4242.0775   -4699.5134            0    1137.3333    20.214566    20.205252    20.929061    8548.2742    1346.9218   -141.44388    2206.5219    552.58629   -1292.1436   -563.13994   -4100.2887 
 3325000    246.30453   -4695.8793   -4220.8603   -4695.8793            0    2171.3575    20.184073    20.174211    21.027435     8562.324    2697.5061    1944.6616    1871.9048    -34.14083   -224.11215   -101.47563    -3949.717 
 3326000    249.09607   -4694.7695   -4214.3668   -4694.7695            0   -1267.1142    20.181811    20.144852    21.368305    8687.4897   -1576.6679   -130.47437   -2094.2004   -236.01523    -135.6688    95.515288   -4374.9078 
 3327000    240.93555   -4720.1124    -4255.448   -4720.1124            0    982.89695    20.158383    20.170833    21.253848    8642.0566    3654.6042   -335.17364   -370.73974   -33.377314     766.8906     79.26573    -4131.568 
 3328000    268.01922   -4697.8286    -4180.931   -4697.8286            0     1173.407    20.204424    20.126662    21.163569    8606.1149    1656.3197    1436.6532    427.24806   -331.23262    563.16028    522.16195   -4033.6551 
 3329000    253.99072   -4727.6435    -4237.801   -4727.6435            0    1075.3903    20.048698    20.297413    21.177781    8618.0164    2081.8159    177.19851    967.15649   -620.47072     -257.386   -644.20077   -4102.6407 
 3330000    253.68363   -4682.6199   -4193.3696   -4682.6199            0    -1149.054    20.121948    20.348827    21.208481    8683.9835    1352.5101   -3806.7771   -992.89487    477.85163   -391.17444   -107.79542   -4338.8939 
 3331000    252.91301   -4692.8092   -4205.0452   -4692.8092            0    1430.5691    20.198602    20.071998     21.12457    8564.4561    111.49237    3216.0903    964.12477    101.43656    1314.9768    865.95225   -4026.3617 
 3332000     254.4103   -4738.0484   -4247.3967   -4738.0484            0    1224.1608     20.28029    20.043504    21.242949    8635.0056   -67.148812     2321.575    1418.0562    200.85701    134.63747    1158.0208   -4093.2349 
 3333000    255.63603   -4694.8326    -4201.817   -4694.8326            0     2389.521    20.133367    20.232438    21.083589    8588.3388    2640.9869    2034.6196    2492.9564   -167.74568    186.04632   -458.19421   -3902.5244 
 3334000    250.67084   -4663.4307   -4179.9909   -4663.4307            0    727.15669    20.151742    20.172073    21.224917      8627.98   -339.24362    1730.9368    789.77692    781.64025   -144.25355    -500.1497   -4088.4926 
 3335000    249.52335   -4717.4016   -4236.1748   -4717.4016            0    1277.1654    20.195921    20.050109    21.293707    8622.4699    1266.8387    1028.1015     1536.556   -513.20681   -610.40746   -236.99354   -4075.5714 
 3336000    256.73558   -4716.4023   -4221.2662   -4716.4023            0    2428.2703    20.407303    19.961904     20.83535    8487.6676    1238.8438    2930.9467    3115.0202    521.00951    538.85938    -1328.059   -3920.6853 
 3337000    248.60111   -4708.2071    -4228.759   -4708.2071            0    517.95762    20.121105    20.162036    21.119943    8567.9902    1115.4915    1251.8155   -813.43411   -254.73742    1118.0962   -196.95203   -4164.0374 
 3338000    248.16374   -4690.2364   -4211.6318   -4690.2364            0    1169.7954    20.262558    20.099699     21.09218    8590.2401    820.23456    898.84599    1790.3058   -107.54141    87.426595   -2.2961089     -4065.08 
 3339000    242.24348   -4733.7859    -4266.599   -4733.7859            0     1817.196    20.032475    20.294848    20.979461    8529.3263    1646.0809      1173.98     2631.527   -22.492277    1476.1856   -431.08521   -4040.5553 
 3340000    240.79944   -4696.2348   -4231.8328   -4696.2348            0    1328.0286    20.152379    20.268566    21.100751     8618.809    1074.7869    1353.2266    1556.0722   -163.90371   -606.78381    1314.3892   -4064.9043 
 3341000    259.73146   -4727.7567   -4226.8428   -4727.7567            0   -294.55007    20.254827    20.092328    21.246683    8646.6912    361.07599   -199.56243   -1045.1638   -445.31888    515.16287   -504.10995   -4263.9865 
 3342000    253.73793   -4716.2117   -4226.8568   -4716.2117            0    633.55134    20.104548    20.059801    21.485302    8664.8769    1513.1735    851.97413   -464.49364    8.3032777    465.36912   -1122.0535   -4146.7959 
 3343000    258.21737    -4691.664   -4193.6701    -4691.664            0    1603.4312     20.21446    20.224159    21.029788    8597.4076    2371.8328    -47.66388    2486.1248    12.625059    868.06361    252.05709   -3992.6249 
 3344000    241.68278   -4682.6598   -4216.5542   -4682.6598            0     1618.089    20.202938    20.202544    20.883457    8523.5981    718.03202    1108.4666    3027.7684   -57.812125    700.96688   -1523.1197   -4015.4129 
 3345000    238.61872   -4715.0795   -4254.8832   -4715.0795            0    1506.0723    20.095727     20.04207    21.300528    8578.9996    733.86248    2485.1211    1299.2332   -169.57986    211.79032   -756.33969   -4066.4496 
 3346000    250.34468   -4685.5862   -4202.7755   -4685.5862            0    1302.0032    20.169199    20.140452    21.290165    8648.4221    1304.8902    1834.2537    766.86566    468.72523   -194.58688    396.88781   -4038.5559 
 3347000    254.96904   -4706.5451   -4214.8159   -4706.5451            0    462.85561    20.142099    20.119534    21.123729    8560.3838    203.34922   -118.94084    1304.1585    526.79427   -378.34197    -1152.162   -4157.0309 
 3348000    253.19948   -4705.9874   -4217.6709   -4705.9874            0    2056.5075    20.087821    20.262336     21.04244    8564.8241    2585.3896    1116.2045    2467.9285    17.041363   -228.01384   -269.92481   -3960.7943 
 3349000     249.3745   -4701.0035   -4220.0638   -4701.0035            0    1262.6169    20.364779    20.215988    20.917577    8611.6439    1828.5185   -1192.9396     3152.272    222.10261    1808.0446   -439.06265   -4061.4892 
 3350000    247.18196   -4694.7051   -4217.9939   -4694.7051            0    1371.6936    20.146145    20.149566     21.30146    8647.0313    1197.9632    2332.9482    584.16929   -148.95521    525.09841    497.70385   -4045.0122 
 3351000    249.14349   -4735.7535   -4255.2593   -4735.7535            0    84.941248    19.995611    20.195092    21.387701    8636.6363    1302.4667    348.83773   -1396.4806   -155.29667    139.31687    159.73619   -4244.5604 
 3352000    253.56597   -4701.9948   -4212.9715   -4701.9948            0     133.7503    20.188911    20.045498    21.137263    8554.1822   -227.61127    961.10633   -332.24417    601.50904    493.82193    382.40908   -4196.2856 
 3353000    250.97251   -4675.2251   -4191.2035   -4675.2251            0    1792.5132    20.131118    20.212466    20.945458    8522.6974   -318.46699    2289.0606     3406.946   -371.47116    179.35658   -985.82261   -3968.4034 
 3354000    258.86612   -4694.8182   -4195.5731   -4694.8182            0    367.82686    20.409636    20.030419    21.085078    8619.8658   -526.13392    1278.5976    351.01691   -785.62747    1249.7822   -29.530627   -4149.3329 
 3355000    256.42233   -4663.7797   -4169.2477   -4663.7797            0    1971.4121    20.198413    20.143147    21.122747    8593.9925    1956.0604     2197.983    1760.1931     173.7048    1093.0602     -596.297   -3922.1616 
 3356000    250.11052   -4722.8421   -4240.4829   -4722.8421            0    3196.9125    19.991193    20.306588    20.943585    8502.1092    5427.3445    933.85283    3229.5403    135.16407    1157.6184   -1396.3692   -3844.0832 
 3357000    248.06491   -4692.0192   -4213.6051   -4692.0192            0    1821.5044    20.151434    20.124669     21.14702    8575.9821    1933.6996    2294.1571    1236.6567    437.05052    401.46551   -717.20267   -3985.7861 
 3358000     259.2902   -4700.8527   -4200.7897   -4700.8527            0    1080.4501    19.972594    20.199092      21.4043    8635.0993    121.26553    2035.3069    1084.7778    237.24589    1302.3128    497.57341   -4064.7243 
 3359000    252.82783    -4700.474   -4212.8743    -4700.474            0    1021.3191    20.162043    20.156258    21.195622    8613.7174    1942.9576   -406.13751    1527.1371   -860.98209    1175.9028    861.78538   -4084.5739 
 3360000    269.07338   -4705.2154   -4186.2847   -4705.2154            0    1278.8085    20.118464    20.212296    21.020796    8547.9038    2245.9003   -39.017967    1629.5431   -673.11908   -42.963141    -201.5222   -4026.8654 
 3361000    257.15029   -4680.1652   -4184.2292   -4680.1652            0    1800.7761    20.067136    20.381498    20.975458    8578.9266    1912.9073    1786.2477    1703.1732    438.90728   -754.63709    -274.6916   -3958.9254 
 3362000    246.22743    -4679.373   -4204.5027    -4679.373            0    2744.2914     20.40298    20.133679     20.69517    8501.3079    2298.8975    2452.1926    3481.7843    552.42753    113.49476   -64.757046   -3864.2576 
 3363000    248.98795   -4720.7657   -4240.5715   -4720.7657            0    1772.4283    20.248831    20.098449    21.004501    8548.2038    2256.5127    1478.9167    1581.8555   -294.64891    181.07899   -823.04049   -4019.6086 
 3364000    254.36746   -4701.9086   -4211.3396   -4701.9086            0    1714.1065    20.137149    20.363967    20.929955    8582.7932    1880.1368    1222.8759    2039.3068   -221.53984    558.52464    354.88367   -3996.7827 
 3365000    251.24447    -4700.692   -4216.1459    -4700.692            0    573.05334    20.132775    20.011493    21.346719    8600.3131    542.85449    972.96528    203.34023    58.131998    88.230244   -1540.0363   -4144.2697 
 3366000    237.28822    -4697.523   -4239.8928    -4697.523            0      1496.97    20.187428    20.034756    21.252006    8595.3778    1403.2258    2972.8054    114.87883    675.01989    1304.8005    313.80749   -4052.2404 
 3367000    247.89035   -4726.2238   -4248.1464   -4726.2238            0    1249.2241    20.322347    20.094161    20.905016     8536.783    793.41672    771.87132    2182.3843    7.9704284   -484.35159   -325.66259   -4092.6177 
 3368000    236.85053   -4682.3895   -4225.6033   -4682.3895            0    542.39201    20.465928    20.130695    20.931703    8623.7222   -1159.4215    1213.9076      1572.69   -415.52353    1477.1105    533.58223   -4157.3877 
 3369000    247.93424   -4717.5444   -4239.3824   -4717.5444            0     966.1892    20.266173    20.098456    21.218737    8642.7903   -653.74512    2152.0095    1400.3032   -266.59415    319.23807     2530.967   -4117.5979 
 3370000    265.79655   -4721.3233   -4208.7123   -4721.3233            0    1940.2179    19.988842    20.160625    21.230467    8555.6141    2227.2029    2348.6867    1244.7642    181.10747   -227.57181    812.44577   -3966.6219 
 3371000     230.9725   -4690.8368   -4245.3869   -4690.8368            0    1166.7791    20.213399    20.224155    21.277432    8698.1911    2229.7114    460.08919    810.53661   -960.33427   -872.33056   -8.9790778   -4097.3761 
 3372000    257.40128   -4688.4606   -4192.0406   -4688.4606            0    2474.7764    20.252703    20.103476    20.933379    8523.0197    3293.7596    1904.7699    2225.7998    725.48161    268.00522    762.44826   -3884.4271 
 3373000     249.0548   -4689.0652   -4208.7421   -4689.0652            0    1131.8388    20.224736    19.996342    21.259706    8597.8657    547.45044    1699.7405    1148.3254   -219.46727   -132.14455   -19.749893   -4066.8196 
 3374000    255.40829   -4697.5755   -4204.9991   -4697.5755            0     3124.388    20.034204    20.031649    21.209587    8511.7921     3621.782    3655.0333    2096.3487    379.47497   -340.32502    265.02608   -3817.1508 
 3375000    261.45543   -4691.8841   -4187.6453   -4691.8841            0    1755.9917    19.921196     20.23413    21.247563    8564.6389    1644.1365    1310.0844    2313.7543   -168.37388   -522.83599    -785.7261   -3968.3106 
 3376000    238.29591   -4694.7904   -4235.2167   -4694.7904            0    2093.7261    20.151342    20.122562    21.101157    8556.4477    3310.4368    980.00688    1990.7345    476.08019   -1321.8531   -665.82818   -3973.9469 
 3377000    256.64378   -4720.2896   -4225.3305   -4720.2896            0    154.22509    20.333192    20.318188    21.025944    8686.5247    -869.6605      985.186    347.14978    162.98708    625.03966   -412.54936   -4205.7927 
 3378000     250.4172   -4715.5856    -4232.635   -4715.5856            0    -45.38307    20.136833    20.122576    21.152556    8571.1206     470.5198     -795.616    188.94699   -135.67188    1342.7039    515.03222   -4238.3079 
 3379000    266.04257    -4685.562   -4172.4765    -4685.562            0    311.75255    19.954347    20.322528    21.199742    8596.9787    1006.9959   -22.154149   -49.584083    184.31999    18.037097   -838.62227   -4133.3896 
 3380000    245.74862    -4737.972   -4264.0251    -4737.972            0    244.27716    20.054409    20.168117    21.420665    8663.7948    1383.8438   -331.62818   -319.38412    -416.9823   -1042.5999   -587.89202   -4233.1601 
 3381000    247.26799   -4733.4595   -4256.5824   -4733.4595            0    357.33635    20.200218    20.082277    21.139981    8575.7796    815.00356      526.186   -269.18052     57.57822   -461.12938    -471.7098   -4211.8907 
 3382000    264.45789    -4676.361   -4166.3318    -4676.361            0    2534.0942    20.294467    19.973771    21.062674    8537.9029      1766.68    3591.6283    2243.9743   -305.96312   -130.08766    88.425452   -3850.7951 
 3383000     263.9927   -4697.4509   -4188.3188   -4697.4509            0    904.03419    20.307774    19.970038     21.28076    8630.3489    1688.4672    2097.7298   -1074.0943    50.686147    862.99863   -333.52124   -4074.5327 
 3384000    238.95861   -4699.9708    -4239.119   -4699.9708            0    1629.7022    20.251711    20.208244    20.810143    8516.5826    1373.8882     891.4297    2623.7886    49.324042    541.56621    568.88921   -4036.7008 
 3385000    256.89617   -4720.1909    -4224.745   -4720.1909            0    1446.2228    20.307423    20.080609    20.956391    8545.7105    516.88858     838.5601    2983.2199     371.2036    638.71893   -789.74728   -4044.5016 
 3386000    256.09454   -4700.3437   -4206.4438   -4700.3437            0    2205.9037    20.135474     20.19106    20.914621    8502.9761    2201.2826    2109.5901    2306.8384    116.77728   -163.75809   -488.91505   -3932.8959 
 3387000    255.64957   -4729.4321   -4236.3904   -4729.4321            0    365.03258    20.232554    19.978717    21.272026    8598.5882   -766.58448    1581.7797     279.9025   -80.745744     1125.895   -955.54328   -4190.6148 
 3388000    251.97181   -4714.6481   -4228.6992   -4714.6481            0    1458.8083    20.106548    20.283936    21.203042     8647.447    2935.2297   -376.75238    1817.9475    -1559.227     765.6035   -259.94404   -4044.7229 
 3389000    244.02143   -4733.8623   -4263.2465   -4733.8623            0    1505.2508    20.048781    20.263015    20.962162    8515.8522    2031.2079    1751.6026    732.94207   -250.42967    39.757239     54.26501   -4076.3019 
 3390000    251.40313   -4691.2999   -4206.4478   -4691.2999            0    1160.1451    20.289745     20.24991    20.923357    8596.6854    1454.6325    863.42823    1162.3746    122.36827    893.64952   -217.75336    -4060.996 
 3391000    266.10181   -4735.1081   -4221.9084   -4735.1081            0    52.370022     20.10022    20.289329    21.177689    8636.6846     1147.041   -1457.4073    467.47629   -470.57265    490.80273   -1077.3685    -4215.312 
 3392000    247.20753   -4697.2502   -4220.4897   -4697.2502            0    1628.2309    20.397518    19.764908    21.219669     8554.817    494.65584    3663.6385     726.3984   -321.48702   -612.92988   -817.65798   -4017.3463 
 3393000    250.22207   -4706.2748   -4223.7005   -4706.2748            0    391.08804    20.104036    20.198672    21.291062    8645.7643    473.10557    1158.7113   -458.55276   -667.86223   -163.79525    1261.1212   -4174.3884 
 3394000     253.0911   -4704.0477   -4215.9402   -4704.0477            0    2584.2244    20.101064    20.145517    21.035448     8518.227    3018.5955    2296.3684    2437.7093    173.29538   -1157.0379   -1008.8887    -3894.903 
 3395000    245.86949   -4689.1254   -4214.9454   -4689.1254            0    2056.5166    20.259837    20.209779      20.8952    8555.4732    588.09778    2573.9705    3007.4816    244.22187    336.30351   -370.16507    -3958.348 
 3396000    244.20574   -4706.4926   -4235.5213   -4706.4926            0    1383.5328    20.110203    20.076566     21.10137     8519.548    2649.8384    441.88306    1058.8769   -646.46663    -1046.123   -816.86842   -4063.6189 
 3397000    240.61913   -4712.1107   -4248.0565   -4712.1107            0   -279.58068    20.201153    19.941261    21.428246    8632.0789   -1125.9271    2460.8038   -2173.6188     44.12032    617.01379     313.0683   -4283.2529 
 3398000    254.53328   -4732.1898    -4241.301   -4732.1898            0    700.36345    20.276348    20.150809    21.211169    8666.5619     1915.271    186.06002  -0.24067706    -737.9776    1439.9294    814.21266     -4152.78 
 3399000    258.77454   -4695.8346   -4196.7661   -4695.8346            0    954.57994    20.303364    20.137916    20.971992    8574.7648    821.66582    1792.8694    249.20456   -419.95335     1406.494    703.55065   -4077.3919 
 3400000    244.77721   -4702.8935   -4230.8201   -4702.8935            0    358.17564    20.283796    20.116269    21.259277    8674.5142    560.38797   -382.39084    896.52979   -157.68803   -330.37329    -286.8562   -4185.5077 
 3401000    258.67396   -4669.8658   -4170.9913   -4669.8658            0     1356.748    20.005402    20.265346    21.140005    8570.5043    2985.6117    1591.0394   -506.40722   -804.87133    -795.2544    1223.1893   -4001.4086 
 3402000    263.05902   -4700.5021   -4193.1707   -4700.5021            0    1455.4349     20.25032    20.284822    20.933913    8599.1102    2313.0741    274.91067    1778.3199   -218.35288    287.25753    669.50925   -4010.6457 
 3403000    247.85431    -4705.267   -4227.2591    -4705.267            0    673.82559    20.230092    20.193149    21.246902    8679.5562    49.076148    444.59858     1527.802    643.93862    170.81806    23.260728   -4141.9646 
 3404000    247.72971   -4686.8693   -4209.1017   -4686.8693            0    58.243723     19.91733    20.200222    21.512245    8655.1181    41.816863    1536.6014   -1403.6871    268.87043   -1095.9339    1096.7338   -4201.7498 
 3405000     252.7697   -4709.4025   -4221.9149   -4709.4025            0    939.34964    20.021485    20.318949    21.034323    8557.0892    1104.8594    1620.2172    92.972345   -880.14967    37.559546    1655.7323   -4104.6874 
 3406000    243.59674   -4709.7313   -4239.9345   -4709.7313            0    1725.8833    20.294191    20.208454    20.962227    8596.9076   -301.15173     3678.922    1799.8795    379.24551    264.85476   -209.18998   -4023.5483 
 3407000    255.80253   -4698.1406    -4204.804   -4698.1406            0    1400.1703    20.245974    20.253475     21.08113    8644.3452    1916.7887    999.66527    1284.0569   -300.12488    2741.4205    947.89407    -4028.286 
 3408000    246.50136   -4725.0646    -4249.666   -4725.0646            0    2112.6061    20.235011    19.971889    21.081898     8519.857    959.14301    3061.7104     2316.965   -243.62337   -1295.4759   -1236.0397   -3987.1676 
 3409000    248.03659   -4724.0314    -4245.672   -4724.0314            0    1190.6472    20.241926       20.226    21.061372    8622.8035    2165.6889   -921.90947     2328.162    64.747275    1568.7303   -653.73496   -4095.9424 
 3410000    258.34654   -4717.8746   -4219.6316   -4717.8746            0    417.15082    20.281796     19.99358    21.224859    8606.8013    383.95668    767.57281    99.922952    61.772305   -796.35922   -626.90467   -4167.2703 
 3411000    240.34953   -4696.9651   -4233.4308   -4696.9651            0   -424.33338    20.258709    20.187184     21.26833    8698.0296   -419.41589   -704.72726   -148.85698   -383.86597   -1221.8991   -1477.6221   -4287.2582 
 3412000      246.548   -4674.4625   -4198.9739   -4674.4625            0    1192.7896    20.176063    20.287393    20.969602    8583.2717    1778.9212   -312.90683    2112.3543   -917.86241    582.76211    329.27703   -4049.6627 
 3413000    262.90199   -4715.2318   -4208.2032   -4715.2318            0    995.62909    20.292029    20.148334    21.070748    8614.7878    1952.2232    234.65514    800.00897    154.63152    79.094068    989.20154   -4083.1145 
 3414000    256.83662   -4733.8831   -4238.5521   -4733.8831            0    416.26651    20.012719    20.219928    21.164057    8564.1573    780.47211    1079.9522   -611.62481    498.56747   -366.44134   -1816.2499   -4186.5606 
 3415000    250.77206   -4696.0486   -4212.4136   -4696.0486            0    1031.2385    20.310034    20.167855    20.928162    8572.3804    1056.3657    273.43829    1763.9115    138.03003    185.46566    1150.0036   -4083.4889 
 3416000    254.40616   -4686.2955   -4195.6519   -4686.2955            0     1238.677    20.136366    20.230345    21.234171    8650.0718    1310.7341   -191.32343    2596.6202   -606.62928    -24.14579   -1160.6468   -4039.3898 
 3417000    242.81975   -4686.7903    -4218.492   -4686.7903            0    1381.2045    19.972264    20.021572     21.25409    8499.0034    2997.0477    724.29323    422.27257   -842.74717    1003.4437    32.908038   -4047.2927 
 3418000     259.1697   -4677.5866   -4177.7561   -4677.5866            0    1391.9113    20.090534    20.337447    21.055219    8602.9555    1302.3953    1450.3273    1423.0114   -38.906376    791.28747    1125.0294   -4003.1195 
 3419000    254.27409   -4676.0664   -4185.6775   -4676.0664            0    664.38072    20.380153    20.091199    21.114038    8645.3905   -238.18872    980.49814    1250.8327    396.05233    716.11343    987.68626   -4101.9096 
 3420000    254.22694   -4703.3313   -4213.0333   -4703.3313            0    3552.9448    20.089512    19.985372    21.295518    8550.0734    3942.0274    4409.8382    2306.9688    -1264.944   -721.29978    757.52693   -3770.0022 
 3421000    261.21492   -4698.0007   -4194.2258   -4698.0007            0     202.7277    20.004919    20.294377    21.280113     8639.457    1615.5355   -678.66242   -328.69003   -69.499207    -168.0323   -759.44322   -4168.6826 
 3422000    247.73863   -4706.8327   -4229.0479   -4706.8327            0    1214.7719    20.359088    20.006919    21.018095    8561.1457   -1096.9299    3127.7741    1613.4716    584.84984    1013.5433    339.00632   -4077.3769 
 3423000    238.74875   -4703.5543   -4243.1073   -4703.5543            0    579.29371    20.165397    20.223638    21.141025    8621.6837    898.56099    177.52924     661.7909   -253.75281    1105.7622    38.429009   -4170.2678 
 3424000    264.81974   -4727.6969   -4216.9698   -4727.6969            0    1962.3461    20.344376    19.993175    21.128755    8594.0931    402.75036    4126.3971    1357.8908   -268.06747    191.19987   -746.07635   -3971.0171 
 3425000    243.92341    -4693.051   -4222.6242    -4693.051            0    2806.1875    20.249657    20.024166    21.097858    8554.8121    2541.1775     3470.683    2406.7021    34.497801    395.82372   -769.65598   -3872.5154 
 3426000    246.06373    -4720.133   -4245.5784    -4720.133            0     2304.562     20.09959    20.160514    21.121876    8558.9656    2574.2837    1342.2301    2997.1723    233.60613   -119.78038    291.49076   -3957.9143 
 3427000    249.91771   -4696.1938   -4214.2065   -4696.1938            0    355.14199    20.461745    20.014318    20.991801    8596.7278   -895.57161    931.42841    1029.5692   -453.18782    36.351189   -70.948703   -4169.6808 
 3428000    258.17383   -4719.0486   -4221.1386   -4719.0486            0     1279.086    20.325297    20.076443    21.047124    8588.4827    1031.4862    1750.8696    1054.9023   -259.97915   -698.63756   -916.29435   -4060.9277 
 3429000    250.80128   -4670.6894    -4186.998   -4670.6894            0    830.87904    20.052721    20.313006    21.187309    8630.2487    1571.1696   -509.16798    1430.6355    425.70041   -854.46859   -323.67431   -4082.4208 
 3430000    264.60424   -4710.5872   -4200.2757   -4710.5872            0     2715.741    20.146365    20.013042    21.122166    8516.2468    3095.7012    3013.4624    2038.0593    365.74839    692.41828   -492.63077   -3862.9787 
 3431000    248.92061   -4707.6803    -4227.616   -4707.6803            0    2230.7553    20.366112    20.023941    21.003678    8565.5064    2011.9058    2420.1334    2260.2267    187.44416    1607.8419   -528.05961    -3948.952 
 3432000    257.36277   -4712.0955   -4215.7498   -4712.0955            0    926.22305    20.020181    20.188451    21.248344    8588.0804     2978.569   -691.89317    491.99337   -271.91973    627.43724    504.22302   -4099.7419 
 3433000    240.81683   -4710.3868   -4245.9512   -4710.3868            0    2949.4304    20.204777    20.089485    21.095365     8562.684   -740.80221    5138.1188    4450.9745    751.42259   -713.09864   -363.08217   -3877.6324 
 3434000    249.37753   -4726.6703   -4245.7247   -4726.6703            0    183.01294    20.309678    20.150702    21.058931    8618.4578    -178.5838    509.99261    217.63001    393.31052    -611.0273   -93.459316   -4222.7216 
 3435000    261.40784   -4698.2973   -4194.1503   -4698.2973            0     2013.965    20.329254    20.311419     20.79885    8588.1779    1494.7984    1882.3489    2664.7476    538.98764   -488.13797   -543.72713   -3941.9017 
 3436000    250.09159    -4667.306   -4184.9834    -4667.306            0    1904.1877    20.189333    20.081751    20.955893    8496.2979    3207.4636    441.93704    2063.1625   -329.60984    2038.0988    443.12456   -3949.0359 
 3437000    240.37725   -4695.3541   -4231.7664   -4695.3541            0   -1407.5807    20.269909    20.132336    21.417262    8739.9698   -1728.8687   -709.05379   -1784.8197   -9.7724178    219.68334   -242.86114   -4411.1816 
 3438000    260.59559   -4696.6102   -4194.0296   -4696.6102            0    1970.4485    20.114228    20.142578    21.133741     8562.386    1463.5339    2251.6287    2196.1829   -85.243157    541.08037   -1128.4256   -3947.9726 
 3439000    248.96529   -4730.6992   -4250.5487   -4730.6992            0    1514.6026    20.109159    20.212502    20.965328    8521.4925    2280.4841    666.42919    1596.8944    14.313851   -732.66865   -1149.1958   -4062.3181 
 3440000    258.09755   -4674.9113   -4177.1485   -4674.9113            0    1485.7924    20.255211    20.413704    20.930664    8654.4921    2731.0978   -1176.8738    2903.1531   -319.63356    -1175.102    61.004933   -3989.6164 
 3441000    251.80776   -4692.6559   -4207.0234   -4692.6559            0    400.32025    20.345024    20.097178     20.84395    8522.6239   -101.43219    588.56383     713.8291   -68.825466   -563.17558   -1628.7562   -4157.2661 
 3442000    255.07939   -4694.5514   -4202.6093   -4694.5514            0   -1222.0784    20.271282    20.221376    21.141492     8666.177   -2163.9177   -1039.0521    -463.2653    134.28164    775.30892   -1231.1922   -4357.0645 
 3443000    261.36599    -4713.772   -4209.7058    -4713.772            0    -643.4054    20.093398    20.160312    21.331947    8641.3407    168.29429   -1.7177358   -2096.7928   -346.93406   -104.27731   -506.78971    -4290.791 
 3444000    244.83122     -4665.19   -4193.0124     -4665.19            0    412.12934    20.263894     20.23447    21.038237    8626.2903    960.91475   -567.86817    843.34144   -890.81003    218.71896    542.42117   -4141.1642 
 3445000    235.42557   -4669.2904   -4215.2523   -4669.2904            0    2229.9666    20.351237    20.125372    20.962773    8585.8536    1812.8268     3035.597    1841.4761    363.13024    588.29398    182.35492   -3936.0251 
 3446000    258.42555   -4717.9706   -4219.5752   -4717.9706            0    362.46737    20.101212    20.174087    21.284711    8631.4526    175.22276    38.330765    873.84857     102.9284   -135.33951    1089.4767   -4173.9475 
 3447000    251.68343   -4698.1164   -4212.7237   -4698.1164            0    -352.6858    20.269809    20.110103    21.274666    8672.1487   -263.53959   -1373.3639    578.84607   -599.95841    996.35305   -386.03754   -4257.3295 
 3448000    260.64658    -4703.017   -4200.3381    -4703.017            0    2026.7251    20.374842    19.889798    20.911826    8474.5487    1835.4078    2005.6843    2239.0831    15.134238    344.69413    94.591245   -3949.8499 
 3449000    245.38755    -4663.636   -4190.3854    -4663.636            0    1362.0005    20.336271    20.003457    21.117522     8590.518    2382.7627   -297.54439    2000.7831    414.79702    667.22016    907.59249   -4019.7487 
 3450000    245.71414   -4698.8689   -4224.9885   -4698.8689            0    752.08706    20.123596    20.061047     21.38647    8633.7268    435.81632     1435.118    385.32685    11.356559   -877.27781    378.85618   -4130.2902 
 3451000    250.18059    -4707.793   -4225.2987    -4707.793            0    834.60337    20.139409    19.962799    21.558574    8667.3867   -92.403261    2413.4286    182.78472   -137.80379   -1132.8481   -1.0923052   -4119.8007 
 3452000    260.28369   -4715.1589     -4213.18   -4715.1589            0    681.06691    20.277855    20.131057    21.175857    8644.2948    311.24602    647.10807    1084.8466    38.305849    531.22817   -821.98059   -4127.3191 
 3453000    242.83554   -4713.6522   -4245.3234   -4713.6522            0    1775.2833    20.139264    20.149908    20.927175    8492.3379    1240.6622    1736.7891    2348.3984    212.23414    1460.3577    -109.8263    -4025.451 
 3454000    246.28417   -4715.8895   -4240.9098   -4715.8895            0     2253.335    19.999222    20.188316    21.105981    8521.5527     3467.252    1332.2151    1960.5381   -494.31525     1346.171    842.60222   -3960.8696 
 3455000    236.69407   -4712.7967   -4256.3123   -4712.7967            0     774.9866    20.174565    20.048603     21.14609    8552.9984   -728.56056    2492.0151    561.50529   -55.152612    374.09126     964.0896   -4159.6431 
 3456000    258.19556   -4745.9658   -4248.0139   -4745.9658            0     1819.977     20.28681     20.04457    20.999971    8539.4362     1075.926    3088.8824    1295.1228   -15.861626   -328.68907    1088.2017    -4021.356 
 3457000    261.14537   -4721.0784   -4217.4375   -4721.0784            0    985.42492    19.873348    20.267387    21.248737    8558.5839    2757.6046    81.207264    117.46284     307.6871   -531.68736    76.463104   -4094.4386 
 3458000    253.61924   -4691.4264   -4202.3004   -4691.4264            0     911.6125    20.312393    20.048551    21.150033    8613.0138    3044.2748   -609.46172    300.02437    356.96237    1000.3966   -1030.6935    -4087.791 
 3459000    252.85715   -4705.4968   -4217.8405   -4705.4968            0    2687.5497    20.264792    20.344187    20.788535    8570.5041    2601.7551    1813.4865    3647.4075   -367.13157     417.6397    1635.9321   -3881.9183 
 3460000    257.68186   -4681.4048   -4184.4437   -4681.4048            0    2609.7993     20.28717    20.353187     20.79223    8585.2902    2038.1987     2173.444    3617.7554   -54.926452    1099.7966   -1421.4787   -3857.6768 
 3461000    246.99554   -4695.6223   -4219.2706   -4695.6223            0    924.12837    20.358305    20.028536    21.143529    8621.2117    2462.6499    -400.1419    709.87711   -214.00541   -435.53095    1577.6528   -4103.0785 
 3462000    257.95924   -4709.3564   -4211.8603   -4709.3564            0     1985.222    20.036515    20.247619    21.124713    8570.1214    2342.5811    1563.4307    2049.6541    -599.9883   -1852.4524    835.93208   -3963.7345 
 3463000    260.06964    -4692.288   -4190.7218    -4692.288            0    316.41942    19.841185     20.38974    21.265433    8603.0713    1886.8224   -1624.3278    686.76361     333.4034   -401.85486   -1048.7318   -4151.0216 
 3464000    270.09756    -4726.845   -4205.9392    -4726.845            0    1446.4324    20.143192    20.196969     20.92921    8514.6602    858.44605    1956.2084    1524.6426    -262.0477    1808.2844   -419.31921   -4026.3247 
 3465000    240.58878   -4727.0051   -4263.0094   -4727.0051            0    1583.8399    20.307856    20.293676    20.859567    8596.6671    1105.0701    1053.5479    2592.9016    265.88862   -170.24073    239.05823   -4064.4377 
 3466000    249.19743   -4712.4641   -4231.8659   -4712.4641            0   -394.08739    20.363796    20.065905    21.174176    8652.1496   -1165.2941    401.13582   -418.10388   -51.212546    440.53552    1477.1019   -4281.5929 
 3467000     241.2023   -4716.1506   -4250.9717   -4716.1506            0    1016.2776    20.173942    20.110816    21.155449    8583.0713    1740.0826    700.03721    608.71293   -718.40991    206.67531   -240.60221   -4123.7588 
 3468000    255.65508   -4693.8848   -4200.8325   -4693.8848            0    1252.6369    20.248877    20.151374    21.279207    8682.8251    1697.7851    1002.6226     1057.503    1011.1372   -941.13658   -182.44633    -4042.211 
 3469000    250.54033   -4683.6635   -4200.4754   -4683.6635            0    2801.7248    20.078884    20.130484    21.155586    8551.0381    3865.5449    2234.0265     2305.603   -144.90809   -349.65438    1278.5346   -3851.0775 
 3470000    244.51358   -4717.2734   -4245.7084   -4717.2734            0    1753.6256    20.232346    20.187265    20.872976    8525.2691    1873.2835    2172.6359    1214.9574   -289.67375     756.4272    904.96619    -4027.676 
 3471000    255.53854   -4710.3007   -4217.4731   -4710.3007            0    2657.9102    20.144092    20.188474    20.957065    8522.7874    1895.6446    2883.6842    3194.4017    702.13154   -1117.9692   -1020.8248   -3887.1052 
 3472000    246.76889    -4713.432   -4237.5175    -4713.432            0   -474.11102    20.386352     20.05228    21.257919    8690.0846   -560.79319   -378.16023   -483.37964   -201.26161   -923.44494   -361.23819   -4297.6044 
 3473000      250.758   -4712.2986   -4228.6907   -4712.2986            0    1006.5474    20.105322    20.307915    20.970169    8562.0606    688.03296    1068.8836    1262.7256    52.103821    672.61753   -1276.0213   -4103.0042 
 3474000    252.16599   -4711.0645   -4224.7411   -4711.0645            0    711.40565    20.165528    20.340993    21.048214    8633.7005    1053.8283    703.25562    377.13307     452.2854   -522.43578    574.43121   -4135.1655 
 3475000    250.59352   -4716.8059   -4233.5152   -4716.8059            0    2017.1978    20.113885    20.140897    21.143447    8565.4574    3690.8299    488.13235    1872.6311   -67.606987    584.73033    567.08102   -3981.5301 
 3476000    242.71849   -4690.0555   -4221.9525   -4690.0555            0    182.24511    20.262313    20.217537    21.192313    8681.5172    -437.9186   -204.64508     1189.299   -590.50885   -733.20902   -1290.6845   -4198.8782 
 3477000    265.42257   -4660.8226   -4148.9329   -4660.8226            0    1554.9981    20.438397    20.104786    20.937526    8603.4303    211.02124    2620.2327    1833.7402   -344.27122    799.45908   -1459.4863   -3953.8239 
 3478000    256.33209   -4681.6543   -4187.2963   -4681.6543            0    2850.0684    20.204787    20.125075    20.939853    8514.6228    4100.9173    1488.1291     2961.159    56.529134    630.24536    82.165515   -3833.3832 
 3479000    266.89757   -4716.5365   -4201.8021   -4716.5365            0    1514.6244    20.030441    20.053049      21.3503    8575.8052    4104.8616    453.52106   -14.509445   -137.61462    149.94493   -515.48904   -4012.3691 
 3480000    253.07955   -4663.7252     -4175.64   -4663.7252            0    1263.5334    20.450211    19.986718    21.284259    8699.5707   -11.282296    2213.5507    1588.3319   -538.14911    389.96053     453.7968     -4015.33 
 3481000    263.26459   -4696.9563   -4189.2283   -4696.9563            0    1491.8808    20.042285    20.304353    21.111008    8591.0325     3586.627    264.80172    624.21377   -485.00332    -308.8384   -263.07587   -4002.3085 
 3482000    243.42291   -4679.5793   -4210.1178   -4679.5793            0    1253.7846    20.362618    19.959413    21.043313    8552.5474    438.56347    2154.7046    1168.0856   -112.50332    753.96634    554.66834    -4053.733 
 3483000    253.73581   -4715.1896   -4225.8388   -4715.1896            0    188.09886     20.07216     20.28389    21.260074     8655.858   -372.87624   -359.91547    1297.0883   -25.676713   -723.47288   -1871.5224   -4202.0938 
 3484000    252.30295   -4684.4067   -4197.8192   -4684.4067            0    650.46664    20.354733    20.086593    21.061235    8611.0389     1497.942    661.48862   -208.03073   -179.60787     345.7401   -668.66424   -4116.1315 
 3485000    249.34817   -4726.4099    -4245.521   -4726.4099            0   -244.88347    20.148704    20.329939    20.986857    8596.6767    623.53507   -1109.8022   -248.38332     119.7082    80.356691     -589.319    -4276.223 
 3486000    238.63088   -4699.7557    -4239.536   -4699.7557            0     1298.012    20.135999     20.06027    21.223862    8573.0306    1789.1964    2015.6483    89.191296   -389.16315   -354.82162    157.17962   -4077.2471 
 3487000    257.87148   -4710.1967   -4212.8698   -4710.1967            0    737.53491    20.227606    20.016503    21.270699    8612.2068    40.502976    1985.4344    186.66739    621.67265   -786.59495   -1804.6968   -4120.2353 
 3488000    259.99008    -4706.735   -4205.3223    -4706.735            0    2379.2181    20.087374    20.068456    21.184961    8540.1362    3951.1461    2262.7338    923.77423    155.51698   -716.45946    -207.0447   -3908.9928 
 3489000    256.95544   -4717.7704   -4222.2102   -4717.7704            0    632.50747     20.29852    20.058271    21.217437    8638.7472   -497.79498     2977.722   -582.40457    235.20876    367.81498   -142.24751   -4142.5224 
 3490000    261.50932   -4699.1608   -4194.8181   -4699.1608            0    1712.9681    20.212598     20.26471    20.866117    8546.8123    2491.9831    1012.6646    1634.2567   -275.03839   -109.16403    84.338473   -3981.3026 
 3491000    246.30721   -4713.3614   -4238.3372   -4713.3614            0    1142.5622    20.295515    20.150642    21.092324    8626.0784    750.28331    1472.4046    1204.9986   -114.98731    474.80415   -961.96192      -4094.6 
 3492000    249.83314   -4694.4038   -4212.5795   -4694.4038            0    1709.3884     20.00741    20.133963    21.237863    8555.2155    3704.0041   -379.43913    1803.6003   -436.45106    609.24335    582.26093   -3999.3008 
 3493000    254.31248   -4689.0537   -4198.5907   -4689.0537            0    914.79586    20.227112    20.103053    21.417704    8709.0104    1316.0036    879.47061    548.91333     -321.389   -171.91702   -418.52422   -4082.4006 
 3494000    257.07097   -4696.5925   -4200.8095   -4696.5925            0    515.19745    20.210467     20.18889    20.944763    8546.0267    1441.1516   -387.21867    491.65937    270.77781    182.88989    1368.9301   -4136.5979 
 3495000    265.48489   -4679.8622   -4167.8523   -4679.8622            0   -532.79453    20.541192    20.181237    21.115181     8753.228   -2168.8715   -234.52109    805.00904   -362.45216   -577.97228   -673.02789   -4235.8672 
 3496000    256.31415   -4692.8397   -4198.5163   -4692.8397            0    1722.7595    20.120527     20.22336    21.007796    8548.1701    1885.2184    886.02398    2397.0361    67.162881    378.00356    -1288.902   -3983.7462 
 3497000    247.48376   -4694.6021   -4217.3088   -4694.6021            0    1962.0022    20.045737    20.399293    20.854791    8527.9175    1950.5128    2155.7002    1779.7936   -275.60248     341.8154    468.58548   -3973.2928 
 3498000    256.73072   -4687.9351   -4192.8083   -4687.9351            0     150.0011    20.218561    20.236423    21.189024    8669.5176   -219.27891    743.93258   -74.650385    50.840739   -1152.6689    699.94397   -4173.8428 
 3499000    251.14113   -4723.8407   -4239.4939   -4723.8407            0    2183.2217    20.024192    19.979896     21.28007    8513.7576    1080.6387    4071.3257    1397.7007    402.68886    231.44547    -164.3836   -3968.4154 
 3500000    250.23665   -4647.5298   -4164.9274   -4647.5298            0    1137.5668    20.267998    20.212718    21.113956    8649.7824    647.45802    496.16579    2269.0767     438.5203    216.51977   -873.00456   -4021.4254 
Loop time of 370.337 on 64 procs for 250000 steps with 972 atoms

Performance: 116.650 ns/day, 0.206 hours/ns, 675.060 timesteps/s
195.6% CPU use with 32 MPI tasks x 2 OpenMP threads

MPI task timing breakdown:
Section |  min time  |  avg time  |  max time  |%varavg| %total
---------------------------------------------------------------
Pair    | 26.147     | 34.26      | 41.738     |  67.0 |  9.25
Bond    | 0.82804    | 1.2125     | 1.5918     |  18.6 |  0.33
Kspace  | 161.04     | 169.91     | 179.66     |  40.8 | 45.88
Neigh   | 1.9349     | 2.4985     | 3.1814     |  25.9 |  0.67
Comm    | 65.135     | 76.737     | 87.328     |  71.4 | 20.72
Output  | 0.47627    | 0.4766     | 0.4781     |   0.0 |  0.13
Modify  | 71.994     | 74.691     | 76.655     |  15.1 | 20.17
Other   |            | 10.55      |            |       |  2.85

Nlocal:        30.3750 ave          38 max          23 min
Histogram: 1 0 3 4 12 0 8 1 2 1
Nghost:        2514.22 ave        2545 max        2468 min
Histogram: 1 1 2 1 3 6 6 6 3 3
Neighs:        9119.88 ave       11805 max        6315 min
Histogram: 1 0 4 5 5 6 5 4 1 1

Total # of neighbors = 291836
Ave neighs/atom = 300.24280
Ave special neighs/atom = 2.0000000
Neighbor list builds = 7865
Dangerous builds = 0

unfix		3
unfix		2
unfix		1

write_data	data.final.${pid}
write_data	data.final.0
System init for write_data ...
PPPM initialization ...
  extracting TIP4P info from pair style
  using 12-bit tables for long-range coulomb (../kspace.cpp:340)
  G vector (1/distance) = 0.37132346
  grid = 24 24 25
  stencil order = 5
  estimated absolute RMS force accuracy = 0.0035420204
  estimated relative force accuracy = 1.0666689e-05
  using double precision FFTW3
  3d grid and FFT values/proc = 3458 576
Last active /omp style is kspace_style pppm/tip4p/omp
WARNING: Not all mixed pair coeffs generated from mixing. Use write_data with 'pair ij' option to store all pair coeffs. (../write_data.cpp:312)

write_restart   restart.lmp.${pid}
write_restart   restart.lmp.0
System init for write_restart ...
PPPM initialization ...
  extracting TIP4P info from pair style
  using 12-bit tables for long-range coulomb (../kspace.cpp:340)
  G vector (1/distance) = 0.37132346
  grid = 24 24 25
  stencil order = 5
  estimated absolute RMS force accuracy = 0.0035420204
  estimated relative force accuracy = 1.0666689e-05
  using double precision FFTW3
  3d grid and FFT values/proc = 3458 576
Last active /omp style is kspace_style pppm/tip4p/omp
Total wall time: 0:06:10
