LAMMPS (30 Jul 2021)
  using 1 OpenMP thread(s) per MPI task
package omp 0
using multi-threaded neighbor list subroutines
echo both

include		in.partitions
variable        pid world 0
include		in.temp
variable        temperature equal 258.40
variable	tempDamp equal 100.0
include		in.pressure
variable        pressure equal 7000.0
variable        pressureDamp equal 1000.0 # This is 1 ps
include		in.seed
variable        seed world 745823

units		real
atom_style	full
read_restart	restart.lmp.${pid}
read_restart	restart.lmp.0
Reading restart file ...
  restart file = 30 Jul 2021, LAMMPS = 30 Jul 2021
  restoring atom style full from restart
  orthogonal box = (0.52486106 1.7097483 0.64032927) to (17.682711 21.919430 21.572867)
  4 by 4 by 4 MPI processor grid
  restoring pair style lj/cut/tip4p/long/omp from restart
  restoring bond style harmonic/omp from restart
  restoring angle style harmonic/omp from restart
  864 atoms
  576 bonds
  288 angles
Finding 1-2 1-3 1-4 neighbors ...
  special bond factors lj:    0        0        0       
  special bond factors coul:  0        0        0       
     2 = max # of 1-2 neighbors
     1 = max # of 1-3 neighbors
     1 = max # of 1-4 neighbors
     2 = max # of special neighbors
  special bonds CPU = 1.433 seconds
  read_restart CPU = 1.764 seconds
include 	in.setup
variable	out_freq equal 1000
variable	out_freq2 equal 10000
variable	out_freq3 equal 1000

timestep	2.0

neigh_modify    delay 7 every 1

include		in.tip4p
# This is TIP4P/Ice

# create groups ###
group ox type 2
288 atoms in group ox
group hy type 1
576 atoms in group hy

# set charges - beside manually ###
set group ox charge -1.1794
Setting atom values ...
  288 settings made for charge
set group hy charge 0.5897
Setting atom values ...
  576 settings made for charge

# ### TIP3P Potential Parameters ###
pair_style lj/cut/tip4p/long/omp 2 1 1 1 0.1577 8.5
pair_coeff 1 1*2 0.000 0.000
pair_coeff 2 2 0.21084 3.1668
bond_style  harmonic
bond_coeff  1 450 0.9572
angle_style harmonic
angle_coeff 1 55 104.52
kspace_style pppm/tip4p/omp 1.0e-5
pair_modify tail yes

thermo          ${out_freq}
thermo          1000
thermo_style    custom step temp pe etotal epair emol press lx ly lz vol pxx pyy pzz pxy pxz pyz enthalpy

restart 	${out_freq3} restart.lmp.${pid} restart2.lmp.${pid}
restart 	1000 restart.lmp.${pid} restart2.lmp.${pid}
restart 	1000 restart.lmp.0 restart2.lmp.${pid}
restart 	1000 restart.lmp.0 restart2.lmp.0


include         in.dump
dump            myDump all atom ${out_freq2} dump.water.${pid}
dump            myDump all atom 10000 dump.water.${pid}
dump            myDump all atom 10000 dump.water.0
dump            myDump2 all dcd ${out_freq2} dump.dcd
dump            myDump2 all dcd 10000 dump.dcd
dump_modify     myDump append yes
dump_modify     myDump2 append yes


variable natoms 	equal  "count(all)"                        # NUMBER ATOMS
variable H      	equal  "enthalpy/v_natoms"                 # ENTHALPY-per-atom
variable Vol      	equal  "vol/v_natoms"                 # volume-per-atom
fix AVG all 		ave/time ${out_freq} 1 ${out_freq} v_Vol v_H file vol_enthalpy.dat
fix AVG all 		ave/time 1000 1 ${out_freq} v_Vol v_H file vol_enthalpy.dat
fix AVG all 		ave/time 1000 1 1000 v_Vol v_H file vol_enthalpy.dat


timer           timeout 23:50:00 every 1000
New timer settings: style=normal  mode=nosync  timeout=23:50:00

fix 		1 all shake 1e-6 200 0 b 1 a 1
       0 = # of size 2 clusters
       0 = # of size 3 clusters
       0 = # of size 4 clusters
     288 = # of frozen angles
  find clusters CPU = 0.027 seconds
fix             2 all nph iso ${pressure} ${pressure} ${pressureDamp}
fix             2 all nph iso 7000 ${pressure} ${pressureDamp}
fix             2 all nph iso 7000 7000 ${pressureDamp}
fix             2 all nph iso 7000 7000 1000
fix             3 all temp/csvr ${temperature} ${temperature} ${tempDamp} ${seed}
fix             3 all temp/csvr 258.4 ${temperature} ${tempDamp} ${seed}
fix             3 all temp/csvr 258.4 258.4 ${tempDamp} ${seed}
fix             3 all temp/csvr 258.4 258.4 100 ${seed}
fix             3 all temp/csvr 258.4 258.4 100 745823

run             250000
PPPM initialization ...
  extracting TIP4P info from pair style
  using 12-bit tables for long-range coulomb (../kspace.cpp:340)
  G vector (1/distance) = 0.373376
  grid = 24 24 24
  stencil order = 5
  estimated absolute RMS force accuracy = 0.0032635333
  estimated relative force accuracy = 9.8280336e-06
  using double precision FFTW3
  3d grid and FFT values/proc = 2535 216
Last active /omp style is kspace_style pppm/tip4p/omp
Neighbor list info ...
  update every 1 steps, delay 7 steps, check yes
  max neighbors/atom: 2000, page size: 100000
  master list distance cutoff = 10.8154
  ghost atom cutoff = 10.8154
  binsize = 5.4077, bins = 4 4 4
  1 neighbor lists, perpetual/occasional/extra = 1 0 0
  (1) pair lj/cut/tip4p/long/omp, perpetual
      attributes: half, newton on, omp
      pair build: half/bin/newton/omp
      stencil: half/bin/3d
      bin: standard
Per MPI rank memory allocation (min/avg/max) = 9.233 | 9.237 | 9.241 Mbytes
Step Temp PotEng TotEng E_pair E_mol Press Lx Ly Lz Volume Pxx Pyy Pzz Pxy Pxz Pyz Enthalpy 
  250000    265.24314   -3843.7206   -3389.1029   -3843.7206            0    6643.4109     17.15785    20.209681    20.932537    7258.4554    6208.4168    6695.1915    7026.6244    333.69133   -1575.7667    189.70464   -2685.8505 
  251000     263.2386   -3863.4553   -3412.2733   -3863.4553            0    8567.1634    17.033628    20.063364    20.780987    7101.9413    9270.1576    9018.4273    7412.9054    435.20886   -360.70082   -750.42204   -2524.9334 
  252000    252.31122   -3860.9367   -3428.4839   -3860.9367            0    7389.1375    17.067328    20.103058    20.822101    7144.1772    8544.9173    5862.8777    7759.6176   -285.65095   -266.57273   -318.64656    -2658.606 
  253000    247.23736   -3850.2462   -3426.4899   -3850.2462            0     8092.829    17.082142    20.120507    20.840173    7162.7958    8179.1577     8256.563    7842.7661    436.52843   -24.911409   -1105.7776   -2581.0965 
  254000    253.93083   -3914.3394   -3479.1106   -3914.3394            0    7257.8734    17.072353    20.108976     20.82823    7150.4885    8304.4795    7076.4207    6392.7201     771.0804    618.85462    894.07003   -2722.2411 
  255000     261.4912   -3866.5367   -3418.3497   -3866.5367            0    7742.8181    17.080751    20.118868    20.838476    7161.0461    8390.7522    7171.5305    7666.1716    1080.3559    1123.6627    618.06725   -2609.7168 
  256000    273.40646   -3901.6616   -3433.0523   -3901.6616            0    6557.1937    17.162574    20.215245      20.9383    7264.4521    7138.7306    7320.6401    5212.2104    1343.2077    728.29823    1220.4243   -2738.3532 
  257000    267.03345   -3868.2526   -3410.5664   -3868.2526            0    5417.5377    17.085952    20.124994    20.844821    7167.5892     6084.561    3422.1537    6745.8983    416.70669    367.82803    -42.17371   -2844.2607 
  258000    265.68368   -3887.3482   -3431.9755   -3887.3482            0    6305.7407    17.117943    20.162676    20.883851    7207.9265     5631.505    6121.4772      7164.24    950.40674   -1703.8205    587.15336   -2769.1147 
  259000    260.49147   -3842.4035   -3395.9301   -3842.4035            0    4373.3822    17.174074    20.228791     20.95233     7279.065    4456.0148    4389.3613    4274.7705    697.10752   -1424.8298    863.86981   -2931.6619 
  260000    262.70221   -3866.3679   -3416.1053   -3866.3679            0     7074.926    17.110576    20.153999    20.874863    7198.6239    7709.9734    6041.5705    7473.2341   -308.38094   -541.57009   -71.421513   -2673.3474 
  261000    263.02847   -3857.5324   -3406.7106   -3857.5324            0    6286.7771    17.054676    20.088156    20.806665    7128.3007    6759.5508    5729.5544     6371.226    575.22637   -550.19244   -2167.3682   -2753.1438 
  262000    275.99341   -3862.3855   -3389.3423   -3862.3855            0     6127.915    17.105949    20.148548    20.869217     7192.785    6525.2067    4593.0924    7265.4458     1258.388     1033.963    2393.2152   -2746.5277 
  263000    258.05697   -3851.1527   -3408.8518   -3851.1527            0    7785.2246    17.047668    20.079901    20.798116    7119.5173    8470.6262    6160.6358    8724.4119   -1531.8548    697.45131    1941.0574   -2600.5053 
  264000    249.08136   -3881.3118   -3454.3948   -3881.3118            0    6053.9711    17.079683     20.11761    20.837173    7159.7025    5162.2345    6800.8191    6198.8598   -674.99017    263.17053     78.91675   -2822.2578 
  265000    256.27817   -3901.3084   -3462.0564   -3901.3084            0    7375.5035    17.150983    20.201593    20.924159    7249.7436    8143.7414     7146.308    6836.4612   -1336.6448   -438.22138   -1372.5618   -2682.2439 
  266000     260.1692   -3907.6851    -3461.764   -3907.6851            0    6304.9885    17.114642    20.158787    20.879823    7203.7567    4958.9601    7661.0357    6294.9698     681.1021    532.88013   -187.09569   -2799.3656 
  267000    261.33875   -3889.4335   -3441.5079   -3889.4335            0    8502.6235    17.027781    20.056477    20.773853    7094.6298    6176.0857    8919.7447     10412.04    222.37747    585.35447    307.16202   -2561.7593 
  268000    238.10146   -3878.9644   -3470.8667   -3878.9644            0    6375.2729    17.087662    20.127008    20.846907    7169.7417    7369.0601    7510.2216    4246.5371   -2013.5996   -1035.0354   -796.06869   -2804.2469 
  269000    252.57348   -3882.0755   -3449.1732   -3882.0755            0    6879.6651    17.120079    20.165192    20.886456    7210.6244    5230.3655    7935.7116    7472.9181    437.41906   -781.28491   -109.80021   -2725.7107 
  270000    253.89906   -3901.1365   -3465.9622   -3901.1365            0    5298.9419    17.132133    20.179389    20.901162    7225.8654    7214.2498    5231.1405    3451.4354    177.32099    934.98289   -51.372812   -2907.5499 
  271000    256.21344   -3900.4737   -3461.3326   -3900.4737            0    3754.4566    17.122291    20.167798    20.889156    7213.4204    5385.6122    1656.5626     4221.195    1130.2388   -1362.4131    595.73132   -3066.3625 
  272000    258.71417   -3864.0659   -3420.6387   -3864.0659            0    7805.3751    17.078144    20.115798    20.835296    7157.7677    9689.9651    4895.3726    8830.7877    1069.5932    -321.7949    659.37492   -2605.8457 
  273000    237.34304    -3876.293   -3469.4951    -3876.293            0    5369.8947    17.110891    20.154369    20.875247    7199.0214    7713.0108    4552.3831    3844.2902   -196.22868   -1185.2555    837.44876   -2905.7081 
  274000    274.65968   -3862.0289   -3391.2716   -3862.0289            0    8674.2734    17.098291    20.139528    20.859875    7183.1294    8985.9928    7834.7628    9202.0645    298.77445    1494.7698   -238.19103   -2482.5671 
  275000    257.18938   -3878.0289   -3437.2151   -3878.0289            0     5938.587    17.125857    20.171998    20.893506    7217.9282    6003.7583    6692.9247    5119.0779    647.24807   -934.27321   -458.06291   -2812.0834 
  276000    266.70329   -3835.0388   -3377.9185   -3835.0388            0    7623.3451    17.107986    20.150948    20.871703    7195.3551    9344.4494    5511.2075    8014.3784   -52.497043    391.75119    338.07807   -2577.9485 
  277000    256.96667   -3828.8215   -3388.3894   -3828.8215            0    8694.9148    17.036966    20.067295    20.785059     7106.117    8616.2861    7747.5262     9720.932    478.25489    686.89546    322.87338   -2487.2882 
  278000    244.93009   -3867.6522   -3447.8504   -3867.6522            0    7018.0817    17.062529    20.097405    20.816246    7138.1522    5379.7949    8062.5532    7611.8971   -1085.9328   -1601.4347   -352.62433   -2717.2497 
  279000     248.7336   -3886.3541   -3460.0332   -3886.3541            0    6197.4344    17.045372    20.077197    20.795315    7116.6412    6478.8538    7197.1727    4916.2768    265.11027    391.81477    125.51949   -2816.8082 
  280000    260.96016   -3871.0194   -3423.7427   -3871.0194            0    6158.3815    17.144166    20.193563    20.915842    7241.1018    4209.4177     6912.728    7352.9987   -745.10709   -682.06107    1500.2841   -2773.3927 
  281000    261.85808   -3849.2985   -3400.4827   -3849.2985            0    6906.6334    17.120577    20.165778    20.887064    7211.2539    6021.2052    7762.6195    6936.0756    635.00478    287.55163   -986.43907   -2674.1208 
  282000    261.74239   -3863.4587   -3414.8411   -3863.4587            0     8173.917    17.052099     20.08512    20.803521    7125.0696    7764.4913    8862.1065    7895.1532    415.14573    477.23659    99.020967   -2565.4745 
  283000    257.09382    -3865.584    -3424.934    -3865.584            0    7128.8616    17.070175    20.106411    20.825574    7147.7527    6775.3621     7779.919    6831.3038   -132.08636   -1384.7205   -844.90812   -2681.8026 
  284000    256.93926   -3890.1697   -3449.7846   -3890.1697            0    9012.5328    16.971102    19.989716    20.704704    7024.0191    9881.0457    10292.127    6864.4261    898.10991   -327.54452   -2722.4551   -2526.5578 
  285000    251.70155   -3909.0625   -3477.6547   -3909.0625            0    6882.6607    17.020514    20.047917    20.764987    7085.5502    5159.1228     8162.919    7325.9404    1622.0174   -1033.5308   -1026.8655   -2766.4316 
  286000    251.92661   -3879.5768   -3447.7832   -3879.5768            0    6361.1545     17.04166    20.072825    20.790786    7111.9926    6057.1259    7401.3673    5624.9702   -708.71272   -1704.0989    25.881019   -2787.9971 
  287000     264.2439   -3889.3361   -3436.4311   -3889.3361            0    5323.6501    17.147179    20.197112    20.919518    7244.9206    6684.5193    4103.3537    5183.0773   -186.12049   -1603.5652   -463.18518   -2873.9356 
  288000    273.13907   -3902.0046   -3433.8536   -3902.0046            0      8299.53    17.063034       20.098    20.816861    7138.7853    7688.3599    9214.3818    7995.8484    1294.2264   -400.48318   -1584.6458   -2569.7741 
  289000    261.48859   -3883.8083   -3435.6259   -3883.8083            0    6659.1923    17.102469     20.14445    20.864973    7188.3971    5761.5076    6941.2265    7274.8428   -915.83149    1283.4249    1980.7541   -2737.5068 
  290000    256.19871   -3874.9407   -3435.8249   -3874.9407            0    9457.2214    17.045174    20.076963    20.795072    7116.3921    9382.4352     10397.73    8591.4986    -65.67299    -257.5906    229.55032   -2454.3045 
  291000    254.48825   -3873.7973   -3437.6131   -3873.7973            0     3771.687    17.221651     20.28483    21.010374    7339.7278    4040.8599    3317.7513    3956.4498   -601.82661   -714.50436    794.58008   -3033.8827 
  292000    244.49852   -3867.2746   -3448.2125   -3867.2746            0    7754.1773    17.074429    20.111422    20.830764    7153.0979    9075.6742    8197.0862    5989.7714    393.05267     1180.171    -332.2703   -2639.2921 
  293000    252.62467   -3879.8828   -3446.8928   -3879.8828            0    4768.1023    17.189027    20.246403    20.970573    7298.0942    2839.2536    6005.9384    5459.1148   -839.56941    636.71589     312.2181   -2939.3988 
  294000    260.27761   -3868.8651   -3422.7582   -3868.8651            0    7534.0631    17.114156    20.158215     20.87923    7203.1426    6788.4392    7678.8878    8134.8623    469.83369    1315.7385    534.03446   -2631.3015 
  295000     250.6573   -3932.9041    -3503.286   -3932.9041            0    7185.2152    17.076017    20.113293    20.832701    7155.0941    6386.5261    7519.7178    7649.4015     1912.431    1709.5872    1136.7679   -2753.5109 
  296000    256.37315   -3860.0227   -3420.6079   -3860.0227            0    6101.8729    17.098056    20.139252    20.859589    7182.8339    8037.0742    4931.1547    5337.3899    555.47988    2088.8483    206.64611   -2781.4106 
  297000    253.76173   -3877.7929    -3442.854   -3877.7929            0    5817.5075    17.019454    20.046668    20.763694    7084.2266    3574.2618    6028.8891    7849.3717    830.64445    67.699654    544.17335   -2841.8113 
  298000    256.28689   -3874.0444   -3434.7774   -3874.0444            0    6723.2037    17.115196     20.15944    20.880499    7204.4564    5404.1898    6318.8157    8446.6055   -1712.7668    567.35621   -1254.5677   -2728.3731 
  299000    265.66202   -3865.8488   -3410.5131   -3865.8488            0    7031.6511    17.033436    20.063138    20.780752    7101.7009     7394.453    6511.9392     7188.561    827.90061    128.61301   -31.781364   -2682.2379 
  300000    246.05919   -3877.5051    -3455.768   -3877.5051            0    6393.0027    17.085842    20.124865    20.844687    7167.4508    4479.1073    8477.8555    6222.0452    2207.8726   -1382.9456    1192.1583    -2787.508 
  301000    273.46164   -3892.7337   -3424.0298   -3892.7337            0    6647.2153    17.120377    20.165543     20.88682    7211.0013     4316.513    7231.9423    8393.1906   -621.57862   -875.15483    10.739652   -2724.9751 
  302000    265.80289   -3899.7097   -3444.1326   -3899.7097            0    8413.2463    17.066231    20.101766    20.820762    7142.7994    8081.4851    7355.5305    9802.7233   -1475.3659   -420.62135   -130.70252   -2567.7214 
  303000    250.03327   -3876.4327   -3447.8843   -3876.4327            0    5932.6755    17.065588    20.101009    20.819978    7141.9926    5723.7379    5857.4019    6216.8866   -1051.7782   -253.86516   -961.02005   -2829.9449 
  304000    261.09844   -3840.3212   -3392.8075   -3840.3212            0    6615.9609    17.066158    20.101679    20.820672    7142.7071    6729.0371    6463.2831    6655.5626    59.807408   -835.63123   -8.4195755    -2703.629 
  305000    254.93264   -3866.1337   -3429.1879   -3866.1337            0    6718.7243    17.096998    20.138005    20.858298    7181.5003     7735.351    6899.6383    5521.1837   -887.80075    104.50875   -165.75788   -2725.5035 
  306000    265.04397   -3853.5079   -3399.2316   -3853.5079            0    6873.0044    17.130093    20.176987    20.898674    7223.2856    5811.7878    8048.6511    6758.5742   -323.05636    686.76895   -138.32238   -2675.2004 
  307000    270.95807   -3919.2706   -3454.8577   -3919.2706            0    6899.6323    17.072207    20.108805    20.828053    7150.3054    7518.5956    5279.7433     7900.558    431.52718   -602.94489    87.404216    -2735.365 
  308000    245.70272   -3870.2429   -3449.1168   -3870.2429            0    7273.9885    17.134303    20.181946     20.90381    7228.6122    6402.9928    7597.6098    7821.3628   -845.79027    227.53522   -523.18597   -2682.2792 
  309000    258.88159   -3862.2176   -3418.5034   -3862.2176            0    7634.1245    17.009192    20.034581    20.751175    7071.4201    7632.3308    7173.0746     8096.968    1171.1909   -1756.8688   -938.43917   -2631.2006 
  310000    250.68425   -3910.1467   -3480.4825   -3910.1467            0    7509.9506    17.052768    20.085908    20.804337    7125.9082    7564.8919    7888.5912    7076.3688   -622.05943    822.67953    894.57992   -2700.0179 
  311000    257.78214    -3869.498   -3427.6683    -3869.498            0    7233.0613     17.03193    20.061364    20.778915    7099.8178    7570.3994    6750.2593    7378.5251   -133.75222   -237.65487    737.44491   -2678.7314 
  312000    264.49833   -3878.7997   -3425.4586   -3878.7997            0    6786.4543    17.098718    20.140031    20.860396    7183.6679    5181.4151    7713.4077    7464.5401    941.47003    683.02556    -60.22306    -2714.466 
  313000    268.40739   -3856.1581    -3396.117   -3856.1581            0     7690.392    17.092068    20.132198    20.852282    7175.2888    8467.2578    7339.9217    7263.9966  -0.21830371    1280.3415    516.11937   -2591.3619 
  314000    259.14224   -3898.6972   -3454.5363   -3898.6972            0     8348.444    17.107933    20.150885    20.871638    7195.2879    11345.633    6775.9404    6923.7586   -2100.0214   -833.78002    1301.5176   -2578.4848 
  315000    252.08285   -3914.6756   -3482.6142   -3914.6756            0    6086.5638    17.111448    20.155025    20.875926    7199.7243     6799.806    5930.9396    5528.9457    -729.0735    606.51077    -1039.827   -2843.5214 
  316000     249.5506   -3827.3398   -3399.6186   -3827.3398            0     5311.464    17.228086    20.292409    21.018224    7347.9577    4147.8886    6391.1348    5395.3686   -362.78848   -605.89369    867.57133   -2830.4292 
  317000    267.05178   -3923.9873   -3466.2697   -3923.9873            0    6945.5599    17.041054    20.072111    20.790046    7111.2337    7418.7343    6483.5293    6934.4161   -1686.8487   -292.92041    283.75201   -2745.9453 
  318000    249.26425   -3849.7088   -3422.4784   -3849.7088            0    6979.5921    17.078638     20.11638    20.835899    7158.3894     9126.067    7266.2626    4546.4467    1136.4276      -332.61   -242.10002   -2693.8245 
  319000    251.02618   -3894.1743    -3463.924   -3894.1743            0    6547.6928    17.114383    20.158482    20.879507    7203.4297    5124.3466    7138.0433    7380.6883   -115.96945     914.5233   -581.67011   -2776.0586 
  320000    250.76349   -3843.4658   -3413.6657   -3843.4658            0     6552.531     17.09908    20.140458    20.860838     7184.124    6142.8692    6508.7483    7005.9755    5.6478235    1016.2493   -674.59764   -2727.1369 
  321000    252.38851   -3859.6618   -3427.0765   -3859.6618            0    6000.7788    17.123977    20.169783    20.891212    7215.5508    5749.8368    5754.3358    6498.1638     -1259.61   -601.07182      115.405   -2795.6061 
  322000    285.11221   -3868.9328   -3380.2602   -3868.9328            0    7378.3149    17.120094    20.165209    20.886474    7210.6431    9894.6377    6779.2663    5461.0407   -111.97803    681.47937   -759.20811   -2604.3578 
  323000    256.49351   -3891.1711     -3451.55   -3891.1711            0    8311.1005    17.123945    20.169746    20.891173     7215.511    7775.2105    7882.9462    9275.1447   -336.17933   -156.87546    1319.3959   -2576.9661 
  324000     262.0609   -3890.6766   -3441.5132   -3890.6766            0    7403.4583    17.105026    20.147462    20.868092    7191.6216    7049.2108     8783.405    6377.7592   -551.26494    909.37504   -947.34721   -2665.0205 
  325000    252.00576   -3862.1472    -3430.218   -3862.1472            0    7451.6325     17.08657    20.125722    20.845575     7168.367    7174.5015    6048.2106    9132.1854   -179.08531    579.09969    105.74605   -2651.1999 
  326000    254.43782   -3881.8108   -3445.7131   -3881.8108            0      7797.12    17.063101    20.098079    20.816943    7138.8699    8513.6584    7988.9961    6888.7056   -1245.2523   -67.310797    1385.6356   -2633.9308 
  327000    246.29672    -3891.311   -3469.1668    -3891.311            0    7126.4945    17.060682    20.095229    20.813992    7135.8336    8140.9554    6219.9448    7018.5835    -917.3339    472.27308   -706.36633    -2727.521 
  328000    268.00312   -3852.3724   -3393.0242   -3852.3724            0    6027.3057     17.12882    20.175488    20.897121     7221.675    5852.2574    5701.0973    6528.5624   -432.09931    269.17989   -1154.2081    -2758.224 
  329000    258.93717   -3904.2437   -3460.4343   -3904.2437            0    8424.4335    17.063408    20.098441    20.817318    7139.2554    10178.677    6797.3493    8297.2738   -427.61971   -353.22426   -800.26816   -2583.2931 
  330000     285.7512   -3901.6749   -3411.9071   -3901.6749            0    4732.1891    17.139392     20.18794    20.910018    7235.0546    4366.3012     6175.686    3654.5802   -948.15114   -242.15662   -1213.7986   -2912.5862 
  331000     262.1363   -3912.1801   -3462.8874   -3912.1801            0    6003.6477    17.087478    20.126793    20.846684    7169.5109    4644.2916     6713.925    6652.7265   -273.81326    502.81131   -494.91276   -2835.1462 
  332000    242.29804   -3880.3674   -3465.0768   -3880.3674            0    8257.6254    17.012314    20.038259    20.754983    7075.3144    8340.5333    8178.1296    8254.2134   -621.46033   -1275.4705    45.608608   -2613.0038 
  333000    247.03299   -3876.9179   -3453.5118   -3876.9179            0    6235.2926    17.075975    20.113243    20.832649    7155.0407     6366.419    6833.9308    5505.5281     397.8448    634.38211   -755.17157   -2802.8657 
  334000     263.3329   -3865.8931   -3414.5495   -3865.8931            0    5170.4506    17.133787    20.181338     20.90318    7227.9588     5899.142    5117.8295    4494.3802   -1047.4099    1447.2086   -174.23358   -2869.5201 
  335000    257.67459   -3892.9198   -3451.2743   -3892.9198            0    7809.2561    17.041515    20.072654    20.790609    7111.8113    7015.2139    8475.7073    7936.8472    -585.5672    980.60702    66.989257   -2641.3102 
  336000    267.42725   -3925.9185   -3467.5573   -3925.9185            0    6690.7096    17.059418    20.093741     20.81245    7134.2479    4311.3898     8406.002     7354.737    604.72155    438.35628   -162.81388   -2771.4178 
  337000    247.82481   -3920.6525   -3495.8893   -3920.6525            0     5984.826    17.097731    20.138868    20.859191    7182.4233     5212.272    4939.3853    7802.8207    1116.5597    1387.1956   -81.115486   -2868.9891 
  338000    260.54434   -3864.8756   -3418.3115   -3864.8756            0    7136.4381    17.132235    20.179509    20.901286    7225.9946    8050.5887    5831.1805     7527.545   -811.92275    478.61829   -826.37108   -2666.2471 
  339000    243.09256   -3884.4484   -3467.7961   -3884.4484            0    7319.5296    17.039184    20.069909    20.787765    7108.8934    5840.2598    7922.9467    8195.3823   -689.66569    36.525375   -943.38787   -2708.9371 
  340000    266.13337   -3893.1886   -3437.0451   -3893.1886            0    7678.1961     17.01736    20.044203     20.76114    7081.6128    8316.9971    5516.4307    9201.1605   -408.55855   -967.02202    580.31382   -2644.0559 
  341000     261.7827    -3911.186   -3462.4994    -3911.186            0    6389.3111    17.049984    20.082629    20.800941    7122.4192    4274.5985     5717.933    9175.4018   -59.134722    501.63527   -887.66448   -2798.8213 
  342000    275.20652   -3884.4718   -3412.7772   -3884.4718            0     10176.05    16.948118    19.962644    20.676664    6995.5202    8940.1075    11044.174    10543.868    1511.1453   -786.01084    1324.2749   -2374.5913 
  343000     264.5351   -3918.6341     -3465.23   -3918.6341            0    6822.8725    17.062904    20.097847    20.816703    7138.6226    7789.2225    6058.6813    6620.7137   -1630.8954    -733.6914   -285.72534   -2754.9042 
  344000    258.22207   -3905.0585   -3462.4748   -3905.0585            0    6590.0392    17.017127    20.043928    20.760855    7081.3214    5922.6539    6717.6338      7129.83    192.89503   -38.234971   -156.59365   -2781.8963 
  345000    260.18793   -3908.7703   -3462.8171   -3908.7703            0    6412.1597    17.037506    20.067932    20.785718    7106.7932     8121.717    7393.8298    3720.9321   -911.27544   -649.23055   -1574.3737    -2798.227 
  346000    252.92721   -3852.6995   -3419.1909   -3852.6995            0    8513.6753    16.956167    19.972124    20.686484    7005.4915    9256.5301    8493.6121    7790.8839   -2081.7045   -1636.5473   -1209.0968   -2549.3665 
  347000    269.13199   -3902.6353   -3441.3523   -3902.6353            0     8000.125    17.026056    20.054445    20.771748    7092.4738     8014.902     7391.343    8594.1299   -922.83696    1092.8979   -599.35594   -2613.8477 
  348000    256.66404   -3933.7383    -3493.825   -3933.7383            0    9406.8899    16.990147    20.012149    20.727939     7047.693    8196.7907    9746.4739    10277.405   -1740.9693   -6.9091452   -1635.8325   -2526.9531 
  349000    253.14002   -3895.7773    -3461.904   -3895.7773            0    6409.6569    17.094052    20.134535    20.854703     7177.788    9186.4695    5119.8634    4922.6378     1451.258   -349.17745    387.56853   -2790.9368 
  350000     256.3524   -3909.5561   -3470.1768   -3909.5561            0    7574.7633    17.011473    20.037269    20.753958    7074.2659    7683.8579    8132.0163    6908.4157   -1322.4717     -818.211   -1494.5573   -2688.6816 
  351000    239.39407   -3908.7896   -3498.4764   -3908.7896            0    6296.6291    17.015693    20.042238    20.759105     7079.531    5936.2569    5825.5996    7128.0307    1171.4355   -194.92642   -244.02864   -2848.3639 
  352000    267.65351    -3902.639   -3443.8901    -3902.639            0    7394.8892    17.074174    20.111122    20.830453    7152.7774    7846.9645    6293.8468    8043.8565     899.8187    -402.0494    544.26684   -2672.4854 
  353000    260.92385   -3895.9019   -3448.6873   -3895.9019            0    7939.6331    17.002019    20.026132    20.742423    7062.4774    6482.3802     10027.17    7309.3489    -595.4542    162.68754   -1007.5285   -2630.9131 
  354000    246.77634   -3867.1516   -3444.1854   -3867.1516            0    5567.9467    17.051671    20.084617    20.802999    7124.5338    5557.8077    4302.9813    6843.0511    163.10488    567.56742   -509.73157   -2865.6534 
  355000      270.468   -3874.4405   -3410.8676   -3874.4405            0    10156.003     17.02914    20.058077    20.775511    7096.3286    8758.1485    7981.4617    13728.399   -1559.8275   -779.38219    1184.0849   -2359.7957 
  356000    251.17313   -3890.9231    -3460.421   -3890.9231            0    7497.5108    17.117957    20.162693    20.883868    7207.9443    7044.1347    9334.8128     6113.585   -283.52948   -1167.6211    1783.6933   -2672.2791 
  357000    245.29331   -3883.3723    -3462.948   -3883.3723            0    6781.3564    17.066834    20.102476    20.821497    7143.5559    8388.1769    6578.9172    5376.9752    187.69418    -672.7263    45.012115   -2756.4565 
  358000     251.5843   -3850.6807   -3419.4738   -3850.6807            0     6833.374      17.1438    20.193132    20.915396    7240.6386    5805.7927    8887.8328    5806.4964    1542.2167    1488.7431   -33.353589   -2697.8881 
  359000    239.76174    -3851.739   -3440.7956    -3851.739            0    7865.2954    17.127263    20.173654    20.895221    7219.7056    8524.8205    7551.3483    7519.7174   -209.31253     205.1456   -279.07928   -2612.6429 
  360000     263.2043   -3899.8332   -3448.7101   -3899.8332            0    6590.1502    17.125303    20.171345     20.89283    7217.2277    7035.4119    7480.9708    5254.0677   -492.03835   -316.25909    104.81889   -2755.0581 
  361000    262.17418   -3881.6272   -3432.2696   -3881.6272            0    6285.5504    17.072282    20.108894    20.828145    7150.4003    6299.9366    6793.1324    5763.5821    2450.4545    98.213658   -986.04568   -2776.8045 
  362000    247.52907   -3863.4053   -3439.1489   -3863.4053            0    6573.9293    17.093364    20.133725    20.853864    7176.9213    6465.3939    8712.2546    4544.1394     470.1768    -1408.324    1461.0857   -2751.0686 
  363000    258.57236   -3890.3736   -3447.1895   -3890.3736            0     6843.853    17.040153     20.07105    20.788947    7110.1063    5445.6493    8441.1775    6644.7323   -537.72691   -921.60386     339.0131   -2737.5257 
  364000    264.07135   -3854.9458   -3402.3365   -3854.9458            0    7103.5931     17.07225    20.108855    20.828105    7150.3595      6948.74    7579.8277    6782.2115   -949.73806   -1040.9956    634.64368   -2661.5691 
  365000    257.47383   -3867.4597   -3426.1584   -3867.4597            0    7297.9088     17.05561    20.089256    20.807804    7129.4718    8286.7501    7175.1115    6431.8648     335.6981   -397.27555   -111.89877   -2667.3508 
  366000    261.50233   -3915.8651    -3467.659   -3915.8651            0    7261.5252    17.070478    20.106768    20.825943    7148.1329    7169.3378    7641.6866    6973.5512   -1391.5797    657.76965    799.96593   -2710.6582 
  367000    255.02851   -3942.8442   -3505.7341   -3942.8442            0    6576.0222    17.100242    20.141826    20.862255    7185.5885    5717.7464    6408.6977    7601.6226    809.23623   -487.98582   -1350.1659   -2816.6035 
  368000    242.01512     -3888.96   -3474.1543     -3888.96            0    6686.0431    17.030843    20.060083    20.777588    7098.4577    5663.9546    6313.6229    8080.5519    784.66325    1331.6247   -345.59084   -2781.9902 
  369000    276.20613   -3920.9999    -3447.592   -3920.9999            0    7309.2073    17.042246    20.073515      20.7915    7112.7261    5971.1706     6974.636    8981.8152    99.591132   -414.26527    875.61205   -2689.3947 
  370000    246.38975   -3886.7229   -3464.4193   -3886.7229            0    7827.9107    17.070117    20.106343    20.825503    7147.6796    6375.5869    7351.8757    9756.2694    905.20608    922.02863    513.85636   -2648.4255 
  371000    260.83941   -3908.5157   -3461.4459   -3908.5157            0      7551.47    17.077438    20.114966    20.834434    7156.8798    8259.6941    6301.8711    8092.8447    1129.8368     818.3453   -1213.3103   -2673.2555 
  372000    262.93658   -3871.6635   -3420.9992   -3871.6635            0    7626.8379    17.103324    20.145457    20.866015    7189.4748    6891.4149    8566.1503    7422.9484   -837.90734   -819.48064    148.45311   -2621.3167 
  373000     248.0267   -3916.8293     -3491.72   -3916.8293            0    6680.9645    17.107393    20.150249     20.87098    7194.6072    7235.4032    6457.7253     6349.765     267.4968   -202.76353     1355.851   -2790.7134 
  374000    252.48626   -3853.6807   -3420.9279   -3853.6807            0    7718.9246    17.083874    20.122547    20.842287    7164.9752    7931.8485    7116.5449    8108.3804     1493.775    1832.1434   -1064.0869    -2614.348 
  375000      266.902   -3873.6877   -3416.2268   -3873.6877            0    5685.7942     17.16825    20.221931    20.945225    7271.6618    6314.7024    4595.1946    6147.4857   -516.23427    162.63638    2185.0837   -2813.2499 
  376000    264.53106   -3898.1969   -3444.7997   -3898.1969            0    7087.1088    17.089448    20.129112    20.849087    7171.9903    5905.0034    7439.7934    7916.5295    280.63384   -204.55633    27.619066   -2703.5156 
  377000    254.80318   -3845.4761   -3408.7521   -3845.4761            0    9136.8108    17.038042    20.068563    20.786372     7107.464    8454.3208    9710.0142    9246.0974   -442.88767    536.30809   -1114.5057   -2461.6754 
  378000    264.60748   -3886.2615   -3432.7333   -3886.2615            0    5312.2978    17.080811    20.118939    20.838549    7161.1213    5874.2245    5161.1832    4901.4857   -966.97986    2325.3058    129.14827   -2877.9296 
  379000     247.4903   -3834.0832   -3409.8932   -3834.0832            0    6379.9599    17.192762    20.250803    20.975129    7302.8527    6342.8263    4884.7069    7912.3464   -169.53615    -772.7377    116.90132   -2730.3981 
  380000    248.08255   -3897.2422   -3472.0372   -3897.2422            0    7067.9465    17.088892    20.128457    20.848408      7171.29    8022.0152     6349.929    6831.8954    1591.1226    335.84896    462.38131   -2732.8296 
  381000    248.94496   -3896.1422   -3469.4591   -3896.1422            0    7677.2119      17.0842    20.122931    20.842684    7165.3854    9078.3462    4610.7048    9342.5847    -206.0607    1270.0795   -1154.9838    -2667.192 
  382000    254.44365    -3837.198   -3401.0903    -3837.198            0    6311.4745    17.085501    20.124463    20.844271    7167.0217    4863.2034    7304.7808    6766.4391    601.85664   -682.80447    871.73153   -2741.3919 
  383000    255.85017   -3883.9595   -3445.4411   -3883.9595            0    6716.8422    17.089018    20.128606    20.848563    7171.4496    7511.3596    6880.3384    5758.8284    1463.0315   -954.11413    1275.2331   -2742.9384 
  384000    248.04241   -3898.0312    -3472.895   -3898.0312            0    5320.3373    17.090246    20.130053    20.850061    7172.9954    6093.0643     6248.329    3619.6188    1506.0126     1017.765    428.20127   -2916.3304 
  385000    246.98602   -3915.2266    -3491.901   -3915.2266            0    6127.1709    17.095562    20.136314    20.856546     7179.691    6153.2616    7351.7284    4876.5228   -525.14918    358.79135   -672.18174   -2850.3346 
  386000    255.13899   -3883.8574   -3446.5579   -3883.8574            0     7194.269    17.081122    20.119306    20.838929     7161.513    7268.6487    7123.1738    7190.9845   -740.86579   -271.74526   -181.86036   -2695.1645 
  387000    248.92564   -3867.1249   -3440.4749   -3867.1249            0    7131.7956    17.096054    20.136894    20.857146    7180.3112     8628.074    5943.4579    6823.8549    1080.2948   -641.72832    789.60797   -2693.6513 
  388000    260.84323   -3854.5936   -3407.5172   -3854.5936            0    7278.1577    17.064371    20.099576    20.818493    7140.4647    8248.5791    5908.2091    7677.6848   -17.747133    125.98718    1468.4947   -2649.5964 
  389000    254.35029   -3909.2753   -3473.3276   -3909.2753            0    6959.5967    17.027409    20.056038    20.773399    7094.1649    4159.5348     9187.212    7532.0432     97.74207    612.99939    130.93541     -2753.28 
  390000    251.76062   -3857.8224   -3426.3133   -3857.8224            0    6372.6905    17.097301    20.138362    20.858667    7181.8815    7681.5723    5211.9759    6224.5233   -1299.8666   -954.62762   -1203.2682   -2758.8353 
  391000    250.00467   -3891.8519   -3463.3525   -3891.8519            0    6616.9838     17.09043    20.130269    20.850285    7173.2268    6231.0612    7079.5266    6540.3634   -710.68414    -328.6878   -466.47387   -2771.1223 
  392000      253.691    -3889.323   -3454.5053    -3889.323            0    5889.8683    17.089696    20.129405     20.84939    7172.3029    5473.0927    7134.2399    5062.2723    369.17671    773.79057   -867.91573   -2838.4211 
  393000    255.39371   -3868.8584   -3431.1223   -3868.8584            0    8767.0308     17.04168    20.072848     20.79081    7112.0171    11401.995    8409.3956    6489.7021     31.19734    219.35357   -216.63494   -2521.7929 
  394000    262.37487   -3889.1136    -3439.412   -3889.1136            0    6093.5485    17.104798    20.147193    20.867814    7191.3339    7453.6824    6349.0311     4477.932     776.5542   -456.65258   -114.34358   -2800.3315 
  395000    278.87479   -3859.2308   -3381.2489   -3859.2308            0    8144.3793    16.978061    19.997913    20.713195    7032.6636    8734.9064    7821.0689    7877.1626   -164.67659   -227.20691   -1272.3715   -2545.9273 
  396000    245.24643   -3876.5264   -3456.1824   -3876.5264            0     7015.818    17.069547    20.105672    20.824808    7146.9639    5721.8762    6768.8526    8556.7251    245.42459    864.30604   -695.31338   -2724.9157 
  397000    240.68802   -3857.5341    -3445.003   -3857.5341            0    8955.8525    17.060523    20.095043    20.813799    7135.6354    9530.7911    10398.782     6937.984    -1067.362   -676.45262   -352.73023    -2513.004 
  398000    244.89847   -3883.6274   -3463.8798   -3883.6274            0    7106.8628    17.119045    20.163974    20.885195    7209.3179    8481.0157    6554.2045    6285.3683    1062.2725    293.98244   -668.50393   -2716.6606 
  399000    274.48683   -3850.7852   -3380.3242   -3850.7852            0    5802.5801    17.120918     20.16618     20.88748    7211.6845    6627.0846    4840.7891    5939.8666   -247.95402    403.24149    152.81096   -2770.0377 
  400000    250.23561     -3874.44   -3445.5447     -3874.44            0    7782.2067    17.026913    20.055454    20.772794    7093.5448    5565.6896    6654.5488    11126.382    850.60075   -37.141873    1545.8369   -2640.4593 
  401000    258.27051    -3855.383   -3412.7162    -3855.383            0    4483.9575    17.126051    20.172226    20.893743    7218.1735    4754.8371    5511.7317    3185.3037    153.00186    1010.1398   -1576.5116   -2940.6915 
  402000    241.46869   -3853.8513   -3439.9823   -3853.8513            0    5863.9399     17.06649    20.102071    20.821078    7143.1244    5786.1206    5311.1301    6494.5689    564.40465   -756.29383    -293.2735   -2829.1055 
  403000    263.34539   -3890.4579   -3439.0929   -3890.4579            0    6237.7717    17.108419    20.151458    20.872231     7195.902    6818.9951    6464.3212    5429.9988    294.65013    -1425.962   -620.77791   -2784.4709 
  404000    250.50392   -3899.6919   -3470.3367   -3899.6919            0    5052.4864    17.098736    20.140053    20.860418    7183.6908     5850.608    4109.7245    5197.1268    428.57906    62.911497    1218.1039   -2941.0041 
  405000    259.96215   -3883.1617   -3437.5955   -3883.1617            0     6043.451     17.09274     20.13299    20.853102    7176.1354    7200.6338    4569.5639    6360.1553    1158.8323   -111.18859   -1507.0714   -2805.1086 
  406000    253.59688   -3917.9182   -3483.2618   -3917.9182            0    6455.2871    17.054848    20.088358    20.806875    7128.5165    7666.4525    6386.5249    5312.8839   -72.367152    1292.8152    336.63834   -2812.1566 
  407000    246.92188   -3872.7389   -3449.5233   -3872.7389            0    6910.5061     17.04431    20.075946    20.794019    7115.3111    6161.0824    7693.2314    6877.2045    402.82815   -448.38806    531.28654   -2732.4234 
  408000    255.72347   -3883.8702   -3445.5689   -3883.8702            0    7261.7768    17.002021    20.026135    20.742426    7062.4799    5144.8746    9490.4159    7150.0401   -663.02557   -167.78205   -724.66233    -2697.613 
  409000    255.28672   -3887.6652   -3450.1125   -3887.6652            0    6838.7004     17.04807    20.080375    20.798606    7120.0211    7036.4083    6217.8205    7261.8725    561.87078   -141.45397    430.58941   -2739.9941 
  410000    265.75939   -3858.2593   -3402.7568   -3858.2593            0    6779.5362    17.086872    20.126078    20.845944    7168.7478    5534.8643    7409.5931    7394.1513    147.11067    320.99146    493.74373   -2693.9642 
  411000    240.84278   -3880.6578   -3467.8615   -3880.6578            0    7940.6738    17.032298    20.061797    20.779364    7100.2775    9826.6543    7820.6206    6174.7465    6.7031111    994.23406   -1020.0925   -2645.6026 
  412000    246.49095   -3890.9813   -3468.5042   -3890.9813            0    6685.9138    17.140904    20.189721    20.911863      7236.97     7259.017       7323.8    5474.9245    1004.9692   -374.95623    -1246.317   -2762.8476 
  413000     258.5377   -3875.9359   -3432.8111   -3875.9359            0    8550.2397    17.076339    20.113672    20.833094    7155.4988    8267.9607     7903.493    9479.2653    862.03333    2166.7398    891.83285   -2540.5456 
  414000    239.52795   -3865.8913   -3455.3486   -3865.8913            0    9864.4388    17.034321     20.06418    20.781832    7102.8081    10743.113    10424.786    8425.4182   -1203.4978    803.32783   -1214.6789   -2433.5193 
  415000    253.47215   -3878.9064   -3444.4639   -3878.9064            0    7805.0157    17.087389    20.126688    20.846575    7169.3989    7719.8006    8516.1251    7179.1215   -1684.8844    1448.7448    1509.7135   -2628.3844 
  416000    261.77143   -3863.5629   -3414.8957   -3863.5629            0    8152.4924    17.068396    20.104316    20.823403    7145.5176    8005.1084    6490.5536    9961.8152    470.30953   -255.13757    1032.3867   -2565.3241 
  417000    258.09643   -3921.8048   -3479.4364   -3921.8048            0    6369.3381    17.075043    20.112145    20.831512    7153.8691    5424.1433    5929.9707    7753.9004   -382.02403    750.19612    457.49632   -2814.9116 
  418000    263.45357   -3869.2117   -3417.6613   -3869.2117            0    7156.3951    17.042948    20.074342    20.792357    7113.6054    5898.6313    7016.0664    8554.4875    1708.8944    1299.6344    357.74794   -2675.2237 
  419000    269.45054   -3867.0157   -3405.1867   -3867.0157            0    7824.4669    17.012906    20.038956    20.755706    7076.0536    7627.8939    7397.9348     8447.572    1044.6234   -200.88451   -140.07292   -2597.7253 
  420000    270.31742   -3896.6145   -3433.2997   -3896.6145            0    7644.4341    17.043336    20.074798     20.79283    7114.0903    5984.2154    7943.1354    9005.9516    2252.4698   -1112.6531     1305.129   -2640.1766 
  421000    249.54275   -3869.0516   -3441.3439   -3869.0516            0    5077.5993    17.150875    20.201465    20.924028    7249.6066    6055.5799    5552.1038    3625.1143    238.41933    739.41191   -56.502653    -2904.499 
  422000    266.20397   -3918.3288   -3462.0643   -3918.3288            0    8125.3315    17.071146    20.107555    20.826759    7148.9727     7153.029     7303.517    9919.4483    1368.1873   -752.87304    800.95211   -2614.9137 
  423000      260.404    -3898.061   -3451.7375    -3898.061            0    6367.5522    17.067892    20.103723    20.822789    7144.8856    7572.3641    5054.2896    6476.0028    864.06836    1144.2912    1756.7727   -2788.2333 
  424000    259.50875   -3894.6102   -3449.8211   -3894.6102            0    7389.6222    17.042174    20.073429    20.791412    7112.6353    7645.0581     7905.786    6618.0225     57.69188   -684.67579   -227.24683    -2683.292 
  425000    268.76496   -3869.8343   -3409.1803   -3869.8343            0    7886.2691    17.018544    20.045596    20.762583      7083.09    7249.9467    8788.8352    7620.0253   -195.70254   -570.64292   -273.08342   -2594.5319 
  426000    255.12134   -3892.4323   -3455.1631   -3892.4323            0    8264.1617    17.061657    20.096379    20.815182    7137.0581    8266.4012     9365.814    7160.2699    177.18734   -186.69824    917.07274    -2594.974 
  427000    264.11183   -3859.3738   -3406.6952   -3859.3738            0     7806.169    17.034578    20.064483    20.782145    7103.1294    8131.6644    8677.8755    6608.9672   -66.310189     1197.729    138.13341   -2598.0396 
  428000    256.79987    -3862.066   -3421.9198    -3862.066            0    7475.2252     17.09081    20.130716    20.850748    7173.7047    5749.3311    6919.8245      9756.52   -1180.1178   -83.227532    1295.9703   -2639.8533 
  429000    254.34241   -3880.4484   -3444.5142   -3880.4484            0    5702.7385     17.07657    20.113943    20.833375    7155.7884    5315.5056    6128.9952    5663.7145    -493.5347    965.48427   -870.16707   -2849.3774 
  430000    258.35002   -3897.1865   -3454.3834   -3897.1865            0     6690.656    17.040961    20.072001    20.789933    7111.1173    6149.0033    8009.3865    5913.5782   -970.00797    801.25845   -823.39804   -2760.5065 
  431000    264.44753   -3872.0159   -3418.7619   -3872.0159            0    7262.9414    17.038342    20.068916    20.786737     7107.839    7549.6565    6890.2946    7348.8731   -230.55012    2025.5421   -924.53442   -2665.8815 
  432000    278.86476   -3882.8085   -3404.8439   -3882.8085            0    7498.0523    17.035143    20.065148    20.782834    7103.8356    8321.7241    7293.1356    6879.2972    533.93172       -52.35   -1539.5145   -2628.0295 
  433000    247.57924    -3876.479   -3452.1366    -3876.479            0    6878.3497    17.180373     20.23621    20.960015    7287.0772    6465.6476    6604.5061    7564.8953    632.77303   -1620.0397   -921.88629   -2721.1431 
  434000    246.52401   -3862.5709   -3440.0372   -3862.5709            0    7386.8956    17.135216    20.183021    20.904924     7229.768    8242.6811     8188.478    5729.5276   -994.41144    209.34589   -550.27704   -2661.1721 
  435000    263.24898   -3854.9405   -3403.7407   -3854.9405            0    5511.6607    17.115012    20.159224    20.880275    7204.2244    6912.3287    5245.1169    4377.5364    819.61926    713.87079    39.237098   -2824.6513 
  436000    264.80959   -3847.9294   -3394.0548   -3847.9294            0    7092.8727     17.12661    20.172885    20.894425    7218.8805    6855.0965    6649.8979    7773.6236    -773.0006       1376.9     -342.658   -2647.3174 
  437000    259.26256   -3896.8066   -3452.4395   -3896.8066            0    7803.9924    17.097711    20.138845    20.859167    7182.3986    6941.4003    9307.2332    7163.3437    134.81253    237.36007      1367.78   -2634.9876 
  438000    252.72956   -3825.4321   -3392.2623   -3825.4321            0    6812.5042    17.088281    20.127737    20.847662    7170.5207    7048.3179    7510.7244    5878.4704    844.70445    -1361.568   -126.23054   -2679.8468 
  439000    245.72415   -3888.9436   -3467.7808   -3888.9436            0    6534.4817    17.114693    20.158848    20.879886    7203.8217    7019.7521    4482.4758    8101.2174    -247.1752    164.85309   -540.89813   -2781.2659 
  440000    274.53872   -3868.7902   -3398.2402   -3868.7902            0    6376.6921    17.159658    20.211811    20.934743    7260.7503      4741.05    6862.8619    7526.1646   -485.54349     231.6034    1645.2455   -2723.0085 
  441000    266.97556   -3897.8305   -3440.2436   -3897.8305            0    6595.2013    17.065869     20.10134    20.820321    7142.3451    6227.1949    5273.8544    8284.5545   -818.50001   -999.43356   -1379.9175   -2753.2625 
  442000    261.89879   -3875.8988   -3427.0132   -3875.8988            0    7092.2477     17.08681    20.126005    20.845869    7168.6698     8197.222    6047.3078    7032.2134   -307.09714    315.56318    576.43621   -2685.5351 
  443000    242.41035   -3826.9672   -3411.4842   -3826.9672            0    6480.8529    17.069862    20.106043    20.825192    7147.3597    5902.0202    5089.1591    8451.3793   -749.01339    1802.0599   -285.41171   -2735.9401 
  444000    268.81025   -3877.1077   -3416.3762   -3877.1077            0    7424.7529    17.086649    20.125816    20.845672    7168.4668    7294.4826    7749.1187    7230.6574   -187.55217   -144.37306    1324.6743   -2640.1573 
  445000    248.35137   -3884.1159   -3458.4501   -3884.1159            0    6007.1895    17.113259    20.157159    20.878137    7202.0112    5651.6355    4871.4561    7498.4768     261.0665   -1024.3854    970.02337   -2827.4913 
  446000    245.62238   -3840.4731   -3419.4847   -3840.4731            0    8013.7517    17.015473    20.041979    20.758837    7079.2563    7343.3729    8169.5237    8528.3584   -515.20048   -1242.8883    349.40641   -2592.1154 
  447000    263.10279   -3885.0079   -3434.0588   -3885.0079            0    8670.3754    17.057631    20.091636     20.81027    7132.0066    9585.1963    7698.5649     8727.365   -422.81364   -34.357995     1104.203    -2532.227 
  448000    250.55421   -3857.9032   -3428.4618   -3857.9032            0     7107.411    17.107014    20.149803    20.870517    7194.1292    5208.5868    6447.5619    9666.0844    1511.6268    758.30524    875.39218   -2682.7594 
  449000    263.88265   -3862.6251   -3410.3393   -3862.6251            0    8368.1769     17.07691    20.114344     20.83379     7156.216    9468.7948    6782.5736    8853.1622    353.19629    13.237801   -712.54031   -2536.9855 
  450000       257.12   -3892.1611   -3451.4662   -3892.1611            0    6212.5377    17.151721    20.202461    20.925059     7250.679    7134.4949    5150.6315    6352.4866    1816.7846   -329.39108   -262.09478   -2794.5294 
  451000    261.51365   -3874.5658   -3426.3403   -3874.5658            0    7074.9939    17.115798     20.16015    20.881234    7205.2171    7103.6133    6419.6671    7701.7014    70.848851   -1181.1786    690.36004    -2682.895 
  452000    259.21363   -3854.1028   -3409.8195   -3854.1028            0    8262.0296    17.115784    20.160133    20.881217    7205.1992    7496.5463    8942.1357    8347.4066   -1060.7849    1617.5816   -67.878804   -2541.6418 
  453000    264.92706   -3920.5925   -3466.5166   -3920.5925            0    6271.4783     17.09406    20.134545    20.854714     7177.799    5767.8243    5422.7147    7623.8959   -73.147688    147.32638    493.28339    -2810.013 
  454000     254.3252   -3913.2535   -3477.3488   -3913.2535            0    7227.0047    17.106109    20.148736    20.869413    7192.9868    7845.1675    5386.6396    8449.2069    494.62418   -711.30329   -354.02486   -2719.2192 
  455000      257.161   -3925.8424   -3485.0773   -3925.8424            0    6580.4156    17.123477    20.169194    20.890602    7214.9186    6737.3771    6263.2599    6740.6097    -676.6032   -1009.5007    111.42318   -2792.6716 
  456000    262.45105   -3921.6229   -3471.7908   -3921.6229            0    6728.4094    17.150005     20.20044    20.922966    7248.5028    6299.1846    6811.7244    7074.3193   -684.58019    421.34315    920.39757   -2760.5173 
  457000    249.30775   -3888.7649   -3461.4599   -3888.7649            0    5751.8523    17.150157    20.200619    20.923151    7248.6957     4404.186    7532.2462    5319.1247    247.86187    1520.6589   -450.53442    -2853.404 
  458000    258.77072   -3884.6908   -3441.1666   -3884.6908            0    7687.9143    17.093829    20.134273    20.854431    7177.5074    6407.2935    9163.6494    7492.7999    1017.1514    408.77039   -406.24279    -2636.422 
  459000    263.10729   -3915.1589    -3464.202   -3915.1589            0    7007.0831    17.075516    20.112702    20.832089    7154.4638    5186.1424    8622.1997    7212.9072   -1962.7978    -755.4576   -453.62052   -2733.0793 
  460000    271.49468   -3921.1455   -3455.8129   -3921.1455            0    6570.3351    17.114881    20.159069    20.880114    7204.0581    7628.0532    6347.7038    5735.2484   -687.88417    613.75843    1352.5015   -2765.5085 
  461000    263.66854   -3938.2576   -3486.3387   -3938.2576            0    7642.5665     17.05695    20.090834     20.80944    7131.1528    7954.7924    6809.0797    8163.8274    410.19574   -1227.9296    868.50081   -2691.5076 
  462000    270.48978    -3920.518   -3456.9078    -3920.518            0    7261.2873    17.076651    20.114039    20.833474    7155.8908    7430.7083    6971.9625    7381.1912    63.873952   -1173.5622   -241.94781   -2699.1102 
  463000    271.67983   -3909.3706   -3443.7207   -3909.3706            0    7044.1171    17.104651     20.14702    20.867635    7191.1487    6113.3376    8858.8561    6160.1578   -575.25392     755.9715    1342.0606   -2704.9652 
  464000    256.12152   -3900.4814   -3461.4978   -3900.4814            0    7793.7742    17.093706    20.134128    20.854282    7177.3532    7968.0199    8238.2344    7175.0683   -145.31328   -134.98627    1296.8531   -2645.6897 
  465000    236.50163    -3943.579   -3538.2233    -3943.579            0    6742.2486    17.152105    20.202914    20.925528    7251.1666    5894.5715    7426.1223    6906.0521   -363.47064   -1097.8325   -2256.9043    -2825.225 
  466000    247.56983   -3911.4679   -3487.1417   -3911.4679            0    5832.6224     17.11939     20.16438    20.885616    7209.7539    6661.4808    5002.8294    5833.5569    197.80475   -455.03195   -1258.5419   -2873.8597 
  467000     258.1565   -3932.3741   -3489.9027   -3932.3741            0    7498.7581     17.09181    20.131894    20.851968    7174.9642     8083.071    7192.7097    7220.4935   -76.623657   -160.89594    394.37619   -2705.2365 
  468000    263.43081   -3903.2302   -3451.7188   -3903.2302            0    7145.2978    17.164511    20.217527    20.940663    7266.9118    8402.2375    6586.5046    6447.1513    508.45385    415.96143    883.26609   -2694.4569 
  469000    253.65132   -3850.9458   -3416.1961   -3850.9458            0    6042.2233    17.146321    20.196101    20.918471    7243.8329    5790.2312    6009.5785    6326.8602   -1780.8044    392.21204    74.238721   -2777.8722 
  470000    251.16515   -3903.9245    -3473.436   -3903.9245            0    6942.3294    17.139527    20.188099    20.910183    7235.2263    7229.5931    7295.5828    6301.8122    663.05248    1040.3496   -202.21431   -2740.8928 
  471000    257.53598   -3887.0036   -3445.5957   -3887.0036            0    6630.0509    17.161016    20.213411      20.9364    7262.4744    6841.1854    5891.6333     7157.334   -812.47329   -1278.5093    283.42104    -2743.369 
  472000    258.82615   -3891.9197   -3448.3006   -3891.9197            0     6268.614    17.095164    20.135845     20.85606     7179.189     5720.842    4991.7134    8093.2867    1488.6512    35.729121   -568.93682   -2791.9697 
  473000    245.00519   -3868.5401   -3448.6096   -3868.5401            0    6807.1894    17.151286    20.201949    20.924529    7250.1275    5994.5698    8875.6316    5551.3667    363.27711   -542.59033     889.9684   -2728.8469 
  474000    260.70926   -3904.0545   -3457.2078   -3904.0545            0    6499.8946    17.137567     20.18579    20.907792    7232.7441    7159.2027    4773.1355    7567.3458     73.36541   -821.30041    1578.4567   -2771.5849 
  475000    257.24897   -3891.1449    -3450.229   -3891.1449            0    7380.8538    17.086183    20.125267    20.845104    7167.8807    7605.8681    6111.8949    8424.7984    189.92662    1221.9214    1234.5797   -2678.6626 
  476000     257.6165   -3886.4238   -3444.8779   -3886.4238            0    6920.0454    17.130985    20.178038    20.899762     7224.414    5450.6867    8130.8512    7178.5983    714.65607    892.52165    529.11729   -2715.7773 
  477000    275.74244   -3855.7235   -3383.1104   -3855.7235            0    5461.5257    17.152958    20.203919    20.926569    7252.2489    5765.3126    7414.3458    3204.9185   -414.63303   -413.11368    1616.6987   -2805.4633 
  478000    263.06132   -3855.9928   -3405.1147   -3855.9928            0    8087.5447    17.009533    20.034983    20.751591    7071.8458    10895.562       8652.2    4714.8718    481.08173   -4.2081402    735.72529   -2571.0007 
  479000    264.52219   -3872.4748   -3419.0928   -3872.4748            0    7581.7104    17.048401    20.080764    20.799009    7120.4353      7240.38     8493.525    7011.2263    389.83148   -298.41296   -1199.5165   -2631.7758 
  480000    264.43836   -3854.1883     -3400.95   -3854.1883            0    6987.2292    17.068814    20.104809    20.823914    7146.0434    6527.7052    6479.0072    7954.9753    301.39631    677.48989    1180.8824    -2672.757 
  481000    268.84552   -3862.8148   -3402.0228   -3862.8148            0    7926.8926    17.010247    20.035824    20.752461    7072.7356     7976.093    5651.5445     10153.04    76.070573   -744.34545   -1543.8519    -2584.375 
  482000    254.71046   -3870.3382   -3433.7732   -3870.3382            0    8379.7056    17.050613     20.08337    20.801708    7123.2077    9196.9949    7858.4044    8083.7176   -3472.7223   -180.39626    -99.25681   -2563.2502 
  483000    245.78653    -3882.292   -3461.0223    -3882.292            0    6359.4528    17.154613    20.205869    20.928588     7254.348    6723.2015    5371.7643    6983.3927    254.68549   -73.319756    -1225.837   -2788.2099 
  484000    251.98142    -3856.966   -3425.0784    -3856.966            0     6932.932    17.111251    20.154793    20.875686    7199.4758    7147.9974    7294.7556    6356.0429    700.19237    -1719.372    -214.6242   -2697.1416 
  485000    256.79106   -3910.8988   -3470.7678   -3910.8988            0    8105.8856    17.108023    20.150992    20.871749    7195.4025    8710.3213    7635.6764    7971.6591   -1140.0977    281.08845    256.21381   -2620.1559 
  486000    252.36339   -3872.6355   -3440.0933   -3872.6355            0    5673.3413    17.140871    20.189682    20.911822    7236.9275     7892.153    4028.8271    5099.0439   -1157.5882   -225.90494    24.051847   -2841.3109 
  487000    255.09578   -3879.3737   -3442.1483   -3879.3737            0    6811.1975      17.1184    20.163214    20.884408    7208.5033    4852.5756    6971.7611    8609.2559   -1569.0837   -1770.4502    580.27653   -2726.0964 
  488000    265.78562   -3884.2991   -3428.7516   -3884.2991            0    6956.3203    17.158429    20.210363    20.933244    7259.1903     6595.798    6540.4278    7732.7351     772.5315    445.01041   -245.46719    -2692.301 
  489000    253.25568   -3886.0021   -3451.9305   -3886.0021            0    7569.4374    17.063448    20.098488    20.817367    7139.3061    9256.7135     6836.724    6614.8748   -2298.6374    1071.0096   -449.88273   -2663.8048 
  490000    261.18874   -3888.1969   -3440.5283   -3888.1969            0    9650.2659     17.01422    20.040503    20.757308    7077.6926    9487.3752    10907.573    8555.8494    238.29264   -600.90688    384.24436   -2444.4193 
  491000    252.39708   -3894.6277   -3462.0278   -3894.6277            0    7747.6534    17.054217    20.087615    20.806105    7127.7255    6147.3807      8438.57    8657.0094    397.50121   -258.13767   -783.84739   -2656.6548 
  492000    267.03257   -3875.3978   -3417.7131   -3875.3978            0    7146.0409    17.070201    20.106442    20.825605    7147.7852    5579.1286    8574.8844    7284.1098    1232.7394   -20.077221   -553.72537   -2672.7876 
  493000    274.80467   -3865.8463   -3394.8405   -3865.8463            0    5454.2686    17.134284    20.181924    20.903787    7228.5883    5636.2008    5473.7709    5252.8341    -866.0187   -5.2322038    794.58521   -2819.8431 
  494000    261.57921   -3835.0176   -3386.6798   -3835.0176            0     6379.047    17.051305    20.084185    20.802552    7124.0741    5119.2018    6441.4947    7576.4446   -470.64617   -545.03865    1382.9205    -2723.914 
  495000    273.22941   -3845.4788   -3377.1729   -3845.4788            0    6223.5621    17.100489    20.142117    20.862556    7185.8997    7181.0355    6401.2631    5088.3877   -191.52748    1024.6096    -1095.474     -2724.95 
  496000    246.30756   -3856.6552   -3434.4925   -3856.6552            0    6556.8572    17.118316    20.163115    20.884305     7208.397     6042.583    8001.7948    5626.1938   -759.84878   -280.64762   -714.19003   -2745.1892 
  497000    252.00569   -3847.3405   -3415.4114   -3847.3405            0    8284.1783    17.085844    20.124868     20.84469    7167.4544    7582.2852     6742.606    10527.644     388.1792   -1279.1791    267.42201   -2549.4665 
  498000     266.5886   -3862.8906   -3405.9668   -3862.8906            0     7192.375    17.127199    20.173578    20.895143    7219.6244    7279.1041     6032.467     8265.554    181.16907   -418.91762    519.43532   -2648.6758 
  499000    256.21505   -3896.5541   -3457.4102   -3896.5541            0    7756.7116    17.125964    20.172123    20.893636    7218.0629    7006.5567    8412.8245    7850.7536    1608.8985   -441.22461   -1548.7373   -2640.8764 
  500000    270.28207   -3875.1468   -3411.8926   -3875.1468            0    5379.6854     17.15513    20.206477    20.929219    7255.0036     5157.015     5213.311    5768.7303   -567.88934   -1136.1258   -32.438415   -2842.6854 
Loop time of 489.614 on 64 procs for 250000 steps with 864 atoms

Performance: 88.233 ns/day, 0.272 hours/ns, 510.607 timesteps/s
99.1% CPU use with 64 MPI tasks x 1 OpenMP threads

MPI task timing breakdown:
Section |  min time  |  avg time  |  max time  |%varavg| %total
---------------------------------------------------------------
Pair    | 21.563     | 26.129     | 30.166     |  45.6 |  5.34
Bond    | 0.28737    | 0.29679    | 0.32093    |   1.2 |  0.06
Kspace  | 217.9      | 224.78     | 232.51     |  25.9 | 45.91
Neigh   | 5.6192     | 6.3456     | 7.4008     |  18.8 |  1.30
Comm    | 99.853     | 110.17     | 120.33     |  42.8 | 22.50
Output  | 1.2782     | 1.2795     | 1.2866     |   0.1 |  0.26
Modify  | 111.43     | 115.68     | 118.91     |  19.7 | 23.63
Other   |            | 4.927      |            |       |  1.01

Nlocal:        13.5000 ave          18 max           8 min
Histogram: 1 3 3 4 5 14 13 11 5 5
Nghost:        2189.27 ave        2220 max        2154 min
Histogram: 4 1 4 11 4 13 13 7 3 4
Neighs:        4253.02 ave        5460 max        2412 min
Histogram: 3 1 2 8 1 16 8 9 9 7

Total # of neighbors = 272193
Ave neighs/atom = 315.03819
Ave special neighs/atom = 2.0000000
Neighbor list builds = 13707
Dangerous builds = 0

unfix		3
unfix		2
unfix		1

write_data	data.final.${pid}
write_data	data.final.0
System init for write_data ...
PPPM initialization ...
  extracting TIP4P info from pair style
  using 12-bit tables for long-range coulomb (../kspace.cpp:340)
  G vector (1/distance) = 0.37338914
  grid = 24 24 24
  stencil order = 5
  estimated absolute RMS force accuracy = 0.0032619911
  estimated relative force accuracy = 9.8233892e-06
  using double precision FFTW3
  3d grid and FFT values/proc = 2535 216
Last active /omp style is kspace_style pppm/tip4p/omp
WARNING: Not all mixed pair coeffs generated from mixing. Use write_data with 'pair ij' option to store all pair coeffs. (../write_data.cpp:312)

write_restart   restart.lmp.${pid}
write_restart   restart.lmp.0
System init for write_restart ...
PPPM initialization ...
  extracting TIP4P info from pair style
  using 12-bit tables for long-range coulomb (../kspace.cpp:340)
  G vector (1/distance) = 0.37338914
  grid = 24 24 24
  stencil order = 5
  estimated absolute RMS force accuracy = 0.0032619911
  estimated relative force accuracy = 9.8233892e-06
  using double precision FFTW3
  3d grid and FFT values/proc = 2535 216
Last active /omp style is kspace_style pppm/tip4p/omp
Total wall time: 0:08:13
