#include		in.partitions
include		in.temp
variable        temperature equal 258.39
variable	tempDamp equal 100.0
include		in.pressure
variable        pressure equal 9250.0
variable        pressureDamp equal 1000.0 # This is 1 ps
include		in.seed
variable        seed equal 745823

units		real
atom_style	full
read_restart	restart.lmp.${pid}
read_restart	restart.lmp.1
Reading restart file ...
  restart file = 30 Jul 2021, LAMMPS = 30 Jul 2021
  restoring atom style full from restart
  orthogonal box = (0.64853898 1.8554245 0.79121604) to (17.559033 21.773753 21.421980)
  2 by 4 by 4 MPI processor grid
  restoring pair style lj/cut/tip4p/long/omp from restart
  restoring bond style harmonic/omp from restart
  restoring angle style harmonic/omp from restart
  864 atoms
  576 bonds
  288 angles
Finding 1-2 1-3 1-4 neighbors ...
  special bond factors lj:    0        0        0       
  special bond factors coul:  0        0        0       
     2 = max # of 1-2 neighbors
     1 = max # of 1-3 neighbors
     1 = max # of 1-4 neighbors
     2 = max # of special neighbors
  special bonds CPU = 0.002 seconds
  read_restart CPU = 0.008 seconds
include 	in.setup
variable	out_freq equal 1000
variable	out_freq2 equal 10000
variable	out_freq3 equal 1000

timestep	2.0

neigh_modify    delay 7 every 1

include		in.tip4p
# This is TIP4P/Ice

# create groups ###
group ox type 2
288 atoms in group ox
group hy type 1
576 atoms in group hy

# set charges - beside manually ###
set group ox charge -1.1794
Setting atom values ...
  288 settings made for charge
set group hy charge 0.5897
Setting atom values ...
  576 settings made for charge

# ### TIP3P Potential Parameters ###
pair_style lj/cut/tip4p/long/omp 2 1 1 1 0.1577 8.5
pair_coeff 1 1*2 0.000 0.000
pair_coeff 2 2 0.21084 3.1668
bond_style  harmonic
bond_coeff  1 450 0.9572
angle_style harmonic
angle_coeff 1 55 104.52
kspace_style pppm/tip4p/omp 1.0e-5
pair_modify tail yes

thermo          ${out_freq}
thermo          1000
thermo_style    custom step temp pe etotal epair emol press lx ly lz vol pxx pyy pzz pxy pxz pyz enthalpy

restart 	${out_freq3} restart.lmp.${pid} restart2.lmp.${pid}
restart 	1000 restart.lmp.${pid} restart2.lmp.${pid}
restart 	1000 restart.lmp.1 restart2.lmp.${pid}
restart 	1000 restart.lmp.1 restart2.lmp.1


include         in.dump
dump            myDump all atom ${out_freq2} dump.water.${pid}
dump            myDump all atom 10000 dump.water.${pid}
dump            myDump all atom 10000 dump.water.1
dump            myDump2 all dcd ${out_freq2} dump.dcd
dump            myDump2 all dcd 10000 dump.dcd
dump_modify     myDump append yes
dump_modify     myDump2 append yes


variable natoms 	equal  "count(all)"                        # NUMBER ATOMS
variable H      	equal  "enthalpy/v_natoms"                 # ENTHALPY-per-atom
variable Vol      	equal  "vol/v_natoms"                 # volume-per-atom
fix AVG all 		ave/time ${out_freq} 1 ${out_freq} v_Vol v_H file vol_enthalpy.dat
fix AVG all 		ave/time 1000 1 ${out_freq} v_Vol v_H file vol_enthalpy.dat
fix AVG all 		ave/time 1000 1 1000 v_Vol v_H file vol_enthalpy.dat


timer           timeout 23:50:00 every 1000
New timer settings: style=normal  mode=nosync  timeout=23:50:00

fix 		1 all shake 1e-6 200 0 b 1 a 1
       0 = # of size 2 clusters
       0 = # of size 3 clusters
       0 = # of size 4 clusters
     288 = # of frozen angles
  find clusters CPU = 0.000 seconds
fix             2 all nph iso ${pressure} ${pressure} ${pressureDamp}
fix             2 all nph iso 9250 ${pressure} ${pressureDamp}
fix             2 all nph iso 9250 9250 ${pressureDamp}
fix             2 all nph iso 9250 9250 1000
fix             3 all temp/csvr ${temperature} ${temperature} ${tempDamp} ${seed}
fix             3 all temp/csvr 258.39 ${temperature} ${tempDamp} ${seed}
fix             3 all temp/csvr 258.39 258.39 ${tempDamp} ${seed}
fix             3 all temp/csvr 258.39 258.39 100 ${seed}
fix             3 all temp/csvr 258.39 258.39 100 745823

run             250000
PPPM initialization ...
  extracting TIP4P info from pair style
  using 12-bit tables for long-range coulomb (../kspace.cpp:340)
  G vector (1/distance) = 0.37457529
  grid = 24 24 24
  stencil order = 5
  estimated absolute RMS force accuracy = 0.0031253965
  estimated relative force accuracy = 9.4120388e-06
  using double precision FFTW3
  3d grid and FFT values/proc = 3549 432
Last active /omp style is kspace_style pppm/tip4p/omp
Neighbor list info ...
  update every 1 steps, delay 7 steps, check yes
  max neighbors/atom: 2000, page size: 100000
  master list distance cutoff = 10.8154
  ghost atom cutoff = 10.8154
  binsize = 5.4077, bins = 4 4 4
  1 neighbor lists, perpetual/occasional/extra = 1 0 0
  (1) pair lj/cut/tip4p/long/omp, perpetual
      attributes: half, newton on, omp
      pair build: half/bin/newton/omp
      stencil: half/bin/3d
      bin: standard
Per MPI rank memory allocation (min/avg/max) = 10.20 | 10.20 | 10.20 Mbytes
Step Temp PotEng TotEng E_pair E_mol Press Lx Ly Lz Volume Pxx Pyy Pzz Pxy Pxz Pyz Enthalpy 
29000000    278.00028   -3885.4529   -3408.9699   -3885.4529            0    10602.103    16.910494    19.918329    20.630764    6949.0351    9165.8323    10151.695    12488.782    590.96764   -3033.5645   -36.277229   -2334.5046 
29001000    267.52509   -3862.3062   -3403.7774   -3862.3062            0    8935.5781    16.925517    19.936023    20.649091    6967.5711    8164.1583    10258.907    8383.6691    932.18271   -521.31384   -1342.1681   -2495.7897 
29002000    259.35592   -3873.4554   -3428.9282   -3873.4554            0    9120.3181    16.935921    19.948277    20.661784    6980.4274    10074.809    9175.7117    8110.4339   -392.34563   -398.83741    881.19807   -2500.4582 
29003000     262.0889   -3898.3734    -3449.162   -3898.3734            0    9478.5692    16.900281    19.906298    20.618303    6936.4513    8928.6662    9171.9853    10335.056   -567.54176     1193.146   -235.25132   -2490.3002 
29004000    230.05902   -3870.6839   -3476.3706   -3870.6839            0    8709.7199     16.95078    19.965779    20.679912    6998.8167     11463.24    7420.5064     7245.413    358.77954    2193.2805    190.59873   -2587.3646 
29005000    259.52818   -3876.9438   -3432.1214   -3876.9438            0    8132.9834    16.998611    20.022118    20.738266    7058.2313    9541.6736    7789.0523    7068.2241   -598.10765   -160.88824   -942.78067    -2594.936 
29006000    257.45336   -3853.0684   -3411.8022   -3853.0684            0    7629.3668    16.965882    19.983568    20.698336    7017.5401    8754.0815     7864.462    6269.5569    731.81376    940.77198   -486.31358   -2630.9851 
29007000    258.27603   -3859.8621   -3417.1858   -3859.8621            0    7401.0685    16.942426     19.95594     20.66972    6988.4742    7780.2341     7739.205    6683.7663    -1015.663    532.52418   -1918.6422   -2662.8709 
29008000    253.70783   -3860.8193   -3425.9728   -3860.8193            0     8519.088    16.954364    19.970001    20.684284    7003.2573    6230.0296    12089.127    7238.1074    298.25529   -1412.1322   -16.286913    -2555.873 
29009000    266.61729   -3834.6252   -3377.6523   -3834.6252            0    10524.866    16.845473    19.841742    20.551437    6869.1845    11675.992    10467.512    9431.0942    67.236956   -375.24644   -262.32995   -2323.2711 
29010000    261.88326   -3859.8328   -3410.9738   -3859.8328            0      8767.06    16.908981    19.916546    20.628917    6947.1689    8729.7711    9252.5791    8318.8297   -2086.4741   -277.17333   -45.834204   -2522.7187 
29011000    256.06396    -3872.179   -3433.2941    -3872.179            0    10639.815    16.920291    19.929868    20.642715    6961.1189    12424.412    10051.478    9443.5557   -649.71715    503.36111   -554.31496   -2353.1317 
29012000    266.45545    -3854.734   -3398.0385    -3854.734            0    8760.8026    16.947225    19.961592    20.675574    6994.4142    8411.0952    9155.9065    8715.4061    439.18477    1747.1123    236.85222   -2504.3809 
29013000    264.86549   -3854.8623   -3400.8919   -3854.8623            0    7910.0215    16.933902    19.945899     20.65932    6977.9313    7642.7055    7383.8783    8703.4806   -1547.1191    1689.5255    95.505541   -2595.9209 
29014000    246.19435   -3870.8629   -3448.8942   -3870.8629            0    7685.0193    16.936555    19.949025    20.662558    6981.2122    7299.1205    6754.8648    9001.0725    369.56957    122.64383    621.27438   -2666.4531 
29015000    270.27484   -3902.6055   -3439.3637   -3902.6055            0    8915.8351    16.910231    19.918018    20.630442    6948.7101    8915.8946    8933.5528     8898.058    532.21995    466.18406   -273.07869   -2535.8347 
29016000     248.9466   -3867.2209    -3440.535   -3867.2209            0    8504.1966    16.912118    19.920241    20.632745     6951.037    9530.5959    8442.7033    7539.2906    716.70738   -476.18128   -353.52064   -2578.4327 
29017000    257.96671   -3871.5786   -3429.4324   -3871.5786            0    10392.925    16.880217    19.882666    20.593825    6911.7762    10375.813    10376.179    10426.782   -801.99772   -918.57417    65.412306   -2381.8135 
29018000    251.91788   -3901.7117   -3469.9331   -3901.7117            0    10445.979    16.941377    19.954705    20.668441    6987.1767     9634.346    10885.016    10818.576    736.40376    2308.8385   -819.02032   -2405.4794 
29019000    259.50866   -3867.7891   -3423.0001   -3867.7891            0     10887.13    16.917913    19.927067    20.639815    6958.1849    10856.407    10513.458    11291.525    36.250999    333.58873    2081.4371    -2318.196 
29020000    248.82808   -3887.0164   -3460.5335   -3887.0164            0    8740.7552    16.944938    19.958899    20.672785    6991.5839    8676.9984    8329.5693     9215.698    505.45046   -68.407018    735.17329   -2569.2817 
29021000    250.97223   -3864.1238    -3433.966   -3864.1238            0    9279.7316    16.946771    19.961058    20.675021    6993.8524    10112.765    9798.2153    7928.2143   -947.69556   -664.55116      1944.05   -2487.4504 
29022000    257.26594   -3828.6467   -3387.7017   -3828.6467            0    9769.7527    16.903409    19.909983     20.62212    6940.3042    9833.6773    11236.334    8239.2465    425.68616    -249.6295    54.826938   -2398.8345 
29023000    263.15896   -3900.2877   -3449.2423   -3900.2877            0    5561.8868     16.97913    19.999173    20.714499    7033.9926    5247.6723    7065.5308    4372.4573   -584.81778    1230.9776    155.46336   -2878.6841 
29024000     282.5455   -3839.2457   -3354.9724   -3839.2457            0    9025.2698    16.911885    19.919967    20.632461    6950.7501    9111.7577    9731.7908    8232.2608   -1893.8406   -485.34897   -243.37712   -2440.0848 
29025000     256.7714   -3863.0338   -3422.9364   -3863.0338            0    8977.5118     16.90315    19.909678    20.621803    6939.9845    9317.7776    9226.2665    8388.4915    247.99683   -1007.8937    365.48302   -2514.2995 
29026000    266.43085   -3853.9438   -3397.2904   -3853.9438            0    10006.124    16.922528    19.932502    20.645444    6963.8801     9437.964    9081.8032    11498.605    1824.9504   -680.44869    980.15119   -2381.0579 
29027000    265.33606   -3847.1648   -3392.3879   -3847.1648            0    10294.243    16.797156    19.784831    20.492491    6810.2471    12040.154    10340.753    8501.8228   -1323.3434   -1089.0591    141.52558   -2369.9588 
29028000    246.58258   -3854.6385   -3432.0044   -3854.6385            0    9371.6345    16.846865    19.843381    20.553135    6870.8876    10833.572    7088.8448    10192.487    864.98262    -818.8731     2065.486   -2492.9212 
29029000    257.50364   -3888.0593   -3446.7069   -3888.0593            0     11486.61    16.791285    19.777916    20.485329    6803.1085    11819.675     12916.64     9723.515    814.42865    603.29022   -1073.6831   -2307.0473 
29030000    277.24464   -3871.2164   -3396.0286   -3871.2164            0     8037.216    16.893801    19.898666    20.610397    6928.4753     8173.189     9076.603     6861.856    -671.3665   -71.747353    1309.4063   -2583.9104 
29031000    252.07383   -3820.7134   -3388.6675   -3820.7134            0    9883.7127     16.91695    19.925932    20.638639    6956.9964     11851.19    9136.9364    8663.0119   -769.81091   -1002.0202    215.38804   -2385.8595 
29032000    265.90261   -3850.8433   -3395.0953   -3850.8433            0    9728.2759    16.871679    19.872609    20.583409    6901.2937     8700.673    12164.176    8319.9787    3507.8225   -307.74443    1965.0674    -2415.961 
29033000    254.82294   -3859.7871   -3423.0293   -3859.7871            0    7514.2512    16.955313     19.97112    20.685443     7004.434    7242.8552    6575.0502    8724.8482    407.30619   -1534.1279   -697.65516   -2655.4298 
29034000     243.3325   -3862.5791   -3445.5156   -3862.5791            0    9962.5099    16.914663    19.923239    20.635849    6954.1752    10140.836    10414.422    9332.2719    -1187.972   -140.63252   -288.72666   -2435.1227 
29035000    237.49075   -3879.2502   -3472.1992   -3879.2502            0    9392.5569    16.899135    19.904949    20.616906    6935.0412    8198.1058    9331.7506    10647.814    336.08562    751.64312   -609.70329   -2522.2317 
29036000    251.76076   -3879.1477   -3447.6383   -3879.1477            0    10235.113    16.867876     19.86813     20.57877    6896.6283     9072.169    11919.168     9714.001   -1006.0246    2242.0295      812.942   -2418.1882 
29037000    260.14285   -3891.6359   -3445.7599   -3891.6359            0    10922.478    16.816437    19.807542    20.516014     6833.726    10159.477    11626.955    10981.004   -139.67622   -645.03648   -100.33256   -2357.1943 
29038000    266.21692   -3894.1069   -3437.8202   -3894.1069            0    10623.694    16.814445    19.805195    20.513584    6831.2975    10451.058    11240.333     10179.69   -1970.0179   -131.93064   -796.93203   -2379.4085 
29039000    252.10327   -3880.3412   -3448.2448   -3880.3412            0    11130.247    16.866565    19.866585    20.577169    6895.0194    10316.819    9727.7604    13346.161   -1297.5704   -210.50851   -1193.0205    -2329.023 
29040000    252.08066   -3898.2315   -3466.1739   -3898.2315            0    9345.2051      16.8819    19.884648    20.595878    6913.8432    10715.534    8174.9119    9145.1693    126.83796    887.92395   -6.2599618   -2523.8846 
29041000    253.09087   -3883.8837   -3450.0946   -3883.8837            0    9728.8196    16.863951    19.863507    20.573981    6891.8145    7884.3896    10697.013    10605.056   -612.18973    66.031587    339.84246   -2472.2505 
29042000    257.29031   -3910.0458   -3469.0591   -3910.0458            0    9123.8951    16.884465     19.88767    20.599008    6916.9962    10461.645    8383.9061    8526.1345   -787.03557     11.16703   -876.32804   -2548.6652 
29043000     261.8315   -3870.5895   -3421.8193   -3870.5895            0    10048.766    16.856949    19.855259    20.565438    6883.2332    9027.0909    11341.677    9777.5302    1239.3774   -210.38447   -868.18087   -2413.0749 
29044000    263.39579   -3894.1578   -3442.7064   -3894.1578            0    10479.919    16.826603    19.819516    20.528417     6846.127    10269.459     9673.915    11496.382    -1400.293   -703.96653    507.17011   -2396.3522 
29045000    254.20368   -3920.2816   -3484.5852   -3920.2816            0    9690.3775    16.873515    19.874771    20.585648    6903.5462    8548.6684    8894.6116    11627.852    866.87834    971.74887   -375.55919   -2508.9469 
29046000    267.14261   -3867.2315   -3409.3582   -3867.2315            0    9027.4622    16.893532     19.89835     20.61007    6928.1455    7727.7388     9028.243    10326.405    529.92481   -89.291247    -5.955305   -2497.2243 
29047000    253.70335   -3894.6121   -3459.7732   -3894.6121            0    11269.343    16.866787    19.866847     20.57744    6895.2918    8842.7007    13555.716    11409.612    2022.6956    311.57598   -1673.9735   -2326.5196 
29048000    258.71775   -3856.9211   -3413.4877   -3856.9211            0    10369.331    16.798253    19.786123    20.493829    6811.5808    9048.7187    10428.546     11630.73    1627.2367    1682.3192    1315.8519   -2383.3992 
29049000    271.79017      -3895.3   -3429.4609      -3895.3            0     7140.364    16.952187    19.967437    20.681629    7000.5606    7476.8244    8365.8809    5578.3867    661.98253    1105.0636   -1581.3067   -2700.4584 
29050000    252.32475   -3850.3417   -3417.8658   -3850.3417            0    7557.0486      16.9498    19.964625    20.678716    6997.6028    8910.9582    6780.7209    6979.4666   -94.568402    813.48368    659.35534   -2646.6473 
29051000    264.20516   -3839.5032   -3386.6646   -3839.5032            0    8182.6428    16.946186    19.960368    20.674307    6993.1277    10163.258    8831.0688    5553.6014   -3243.8306    150.39808    896.45396   -2552.1366 
29052000    273.45676    -3911.229   -3442.5335    -3911.229            0    9397.9187    16.941747     19.95514    20.668892    6987.6343    9232.1767    10511.432    8450.1469   -606.19452    40.122465    890.88409   -2484.8153 
29053000      248.269   -3875.0337   -3449.5091   -3875.0337            0    9654.5274     16.92699    19.937758    20.650888    6969.3905     11280.99    9510.5679    8172.0238    1059.2765     1592.972   -259.51835   -2468.2093 
29054000    260.64729   -3838.1745    -3391.434   -3838.1745            0    8175.9594    16.951863    19.967056    20.681234    7000.1591    7222.9306    9294.5257    8010.4218    1420.7091    -33.65337    679.55475   -2556.7492 
29055000    256.82913   -3878.4187   -3438.2223   -3878.4187            0    7888.7242    17.026017    20.054399    20.771701    7092.4257    6649.4792    8009.4914    9007.2019   -113.70628    624.44484   -63.847379   -2622.2462 
29056000     264.5236   -3830.0565   -3376.6721   -3830.0565            0     9083.787    16.886045     19.88953    20.600935    6918.9372    9878.4437    8984.2208    8388.6965    769.17877   -770.13768   -717.79852   -2460.0671 
29057000    259.93088   -3859.4904   -3413.9778   -3859.4904            0        11004     16.85713    19.855473     20.56566    6883.4557    14646.359    9087.0876     9278.553    78.684722   -2569.1693    797.38644   -2309.3067 
29058000    250.55616   -3844.2021   -3414.7574   -3844.2021            0    8607.7948    16.919856    19.929355    20.642184    6960.5819     8773.076    9210.0109    7840.2974    287.71812    248.86471    -4.328674   -2540.9548 
29059000    256.51801   -3860.0059   -3420.3428   -3860.0059            0    8297.1902    16.927762    19.938667     20.65183    6970.3437    7580.0496    7362.4573    9949.0638   -726.86303    446.01988    2638.2018   -2576.8893 
29060000    250.39422    -3897.153   -3467.9858    -3897.153            0    9533.3224    16.861961    19.861162    20.571552    6889.3745    9360.3361    10866.554    8373.0771   -826.98041   -1089.8657   -422.11514   -2510.1304 
29061000    260.87902   -3890.8861   -3443.7484   -3890.8861            0    9525.5679    16.871974    19.872956    20.583768    6901.6552    9833.6207    9083.3917    9659.6913    1200.5068   -1740.6193   -970.49757    -2484.966 
29062000    262.13574   -3867.4841   -3418.1924   -3867.4841            0    10152.011     16.90841    19.915874    20.628221    6946.4659    10229.307    10169.695     10057.03   -1333.7492   -1026.5817    633.78104   -2389.7218 
29063000    267.13548   -3855.9852   -3398.1241   -3855.9852            0     10360.99    16.893439    19.898239    20.609956      6928.03    10131.017    9381.7744    11570.178   -536.72515    927.81473   -686.82628   -2351.2683 
29064000    254.16176   -3877.4969   -3441.8723   -3877.4969            0    9069.5061    16.974841    19.994121    20.709267    7028.6636    7622.4729    9767.7456    9818.2998   -535.00733    -426.4027     -1.06718   -2512.1949 
29065000    251.10371   -3909.2033   -3478.8201   -3909.2033            0    9015.2342     16.94029    19.953424    20.667114    6985.8312    9794.1312    8266.6642    8984.9071    220.29562   -32.549299    958.50764   -2560.3374 
29066000    274.80374   -3887.0802    -3416.076   -3887.0802            0    10205.466     16.98477    20.005816     20.72138    7041.0045    11564.553    11413.364    7638.4811   -447.62074    1069.0358   -652.08057   -2368.1192 
29067000     248.6958   -3890.5649   -3464.3088   -3890.5649            0     8393.799     16.97102    19.989619    20.704604    7023.9173    8384.4654    8865.1194    7931.8121   -1544.5503   -659.51545   -520.78421   -2604.4763 
29068000    256.67508   -3855.5907   -3415.6584   -3855.5907            0    9486.0135    16.892615    19.897269     20.60895    6927.0163    10272.611    7747.0765    10438.353    894.89142    192.11821    412.57676   -2457.3488 
29069000    247.54088   -3879.7058   -3455.4292   -3879.7058            0    8423.8968     16.87212    19.873129    20.583947    6901.8349    7331.7206    8648.6452    9291.3245    414.26766   -364.18114   -710.98272   -2607.5119 
29070000    257.62726   -3857.4771   -3415.9128   -3857.4771            0    9284.1221    16.907982     19.91537    20.627699    6945.9388    9207.1254    8390.0934    10255.148   -563.02254   -3079.2117    630.65972   -2475.4368 
29071000    249.82356   -3865.3149   -3437.1259   -3865.3149            0    11120.516    16.866631    19.866663     20.57725    6895.1006    12436.888    10200.637    10724.024    -752.8654    -355.2999   -766.98837   -2318.8693 
29072000    276.42805   -3833.9473   -3360.1591   -3833.9473            0    10332.092    16.876384    19.878151    20.589149    6907.0683    10998.763    9407.7466    10589.765   -435.98263    464.63046   -1009.1185   -2319.3816 
29073000    230.97452   -3852.6069   -3456.7245   -3852.6069            0    7721.0947    16.939335    19.952299    20.665949    6984.6502    7254.6068    6761.3438    9147.3334     740.6678     679.1404    -1385.065   -2670.2232 
29074000     264.3634   -3900.2307   -3447.1209   -3900.2307            0    10677.595    16.909729    19.917427     20.62983    6948.0915    10436.271    10963.955     10632.56   -1438.7487   -1704.2127     2177.022   -2365.1518 
29075000     250.4257    -3869.988   -3440.7669    -3869.988            0    8802.3113    16.925862     19.93643    20.649512    6967.9972    7801.6803    7298.6513    11306.602    572.56868   -388.36199    923.89149   -2546.2664 
29076000    252.29184   -3879.8738   -3447.4543   -3879.8738            0    7822.4184    16.939721    19.952754    20.666421    6985.1282    7965.5546    6344.7634    9156.9371   -1286.3835   -515.71175    683.26063   -2650.5772 
29077000    258.66122   -3908.9822   -3465.6457   -3908.9822            0    10700.623    16.875553    19.877172    20.588135    6906.0486    11500.194    8907.5705    11694.105    420.64473   -179.79722    767.41315   -2387.9043 
29078000    275.97256   -3887.8427   -3414.8351   -3887.8427            0      7367.79    17.045848    20.077757    20.795894    7117.2367    8790.7177    5360.9822    7951.6701    481.81757   -91.909802    260.40371   -2650.0762 
29079000    249.24271   -3893.5298   -3466.3363   -3893.5298            0    9673.3001    16.931816    19.943443    20.656776    6975.3538    8518.1438    10026.817    10474.939   -358.17013    1025.3331   -34.690919   -2482.2872 
29080000     266.7293   -3864.3983   -3407.2334   -3864.3983            0    8194.6405    17.018191    20.045182    20.762154    7082.6504    8586.5662     6824.114    9173.2413   -1191.0914    6.9556614   -266.20551   -2560.7828 
29081000    251.58742   -3873.5386   -3442.3263   -3873.5386            0    9782.4389    16.915926    19.924727    20.637391    6955.7338    9840.3411    10453.376    9053.5992   -1599.9278   -1391.3843   -980.07931   -2449.9738 
29082000    255.48996   -3904.7344   -3466.8334   -3904.7344            0    7298.5823    16.966269    19.984024    20.698809     7018.021    8200.3234     5150.261    8545.1625   -381.17374     -1.34112    352.09889   -2719.8188 
29083000     253.0565   -3892.0983   -3458.3682   -3892.0983            0    10047.615    16.891151    19.895545    20.607165    6925.2158    9234.8841    8596.1528    12311.807    1.8719663    625.23768    139.93603   -2443.5875 
29084000    259.64638   -3844.5219   -3399.4969   -3844.5219            0    8760.9206    16.895843    19.901072     20.61289    6930.9892    9236.8241    7998.3015    9047.6362    367.50083   -1945.0543    1436.4305    -2513.931 
29085000    254.30508   -3874.2463   -3438.3761   -3874.2463            0     10785.13    16.871424    19.872309    20.583098    6900.9804    10345.879    10442.477    11567.035   -123.65817   -1509.8857   -184.16379   -2352.9204 
29086000    260.98457   -3901.3067   -3453.9881   -3901.3067            0    10676.974    16.868378    19.868721    20.579382    6897.2434    9277.7974     11349.77    11403.355   -243.14312   -819.73564    768.20896   -2379.9996 
29087000    241.04745   -3870.1186   -3456.9715   -3870.1186            0    11131.958    16.874744     19.87622    20.587149     6905.056    13296.774    11649.783    8449.3165   -66.784246    639.50815   -1508.8525   -2335.9482 
29088000    262.28962   -3856.7356   -3407.1801   -3856.7356            0    9060.1368    16.930455     19.94184    20.655116    6973.6715    8810.6424    8632.8613    9736.9067    1164.8367    250.30533   -393.53558   -2485.7294 
29089000    252.85696   -3901.9703   -3468.5821   -3901.9703            0     9371.343    16.896931    19.902353    20.614216    6932.3276    10315.021    9145.6632    8653.3445   -1474.4409   -1279.7599    354.17928    -2521.131 
29090000    252.47002   -3862.8505   -3430.1255   -3862.8505            0    10420.512    16.910491    19.918325    20.630759    6949.0308    9555.0608    9468.7736    12237.702     575.9682   -0.2417637    68.375209   -2374.0641 
29091000    258.22723   -3899.1995   -3456.6068   -3899.1995            0    9134.3292    16.950515    19.965468    20.679589    6998.4889    9926.6169    8845.8994    8630.4713    65.255613   -1640.0737    242.03784   -2524.3044 
29092000    262.30391    -3861.344    -3411.764    -3861.344            0    8846.1912    16.891611    19.896086    20.607726    6925.7814    10292.194    7702.1235     8544.256    209.05746   -1228.2834    -30.75358   -2518.2508 
29093000    246.38739   -3871.0158   -3448.7162   -3871.0158            0    10093.363    16.859422    19.858172    20.568456    6886.2637    11319.389    9400.8854     9559.814    1402.8876   -345.01792    707.63141    -2435.049 
29094000    261.57147   -3872.5104   -3424.1858   -3872.5104            0    10278.206    16.874722    19.876194    20.587122    6905.0287    10973.391    9281.9581    10579.269   -2813.9556   -788.67023   -242.12971   -2389.1421 
29095000    260.61531    -3873.161   -3426.4753    -3873.161            0    9969.8005    16.857776    19.856234    20.566448    6884.2472    10215.365    8270.8021    11423.235   -429.93221    311.78857    2186.2125   -2425.5105 
29096000    272.22632   -3859.3165   -3392.7299   -3859.3165            0    9021.4854    16.876671    19.878489    20.589499    6907.4215    8492.9866     9816.766    8754.7037    530.37883     -141.645   -999.46851   -2483.9266 
29097000    251.80545   -3846.1996   -3414.6137   -3846.1996            0    8631.7889    16.927814    19.938729    20.651893    6970.4083    7319.5356    9868.9225    8706.9086    401.72207    -139.9277   -119.67094   -2537.1384 
29098000    256.83854   -3883.7695   -3443.5571   -3883.7695            0    7560.9672    16.931186    19.942701    20.656007    6974.5748    6410.6445     10087.69    6184.5672   -612.95142   -94.099415    1672.7897    -2674.478 
29099000    264.53431   -3891.1406   -3437.7379   -3891.1406            0    8721.4295    16.931252    19.942779    20.656088    6974.6566    10264.417    7999.3678    7900.5038   -939.56404    -72.10879    1454.6367   -2550.6097 
29100000    256.92957    -3887.752   -3447.3835    -3887.752            0     7218.707     16.93762     19.95028    20.663857    6982.5295    8252.8986    7077.1812    6326.0413   -168.25306   -94.604513    1651.4237   -2712.2807 
29101000      264.573   -3919.3851    -3465.916   -3919.3851            0    9186.2735    16.898116    19.903748    20.615662    6933.7859    8873.1747    8693.6576    9991.9882   -6.3534998   -55.310372    1872.7652   -2536.9802 
29102000    255.81889   -3865.5405   -3427.0757   -3865.5405            0    8981.7094    16.916022     19.92484    20.637507    6955.8518    8093.1482     9675.251    9176.7289    1581.3556     402.5025    986.86606   -2515.9355 
29103000    248.38065   -3851.8913   -3426.1753   -3851.8913            0    8833.9193     16.91691    19.925885     20.63859    6956.9467     8522.308    8954.5694    9024.8806    76.247679   -500.27492      167.053   -2529.8865 
29104000    259.48136   -3885.8863   -3441.1441   -3885.8863            0    8489.4053    16.997489    20.020797    20.736897    7056.8339    8793.8274    8607.2942    8067.0943    912.39605   -1821.9027    1839.9329   -2567.4427 
29105000    263.97752   -3855.2978   -3402.8493   -3855.2978            0    7963.6649    16.972895    19.991829    20.706893    7026.2468    8387.1134    7092.3958    8411.4856   -371.10178   -818.78406    168.10312   -2586.8078 
29106000    252.46097   -3907.1422   -3474.4328   -3907.1422            0    7501.7972    16.963521    19.980787    20.695456    7014.6115     7669.318    6863.4525    7972.6211   -796.93736    1056.7342     891.7076   -2706.9921 
29107000    259.79768    -3924.555   -3479.2707    -3924.555            0     7912.195    16.965208    19.982774    20.697514    7016.7041    7244.3153    8099.7696    8392.5003   -127.45556    1165.6442   -187.56185   -2669.6044 
29108000    259.60894   -3878.7664   -3433.8055   -3878.7664            0    9140.9475    16.921153    19.930883    20.643767    6962.1829    9597.4779     8273.048    9552.3168   -1672.3257   -384.22651    775.16405   -2505.6676 
29109000    266.30276   -3881.4821   -3425.0483   -3881.4821            0    7439.4521    16.958626    19.975021    20.689484    7008.5401    7222.8209    6975.7117    8119.8237    510.91823   -484.69563    1723.1277   -2664.6443 
29110000    252.22483   -3879.6164   -3447.3117   -3879.6164            0    7200.0033    16.943584    19.957304    20.671133    6989.9079    5989.1508    7486.1419    8124.7173    -288.1067    149.26614    1092.7118   -2713.3388 
29111000    258.67405    -3881.204   -3437.8455    -3881.204            0    9029.1636    16.957429    19.973612    20.688024    7007.0567    8126.8896    8447.6027    10512.999   -51.313479   -305.37289   -427.73002   -2515.1487 
29112000    253.85826   -3866.3385   -3431.2341   -3866.3385            0    9548.6544     16.89113     19.89552     20.60714    6925.1906    6614.1509    10977.394    11054.418    277.09216    1897.1805   -193.76861   -2466.8506 
29113000    254.43661   -3896.7107    -3460.615   -3896.7107            0    10431.453    16.893669    19.898511    20.610237     6928.314    10633.749    10254.998    10405.611    392.85496    1409.6701   -248.25137   -2406.5965 
29114000    267.54621   -3869.1066   -3410.5415   -3869.1066            0    9129.8759    16.960284    19.976974    20.691507     7010.596     10083.42    9507.9042    7798.3042     1200.589   -669.68977    25.491339   -2477.0816 
29115000    252.62493   -3847.0445    -3414.054   -3847.0445            0    10613.811    16.925367    19.935847    20.648908     6967.386    10455.455    10708.518    10677.459    904.94867    969.45229    711.37874   -2335.5616 
29116000    248.27363   -3884.8546   -3459.3221   -3884.8546            0    8116.5408    16.945811    19.959927     20.67385    6992.6645    8346.0058    9469.4494    6534.1672   -31.839813    352.19942   -1760.3403   -2631.5905 
29117000    255.00329   -3909.8915   -3472.8246   -3909.8915            0     10711.05    16.857754    19.856208    20.566421    6884.2202    11716.943    7620.7125    12795.495   -636.06785   -86.311305     1054.481   -2397.4428 
29118000    265.52869   -3911.5249   -3456.4178   -3911.5249            0    9636.8579    16.847997    19.844715    20.554517    6872.2737    11653.513    10763.465    6493.5959   -1462.7672    251.64889    165.26589   -2490.5631 
29119000    266.54521   -3885.7812   -3428.9318   -3885.7812            0    8266.3009    16.874334    19.875736    20.586648    6904.5518    9082.3753     7288.921    8427.6063   -472.73117   -453.28819    90.026541     -2596.55 
29120000    250.09945   -3887.4113   -3458.7495   -3887.4113            0     9966.781     16.87611    19.877828    20.588814    6906.7319    6414.3136    12079.948    11406.081   -1682.7564     23.14785   -221.38332   -2454.8195 
29121000    244.05392   -3880.2351    -3461.935   -3880.2351            0    8760.5504    16.910758    19.918639    20.631085    6949.3596      8946.08    9559.2671     7776.304    328.20913   -1139.9376   -746.78065   -2574.0596 
29122000    270.38004   -3867.5668   -3404.1447   -3867.5668            0    8126.2619    16.936036    19.948414    20.661925    6980.5707    9311.3846    8536.5399    6530.8611    205.22869   -565.73628    351.42585    -2576.855 
29123000    249.09341   -3898.6803   -3471.7427   -3898.6803            0    8181.7722     16.94654    19.960785    20.674739    6993.5661    7174.0618    7995.0941    9376.1607    405.87577    719.67419   -875.23243   -2637.2511 
29124000    259.66579   -3847.4408   -3402.3826   -3847.4408            0    8925.7961    16.948775    19.963418    20.677466    6996.3339    8510.6032    9506.1782    8760.6069    2267.6633   -235.52252    968.11831   -2491.6447 
29125000    271.94066    -3846.792    -3380.695    -3846.792            0    10927.739    16.821115    19.813051     20.52172    6839.4297    12436.623    7312.6792    13033.916    1666.8009   -620.22919    9.7495595    -2290.696 
29126000    258.22245   -3891.0291   -3448.4447   -3891.0291            0    9625.2982    16.885241    19.888583    20.599954    6917.9491    10226.272    10336.145    8313.4774    -491.7399    96.791238   -631.11261   -2477.3369 
29127000    264.83806   -3871.0537   -3417.1303   -3871.0537            0    8877.0023    16.913284    19.921614    20.634167    6952.4745    7592.2742    10723.807    8314.9253   -1171.1439    1491.3883   -366.54606   -2517.0492 
29128000    272.51314   -3894.8415   -3427.7633   -3894.8415            0    10819.037     16.80794    19.797533    20.505647     6823.372     8387.078    13339.336    10730.699    578.28307    509.84285      36.8931   -2351.1406 
29129000    279.84112   -3890.6113   -3410.9732   -3890.6113            0    7647.9911     16.92896    19.940079    20.653292    6971.8244    6121.3335    8814.0258    8008.6141    1673.3431    42.330299    829.39446   -2633.3492 
29130000    255.00762   -3902.7798   -3465.7055   -3902.7798            0    10985.238    16.854737    19.852654     20.56274    6880.5248    10663.515    10446.716    11845.484    517.04114    150.04841    1393.2506   -2363.3874 
29131000    254.14998   -3882.8306   -3447.2262   -3882.8306            0    11818.967    16.791524    19.778198     20.48562    6803.3992    11269.663    10806.859    13380.378    798.06139    225.60687     832.9876   -2274.5413 
29132000    271.46726    -3855.223   -3389.9374    -3855.223            0    8730.9344    16.908656    19.916163    20.628521     6946.769     7928.341    8311.7159    9952.7464    1989.9125    1724.3611   -588.05124   -2505.3933 
29133000     260.3378   -3885.1024   -3438.8923   -3885.1024            0    8155.8677     16.91482    19.923424    20.636041    6954.3694    6818.1419    11936.606    5712.8553   -570.87875    141.99701   -59.827427   -2611.7051 
29134000    252.89566    -3884.077   -3450.6225    -3884.077            0    11960.128    16.858424    19.856996    20.567238    6885.0404    12402.336    10887.034    12591.015    569.24654    1203.5154     728.5257    -2249.691 
29135000    240.00553   -3851.8853    -3440.524   -3851.8853            0    9873.4283    16.828909    19.822232     20.53123    6848.9417    10921.694    9724.8565    8973.7347   -896.08011   -2048.5621   -111.01311   -2454.3187 
29136000    252.38887   -3850.7161   -3418.1302   -3850.7161            0    9714.4512    16.915694    19.924453    20.637107    6955.4471     9996.612    8231.4497    10915.292    1441.2816   -703.77345   -186.47599   -2432.7151 
29137000     248.4898   -3876.7092   -3450.8062   -3876.7092            0     8146.182    16.937716    19.950392    20.663973    6982.6471    8679.7391    6335.6448    9423.1622     681.0753   -1324.6784    1170.0729   -2621.2418 
29138000    264.58633   -3896.5619     -3443.07   -3896.5619            0    10337.397    16.915049    19.923693     20.63632    6954.6515    9152.4582    10090.378    11769.355   -621.05305   -2322.4777    1767.2294   -2394.5844 
29139000     235.1769   -3894.6649   -3491.5797   -3894.6649            0    8244.8042    16.945205    19.959213     20.67311    6991.9137    10588.602    5595.9678    8549.8429    199.98994     476.6226   -206.35681    -2650.858 
29140000    253.39564    -3868.635   -3434.3236    -3868.635            0    8999.3723    16.926115    19.936727     20.64982    6968.3093    9379.9343    8783.6175     8834.565    249.14451    103.34713    1396.4543   -2519.7566 
29141000    243.53529   -3880.9619   -3463.5507   -3880.9619            0    6537.7949    16.938735    19.951592    20.665217    6983.9076    6386.9119    6330.6422    6895.8308   -871.14784   -618.61026   -1005.4296   -2797.6559 
29142000    259.95189   -3924.6417    -3479.093   -3924.6417            0    7791.8496    16.971944    19.990709    20.705732    7025.0655    8049.4539    8456.3329    6869.7619   -352.95198   -722.44352    254.16759   -2680.7917 
29143000    245.50193   -3893.4761   -3472.6942   -3893.4761            0    8550.2067    16.894566    19.899567     20.61133    6929.4166    10321.684    8747.1343    6581.8014   -2214.6004   -60.518872    597.83476   -2608.6237 
29144000    252.97615   -3876.3615   -3442.7691   -3876.3615            0    11183.908    16.869844    19.870448     20.58117    6899.0416    13230.718     10157.91    10163.095    2040.7252   -671.00765    509.58223   -2317.4952 
29145000    260.67642   -3845.3348   -3398.5443   -3845.3348            0    8660.8087    16.961697    19.978639    20.693231     7012.349    9231.5048    9287.2129    7463.7083    880.07353     893.8389   -178.02677   -2512.8214 
29146000    266.83414   -3887.9978   -3430.6532   -3887.9978            0    8653.2858    16.862664    19.861991    20.572411    6890.2372    8722.2753    7804.7531    9432.8289      693.226   -595.64103    795.62359   -2561.1101 
29147000     240.9233   -3863.2307   -3450.2964   -3863.2307            0    8283.0698    16.917037    19.926035    20.638745    6957.1036    7391.9486    9121.6382    8335.6226   -803.03133    535.34394      161.083   -2609.8778 
29148000    257.87559    -3871.512   -3429.5221    -3871.512            0    10227.549    16.800267    19.788495    20.496286    6814.0315    10681.571    10123.862    9877.2153    325.18519    267.21352    478.61792   -2413.1526 
29149000    275.28492   -3861.9264   -3390.0975   -3861.9264            0     10884.49    16.945571    19.959644    20.673557    6992.3665    10100.876    12789.493    9763.1015   -2350.4479   -656.42527   -1043.9579   -2280.1354 
29150000    256.20618   -3884.4293   -3445.3006   -3884.4293            0    9914.9736    16.942721    19.956288    20.670081    6988.8401    10470.173    10329.695    8945.0527     110.5219    2108.7219    -1194.169   -2434.7163 
29151000    266.80728   -3842.5552   -3385.2567   -3842.5552            0    8639.6563    16.920117    19.929662    20.642503    6960.9041    8490.3074    7896.0377    9532.6237    -933.9018   -1110.1549     723.7031   -2508.1791 
29152000    240.92022    -3849.954    -3437.025    -3849.954            0    9222.4566    16.913371    19.921716    20.634273    6952.5814    8110.7777    9445.7279    10110.864    703.08847   -152.87374    945.55371   -2501.9023 
29153000    263.19364   -3859.1828   -3408.0779   -3859.1828            0     9460.903    16.866186    19.866139    20.576707    6894.5548    8934.0971    9552.8754    9895.7366   -63.633297   -291.81562    815.69391    -2456.784 
29154000    268.94955   -3916.1108   -3455.1405   -3916.1108            0    6236.0276    16.943223    19.956879    20.670692    6989.4606     5299.555    6815.3049    6593.2229   -405.39714   -1292.1338     620.5442   -2819.4765 
29155000    258.20402   -3869.8302   -3427.2774   -3869.8302            0    8531.7708    16.877345    19.879283    20.590322    6908.2489    7506.5582     8080.739    10008.015   -972.44261    442.29591   -510.64028   -2567.7038 
29156000     244.1307   -3882.8826   -3464.4509   -3882.8826            0    8763.5178    16.929589     19.94082    20.654059    6972.6014     8670.242    8609.3412    9010.9702   -1630.0236    863.10248     1394.778   -2573.3042 
29157000    256.74191   -3880.5607   -3440.5139   -3880.5607            0    8640.2053    16.888938    19.892938    20.604465     6922.494    9327.6768    8576.6903    8016.2488   -842.85228    330.93869   -767.57964   -2568.2206 
29158000    249.21929   -3887.9792   -3460.8259   -3887.9792            0    8112.9045    16.967631    19.985628     20.70047    7019.7111    8240.4331    9042.4255     7055.855   -200.73824   -431.56229    532.09579   -2630.2649 
29159000    251.92286   -3887.7891   -3456.0019   -3887.7891            0    8313.0169    16.947484    19.961898    20.675891    6994.7353    6959.4944    7822.8111    10156.745   -247.17665    155.01495   -172.81093   -2607.9824 
29160000    268.21418   -3846.9304   -3387.2204   -3846.9304            0    8978.9029    16.885452    19.888833    20.600213    6918.2093    8919.5813    8260.9971    9756.1304   -1455.0959    1750.9707    -302.5968   -2481.2941 
29161000    258.84925   -3928.2469   -3484.5881   -3928.2469            0    7310.1237    16.979149    19.999195    20.714523    7034.0163    6930.3588    6115.2905    8884.7217    409.15413    2564.9623   -1292.0925    -2734.687 
29162000     256.9942   -3877.1336   -3436.6543   -3877.1336            0    8709.0167    16.867989    19.868263    20.578908    6896.7667    8167.0485    9410.1454    8549.8562   -25.308763    -497.7848   -481.70453   -2560.6817 
29163000    261.99942   -3874.8897   -3425.8317   -3874.8897            0    7790.7942    16.888293    19.892178    20.603678    6921.7009    8684.6052    6929.9764     7757.801   -212.48575    1194.8619   -1343.0138   -2639.3829 
29164000    260.98311   -3897.8776   -3450.5615   -3897.8776            0    10156.476    16.899377    19.905233      20.6172    6935.3381    11704.615      8453.21    10311.603   -1461.5656   -186.55693    985.09116   -2423.2869 
29165000    255.75304   -3877.1537   -3438.8018   -3877.1537            0    10828.857     16.84256    19.838311    20.547884    6865.6227    10167.104    12049.552    10269.916   -1170.8957   -726.43336   -741.43322   -2354.5293 
29166000    262.24696   -3878.7742   -3429.2919   -3878.7742            0    10933.187    16.878762    19.880952     20.59205    6909.9888    12663.328    9893.0582    10243.175   -999.05323    490.87765     1019.544   -2327.4989 
29167000    252.81144   -3927.7538   -3494.4437   -3927.7538            0    10181.926    16.897116     19.90257    20.614442    6932.5549    9817.8896    10792.038    9935.8511   -728.93904    817.40164   -684.56953   -2465.0081 
29168000    270.81076   -3882.0994   -3417.9391   -3882.0994            0    8397.7023    16.916795     19.92575     20.63845     6956.805    7214.5397    11463.193    6515.3742    1493.0665    387.61881    -630.8867   -2565.9261 
29169000    265.29683   -3887.5818   -3432.8722   -3887.5818            0    10139.923    16.897442    19.902955     20.61484    6932.9569    10182.998    9063.2026    11173.568    784.83058    180.27702   -197.11386   -2407.6239 
29170000    262.61084   -3912.0556   -3461.9496   -3912.0556            0    10822.019    16.874772    19.876252    20.587182    6905.0896    11565.949    8597.6433    12302.463   -1269.5829    238.99783     202.3833   -2372.1329 
29171000     257.1716   -3907.0317   -3466.2483   -3907.0317            0    8452.2888    16.953661    19.969173    20.683427    7002.3864    9447.7408    9066.4043    6842.7214    780.24438   -506.87892    2327.3064   -2603.0784 
29172000    253.17572   -3894.9448   -3461.0102   -3894.9448            0    6942.8563    16.945892    19.960022    20.673948     6992.764    6936.1211     8108.747    5783.7009    1126.2111   -1047.9103    184.87311   -2752.9619 
29173000    256.92528   -3894.4981    -3454.137   -3894.4981            0    9262.3879    16.881611    19.884308    20.595526    6913.4884    7186.0251    10896.294    9704.8448    1297.5308   -1280.5118     820.3174   -2520.2462 
29174000    253.44099   -3880.1911   -3445.8019   -3880.1911            0    11181.909    16.852034     19.84947    20.559442    6877.2146    12011.397      10605.8    10928.532    994.42263    648.81199   -65.942084   -2324.2886 
29175000    269.79502   -3902.2386   -3439.8192   -3902.2386            0    10120.028    16.887568    19.891324    20.602793    6920.8096    10981.625    7114.4498     12264.01    1289.5248    548.43474   -1003.1153   -2418.3753 
29176000    261.43345   -3922.8502   -3474.7622   -3922.8502            0    8737.1543    16.927858     19.93878    20.651947    6970.4624     8297.113    8064.8123    9849.5377     430.3192    1294.0859   -1972.4924   -2586.5689 
29177000     260.9076   -3874.3395   -3427.1528   -3874.3395            0    9708.0002    16.912427    19.920604    20.633121    6951.4172    8986.0201    9169.5579    10968.422    1287.3659   -1562.4864    1023.0981   -2442.9627 
29178000    253.53096   -3852.5012   -3417.9578   -3852.5012            0    8683.2882    16.899887    19.905835    20.617823    6935.9665    6930.1063    9507.1317    9612.6267   -1063.6748   -715.56304   -299.22183   -2539.6089 
29179000    247.52542   -3864.9739   -3440.7238   -3864.9739            0     8082.665    16.934839    19.947004    20.660464    6979.0905    7770.1089    8379.8507    8098.0354     893.1765    152.12876    551.29955   -2618.0469 
29180000    255.61546   -3875.7633   -3437.6471   -3875.7633            0    8692.9754    16.908589    19.916084    20.628439    6946.6864    7822.8883    8641.1429    9614.8951   -1086.6566    243.89084    364.59018   -2556.9592 
29181000    254.56876   -3869.3318   -3433.0097   -3869.3318            0    9539.1754     16.87539     19.87698    20.587936    6905.8483    10251.747    8732.6966    9633.0831    122.11447    628.44685    1479.8234   -2472.2744 
29182000    274.05155    -3871.755   -3402.0401    -3871.755            0    8436.2752    16.900348    19.906378    20.618385    6936.5346    9490.6283    7397.6136    8420.5838    329.55245    210.86045   -352.70352   -2548.6076 
29183000    257.77293   -3898.1827   -3456.3687   -3898.1827            0    8275.8805    16.890899    19.895248    20.606857    6924.9059    9124.8941    9358.4997    6344.2478    555.81661     626.4477   -611.97054   -2620.5656 
29184000    247.08499   -3883.9519   -3460.4566   -3883.9519            0    9466.5529    16.929863    19.941142    20.654393    6972.9395    8575.5542    11261.228    8562.8762   -659.68563   -536.93619   -751.06966   -2497.7729 
29185000     267.9112   -3888.7276    -3429.537   -3888.7276            0     9428.881    16.921406    19.931181    20.644076    6962.4959    10286.556    8805.2202    9194.8663   -532.49462   -1298.0313    1967.3914   -2472.1203 
29186000    256.58037   -3864.9731   -3425.2032   -3864.9731            0    8997.1303    16.900494     19.90655    20.618564    6936.7145    8827.1439    8770.1107    9394.1365   -1513.7529    741.35196   -1199.0838   -2515.0097 
29187000    255.29192   -3898.1257   -3460.5641   -3898.1257            0    8562.0604    16.885174    19.888505    20.599873    6917.8675    7025.9895     9732.295    8927.8967   -1627.1361    -27.29467    67.127489   -2596.7378 
29188000    262.31777   -3854.4713   -3404.8676   -3854.4713            0    11177.043    16.797313    19.785017    20.492683    6810.4384    10013.858    12945.885    10571.386   -286.71788   -812.97493    1089.5298   -2294.7273 
29189000     248.8176   -3904.5742   -3478.1094   -3904.5742            0    9926.4881    16.853492    19.851188    20.561221    6878.9999    10182.369    10927.851    8669.2442    1161.6278   -819.81269   -1599.4822   -2482.2527 
29190000    268.52818   -3867.5758   -3407.3277   -3867.5758            0    7326.0404    16.892159    19.896731    20.608394    6926.4553    6305.3836    6948.2954    8724.4422   -908.45646   -306.97829    856.54499   -2667.2859 
29191000    251.23199   -3879.7994   -3449.1964   -3879.7994            0    9781.8674    16.917006    19.925999    20.638708    6957.0658    11916.665     10657.47    6771.4678    1059.4542    392.72543    -373.0764   -2456.7118 
29192000     267.4259   -3902.9095   -3444.5507   -3902.9095            0    9392.1627    16.892649    19.897309    20.608992    6927.0585    10147.646    8637.8591    9390.9833    1119.6882    965.80251   -2311.5443   -2495.7164 
29193000    270.51752   -3912.3268    -3448.669   -3912.3268            0    9776.3875    16.906616     19.91376    20.626032    6944.2547    11435.563    10043.036    7850.5636    -210.6254   -1362.9638   -34.223157    -2458.567 
29194000    273.11149    -3896.763   -3428.6593    -3896.763            0    10231.618    16.894879    19.899935    20.611712    6929.8019     11363.83     8761.283    10569.742   -768.17686     576.9912    1982.4321   -2394.6105 
29195000    255.77357   -3906.2628   -3467.8756   -3906.2628            0    8173.2653    16.931122    19.942626     20.65593    6974.4962    8074.2258    8345.5189    8100.0513    506.74978   -579.53829    661.99171   -2636.5248 
29196000    262.27696   -3920.0138   -3470.4801   -3920.0138            0    9841.9631    16.875116    19.876657    20.587602    6905.5118     10248.65    11454.448    7822.7919    1358.0082   -108.44193   -1049.3281   -2479.2979 
29197000    256.02033   -3890.9467   -3452.1366   -3890.9467            0     8814.572    16.862966    19.862347     20.57278    6890.6075    7219.4434     10445.73    8778.5425     396.1034   -735.99839   -630.02856   -2566.3388 
29198000    254.92431   -3853.9355    -3417.004   -3853.9355            0    10663.524    16.804639    19.793645     20.50162    6819.3525     11257.45    10207.579    10525.544     595.2297   -153.32267    368.44071   -2356.4817 
29199000    273.35324   -3907.8296   -3439.3115   -3907.8296            0    9140.4812    16.903399    19.909971    20.622107    6940.2915     8057.207    10616.089    8748.1475   -741.82703    435.45486   -107.11887   -2514.1391 
29200000    263.28454   -3897.8838   -3446.6231   -3897.8838            0    10799.983    16.876265    19.878011    20.589004     6906.923     11374.58    10262.421    10762.947   -600.45201    1151.9667    349.78477   -2358.7366 
29201000    262.22667   -3898.8226    -3449.375   -3898.8226            0    9018.9008    16.967278    19.985212    20.700039    7019.2723    8892.3631    10081.405    8082.9338   -238.88446    1841.0565    1255.3947   -2526.1202 
29202000    267.15172   -3882.7076   -3424.8187   -3882.7076            0    9038.7461    16.918212    19.927419    20.640179     6958.554    8639.2486    9412.3823    9064.6072    404.12488   -1610.8388    981.44853   -2507.5362 
29203000    259.40801   -3938.2815    -3493.665   -3938.2815            0    8963.6708    16.919761    19.929243    20.642069     6960.465    8496.4176    8756.7113    9637.8834    1102.1418   -1224.3582     328.7448   -2583.7516 
29204000    249.24718   -3893.2561    -3466.055   -3893.2561            0    8500.2144    16.935704    19.948022    20.661519    6980.1594    7800.6022    9379.2857    8320.7553   -494.70178    -383.4974   -2209.6862   -2600.7462 
29205000    240.73611   -3886.6012   -3473.9878   -3886.6012            0    6752.4883    16.940881     19.95412    20.667835    6986.5626    5251.0373    8234.3882    6772.0395   -416.76576    396.64597   -579.46302   -2785.9642 
29206000     244.7251   -3895.7846   -3476.3341   -3895.7846            0    8778.4041    16.924488    19.934812    20.647836    6966.3008    8358.5793      10192.8    7783.8332    1724.9126   -1881.2713    242.51407   -2584.4803 
29207000    248.22989     -3922.06   -3496.6025     -3922.06            0    8309.8581    16.931856    19.943489    20.656824    6975.4022    9498.5136    6250.0878     9180.973     319.9636    998.21795   -152.78375   -2651.2482 
29208000    249.48342   -3884.5597   -3456.9537   -3884.5597            0    11369.231      16.8603    19.859206    20.569526    6887.3391    12294.568    12059.331    9753.7944    581.94281    1818.1178    88.461354   -2314.9738 
29209000    267.45312   -3931.8238   -3473.4183   -3931.8238            0    11383.354    16.868804    19.869223    20.579901    6897.7658    11932.501    10760.071    11457.491   -577.10282   -1375.0023   -261.86405   -2328.2889 
29210000    260.66482   -3885.8959   -3439.1253   -3885.8959            0    9378.6932    16.954047    19.969628    20.683897    7002.8644    7885.7711    8650.1628    11600.146    -2594.116    806.52308    -791.5738   -2481.2832 
29211000     270.6454   -3921.0209   -3457.1439   -3921.0209            0    8529.6615     16.96978     19.98816    20.703092    7022.3789    7703.7412    8829.8246    9055.4188    205.79164   -1244.9385    523.39615   -2583.5855 
29212000    279.96398   -3901.5833   -3421.7346   -3901.5833            0    10245.451    16.912663    19.920883    20.633409    6951.7089     11122.53    9867.7974    9746.0254     251.7412    338.60427   -554.61181   -2383.0145 
29213000    270.56082   -3867.6633   -3403.9314   -3867.6633            0    11883.392    16.921243    19.930989    20.643877    6962.2946    11942.643    10723.033    12984.499   -489.48344    414.72345   -1672.4209   -2197.3164 
29214000    242.23661    -3838.646   -3423.4608    -3838.646            0    8984.4209    16.945901    19.960033     20.67396    6992.7753    8519.1908    8865.9076    9568.1644   -178.11735    947.38616   -327.04138   -2507.2075 
29215000    255.93647   -3943.1806   -3504.5143   -3943.1806            0    8245.4664     16.95033     19.96525    20.679363    6998.2596    10339.626     7013.322    7383.4513   -315.06982   -1338.3663   -203.90435   -2662.9619 
29216000    250.19195   -3885.6166   -3456.7961   -3885.6166            0    11036.866    16.905438    19.912373    20.624594     6942.803    9562.7276    12057.432    11490.439    1216.1971   -253.39088    1223.9355   -2339.2731 
29217000    255.42683   -3896.0389    -3458.246   -3896.0389            0    10974.741    16.848041    19.844767     20.55457    6872.3267    11643.644    10176.977    11103.601    -1037.696    1127.5705    909.57321   -2358.2935 
29218000     260.0236   -3878.6044   -3432.9329   -3878.6044            0    7988.5776    16.950199    19.965095    20.679203    6998.0971    8528.9206    7110.4701     8326.342   -988.66188    90.815309   -1160.7399   -2617.6181 
29219000    269.53614   -3889.6397    -3427.664   -3889.6397            0     9850.344    16.906261    19.913342    20.625599    6943.8173    7757.0841    10631.329    11162.619   -2063.2001   -622.28062   -574.87239   -2430.1349 
29220000    250.54493   -3903.1398   -3473.7143   -3903.1398            0    9760.3398    16.895568    19.900747    20.612553    6930.6501    12533.508    8354.8342    8392.6769    1553.2442   -308.09856   -2355.8834   -2487.1741 
29221000    247.86594   -3868.8948   -3444.0611   -3868.8948            0    10371.335    16.900689     19.90678    20.618801    6936.9544    10872.029    10284.648    9957.3269   -2446.1944   -1577.0965     1425.424   -2394.8101 
29222000    253.79703   -3879.4781   -3444.4787   -3879.4781            0    12391.908    16.794369    19.781549    20.489091    6806.8579    13678.076    11312.337    12185.312    703.51036   -589.97134   -376.50045    -2214.321 
29223000    247.32548   -3886.2805   -3462.3731   -3886.2805            0    11163.417    16.808576    19.798282    20.506424    6824.1469     13148.26    9957.2277    10384.763   -569.22482   -1961.0526    582.97742   -2351.3543 
29224000     256.0258   -3861.5314    -3422.712   -3861.5314            0    9726.2066     16.85059    19.847769     20.55768    6875.4465    10175.834    10130.795    8871.9901    71.002257    515.10514    373.52611   -2447.4523 
29225000    258.86306    -3891.253   -3447.5706    -3891.253            0     10300.43     16.82477    19.817356     20.52618    6843.8893    10234.404    10228.399    10438.487    714.70797     268.9261    117.93743   -2419.4733 
29226000    257.27381   -3882.9961   -3442.0376   -3882.9961            0    7342.8899    16.962403     19.97947    20.694092    7013.2239    6369.9775    7982.5843    7676.1079    -1197.148    312.04066     813.3838   -2691.0019 
29227000     276.2103   -3875.3747   -3401.9597   -3875.3747            0    8804.0824    16.944715    19.958636    20.672512    6991.3071    9275.0901     8586.562    8550.5949    -656.2092     153.7017   -664.96264   -2504.2862 
29228000    278.25686   -3890.2306   -3413.3078   -3890.2306            0    9354.6186    16.936209    19.948618    20.662136    6980.7845    8972.5061    8432.9934    10658.356    1003.3006   -105.25704    298.19512   -2460.9367 
29229000    259.21444   -3857.1658   -3412.8811   -3857.1658            0    7983.1796    16.977172    19.996866     20.71211    7031.5595    7164.8006    8635.8446    8148.8937      616.504    1231.1696   -206.27568   -2594.2213 
29230000    271.04596   -3866.0137   -3401.4502   -3866.0137            0    8972.8533    16.922734    19.932745    20.645696    6964.1347    8775.8042    9635.2623    8507.4933    857.36409   -841.70009    42.147215   -2490.1245 
29231000    265.42793   -3873.5988   -3418.6644   -3873.5988            0    9993.1725    16.895156    19.900262     20.61205    6930.1426    10998.325    9388.9831    9592.2097    59.932109   -126.70694    200.88882   -2408.6643 
29232000    247.09566   -3858.8621   -3435.3486   -3858.8621            0    10385.535    16.894886    19.899944    20.611721    6929.8106    11115.828    7983.1465     12057.63    -615.4011    659.71706    -1184.444   -2385.7431 
29233000    254.55605    -3904.607   -3468.3066    -3904.607            0    7248.3361    16.967596    19.985587    20.700427    7019.6674     7692.365    8273.9521    5778.6911    648.33525   -594.20809   -136.56255   -2726.2608 
29234000    273.27925   -3904.1897   -3435.7984   -3904.1897            0    7972.7166    16.957097     19.97322    20.687618    7006.6445    8085.4345    8178.1794     7654.536   -213.72413   -1723.1125    880.02463   -2621.1086 
29235000    249.87088   -3908.3056   -3480.0354   -3908.3056            0    8899.9656     16.89903    19.904825    20.616777    6934.9114     9948.661    7657.4671    9093.7688   -931.58173    1311.5693   -1224.4372   -2579.9056 
29236000    261.05565   -3929.6724   -3482.2319   -3929.6724            0    8285.2723    16.922155    19.932063    20.644989    6963.4196    9063.5424    6724.0155    9068.2589   -378.98252    420.02643    1214.3569   -2640.8266 
29237000    265.96922   -3923.1816   -3467.3195   -3923.1816            0    8271.8078    16.893927    19.898814    20.610551    6928.6309    9112.9838    7115.4313    8587.0084    46.948081   -80.618429    604.03402   -2631.4783 
29238000    270.37789   -3893.5107   -3430.0923   -3893.5107            0    9733.7258    16.866141    19.866086    20.576652    6894.4998    9574.8284    10387.266    9239.0833   -666.03473   -1366.8382   -800.30601   -2451.3739 
29239000     245.4996    -3869.902   -3449.1241    -3869.902            0    9027.8844    16.900139    19.906131     20.61813    6936.2767    7524.2258    9578.5569    9980.8707    1171.7789    -446.7649     885.9153    -2535.877 
29240000    253.27439   -3874.5506   -3440.4469   -3874.5506            0    10925.279     16.87464    19.876097    20.587022     6904.928    10970.458    9478.0743    12327.306   -839.28733   -1658.7826   -296.66733   -2340.2572 
29241000    254.35993   -3918.7391   -3482.7749   -3918.7391            0    9598.9865    16.870887    19.871677    20.582443    6900.3223    8162.8279    10245.888    10388.243   -1800.7039    225.44126   -898.92232   -2516.7894 
29242000    266.14989   -3903.9482   -3447.7764   -3903.9482            0    7547.4865    16.904563    19.911342    20.623527     6941.725    7676.0373    7537.0196    7429.4025    278.45676    478.49821    763.59842   -2683.6845 
29243000      254.223   -3856.3122   -3420.5827   -3856.3122            0    10398.581    16.849647    19.846659     20.55653    6874.2927    12230.163    9486.6486    9478.9315   -879.31249   -1320.5903   -807.78583   -2378.0781 
29244000    260.63531   -3874.2084   -3427.4884   -3874.2084            0    10549.953    16.861811    19.860986     20.57137    6889.1915    10336.011    10801.822    10512.025   -1467.7018   -651.80514    1125.1962   -2367.5157 
29245000    269.71962   -3874.7167   -3412.4265   -3874.7167            0    9695.6625    16.862569    19.861878    20.572294    6890.1198    10324.597    9839.2344    8923.1564    35.109348    188.36725    1251.9332   -2438.1547 
29246000    257.53416   -3890.1029   -3448.6982   -3890.1029            0    9178.3429    16.856855    19.855148    20.565323    6883.1182    9128.5456    9371.5594    9034.9237    1686.0709   -290.16071    135.11555   -2527.3466 
29247000    245.83538   -3881.7564   -3460.4029   -3881.7564            0    8888.1724    16.901429     19.90765    20.619703    6937.8648    6468.3813    9052.6275    11143.508    -1165.488   -1221.7196     591.1964   -2561.0831 
29248000    267.05602   -3860.9509   -3403.2261   -3860.9509            0    10363.178    16.896392    19.901718    20.613559    6931.6648    9393.9376    11413.077    10282.518   -2273.3139    788.14924    899.67425   -2355.5998 
29249000     255.2969   -3891.9803   -3454.4101   -3891.9803            0    8416.4593    16.910162    19.917937    20.630358    6948.6253    7902.1999    9281.2174    8065.9608   -888.13266   -279.85546    339.51578   -2601.4982 
29250000    276.24733   -3885.1261   -3411.6477   -3885.1261            0    8855.6548    16.957259    19.973411    20.687816    7006.8454    10465.749    7250.2312    8850.9844   -1939.1946    1164.1409   -1905.4552   -2506.7091 
Loop time of 373.398 on 64 procs for 250000 steps with 864 atoms

Performance: 115.694 ns/day, 0.207 hours/ns, 669.527 timesteps/s
193.7% CPU use with 32 MPI tasks x 2 OpenMP threads

MPI task timing breakdown:
Section |  min time  |  avg time  |  max time  |%varavg| %total
---------------------------------------------------------------
Pair    | 27.179     | 33.695     | 39.474     |  51.5 |  9.02
Bond    | 0.84457    | 1.1371     | 1.9806     |  21.3 |  0.30
Kspace  | 165.51     | 173.43     | 179.93     |  31.5 | 46.45
Neigh   | 3.6567     | 4.4126     | 4.9334     |  17.1 |  1.18
Comm    | 69.845     | 75.814     | 83.86      |  35.7 | 20.30
Output  | 0.58498    | 0.58533    | 0.58708    |   0.0 |  0.16
Modify  | 68.436     | 72.165     | 75.795     |  17.4 | 19.33
Other   |            | 12.16      |            |       |  3.26

Nlocal:        27.0000 ave          32 max          22 min
Histogram: 1 1 2 5 6 2 7 4 1 3
Nghost:        2630.38 ave        2671 max        2606 min
Histogram: 2 5 5 6 6 3 4 0 0 1
Neighs:        8797.34 ave       10534 max        6887 min
Histogram: 2 2 5 1 4 4 4 4 3 3

Total # of neighbors = 281515
Ave neighs/atom = 325.82755
Ave special neighs/atom = 2.0000000
Neighbor list builds = 13677
Dangerous builds = 1

unfix		3
unfix		2
unfix		1

write_data	data.final.${pid}
write_data	data.final.1
System init for write_data ...
PPPM initialization ...
  extracting TIP4P info from pair style
  using 12-bit tables for long-range coulomb (../kspace.cpp:340)
  G vector (1/distance) = 0.37434775
  grid = 24 24 24
  stencil order = 5
  estimated absolute RMS force accuracy = 0.0031511878
  estimated relative force accuracy = 9.4897084e-06
  using double precision FFTW3
  3d grid and FFT values/proc = 3549 432
Last active /omp style is kspace_style pppm/tip4p/omp
WARNING: Not all mixed pair coeffs generated from mixing. Use write_data with 'pair ij' option to store all pair coeffs. (../write_data.cpp:312)

write_restart   restart.lmp.${pid}
write_restart   restart.lmp.1
System init for write_restart ...
PPPM initialization ...
  extracting TIP4P info from pair style
  using 12-bit tables for long-range coulomb (../kspace.cpp:340)
  G vector (1/distance) = 0.37434775
  grid = 24 24 24
  stencil order = 5
  estimated absolute RMS force accuracy = 0.0031511878
  estimated relative force accuracy = 9.4897084e-06
  using double precision FFTW3
  3d grid and FFT values/proc = 3549 432
Last active /omp style is kspace_style pppm/tip4p/omp
Total wall time: 0:06:13
