LAMMPS (30 Jul 2021)
Processor partition = 1
  using 2 OpenMP thread(s) per MPI task
using multi-threaded neighbor list subroutines
variable        pid world 0 1
variable        phase world IceIh Liquid

shell cd ${phase}
shell cd Liquid
include Restart.lmp
echo both
log log.lammps
#include		in.partitions
include		in.temp
variable        temperature equal 244.50
variable	tempDamp equal 100.0
include		in.pressure
variable        pressure equal 1896.6
variable        pressureDamp equal 1000.0 # This is 1 ps
include		in.seed
variable        seed equal 745823

units		real
atom_style	full
read_restart	restart.lmp.${pid}
read_restart	restart.lmp.1
Reading restart file ...
  restart file = 30 Jul 2021, LAMMPS = 30 Jul 2021
  restoring atom style full from restart
  orthogonal box = (0.19989327 1.3269791 0.24386932) to (18.007679 22.302199 21.969326)
  2 by 4 by 4 MPI processor grid
  restoring pair style lj/cut/tip4p/long/omp from restart
  restoring bond style harmonic/omp from restart
  restoring angle style harmonic/omp from restart
  864 atoms
  576 bonds
  288 angles
Finding 1-2 1-3 1-4 neighbors ...
  special bond factors lj:    0        0        0       
  special bond factors coul:  0        0        0       
     2 = max # of 1-2 neighbors
     1 = max # of 1-3 neighbors
     1 = max # of 1-4 neighbors
     2 = max # of special neighbors
  special bonds CPU = 0.002 seconds
  read_restart CPU = 0.007 seconds
include 	in.setup
variable	out_freq equal 1000
variable	out_freq2 equal 10000
variable	out_freq3 equal 1000

timestep	2.0

neigh_modify    delay 7 every 1

include		in.tip4p
# This is TIP4P/Ice

# create groups ###
group ox type 2
288 atoms in group ox
group hy type 1
576 atoms in group hy

# set charges - beside manually ###
set group ox charge -1.1794
Setting atom values ...
  288 settings made for charge
set group hy charge 0.5897
Setting atom values ...
  576 settings made for charge

# ### TIP3P Potential Parameters ###
pair_style lj/cut/tip4p/long/omp 2 1 1 1 0.1577 8.5
pair_coeff 1 1*2 0.000 0.000
pair_coeff 2 2 0.21084 3.1668
bond_style  harmonic
bond_coeff  1 450 0.9572
angle_style harmonic
angle_coeff 1 55 104.52
kspace_style pppm/tip4p/omp 1.0e-5
pair_modify tail yes

thermo          ${out_freq}
thermo          1000
thermo_style    custom step temp pe etotal epair emol press lx ly lz vol pxx pyy pzz pxy pxz pyz enthalpy

restart 	${out_freq3} restart.lmp.${pid} restart2.lmp.${pid}
restart 	1000 restart.lmp.${pid} restart2.lmp.${pid}
restart 	1000 restart.lmp.1 restart2.lmp.${pid}
restart 	1000 restart.lmp.1 restart2.lmp.1


include         in.dump
dump            myDump all atom ${out_freq2} dump.water.${pid}
dump            myDump all atom 10000 dump.water.${pid}
dump            myDump all atom 10000 dump.water.1
dump            myDump2 all dcd ${out_freq2} dump.dcd
dump            myDump2 all dcd 10000 dump.dcd
dump_modify     myDump append yes
dump_modify     myDump2 append yes


variable natoms 	equal  "count(all)"                        # NUMBER ATOMS
variable H      	equal  "enthalpy/v_natoms"                 # ENTHALPY-per-atom
variable Vol      	equal  "vol/v_natoms"                 # volume-per-atom
fix AVG all 		ave/time ${out_freq} 1 ${out_freq} v_Vol v_H file vol_enthalpy.dat
fix AVG all 		ave/time 1000 1 ${out_freq} v_Vol v_H file vol_enthalpy.dat
fix AVG all 		ave/time 1000 1 1000 v_Vol v_H file vol_enthalpy.dat


timer           timeout 23:50:00 every 1000
New timer settings: style=normal  mode=nosync  timeout=23:50:00

fix 		1 all shake 1e-6 200 0 b 1 a 1
Finding SHAKE clusters ...
       0 = # of size 2 clusters
       0 = # of size 3 clusters
       0 = # of size 4 clusters
     288 = # of frozen angles
  find clusters CPU = 0.000 seconds
fix             2 all nph iso ${pressure} ${pressure} ${pressureDamp}
fix             2 all nph iso 1896.6 ${pressure} ${pressureDamp}
fix             2 all nph iso 1896.6 1896.6 ${pressureDamp}
fix             2 all nph iso 1896.6 1896.6 1000
fix             3 all temp/csvr ${temperature} ${temperature} ${tempDamp} ${seed}
fix             3 all temp/csvr 244.5 ${temperature} ${tempDamp} ${seed}
fix             3 all temp/csvr 244.5 244.5 ${tempDamp} ${seed}
fix             3 all temp/csvr 244.5 244.5 100 ${seed}
fix             3 all temp/csvr 244.5 244.5 100 745823

run             250000
PPPM initialization ...
  extracting TIP4P info from pair style
  using 12-bit tables for long-range coulomb (../kspace.cpp:340)
  G vector (1/distance) = 0.37186569
  grid = 24 24 25
  stencil order = 5
  estimated absolute RMS force accuracy = 0.0033482989
  estimated relative force accuracy = 1.0083303e-05
  using double precision FFTW3
  3d grid and FFT values/proc = 3822 576
Last active /omp style is kspace_style pppm/tip4p/omp
Neighbor list info ...
  update every 1 steps, delay 7 steps, check yes
  max neighbors/atom: 2000, page size: 100000
  master list distance cutoff = 10.8154
  ghost atom cutoff = 10.8154
  binsize = 5.4077, bins = 4 4 5
  1 neighbor lists, perpetual/occasional/extra = 1 0 0
  (1) pair lj/cut/tip4p/long/omp, perpetual
      attributes: half, newton on, omp
      pair build: half/bin/newton/omp
      stencil: half/bin/3d
      bin: standard
Setting up Verlet run ...
  Unit style    : real
  Current step  : 5000000
  Time step     : 2
  Walltime left : 23:49:59.96
Per MPI rank memory allocation (min/avg/max) = 10.19 | 10.19 | 10.20 Mbytes
Step Temp PotEng TotEng E_pair E_mol Press Lx Ly Lz Volume Pxx Pyy Pzz Pxy Pxz Pyz Enthalpy 
 5000000    247.38678   -3909.5341   -3485.5217   -3909.5341            0     1237.085    17.807786     20.97522    21.725457    8114.9409    1321.3306    848.51977    1541.4045   -1039.5662   -637.39912    1249.6351    -3339.115 
 5001000    245.60209   -3929.0087   -3508.0552   -3929.0087            0    1188.0469    17.806597     20.97382    21.724007    8113.3164    2116.6522   -49.342913    1496.8314   -286.84114    81.702511   -360.30192   -3367.4802 
 5002000    250.31379   -3924.6577   -3495.6284   -3924.6577            0    1880.8762    17.805991    20.973105    21.723267    8112.4873    1669.3983     2061.025    1912.2052   -762.76074    365.02342   -609.78555   -3273.0976 
 5003000    246.02684   -3927.4486    -3505.767   -3927.4486            0    376.33539    17.734947    20.889425    21.636594    8015.7711    376.80082    2016.9973    -1264.792   -301.00386    939.73717    -506.4641   -3461.7727 
 5004000    228.58982   -3917.8807   -3526.0856   -3917.8807            0    1965.8721    17.683939    20.829345    21.574365    7946.8066    3673.3976    313.35223    1910.8664    634.27297    627.69617   -195.33326   -3298.2488 
 5005000    246.12836   -3897.3997   -3475.5442   -3897.3997            0    1170.1113    17.731416    20.885265    21.632286    8010.9831    712.70323    1507.0188     1290.612    1030.1783   -190.51097    247.53936   -3338.8377 
 5006000    248.79788   -3901.8772   -3475.4461   -3901.8772            0    1675.9795    17.811724    20.979858    21.730261    8120.3256    2194.3252    1123.1224    1710.4907    1034.6428   -485.09928    893.88346   -3276.9655 
 5007000    242.73376   -3906.9481   -3490.9108   -3906.9481            0    1132.8497    17.744617    20.900815    21.648392    8028.8898    1786.0054    389.55314    1222.9906    518.82597   -1051.1406   -398.32585   -3358.2618 
 5008000    240.30747    -3891.838   -3479.9593    -3891.838            0    1551.7787    17.807901    20.975356    21.725598     8115.099    2069.0033    1589.0747    997.25819    638.52219   -6.0253985   -906.97507   -3296.3056 
 5009000    255.49845    -3908.543   -3470.6274    -3908.543            0    2087.3558    17.736759     20.89156    21.638805    8018.2284    2386.3786    1644.5577    2231.1312    1161.1562   -512.06627    1062.4313    -3226.537 
 5010000    241.48119    -3910.557   -3496.6665    -3910.557            0    724.09935    17.771033    20.931929    21.680618    8064.7998    958.90549    138.59012    1074.8024   -695.61967    254.99498   -551.33124   -3411.5003 
 5011000    243.67894   -3933.9847   -3516.3274   -3933.9847            0    2972.2584    17.784897    20.948259    21.697532    8083.6896    3086.2822    2627.5951    3202.8978    600.19613    307.37098   -271.59715   -3165.9209 
 5012000    267.39894    -3911.612   -3453.2993    -3911.612            0    2027.3158    17.765445    20.925348    21.673801    8057.1948    1447.4493    2928.1115    1706.3867   -748.43808    217.48368   -318.03288   -3215.0777 
 5013000    252.98922   -3931.3017   -3497.6869   -3931.3017            0    2658.9436    17.789228     20.95336    21.702816    8089.5967    4260.3916    625.34488    3091.0943    702.22402    160.11243   -264.29411   -3183.9888 
 5014000    238.15692   -3963.2938    -3555.101   -3963.2938            0    420.65537    17.809802    20.977594    21.727917    8117.6974    1446.8082    374.83563   -559.67773   -49.783106    1405.8128    178.28623   -3505.3004 
 5015000    239.39736   -3950.7245   -3540.4056   -3950.7245            0    1340.4605    17.832371    21.004178    21.755451    8148.5977    2119.6455    802.05879    1099.6773   -251.55287    121.86054   -6.6225854   -3381.1067 
 5016000     250.5845   -3970.3324   -3540.8391   -3970.3324            0    2101.9411    17.751928    20.909427    21.657311    8038.8181    3498.2318    1651.5955    1155.9959   -258.57046    1817.5556   -163.95702   -3294.4119 
 5017000    237.38309   -3933.8407   -3526.9742   -3933.8407            0    3000.4337    17.815534    20.984346     21.73491    8125.5384    2990.4449    1911.6041    4099.2523    497.26651     603.6254   -752.02895   -3171.4149 
 5018000    235.08268   -3951.5006    -3548.577   -3951.5006            0    2039.1358    17.831989    21.003728    21.754985    8148.0741    2158.2756    1983.0543    1976.0774   -1111.3838    756.01437    53.399783   -3306.2638 
 5019000    242.55551   -3932.7275   -3516.9956   -3932.7275            0    4315.2511    17.730942    20.884707    21.631708     8010.341    5773.8211    4034.6052     3137.327    506.43496     1466.471   -806.81948   -3012.8768 
 5020000    232.87654   -3952.9115   -3553.7691   -3952.9115            0    3421.8733    17.713463    20.864119    21.610383    7986.6746    4867.4564    2763.1639    2634.9995    260.84261   -690.60162   -274.35519    -3155.198 
 5021000     242.6371   -3969.3362   -3553.4645   -3969.3362            0    1215.8133     17.80772    20.975142    21.725377     8114.851    2229.7808    1115.9467    301.71249    626.05959   -1276.7538     656.4006   -3409.5769 
 5022000    259.78791    -3970.552   -3525.2844    -3970.552            0    1848.7274    17.819419    20.988921    21.739649    8130.8543    1122.7012    2162.0317    2261.4494   -274.72916   -933.17051   -446.65113    -3306.062 
 5023000    247.06775   -3989.3958   -3565.9302   -3989.3958            0    1491.1613    17.692659    20.839615    21.585002    7958.5671    1957.5426    2116.2306    399.71061    464.14027   -673.17778    914.29351   -3392.8547 
 5024000    245.96498   -3891.6953   -3470.1198   -3891.6953            0    1406.8975    17.748837    20.905786     21.65354    8034.6195    1193.8917    2394.7343    632.06635   -411.29671    2471.2294   -760.17915   -3305.2642 
 5025000      246.461   -3957.3127    -3534.887   -3957.3127            0    2894.6767    17.709751    20.859748    21.605855    7981.6555    3385.8621    3874.9338    1423.2341   -488.77373    564.41815   -129.51721   -3197.9343 
 5026000    247.16589   -3935.7844   -3512.1505   -3935.7844            0    1285.7328    17.812495    20.980766    21.731202    8121.3806   -1351.4269    2732.1477    2476.4777   -466.45428    117.90484    557.84448   -3359.8658 
 5027000    250.40476   -3935.2965   -3506.1113   -3935.2965            0    1243.5348    17.680087    20.824807    21.569665    7941.6138    -279.3334    2786.1532    1223.7848    249.72482    266.43532   -2135.6265   -3362.0847 
 5028000    233.86259   -3953.5001   -3552.6676   -3953.5001            0    2077.5493    17.761042    20.920162     21.66843    8051.2059    2324.6558    2256.9328    1651.0593    280.98331    175.17971   -977.68803   -3308.7247 
 5029000    243.20582   -3983.4955    -3566.649   -3983.4955            0    1398.8813    17.715171    20.866131    21.612467    7988.9853    1942.8707    1513.0754    740.69786    207.55988   -321.88869   -969.48833   -3403.6637 
 5030000    255.96364   -3939.0009    -3500.288   -3939.0009            0    4438.7862    17.692641    20.839595    21.584981    7958.5439    4299.1069     5485.266    3531.9857    324.49392    818.99563    1551.4267   -2985.0905 
 5031000    250.88644   -3924.5723   -3494.5615   -3924.5723            0    2147.7643    17.702445    20.851142    21.596941    7971.7806    942.09145    4096.9485    1404.2528    484.04244   -963.24842    531.56652   -3244.8619 
 5032000    241.63192    -3933.278   -3519.1291    -3933.278            0    1195.2816    17.787058    20.950805     21.70017    8086.6377    1407.8628    2746.0482   -568.06627    1134.6226   -638.86686    107.85596   -3378.1632 
 5033000     242.3722   -3937.8364   -3522.4187   -3937.8364            0    471.27318    17.739585    20.894888    21.642253    8022.0615    1386.1964   -73.876652    101.49978     890.0664   -546.67475    1508.5301   -3467.2828 
 5034000    228.06166   -3943.9612   -3553.0713   -3943.9612            0    893.32396    17.718498     20.87005    21.616526    7993.4872   -31.634064    1260.4281    1451.1779    318.87223   -1320.5502    167.81602   -3448.9305 
 5035000    243.46909   -3979.4222   -3562.1245   -3979.4222            0    1547.9514     17.75348    20.911255    21.659204    8040.9263    1252.3103    1684.5536    1706.9903   -758.43815   -677.20398   -22.725651   -3380.5983 
 5036000    241.27654   -3975.4149   -3561.8752   -3975.4149            0    3164.2135    17.786852    20.950562    21.699918    8086.3562    2455.8905     4524.991     2511.759    181.44054     2151.689    1721.3538   -3188.7156 
 5037000    245.43311   -3957.6604   -3536.9964   -3957.6604            0     3089.348      17.7405    20.895966    21.643368    8023.3022    2272.4288    3593.3298    3402.2855    122.21349   0.48050544    564.93315   -3175.5068 
 5038000    244.91176   -3956.7514    -3536.981   -3956.7514            0    2509.7369    17.860573    21.037396    21.789858    8187.3204    1732.1913    4465.7494      1331.27   -386.00035    -474.2294   -442.08517   -3237.3092 
 5039000    248.32665   -3962.4467   -3536.8233   -3962.4467            0    2163.8419    17.830663    21.002166    21.753368    8146.2567    2285.3647    2921.6326    1284.5285   -1241.5882   -1586.2153    1603.8266   -3279.7485 
 5040000    235.36556   -3945.1632   -3541.7547   -3945.1632            0    674.84716    17.820841    20.990597    21.741385    8132.8022    307.98644    732.91031    983.64472    378.53695    -686.0473     728.5874    -3461.712 
 5041000    233.90441   -3937.4054   -3536.5012   -3937.4054            0       1232.9    17.774573      20.9361    21.684938    8069.6211    2056.7193     2131.934    -489.9534       481.08   -211.35823    407.57861   -3391.4047 
 5042000    246.52949   -3947.3408   -3524.7977   -3947.3408            0    2672.1999    17.763105    20.922591    21.670946    8054.0108    3118.4048     2521.544    2376.6511    686.66954    186.05959    49.858551   -3210.9224 
 5043000    247.09774   -3929.8039   -3506.2868   -3929.8039            0    3672.2649    17.649497    20.788776    21.532345    7900.4641    2549.4168    3863.6775    4603.7003     512.8602    -666.0118    1050.5302   -3083.1679 
 5044000    243.37493   -3938.4069   -3521.2707   -3938.4069            0    1916.6177    17.633808    20.770297    21.513205    7879.4141    3164.9789    361.38953    2223.4846   -376.41215   -274.94834    587.62314    -3301.026 
 5045000    231.40679   -3952.4199   -3555.7966   -3952.4199            0    601.21168    17.771989    20.933056    21.681785     8066.102    526.28686    1706.3482   -429.00005    -1121.026   -1219.5363   -1238.5481   -3485.0725 
 5046000    255.00624   -3944.1958   -3507.1238   -3944.1958            0    695.37453    17.692664    20.839621    21.585009    7958.5746   -790.50104    2202.1907    674.43393    547.70913   -360.97209   -161.07619   -3426.4133 
 5047000    241.44926   -3957.9648    -3544.129   -3957.9648            0    969.30748    17.733878    20.888166     21.63529     8014.321    396.27788    1040.2742    1471.3703    715.43362   -83.975028    158.83863   -3430.8357 
 5048000    244.04803   -3943.1497   -3524.8598   -3943.1497            0    1098.9323    17.774543    20.936064    21.684901    8069.5801    1132.7857    619.43895    1544.5721     290.2935   -1096.2165    338.11631   -3395.5302 
 5049000    253.27742   -3926.1052   -3491.9964   -3926.1052            0    1832.7253    17.737898    20.892901    21.640194    8019.7723    2031.7433    950.78092    2515.6517    352.93189    -108.0915   -350.82255   -3277.6405 
 5050000    239.30258   -3943.9447   -3533.7883   -3943.9447            0    1459.8867    17.735468    20.890039     21.63723     8016.477    2712.3128    514.87829    1152.4691   -349.56703   -170.23848    185.00578   -3363.1099 
 5051000    251.94296   -3935.8515   -3504.0298   -3935.8515            0    1851.8948    17.782966    20.945985    21.695177    8081.0578     2029.667    1275.9714    2250.0461    -515.0789    507.53773    467.31117   -3285.7767 
 5052000    249.34613   -3962.8097    -3535.439   -3962.8097            0    5083.9563    17.667256    20.809693    21.554011    7924.3358    6105.6406     3984.406    5161.8222   -306.73494     225.7331   -147.03511   -2947.8947 
 5053000    242.93573   -3964.1787   -3547.7952   -3964.1787            0    2418.4698    17.784744     20.94808    21.697346    8083.4818    1120.3604    4297.0958    1837.9531    1602.3746   -817.16197   -33.058631   -3262.6835 
 5054000    264.73337   -3954.8086   -3501.0647   -3954.8086            0    1656.3194    17.715255     20.86623    21.612569    7989.0986    1964.7501    1940.9408    1063.2674   -1709.3735   -434.72593    475.35744   -3308.0822 
 5055000    248.39755   -3942.5427   -3516.7978   -3942.5427            0   -171.27338    17.855381    21.031281    21.783524    8180.1824   -683.82169    483.13738   -313.13583   -834.96554    924.43189    1493.2917   -3537.2306 
 5056000    248.42614   -3903.4732   -3477.6792   -3903.4732            0    1244.3722    17.877019    21.056767    21.809921    8209.9568    1860.1988    1694.2277    178.68997   -787.50476    681.75764    89.641616   -3328.6858 
 5057000    258.55564    -3951.479   -3508.3234    -3951.479            0    2668.6454    17.780936    20.943594      21.6927    8078.2901    2456.8598    2802.4771    2746.5992   -667.53386   -157.11713   -604.29708   -3193.9208 
 5058000    248.54133   -3950.0599   -3524.0686   -3950.0599            0    1701.0277    17.784971    20.948346    21.697622    8083.7903    1863.4981    1586.1764    1653.4087   -1282.0092    -434.1529   -593.24103   -3323.5279 
 5059000     245.1641   -3939.3619   -3519.1591   -3939.3619            0    3126.9675    17.724677    20.877329    21.624065    8001.8537    3382.9548       2684.4    3313.5477   -378.70689   -273.74202   -1041.0273   -3154.2456 
 5060000    234.97907   -3971.0667   -3568.3206   -3971.0667            0    2718.6568    17.726906    20.879954    21.626784    8004.8724    1467.9939    3562.9082    3125.0682    -996.8842   -1254.0472   -1267.8513   -3250.9369 
 5061000    235.52884   -3959.8356   -3556.1472   -3959.8356            0    1580.5422    17.770222    20.930975     21.67963    8063.6964    2190.9694    1721.6995     828.9577    208.47238    387.15938   -69.720832   -3370.2743 
 5062000    232.27547   -3912.1871   -3514.0749   -3912.1871            0    746.36683    17.797806    20.963465    21.713282    8101.3058    1318.6129     1309.876   -389.38836     180.7364   -1323.8729   -292.09681   -3425.8922 
 5063000    254.58329   -3912.7582   -3476.4111   -3912.7582            0    2809.7107    17.750187    20.907376    21.655187    8036.4526    1988.9501    4367.4201    2072.7619   -207.81076   -281.96215   -162.18049   -3147.1034 
 5064000    251.68961   -3947.7142   -3516.3268   -3947.7142            0    1789.2441    17.765573    20.925498    21.673957    8057.3684     1500.573    1416.3047    2450.8548    1050.8038    -328.6247    -1011.283   -3306.0755 
 5065000     235.6027   -3966.2895   -3562.4745   -3966.2895            0    3436.6135    17.795266    20.960473    21.710183    8097.8376    2750.7988    3609.9358    3949.1061   -1269.5198    1090.6121    1214.7646   -3156.6151 
 5066000    253.29496   -3942.6271   -3508.4882   -3942.6271            0    2480.5118    17.845366    21.019484    21.771305    8166.4251    2840.2832    1737.2826    2863.9696    936.37942    127.17355    2267.0828   -3213.0619 
 5067000    230.64734   -3966.0066    -3570.685   -3966.0066            0    1320.4629    17.850107    21.025069    21.777089    8172.9358    3214.7514     1006.539   -259.90168   -643.92668    -300.8268    583.83525   -3413.2939 
 5068000    236.64972   -3951.2332   -3545.6236   -3951.2332            0    691.12059     17.90124    21.085296    21.839471    8243.3728    277.57782    1870.0314   -74.247479    611.24057    1554.5096   -140.37507   -3462.5363 
 5069000    239.29315   -3974.2926   -3564.1523   -3974.2926            0    537.40023    17.851804    21.027067    21.779159    8175.2668    444.72455    691.90462     475.5715   -35.304057    403.82601     229.9123   -3500.0792 
 5070000    239.46125   -3922.6834    -3512.255   -3922.6834            0    2623.2772    17.752074    20.909598    21.657488    8039.0155    3460.1237    3526.8829    882.82494    154.22681   -123.76951   -660.42359   -3204.6999 
 5071000    235.92554   -3907.7719   -3503.4036   -3907.7719            0    2354.8706    17.718683    20.870268    21.616752    7993.7379    2266.9202    2257.1053    2540.5864     213.7431    -403.5937    1265.7132   -3228.8717 
 5072000    249.38973   -3842.1236   -3414.6781   -3842.1236            0    723.90064    17.924852    21.113107    21.868277    8276.0345    2161.1006   -735.42682    746.02813     988.7352    185.78224    540.53645   -3327.3052 
 5073000    236.97589   -3952.2965    -3546.128   -3952.2965            0    2479.7247    17.731349    20.885187    21.632204    8010.8928    2301.4366    1218.7894    3918.9482    146.12734   -1500.6415    681.45395   -3256.4201 
 5074000    249.27641   -3962.5561   -3535.3049   -3962.5561            0     3064.531    17.754968    20.913007    21.661019    8042.9481    1575.2783    5072.7932    2545.5214    990.29409    1713.8546    528.35724   -3175.8411 
 5075000    249.90077   -3958.0853   -3529.7639   -3958.0853            0    771.67538    17.855512    21.031434    21.783682    8180.3613    29.749518    2340.9922   -55.715546    110.37721    1658.8732    -1094.007   -3437.7014 
 5076000    242.44386   -3927.2153   -3511.6749   -3927.2153            0    1544.3532    17.747025    20.903651    21.651329     8032.158    3154.1201    125.87456    1353.0651    4.5539684   -824.67067    306.81687   -3330.7681 
 5077000    243.18468   -3953.0646   -3536.2544   -3953.0646            0    743.54508    17.756485    20.914794    21.662871    8045.0105     71.29749    1371.0012    788.33658     171.0852   -363.08041    73.295001   -3449.0156 
 5078000    264.25085   -3918.2124   -3465.2955   -3918.2124            0    563.46744    17.909189    21.094659    21.849169     8254.359     919.7223    209.44362    561.23639    313.34825     -653.637   -311.78599   -3397.4645 
 5079000    235.76009   -3945.7013   -3541.6165   -3945.7013            0    2174.0969     17.80726      20.9746    21.724816    8114.2224     1269.413    2901.4011    2351.4767    1153.9034    1010.6359   -522.10803   -3284.3391 
 5080000    244.70663   -3895.7904   -3476.3716   -3895.7904            0    2236.4012    17.743308    20.899274    21.646795    8027.1133    1231.3236    2061.0954    3416.7846      242.046    108.82314   -25.996072   -3214.5623 
 5081000    244.61484   -3949.8942   -3530.6327   -3949.8942            0   -386.02102      17.8394    21.012457    21.764027    8158.2377    569.38852   -1149.8874   -577.56417    392.31347    242.69133   -624.11924   -3576.5613 
 5082000    236.95199   -3966.1319   -3560.0043   -3966.1319            0    2523.6819    17.760939    20.920041    21.668305    8051.0661     2762.909    1385.2324    3422.9044    731.56805    791.96812   -69.943088   -3263.6823 
 5083000    237.38403    -3962.187   -3555.3189    -3962.187            0    828.92147    17.839183    21.012201    21.763761    8157.9388    906.29083    804.19643    776.27713    -255.5864   -845.09355    -699.3565   -3456.6978 
 5084000    251.82847   -3922.3624    -3490.737   -3922.3624            0    2190.8045    17.859724    21.036396    21.788822    8186.1527    2699.3688    2287.3633    1585.6813    355.73505   -450.11569    666.00357   -3229.1842 
 5085000    238.13737   -3941.4331   -3533.2738   -3941.4331            0    2019.5876    17.782024    20.944876    21.694028    8079.7736    2434.4204    2150.5743    1473.7681    511.43405   -879.65317   -657.46644   -3295.2952 
 5086000    260.92882   -3952.1402   -3504.9171   -3952.1402            0    3259.2479    17.661665    20.803108     21.54719    7916.8153    3502.0038    2365.2801    3910.4598    664.07384   -409.45133   -31.838218   -3128.6088 
 5087000    233.52222   -3937.9402   -3537.6911   -3937.9402            0    2024.1282    17.738427    20.893524     21.64084    8020.4901    1746.6445    846.36237    3479.3777    86.815669    56.588405    207.15112   -3300.9276 
 5088000    260.15689   -3935.5876   -3489.6875   -3935.5876            0    2738.0426    17.755586    20.913735    21.661773    8043.7881    2817.7888      2064.56    3331.7789    -996.7784    430.13637    839.83837   -3168.4867 
 5089000    243.70651   -3982.4624   -3564.7578   -3982.4624            0    2491.5113    17.667998    20.810568    21.554916    7925.3348    1846.0338     4071.235    1557.2651    514.90641    652.11299   -653.18069   -3276.7818 
 5090000    248.61886   -3926.9349   -3500.8107   -3926.9349            0    1931.7333    17.668637     20.81132    21.555695    7926.1942     1349.132    1120.6658    3325.4021    932.70951    805.64036    555.38084   -3277.5112 
 5091000    233.19202   -3936.9958   -3537.3127   -3936.9958            0    2489.1741    17.697065    20.844805    21.590378    7964.5147    1473.5137    1797.3011    4196.7075    521.78124    560.62519   -558.80032   -3248.1845 
 5092000    238.38002   -3910.2637   -3501.6885   -3910.2637            0     2568.545     17.63839    20.775693    21.518794    7885.5573    2967.4416    1408.1174    3330.0759   -337.68749    433.77795   -1557.5166   -3206.2987 
 5093000    250.13222   -3967.0334   -3538.3153   -3967.0334            0    2547.9459    17.645931    20.784576    21.527995    7895.6765    2106.6391    4143.2114    1393.9872    182.68286    951.62376    295.72024   -3244.9185 
 5094000    233.84219   -3924.7182   -3523.9207   -3924.7182            0    2667.6582    17.637356    20.774475    21.517533    7884.1706    2529.9216    1146.4259    4326.6271    550.01966   -1225.1408   -855.05066   -3217.1866 
 5095000    247.13333   -3961.0694   -3537.4913   -3961.0694            0    1809.1107    17.706061    20.855401    21.601353    7976.6665    2804.1727    1585.9382    1037.2212    711.54181   -1208.6897   -139.36141   -3327.0347 
 5096000     266.7611   -3950.3704    -3493.151   -3950.3704            0     2142.893    17.720616    20.872545     21.61911    7996.3546    1008.9099    2727.4057    2692.3635   -685.33046   -3.4528823   -776.39041   -3243.2498 
 5097000    257.34473   -3963.9176   -3522.8376   -3963.9176            0    2182.7355    17.810253    20.978125    21.728467     8118.314    2957.3409    2161.4017     1429.464   -1035.1965    258.58633   -1539.3468   -3264.4076 
 5098000    234.91757   -3966.0115   -3563.3708   -3966.0115            0    2450.2708    17.748608    20.905516     21.65326    8034.3078    2574.1767    1889.7138    2886.9217   -1473.1832    803.29862    1369.0981   -3276.2674 
 5099000    247.16047   -3958.2121   -3534.5875   -3958.2121            0    1610.5955    17.756114    20.914357    21.662417    8044.5054    684.81413    2944.9653    1202.0071    121.55457    1203.5663    1320.4223   -3345.6311 
 5100000    234.72047   -3955.5259   -3553.2231   -3955.5259            0     2241.168    17.726571    20.879559    21.626375    8004.4182    2134.3484    1795.3989    2793.7567    1433.1021    256.97359   -910.33861   -3291.5976 
 5101000    239.27394   -3987.7062   -3577.5988   -3987.7062            0     3111.047    17.691784    20.838585    21.583935     7957.387    2449.8196    4733.4156     2149.906     893.4044    128.79375   -602.41667   -3216.5608 
 5102000    254.98185   -3944.3355   -3507.3054   -3944.3355            0    2464.4797    17.731682    20.885579     21.63261    8011.3438     280.1071    4304.4448    2808.8871    507.66067    1381.5099   -71.446011   -3219.3624 
 5103000    245.22049   -3944.9762   -3524.6767   -3944.9762            0    936.17612     17.72891    20.882315    21.629229     8007.588     1454.245    1497.5655   -143.28212   -892.39997    112.66899   -77.979552   -3415.3477 
 5104000    238.89804   -3939.1145   -3529.6514   -3939.1145            0    1457.6455    17.752242    20.909796    21.657693    8039.2435    499.86818    1340.4047    2532.6636   -458.09867   -343.73707   -954.24843   -3358.7511 
 5105000    256.75437   -3959.6123   -3519.5441   -3959.6123            0    1059.3874    17.723262    20.875662    21.622338    7999.9371    420.01554    985.81352    1772.3331   -996.55422   -622.10623   -1881.0612   -3395.9445 
 5106000    224.96129   -3948.4432   -3562.8672   -3948.4432            0    1649.5715    17.635788    20.772628     21.51562     7882.068    1355.0161    2367.0503    1226.6482    418.56087    551.86222   -1109.6196   -3373.2459 
 5107000    243.71691   -3963.2581   -3545.5356   -3963.2581            0    2330.8359    17.622466    20.756937    21.499368    7864.2199    2581.9338    1798.6598    2611.9141    147.54005   -1006.2043    1158.8823   -3278.2084 
 5108000    249.36164   -3949.8926   -3522.4953   -3949.8926            0    374.14083    17.654465    20.794628    21.538406    7907.1369    581.17497     1078.528   -537.28048   -101.96452    -561.0708    243.17913   -3479.3503 
 5109000    228.59979   -3940.3332    -3548.521   -3940.3332            0    2118.5795    17.589731     20.71838    21.459431     7820.476    4985.1293   -423.60306    1794.2123   -305.91616   -1181.9259   -70.853259   -3306.8893 
 5110000    242.30402   -3950.3326   -3535.0318   -3950.3326            0    2787.3667    17.627043    20.762329    21.504952    7870.3491    3604.8639    2181.5504    2575.6857    -300.3715   -518.17448     447.1438   -3215.0952 
 5111000    249.66239   -3950.6501   -3522.7373   -3950.6501            0    3482.7233     17.63439    20.770982    21.513914    7880.1938    3959.5067    3330.2862     3158.377    -270.7698    486.99898   -638.56284   -3122.4869 
 5112000     243.7311   -3945.8223   -3528.0756   -3945.8223            0    2705.9364     17.57551    20.701629    21.442081    7801.5228    2710.3915    1962.3036    3445.1142    793.26723    1203.4394   -293.41273   -3220.2017 
 5113000    240.13659   -3938.1875   -3526.6016   -3938.1875            0    515.60325    17.691737    20.838529    21.583878    7957.3232    966.08399    1446.0792   -865.35349    226.65262    1000.1107    282.15517   -3466.7662 
 5114000    266.92464   -3925.8541   -3468.3544   -3925.8541            0    2396.2486    17.648044    20.787065    21.530572    7898.5128    621.42467    3123.6914    3443.6298     1248.872    1127.8269    561.87351   -3192.3265 
 5115000    244.79432   -3921.4577   -3501.8886   -3921.4577            0     1053.436    17.694463    20.841741    21.587204     7961.003    118.54111    1099.4987    1942.2683   -688.07062   -37.206042   -55.825755   -3379.5814 
 5116000    230.10067   -3925.2916   -3530.9069   -3925.2916            0    1838.6022    17.687918    20.834031    21.579219     7952.172    2480.9464    2148.8298    886.03037    69.621347   -139.54109   -486.62332   -3317.6764 
 5117000     241.8801   -3950.2017   -3535.6275   -3950.2017            0    2260.9496    17.729848    20.883419    21.630373    8008.8588     2286.562    2731.0163    1765.2706   -250.30803    1495.6043   -279.91124   -3271.5463 
 5118000    238.36966   -3947.7164    -3539.159   -3947.7164            0    2289.7116    17.698813    20.846864    21.592511    7966.8752    2916.9212    1490.6039    2461.6097    490.23875    1079.3131    1113.0608   -3273.1203 
 5119000    243.97557   -3918.1225   -3499.9567   -3918.1225            0    1880.1545    17.789954    20.954216    21.703702    8090.5878    915.35087    3519.4744    1205.6382   -1289.9006    1282.2429   -1180.1753   -3278.1118 
 5120000    238.95288   -3917.3769   -3507.8199   -3917.3769            0    1350.0528    17.771858    20.932901    21.681625    8065.9231    1400.8963    328.08642    2321.1757    -591.8475   -506.43404    608.41231   -3349.0088 
 5121000    249.99133   -3952.3444   -3523.8678   -3952.3444            0    1794.6822    17.784854    20.948208     21.69748     8083.631    654.80288    2217.8134    2511.4303   -332.77905   -317.28704   -1753.6024   -3312.2901 
 5122000    252.46903   -3925.1248   -3492.4015   -3925.1248            0    954.25012    17.751498     20.90892    21.656787    8038.2339    1924.9241   -36.361832    974.18814   -290.32983   -1389.1972   -81.845381   -3380.5353 
 5123000    236.13475   -3946.8371   -3542.1102   -3946.8371            0    2271.6371    17.725634    20.878456    21.625232    8003.1495    1098.0601    2613.7232    3103.1281    75.055578    910.07001   -251.11732   -3276.9699 
 5124000     239.8952   -3920.2235   -3509.0513   -3920.2235            0    1086.3184     17.83709    21.009736    21.761208    8155.0678    2404.5981   -750.86774    1605.2248     447.2247   -1894.8798    1790.1756   -3379.8519 
 5125000    258.09907   -3918.9955   -3476.6225   -3918.9955            0    2103.5062    17.713228    20.863843    21.610097    7986.3571    2907.7532    1846.3096    1556.4559    60.825436    161.28706    865.35007   -3231.6212 
 5126000     244.1877   -3925.3356   -3506.8062   -3925.3356            0    2386.7461    17.669766     20.81265    21.557073    7927.7135    2555.1369    1487.2984    3117.8031     22.23494     951.3878    -1149.877   -3230.8565 
 5127000    240.72921   -3921.3703   -3508.7686   -3921.3703            0    2610.0674    17.689431    20.835813    21.581065    7954.2126     1707.239    2962.9147    3160.0484    416.40898   -1994.9281    188.02788   -3205.9903 
 5128000      246.955   -3942.0307   -3518.7583   -3942.0307            0    1349.5253    17.709944    20.859975     21.60609     7981.916    491.45669    1146.8533    2410.2659    602.50944     631.5416   -141.19977   -3361.6627 
 5129000    253.20695   -3926.9221   -3492.9341   -3926.9221            0     595.7821    17.755849    20.914045    21.662095    8044.1459   -1181.7692    929.28412    2039.8314    -113.1303   -338.73505   -172.34108   -3423.0396 
 5130000    238.90662   -3941.6365   -3532.1588   -3941.6365            0    2874.1339    17.547317    20.668421    21.407685    7764.0393    920.76301    3235.9502    4465.6885    33.514133    -199.2753    270.85767    -3206.719 
 5131000    228.68377   -3920.5015   -3528.5454   -3920.5015            0     1377.403    17.637893    20.775108    21.518188    7884.8912    297.77846    2597.5689    1236.8617   -406.83876    360.98546    296.83388   -3370.1536 
 5132000    239.57352   -3874.3944   -3463.7736   -3874.3944            0    2285.2604    17.593076     20.72232    21.463512    7824.9384    1027.4112    1608.0591     4220.311    1768.8323   -135.16032     416.9672   -3202.9827 
 5133000    229.32184   -3900.7195   -3507.6697   -3900.7195            0    1556.3251    17.687699    20.833773    21.578951     7951.876    661.90309    1362.8489    2644.2233    907.31268    710.08186    292.56651   -3327.1827 
 5134000    234.52627   -3942.7738   -3540.8038   -3942.7738            0    2465.9195    17.666349    20.808625    21.552904    7923.1154    2956.7108    2392.4694    2048.5785   -88.286267    831.91348    6.2747489   -3255.8655 
 5135000    223.56295   -3924.4964   -3541.3171   -3924.4964            0    910.08914     17.75872    20.917427    21.665597    8048.0488    57.609237    982.24147    1690.4167    265.81595   -13.967983    -713.0887   -3434.4977 
 5136000    236.74702   -3912.0385   -3506.2622   -3912.0385            0    588.47392    17.771497    20.932476    21.681185    8065.4318    1380.7428    627.08316   -242.40418    -360.5106   -365.58167     870.3778   -3437.0423 
 5137000    237.16907   -3933.8962   -3527.3965   -3933.8962            0    1379.7365    17.711173    20.861422    21.607589    7983.5773    2882.9196    743.81517     512.4748    664.37081    60.213866    298.05882   -3366.7507 
 5138000    249.10719   -3947.2863   -3520.3251   -3947.2863            0    789.24011    17.698778    20.846823    21.592468    7966.8281    2177.5562    62.426951    127.73722   -88.834134    370.37035    744.32058   -3428.6248 
 5139000    239.85448   -3969.9408   -3558.8384   -3969.9408            0     2687.247    17.644834    20.783284    21.526657    7894.2042    3896.7656    3382.5401    782.43536   -1714.5439   -1074.6007    743.68409   -3249.4587 
 5140000    245.62166   -3927.9755   -3506.9884   -3927.9755            0    1075.5205    17.669024    20.811776    21.556167    7926.7149    1582.2642    404.88804    1239.4092    1069.0258   -546.10808   -373.64391    -3382.655 
 5141000    244.34154   -3947.0497   -3528.2567   -3947.0497            0    3903.3178    17.556238     20.67893    21.418569    7775.8876    2046.4497    5059.7282    4603.7755   -1188.7459    71.719082    379.33639   -3085.6074 
 5142000    229.02566   -3913.6048   -3521.0627   -3913.6048            0    1388.5573    17.745085    20.901366    21.648962    8029.5242    1888.9934    1432.5898    844.08881    1072.6959   -726.56274    834.38252   -3358.4593 
 5143000    246.66503   -3949.8055   -3527.0301   -3949.8055            0    1618.5855    17.652262    20.792033    21.535719    7904.1777    2790.4815    250.72985    1814.5453   -497.96406   -51.682422    -762.9302   -3340.4487 
 5144000     240.6894   -3924.2476   -3511.7142   -3924.2476            0     1916.448     17.73331    20.887497    21.634597     8013.551    2519.2593    1747.0177    1483.0672    291.07742    557.69826    196.68649     -3287.74 
 5145000    251.31336   -3912.0802   -3481.3377   -3912.0802            0    1167.5291    17.738014    20.893037    21.640335    8019.9293    2109.4426   -411.46934    1804.6142    73.360441    -27.75397    159.24087   -3344.7806 
 5146000    249.65038   -3977.5414   -3549.6492   -3977.5414            0    2119.7969    17.784675    20.947998    21.697262    8083.3871    1751.5613    1556.0907    3051.7386   -219.84026   -388.45127   -1537.3748   -3299.7508 
 5147000    234.36708   -3945.5994   -3543.9023   -3945.5994            0    1494.5779    17.730833    20.884579    21.631575    8010.1936    1010.7771    1028.3135    2444.6431    360.06088   -803.77465    -6.907368    -3369.305 
 5148000    245.28103   -3958.7823    -3538.379   -3958.7823            0    1939.4254    17.677977    20.822322    21.567091    7938.7711    1386.7713    1382.0457    3049.4591    542.34431   -465.88286    1110.0252   -3313.8346 
 5149000    250.94193    -3910.493   -3480.3871    -3910.493            0    2416.1721    17.773043    20.934297    21.683071    8067.5369    3161.2369    3330.2573    757.02202   -301.20748    -31.49586    -876.6958   -3196.1081 
 5150000    240.31038   -3943.4962   -3531.6124   -3943.4962            0    2097.6817    17.720896    20.872875    21.619452    7996.7338    2987.7442    2887.8553    417.44541    321.58952    287.66031   -504.09598   -3286.9721 
 5151000    253.26843   -3925.1661   -3491.0727   -3925.1661            0    1510.2404    17.746213    20.902695    21.650338    8031.0561    1699.0993    1552.4401    1279.1819   -617.64733   -289.37006   -400.92318   -3314.1862 
 5152000    225.40657   -3935.5921   -3549.2529   -3935.5921            0    820.16076     17.73232    20.886331    21.633389    8012.2095    472.68031     1504.552    483.24997    1045.7225    394.13059   -999.71134   -3453.4173 
 5153000    237.80479   -3919.9201   -3512.3308   -3919.9201            0    1128.3567    17.773697    20.935067    21.683869    8068.4276    1710.8046    1711.6441   -37.378677    614.70849   -1086.4852   -232.76627   -3379.5574 
 5154000    225.84976   -3934.8292   -3547.7304   -3934.8292            0    1778.7488    17.741035    20.896596    21.644021    8024.0281    2714.9052    303.94183    2317.3992   -1214.6946   -799.78954    192.80788   -3339.5773 
 5155000    238.95181    -3948.566   -3539.0108    -3948.566            0    1712.1496    17.677793    20.822105    21.566866    7938.5227      1931.08    1242.5265    1962.8424    1013.8623    228.01522    1656.2463   -3340.7863 
 5156000    236.37852   -3983.1611   -3578.0164   -3983.1611            0    2539.2534    17.665665    20.807819     21.55207     7922.195    2568.7303    2335.5602    2713.4697   -511.71448    140.59175   -623.97082   -3284.6385 
 5157000    237.91908   -3958.2292    -3550.444   -3958.2292            0    1279.9818    17.676721    20.820842    21.565558    7937.0786    2248.3733    -325.9342    1917.5062    390.54484    1353.5718   -637.12276   -3402.2808 
 5158000    253.00758   -3987.4322   -3553.7859   -3987.4322            0    2134.3515    17.641771    20.779675    21.522919    7890.0925    3504.5929    345.83595    2552.6257    126.22921    371.15218    1309.3494   -3308.1884 
 5159000    242.01203   -3961.6073   -3546.8069   -3961.6073            0    2844.6522    17.620893    20.755084    21.497448    7862.1139    3085.6023    3280.1315    2168.2229    277.61616   -1039.3702   -381.52044   -3220.6366 
 5160000    258.78249   -3952.9336   -3509.3893   -3952.9336            0    1947.0828    17.680902    20.825767    21.570659    7942.7125    1678.1971    1833.4767    2329.5745      1012.21     227.1716   -979.65816   -3283.8464 
 5161000    231.36333   -3973.3564   -3576.8076   -3973.3564            0    159.47818    17.844407    21.018355    21.770135    8165.1089     170.4449    -1430.976    1738.9656   -11.252374    64.116371   -156.81923   -3557.8169 
 5162000    238.21682   -3947.7081   -3539.4126   -3947.7081            0    2733.0201    17.729467     20.88297    21.629908    8008.3421    1642.3679     3177.995    3378.6975    297.50523    467.30104   -687.86344   -3220.2137 
 5163000    255.47534   -3961.8036   -3523.9276   -3961.8036            0    2458.3376    17.688921    20.835213    21.580443    7953.5249    1421.2838      2540.71    3413.0189    757.69468   -611.91515    1107.7393   -3238.7752 
 5164000    244.07418     -3957.64   -3539.3053     -3957.64            0    3396.6082    17.765352    20.925238    21.673687    8057.0677    2452.2612    4885.5677    2851.9956   -453.69882    1188.0499   -127.53261     -3140.19 
 5165000    237.50429   -3936.3005   -3529.2262   -3936.3005            0    2796.9556    17.795565    20.960825    21.710548    8098.2455    2350.0599    2727.1412    3313.6655    123.90302    1244.1181    5.4580008   -3198.8929 
 5166000    261.45979   -3986.5565   -3538.4234   -3986.5565            0    2241.8024    17.791193    20.955675    21.705214    8092.2783    676.39869    3464.5173    2584.4913    1715.3155   -728.60864    460.34824   -3273.8513 
 5167000     232.9197   -3983.7249   -3584.5085   -3983.7249            0    1088.3682    17.824629    20.995058    21.746005    8137.9883    1438.4449     681.3601    1145.2995    375.09173   -878.28933    124.95029   -3455.3364 
 5168000     257.9741   -3963.9007    -3521.742   -3963.9007            0    1214.4581    17.823245    20.993428    21.744317    8136.0934     3347.076    201.91125    94.386956   -685.51993    592.45947    19.952633   -3377.6385 
 5169000    248.52901   -3931.0173   -3505.0471   -3931.0173            0    1907.5072    17.785148    20.948556     21.69784    8084.0329    3016.6749    1030.3424    1675.5043    1260.0324   -127.68824   -720.91744   -3280.1571 
 5170000    242.23362   -3937.7299   -3522.5498   -3937.7299            0    1394.7997     17.71411    20.864882    21.611173    7987.5507    2533.5672    1413.4735    237.35838   -201.99826   -986.12334    -1244.811   -3360.0692 
 5171000    243.40321   -3960.3463   -3543.1615   -3960.3463            0     522.0566     17.69909     20.84719    21.592848    7967.2488    105.33628     1436.534    24.299507   -609.94426    213.68521    988.72433   -3482.5016 
 5172000    256.12357   -3979.1761   -3540.1891   -3979.1761            0    3410.9961    17.727297    20.880414    21.627261    8005.4023    3109.1909    3868.0963    3255.7011   -471.88632    13.769585    110.67803   -3141.9533 
 5173000    237.45241   -3960.1163    -3553.131   -3960.1163            0    2052.2979    17.731639    20.885529    21.632558     8011.286    1894.3926    1526.8039    2735.6973    1989.8438   -427.75245    6.3893211   -3313.3479 
 5174000    248.35057   -3970.9265   -3545.2622   -3970.9265            0    1674.0759    17.698806    20.846855    21.592502    7966.8653   -396.91426    2429.6649     2989.477    332.12923    -671.1234    642.00132   -3350.7537 
 5175000    247.52728    -3960.376   -3536.1227    -3960.376            0    2369.0612    17.708184    20.857901    21.603943    7979.5361    3241.2512    2680.8312    1185.1011   -196.95299   -1129.1378   -284.98988   -3260.4271 
 5176000     247.2039   -3976.2109   -3552.5119   -3976.2109            0    2626.5517    17.668066    20.810648    21.554999    7925.4262    4453.2612    1829.8497     1596.544    586.12152    436.67611   -601.73013    -3248.924 
 5177000    232.81816   -3937.5634    -3538.521   -3937.5634            0     1748.276    17.749962     20.90711    21.654912    8036.1464     1561.625    1644.7973    2038.4056   -26.275405    839.01979    331.74843   -3333.6249 
 5178000    255.92694   -3983.5676   -3544.9176   -3983.5676            0    3395.5787    17.649661     20.78897    21.532545    7900.6843     2416.678    3782.6044    3987.4538   -71.976782   -245.62263   -476.69733   -3153.6675 
 5179000    233.47993   -3958.5227    -3558.346   -3958.5227            0   -632.34958    17.822664    20.992744    21.743608    8135.2976   -198.73192   -1430.5747   -267.74217    1010.8982    303.30026    805.06651   -3633.3711 
 5180000    240.69692   -3984.7966   -3572.2503   -3984.7966            0    2515.4828    17.709518    20.859473    21.605571    7981.3399     2252.764    2948.5938    2345.0905    1459.3909   -551.42909   -824.22462    -3279.449 
 5181000    254.95346   -3994.0996   -3557.1181   -3994.0996            0    2368.7383    17.718886    20.870507    21.616999    7994.0121    4410.0033   -45.147182    2741.3589    692.66888   -392.46896   -499.56724     -3280.96 
 5182000    269.26289   -3982.0799   -3520.5725   -3982.0799            0    1966.5558    17.637707    20.774889    21.517962    7884.6421     3215.755    139.31396    2544.5985    150.35787    -222.3405    -138.4373   -3294.4394 
 5183000    245.02878   -3978.8956   -3558.9246   -3978.8956            0    2905.9799     17.71497    20.865895    21.612222    7988.7141    2346.8132    3798.7567    2572.3698   -685.76943   -1336.4728   -497.01725    -3220.357 
 5184000    243.12343   -3994.7703    -3578.065   -3994.7703            0    2676.9318     17.70042    20.848757    21.594472    7969.0461    3088.6561    1877.0569    3065.0824   -1254.9075    84.337699    111.04335    -3266.951 
 5185000    243.08091   -3943.2603   -3526.6279   -3943.2603            0    3191.4453    17.655475    20.795817    21.539638    7908.4939    3521.9739    3886.0433    2166.3188     151.6855   -169.32787   -484.33125   -3158.5353 
 5186000    242.32403   -3933.4929   -3518.1578   -3933.4929            0    2638.0398      17.7097    20.859688    21.605793    7981.5865    1366.6622    2895.8869    3651.5702   -29.090686   -860.43975   -1269.2301   -3211.0814 
 5187000    247.12253   -3991.4206    -3567.861   -3991.4206            0    2651.9044    17.734836    20.889294    21.636458    8015.6196    1702.9245    4116.6816    2136.1071   -699.93473   -493.58757   -607.16385   -3257.8545 
 5188000    263.10144   -3960.0764   -3509.1295   -3960.0764            0    2711.6766    17.784457    20.947741    21.696996    8083.0903    2098.8447    3545.2694    2490.9156    2110.9443   -169.66424   -299.88029   -3189.4674 
 5189000    229.94797   -3966.2845   -3572.1615   -3966.2845            0    2859.6169    17.821834    20.991766    21.742596    8134.1611    3936.6159    2155.0902    2487.1447   -342.28775     153.4877   -476.53424   -3232.9297 
 5190000    252.16153   -3915.1169   -3482.9207   -3915.1169            0    319.76333    17.954182    21.147655     21.90406     8316.727    -76.91456    716.16924    320.03532    432.27797    13.724938    1602.1882   -3444.1363 
 5191000    254.08439   -3947.0248   -3511.5328   -3947.0248            0    3377.8913    17.764112    20.923778    21.672176    8055.3818    2302.1254    4347.7688    3483.7798   -525.72118   -314.29216   -378.54571   -3114.6999 
 5192000     251.1503   -3932.9769   -3502.5138   -3932.9769            0    1882.9997    17.772726    20.933924    21.682684    8067.1052    1330.1357    2030.3347    2288.5286   -494.22022    1540.0374    865.07018   -3280.9781 
 5193000    251.64284   -3948.4446   -3517.1374   -3948.4446            0    2423.9104    17.774868    20.936446    21.685297    8070.0218    2538.5416    2874.3833    1858.8063    1271.0429    1576.9059    14.728291   -3231.8601 
 5194000    253.32624   -3927.3902   -3493.1977   -3927.3902            0    2924.2589    17.742183    20.897947    21.645421    8025.5854    2093.1716    4296.4335    2383.1717    7.6623011    866.93959    595.24654    -3150.928 
 5195000    246.86911   -3938.4785   -3515.3533   -3938.4785            0    1422.2275    17.750148     20.90733    21.655139    8036.3994     2461.368     1799.174    6.1404634   -713.55825   -40.803795   -1002.4524   -3348.6645 
 5196000    239.97045   -3924.2452    -3512.944   -3924.2452            0    2683.9984    17.643422     20.78162    21.524933    7892.3079    2078.2545    3205.6188    2768.1219    51.393681    1468.3064    1514.9424   -3204.0125 
 5197000    247.10405   -3926.3594   -3502.8315   -3926.3594            0    2597.5867    17.629974    20.765781    21.508527    7874.2758    1031.1438    2709.2807    4052.3355   -814.03223    21.257171   -271.28008   -3204.5292 
 5198000    248.96469   -3926.7832   -3500.0663   -3926.7832            0    1876.1487    17.641298    20.779119    21.522342    7889.4586    2119.3137     2552.656    956.47624   -88.502667    47.302548   -89.884604   -3284.1973 
 5199000    253.95328   -3930.5509   -3495.2837   -3930.5509            0    2849.8067    17.580307     20.70728    21.447934    7807.9134     3835.702    1850.7789    2862.9393   -44.478569    21.180402    511.20913    -3170.775 
 5200000    247.65273   -3969.8256   -3545.3573   -3969.8256            0    1308.8249    17.693751    20.840901    21.586334    7960.0408    281.28798    2154.1097     1491.077   -237.05381   -869.31892   -433.96591   -3393.4171 
 5201000    231.17215    -3928.172   -3531.9508    -3928.172            0    2718.5542    17.678648    20.823112    21.567909    7939.6745    2183.6242    2669.9541    3302.0843   -743.23324   -540.11783   -34.539826    -3217.164 
 5202000    240.37095   -3931.3553   -3519.3677   -3931.3553            0    1266.2706    17.667999    20.810569    21.554917    7925.3354    1572.7509    1146.5925    1079.4684   -267.85105    815.12314   -1382.1216   -3373.0085 
 5203000    240.95428   -3970.8954    -3557.908   -3970.8954            0    2251.1945    17.681001    20.825884     21.57078     7942.846    3737.3761    2672.0624    344.14504    47.175844    20.054276    120.02914   -3297.1335 
 5204000    230.98802   -3956.8908   -3560.9852   -3956.8908            0    2103.2909    17.587382    20.715613    21.456565    7817.3432    2587.6116    1983.1255    1739.1356    426.65687    472.82997   -333.73715   -3321.1934 
 5205000    238.04629   -3975.7725   -3567.7693   -3975.7725            0    1114.8344    17.609571    20.741748    21.483635    7846.9683     1793.218    421.70086    1129.5844   -384.13933   -633.25099   -1138.4164   -3440.1877 
 5206000    238.46273   -3972.7951   -3564.0781   -3972.7951            0    2283.0936    17.647582    20.786521    21.530009    7897.8927    1642.0964    2559.3884    2647.7958    -612.2359   -5.6106905    471.87146   -3301.1053 
 5207000    231.65354   -3929.2465   -3532.2003   -3929.2465            0    1657.8718    17.658402    20.799265    21.543209    7912.4283    1995.0275    1301.8602    1676.7276    240.83913   -47.862319   -307.09653   -3340.8908 
 5208000    252.22095   -3945.5834   -3513.2853   -3945.5834            0    1227.6042     17.72363    20.876095    21.622787    8000.4349    1152.5521    1060.4602    1469.8005    471.05211    477.79055   -345.25147   -3370.0507 
 5209000    233.94834    -3921.733   -3520.7536    -3921.733            0    1682.0418      17.7625    20.921879    21.670209    8053.1885      1834.99    1321.5837    1889.5518   -179.02645   -308.69598    515.26775    -3323.202 
 5210000    245.17131   -3926.0338   -3505.8186   -3926.0338            0    3076.7845    17.784345    20.947609    21.696859    8082.9374    3456.1243    2937.1815    2837.0478    87.616693   -507.07937    1104.7881   -3143.1231 
 5211000    235.64252    -3969.409   -3565.5258    -3969.409            0    2067.9959    17.860959    21.037851    21.790329     8187.851    1873.5035     3659.752    670.73224   -576.16822   -51.587461    427.13853   -3318.5835 
 5212000    256.92687   -3978.3153   -3537.9515   -3978.3153            0    785.98516    17.898945    21.082592    21.836671    8240.2019    514.26724    1436.3282    407.36007    35.160018     -119.655    661.18399   -3443.4958 
 5213000    252.65559   -3956.8469   -3523.8039   -3956.8469            0    1194.8618    17.865697    21.043431    21.796108     8194.368    886.87007    876.08891    1821.6263    368.06714   -738.97043    121.97029   -3381.0102 
 5214000     243.0187   -3970.4867   -3553.9609   -3970.4867            0    454.98982    17.836018    21.008474    21.759901    8153.5984   -554.90009    1553.5996    366.26998    570.19504    643.34199   -152.82144   -3499.8573 
 5215000    220.83896   -3980.0333   -3601.5229   -3980.0333            0    2872.1275    17.720343    20.872224    21.618778    7995.9854    2344.1886      4931.03    1341.1639    -1473.193     864.3435    -298.7739   -3266.5948 
 5216000    248.11817   -3967.4162   -3542.1502   -3967.4162            0    2019.7521    17.714843    20.865745    21.612067    7988.5419    271.33225    4223.0109    1564.9131     386.9782    1227.3619    857.12629   -3306.8396 
 5217000    239.08858   -3951.0666   -3541.2769   -3951.0666            0    2014.0918    17.634048    20.770579    21.513497    7879.7355    3108.6847    1677.2692    1256.3215     535.0337    157.06001   -365.56391   -3309.8218 
 5218000    237.01261   -3949.7382   -3543.5067   -3949.7382            0    2525.4681    17.690017    20.836503     21.58178     7955.003    1153.0117    3099.5037     3323.889    -1986.103    263.38635   -569.32037   -3250.5131 
 5219000    239.88501    -3918.007   -3506.8523    -3918.007            0    1832.3575    17.740805    20.896324     21.64374    8023.7156     2186.606    352.19172    2958.2749   -1749.1122   -25.689249   -68.631539   -3292.4342 
 5220000    235.08124   -3960.6489   -3557.7277   -3960.6489            0    2737.2926    17.699469    20.847636    21.593311    7967.7608    3143.8933    1823.5602    3244.4242   -532.33007   -1877.1273    150.33438   -3239.6498 
 5221000    246.21583   -3947.7945    -3525.789   -3947.7945            0    1901.4019    17.672569    20.815952    21.560493    7931.4872    3255.1558    1377.5851    1071.4647   -349.22375   -972.99876   -756.02139   -3305.8489 
 5222000    249.16836   -3982.0286   -3554.9625   -3982.0286            0    902.45307    17.722855    20.875182    21.621841    7999.3854    921.00721     1731.412    54.940035    380.56569   -276.62508   -313.09853   -3449.6798 
 5223000    237.46542   -3937.6935   -3530.6859   -3937.6935            0    2151.6484      17.7208    20.872761    21.619334    7996.6032    916.49402    2782.2615    2756.1897   -193.89031    296.74967     179.5218   -3279.7558 
 5224000    247.15438   -3950.4254   -3526.8112   -3950.4254            0    1194.2812    17.721867    20.874018    21.620636     7998.048    1132.8903    859.47657    1590.4766   -515.74106   -601.93557   -600.28996   -3387.5063 
 5225000    235.47636   -3955.7769   -3552.1785   -3955.7769            0    3473.1055    17.733283    20.887465    21.634563    8013.5139    3918.2862    3392.0516    3108.9787    1431.5638   -1004.8938   -994.68643   -3146.2805 
 5226000    246.75301   -3948.7652    -3525.839   -3948.7652            0    2191.7684    17.781705      20.9445    21.693639    8079.3386     877.4335     2452.396    3245.4757   -997.21504   -491.60637    443.66989   -3267.5854 
 5227000    249.53868   -3885.3373   -3457.6365   -3885.3373            0    3442.3456    17.693383    20.840469    21.585886    7959.5453    3295.1071    2696.2907     4335.639      -727.67    359.19641    459.74472   -3058.0428 
 5228000     250.0614   -3924.2934   -3495.6967   -3924.2934            0    972.28048    17.784413     20.94769    21.696943    8083.0303    1064.2345    610.11686      1242.49    -785.0952   -1874.2017   -16.048963   -3381.0816 
 5229000    240.45519   -3918.8095   -3506.6776   -3918.8095            0    1715.0673     17.70592    20.855235    21.601182    7976.4769    2398.5818    1494.0525    1252.5676   -152.63044   -732.46868   -1028.5543    -3307.166 
 5230000    246.56585   -3913.0385   -3490.4331   -3913.0385            0    380.81114    17.795729    20.961018    21.710748    8098.4694   -1192.3197    968.49685    1366.2562    10.800858   -115.98045     570.2798   -3445.4563 
 5231000    246.27036   -3927.4816   -3505.3826   -3927.4816            0    2919.8593    17.747116    20.903759     21.65144    8032.2824    3221.2916     3782.446    1755.8402   -1929.8073   -1678.1333    243.81398   -3163.3427 
 5232000    245.26802   -3946.8833   -3526.5023   -3946.8833            0    2542.2462    17.760427    20.919437    21.667679    8050.3689    2290.8862    2203.1771    3132.6755    602.32884   -601.86489    307.37326   -3228.0264 
 5233000    248.79952   -3951.2168    -3524.783   -3951.2168            0    159.77425    17.838313    21.011177    21.762701    8156.7463   -136.24349    386.01748    229.54877    727.88277   -814.01845    812.50618   -3505.7766 
 5234000    262.17044   -3937.6083   -3488.2571   -3937.6083            0    695.81297    17.713151    20.863752    21.610003     7986.253    1493.1807    495.01903    99.239128   -687.34568    1346.1547    824.92946   -3407.2149 
 5235000    233.44943   -3917.7892   -3517.6649   -3917.7892            0    2101.4165    17.681301    20.826238    21.571146    7943.2508    2862.1917   -193.75969    3635.8175    980.88946   -540.17441    -73.70499    -3274.228 
 5236000    263.74223   -3969.1157   -3517.0706   -3969.1157            0    1637.4166    17.691075    20.837749     21.58307      7956.43    590.88346    932.29978    3389.0665   -522.74109     655.6717    309.30739   -3327.0707 
 5237000    244.47401    -3953.759   -3534.7389    -3953.759            0    695.79082    17.725294    20.878055    21.624818    8002.6894    1543.8075    1168.3672   -624.80221   -527.20183    414.16337    686.16616   -3453.5325 
 5238000    241.12515   -3938.6433    -3525.363   -3938.6433            0    1379.1925      17.7387    20.893846    21.641173    8020.8604    1782.9463    2172.9478    181.68333   -578.24184     274.2326   -208.51158   -3364.0306 
 5239000    242.56113   -3961.2138   -3545.4723   -3961.2138            0     1639.047    17.660344    20.801553    21.545579    7915.0396    1296.5755     2704.311    916.25464    -738.5955     895.4218    1029.8166   -3356.2727 
 5240000    243.46226   -3942.3293   -3525.0434   -3942.3293            0    1054.6678     17.72543    20.878215    21.624983    8002.8729    1268.9092    65.592543    1829.5017    854.11144   -229.09983    85.263855   -3401.9492 
 5241000    241.80903   -3969.3974    -3554.945   -3969.3974            0    971.33226    17.670144    20.813095    21.557534    7928.2224    738.70506    1896.3959    278.89584    1025.2576     3.018723   -710.80148   -3442.6347 
 5242000    248.12963   -3935.0775   -3509.7918   -3935.0775            0    2310.4653    17.685609    20.831311    21.576401    7949.0574    2640.6917    175.33394    4115.3703   -149.69399    602.25713    -110.6684   -3241.9422 
 5243000    253.23669   -3933.1554   -3499.1164   -3933.1554            0    1254.8633     17.77647    20.938334    21.687252    8072.2049    2884.8197    676.52094    203.24927    5.1884627   -1139.2985    -13.38006   -3351.3878 
 5244000    249.88436   -3939.7353   -3511.4421   -3939.7353            0    829.82615    17.758196    20.916809    21.664958    8047.3358   -72.191369   -151.50124    2713.1711    576.89295    187.03771    203.80972   -3414.0519 
 5245000    250.12915   -3926.8741   -3498.1613   -3926.8741            0    1314.1565    17.837657    21.010404      21.7619    8155.8465   -208.08775    1744.1487    2406.4087   -143.68869    492.70391   -117.59484   -3341.8494 
 5246000    236.59254   -3915.5558   -3510.0443   -3915.5558            0    3133.8078    17.819188     20.98865    21.739368    8130.5387    3967.5459    3814.0067     1619.871   -96.457667   -271.52129   -403.09365   -3138.4512 
 5247000    253.04746   -3939.6462   -3505.9315   -3939.6462            0    2332.1295    17.892304    21.074771    21.828569    8231.0341    2911.3534    2215.4152    1869.6199   -242.67706    101.18404    131.44765   -3225.9799 
 5248000    245.92254   -3907.1099   -3485.6071   -3907.1099            0    1367.1742    17.936164    21.126432    21.882078    8291.7131    1152.2903    1030.3737    1918.8586    1055.0226    450.01292   -369.36845     -3320.28 
 5249000    229.86126   -3960.1644   -3566.1901   -3960.1644            0    19.146819    17.945202    21.137077    21.893104    8304.2537   -194.57005    512.68308   -260.67257   -537.44526    436.80442   -468.91647   -3563.8712 
 5250000    256.96483    -3933.558   -3493.1291    -3933.558            0    1163.6595    17.903113    21.087502    21.841756    8245.9599    2414.4388   -347.76592    1424.3058    363.51452    389.70433    124.52275   -3353.1887 
Loop time of 348.301 on 64 procs for 250000 steps with 864 atoms

Performance: 124.031 ns/day, 0.194 hours/ns, 717.769 timesteps/s
194.0% CPU use with 32 MPI tasks x 2 OpenMP threads

MPI task timing breakdown:
Section |  min time  |  avg time  |  max time  |%varavg| %total
---------------------------------------------------------------
Pair    | 26.446     | 29.53      | 32.776     |  32.0 |  8.48
Bond    | 0.93998    | 1.0561     | 1.188      |   5.8 |  0.30
Kspace  | 164.84     | 169.31     | 174.12     |  17.2 | 48.61
Neigh   | 3.0311     | 3.3518     | 3.5189     |   7.7 |  0.96
Comm    | 62.064     | 65.305     | 69.199     |  21.9 | 18.75
Output  | 0.56054    | 0.56087    | 0.56247    |   0.0 |  0.16
Modify  | 64.229     | 65.788     | 68.807     |  13.9 | 18.89
Other   |            | 13.4       |            |       |  3.85

Nlocal:        27.0000 ave          34 max          21 min
Histogram: 1 4 1 9 4 2 7 2 1 1
Nghost:        2319.84 ave        2354 max        2280 min
Histogram: 3 2 1 6 2 3 3 6 4 2
Neighs:        7488.62 ave        9481 max        6132 min
Histogram: 4 4 3 7 3 4 4 0 1 2

Total # of neighbors = 239636
Ave neighs/atom = 277.35648
Ave special neighs/atom = 2.0000000
Neighbor list builds = 11782
Dangerous builds = 0

unfix		3
unfix		2
unfix		1

write_data	data.final.${pid}
write_data	data.final.1
System init for write_data ...
PPPM initialization ...
  extracting TIP4P info from pair style
  using 12-bit tables for long-range coulomb (../kspace.cpp:340)
  G vector (1/distance) = 0.37284789
  grid = 24 25 25
  stencil order = 5
  estimated absolute RMS force accuracy = 0.0031497268
  estimated relative force accuracy = 9.4853088e-06
  using double precision FFTW3
  3d grid and FFT values/proc = 4116 672
Last active /omp style is kspace_style pppm/tip4p/omp
WARNING: Not all mixed pair coeffs generated from mixing. Use write_data with 'pair ij' option to store all pair coeffs. (../write_data.cpp:312)

write_restart   restart.lmp.${pid}
write_restart   restart.lmp.1
System init for write_restart ...
PPPM initialization ...
  extracting TIP4P info from pair style
  using 12-bit tables for long-range coulomb (../kspace.cpp:340)
  G vector (1/distance) = 0.37284789
  grid = 24 25 25
  stencil order = 5
  estimated absolute RMS force accuracy = 0.0031497268
  estimated relative force accuracy = 9.4853088e-06
  using double precision FFTW3
  3d grid and FFT values/proc = 4116 672
Last active /omp style is kspace_style pppm/tip4p/omp
Total wall time: 0:05:48
