LAMMPS (30 Jul 2021)
  using 1 OpenMP thread(s) per MPI task
package omp 0
using multi-threaded neighbor list subroutines
echo both

include		in.partitions
variable        pid world 0
include		in.temp
variable        temperature equal 255.60
variable	tempDamp equal 100.0
include		in.pressure
variable        pressure equal 6375.0
variable        pressureDamp equal 1000.0 # This is 1 ps
include		in.seed
variable        seed world 745823

units		real
atom_style	full
read_restart    restart.lmp.${pid}
read_restart    restart.lmp.0
Reading restart file ...
  restart file = 30 Jul 2021, LAMMPS = 30 Jul 2021
  restoring atom style full from restart
  triclinic box = (-3.2365405 -0.069194560 -0.11030257) to (14.846539 22.649194 19.340301) with tilt (0.062314304 -6.6419852 0.020629175)
  4 by 4 by 4 MPI processor grid
  restoring pair style lj/cut/tip4p/long/omp from restart
  restoring bond style harmonic/omp from restart
  restoring angle style harmonic/omp from restart
  1008 atoms
  672 bonds
  336 angles
Finding 1-2 1-3 1-4 neighbors ...
  special bond factors lj:    0        0        0       
  special bond factors coul:  0        0        0       
     2 = max # of 1-2 neighbors
     1 = max # of 1-3 neighbors
     1 = max # of 1-4 neighbors
     2 = max # of special neighbors
  special bonds CPU = 1.612 seconds
  read_restart CPU = 1.798 seconds

include 	in.setup
variable	out_freq equal 1000
variable	out_freq2 equal 10000
variable	out_freq3 equal 1000

timestep	2.0

neigh_modify    delay 7 every 1

include		in.tip4p
# This is TIP4P/Ice

# create groups ###
group ox type 2
336 atoms in group ox
group hy type 1
672 atoms in group hy

# set charges - beside manually ###
set group ox charge -1.1794
Setting atom values ...
  336 settings made for charge
set group hy charge 0.5897
Setting atom values ...
  672 settings made for charge

# ### TIP3P Potential Parameters ###
pair_style lj/cut/tip4p/long/omp 2 1 1 1 0.1577 8.5
pair_coeff 1 1*2 0.000 0.000
pair_coeff 2 2 0.21084 3.1668
bond_style  harmonic
bond_coeff  1 450 0.9572
angle_style harmonic
angle_coeff 1 55 104.52
kspace_style pppm/tip4p/omp 1.0e-5
pair_modify tail yes

thermo          ${out_freq}
thermo          1000
thermo_style    custom step temp pe etotal epair emol press lx ly lz vol pxx pyy pzz pxy pxz pyz enthalpy

restart 	${out_freq3} restart.lmp.${pid} restart2.lmp.${pid}
restart 	1000 restart.lmp.${pid} restart2.lmp.${pid}
restart 	1000 restart.lmp.0 restart2.lmp.${pid}
restart 	1000 restart.lmp.0 restart2.lmp.0


include         in.dump
dump            myDump all atom ${out_freq2} dump.water.${pid}
dump            myDump all atom 10000 dump.water.${pid}
dump            myDump all atom 10000 dump.water.0
dump            myDump2 all dcd ${out_freq2} dump.dcd
dump            myDump2 all dcd 10000 dump.dcd
dump_modify     myDump append yes
dump_modify     myDump2 append yes


variable natoms 	equal  "count(all)"                        # NUMBER ATOMS
variable H      	equal  "enthalpy/v_natoms"                 # ENTHALPY-per-atom
variable Vol      	equal  "vol/v_natoms"                 # volume-per-atom
fix AVG all 		ave/time ${out_freq} 1 ${out_freq} v_Vol v_H file vol_enthalpy.dat
fix AVG all 		ave/time 1000 1 ${out_freq} v_Vol v_H file vol_enthalpy.dat
fix AVG all 		ave/time 1000 1 1000 v_Vol v_H file vol_enthalpy.dat



fix 		1 all shake 1e-6 200 0 b 1 a 1
       0 = # of size 2 clusters
       0 = # of size 3 clusters
       0 = # of size 4 clusters
     336 = # of frozen angles
  find clusters CPU = 0.199 seconds
fix             2 all nph tri ${pressure} ${pressure} ${pressureDamp}
fix             2 all nph tri 6375 ${pressure} ${pressureDamp}
fix             2 all nph tri 6375 6375 ${pressureDamp}
fix             2 all nph tri 6375 6375 1000
fix             3 all temp/csvr ${temperature} ${temperature} ${tempDamp} ${seed}
fix             3 all temp/csvr 255.6 ${temperature} ${tempDamp} ${seed}
fix             3 all temp/csvr 255.6 255.6 ${tempDamp} ${seed}
fix             3 all temp/csvr 255.6 255.6 100 ${seed}
fix             3 all temp/csvr 255.6 255.6 100 745823


run             250000
PPPM initialization ...
  extracting TIP4P info from pair style
  using 12-bit tables for long-range coulomb (../kspace.cpp:340)
  G vector (1/distance) = 0.37874103
  grid = 24 27 36
  stencil order = 5
  estimated absolute RMS force accuracy = 0.00251126
  estimated relative force accuracy = 7.5625848e-06
  using double precision FFTW3
  3d grid and FFT values/proc = 4050 480
Last active /omp style is kspace_style pppm/tip4p/omp
Neighbor list info ...
  update every 1 steps, delay 7 steps, check yes
  max neighbors/atom: 2000, page size: 100000
  master list distance cutoff = 10.8154
  ghost atom cutoff = 10.8154
  binsize = 5.4077, bins = 5 5 4
  1 neighbor lists, perpetual/occasional/extra = 1 0 0
  (1) pair lj/cut/tip4p/long/omp, perpetual
      attributes: half, newton on, omp
      pair build: half/bin/newton/tri/omp
      stencil: half/bin/3d/tri
      bin: standard
Per MPI rank memory allocation (min/avg/max) = 9.328 | 9.338 | 9.354 Mbytes
Step Temp PotEng TotEng E_pair E_mol Press Lx Ly Lz Volume Pxx Pyy Pzz Pxy Pxz Pyz Enthalpy 
 2500000    268.36299   -4822.0058   -4285.2467   -4822.0058            0     6965.072     18.08308    22.718388    19.450603    7990.6662    7074.8076    7720.0064    6100.4021   -738.21893    623.76851   -1621.5318   -3473.5673 
 2501000    251.12616   -4815.4607   -4313.1773   -4815.4607            0    6889.0121     18.25512     22.45712    19.545572    8012.8522    6307.3849    7359.5412    7000.1103   -155.26569   -653.52867   -993.86839   -3508.1327 
 2502000    260.01394   -4829.0311   -4308.9711   -4829.0311            0    4871.6806    18.164604    22.662483    19.615242    8074.7126    5733.2624    5424.7661    3457.0134    433.48283   -693.91099    1677.6402   -3735.2752 
 2503000    248.06242    -4816.358   -4320.2025    -4816.358            0     5217.235    18.260192    22.696141    19.415265    8046.3826    5009.4353    6036.7286    4605.5411   -550.17029   -2193.1516   -620.35813   -3707.9692 
 2504000    241.79811   -4848.2756   -4364.6495   -4848.2756            0    5726.9054    18.132045    22.841298    19.478115    8067.0451    5997.3077    5721.1181    5462.2902   -763.55034    1429.5804   -414.63561   -3690.8815 
 2505000      247.041   -4810.2747   -4316.1621   -4810.2747            0    4141.9718    18.159308     22.92653    19.363591    8061.6424    5535.3812     3701.949     3188.585   -1432.5409   -474.75145    -268.4473   -3829.1873 
 2506000    261.26026   -4814.3113   -4291.7585   -4814.3113            0    5171.5003    17.930883    23.088424    19.443058    8049.3447    6745.1408    4756.4641    4012.8961    875.78327   -383.68585   -263.09058   -3684.6687 
 2507000    253.40963   -4822.7316    -4315.881   -4822.7316            0     6397.396     17.94905    23.064607    19.360581    8015.0439    5240.4548    6484.1438    7467.5893   -193.43507   -494.68986   -1504.1574   -3568.0818 
 2508000    252.51549   -4819.1597   -4314.0975   -4819.1597            0    5680.3903    17.980818    23.106578    19.293358     8015.911    4899.7228    6468.2643    5673.1837     1020.657    165.10727    602.34803   -3650.0381 
 2509000    261.20364   -4794.9009   -4272.4614   -4794.9009            0    7645.9302    18.009047     23.13408    19.154545    7980.2188    8111.2445    6228.6631    8597.8831    357.40405    768.38465   -477.89008   -3382.6027 
 2510000    261.32144   -4818.5547   -4295.8795   -4818.5547            0    5731.7227     18.04799    23.188434    19.278419    8068.1072    4686.0282    5943.7804    6565.3596    938.99696    1050.4032    1291.5088   -3621.4559 
 2511000    264.20828   -4846.3883   -4317.9391   -4846.3883            0     6689.365    18.012059     22.92203    19.350995    7989.5026    6364.4784    7085.0143    6618.6024    512.05832   -119.44916    652.82913   -3538.5029 
 2512000    261.62846   -4796.3415   -4273.0523   -4796.3415            0    5716.7006     18.09046     23.01317    19.298619    8034.3786    4464.3695    5894.1033     6791.629   -1043.0723    720.91244    883.96321   -3603.2083 
 2513000    271.08458   -4806.9487    -4264.746   -4806.9487            0    5770.3939    18.005966    23.229506    19.156788    8012.7039    4782.3733    5070.5819    7458.2265    617.69951    -265.0106   -328.25983   -3590.4347 
 2514000    247.72337   -4810.0103   -4314.5329   -4810.0103            0    6752.3943    17.877467    23.067157    19.343025     7976.722    7106.7265    7118.3406    6032.1159    16.917081   -1242.5173   -1107.9103   -3529.0113 
 2515000    258.54044   -4830.4081   -4313.2953   -4830.4081            0    6537.5716    18.037459    23.168113    19.224264    8033.7024     6738.379    5237.1114    7637.2245   -140.93481   -900.72734    -2003.543   -3547.3318 
 2516000    261.92333   -4828.8986   -4305.0196   -4828.8986            0    6111.4093    17.901551    23.337455    19.180557    8013.1887    5558.1909    6223.4988    6552.5383    973.74898    1512.5033    849.66692    -3590.815 
 2517000    261.28776   -4829.5971   -4306.9893   -4829.5971            0    7302.0414    17.920687     23.06329    19.291828    7973.5052    7273.0735    7181.0887     7451.962     940.0045    182.62757    820.29868   -3457.8685 
 2518000    248.32683   -4829.0645   -4332.3801   -4829.0645            0    4246.9728    18.190414    23.059082    19.290539    8091.4985    3678.8058    5329.8434    3732.2691   -2578.7918    1047.3019   -2050.7485    -3831.211 
 2519000    248.83639    -4808.065   -4310.3615    -4808.065            0    5934.6572    17.885818    22.775105    19.685979    8019.1109     4928.405    6719.3625    6156.2041   -53.231528    504.32228     793.6732   -3616.3003 
 2520000    245.76567   -4806.3941   -4314.8324   -4806.3941            0     5578.232    18.211308    22.971369    19.215855    8038.7355    5674.3065    4736.2259    6324.1636   -366.81985    -1287.393   -434.26381   -3660.8589 
 2521000    251.96313   -4841.5019   -4337.5445   -4841.5019            0    5929.9897    17.898739    23.021396     19.47747    8025.7685    5636.3361     6540.293      5613.34   -570.91201    197.64365   -1124.2668   -3643.4534 
 2522000    257.00295   -4824.1544   -4310.1168   -4824.1544            0    6791.2142    18.138975    22.916149    19.227832    7992.5378     7008.227    5306.3868    8059.0288    322.67545   -1093.8956   -179.33996   -3518.5127 
 2523000    238.29708    -4823.948   -4347.3244    -4823.948            0    4932.4481    18.076566    22.894204    19.462698    8054.6103    4420.2512    5343.4583    5033.6347   -1685.4841    55.709991   -1130.2062   -3767.9184 
 2524000    262.56098   -4788.1896   -4263.0352   -4788.1896            0    7138.2987     18.16967    22.884218    19.311335    8029.6278    6440.3622    7427.4288     7547.105     -268.908    325.71251    736.33174   -3427.1127 
 2525000    263.99362   -4807.8581   -4279.8383   -4807.8581            0    7341.7864    17.840246    22.947555    19.550242    8003.6742    8825.1835    7634.5955    5565.5801    130.78531    1043.5266   -462.87479   -3422.8655 
 2526000    266.22341   -4822.8497     -4290.37   -4822.8497            0    5483.6617    18.293634    23.038947    19.126878      8061.33    4474.9995    5846.7633    6129.2222   -1554.5849   -384.80893   -657.69119   -3645.6766 
 2527000    269.55145   -4820.6053   -4281.4691   -4820.6053            0    6262.0482    17.956419    22.885552    19.523832    8023.1737     6735.676    6295.1581    5755.3106   -1115.7142   -56.805571    1439.1191   -3548.7483 
 2528000    252.01708    -4835.916   -4331.8507    -4835.916            0    5933.0413     18.10513    22.874019    19.320461    8001.3196    6679.7959    5934.3839     5184.944   -1091.5751   -108.90934   -1269.9062   -3639.5179 
 2529000    249.63351   -4809.8582   -4310.5603   -4809.8582            0     7382.997    18.014674    22.963842    19.332478    7997.5776    8526.5902    7219.8051    6402.5955   -1249.3618    200.69159   -1977.5711   -3449.4336 
 2530000    264.82484   -4803.4794    -4273.797   -4803.4794            0    6919.0061    18.184142    22.819603    19.262006    7992.8635    3656.1931    7061.0093    10039.816    1554.3196    218.34817   -291.05901   -3467.2642 
 2531000    262.12071   -4814.1354   -4289.8616   -4814.1354            0    4933.2353    18.034592    22.931853    19.575867     8095.925    5924.7748    3970.5665    4904.3645   -1985.5303    541.13941   -669.95015   -3707.3908 
 2532000    262.17939   -4819.4884   -4295.0972   -4819.4884            0    7783.2216    18.053589    22.855692    19.365881    7990.8903    6366.5681    8493.1168      8489.98    266.43249    334.26936    18.766482   -3388.0488 
 2533000    257.60655   -4826.2292   -4310.9842   -4826.2292            0    8157.1956    18.030329     22.97824    19.267375    7982.5741    7382.4499    8060.4283    9028.7087    989.08923   -1209.3074   -718.01111   -3361.3426 
 2534000    245.64485    -4821.617    -4330.297    -4821.617            0    6919.1692    18.027344    22.710755    19.564218    8009.8764    6452.4395    8287.8044    6017.2636   -1447.8621   -421.69755   -1295.7989   -3522.0285 
 2535000    256.34762   -4861.7101   -4348.9832   -4861.7101            0    6595.9596    18.121736    22.829513    19.339349    8000.8902    5893.4312    7431.6515    6462.7962    84.704705   -528.80748    191.81215   -3579.3351 
 2536000    250.89393   -4845.5037   -4343.6849   -4845.5037            0    6169.5967     17.99008    22.948172     19.38557     8003.128    6070.3612    7194.4101    5244.0187    750.83663    1202.4791    -1567.938   -3623.5855 
 2537000    260.37125   -4830.9437   -4310.1691   -4830.9437            0     5904.057    18.077559    22.934633    19.303129    8003.1195    5571.4117    5264.1432    6876.6161    769.20108    14.232006   -1089.7632   -3621.0636 
 2538000    255.43944    -4825.588   -4314.6775    -4825.588            0    5586.5613    18.075355     22.99764    19.389862    8060.1816     7161.551     5487.684    4110.4489    1010.8817   -1189.9396    1084.8294   -3657.9801 
 2539000    257.89362   -4829.2937   -4313.4746   -4829.2937            0    7658.5805    17.878198    22.968984    19.394295    7964.1517    5837.6257    8723.2115    8414.9042    1362.9243    -1388.355    829.05692   -3423.9382 
 2540000    253.72783   -4820.9049   -4313.4179   -4820.9049            0    4743.4485     18.01389    23.045394    19.381764    8046.0909    4617.7839    4421.0942    5191.4674   -133.77076    -202.7766    643.34705   -3756.8027 
 2541000    255.93743   -4826.8638   -4314.9573   -4826.8638            0    4926.4865    18.101609    23.031187    19.343353    8064.2736    6144.2942    4735.0307    3900.1346    712.07974   -744.46341    813.41446   -3735.5574 
 2542000    261.39191   -4834.3006   -4311.4845   -4834.3006            0    7274.5216    17.980991    22.908847    19.325427     7960.603    4780.2158    9037.9969     8005.352    877.22773    998.75721    1035.7686   -3466.9327 
 2543000    267.17319   -4823.1287   -4288.7493   -4823.1287            0     5587.049    17.883326    23.035581    19.444382    8010.1678     8296.956    4223.7122    4240.4788    575.00065   -2324.6851   -70.531915   -3636.0698 
 2544000    255.92356   -4860.5135   -4348.6347   -4860.5135            0    5490.4931     18.04633    23.028164    19.264843    8005.9651    5688.6042    4859.3668    5923.5083    1120.0791   -1027.5187   -655.24603   -3707.5714 
 2545000    253.10493   -4850.0754   -4343.8343   -4850.0754            0    7009.1922    17.973869    22.953542    19.400599    8003.9879    5015.2168     8499.174    7513.1859    1095.6982    1379.3095   -1212.7012   -3525.6516 
 2546000    252.98046   -4832.5247   -4326.5325   -4832.5247            0    6729.6377    17.918671    22.964576    19.378493    7974.1468    7612.4596    5683.2825    6893.1711    1360.2147   -261.51964   -520.95156    -3543.911 
 2547000    252.44019   -4819.4444   -4314.5329   -4819.4444            0    5610.8675    18.071151    23.156511    19.286731    8070.8184    6186.2044    4049.9877    6596.4104     1103.659   -1212.4764   -1173.5947   -3654.1079 
 2548000    255.88851   -4836.6926   -4324.8839   -4836.6926            0    7859.1207    17.772146    23.081752    19.365266    7943.8695    6977.0141    8726.6873    7873.6605    189.27218    720.71847     -964.005   -3414.3797 
 2549000     267.0428   -4830.0221   -4295.9035   -4830.0221            0    6248.1821    17.943738    23.220173    19.288761    8036.7913     5886.532    6097.2036    6760.8106   -801.65566    145.81088   -1094.1803   -3563.5644 
 2550000    252.79929   -4841.0874   -4335.4576   -4841.0874            0    6067.6085    17.997214    23.153317    19.253987    8023.0438    6269.1837    5105.6223    6828.0194   -1004.5995   -389.09501   -1360.7913   -3625.4997 
 2551000    268.19189   -4795.3575   -4258.9405   -4795.3575            0    4979.8262    18.076285    23.020064    19.486543    8108.6864    5743.3596    4501.3169    4694.8022    1088.8164   -4.3875978    131.61801   -3670.0419 
 2552000    246.95584   -4815.3617   -4321.4195   -4815.3617            0    10273.133    17.904704     22.86487    19.214792    7866.3193    8204.1185     11586.14    11029.142   -24.303888    692.81012    -502.5217   -3142.8631 
 2553000    256.21276   -4862.3923   -4349.9351   -4862.3923            0    6995.1339    17.804791    23.313796    19.252773    7991.7736    8478.3682    5436.5478    7070.4858    1629.1157   -1147.8062    54.965203   -3534.6395 
 2554000    266.80177   -4805.9303   -4272.2938   -4805.9303            0    6769.0435    17.950565     23.27609     19.10058    7980.5845     6896.823     6900.675    6509.6326      497.446   -89.473198    687.25076    -3484.454 
 2555000    256.90299    -4810.291   -4296.4533    -4810.291            0    7100.2253    17.775749    23.307806    19.313399    8001.8058    8624.5165    6673.8606     6002.299      154.555   -62.929557   -466.29132   -3467.8703 
 2556000    266.78048   -4800.0053   -4266.4114   -4800.0053            0    6124.0665    18.069679    23.086024    19.214608     8015.509    5376.7656    6663.6027    6331.8313    672.19185    576.23297    1649.2328   -3550.5204 
 2557000    243.65014   -4832.9652   -4345.6348   -4832.9652            0     5466.331    17.843422    23.202569     19.42809    8043.4864    6029.7842    5906.0587    4463.1501    -928.0735    485.12687    130.97526   -3704.4014 
 2558000    256.44737   -4815.4897   -4302.5633   -4815.4897            0    8930.6412    17.866457    23.110223     19.18347    7920.8129    11962.888    7041.0644    7787.9709    -244.5392   -1934.1725    1396.7002    -3270.923 
 2559000    249.13508   -4808.3787   -4310.0777   -4808.3787            0    4900.7289    17.914453    23.343855    19.302582    8072.1928    5787.9524    3846.0206    5068.2138   -1324.2823    322.43979    -184.8045   -3733.1411 
 2560000    249.21199   -4810.6781   -4312.2233   -4810.6781            0    7039.3614    17.916688    23.322778    19.137103    7996.7628    8383.0154    5615.9036    7119.1654   -134.07748   -324.33242    1014.1724   -3491.2607 
 2561000    258.22122   -4808.0941   -4291.6198   -4808.0941            0    5703.7471    17.937729    23.291106     19.21544    8028.0101    5998.5103    5520.6554    5592.0757    1358.0367   -682.42594   -989.61155   -3623.8234 
 2562000    255.88983   -4777.8058   -4265.9946   -4777.8058            0    4704.8502    17.850165    23.345575    19.379028    8075.6745    4225.2851    5354.2779    4534.9877    167.16392    711.24495   -236.26292   -3711.8788 
 2563000    264.00753    -4801.479   -4273.4313    -4801.479            0    7799.4312    17.805311    23.244784    19.279065    7979.2314    8488.0163    6050.6646    8859.6126   -353.68808   -771.71284   -522.18964   -3365.8201 
 2564000    250.87166   -4812.9013    -4311.127   -4812.9013            0    7123.7913    17.935487    23.049218    19.383865    8013.2697    8747.9297    6132.9238    6490.5204   -294.39646    -1668.431   -1161.3596   -3478.6028 
 2565000    237.00858   -4815.3709   -4341.3244   -4815.3709            0    6059.9525    18.073694    22.967895    19.351482    8033.0848    6277.8033    5617.5681    6284.4862    480.16091   -837.55545    1321.8673   -3631.3749 
 2566000    258.75475   -4795.7187   -4278.1772   -4795.7187            0    5353.1563    17.880257     23.14699    19.492757    8067.5481    5584.2304    6097.5368    4377.7016   -500.68285   -318.17304   -211.52308   -3648.3414 
 2567000    267.03329   -4850.4829   -4316.3833   -4850.4829            0      7205.08    17.978092    23.175611    19.144026     7976.421    6843.7358    6537.2374    8234.2667    2483.2582   -338.71389    2123.4965   -3478.2314 
 2568000    263.76022   -4842.2402   -4314.6872   -4842.2402            0    4747.8861    17.942656    23.075561    19.413726    8037.9981     5878.396    3233.0598    5132.2024   -2340.7141    499.87955   -1890.9783   -3758.1117 
 2569000    258.10783   -4867.8463   -4351.5987   -4867.8463            0    7587.0937    18.045887    22.982087    19.230785    7975.6245    8010.4732    7741.6125    7009.1953   -757.38081   -315.52071   -870.52845   -3469.0961 
 2570000    251.00482   -4800.8225   -4298.7819   -4800.8225            0    5095.7817    17.970558    23.024527    19.465777    8054.2299     4998.396    5042.5176    5246.4317     1031.819   -205.08279    -376.6338   -3700.2177 
 2571000    263.94791   -4840.9994    -4313.071   -4840.9994            0    6355.3291    18.019061    23.022615    19.305373    8008.7551    7745.6211    5517.0393     5803.327   -612.77743    -50.36131   -90.922998   -3570.7719 
 2572000    256.81013   -4778.8542   -4265.2023   -4778.8542            0    4604.7615    18.013986    23.181096    19.537081    8158.3714    7330.9969    3454.4404    3028.8473    938.26343    1129.3617   -1384.9394   -3717.3209 
 2573000    248.37559   -4851.1379    -4354.356   -4851.1379            0    7805.6836    18.086711    22.947468    19.142495    7944.9818    6054.5068     8404.833     8957.711    126.28159   -316.29705    1395.7534   -3449.9161 
 2574000    252.76986   -4854.8981   -4349.3272   -4854.8981            0    7793.2608    17.820469    23.072757    19.356565    7958.7874     8863.691    6802.7572    7713.3341    468.08228     671.3499    2089.7433   -3444.7576 
 2575000    254.36426    -4825.249    -4316.489    -4825.249            0    8787.8933    18.009311     22.70656     19.37457    7922.8333    6581.0189    9763.9106     10018.75   -395.94057   -1312.4767   -423.39347   -3301.0796 
 2576000     255.9754   -4819.7763   -4307.7939   -4819.7763            0    4934.7602    18.144371     22.96001    19.386284    8076.2281    4730.3371    4590.2664    5483.6771   -504.97733   -328.05767    1177.6301   -3726.5605 
 2577000    248.60671   -4859.4093   -4362.1652   -4859.4093            0    7332.4026    18.028485    22.778171    19.400135    7966.7801    6351.4257    8286.9521    7358.8299   -1240.4748   -174.16349   -579.96676    -3510.233 
 2578000    271.20147   -4815.3168   -4272.8804   -4815.3168            0    6387.9357    18.145967    22.923269    19.299943    8028.0984    6500.2546    6452.4659    6211.0866   -303.14842    98.737925   -132.79312   -3524.9708 
 2579000    252.03447   -4842.8627   -4338.7627   -4842.8627            0    5546.6986    17.997508    22.916904    19.508866    8046.3765    6937.7107    5469.3359    4233.0493   -764.29737    213.30288   -2026.2334   -3687.8679 
 2580000    258.41676   -4802.9748   -4286.1093   -4802.9748            0    5801.7132    18.136781    23.096454    19.279994    8076.2993    4907.2529    5773.2934    6724.5933   -1357.2425   -1253.8615    135.12966   -3602.7572 
 2581000    251.03433   -4807.4552   -4305.3555   -4807.4552            0    6840.2714    17.935449    22.868254    19.473214    7986.9852     8751.576    5088.5538    6680.6845   -206.98287    -427.4856    725.94796   -3508.5871 
 2582000    253.92376   -4849.6899    -4341.811   -4849.6899            0     7444.344    18.321274    22.654394    19.219181    7977.0628    4806.5635    9438.3493    8088.1193   -739.53825   -78.627983    212.31802   -3475.7563 
 2583000    257.91997   -4811.5121   -4295.6403   -4811.5121            0    5606.8101     18.03135    22.632915    19.730637    8052.1126    5979.2444     8066.797     2774.389    183.06549      535.116    1284.9389   -3637.2225 
 2584000    267.54414   -4814.8057   -4279.6844   -4814.8057            0    6035.9018    18.093066    22.909052    19.342723    8017.4621    6670.8335    5445.6251    5991.2467   -515.12134   -710.36093    17.632548   -3573.9277 
 2585000    256.97669   -4840.8264   -4326.8413   -4840.8264            0    8021.9535     17.98024    22.940434    19.333513    7974.5816    9737.0255    7079.9898    7248.8452   -192.92774   -494.53934   -1297.8972   -3393.8793 
 2586000    248.53031   -4833.4545   -4336.3631   -4833.4545            0    4947.2911    18.115137    23.170905    19.256048    8082.6128     3413.575    4133.3101    7294.9882    421.04606    850.94891   -113.65133   -3753.1932 
 2587000    257.46089   -4843.4974   -4328.5438   -4843.4974            0    6497.4258    17.904609    23.118292    19.348736    8008.9059    7707.4154    5463.1821      6321.68   -648.04365   -670.35591    -1512.036   -3569.6335 
 2588000    256.65833   -4833.3334    -4319.985   -4833.3334            0    5758.0195    18.033286    23.157816    19.244653    8036.7888    5111.9775    4618.2813    7543.7997     1343.569   -417.64385    1227.9535   -3645.0972 
 2589000    239.20412    -4836.369   -4357.9312    -4836.369            0    7733.3933    17.850965    22.984197    19.426186    7970.3719    7117.6778    7985.1426    8097.3595    -772.1361   -992.13863   -637.29301   -3459.0039 
 2590000    251.29839   -4824.5175   -4321.8896   -4824.5175            0    6720.4132    17.994897    22.959917    19.385259    8009.2395    5046.6771    7547.5288    7567.0338   -1028.2042    450.99546   -871.93476   -3536.9014 
 2591000    258.08216   -4846.7963   -4330.6001   -4846.7963            0    5570.7037    17.935434    23.186857    19.248553    8004.8255    5476.3466    5773.8686     5461.896   -1587.7416    1732.3958    4.4475343    -3680.264 
 2592000    239.28831   -4797.2132   -4318.6071   -4797.2132            0     7423.371    17.875449    23.187477    19.237747    7973.7875    8534.9114    5655.3065    8079.8951   -606.76726    483.51302    1401.9758   -3455.3469 
 2593000    268.12531   -4828.5692   -4292.2855   -4828.5692            0     6871.134    18.018637    23.101236    19.272219    8022.1149    7931.9131    5099.8232    7581.6655   -559.24117   -72.700044    227.77661   -3488.4019 
 2594000    254.64808   -4823.2649   -4313.9373   -4823.2649            0    4705.1169    18.062906    23.162952    19.283516    8068.0348    4379.9745    4728.3422     5007.034    1721.9597    434.84105    450.56465   -3760.3143 
 2595000    241.40279   -4837.6389   -4354.8035   -4837.6389            0    6844.3002    17.931429    23.028824    19.375896    8001.0774    5160.4448     7682.901    7689.5547    4.9035933    365.79905   -993.49916   -3556.1592 
 2596000    251.28031   -4803.8448   -4301.2532   -4803.8448            0    6239.8714    17.904547    23.335611    19.278463    8054.8031    8659.9327    5420.8236    4638.8578    131.50335   -680.95622    633.11945    -3568.249 
 2597000    252.82072   -4823.0186   -4317.3459   -4823.0186            0     7675.246    17.729095    23.173644    19.344678    7947.7171    7589.6111    7642.3261    7793.8008    835.87484   -788.16078   -21.810034   -3427.7135 
 2598000    248.52779   -4819.5896   -4322.5034   -4819.5896            0    6270.3114    18.075325     23.10278    19.241971    8035.2594     5033.167    6113.9351     7663.832    755.97811    1684.3633    195.27408   -3587.7106 
 2599000    248.35184   -4821.3966   -4324.6622   -4821.3966            0    6140.5269    17.846052    22.995102    19.425936    7971.8562     7077.928    6451.8185    4891.8342    120.19903     693.1413    1907.1926   -3610.7563 
 2600000    250.78561   -4816.6676   -4315.0654   -4816.6676            0    7531.4256    18.009393    23.047323    19.306275    8013.4229    5646.1536    7735.9349    9212.1883   -1439.3808   -47.948148   -1460.7841   -3434.8861 
 2601000     245.9064    -4856.918   -4365.0748    -4856.918            0     5275.737    17.961963    23.061894    19.367838    8022.8729    4960.9663    4833.3573    6032.8873   -734.13247   -362.61467    252.18654   -3747.7852 
 2602000     261.6745   -4836.1419   -4312.7605   -4836.1419            0    7022.6513    18.076471    23.025335    19.205818     7993.784    6334.3539    8242.3478    6491.2524    16.375573    77.229825     1013.624   -3494.0518 
 2603000    256.07141   -4802.2243   -4290.0498   -4802.2243            0    6967.4178     17.92524    23.056047    19.404198    8019.4674    8261.8472    6113.8301    6526.5761   -1147.4009    900.38953   -1776.5331   -3475.1705 
 2604000    260.38862   -4816.0161   -4295.2067   -4816.0161            0    6229.7823    17.728604    23.326683    19.329514    7993.7113    6622.5429     6078.646    5988.1581    377.46337   -1223.1956   -1311.2414   -3568.9382 
 2605000    258.39138   -4778.3072   -4261.4926   -4778.3072            0    8003.3456    17.908946    23.175681    19.180935    7961.0862    9196.7757    7036.2843    7776.9768    508.18264   -1369.0312   -43.926583   -3332.2699 
 2606000    247.27635   -4835.5084   -4340.9252   -4835.5084            0    5047.8197    17.882642    23.383444    19.262187    8054.6333    5228.9307     4500.261    5414.2674    837.03862    832.47295    7.0872514    -3747.965 
 2607000    241.95839   -4795.4565   -4311.5099   -4795.4565            0    4932.5787     17.89143    23.371628    19.280165    8062.0363    5090.3215    4310.4514    5396.9631   -1082.0825    756.23044   -219.58149   -3731.5544 
 2608000    251.67016   -4799.2428   -4295.8714   -4799.2428            0    7746.0456    17.942392    23.456521    19.041383    8013.8723    6793.5453    7148.2168    9296.3748    522.63445     1096.051   -674.43711   -3390.5592 
 2609000    247.67548   -4814.3311   -4318.9496   -4814.3311            0    6612.7059    17.851649    23.205514    19.276524    7985.4292    8592.9339    4168.2615    7076.9224   -604.54761   -129.64725    108.56924   -3548.8385 
 2610000    257.61864    -4807.407   -4292.1379    -4807.407            0     5888.466    17.959237    23.258364    19.232937    8033.6453    4936.8522     4783.761    7944.7848   -988.52419   -1092.3173   -99.580024   -3602.2306 
 2611000    261.86084   -4794.7731    -4271.019   -4794.7731            0    6431.0098    17.802007    23.184464    19.411238    8011.6002    6160.1474    5660.9263    7471.9556    2765.8638   -266.33068     1167.924   -3519.6136 
 2612000    254.14002   -4807.4432   -4299.1318   -4807.4432            0    8465.6707    18.077021    22.879966    19.310701    7986.9375    6905.1409    10846.868    7645.0032    1052.2875     1890.021    21.900265   -3313.0395 
 2613000    244.91827   -4814.9185   -4325.0517   -4814.9185            0    8568.5328    18.059376     22.73678    19.427529    7977.1776    7942.8179    9301.1695     8461.611    1388.2341   -69.620832    430.66248   -3328.1976 
 2614000     257.7675   -4803.4099    -4287.843   -4803.4099            0    6834.9424    18.101113     22.77911    19.460433    8024.0668    8120.0036    6165.6868    6219.1367    544.83091    49.580316    380.93068    -3487.999 
 2615000    258.03708   -4835.4609   -4319.3549   -4835.4609            0    5801.2368    18.124474    22.830327    19.485266    8062.7625    4885.3548     6660.719    5857.6366    449.20658    146.32146    1023.0303   -3637.2042 
 2616000     253.0752    -4845.062   -4338.8804    -4845.062            0    6127.2184    18.065979    22.674178    19.468433    7974.8781     5736.215    6539.0321    6106.4081    1048.6642    239.52389    743.94323   -3626.2517 
 2617000    254.38515   -4858.0138   -4349.2121   -4858.0138            0    5840.1606    18.076879    22.879591    19.421913    8032.7401     7451.852    4870.5984    5198.0313   -1376.3268    393.25729    -586.9226   -3665.0415 
 2618000    251.89468   -4831.9804   -4328.1599   -4831.9804            0    6834.3566    18.009877    22.856172    19.379217       7977.2    6538.2831    7403.0725    6561.7143    1199.0606     1070.518    1498.9134   -3533.0557 
 2619000    249.84274   -4856.0469   -4356.3305   -4856.0469            0    3185.9629    18.299167    22.926421    19.397885    8138.0806    1665.5928    4018.1247    3874.1712    674.39689    82.380251   -1006.1321   -3978.2028 
 2620000    256.78098   -4841.2558   -4327.6621   -4841.2558            0    5936.8665    17.839339    23.012864    19.500096    8005.4579    8680.0556    6044.4912    3086.0527     591.2963   -1211.4968    446.68451   -3634.5247 
 2621000    257.04972   -4861.1526   -4347.0214   -4861.1526            0     5940.797    17.914587    23.184313    19.184069    7967.8612    6315.7796    3743.0263    7763.5851   -153.78928   -974.04149   -641.73542   -3656.6825 
 2622000    255.02554   -4800.9631   -4290.8805   -4800.9631            0    7512.0631     17.84103     23.13156    19.349302    7985.2799     8015.271    7063.0928    7457.8256   -780.40591    597.20537   -1861.9135   -3416.0472 
 2623000    257.89344   -4836.2121   -4320.3933   -4836.2121            0    7644.0075    18.007793    23.098873    19.149569    7965.4496    7559.9038    7835.9775    7536.1413    1620.8766    703.18686   -619.54055   -3432.4049 
 2624000    266.87553   -4844.0218   -4310.2378   -4844.0218            0    5034.8766    17.966936    22.939446    19.552249    8058.4899    5716.2787    5132.7357    4255.6154    748.96407     4.551263    1448.3761   -3718.5149 
 2625000    262.01346   -4816.5604   -4292.5011   -4816.5604            0    5857.1818     18.13679    22.995424    19.244326    8026.0998    2783.1437     6073.261    8715.1407    599.37904    386.21995     1359.231   -3606.9037 
 2626000    251.61937   -4842.4343   -4339.1644   -4842.4343            0    5262.6457    17.924292    22.813772    19.678774    8047.0585    5923.4501    5532.8654    4331.6217     1286.098    702.60489    145.17815   -3721.5504 
 2627000     245.5948   -4830.2004   -4338.9805   -4830.2004            0    7156.8014    18.218766    22.840688    19.214734     7995.811    5801.3986    7142.6029    8526.4027    -1715.224    673.06752   -145.51648   -3504.4209 
 2628000    244.18375   -4834.1166   -4345.7189   -4834.1166            0    7151.2594    17.967473    22.834683    19.472817    7989.3379    6779.3276    7080.9116     7593.539    807.56315   -950.71442      1464.96   -3512.4807 
 2629000     271.5773   -4820.6173   -4277.4292   -4820.6173            0    5602.9224    18.198958    22.706377    19.443231    8034.5733    4782.9006    6143.5696    5882.2969   -128.83864    30.985648    -1108.547   -3620.9011 
 2630000    248.16545   -4856.4201   -4360.0585   -4856.4201            0    4866.2561    18.104901    22.700356    19.594488    8053.0938    6365.2142      5210.56    3022.9943   -73.238592   -239.59453   -1109.4081   -3788.5357 
 2631000    248.22073   -4854.8725   -4358.4004   -4854.8725            0    8102.2453    18.150116    22.422414    19.480607    7928.0115    7975.8417    7851.2803     8479.614    977.48716   -1215.1943    424.11499   -3421.6033 
 2632000    257.07602   -4805.9454   -4291.7616   -4805.9454            0    5152.3802    18.127402    22.743769    19.546304    8058.6568    6810.2391    5383.4061    3263.4955    1100.6583     -156.654   -358.39815   -3686.2166 
 2633000     267.0589   -4836.3267   -4302.1759   -4836.3267            0    6003.4512    18.147379    22.822114    19.345735    8012.2593    6303.7977    5654.5122    6052.0436   -1109.5267   -575.36432   -471.86495   -3600.6692 
 2634000    245.23355   -4839.5006   -4349.0031   -4839.5006            0    7395.9818    18.054107    22.673734     19.54037    7998.9293    6868.0571    8823.8226    6496.0656    1716.7129    694.99394   -900.48557   -3486.2162 
 2635000    250.02816   -4833.8028   -4333.7156   -4833.8028            0    8261.6861    18.051317    22.917028     19.22214    7951.8638    7565.7177    8735.2246    8484.1159     1023.238    53.502273    57.491127   -3375.6097 
 2636000    270.62903   -4836.8628   -4295.5713   -4836.8628            0    7694.4403    17.904841    22.955909    19.371061      7961.93    6309.1652    8705.9235    8068.2322    450.75311    571.61721   -488.01276   -3402.1192 
 2637000    247.54748   -4828.4827   -4333.3572   -4828.4827            0    5516.9285    18.142651    23.136744    19.136953    8032.9631    3005.1553    6011.9017    7533.7286    338.86449    839.65358    1392.0922   -3687.0351 
 2638000    247.83203    -4823.769   -4328.0743    -4823.769            0    6673.9275    17.894749    23.084891    19.328799    7984.6945    6345.0825    6853.3955    6823.3045   -318.95435    1231.7025   -1230.7935    -3550.905 
 2639000    237.42581   -4832.4411   -4357.5601   -4832.4411            0    8624.3811    17.962281    23.085124    19.217262    7968.6586    9522.9963     7666.224     8683.923    53.973697    1303.3556   -352.35877   -3355.2802 
 2640000    258.07831   -4825.2602   -4309.0717   -4825.2602            0    5987.1456    18.074176    23.062432    19.235117    8017.8599    5544.6533    5992.6705     6424.113    333.96338   -358.67261   -228.07192   -3608.9813 
 2641000    255.63435   -4841.1989   -4329.8986   -4841.1989            0    7146.4679    17.880782    22.990309    19.386075    7969.3189      7525.15     6638.132    7276.1218   -580.86849   -102.12846   -788.50078   -3499.3051 
 2642000     263.3805   -4847.9399   -4321.1464   -4847.9399            0    6593.6146    18.040972    23.019435    19.284338    8008.6501    6490.1065    5595.1517    7695.5855   -129.86191   -1548.9148   -249.08922   -3551.0258 
 2643000    246.32234   -4836.8832   -4344.2081   -4836.8832            0    4418.9194    17.850383    23.234211    19.460581     8071.073    4809.4171    4446.8439    4000.4973    849.66951    981.29221    1553.4419   -3824.0645 
 2644000    250.03114   -4827.7454   -4327.6523   -4827.7454            0    6746.0616    17.980008     23.21311    19.146912    7991.3829     6234.079    5731.0335    8273.0722   -444.81403    720.85393   -846.21517    -3541.425 
 2645000    258.96362   -4845.4182    -4327.459   -4845.4182            0    6144.8409    17.908693    23.123224    19.357808    8016.1987    5876.8189     5248.664    7309.0396    -79.27017   -748.00064   -2232.5857   -3609.0777 
 2646000    255.99923   -4843.1122   -4331.0821   -4843.1122            0    4394.3119    17.932532    23.265355    19.232292    8023.8414    6599.1638    3351.4722    3232.2999   -298.90663   -1502.6268    -708.2082   -3816.8619 
 2647000    249.55827   -4856.5928   -4357.4454   -4856.5928            0     6419.469    17.716731    23.369436    19.333377    8004.5984    5934.7394    5546.1391    7777.5286    353.70044   -559.25959    210.78402    -3608.044 
 2648000    257.98504   -4846.8815   -4330.8796   -4846.8815            0    6122.7172    17.831975    23.399346    19.147837    7989.5606    5085.9644    5714.3897    7567.7974    1057.6855    1149.1191    1076.2848   -3617.4634 
 2649000    254.39045   -4807.6129   -4298.8006   -4807.6129            0    6377.4825     17.90418    23.145545    19.347564    8017.6694    6357.6267    6222.7255    6552.0954   -108.09285   -750.67845   -215.59523   -3553.0848 
 2650000    261.05645   -4863.0066   -4340.8615   -4863.0066            0    7031.4346    18.079104    23.056526    19.185644    7997.3697    8385.9718    4798.2871     7910.045    969.71015   -1086.8767   -187.60428   -3520.7611 
 2651000    260.08518   -4800.7378   -4280.5353   -4800.7378            0    4681.5393    18.101239    23.033621     19.38574    8082.6336       4187.7    4424.5382    5432.3796   -36.245805    1208.2816   -1091.5487   -3728.6898 
 2652000    248.16643    -4813.922   -4317.5585    -4813.922            0    5641.0725    18.048852    22.862344    19.529032    8058.4412    7503.2847    4484.8546    4935.0783    63.924555   -612.95247   -1008.6549   -3654.5965 
 2653000    262.71858   -4833.0765   -4307.6069   -4833.0765            0    7402.2862    18.101605    22.683321    19.471202    7994.9637    7064.1359    8679.2157     6463.507   -321.60514   -90.285551    830.40512   -3444.5126 
 2654000    257.60638   -4844.4689   -4329.2243   -4844.4689            0    6208.0834    18.154103    22.711085    19.415098    8004.8328    6640.9089    5586.4311    6396.9102   -528.90986   -950.29639   -2433.2431   -3604.4785 
 2655000    247.11312   -4833.3466   -4339.0899   -4833.3466            0    5692.3585    18.107037    22.819669    19.403148    8017.3147    6145.5558    6030.5123    4901.0073    2685.1231    237.03416    1387.1887   -3673.5148 
 2656000    243.01183   -4842.9812   -4356.9275   -4842.9812            0    7000.4898    18.178089    22.730515    19.381295    8008.2995    6528.4804    7168.1688    7304.8204   -474.33239   -217.08024   -1424.0451   -3539.3205 
 2657000    249.57824   -4818.5539   -4319.3666   -4818.5539            0    7622.7489    17.958946    22.897497    19.418964    7985.3676    10058.542    6505.5214    6304.1829    1231.1596   -1804.3809      93.6065   -3431.6335 
 2658000    247.97356   -4847.5287   -4351.5509   -4847.5287            0    5770.5526    18.110073    22.877706    19.337074    8011.6772    6623.5395    6181.1798    4506.9384    574.76529   -33.987473   -511.03167   -3677.3075 
 2659000    252.33008   -4853.3645   -4348.6731   -4853.3645            0    5567.3704    17.948545    23.021049     19.41457    8021.9905     6318.432    5863.0354    4520.6439    159.70352   -597.31607   -370.10995   -3697.3325 
 2660000    248.43577   -4807.4632    -4310.561   -4807.4632            0     7608.959    18.006263    22.997906    19.349314    8012.6736     7517.354    6404.6736    8904.8494    1678.4549    301.48369   -1147.0931   -3421.4037 
 2661000    243.60164   -4833.2702   -4346.0369   -4833.2702            0    6536.2433    18.026907     23.01147    19.321338     8014.986    6530.8532    6068.5809    7009.2958    2662.8586    -912.9744     986.4695   -3582.0131 
 2662000    268.89646   -4865.2773   -4327.4511   -4865.2773            0    5456.5881     17.92489    22.913124    19.568148    8036.9362    7802.0937     4882.386    3685.2846   -740.90893   -594.97105   -976.09107   -3687.8819 
 2663000    236.60626   -4791.9345   -4318.6927   -4791.9345            0    9658.7932    17.988138    22.822598    19.260532    7907.1424    9192.6425    10996.714    8787.0233     786.1487    1109.9359    786.79566   -3204.8642 
 2664000    255.50436   -4855.1102   -4344.0699   -4855.1102            0    6001.4139     18.13648     22.99107    19.256746    8029.6218    5690.4627     5803.827    6509.9519    1035.1887   -311.64168   -1412.1695   -3641.2815 
 2665000    252.75524   -4842.2061   -4336.6643   -4842.2061            0    6243.5882     17.93346      23.0996    19.334217    8009.3104    7006.4462    5245.8437    6478.4746    546.80226    -60.68052   -62.295564   -3607.3659 
 2666000    263.73992   -4799.7618   -4272.2494   -4799.7618            0    6644.9413    17.897984     23.25941    19.231176     8005.872    9283.5373    4717.9966    5933.2901    1210.7977    -1435.433    404.06393   -3496.4031 
 2667000    257.71224   -4857.5778   -4342.1214   -4857.5778            0    6254.5243    17.809368    23.215695    19.390449    8017.1138    6591.6485    6227.7157    5944.2087    525.09239    526.44533    -674.5973   -3610.8338 
 2668000    251.52757   -4806.8601   -4303.7738   -4806.8601            0    6565.7033    17.946503    23.105003    19.333084    8016.5406    7360.8327    5034.4385    7301.8388   -7.8236866    190.26008   -1699.9517   -3536.1576 
 2669000    264.90837   -4812.5146   -4282.6651   -4812.5146            0    5940.3691    18.089621    22.988431    19.319475    8034.0422    4596.2918    6364.4448    6860.3706      1123.86    1399.0263     397.6939   -3586.6424 
 2670000    255.84181    -4817.668   -4305.9527    -4817.668            0    6831.2944    17.956887    23.024532    19.415545    8027.3361    6570.5926    7072.7266     6850.564   -538.75801    800.54849   -1961.1127   -3506.2099 
 2671000    260.88716   -4825.2241   -4303.4176   -4825.2241            0     5718.841    18.041408    22.960211    19.322366    8003.9914    3563.5304    7264.7602    6328.2325    2736.4551   -1062.4857    230.46209   -3635.8572 
 2672000    249.06408   -4834.7637   -4336.6047   -4834.7637            0    6495.6457    17.974875    23.190207    19.180201    7995.0957    7001.3156    6116.5208    6369.1006   -535.15887    1218.6633   -2461.6063   -3579.2107 
 2673000    247.80475   -4847.4185   -4351.7784   -4847.4185            0    5546.4932    18.088072    23.041796     19.30584    8046.3202     6521.615    4701.2531    5416.6115    96.804177    -766.7777    903.32106   -3700.9123 
 2674000    256.84291   -4839.8629   -4326.1454   -4839.8629            0    7117.6382    17.965316     23.01441    19.314858    7985.9437    9769.6428    5029.0252    6554.2466    2157.9121    263.50641    1180.0582   -3497.1769 
 2675000    246.44122   -4821.4797   -4328.5668   -4821.4797            0    8268.8062    17.963046    22.942483    19.291894    7950.5152    8332.3292    8515.5509    7958.5385    678.65208   -1193.7602    69.302177   -3369.7978 
 2676000    256.32656    -4836.832   -4324.1472    -4836.832            0    8836.9466    17.938421    22.885365    19.309362    7927.0208    9283.7297    8835.5632    8391.5467    531.32316   -453.33919    1507.1491   -3302.5302 
 2677000     257.0513    -4814.077   -4299.9427    -4814.077            0     6119.628    18.006422    22.955987    19.404415    8020.9155    5807.5336    5829.7914    6721.5588    1258.6759    1043.7104    2167.6007    -3584.088 
 2678000    263.47163   -4834.9133   -4307.9375   -4834.9133            0     7015.983    18.239516    22.783874    19.241597    7996.1695    6575.6598    7903.9141    6568.3749    141.15166     744.6039    563.76444   -3489.7621 
 2679000    261.59442   -4833.0146   -4309.7934   -4833.0146            0    4472.0233    17.996077    22.956574    19.568943    8084.4837    4858.2258    4763.0705    3794.7736    691.85715   -540.88945    417.50656   -3782.5244 
 2680000    250.07981   -4810.6528   -4310.4623   -4810.6528            0    5934.2405    18.054091    22.911706    19.314622    7989.4937    6219.9479    5378.0621    6204.7114    460.25992   -1667.5471   -303.34903   -3619.0131 
 2681000    241.98043   -4817.5348   -4333.5441   -4817.5348            0    6726.8376    18.000465    22.729964    19.605329    8021.5188    7284.5934    7761.2537    5134.6659    2130.9701    502.27286    144.57583   -3546.6008 
 2682000    258.08623   -4826.8267   -4310.6224   -4826.8267            0    7125.1645    18.273933    22.848538    19.195853    8014.8955    6233.6787    7511.1605    7630.6543    475.18979    229.64445    514.63812   -3477.7688 
 2683000    255.80099   -4859.6594   -4348.0258   -4859.6594            0    6999.8865    18.083429    22.528558    19.665664    8011.6652    5739.0451    7881.8139    7378.8007   -143.41224    978.52795     1508.695   -3530.1456 
 2684000    249.97795    -4857.315   -4357.3282    -4857.315            0    7162.2623    18.121762    22.807977    19.303433    7978.5089    8149.6867    6614.7483    6722.3518    930.12278   -932.91073    748.43835   -3523.9391 
 2685000    267.21746   -4837.7264   -4303.2584   -4837.7264            0    5620.0216    18.073134    22.800882    19.524302    8045.6409    5716.4903    6259.3865     4884.188   -1231.7581    541.93268    -1678.414   -3643.8196 
 2686000    261.71454   -4831.5238   -4308.0624   -4831.5238            0    7049.6945    18.100173    22.860164    19.343349    8003.7537    6729.2305    7676.2842    6743.5689    155.60906   -126.60513    10.463289   -3485.1759 
 2687000    251.93923   -4835.6125   -4331.7029   -4835.6125            0      5462.62    17.945525    22.963557    19.457492     8018.298    5366.1049      5420.06     5601.695    244.22523    654.23198    -74.13133   -3692.9115 
 2688000    260.89608   -4820.4439   -4298.6195   -4820.4439            0    6236.1667     17.93869    23.391475    19.008258    7976.1012    6041.9623    5204.4821    7462.0556    692.58132    139.24697    131.83692   -3573.2083 
 2689000    255.32169   -4862.9339    -4352.259   -4862.9339            0    7097.7796    17.719217    23.175181    19.375695    7956.5527    6071.3087    7877.7025    7344.3277   -1557.5578    779.11059    372.57059   -3528.6457 
 2690000    261.77558   -4797.2594   -4273.6759   -4797.2594            0    7724.4993    17.940537    23.226142    19.170827    7988.2816    9367.4438     6161.548    7644.5061    1614.9008   -92.393062    1674.9539   -3373.7648 
 2691000    264.85104   -4843.0358    -4313.301   -4843.0358            0    6239.6643    17.924769    23.073359    19.377578    8014.2685    7147.9691    6363.3935    5207.6304   -701.95071     138.1788    298.54525   -3584.0097 
 2692000    265.84547   -4839.1342   -4307.4104   -4839.1342            0    6766.7228    17.956436    23.116619    19.254265     7992.293    8061.2157     4813.444    7425.5086    1267.9309    -268.3497   -341.79149   -3518.6853 
 2693000    239.95249   -4802.5576    -4322.623   -4802.5576            0     8362.855    17.876276    23.030347    19.369936    7974.5411    6856.0956    8882.9569    9349.5124   -957.08131   -312.05344   -1572.6286   -3350.0188 
 2694000    246.61453   -4815.8804   -4322.6209   -4815.8804            0    6936.4263    17.883981    23.240091    19.244842    7998.6443    7369.3225    5777.3633     7662.593    720.28638   -1380.2663   -1282.0976   -3513.4727 
 2695000    256.27387   -4841.7721   -4329.1927   -4841.7721            0     5757.849    18.079115    23.036481    19.282537    8030.7752    3960.5479    6435.3861    6877.6131   -538.34027    400.68148   -603.51974   -3654.8298 
 2696000    249.84568   -4839.0691   -4339.3469   -4839.0691            0    5888.8295    17.920642    23.141265    19.383876     8038.616    8790.3696    4682.1694    4193.9496   -11.899652    844.42645    321.96962   -3648.9701 
 2697000     262.2265   -4847.6879   -4323.2025   -4847.6879            0    6176.3201    18.096895    22.910101    19.292205    7998.5809     5115.429    5911.2349    7502.2965   -386.31396    629.67539   -1847.6171    -3602.728 
 2698000    254.74921    -4828.726   -4319.1961    -4828.726            0    6385.2764    18.035943    22.927812    19.414102    8028.2111    4870.0658    7528.8623    6756.9011    863.59362    342.85499   -992.28225   -3571.5874 
 2699000    267.26326   -4829.1462   -4294.5867   -4829.1462            0    6037.7987    17.898427    22.967317    19.448989    7995.0676    5422.2386    7660.3702    5030.7873   -406.31072   -540.15126    267.28015   -3590.5802 
 2700000    249.99125    -4833.239   -4333.2256    -4833.239            0    6795.9477    17.936541    22.999883    19.414864     8009.376    8741.3473    6705.7721    4940.7236    899.26599   -221.92371    989.61635   -3539.4009 
 2701000     254.6654   -4832.2496   -4322.8874   -4832.2496            0     6574.246    18.102584    22.962925    19.293201    8019.9571    5899.9836    5590.9815     8231.773   -920.34997   -129.80191   -1216.6692   -3553.9448 
 2702000    257.75842   -4846.8142   -4331.2655   -4846.8142            0    4734.5365    18.082205    23.060728    19.312749    8053.2003    6051.0954    3765.7852    4386.7288    170.66365    205.00593    28.837833   -3775.2053 
 2703000    252.60649   -4856.8892    -4351.645   -4856.8892            0    6812.1856    17.905644    23.136051    19.214891    7960.0738    6029.8459    6640.9152    7765.7957    56.395933   -44.664492    465.19837   -3560.8217 
 2704000    244.13652   -4849.8888   -4361.5856   -4849.8888            0     4577.096    18.119829    23.069783    19.269584    8055.0814    2047.4157    5394.6573    6289.2149   -294.63855    1725.3712    35.977172   -3823.8908 
 2705000    245.28866   -4843.0995   -4352.4919   -4843.0995            0    6929.1907    17.934272    22.964815    19.360681    7973.8361    6754.2033    7572.8999    6460.4689   -434.96514    1551.9747    -714.6592   -3546.6948 
 2706000    246.55602   -4839.1007   -4345.9582   -4839.1007            0    7681.0234    18.075717     23.05336    19.132249    7972.5234    7529.7724    6646.6374    8866.6604    1407.3735    242.87865    620.21359   -3452.8774 
 2707000    269.16655   -4858.6312   -4320.2649   -4858.6312            0    6588.2883     17.82806      22.9024    19.582542    7995.6567    8604.6521    5576.3344    5583.8784    96.289085   -571.31354     1718.436   -3552.0148 
 2708000    258.30712   -4822.4903   -4305.8442   -4822.4903            0    6714.2245    18.201102    22.861603    19.315417    8037.2682    6554.2852    6861.5515    6726.8368   -138.76569   -447.51368   -485.67236   -3518.8343 
 2709000    249.76454   -4830.2278   -4330.6679   -4830.2278            0    7103.8598    18.129101    22.776211     19.41558    8016.9306    7612.6089     7562.499    6136.4716   -254.99421    1171.8244   -572.27622   -3500.0938 
 2710000    259.74188   -4831.6141   -4312.0983   -4831.6141            0    5313.9545    18.309851    22.521771    19.579437    8073.9777     4139.197    7141.8571    4660.8094    154.37656    452.92086    846.80606   -3686.3765 
 2711000    255.19479   -4828.0211      -4317.6   -4828.0211            0     7937.247     18.11726    22.538474    19.475757    7952.6409    7922.3332      9507.46    6381.9479    558.22715    361.17801   -304.30092   -3397.0293 
 2712000    259.43402    -4849.302   -4330.4019    -4849.302            0    6615.0532    18.116328    22.761629     19.45079     8020.672    6065.9232    6469.0099    7310.2266    109.27564    65.606029   -1481.4767   -3556.6174 
 2713000    250.24888   -4827.4451   -4326.9164   -4827.4451            0    6134.7234    18.198866    22.676021    19.484687    8040.8993    4910.8813    5994.3416    7498.9473     1610.349   -966.26961    205.06516    -3607.508 
 2714000    254.50304   -4835.4056   -4326.3681   -4835.4056            0    6548.3617     18.09372    22.827073      19.4531    8034.6493    6152.6426    6918.6969    6573.7454   -959.87238    572.44083   -236.45445   -3559.0499 
 2715000    243.22551   -4864.6237   -4378.1426   -4864.6237            0    5716.5328     18.12512    22.907546    19.310777    8017.8735    5508.2766    5333.8195    6307.5023    914.38295    205.10405    1158.6686   -3709.6944 
 2716000    258.15772   -4847.6177   -4331.2704   -4847.6177            0    5774.6979    17.916477    22.806545    19.603307     8010.165    7587.0037    5748.5727    3988.5172    172.75444   -487.22956    -858.5713   -3656.6699 
 2717000    247.01833    -4857.814   -4363.7468    -4857.814            0     6865.827    18.133167    22.862785    19.302397    8002.2857    5620.4828    6145.2339    8831.7644   -691.68591   -981.73846    -552.7392   -3562.4696 
 2718000     248.9387   -4798.1869   -4300.2788   -4798.1869            0    7435.0321    18.026748     22.75742     19.60922    8044.5312     9278.255    7597.4055    5429.4358   -1220.6808    296.72653    525.84279   -3427.9916 
 2719000    258.12205   -4849.1183   -4332.8423   -4849.1183            0    6610.9042    18.186945    22.832233      19.2988    8013.7991    6364.4423    7521.4021    5946.8683    1140.3593   -114.56393    951.17276   -3560.2059 
 2720000    252.36323   -4863.8161   -4359.0585   -4863.8161            0     6314.846    18.067635    22.785438    19.403969    7988.2059    8239.6458    6227.4306    4477.4617    55.537149   -302.27029    246.27896   -3623.3802 
 2721000    252.96712   -4843.0524   -4337.0869   -4843.0524            0    5065.7432    18.044826    23.089744     19.36963    8070.3639    5614.0062    4022.8089    5560.4145    -190.2805   -42.959468   -133.18545   -3740.8592 
 2722000    248.87101   -4861.8414   -4364.0686   -4861.8414            0    4842.4728    17.875748    23.240663    19.432539     8073.136    5353.3178    4762.2593    4411.8412    444.92762   -91.230991    110.77289   -3793.9236 
 2723000    247.01586   -4850.9408   -4356.8786   -4850.9408            0    7671.7649     17.91649    23.103559    19.239819    7964.0282    9375.8693    6883.6568    6755.7686   -1769.9775   -491.45423    345.70691   -3465.8247 
 2724000    257.48539   -4841.3725   -4326.3699   -4841.3725            0    6412.7749    17.722539     23.40688    19.335909    8021.1026    7705.7451    4974.5003    6558.0793    208.75778    754.12006   -458.92143   -3576.2064 
 2725000    249.63546   -4842.9683   -4343.6665   -4842.9683            0    7313.3027    17.976794    23.158761    19.094234    7949.3167    7612.9053    6103.9503    8223.0525    737.85116    609.43547    731.37652   -3495.8161 
 2726000    246.83424   -4826.4014   -4332.7024   -4826.4014            0    6913.0819    17.995627     23.12339    19.211946    7994.4731    7672.1652    6609.9835    6457.0969     156.7148    927.84562    544.31913    -3526.698 
 2727000    276.32606   -4809.7709   -4257.0846   -4809.7709            0    7192.4215    17.867305     23.06183     19.43692    8009.0366    9386.0735    6659.5436    5531.6474     878.4126    171.66966    1752.6495    -3416.984 
 2728000    257.97873     -4800.79   -4284.8007     -4800.79            0    5625.5553    17.975912     23.08454    19.364695    8035.6834    7341.5056    4530.4593     5004.701    860.72418   -1401.1945   -139.93506   -3625.5295 
 2729000    268.37001   -4842.6871   -4305.9139   -4842.6871            0    6647.6424    17.979587    23.003886    19.298017    7981.6671    7391.4477    6683.0237    5868.4557   -171.59977    221.88332    1046.0964   -3532.0989 
 2730000    266.69073   -4812.0339   -4278.6194   -4812.0339            0    6829.2765    17.783035     23.19087    19.418216    8008.1508    6760.7549    6815.4565     6911.618    1394.6104    32.268748     738.8807   -3481.0237 
 2731000    263.96562   -4831.5983   -4303.6344   -4831.5983            0    7093.3578     18.04812    23.136558    19.221669    8026.4191    8068.8327    6608.3698     6602.871   -1286.2066    80.071276   -1227.4094   -3473.3066 
 2732000    260.63128   -4843.7319   -4322.4371   -4843.7319            0    5682.5563    17.962682    23.008787    19.363118    8002.7675     5493.597    5997.5805    5556.4913   -241.24819    453.27916    -168.6181   -3659.2137 
 2733000     245.2042   -4823.3947    -4332.956   -4823.3947            0    6854.8161    18.013992    23.015346    19.359326    8026.3429     7731.316    6257.7016    6575.4306   -1103.2954    -894.7813   -1034.1908   -3530.5588 
 2734000    264.55622   -4836.7051     -4307.56   -4836.7051            0    4972.6852    18.043618    22.982241    19.473954    8075.5131    7202.2929    3913.8985    3801.8641   -553.91466   -1888.5012    382.79141   -3721.9116 
 2735000    240.46153    -4833.722   -4352.7692    -4833.722            0    6991.2719    18.009185    23.024023    19.293854    8000.0786    5910.9434    7598.0411    7464.8312   -332.85255     612.6646     425.7984    -3537.077 
 2736000     245.3631   -4825.6576   -4334.9011   -4825.6576            0    5921.7507    17.999391    23.056645    19.321926    8018.7067    4720.2334    6424.4509    6620.5676     390.2238   -377.56071    945.39542   -3642.3842 
 2737000    253.17249    -4841.678   -4335.3017    -4841.678            0    8043.2769    17.984605    22.931351    19.310766     7963.978    7930.6421    7941.4573    8257.7314   -1726.8614    1517.4867   -1814.0944   -3401.1037 
 2738000    253.56681   -4820.9665   -4313.8015   -4820.9665            0    6447.1343    18.001924    22.932673    19.467815    8036.9413    7470.2788    5531.6289    6339.4952   -64.224167    828.21285   -553.23945   -3558.1294 
 2739000    256.64861   -4830.5945   -4317.2656   -4830.5945            0    7380.4249    18.071763    22.878206    19.244369    7956.5751    6614.6725     6966.938    8559.6642    345.57263    448.00475     2567.368   -3460.8522 
 2740000    266.93426   -4838.6692   -4304.7677   -4838.6692            0    5834.3441    18.084791    22.875669    19.379969     8017.526    8681.9389    6032.7196    2788.3737   -1388.7665    650.79879     102.0006    -3622.573 
 2741000    248.50117    -4840.646   -4343.6129    -4840.646            0    6755.1083    18.038141     22.79999    19.508922    8023.4234    8948.2365    5648.2316    5668.8567    258.26603   -1065.3185    230.61103   -3553.1748 
 2742000    251.78616    -4831.224   -4327.6205    -4831.224            0    8002.5802    18.083899    22.689803     19.47858    7992.4532    9450.0374    7994.8721     6562.831     -1916.78   -303.73634    404.72795   -3394.8259 
 2743000    264.52334    -4820.251   -4291.1716    -4820.251            0    6120.4008    18.092445    22.774327    19.509903    8038.9236    5305.3639    7266.8243    5789.0144    -1169.097    978.29168   -60.432394   -3573.6192 
 2744000    271.74511    -4847.886   -4304.3622    -4847.886            0    6914.2851    17.872858     22.87385    19.534443     7986.092    7776.0225    8387.4482    4579.3846   -1177.5759    168.04655    1286.3143   -3499.0626 
 2745000    260.52388   -4810.5312   -4289.4513   -4810.5312            0    6235.1659    18.161348    22.801568    19.408128    8037.0455    5305.1018    6289.1956    7111.2003   -1019.8078   -104.96621   -604.75993   -3558.6146 
 2746000    248.86222   -4831.4669   -4333.7117   -4831.4669            0    6028.5102    18.104448     22.84159    19.425444    8033.0888    6066.0325    6780.5257    5238.9724    -832.8032    493.08182    491.62323   -3627.4455 
 2747000    253.02205    -4844.299   -4338.2236    -4844.299            0    3262.7563    18.023029     23.15284    19.461154    8120.8345    3778.6452    2617.9959    3391.6279   -182.73169    138.51515   -98.527617   -3951.8022 
 2748000    256.44825   -4814.8814   -4301.9533   -4814.8814            0    8042.6977    17.908549    23.078631    19.237696    7951.0323     9092.022    7029.4403    8006.6308   -1677.6366    466.99479   -2054.8763   -3369.3409 
 2749000     256.0988   -4843.7592   -4331.5299   -4843.7592            0    4696.8948    18.120634    23.047903    19.291059     8056.768    3595.7171    4721.4815    5773.4859    87.478205   -653.92566    2050.5123   -3779.6462 
 2750000    256.72331   -4805.0793    -4291.601   -4805.0793            0    4294.4209     17.98049    23.263947    19.254653    8054.1667    5111.1758    4086.0534    3686.0336    145.13493    15.848098   -1227.1266   -3787.1707 
Loop time of 568.515 on 64 procs for 250000 steps with 1008 atoms

Performance: 75.987 ns/day, 0.316 hours/ns, 439.742 timesteps/s
99.2% CPU use with 64 MPI tasks x 1 OpenMP threads

MPI task timing breakdown:
Section |  min time  |  avg time  |  max time  |%varavg| %total
---------------------------------------------------------------
Pair    | 27.751     | 31.625     | 34.937     |  30.0 |  5.56
Bond    | 0.28234    | 0.29179    | 0.30535    |   0.9 |  0.05
Kspace  | 262.49     | 272.15     | 289.01     |  42.3 | 47.87
Neigh   | 3.9455     | 4.6027     | 5.7527     |  26.4 |  0.81
Comm    | 109.31     | 125.58     | 136.03     |  67.1 | 22.09
Output  | 1.0398     | 1.0406     | 1.0461     |   0.1 |  0.18
Modify  | 120.55     | 124.53     | 130.36     |  24.9 | 21.90
Other   |            | 8.699      |            |       |  1.53

Nlocal:        15.7500 ave          20 max          12 min
Histogram: 3 5 9 11 0 11 15 6 3 1
Nghost:        2473.38 ave        2499 max        2441 min
Histogram: 3 1 6 8 5 12 10 8 8 3
Neighs:        5192.61 ave        6700 max        3901 min
Histogram: 3 5 9 11 8 7 11 6 3 1

Total # of neighbors = 332327
Ave neighs/atom = 329.68948
Ave special neighs/atom = 2.0000000
Neighbor list builds = 9297
Dangerous builds = 0

unfix		3
unfix		2
unfix		1

write_data	data.final.${pid}
write_data	data.final.0
System init for write_data ...
PPPM initialization ...
  extracting TIP4P info from pair style
  using 12-bit tables for long-range coulomb (../kspace.cpp:340)
  G vector (1/distance) = 0.38323918
  grid = 24 30 32
  stencil order = 5
  estimated absolute RMS force accuracy = 0.0019527265
  estimated relative force accuracy = 5.8805778e-06
  using double precision FFTW3
  3d grid and FFT values/proc = 3825 384
Last active /omp style is kspace_style pppm/tip4p/omp
WARNING: Not all mixed pair coeffs generated from mixing. Use write_data with 'pair ij' option to store all pair coeffs. (../write_data.cpp:312)

write_restart   restart.lmp.${pid}
write_restart   restart.lmp.0
System init for write_restart ...
PPPM initialization ...
  extracting TIP4P info from pair style
  using 12-bit tables for long-range coulomb (../kspace.cpp:340)
  G vector (1/distance) = 0.38323918
  grid = 24 30 32
  stencil order = 5
  estimated absolute RMS force accuracy = 0.0019527265
  estimated relative force accuracy = 5.8805778e-06
  using double precision FFTW3
  3d grid and FFT values/proc = 3825 384
Last active /omp style is kspace_style pppm/tip4p/omp
Total wall time: 0:09:31
