LAMMPS (30 Jul 2021)
  using 1 OpenMP thread(s) per MPI task
package omp 0
using multi-threaded neighbor list subroutines
echo both

include		in.partitions
variable        pid world 0
include		in.temp
variable        temperature equal 262.39
variable	tempDamp equal 100.0
include		in.pressure
variable        pressure equal 3750.0
variable        pressureDamp equal 1000.0 # This is 1 ps
include		in.seed
variable        seed world 745823

units		real
atom_style	full
read_restart	restart.lmp.${pid}
read_restart	restart.lmp.0
Reading restart file ...
  restart file = 30 Jul 2021, LAMMPS = 30 Jul 2021
  restoring atom style full from restart
  orthogonal box = (0.35329052 1.5076608 0.43101361) to (17.854282 22.121517 21.782182)
  4 by 4 by 4 MPI processor grid
  restoring pair style lj/cut/tip4p/long/omp from restart
  restoring bond style harmonic/omp from restart
  restoring angle style harmonic/omp from restart
  864 atoms
  576 bonds
  288 angles
Finding 1-2 1-3 1-4 neighbors ...
  special bond factors lj:    0        0        0       
  special bond factors coul:  0        0        0       
     2 = max # of 1-2 neighbors
     1 = max # of 1-3 neighbors
     1 = max # of 1-4 neighbors
     2 = max # of special neighbors
  special bonds CPU = 1.509 seconds
  read_restart CPU = 1.904 seconds
include 	in.setup
variable	out_freq equal 1000
variable	out_freq2 equal 10000
variable	out_freq3 equal 1000

timestep	2.0

neigh_modify    delay 7 every 1

include		in.tip4p
# This is TIP4P/Ice

# create groups ###
group ox type 2
288 atoms in group ox
group hy type 1
576 atoms in group hy

# set charges - beside manually ###
set group ox charge -1.1794
Setting atom values ...
  288 settings made for charge
set group hy charge 0.5897
Setting atom values ...
  576 settings made for charge

# ### TIP3P Potential Parameters ###
pair_style lj/cut/tip4p/long/omp 2 1 1 1 0.1577 8.5
pair_coeff 1 1*2 0.000 0.000
pair_coeff 2 2 0.21084 3.1668
bond_style  harmonic
bond_coeff  1 450 0.9572
angle_style harmonic
angle_coeff 1 55 104.52
kspace_style pppm/tip4p/omp 1.0e-5
pair_modify tail yes

thermo          ${out_freq}
thermo          1000
thermo_style    custom step temp pe etotal epair emol press lx ly lz vol pxx pyy pzz pxy pxz pyz enthalpy

restart 	${out_freq3} restart.lmp.${pid} restart2.lmp.${pid}
restart 	1000 restart.lmp.${pid} restart2.lmp.${pid}
restart 	1000 restart.lmp.0 restart2.lmp.${pid}
restart 	1000 restart.lmp.0 restart2.lmp.0


include         in.dump
dump            myDump all atom ${out_freq2} dump.water.${pid}
dump            myDump all atom 10000 dump.water.${pid}
dump            myDump all atom 10000 dump.water.0
dump            myDump2 all dcd ${out_freq2} dump.dcd
dump            myDump2 all dcd 10000 dump.dcd
dump_modify     myDump append yes
dump_modify     myDump2 append yes


variable natoms 	equal  "count(all)"                        # NUMBER ATOMS
variable H      	equal  "enthalpy/v_natoms"                 # ENTHALPY-per-atom
variable Vol      	equal  "vol/v_natoms"                 # volume-per-atom
fix AVG all 		ave/time ${out_freq} 1 ${out_freq} v_Vol v_H file vol_enthalpy.dat
fix AVG all 		ave/time 1000 1 ${out_freq} v_Vol v_H file vol_enthalpy.dat
fix AVG all 		ave/time 1000 1 1000 v_Vol v_H file vol_enthalpy.dat


timer           timeout 23:50:00 every 1000
New timer settings: style=normal  mode=nosync  timeout=23:50:00

fix 		1 all shake 1e-6 200 0 b 1 a 1
       0 = # of size 2 clusters
       0 = # of size 3 clusters
       0 = # of size 4 clusters
     288 = # of frozen angles
  find clusters CPU = 1.272 seconds
fix             2 all nph iso ${pressure} ${pressure} ${pressureDamp}
fix             2 all nph iso 3750 ${pressure} ${pressureDamp}
fix             2 all nph iso 3750 3750 ${pressureDamp}
fix             2 all nph iso 3750 3750 1000
fix             3 all temp/csvr ${temperature} ${temperature} ${tempDamp} ${seed}
fix             3 all temp/csvr 262.39 ${temperature} ${tempDamp} ${seed}
fix             3 all temp/csvr 262.39 262.39 ${tempDamp} ${seed}
fix             3 all temp/csvr 262.39 262.39 100 ${seed}
fix             3 all temp/csvr 262.39 262.39 100 745823

run             250000
PPPM initialization ...
  extracting TIP4P info from pair style
  using 12-bit tables for long-range coulomb (../kspace.cpp:340)
  G vector (1/distance) = 0.373307
  grid = 24 24 25
  stencil order = 5
  estimated absolute RMS force accuracy = 0.0031794181
  estimated relative force accuracy = 9.5747232e-06
  using double precision FFTW3
  3d grid and FFT values/proc = 2730 288
Last active /omp style is kspace_style pppm/tip4p/omp
Neighbor list info ...
  update every 1 steps, delay 7 steps, check yes
  max neighbors/atom: 2000, page size: 100000
  master list distance cutoff = 10.8154
  ghost atom cutoff = 10.8154
  binsize = 5.4077, bins = 4 4 4
  1 neighbor lists, perpetual/occasional/extra = 1 0 0
  (1) pair lj/cut/tip4p/long/omp, perpetual
      attributes: half, newton on, omp
      pair build: half/bin/newton/omp
      stencil: half/bin/3d
      bin: standard
Per MPI rank memory allocation (min/avg/max) = 9.237 | 9.241 | 9.247 Mbytes
Step Temp PotEng TotEng E_pair E_mol Press Lx Ly Lz Volume Pxx Pyy Pzz Pxy Pxz Pyz Enthalpy 
 1000000    272.02158   -3856.3176   -3390.0819   -3856.3176            0    3609.3587    17.500991    20.613856    21.351169    7702.7099    4623.2657    2869.8366    3334.9739    724.20024   -1113.1809    25.398951   -2984.6206 
 1001000    278.65855   -3879.2033   -3401.5921   -3879.2033            0    4273.8031     17.43736    20.538907    21.273539    7618.9973    3007.3563    6302.6203    3511.4326   -1275.1023    7.7407571    374.87939   -2926.7073 
 1002000    263.77327    -3855.127   -3403.0287    -3855.127            0    3000.0629    17.450112    20.553927    21.289096    7635.7242    2480.2716    3255.0243    3264.8928    67.954741    46.199996   -1600.1679    -3068.944 
 1003000    262.14159     -3896.07   -3446.7683     -3896.07            0     4043.802    17.497815    20.610115    21.347293    7698.5165      4552.73    3351.4385    4227.2376   -652.75596     919.1076     546.7959   -2992.7505 
 1004000    249.54207   -3893.4872   -3465.7807   -3893.4872            0    2158.6532    17.483087    20.592767    21.329325    7679.0934    2174.5924     2043.805    2257.5622    511.77113    562.44381   -121.98863   -3224.0294 
 1005000    255.92889   -3859.2127   -3420.5593   -3859.2127            0    3476.9431    17.448629     20.55218    21.287286    7633.7776    4228.2687     3346.857    2855.7036    1201.4859    23.066026   -629.57753   -3033.4684 
 1006000     264.3592   -3886.1194   -3433.0168   -3886.1194            0    4612.0137    17.456325    20.561245    21.296676    7643.8834     4003.995    4482.4819    5349.5643    61.347096    115.92259    666.44322   -2918.8778 
 1007000    270.19863   -3876.1018   -3412.9906   -3876.1018            0    5136.9223    17.334311    20.417529    21.147819    7484.7165    6341.6912    3945.9547    5123.1212   -712.53812    736.85914    970.86903     -2852.26 
 1008000     275.2667   -3876.0246   -3404.2269   -3876.0246            0    3204.7164    17.471915    20.579608    21.315695    7664.3814    3624.8023    4448.5286    1540.8181   -1000.6336   -432.61232    263.92886   -3046.0129 
 1009000    287.40381   -3891.4018   -3398.8015   -3891.4018            0    5152.0284    17.360371    20.448224    21.179612    7518.5241    5131.7089    5221.3332    5103.0432     1286.667    891.26248    68.369534   -2833.8817 
 1010000    251.30112   -3847.3511   -3416.6296   -3847.3511            0    4327.7247     17.46418    20.570497    21.306258    7654.2064    6283.9018    3996.2685    2703.0037   -915.36619    1052.2788   -531.92353   -2933.5311 
 1011000     256.4722   -3842.8896    -3403.305   -3842.8896            0     2622.664    17.420621    20.519191    21.253117    7597.0768    2955.7459    2872.5066    2039.7395    515.36616    616.43189    68.003944   -3112.7255 
 1012000    263.67556   -3830.5027   -3378.5719   -3830.5027            0    5007.0508    17.484445    20.594367    21.330982    7680.8832    5868.4527    4589.0032    4563.6965    783.24386   -381.36231   -688.99026    -2817.693 
 1013000    262.24983   -3841.0342    -3391.547   -3841.0342            0    4015.5041    17.476464    20.584966    21.321245    7670.3693    2959.5888    5271.5236    3815.3998    349.47633   -418.57151    213.95196   -2942.3548 
 1014000    265.91796   -3857.9172    -3402.143   -3857.9172            0    2924.5832    17.394235    20.488112    21.220927    7562.6086    3216.6394    2546.3376    3010.7726    408.62881   -192.37736   -396.57711   -3079.5822 
 1015000    266.58746   -3840.2412   -3383.3194   -3840.2412            0    3935.7836    17.404401    20.500085    21.233328    7575.8753      5553.64    2935.4913    3318.2194    1378.8409    72.801328   -353.92018    -2948.469 
 1016000     261.6662   -3841.3908   -3392.9039   -3841.3908            0    4564.8423    17.386444    20.478935    21.211422     7552.451     5569.557    4993.5828     3131.387    799.95867   -43.510136     2072.697   -2890.1105 
 1017000    264.95783   -3835.4406   -3381.3119   -3835.4406            0    5563.0126    17.358566    20.446098     21.17741    7516.1793    5625.0535    5346.7421    5717.2423    826.85849    581.35565   -833.23037    -2771.518 
 1018000     259.0214   -3888.0475   -3444.0937   -3888.0475            0     2235.548    17.453373    20.557768    21.293074    7640.0061    2820.9662    1193.9549    2691.7228    1031.3741    866.77315   -1010.1224   -3195.0053 
 1019000    269.86794   -3886.4948   -3423.9504   -3886.4948            0    3463.2758    17.438443    20.540182     21.27486    7620.4163    3300.0352    4105.4299    2984.3622     834.7821    445.54954   -904.66868    -3039.056 
 1020000     255.8078   -3883.8773   -3445.4315   -3883.8773            0    3677.9112    17.393028    20.486689    21.219453    7561.0335     5150.814    2730.9934    3151.9263   -586.02768   -54.102385   -358.50009   -3039.8685 
 1021000    256.59873   -3877.2359   -3437.4344   -3877.2359            0     3391.815    17.454291    20.558849    21.294194    7641.2118    4942.7577    2733.1268    2499.5605    1718.2041    -1868.571   -1055.8561   -3059.4531 
 1022000    271.45224   -3867.0747   -3401.8148   -3867.0747            0    4261.2025    17.478959    20.587905    21.324289    7673.6551    4816.4229    4533.9069    3433.2779    714.37958    678.14252    166.01043   -2924.9335 
 1023000    244.11008    -3866.649   -3448.2527    -3866.649            0    2278.3273    17.438872    20.540688    21.275383    7620.9789    1712.4786    1680.1464     3442.357   -1669.1684    60.524345    871.25976   -3195.0299 
 1024000    275.69587   -3833.5592   -3361.0259   -3833.5592            0    1361.0256    17.522619     20.63933    21.377554    7731.3019    1343.6496    2491.9643    247.46296    1993.2958    458.49968    103.58736   -3207.5661 
 1025000    246.33163   -3821.2099   -3399.0059   -3821.2099            0    3015.8098    17.452174    20.556356    21.291612    7638.4317    1411.2693    3210.4583    4425.7017    157.03821    981.10814   -394.04649   -3063.0486 
 1026000    267.78993   -3850.0735   -3391.0908   -3850.0735            0     3764.693    17.459132    20.564551      21.3001     7647.571     3816.962    3350.8072    4126.3097   -181.67315    589.32082    300.81922   -2971.2071 
 1027000    271.82765   -3846.9592   -3381.0559   -3846.9592            0    4731.8288     17.39987    20.494749    21.227801    7569.9604    5531.9014    5336.2472    3327.3376   -297.40643   -174.46338    773.06802   -2858.6615 
 1028000    255.83604   -3862.0415   -3423.5473   -3862.0415            0    3270.3505    17.485973    20.596167    21.332846     7682.897    3249.5758    2338.8649    4222.6108   -56.819628    462.21429    454.41182   -3057.1138 
 1029000    254.59741   -3865.7282   -3429.3569   -3865.7282            0    3744.3863    17.478006    20.586783    21.323127    7672.4003    4312.7503    2675.4289    4244.9797   -697.99492    1163.7321    1694.5432   -3010.3822 
 1030000    272.04618   -3851.6237   -3385.3459   -3851.6237            0    4020.1678    17.514544     20.62982    21.367703    7720.6191    4494.2567      4082.98    3483.2666   -188.77458    156.15096   -716.93708   -2932.6858 
 1031000    261.17549   -3841.5038   -3393.8579   -3841.5038            0    4053.9146    17.453554    20.557981    21.293295    7640.2438    2510.5224    4550.1064    5101.1149    354.28225    -417.4356   -583.03238     -2942.15 
 1032000    253.06898   -3845.8495   -3412.0979   -3845.8495            0    2413.2698    17.519525    20.635686    21.373779    7727.2072    4037.2993    1603.7196    1598.7906    827.52069    119.88587    399.50016   -3140.1384 
 1033000    271.39319   -3881.5308   -3416.3722   -3881.5308            0    4751.9392     17.37886    20.470001    21.202168    7542.5715    3863.9954    5009.1891    5382.6332   -975.18194    740.90941   -470.10837   -2893.6557 
 1034000    257.02471   -3914.1002   -3473.5686   -3914.1002            0    2367.7384     17.44553     20.54853    21.283505    7629.7106    1172.2446    3680.9594    2250.0112    936.59309    -1396.616    92.843737   -3210.1068 
 1035000    258.98062   -3919.4059    -3475.522   -3919.4059            0    4313.8265    17.402947    20.498372    21.231554    7573.9764    5173.9118    3990.5238     3777.044    174.87013   -1232.8084   -282.72268   -2999.0224 
 1036000    269.92696   -3921.7819   -3459.1363   -3921.7819            0    2416.4339    17.425012    20.524363    21.258474     7602.823    3003.8934    1329.7961    2915.6122     -884.078    415.20847   -310.43945   -3191.2037 
 1037000    256.26093   -3865.8346   -3426.6121   -3865.8346            0    3817.2481    17.401087    20.496182    21.229285    7571.5487    2196.0423    5151.2127    4104.4894   -629.69593   -239.37563   -1511.3935   -3005.0991 
 1038000    269.47693   -3863.2086   -3401.3344   -3863.2086            0    4330.7371    17.347549    20.433122     21.16397    7501.8776     3024.343    5338.0245    4629.8438   -726.37969    975.86935    2091.7773   -2927.5206 
 1039000    254.37761   -3848.0081   -3412.0136   -3848.0081            0    3487.5271    17.406415    20.502457    21.235785    7578.5055    4237.1794    3616.5781    2608.8237   -1146.8571    -1070.897   -752.63858   -3026.5556 
 1040000    242.96498   -3846.8391   -3430.4054   -3846.8391            0    3322.5251    17.458358     20.56364    21.299156    7646.5542    3912.6686     1663.103    4391.8036    1302.0182     431.0628    -512.9348   -3059.8869 
 1041000    263.48155   -3871.2147   -3419.6163   -3871.2147            0    5344.6921    17.319148    20.399669     21.12932    7465.0922    3885.5858    7137.8485     5010.642    899.10884   -236.45729   -939.82623   -2837.7359 
 1042000    261.09936   -3862.1031   -3414.5878   -3862.1031            0    2652.0669    17.487954    20.598499    21.335263    7685.5078    2189.6721    2133.1467    3633.3819   -487.77851   -620.92892   -525.79531   -3117.3302 
 1043000    257.64486   -3843.8722   -3402.2778   -3843.8722            0    3887.2382    17.486213    20.596449    21.333139    7683.2131    2436.2621    5171.4466    4054.0058    341.81506   -803.64475   -917.15788   -2966.7058 
 1044000    272.26603   -3881.1454   -3414.4907   -3881.1454            0    3884.0749    17.492916    20.604344    21.341317    7692.0521    3439.4146    3225.2326    4987.5774   -608.41787   -1730.2709   -66.457265   -2978.7725 
 1045000    251.99918   -3906.9188   -3475.0008   -3906.9188            0    2317.6538    17.521574    20.638099    21.376279    7729.9185    991.35218    2694.7305    3266.8786    1196.0538   -182.91984    625.23399   -3213.7249 
 1046000    265.13789    -3847.315   -3392.8777    -3847.315            0    4193.9608    17.452597    20.556854    21.292127    7638.9868    3583.8267    4688.6657    4309.3902    371.49485    202.77614    -306.0167    -2925.642 
 1047000    255.53859   -3869.6437   -3431.6593   -3869.6437            0    4835.5736       17.321     20.40185    21.131579    7467.4866     5217.562    3952.8566     5336.302    292.79327    1178.4303    692.20411   -2905.0381 
 1048000    274.99161   -3850.5917   -3379.2655   -3850.5917            0     4667.046    17.386578    20.479092    21.211584    7552.6251    3943.9597    5508.5431     4548.635   -374.68007    727.71902    478.97225    -2865.203 
 1049000    275.41962   -3875.0142   -3402.9544   -3875.0142            0    4677.5127    17.311533    20.390699     21.12003    7455.2496     3832.851    5394.5861    4805.1009    504.12608    367.20889    1342.3928   -2894.3817 
 1050000    262.31735   -3871.8804   -3422.2774   -3871.8804            0    3459.6496    17.412886     20.51008     21.24368    7586.9612    4232.2822    3547.8809    2598.7858    770.58231   -1361.2832    381.52203    -3039.474 
 1051000    266.85313   -3848.6389   -3391.2618   -3848.6389            0    1781.0065     17.45073    20.554655     21.28985    7636.5364     1064.639     2398.143    1880.2375   -935.19892    469.46259   -423.96468   -3192.9092 
 1052000    264.41879   -3893.2484   -3440.0436   -3893.2484            0    4118.8248    17.363118    20.451459    21.182963    7522.0933    4228.0842    3887.9645    4240.4256   -174.45731    966.55386    633.60786   -2988.2002 
 1053000    252.66877   -3867.5737    -3434.508   -3867.5737            0    2620.9489    17.439534    20.541467    21.276191    7621.8466     2947.394    2462.9946    2452.4582     -1414.08   -722.68769   -229.07778   -3143.1717 
 1054000    280.35724   -3869.1539   -3388.6312   -3869.1539            0    4021.9777    17.403742    20.499309    21.232525    7575.0152    4593.3982    3649.8912    3822.6436   -91.606522   -1848.7173    362.68058    -2944.308 
 1055000    269.16198   -3872.5612   -3411.2268   -3872.5612            0    1763.5269    17.392502     20.48607    21.218812    7560.3476    2266.7124    1513.0316    1510.8368     1170.628    1166.2686    409.49853   -3216.7805 
 1056000    262.13875    -3809.755   -3360.4581    -3809.755            0    4244.9677     17.33336    20.416409    21.146659    7483.4851    2866.2382    5380.7808    4487.8842   -367.99654   -669.58193   -1037.0146   -2897.1668 
 1057000    265.66596   -3867.1668   -3411.8244   -3867.1668            0    5556.9065    17.374592    20.464975    21.196962    7537.0163    4786.2275    6853.6455    5030.8465    515.39355    460.13322    185.79535   -2801.0112 
 1058000    256.05401   -3848.8061   -3409.9383   -3848.8061            0    6217.2695    17.421959    20.520767    21.254749    7598.8271    5425.1582    6820.6444     6406.006   -532.08983   -890.30207    343.65399   -2720.9337 
 1059000    253.67092   -3833.9707   -3399.1874   -3833.9707            0    3808.7811    17.497035    20.609196    21.346342    7697.4872    1846.3796    4331.7151    5248.2486    1077.3572   -397.07144    822.38875   -2971.6138 
 1060000    264.07342   -3898.6583   -3446.0455   -3898.6583            0    2070.3856    17.532461    20.650924    21.389562    7744.3375    2034.5908    1049.5461    3127.0197   -100.36329    478.89444    501.34129   -3212.2095 
 1061000     261.8373   -3851.1021   -3402.3219   -3851.1021            0    4193.0966    17.435126    20.536276    21.270813    7616.0692    4419.2694    4520.5135     3639.507    1649.7069    1457.7616   -1800.3963    -2936.584 
 1062000    250.64839   -3808.7848   -3379.1821   -3808.7848            0    3741.3901    17.425034    20.524388      21.2585    7602.8508    4646.9342    2669.1906    3908.0456    466.80215   -855.23756    630.71386   -2964.3375 
 1063000    278.16785   -3847.1265   -3370.3564   -3847.1265            0    2936.7033      17.4638    20.570049    21.305795    7653.7065    3103.6299     2571.072    3135.4081   -756.04452   -622.27148    1327.9075   -3042.5573 
 1064000    267.45787   -3863.6454   -3405.2317   -3863.6454            0    2759.3634    17.392959    20.486608    21.219369    7560.9431    2349.4481    3097.4091    2831.2331   -984.44334     -337.859    514.64236   -3100.9606 
 1065000    248.23785   -3878.0152    -3452.544   -3878.0152            0    3348.4385      17.3375    20.421285    21.151709    7488.8479    2970.3779    1708.2855    5366.6522    890.29847     861.4405   -373.72298    -3086.837 
 1066000     265.3365   -3835.4144   -3380.6367   -3835.4144            0     1930.148     17.44849    20.552016    21.287117    7633.5953    1805.3692    1586.3297     2398.745   -1003.5158    1315.0781    455.12863   -3165.7569 
 1067000    251.24396   -3893.6791   -3463.0556   -3893.6791            0     3387.381    17.427946    20.527819    21.262054     7606.664     3321.687    3507.2045    3333.2516    319.58097    1149.8925     243.9531   -3087.2751 
 1068000    264.14467   -3899.6789   -3446.9439   -3899.6789            0    3733.2013    17.472988    20.580872    21.317005    7665.7941    4414.2072    3214.5723    3570.8244    639.41126   -7.6824682    553.18581   -3029.5805 
 1069000    257.81862   -3908.1708   -3466.2785   -3908.1708            0    3629.5399    17.448014    20.551456    21.286536    7632.9708    5125.9893    1339.6983    4422.9322    1663.8014    502.34629    56.274877   -3062.2415 
 1070000    260.84448   -3865.2017   -3418.1232   -3865.2017            0    2451.6143    17.489407    20.600212    21.337036    7687.4245    2260.2888    3272.8109    1821.7431   -421.49892    926.54477   -79.029279   -3143.2649 
 1071000    262.55227   -3859.9361   -3409.9305   -3859.9361            0     3413.142    17.432912    20.533667    21.268111    7613.1672    6129.9613    2524.0495    1585.4151    1041.3311    553.48771    397.41779   -3030.9686 
 1072000    279.74097   -3834.6795    -3355.213   -3834.6795            0    4897.7198    17.360129    20.447939    21.179317    7518.2103     5465.555    3795.6452    5431.9592   -1313.1301   -860.99892    1445.0763   -2818.2006 
 1073000    258.53158   -3880.4306   -3437.3163   -3880.4306            0    3159.6681    17.456323    20.561243    21.296673    7643.8808    3246.4497    3681.1572    2551.3973   -1076.6818     1249.633   -1757.7273   -3085.0824 
 1074000    270.01288   -3896.0917   -3433.2989   -3896.0917            0    4680.2382    17.351937     20.43829    21.169323    7507.5717    3677.3215     4982.629    5380.7642    1015.7539   -1367.4268    125.76331   -2920.8585 
 1075000    267.88569   -3856.9629    -3397.816   -3856.9629            0     4098.793    17.453115    20.557464     21.29276    7639.6675    2561.1599    3959.3479    5775.8713    589.64159     323.0206   -390.49955   -2941.1419 
 1076000    258.25789    -3844.316   -3401.6708    -3844.316            0    4874.5132    17.435923    20.537215    21.271786    7617.1138    4389.3834    4702.4451     5531.711   -822.74178   -912.22852     -493.578   -2860.1719 
 1077000     278.4311   -3922.6536   -3445.4323   -3922.6536            0    4289.8545     17.43747    20.539036    21.273673    7619.1409     5339.621    4750.0202    2779.9223    472.48977   -899.38041    400.83736    -2968.755 
 1078000    267.67762   -3853.5052    -3394.715   -3853.5052            0    3276.3684    17.473173    20.581089     21.31723    7666.0368    4317.2206    3151.0366    2360.8479   -249.84884    400.99519    926.62783   -3028.4128 
 1079000    267.91968   -3906.7849   -3447.5797   -3906.7849            0    3247.9627     17.36495    20.453617    21.185198    7524.4748    1453.5365     5868.087    2422.2646    171.45499    623.39428    381.43951   -3091.1589 
 1080000    272.98993   -3840.6831   -3372.7877   -3840.6831            0    3309.3372    17.490612    20.601631    21.338506    7689.0134    3616.7255    1654.6141    4656.6719   -319.41269   -120.90895     717.0292   -3001.6906 
 1081000    254.18359   -3845.1646   -3409.5027   -3845.1646            0    2651.6776    17.486969    20.597339    21.334061    7684.2095    3222.8455    3294.2235    1437.9637    564.00296    2196.3748    242.74314   -3112.3389 
 1082000    272.00351   -3900.2475   -3434.0428   -3900.2475            0    4926.6531    17.392466    20.486028    21.218768    7560.3013    4446.9606    4946.1605    5386.8382   -1500.7391   -14.373334    452.10442   -2890.8337 
 1083000    251.65269   -3894.9575   -3463.6335   -3894.9575            0    2796.5754    17.501381    20.614315    21.351644    7703.2246    437.16693    5054.3283    2898.2311    -928.4991    217.67577    439.39779    -3149.456 
 1084000    287.06798   -3872.4896   -3380.4649   -3872.4896            0    3750.3674    17.461882    20.567791    21.303456     7651.186    3189.3362    4002.3866    4059.3795    157.60384   -92.845086    265.16176   -2961.9813 
 1085000    271.45771   -3878.2047   -3412.9354   -3878.2047            0    4900.2882    17.458294    20.563564    21.299078      7646.47    3535.4301    6592.2685     4573.166   -32.126201    95.754406   -112.69042   -2866.4753 
 1086000    264.82152   -3864.7538   -3410.8587   -3864.7538            0    4074.1669    17.515428    20.630861    21.368782     7721.788    5036.3053    3153.3988    4032.7966   -171.01621    93.682053    338.28916   -2952.0491 
 1087000    254.62331   -3872.9742   -3436.5585   -3872.9742            0    5733.2872    17.384275     20.47638    21.208775    7549.6244    4002.1048    4882.6002    8315.1568   -2565.6704   -810.82068   -1087.6851   -2805.3034 
 1088000    261.17278   -3822.6129   -3374.9717   -3822.6129            0    4458.8239    17.395674    20.489806    21.222682    7564.4849    5060.7608    4073.7439    4241.9669    505.13537   -789.28968   -953.67895   -2883.0731 
 1089000    265.67198   -3883.2592   -3427.9065   -3883.2592            0    3413.6603    17.357629    20.444994    21.176267    7514.9623    2652.3735    4304.8883    3283.7191   -46.680548   -234.86523    595.26534   -3053.7761 
 1090000    256.07761   -3859.5665   -3420.6582   -3859.5665            0    5309.3504    17.304733     20.38269    21.111734    7446.4678    6414.7259    2797.6408    6715.6845    508.71206   -663.43236   -656.94483   -2844.0676 
 1091000    256.91282   -3882.8331   -3442.4934   -3882.8331            0     4271.759    17.330125    20.412598    21.142712    7479.2951     3523.072    4674.8759    4617.3292    323.93454    -761.3281    1400.6036   -2976.5391 
 1092000    278.70348   -3873.8593   -3396.1711   -3873.8593            0    4638.3511    17.278457     20.35174    21.079678    7412.5986    6456.1434    4054.6204    3404.2895    1050.0362    1705.2746    546.39342   -2894.7415 
 1093000    265.67223   -3912.8323   -3457.4792   -3912.8323            0    2049.2783    17.468552    20.575647    21.311593    7659.9565    950.57944    3631.0544    1566.2012     383.3097    -512.7386   -1137.8675    -3228.549 
 1094000    268.64281   -3902.6235   -3442.1789   -3902.6235            0     2862.026    17.416717    20.514593    21.248355    7591.9705    1627.2424    3900.0489    3058.7866   -193.23816    1167.7814   -201.59693   -3125.2922 
 1095000    263.44815   -3897.2701   -3445.7289   -3897.2701            0    4629.1215    17.386028    20.478444    21.210913    7551.9083    4460.6626    5201.5827    4225.1194   -1114.1158   -558.95585    183.40106   -2935.8921 
 1096000    271.47167   -3844.2277   -3378.9345   -3844.2277            0    4461.6426    17.368166    20.457406    21.189122    7528.6565     5625.898    4353.5272    3405.5026    891.16943    27.991158    411.91388   -2889.0563 
 1097000    260.11596   -3845.1066   -3399.2767   -3845.1066            0    4748.8655    17.366035    20.454896    21.186523     7525.886    7693.7664    1654.0323    4898.7977   -815.26714   -84.414815   -232.48731   -2878.0539 
 1098000     252.9264   -3873.3452    -3439.838   -3873.3452            0    5004.9267    17.354946    20.441834    21.172993    7511.4774    5304.1885    5172.4825    4538.1093   -62.408961    522.24741   -1061.4767   -2891.5623 
 1099000    251.73174   -3825.7056   -3394.2461   -3825.7056            0    3891.4171    17.443075    20.545638    21.280511    7626.4906    4239.7428     3381.764    4052.7445   -577.68849    856.33761    222.66966    -2961.425 
 1100000    250.11587   -3830.5607   -3401.8707   -3830.5607            0     3979.669    17.427434    20.527215    21.261429    7605.9934    2972.2939    4137.1076    4829.6055     440.5339   -1202.7571     82.75942   -2960.4235 
 1101000    252.09924   -3858.3041   -3426.2146   -3858.3041            0    3366.4632    17.432857    20.533603    21.268045    7613.0955    4040.8777    3278.8615    2779.6503    1045.8266    34.834938   -39.460877   -3052.4389 
 1102000    263.49811   -3851.0885   -3399.4617   -3851.0885            0    4056.9855    17.406303    20.502326    21.235649    7578.3598    5133.1773    2553.9381    4483.8412    601.46465    45.963338   -1082.8713   -2951.0731 
 1103000    271.95357   -3837.3345   -3371.2154   -3837.3345            0    5688.3423    17.263761    20.334431    21.061749    7393.7008    4960.6378    6193.4653    5910.9237   -540.38182    1669.5037   -1112.9585    -2757.844 
 1104000    252.66921   -3830.2216   -3397.1552   -3830.2216            0    5140.5174    17.357031    20.444289    21.175537     7514.185    6318.7605    4570.8387    4531.9531    698.45111   -215.16433   -753.48291    -2833.823 
 1105000    258.26165   -3835.7456    -3393.094   -3835.7456            0    3187.4403    17.520833    20.637227    21.375376    7728.9389    3059.1484    3125.4987    3377.6739    182.72788   -740.12059   -738.12169     -3033.81 
 1106000    250.45683   -3861.4454    -3432.171   -3861.4454            0    4904.4054    17.403688    20.499245    21.232458     7574.944    5521.0691    3839.5155    5352.6315   -192.73761    886.73608    491.59423   -2890.3677 
 1107000    250.54048   -3870.6863   -3441.2684   -3870.6863            0    3420.7079    17.421812    20.520593     21.25457    7598.6343    4848.7678    3620.8179    1792.5379   -171.98377    646.30941    908.34146   -3062.1915 
 1108000    250.56645   -3840.9912   -3411.5289   -3840.9912            0    3469.2904    17.499655    20.612282    21.349538    7700.9449    2382.7948    3397.1419    4627.9345    560.17577    235.33957    452.12134   -3021.8916 
 1109000    259.47878   -3872.0446   -3427.3068   -3872.0446            0    4227.1251    17.458622     20.56395    21.299478    7646.9008    2992.1881    5719.9679    3969.2195   -46.520213   -215.65923   -827.64904   -2955.8885 
 1110000     265.0146   -3870.6897   -3416.4637   -3870.6897            0    3234.3783    17.461818    20.567715    21.303377    7651.1016     1619.009    3976.3278    4107.7982   -1344.5167    44.675897     820.3459   -3055.5605 
 1111000    264.93419    -3860.187   -3406.0989    -3860.187            0    3085.8888    17.442772    20.545281    21.280141    7626.0926    2034.2559    2676.5923    4546.8182   -249.28748    551.57038    363.90065   -3062.8902 
 1112000    264.07403   -3845.2413   -3392.6275   -3845.2413            0    3882.6614    17.379148    20.470341     21.20252    7542.9471    3744.6293    4414.8257    3488.5292    2271.1492   -1309.2704    190.92132   -2965.5109 
 1113000    254.98345   -3846.1058   -3409.0729   -3846.1058            0    4580.3391    17.299404    20.376413    21.105232    7439.5902    4237.4557    2753.1468    6750.4147    504.37546    675.58456   -206.44919   -2912.1116 
 1114000    278.48689    -3867.469    -3390.152    -3867.469            0    3968.3181    17.424782    20.524091    21.258193    7602.5211    3081.3569     4283.172    4540.4255   -168.70029    733.24489   -519.14325   -2950.1648 
 1115000    267.40237   -3850.4788   -3392.1603   -3850.4788            0    3234.8878      17.3461    20.431415    21.162202    7499.9978    1641.0252    3006.0882    5057.5498   -361.07103    81.691072     1045.737    -3038.329 
 1116000    256.38059   -3867.6029   -3428.1753   -3867.6029            0    3404.6958    17.461506    20.567348    21.302997    7650.6916      3464.31     4469.388    2280.3894   -106.89727    270.33818    728.69355   -3048.2879 
 1117000     252.4793   -3867.0489   -3434.3081   -3867.0489            0    3180.5473    17.376935    20.467734     21.19982    7540.0649    3104.3753    3156.4808    3280.7857   -1339.4663   -9.5290978    2189.8669    -3084.562 
 1118000    252.07929    -3876.206   -3444.1508    -3876.206            0    3460.3761    17.414947    20.512508    21.246195    7589.6561    4460.7366    3664.4899    2255.9017   -92.760515    -1625.758    826.87412   -3061.1309 
 1119000    274.95238   -3876.4964   -3405.2374   -3876.4964            0     3636.213    17.508809    20.623064    21.360705    7713.0362    3566.0611    3747.1851    3595.3927    2107.3708    884.43329   -387.86262   -2996.2117 
 1120000    258.92651   -3868.9949   -3425.2038   -3868.9949            0    3483.6564    17.430351    20.530651    21.264988    7609.8134    2526.8373     2150.728    5773.4039    77.961916    87.305938     1386.043    -3038.583 
 1121000    258.20874   -3869.2977   -3426.7367   -3869.2977            0     3258.091    17.471745    20.579408    21.315488    7664.1582    1465.0618     5388.844    2920.3672   -821.52066   -284.88683    -177.2875   -3062.5672 
 1122000    277.65616   -3845.1878   -3369.2947   -3845.1878            0    2161.6976    17.527249    20.644784    21.383203    7737.4322    2262.0313    702.01428    3521.0471    290.37978    400.26654   -194.95131   -3125.3633 
 1123000    247.42501   -3838.6117   -3414.5337   -3838.6117            0    4897.5227    17.344047    20.428997    21.159697    7497.3356    3585.2198    5325.0532    5782.2953    336.14876   -759.12789   -62.144809   -2879.0339 
 1124000    258.35191   -3817.7274    -3374.921   -3817.7274            0    3484.2003    17.391754    20.485189    21.217899    7559.3725     2861.359      3527.31     4063.932    1074.9263    272.88527   -703.37027   -2990.8029 
 1125000    271.30482   -3822.6817   -3357.6745   -3822.6817            0    4969.0795     17.38546    20.477776    21.210221    7551.1686     4624.022    5743.0878    4540.1286   -392.36433    93.232983   -1768.5777   -2810.4494 
 1126000     255.3835   -3846.8159   -3409.0973   -3846.8159            0    4885.0516    17.344651    20.429708    21.160434    7498.1187    4833.0784    5794.3436    4027.7329    1016.6128    251.19151    219.99425   -2874.9053 
 1127000     265.7154   -3875.6262   -3420.1991   -3875.6262            0    3612.4622    17.406561    20.502629    21.235963    7578.6962    2427.4336    3281.8287    5128.1244   -123.22652    183.19137   -404.76271   -3020.9226 
 1128000    270.30634   -3894.8424   -3431.5465   -3894.8424            0    4139.4144    17.405967     20.50193    21.235239    7577.9204    3635.4212    4294.2832    4488.5389    226.47391    161.72276   -279.36935   -2974.0742 
 1129000    265.68668   -3883.0817   -3427.7038   -3883.0817            0    2965.9186    17.520648    20.637009     21.37515    7728.6934    2035.2257    2190.8501      4671.68   -789.39135     567.8751   -390.31173   -3093.4001 
 1130000    251.34744   -3882.4318   -3451.6309   -3882.4318            0    4080.2945    17.449378    20.553062      21.2882    7634.7609    3677.6051    2836.3534    5726.9251   -159.92591   -502.14004   -177.80748   -2997.3099 
 1131000    266.04426   -3888.6387    -3432.648   -3888.6387            0    3375.1636    17.450112    20.553927    21.289096    7635.7241    2548.0472    3879.6565    3697.7869   -383.03188   -642.97261   -1468.6015   -3056.7924 
 1132000    254.67356   -3810.2726   -3373.7708   -3810.2726            0    4711.4778    17.438716    20.540504    21.275193    7620.7746    5562.3368    4332.2942    4239.8024   -820.14767    218.20568    664.24166   -2850.1316 
 1133000    249.03757   -3858.7469    -3431.905   -3858.7469            0    3583.4491    17.440646    20.542777    21.277548    7623.3051    4143.4272    3586.3983    3020.5218    508.76866    341.81659    354.63484    -3033.504 
 1134000    250.81825   -3870.7886   -3440.8947   -3870.7886            0    1683.6672    17.429943    20.530171     21.26449    7609.2791     1376.242    2176.5156    1498.2441    218.06755    722.63895    572.95309   -3254.0522 
 1135000    240.94853   -3865.4636   -3452.4861   -3865.4636            0    2527.6541    17.444958    20.547856    21.282808    7628.9609    809.20493    2598.5585     4175.199   -87.991023    822.17641   -1531.5069   -3171.2579 
 1136000    263.50075   -3853.9533    -3402.322   -3853.9533            0    3184.7744     17.33046    20.412993    21.143121    7479.7293     620.3053    5708.6419     3225.376    552.29966    522.41285    -146.8149   -3054.9135 
 1137000    256.42174   -3876.8151    -3437.317   -3876.8151            0    2208.2469    17.433005    20.533777    21.268225    7613.2891    2585.0935    277.55262    3762.0944    1411.2052   -1046.2667    188.08189   -3192.1309 
 1138000    270.03309   -3858.3691   -3395.5416   -3858.3691            0    4432.7762    17.319476    20.400055     21.12972     7465.516    3355.9447    3924.4245    6017.9593    653.99214   -939.68613    1139.5323   -2912.9147 
 1139000    242.74402   -3897.4349     -3481.38   -3897.4349            0    4882.0839    17.364157    20.452683    21.184231    7523.4443     5218.615    4045.5757     5382.061   -143.38479    1134.6518   -173.07614   -2945.7093 
 1140000    266.69944   -3855.5331   -3398.4194   -3855.5331            0       4607.6    17.308541    20.387175    21.116379    7451.3839    5187.6587    3257.9867    5377.1546    115.79523    -262.1131    414.08629   -2897.7079 
 1141000     252.5528   -3883.3674   -3450.5005   -3883.3674            0    4368.7213    17.382889    20.474747    21.207084    7547.8188     4376.892    3613.1343    5116.1375   -1088.9666    1426.8456   -442.42303   -2969.6039 
 1142000    261.58334   -3874.8436   -3426.4987   -3874.8436            0    3638.5196     17.42365    20.522758    21.256812    7601.0396    1693.8425    3780.2495    5441.4666   -811.50634   -159.93008    25.520818   -3023.1566 
 1143000    260.67904   -3861.1256   -3414.3307   -3861.1256            0    5267.5039    17.320695    20.401491    21.131208    7467.0926    5032.4141     5527.638    5242.4594   -1418.7025    906.78335    -945.7295   -2840.7001 
 1144000     239.4171   -3809.8349   -3399.4822   -3809.8349            0     4585.427    17.371999     20.46192    21.193798    7533.6418    2639.8177    4180.9298    6935.5334    672.82633    1667.9404     365.1645   -2895.6793 
 1145000    258.50552   -3790.3873   -3347.3177   -3790.3873            0    5741.8539      17.2628    20.333298    21.060575    7392.4653    4298.4804    6257.6066    6669.4747    701.54753   -422.29167   -98.597781   -2728.2796 
 1146000    255.55915   -3861.1648   -3423.1451   -3861.1648            0    2925.7131    17.373869    20.464123     21.19608    7536.0754     2186.352    2624.2952    3966.4921   -49.805633   -804.04526    302.23808   -3101.5919 
 1147000    242.58854   -3875.2636   -3459.4752   -3875.2636            0    3272.1154    17.443937    20.546653    21.281562    7627.6208    1946.4619    2965.0356    4904.8486   -67.379212    131.50585   -573.80262   -3095.4817 
 1148000    248.37508   -3870.0351   -3444.3287   -3870.0351            0    4977.0605    17.387747    20.480469    21.213011    7554.1484    3918.5018    5209.2664    5803.4134    213.17403   -745.35429     753.8451   -2896.0084 
 1149000    272.23962    -3851.202   -3384.5926    -3851.202            0    3883.5989    17.459118    20.564535    21.300083    7647.5531    4262.6892     4984.686    2403.4215    -811.1289   -586.41535   -270.01944   -2951.4482 
 1150000    265.09455   -3900.0963   -3445.7333   -3900.0963            0    4959.0579     17.41567    20.513358    21.247076    7590.6002     4231.197    4793.5045     5852.472    300.52637    1308.1244    927.18396     -2896.76 
 1151000    253.47195   -3849.5576   -3415.1153   -3849.5576            0    3127.1047    17.544363    20.664942    21.404082    7760.1193    1682.2034    3969.5527     3729.558   -80.814994   -559.41731   -1244.6339   -3061.2103 
 1152000     249.9286   -3877.7591     -3449.39   -3877.7591            0     3844.601    17.398828    20.493522     21.22653    7568.6009    4891.9427    4180.4882    2461.3722    412.03178   -746.49224    289.91348   -3025.0219 
 1153000    264.98985   -3846.7825    -3392.599   -3846.7825            0    5128.7366    17.464876    20.571317    21.307108    7655.1219    4928.8515    4905.5132    5551.8452    458.27232   -69.809712    1163.7966   -2820.0161 
 1154000    252.00256   -3884.6148   -3452.6911   -3884.6148            0    4864.4328      17.3683    20.457564    21.189286    7528.8309    5397.6688    4821.0011    4374.6286   -311.25857     439.1345   -887.05296    -2918.575 
 1155000    260.36062   -3878.6248   -3432.3756   -3878.6248            0    2899.0326    17.443386    20.546004     21.28089     7626.898    2527.6232    3127.4936    3041.9809    -426.5098    772.90179    449.71146   -3109.9148 
 1156000    243.70996   -3884.0904   -3466.3799   -3884.0904            0    4885.1247    17.469285     20.57651    21.312487    7660.9212    4917.6808    4145.6851    5592.0083   -116.03942    844.69832   -407.75644   -2920.5812 
 1157000    257.55711   -3866.6719   -3425.2278   -3866.6719            0    3292.2386     17.44728    20.550591    21.285641    7632.0072    4045.7709    3003.4636    2827.4811     549.1543    851.46526   -908.20288   -3058.7852 
 1158000     274.4379   -3912.1052    -3441.728   -3912.1052            0    3436.3748    17.419355    20.517699    21.251572    7595.4196    2041.3351    3036.0331    5231.7561    1152.9462    339.94507    492.53651    -3061.076 
 1159000    240.62792   -3846.0628   -3433.6348   -3846.0628            0    2044.0793    17.539583    20.659312    21.398251    7753.7787     108.5294    3096.7156    2926.9928    616.82141    -368.6788     -1252.49   -3202.4884 
 1160000    267.99342   -3825.5345    -3366.203   -3825.5345            0    4380.2325    17.403532    20.499061    21.232268    7574.7404    5267.8017    3132.2081    4740.6879    2113.9883     833.0805    166.02163   -2882.3195 
 1161000    258.29398   -3883.8868   -3441.1798   -3883.8868            0    4564.0388    17.342518    20.427195    21.157831    7495.3521    5486.0328    4177.5235    4028.5602   -325.62746   -1575.4546    187.71119   -2942.2754 
 1162000    260.66246   -3888.7856    -3442.019   -3888.7856            0    2631.3782    17.489021    20.599756    21.336565    7686.9149    3481.3033    411.91607    4000.9153    1852.5464    482.81241   -197.30231   -3147.0264 
 1163000    259.98931   -3852.0829   -3406.4702   -3852.0829            0    3643.8885     17.43036    20.530662    21.264998    7609.8247     5898.825    2075.6757    2957.1649   -754.67218   -289.72026    354.74163    -3002.066 
 1164000    269.65397   -3904.5787    -3442.401   -3904.5787            0    3198.4191    17.346818     20.43226    21.163077    7500.9288    1539.4705    3208.5608    4847.2259    349.60884    1071.8831    1070.5408   -3092.5152 
 1165000     250.5809   -3856.7259   -3427.2388   -3856.7259            0    3925.3723    17.445437    20.548421    21.283393    7629.5894    3043.7003    2617.6459    6114.7706    569.13743   -972.25041   -355.89519   -2990.4636 
 1166000     266.2587   -3862.1702   -3405.8119   -3862.1702            0    4548.4367    17.374262    20.464586    21.196559    7536.5864    6746.8655     4111.023    2787.4216    667.25012   -437.08585    377.35015   -2905.8779 
 1167000    246.76383    -3877.315   -3454.3702    -3877.315            0    3635.5427    17.384829    20.477033    21.209451    7550.3466    3568.0343    2605.8018    4732.7919    124.19581    32.758337     300.4715   -3054.0459 
 1168000    265.16211   -3814.2164   -3359.7376   -3814.2164            0    4182.5923    17.361746    20.449843    21.181289    7520.3102    4470.6894    3550.8635    4526.2241    737.78345   -23.810525    944.96794   -2901.0075 
 1169000    277.43799   -3873.6978   -3398.1786   -3873.6978            0     3903.704    17.511557    20.626301    21.364059    7716.6692    4369.0547    3538.6457    3803.4117   -1232.9595   -250.99681    711.79747   -2958.8569 
 1170000    265.22663   -3851.9185   -3397.3291   -3851.9185            0    3773.9564    17.470975    20.578501    21.314548    7663.1443     1885.526    3042.1262    6394.2171   -1086.4765    662.59207    817.06172   -2975.5552 
 1171000    257.74735   -3876.5017   -3434.7315   -3876.5017            0    2894.0271    17.589501    20.718108     21.45915    7820.1688    3839.9363    2666.9427    2175.2024    258.99953    226.30544    645.85569   -3104.6702 
 1172000    260.85264   -3866.9775   -3419.8851   -3866.9775            0    3254.9437    17.430167    20.530434    21.264762    7609.5714    2207.0471    1773.1388    5784.6453    321.05411   -969.15606    745.71708   -3058.6586 
 1173000    265.35869      -3869.6   -3414.7843      -3869.6            0    3972.1773    17.391791    20.485232    21.217944    7559.4203    3719.0017    3726.9521     4470.578   -142.68241      835.059    15.019079   -2976.8661 
 1174000    255.18852    -3871.334   -3433.9496    -3871.334            0    3288.2773    17.383046    20.474932    21.207276    7548.0233    2325.6483    3509.1573    4030.0263   -1325.7582    473.43733   -728.50693   -3071.9755 
 1175000    265.89512   -3881.4973   -3425.7622   -3881.4973            0    4202.9842    17.451637    20.555724    21.290957     7637.727    5620.9839    3236.1631    3751.8057    533.77414   -2267.0867    227.06443   -2957.5984 
 1176000    268.98365   -3902.8776   -3441.8488   -3902.8776            0    2606.6998    17.511095    20.625757    21.363495    7716.0581    3271.2313    2140.1883    2408.6798   -1359.7685    441.26828    479.94039   -3148.5148 
 1177000    265.74732   -3864.4387   -3408.9569   -3864.4387            0    3419.4143    17.450251    20.554091    21.289266    7635.9074    4341.7339    3952.5042    1964.0047    778.13194    685.56596   -440.20574   -3028.1645 
 1178000    269.81645   -3890.7955   -3428.3394   -3890.7955            0    3770.7504    17.424229     20.52344    21.257518     7601.797    3229.2282    5051.9516    3031.0715      525.815   -155.09133    1365.5117   -3010.2973 
 1179000    253.90654   -3844.2702   -3409.0831   -3844.2702            0    3790.4987    17.490787    20.601837    21.338719    7689.2441    4832.5641    3579.8741    2959.0581    564.39652   -514.44152   -1397.7504   -2984.0176 
 1180000    249.78222   -3865.5851   -3437.4669   -3865.5851            0    1737.2567    17.499348    20.611921    21.349164    7700.5406    1595.1444    2141.0711    1475.5545   -623.28187   -1166.3333     255.1725   -3242.3652 
 1181000    263.16515   -3857.4056   -3406.3496   -3857.4056            0    3987.2381    17.420728    20.519316    21.253247    7597.2161    3893.4437    3380.3094    4687.9611    -423.0582    920.35596    167.73007   -2964.5732 
 1182000    267.03584   -3829.8278   -3372.1375   -3829.8278            0    2509.6365    17.506911    20.620828     21.35839    7710.5281    3537.8032     568.8377    3422.2686     1395.503   -286.91165   -335.79401   -3089.9285 
 1183000    265.97526   -3903.8417   -3447.9692   -3903.8417            0    3167.2357    17.495636    20.607548    21.344635    7695.6411    1711.2242    5164.8554    2625.6275    1383.1297   -34.352996   -92.062246   -3092.5008 
 1184000    259.71249    -3871.047   -3425.9086    -3871.047            0    3722.6326    17.515404    20.630832    21.368752    7721.7556    2874.4926     4233.226    4060.1791    675.40995   -691.03107   -39.973045   -3006.6885 
 1185000    266.18632   -3836.9145   -3380.6803   -3836.9145            0    3950.0332    17.461235    20.567029    21.302666    7650.3355    2083.2843    5299.0085    4467.8069    814.39247   -720.52968   -1019.4158    -2939.966 
 1186000    260.10936   -3814.9298   -3369.1112   -3814.9298            0    3888.9256    17.498699    20.611156    21.348372     7699.684    3087.6469    4064.1868     4514.943    309.85004   -233.47996   -1241.7212    -2932.416 
 1187000    267.67987   -3880.3648   -3421.5706   -3880.3648            0    4355.8922    17.460243     20.56586    21.301456    7649.0316    4164.6206    4965.6205    3937.4355   -455.88171    220.85107   -361.27326   -2935.6566 
 1188000    275.41615   -3855.7676   -3383.7138   -3855.7676            0    3440.5426    17.515201    20.630593    21.368504    7721.4874    3785.7227    2427.3935    4108.5117    522.20276    210.59051   -797.18424   -2996.2743 
 1189000    255.72705    -3883.333   -3445.0256    -3883.333            0    5216.2854    17.328273    20.410417    21.140453    7476.8982    4673.3571     5130.957     5844.542    921.52651   -1253.5193    1011.9079   -2876.2268 
 1190000    264.26791   -3835.8846   -3382.9385   -3835.8846            0    3594.2096    17.458937    20.564322    21.299862     7647.315    4293.8542    4422.4039    2066.3706    1282.7775     -174.479   -1142.0104   -2982.0826 
 1191000    265.35794   -3855.9262   -3401.1118   -3855.9262            0    3729.6395    17.447268    20.550577    21.285626    7631.9916    4037.0041    2467.3659    4684.5484   -100.97604     111.9777   -1211.6946   -2985.9851 
 1192000    268.01662   -3863.4313     -3404.06   -3863.4313            0    4643.8882    17.398516    20.493154    21.226149    7568.1938     4409.939    5150.6738    4371.0517   -997.51025    314.39323     941.8172   -2891.4939 
 1193000    265.39474    -3878.874   -3423.9965    -3878.874            0    3071.8411    17.462488    20.568504    21.304194    7651.9819     4100.202    3819.6629    1295.6583    736.03517    815.72839    23.730329   -3081.1904 
 1194000    261.49186    -3827.474   -3379.2859    -3827.474            0    5288.6777    17.336679    20.420318    21.150708    7487.7838    4290.2383    6922.2832    4653.5115   -891.02949    1473.1514   -1103.5934   -2801.7536 
 1195000    259.27854   -3850.5031   -3406.1085   -3850.5031            0     3910.478    17.357359    20.444676    21.175937    7514.6112    4325.3156    2489.2729    4916.8456    509.86321    468.26667   -681.27771   -2977.5479 
 1196000    270.56442    -3906.214   -3442.4758    -3906.214            0    2381.7043    17.460826    20.566546    21.302166     7649.797    2087.4654    3788.1755     1269.472   -643.70593   -450.25934   -639.03827   -3176.7623 
 1197000    255.13131   -3856.0427   -3418.7564   -3856.0427            0    3242.4214    17.450737    20.554664    21.289859    7636.5453    3759.6002    4718.3702    1249.2937     -464.895    -655.8119   -147.49981   -3057.6441 
 1198000    260.10956    -3870.565   -3424.7461    -3870.565            0    4414.2292    17.380608     20.47206    21.204301    7544.8477    5824.4526    4177.3046    3240.9303   -790.08805   -228.52509    318.06871   -2939.0314 
 1199000    266.71685   -3864.5112   -3407.3676   -3864.5112            0    562.10889    17.610155    20.742436    21.484347    7847.7488    22.553282    1488.6646    175.10875    504.84893   -124.62665    308.58523   -3343.0335 
 1200000    248.62125   -3839.9552   -3413.8268   -3839.9552            0    2806.5775    17.473099    20.581003     21.31714    7665.9399      5120.33    644.79475    2654.6079    1150.4468    227.96269   -755.41737   -3100.0518 
 1201000    267.20152   -3869.9677   -3411.9935   -3869.9677            0    4754.6545    17.411222    20.508119     21.24165    7584.7859    4409.5931    4973.8671    4880.5034    188.70705    63.062065   -509.32314   -2886.0511 
 1202000    252.70666   -3818.6383   -3385.5077   -3818.6383            0     1235.967    17.516979    20.632688    21.370674    7723.8396    1054.0093    1398.4536    1255.4382    74.252288    897.66426   -1641.1826   -3246.2831 
 1203000    258.84203    -3888.015   -3444.3686    -3888.015            0    5363.5012     17.42649    20.526104    21.260277    7604.7575    4968.8281    5647.2258    5474.4498    198.11772   -546.20336   -586.07433   -2849.5156 
 1204000    253.35205   -3849.3948    -3415.158   -3849.3948            0    1392.3916    17.516261    20.631842    21.369798    7722.8898    2285.4952    1172.4548    719.22466   -469.64173   -481.30035   -459.10305   -3258.3324 
 1205000    257.21547    -3894.493   -3453.6345    -3894.493            0    2749.0939    17.485881    20.596058    21.332733    7682.7749    3234.5614    2886.6733    2126.0469   -35.060235     776.5536   -96.236091   -3145.6112 
 1206000    252.72274   -3895.9053   -3462.7472   -3895.9053            0    3142.9567    17.434547    20.535593    21.270106    7615.3096    4813.5885    1889.3049    2725.9766   -1061.2799    395.99054   -347.90191   -3113.6858 
 1207000    255.57619   -3880.9785   -3442.9296   -3880.9785            0    4931.8185    17.493057     20.60451    21.341488    7692.2376    6112.2328     3056.524    5626.6988    278.90541    114.86938    1561.0605   -2889.6615 
 1208000    265.42603   -3871.1179   -3416.1868   -3871.1179            0    2272.2189    17.521509    20.638023    21.376199    7729.8323    3379.1914    1387.3489    2050.1163   -1700.5194    333.90651   -899.49979   -3160.0357 
 1209000    263.06809   -3884.9111   -3434.0214   -3884.9111            0    5159.6189    17.427884    20.527746    21.261978    7606.5828    5870.7821    4144.0164    5464.0582   -396.48572   -2495.0043   -507.26508   -2861.6431 
 1210000    267.95564   -3864.3328    -3405.066   -3864.3328            0    5061.1701    17.460643    20.566331    21.301944     7649.557    4739.1078    4998.6314    5445.7712   -1191.0281    590.28036    1459.8861   -2840.4371 
 1211000    264.87007   -3890.0572    -3436.079   -3890.0572            0     4979.281    17.469897    20.577231    21.313234    7661.7264    7846.2321    2365.2587    4726.3522   -1359.0202   -1256.4839    -492.8819    -2879.702 
 1212000    257.88768   -3858.8029   -3416.7922   -3858.8029            0    4852.2189     17.37054    20.460201    21.192018    7531.7434    4038.9288    3983.3194    6534.4086   -135.66833    1841.9009    863.99039   -2883.8111 
 1213000    269.15621   -3836.0555    -3374.731   -3836.0555            0    3828.8324    17.416132    20.513903    21.247641    7591.2053    2677.3738    3161.7057    5647.4178    492.63688    1115.9658   -1339.5186   -2950.8412 
 1214000    261.95219   -3850.5598   -3401.5827   -3850.5598            0    4363.7448    17.398965    20.493682    21.226696    7568.7787    2356.0355    6171.2297    4563.9692   -380.81819    693.66331     381.2642   -2919.9001 
 1215000    253.65447   -3901.4498   -3466.6947   -3901.4498            0    2440.5651     17.42097    20.519602    21.253543     7597.533    2055.5972    1696.9837    3569.1144   -218.31467   -139.84715    -290.7307   -3196.2747 
 1216000    258.23057   -3868.1399   -3425.5415   -3868.1399            0    2796.5791    17.450364    20.554224    21.289404    7636.0555    2046.8325      3442.43    2900.4748   -533.65897   -271.09605    -115.7763   -3114.1032 
 1217000    253.27104   -3849.0074   -3414.9095   -3849.0074            0    4208.7064    17.399746    20.494603     21.22765    7569.7989    2661.7842    4660.8549    5303.4801   -386.47824   -261.28566    136.13817   -2950.2777 
 1218000    258.59358   -3819.2006   -3375.9801   -3819.2006            0    5803.2591     17.39048    20.483689    21.216345    7557.7117    6257.4696    6501.2676    4651.0402     44.44725    404.52426   -372.01052   -2736.3363 
 1219000    262.29522   -3829.0771   -3379.5121   -3829.0771            0    2006.8019    17.510328    20.624853    21.362559     7715.044    1445.9157    2101.1623    2473.3276   -134.67911   -142.78472    26.506114   -3153.7147 
 1220000    248.24963   -3856.0086   -3430.5172   -3856.0086            0    4908.2168    17.471592    20.579227    21.315301     7663.956    3158.2614    4897.0716    6669.3172   -795.46989    1063.0326    306.46623   -2881.9212 
 1221000    257.76203   -3846.3775   -3404.5821   -3846.3775            0     4924.947    17.405479    20.501355    21.234644    7577.2832    5090.0459     5522.899    4161.8962   -527.76675    1329.6558    1223.8326   -2860.3415 
 1222000    251.11843   -3865.4458   -3435.0374   -3865.4458            0    4164.9094    17.394229    20.488104    21.220919    7562.6001    2513.1012    3097.8805    6883.7466   -1306.0457    494.85526   -659.01206   -2975.6781 
 1223000    255.90434   -3879.8328   -3441.2216   -3879.8328            0    3963.2949    17.489478    20.600295    21.337122    7687.5175    5267.9322    3006.9614    3614.9911   -731.68515    483.94683     855.2788   -2996.8785 
 1224000    262.15535    -3873.524   -3424.1987    -3873.524            0    4210.6667    17.439693    20.541655    21.276385    7622.0553    5301.8288    4580.0474    2750.1238    96.262208    1499.9925   -130.95609   -2956.1416 
 1225000    258.35566   -3876.2164   -3433.4036   -3876.2164            0    4249.1478    17.444634    20.547474    21.282412    7628.5353    4399.8355    4330.4951    4017.1126    1579.0992    589.43763   -755.96312   -2960.6674 
 1226000    263.10383   -3871.6043   -3420.6534   -3871.6043            0    1735.0038    17.539049    20.658683    21.397599    7753.0704    1600.4421    1171.6668    2432.9027    1085.7651    544.62487    1723.4891   -3224.4755 
 1227000    275.17293   -3844.2357   -3372.5988   -3844.2357            0    4518.5589    17.435515    20.536733    21.271287    7616.5784    4803.5704    4960.6014    3791.5049    228.30329     194.3592    1211.7984   -2870.6773 
 1228000    276.76938   -3894.3046   -3419.9314   -3894.3046            0    4287.7251    17.479931     20.58905    21.325475    7674.9352    3332.5826    5602.9119    3927.6806   -1281.0427   -344.97973   -573.46185   -2940.0018 
 1229000    266.71444   -3886.0765   -3428.9371   -3886.0765            0    3016.5801    17.462937    20.569033    21.304743    7652.5727      3188.24    1785.6266    4075.8738    125.56761    1245.6404   -1327.2875   -3092.2719 
 1230000    269.56107   -3846.5519   -3384.5334   -3846.5519            0     3019.474    17.501427     20.61437      21.3517    7703.2855    3423.8341    2901.7317    2732.8563   -488.85618   -1028.1445    2748.5504   -3045.3121 
 1231000     269.3424   -3882.0248   -3420.3811   -3882.0248            0    2824.4241    17.534336    20.653131    21.391849    7746.8213    1672.8103    3386.7281    3413.7339    683.86055    573.55341   -32.366258   -3101.2793 
 1232000    264.24032    -3877.708   -3424.8091    -3877.708            0    2173.7422    17.502779    20.615962     21.35335    7705.0706    1214.1974    2671.2409    2635.7882   -810.15159   -106.87985    365.99424   -3180.5445 
 1233000    262.19616   -3875.9045   -3426.5092   -3875.9045            0    5426.7883     17.40912    20.505644    21.239085    7582.0393    7097.7492    4283.4045    4899.2111    1047.5713    65.600072    19.260664   -2826.4353 
 1234000    277.50296   -3866.9928   -3391.3622   -3866.9928            0    5722.6044    17.402913    20.498332    21.231513    7573.9322    3981.8325    6045.7699    7140.2108   -2053.5881   -559.48706   -963.04714   -2759.2546 
 1235000    259.58059   -3901.3993    -3456.487   -3901.3993            0    3414.1998    17.459001    20.564397     21.29994     7647.399    2733.3644    4799.4372    2709.7979   -300.30894    678.86083   -258.52991   -3075.7031 
 1236000    260.63419   -3881.5949   -3434.8768   -3881.5949            0    2928.0829    17.491876    20.603119    21.340048    7690.6799    1540.4053    3490.7998    3753.0437    260.51243    -511.7425   -171.00726    -3106.461 
 1237000    252.71008   -3864.6215   -3431.4851   -3864.6215            0    3221.0113    17.520811    20.637201    21.375348    7728.9091    3848.5004    2407.5075     3407.026   -345.40759   -197.94021    1514.4781   -3068.4184 
 1238000    267.07991   -3873.1737   -3415.4079   -3873.1737            0    4148.1692    17.470046    20.577407    21.313416    7661.9226    3405.2072    4558.0592    4481.2413   -1374.6753   -64.988373    334.18666   -2951.8862 
 1239000    254.43695   -3876.3955   -3440.2992   -3876.3955            0    2378.3781    17.510598    20.625172    21.362889    7715.4019    739.67812    3556.5594    2838.8969   -916.02804   -731.15716   -109.53653   -3172.6812 
 1240000    267.32267   -3858.5635   -3400.3816   -3858.5635            0    2974.0667    17.502329    20.615432    21.352801    7704.4763    3074.3542    1118.5532    4729.2926    267.04563    503.44123   -2762.6162   -3066.2098 
 1241000    267.52937   -3899.0705   -3440.5343   -3899.0705            0    3586.4138    17.329935    20.412374     21.14248    7479.0486    3503.2597    3605.8009    3650.1808    1509.1873    1566.5179    447.08234   -3049.3489 
 1242000    255.93263   -3843.4077   -3404.7479   -3843.4077            0    1310.4156    17.545328    20.666078    21.405259    7761.3993    2105.1101    306.62396    1519.5128    143.01028    725.43296   -1435.9908   -3256.4193 
 1243000    279.05743    -3873.755   -3395.4601    -3873.755            0    1709.3724    17.513197    20.628233    21.366059     7718.837    1818.1853    1180.1101    2129.8219    835.74664    241.19485   -2019.6102   -3203.0338 
 1244000    275.46416    -3881.731   -3409.5949    -3881.731            0    2897.2113    17.460158     20.56576    21.301352    7648.9199    1444.9408    4564.0451     2682.648   -106.71597    670.07331   -944.77296   -3086.4062 
 1245000    279.80003   -3841.9371   -3362.3694   -3841.9371            0    3241.4533    17.433702    20.534598    21.269076    7614.2032    5480.2104    3773.9008    470.24882   -518.56637    239.88205   -471.17369   -3002.4211 
 1246000    266.17921   -3861.0148   -3404.7928   -3861.0148            0    3076.6332    17.412614    20.509759    21.243349    7586.6058    3819.2096    2564.3862    2846.3038   -306.46597    114.30049   -1040.4247   -3064.3853 
 1247000    261.22974    -3874.524   -3426.7852    -3874.524            0    2543.9864    17.494045    20.605674    21.342694    7693.5417    2315.0521    3472.4288    1844.4781    408.54948    1503.3939   -733.49639   -3141.3437 
 1248000    273.71791   -3856.6938   -3387.5507   -3856.6938            0    1974.9767    17.472571     20.58038    21.316495    7665.2444     2477.807     373.7148    3073.4082   -53.195135   -903.95997   -201.07781   -3166.7686 
 1249000    261.75743   -3876.2967   -3427.6535   -3876.2967            0    4550.0773    17.376615    20.467358     21.19943    7539.6496    4544.4535    4648.3822    4457.3962    907.22116    79.244431    1192.3997   -2927.3358 
 1250000    264.52637   -3810.6281   -3357.2389   -3810.6281            0    3567.2327     17.42201    20.520826    21.254811     7598.893    4670.3218    1763.9671    4267.4092    232.74298   -160.04382     -716.686   -2961.9108 
Loop time of 466.868 on 64 procs for 250000 steps with 864 atoms

Performance: 92.532 ns/day, 0.259 hours/ns, 535.483 timesteps/s
99.1% CPU use with 64 MPI tasks x 1 OpenMP threads

MPI task timing breakdown:
Section |  min time  |  avg time  |  max time  |%varavg| %total
---------------------------------------------------------------
Pair    | 20.156     | 24.711     | 30.204     |  45.6 |  5.29
Bond    | 0.26195    | 0.27906    | 0.29525    |   1.0 |  0.06
Kspace  | 204.98     | 214.38     | 224.99     |  33.5 | 45.92
Neigh   | 4.9031     | 5.9507     | 7.1657     |  24.6 |  1.27
Comm    | 96.661     | 108.57     | 117.85     |  52.3 | 23.26
Output  | 1.1056     | 1.1071     | 1.1197     |   0.2 |  0.24
Modify  | 103.49     | 105.99     | 109.83     |  14.2 | 22.70
Other   |            | 5.879      |            |       |  1.26

Nlocal:        13.5000 ave          20 max           8 min
Histogram: 4 2 9 5 12 19 5 5 2 1
Nghost:        2128.14 ave        2180 max        2075 min
Histogram: 4 3 5 4 14 14 8 5 5 2
Neighs:        4062.36 ave        6048 max        2103 min
Histogram: 2 1 5 17 13 7 6 7 2 4

Total # of neighbors = 259991
Ave neighs/atom = 300.91551
Ave special neighs/atom = 2.0000000
Neighbor list builds = 14194
Dangerous builds = 1

unfix		3
unfix		2
unfix		1

write_data	data.final.${pid}
write_data	data.final.0
System init for write_data ...
PPPM initialization ...
  extracting TIP4P info from pair style
  using 12-bit tables for long-range coulomb (../kspace.cpp:340)
  G vector (1/distance) = 0.37368055
  grid = 24 24 25
  stencil order = 5
  estimated absolute RMS force accuracy = 0.0031369363
  estimated relative force accuracy = 9.4467904e-06
  using double precision FFTW3
  3d grid and FFT values/proc = 2730 288
Last active /omp style is kspace_style pppm/tip4p/omp
WARNING: Not all mixed pair coeffs generated from mixing. Use write_data with 'pair ij' option to store all pair coeffs. (../write_data.cpp:312)

write_restart   restart.lmp.${pid}
write_restart   restart.lmp.0
System init for write_restart ...
PPPM initialization ...
  extracting TIP4P info from pair style
  using 12-bit tables for long-range coulomb (../kspace.cpp:340)
  G vector (1/distance) = 0.37368055
  grid = 24 24 25
  stencil order = 5
  estimated absolute RMS force accuracy = 0.0031369363
  estimated relative force accuracy = 9.4467904e-06
  using double precision FFTW3
  3d grid and FFT values/proc = 2730 288
Last active /omp style is kspace_style pppm/tip4p/omp
Total wall time: 0:07:51
