LAMMPS (30 Jul 2021)
Processor partition = 1
  using 2 OpenMP thread(s) per MPI task
using multi-threaded neighbor list subroutines
variable        pid world 0 1
variable        phase world IceII IceVI

shell cd ${phase}
shell cd IceVI
include Restart.lmp
echo both
log log.lammps
#include		in.partitions
include		in.temp
variable        temperature equal 105.49
variable	tempDamp equal 100.0
include		in.pressure
variable        pressure equal 7654.3
variable        pressureDamp equal 1000.0 # This is 1 ps
include		in.seed
variable        seed equal 745823

units		real
atom_style	full
read_restart	restart.lmp.${pid}
read_restart	restart.lmp.1
Reading restart file ...
  restart file = 30 Jul 2021, LAMMPS = 30 Jul 2021
  restoring atom style full from restart
  orthogonal box = (-0.0039046895 0.010921016 -0.0048322806) to (24.733906 24.719080 22.814832)
  4 by 4 by 2 MPI processor grid
  restoring pair style lj/cut/tip4p/long/omp from restart
  restoring bond style harmonic/omp from restart
  restoring angle style harmonic/omp from restart
  1920 atoms
  1280 bonds
  640 angles
Finding 1-2 1-3 1-4 neighbors ...
  special bond factors lj:    0        0        0       
  special bond factors coul:  0        0        0       
     2 = max # of 1-2 neighbors
     1 = max # of 1-3 neighbors
     1 = max # of 1-4 neighbors
     2 = max # of special neighbors
  special bonds CPU = 0.002 seconds
  read_restart CPU = 0.008 seconds
include 	in.setup
variable	out_freq equal 1000
variable	out_freq2 equal 10000
variable	out_freq3 equal 1000

timestep	2.0

neigh_modify    delay 7 every 1

include		in.tip4p
# This is TIP4P/Ice

# create groups ###
group ox type 2
640 atoms in group ox
group hy type 1
1280 atoms in group hy

# set charges - beside manually ###
set group ox charge -1.1794
Setting atom values ...
  640 settings made for charge
set group hy charge 0.5897
Setting atom values ...
  1280 settings made for charge

# ### TIP3P Potential Parameters ###
pair_style lj/cut/tip4p/long/omp 2 1 1 1 0.1577 8.5
pair_coeff 1 1*2 0.000 0.000
pair_coeff 2 2 0.21084 3.1668
bond_style  harmonic
bond_coeff  1 450 0.9572
angle_style harmonic
angle_coeff 1 55 104.52
kspace_style pppm/tip4p/omp 1.0e-5
pair_modify tail yes

thermo          ${out_freq}
thermo          1000
thermo_style    custom step temp pe etotal epair emol press lx ly lz vol pxx pyy pzz pxy pxz pyz enthalpy

restart 	${out_freq3} restart.lmp.${pid} restart2.lmp.${pid}
restart 	1000 restart.lmp.${pid} restart2.lmp.${pid}
restart 	1000 restart.lmp.1 restart2.lmp.${pid}
restart 	1000 restart.lmp.1 restart2.lmp.1


include         in.dump
dump            myDump all atom ${out_freq2} dump.water.${pid}
dump            myDump all atom 10000 dump.water.${pid}
dump            myDump all atom 10000 dump.water.1
dump            myDump2 all dcd ${out_freq2} dump.dcd
dump            myDump2 all dcd 10000 dump.dcd
dump_modify     myDump append yes
dump_modify     myDump2 append yes


variable natoms 	equal  "count(all)"                        # NUMBER ATOMS
variable H      	equal  "enthalpy/v_natoms"                 # ENTHALPY-per-atom
variable Vol      	equal  "vol/v_natoms"                 # volume-per-atom
fix AVG all 		ave/time ${out_freq} 1 ${out_freq} v_Vol v_H file vol_enthalpy.dat
fix AVG all 		ave/time 1000 1 ${out_freq} v_Vol v_H file vol_enthalpy.dat
fix AVG all 		ave/time 1000 1 1000 v_Vol v_H file vol_enthalpy.dat




fix 		1 all shake 1e-6 200 0 b 1 a 1
Finding SHAKE clusters ...
       0 = # of size 2 clusters
       0 = # of size 3 clusters
       0 = # of size 4 clusters
     640 = # of frozen angles
  find clusters CPU = 0.000 seconds
fix             2 all nph aniso ${pressure} ${pressure} ${pressureDamp}
fix             2 all nph aniso 7654.3 ${pressure} ${pressureDamp}
fix             2 all nph aniso 7654.3 7654.3 ${pressureDamp}
fix             2 all nph aniso 7654.3 7654.3 1000
fix             3 all temp/csvr ${temperature} ${temperature} ${tempDamp} ${seed}
fix             3 all temp/csvr 105.49 ${temperature} ${tempDamp} ${seed}
fix             3 all temp/csvr 105.49 105.49 ${tempDamp} ${seed}
fix             3 all temp/csvr 105.49 105.49 100 ${seed}
fix             3 all temp/csvr 105.49 105.49 100 745823


run             250000
PPPM initialization ...
  extracting TIP4P info from pair style
  using 12-bit tables for long-range coulomb (../kspace.cpp:340)
  G vector (1/distance) = 0.375126
  grid = 30 30 30
  stencil order = 5
  estimated absolute RMS force accuracy = 0.0031923195
  estimated relative force accuracy = 9.6135753e-06
  using double precision FFTW3
  3d grid and FFT values/proc = 5400 960
Last active /omp style is kspace_style pppm/tip4p/omp
Neighbor list info ...
  update every 1 steps, delay 7 steps, check yes
  max neighbors/atom: 2000, page size: 100000
  master list distance cutoff = 10.8154
  ghost atom cutoff = 10.8154
  binsize = 5.4077, bins = 5 5 5
  1 neighbor lists, perpetual/occasional/extra = 1 0 0
  (1) pair lj/cut/tip4p/long/omp, perpetual
      attributes: half, newton on, omp
      pair build: half/bin/newton/omp
      stencil: half/bin/3d
      bin: standard
Setting up Verlet run ...
  Unit style    : real
  Current step  : 5000000
  Time step     : 2
Per MPI rank memory allocation (min/avg/max) = 10.55 | 10.56 | 10.57 Mbytes
Step Temp PotEng TotEng E_pair E_mol Press Lx Ly Lz Volume Pxx Pyy Pzz Pxy Pxz Pyz Enthalpy 
 5000000    104.78617   -9766.6618   -9367.1691   -9766.6618            0    7691.1664     24.73781    24.708159    22.819665    13947.967     7059.022    8257.2533    7757.2239    9.9977485   -254.55188    144.58795   -7802.6568 
 5001000    104.29117   -9762.5437   -9364.9382   -9762.5437            0    6820.4762    24.650564    24.792042    22.886257    13986.657     7830.433    6437.7352    6193.2605    358.32106     178.5904    13.555488   -7973.6903 
 5002000    107.89462   -9769.5753   -9358.2318   -9769.5753            0     7584.766    24.697566    24.740609    22.839386    13955.615    8510.7614    6378.6956    7864.8408   -724.20635     72.48806    783.28997   -7814.5171 
 5003000    104.86169   -9758.0721   -9358.2915   -9758.0721            0    7716.0661    24.778642    24.748972    22.728585    13938.212    7581.8342    7112.4549    8453.9092   -413.08941   -21.338842    -1050.611   -7789.8119 
 5004000    104.07497   -9762.5079   -9365.7266   -9762.5079            0    8354.2057    24.720659    24.737407    22.731046    13900.603    8203.1331    8243.5288    8615.9553   -370.15976   -448.81165   -241.36006   -7672.1116 
 5005000    104.26106   -9747.6294   -9350.1387   -9747.6294            0    7588.1532    24.734603    24.762486    22.792486    13960.176     7522.686    7297.1319    7944.6419   -555.47489    407.39793    593.02794   -7805.2298 
 5006000    109.78805   -9759.2175   -9340.6554   -9759.2175            0    7723.5063    24.749969    24.731295     22.78037    13943.838    7121.4534    7372.7554    8676.3102    179.43888   -567.52859     701.4839   -7770.0297 
 5007000    104.10022   -9753.7776   -9356.9001   -9753.7776            0    8600.2287    24.671328    24.728028    22.790468    13903.856    9033.0357    8538.9294     8228.721    405.28124    122.79264    326.92278   -7613.0019 
 5008000    106.13139   -9771.3684   -9366.7471   -9771.3684            0    6709.8199    24.766997    24.765751    22.797237    13983.216    6905.8972    6948.5972    6274.9653   -1.5489382   -548.04954    549.69992   -7998.4078 
 5009000    107.22486   -9750.7994   -9342.0094   -9750.7994            0     6628.217    24.790686    24.700616    22.837601    13984.495    6090.1572    8114.0079     5680.486    331.34748   -296.93633    763.09118   -7990.1877 
 5010000    105.45921   -9752.7788   -9350.7202   -9752.7788            0     7472.774    24.746995    24.778888    22.756612    13954.423    7710.9839    7423.3925    7283.9456    -443.7079   -323.35335     -5.37941   -7829.9289 
 5011000    101.71465   -9744.3991   -9356.6165   -9744.3991            0    8177.9332    24.654462    24.774473    22.798378    13925.279    8534.3732    7736.9599    8262.4664   -603.73141   -417.06628   -423.81806   -7695.7935 
 5012000    107.55317   -9745.6557    -9335.614   -9745.6557            0    7798.3185    24.751871    24.702008    22.811469    13947.409    7732.9422    8089.2443    7572.7689    414.74263    134.40016    138.44032   -7749.3685 
 5013000    105.56717   -9750.7784   -9348.3082   -9750.7784            0    6696.6914    24.785689    24.732763    22.845169    14004.513    5696.6055    7601.9782    6791.4905    234.84455   -208.84748    57.986585   -7980.5662 
 5014000    103.15472   -9771.5938   -9378.3209   -9771.5938            0    7424.4868    24.711561    24.807292    22.738584    13939.364    7648.1409    7115.9713    7509.3482   -465.17369   -212.62251    748.00482   -7868.9872 
 5015000     105.6294   -9754.9264   -9352.2189   -9754.9264            0    8700.0503    24.667944     24.73056    22.784829    13899.932     9042.483    8144.0412    8913.6269    197.05333   -248.00357    -53.92423   -7588.5774 
 5016000    105.91578   -9759.2219   -9355.4226   -9759.2219            0    6934.3161     24.81319    24.718501    22.803536    13986.431    6412.0821    7094.9842     7295.882   -447.57664   -664.26592   -160.84886   -7940.9764 
 5017000    105.04092   -9746.2795   -9345.8156   -9746.2795            0    8221.2993     24.72229    24.712634    22.760964    13905.878    8223.2186    8621.5913    7819.0879   -525.98276   -256.00656    319.00749   -7678.5118 
 5018000    106.44547   -9775.2745   -9369.4558   -9775.2745            0    7761.6148    24.670535    24.778189     22.79014    13931.412    7732.6306    7869.2365    7682.9772   -103.44129      119.329    725.46966    -7792.487 
 5019000    105.20808   -9763.1688   -9362.0677   -9763.1688            0    7620.7203    24.715662    24.760835    22.773506     13936.94    8205.2709    6988.3035    7668.5864   -140.00635   -875.52412   -533.98175   -7813.1107 
 5020000     103.0278   -9756.4213   -9363.6324   -9756.4213            0    7728.1922    24.703272    24.762137    22.775845    13932.117    8076.1655    7623.3616    7485.0494    79.825685   -142.78077    604.87734   -7793.3748 
 5021000    107.10144   -9772.7016    -9364.382   -9772.7016            0    7905.3613    24.693061    24.738174    22.795682    13924.998    7779.7957    8495.3628    7440.9254   -523.54601   -130.95374    263.28537   -7758.9469 
 5022000    107.44518   -9750.7585   -9341.1284   -9750.7585            0    7913.4273    24.709085    24.650509    22.896704    13946.188    8184.5901     8026.434    7529.2579   -819.23065   -608.03413   -561.28329   -7731.6097 
 5023000    102.21757    -9765.146    -9375.446    -9765.146            0     7309.852    24.721435    24.783437    22.779936     13956.86    6505.6358     7479.732    7944.1883   -274.11643   -573.24126   -263.42234   -7887.5513 
 5024000    109.65217   -9750.8796   -9332.8355   -9750.8796            0    6985.4649     24.69021    24.846887    22.793742    13983.387    7814.1599    5699.3276    7442.9071   -315.13427    -335.2847    470.77882   -7908.2662 
 5025000    107.57101   -9767.6817    -9357.572   -9767.6817            0      6718.82    24.790151    24.750929    22.788502    13982.552    6197.1681    6794.6116    7164.6803   -468.89198    245.22364    112.42399   -7987.4623 
 5026000    109.05414   -9760.5223   -9344.7582   -9760.5223            0    6567.3444    24.679231    24.787779    22.864543    13987.232    7469.8155    6651.5875    5580.6303    340.27599   -703.73919   -55.926545   -8005.0894 
 5027000    106.84504   -9764.2228   -9356.8807   -9764.2228            0    7592.5189    24.675281    24.761871    22.840111    13955.447    8030.3597    7503.9581    7243.2389    535.62931   -929.07963   -247.68832   -7811.6066 
 5028000    107.63351   -9774.7197   -9364.3717   -9774.7197            0    7232.8678    24.772537    24.706647    22.808162    13959.652    6956.1609    7366.8843    7375.5582   -132.82877    50.089011   -215.91006   -7891.8523 
 5029000    104.16702   -9769.1844   -9372.0522   -9769.1844            0    6531.2012    24.777241    24.772224    22.801106    13995.031    6180.9341    6450.7584     6961.911   -509.93671    338.18636   -218.93674   -8039.0133 
 5030000    108.03862    -9759.624   -9347.7316    -9759.624            0    7290.0611    24.697895    24.783744    22.804269    13958.637    7383.2692    7162.0186    7324.8956   -384.04484    403.71347   -434.36108   -7863.6763 
 5031000    105.93138   -9739.9486   -9336.0898   -9739.9486            0    7981.2788    24.757722    24.777321    22.712568    13932.571    8030.6477    7454.6196    8458.5691    295.97557    614.31066     -100.321   -7714.3557 
 5032000    105.54929    -9743.501   -9341.0989    -9743.501            0    8058.4661    24.764975    24.829821    22.665054    13936.966    7314.3713    7674.8017    9186.2254    56.138372   -1417.6221   -622.65543   -7703.1644 
 5033000    107.90778   -9757.2203   -9345.8266   -9757.2203            0    7697.3873    24.658242    24.793876    22.795945    13936.834    8346.8833     7118.006    7627.2727   -27.538552    608.87251    394.29155   -7781.2986 
 5034000    104.56923   -9768.4226    -9369.757   -9768.4226            0    7795.4816    24.766617    24.726692    22.754174    13934.576    7232.3322    7765.9456    8388.1671    38.877165    48.980611   -154.04439   -7785.5475 
 5035000    104.48743    -9775.026   -9376.6722    -9775.026            0    7768.4328    24.802848    24.738479    22.712078    13935.785    7028.7776    7638.0637    8638.4571    103.74601    121.60745    -282.0824   -7797.8227 
 5036000    105.44017   -9766.3877   -9364.4017   -9766.3877            0    6879.2331    24.749511    24.799957    22.790624    13988.585    7374.3765    5969.9363    7293.3866    174.14814   -227.16265   -8.5169261   -7960.9751 
 5037000    108.36243   -9770.6045   -9357.4775   -9770.6045            0    7004.6525    24.704637    24.784342    22.820349     13972.63    7418.2102    6734.8197    6860.9276   -740.81858   -586.37143   -93.797275   -7930.0941 
 5038000    107.78057   -9755.5357   -9344.6271   -9755.5357            0    8262.4226    24.641188    24.759332     22.81352    13918.514    8340.1913    8314.6633    8132.4133    145.35842    108.03385    319.65725   -7667.4606 
 5039000    104.21889   -9758.8894   -9361.5594   -9758.8894            0    7939.9689    24.682993    24.735919    22.800914    13921.246    8425.7769    7213.3635    8180.7663    19.290791     408.6128    417.23547   -7749.5306 
 5040000    103.28357   -9760.7027   -9366.9386   -9760.7027            0     6932.344    24.793671    24.726833    22.797709    13976.568    6998.8971    6991.4873    6806.6477   -363.39805   -231.27298    203.84376   -7953.8918 
 5041000    102.60047   -9756.7692   -9365.6094   -9756.7692            0    9863.2717    24.715402    24.656357     22.70074    13833.644    9384.3677    10140.555    10064.892   -359.58357    -134.6252     442.4871   -7375.6992 
 5042000    105.69231   -9762.6222   -9359.6749   -9762.6222            0    8007.3793     24.73014     24.75568    22.756959     13932.07    7892.5677    7312.9818    8816.5884    124.50945   -569.96989    258.51403   -7732.6959 
 5043000    105.27553   -9751.7868   -9350.4285   -9751.7868            0    7704.3005    24.628852    24.844347    22.821805    13964.383    8478.5403    6801.3969    7832.9644   -168.78097    266.53531    491.07689   -7781.3999 
 5044000      107.718   -9772.5445   -9361.8744   -9772.5445            0    7184.9767     24.76495     24.75586     22.77494    13962.806    6717.2597    7484.4462    7353.2241   -308.50205   -235.22408   -46.263748   -7898.7745 
 5045000    102.65881   -9768.9903   -9377.6081   -9768.9903            0    8009.0637    24.715506    24.717911    22.791567    13923.726    7999.8581    8311.2979     7716.035    256.82472   -249.98648    92.196019   -7751.2616 
 5046000    106.04039   -9739.2143     -9334.94   -9739.2143            0    7984.2986    24.660737    24.754436    22.842293    13944.366    7908.6308    8083.5333    7960.7317   -333.86665   -1068.9668     166.7923   -7711.2189 
 5047000    105.29127   -9766.9323   -9365.5139   -9766.9323            0    7425.0003    24.760767    24.706226    22.805674    13951.259    7266.4715    7734.5594      7273.97   -174.11667   -592.71592    281.46161   -7854.7877 
 5048000    101.82437   -9753.5057   -9365.3048   -9753.5057            0    7275.8846    24.815162    24.745907    22.740595    13964.401    6819.1121     7508.828    7499.7138   -714.20927   -623.14049    34.136859   -7883.5238 
 5049000    108.14262   -9758.0173   -9345.7283   -9758.0173            0    7406.2443     24.77901    24.822054    22.678007    13948.469    7036.4321    7636.1555    7546.1454   -604.40971    548.01471    141.81156   -7839.1196 
 5050000     110.3127   -9761.9004   -9341.3381   -9761.9004            0    7674.5297    24.697223    24.792831    22.766596    13940.308    8277.3609    6996.1058    7750.1224   -158.11177    314.33109   -62.486624   -7781.0671 
 5051000    104.28755   -9750.1305   -9352.5388   -9750.1305            0    8699.8617     24.70684     24.70453     22.78114    13904.944    8524.9853    8404.3902    9170.2098   -584.18732   -504.84283    76.771654   -7588.2995 
 5052000    101.66441   -9740.9662   -9353.3751   -9740.9662            0    8164.1258    24.730931    24.681396    22.813302      13925.1    7930.2154    8628.4377    7933.7241   -203.35906    40.266677   -101.84787   -7695.3774 
 5053000    104.33098   -9758.2158   -9360.4585   -9758.2158            0     7579.859    24.675904    24.758691    22.842657    13955.563    7868.9301    7582.8083    7287.8384   -412.89586   -52.184493    159.61494   -7817.7482 
 5054000    110.25736   -9773.9695   -9353.6182   -9773.9695            0    7709.2886    24.682365    24.787158    22.797503    13947.642     8781.364    6889.5979    7456.9039   -40.166744    -616.2342   -436.26752    -7785.456 
 5055000    108.39457   -9757.4003   -9344.1507   -9757.4003            0    7485.6348    24.826173    24.813179    22.659309    13958.503     6787.625    7480.4947    8188.7848   -353.33775     188.5055    -157.5969   -7820.2967 
 5056000    107.44315   -9756.7576   -9347.1353   -9756.7576            0    6638.0959    24.815066    24.797996    22.742838    13995.121    6182.7327    6319.2644    7412.2904   -44.427789    -216.1465    489.62269   -7992.2702 
 5057000    106.40443   -9761.3762   -9355.7139   -9761.3762            0    7631.9287    24.723712    24.761317    22.793352      13953.9    7369.1765    7580.2239    7946.3858   -703.81751    313.98325    133.29969   -7802.5911 
 5058000    103.30267   -9753.3265   -9359.4896   -9753.3265            0    8048.5499    24.643268    24.773093    22.799587    13918.919    8540.2314    7615.1755    7990.2428   -22.661763   -310.56375    422.07046    -7725.689 
 5059000    100.73184     -9741.18   -9357.1443     -9741.18            0    7527.2387    24.699697    24.736219     22.86122    13967.682    7473.9907    7794.8009    7312.9246    320.21347    -499.8935    350.80045   -7823.8133 
 5060000    103.46636   -9774.0242   -9379.5633   -9774.0242            0    6916.9887      24.7096    24.708925    22.894375    13978.107     7251.231    6978.3355    6521.3996   -899.15477    517.52337   -1.5488682   -7969.4912 
 5061000    104.39695   -9770.3546   -9372.3458   -9770.3546            0    7403.7002    24.804211     24.70241    22.757529    13944.079    6610.9974    7856.4829    7743.6204   -500.76204    227.35249    963.63884   -7866.7287 
 5062000    107.64972    -9770.013   -9359.6032    -9770.013            0    7288.7134    24.687501    24.824412    22.763122    13950.441    7209.6012      6893.99     7762.549    290.03789   -99.816048    348.20284   -7876.6935 
 5063000     107.7465   -9747.0218    -9336.243   -9747.0218            0    7486.8868     24.70863    24.806776    22.776997    13960.965    8683.7715    6441.8788      7335.01   -528.43521   -574.65906    5.4397135   -7811.8653 
 5064000    104.95833   -9754.4052   -9354.2562   -9754.4052            0    7865.8161    24.854797    24.701253    22.703617    13938.764    7224.4098    8620.9119    7752.1267   -358.70716    523.54019   -172.31627   -7755.2729 
 5065000    101.98984   -9769.8593   -9381.0275   -9769.8593            0    6870.1203    24.706278    24.827309    22.784066    13975.527    7160.3571    6526.6682    6923.3356   -67.402446    471.83362     329.9409   -7980.7683 
 5066000    107.26977   -9739.2184   -9330.2572   -9739.2184            0    7707.3176    24.693208     24.75183    22.832385    13955.201    8229.8884    7256.0722    7635.9923   -79.272376    951.57225    678.55953   -7761.6462 
 5067000    101.74132   -9763.4109   -9375.5266   -9763.4109            0    7760.6954     24.76965    24.658785    22.828564    13943.446    7540.7026    8226.5644    7514.8193   -453.09992   -1287.5842   -233.44719   -7797.3825 
 5068000    102.20021   -9761.2649    -9371.631   -9761.2649            0    7276.5966    24.758798    24.742683     22.79197     13962.34    7182.7273    7467.7618    7179.3006    318.55171    394.30865    86.413199   -7889.9238 
 5069000    106.54949   -9778.2435   -9372.0283   -9778.2435            0    7085.4052    24.729228    24.794246    22.765196    13958.311    6916.6991    6803.6977    7535.8187    -804.5097   -159.55359   -868.60319    -7929.669 
 5070000    105.68595   -9770.3837   -9367.4606   -9770.3837            0    7280.8032    24.761767    24.792607    22.715838    13945.452    7005.9398    6981.2397    7855.2302   -90.488781    192.29851    -26.86262   -7886.6901 
 5071000    104.87672   -9757.2372   -9357.3994   -9757.2372            0    7133.6565    24.689397    24.778393    22.842803    13974.395    7564.1818    6699.4806     7137.307    12.231071    432.10002    181.96179   -7903.5443 
 5072000    106.01502   -9753.3296    -9349.152   -9753.3296            0    7533.5609    24.758457    24.741717    22.804517    13969.288    7532.1706    7619.1381    7449.3739   -493.67669    251.65471    11.375177   -7814.3567 
 5073000    102.97307   -9782.2166   -9389.6363   -9782.2166            0    6818.1251     24.77862     24.65136    22.884227    13978.297    6320.7534    7542.5512    6591.0709     -243.679   -339.15909    273.89051   -7999.6993 
 5074000     109.5233   -9763.9387   -9346.3859   -9763.9387            0    7953.3527    24.683907    24.744238    22.800533    13926.211    7853.6263    7707.0026    8299.4292    539.06013    -147.5336    325.19735   -7731.0639 
 5075000    108.38455   -9753.6312   -9340.4199   -9753.6312            0    8246.5094    24.736714    24.769385    22.716472    13918.682    7999.4187    8326.9201    8413.1894    -141.4784   -8.8895139    275.28367   -7666.4634 
 5076000    107.05415   -9758.3499   -9350.2107   -9758.3499            0    8370.3129    24.724125    24.790699    22.700539    13913.803     8394.684    7857.6635    8858.5911   -50.423232    214.66708   -334.75806   -7651.7189 
 5077000    102.38732    -9760.853   -9370.5059    -9760.853            0    7987.9509    24.677098    24.854514    22.711841    13930.019    7981.2128    7472.8996    8509.7401    -57.66803   -469.08085    390.88121   -7747.7134 
 5078000    105.73926   -9748.7912   -9345.6649   -9748.7912            0    7398.8022    24.809457    24.735221    22.769203    13972.718    6497.0014    7813.3288    7886.0763    280.63408   -429.25898   -376.01988   -7837.9536 
 5079000    104.79908   -9759.6021   -9360.0602   -9759.6021            0    8269.5383    24.709375    24.697585     22.80617    13917.736    8195.6311    8342.7361    8270.2476    422.02531   -60.537358    1265.8045   -7681.5433 
 5080000    106.21983   -9766.2433   -9361.2849   -9766.2433            0     7243.685    24.715674    24.724718    22.831749     13952.21    7762.1988    7244.9132     6723.943   -11.367496    -145.7111    450.12622   -7887.3495 
 5081000    106.23149   -9741.8905   -9336.8876   -9741.8905            0     8565.468    24.669209    24.708801    22.830012    13915.956    7889.4575    9256.3148    8550.6317    202.09054   -113.67476   -540.46108   -7598.5264 
 5082000    101.42805   -9747.2463   -9360.5563   -9747.2463            0    7462.0819     24.77458    24.728991    22.779494    13955.866    6861.4798     7831.651     7693.115   -56.276857    22.746639    64.259178    -7841.784 
 5083000    106.00667   -9772.5083   -9368.3625   -9772.5083            0    9053.4157    24.713584    24.762503    22.652418    13862.605    9326.4509    8614.2907    9219.5056   -460.01509   -66.482593     547.3116   -7538.0164 
 5084000    105.37973   -9735.6666    -9333.911   -9735.6666            0    8428.8582    24.764681    24.735055    22.724467    13920.004    8061.1981    8734.6056    8490.7709   -579.65083   -754.95493    559.36272   -7622.7771 
 5085000    103.97702   -9763.2636   -9366.8558   -9763.2636            0    6774.6806    24.760243    24.732562    22.834553    13983.521    6546.1033    6837.0364    6940.9022   -538.37269   -225.45279    298.49722   -7985.2592 
 5086000    105.19355   -9758.8526   -9357.8068   -9758.8526            0    7268.6394    24.717144    24.726361    22.840595    13959.373    7104.1735    7853.1265    6848.6183    -278.0085    258.62592   -16.426555   -7878.0344 
 5087000    105.66377   -9755.6224    -9352.784   -9755.6224            0    8167.3424    24.678161     24.75388    22.797096    13926.296    8785.4757    7744.3991    7972.1524   -394.63174   -5.8500202   -292.66324   -7693.9907 
 5088000    110.66271   -9762.3633   -9340.4665   -9762.3633            0    7495.6696    24.715879    24.787928    22.749991    13937.906    7904.3623    6133.7772    8448.8694    188.60283   -312.45385    597.54667   -7816.8213 
 5089000    100.48564   -9761.6937   -9378.5966   -9761.6937            0    7867.5097    24.790766    24.674182    22.791693    13941.493    6962.6529    8709.5942     7930.282   -137.70261   -1021.5824   -50.293572   -7778.9558 
 5090000    104.17067   -9745.3919   -9348.2458   -9745.3919            0    7952.6622    24.763453    24.743284    22.745158    13936.621    7909.8386    7778.1427    8170.0052   -121.49542   -89.834486   -993.98409   -7731.8566 
 5091000    102.17341   -9754.5812   -9365.0496   -9754.5812            0    8670.1634    24.679462    24.780651    22.733506    13903.202    8936.6768    8412.7949    8661.0183   -371.09101   -384.88932    456.89228   -7607.0532 
 5092000    104.53782    -9752.752   -9354.2061    -9752.752            0    7120.9751    24.749249    24.783954    22.782248    13974.272    7021.4904    6429.1553    7912.2797   -175.00459   -242.71772    252.69253   -7902.9484 
 5093000    104.34494   -9750.5435    -9352.733   -9750.5435            0    7453.3383    24.769767    24.735824    22.767961    13949.943    6854.9803    8129.9122    7375.1226   -47.385783   -186.65539    336.80647    -7836.384 
 5094000    106.42208   -9770.4034   -9364.6738   -9770.4034            0    6886.1234    24.729209    24.760703    22.807868    13965.545    7269.4844     6370.443    7018.4427    182.68588    262.06576   -23.097805   -7962.1554 
 5095000      101.678    -9767.478    -9379.835    -9767.478            0    8409.8039    24.654093    24.733429    22.800493    13903.291     8023.555    8882.4675    8323.3891   -432.97525   -417.46803   -225.53486   -7674.6192 
 5096000    109.40182   -9767.9579   -9350.8683   -9767.9579            0    8164.5266    24.666417    24.758248    22.787375    13916.187    8843.2868    7530.0578    8120.2353   -100.60403    391.21659   -393.45791   -7693.8505 
 5097000    105.42586   -9749.3777   -9347.4462   -9749.3777            0    7396.9889    24.838088    24.687542     22.77514    13965.519    5853.5554    8638.3931    7699.0182    174.54981   -588.91287    441.55507    -7840.881 
 5098000    102.72744   -9773.9174   -9382.2736   -9773.9174            0    7547.0761    24.749523    24.746515    22.758465     13938.75    7826.3403    7673.0261    7141.8619   -156.05208   -213.79203    482.05312    -7848.086 
 5099000    105.29337   -9745.5812   -9344.1549   -9745.5812            0    8407.0686    24.690603    24.810847    22.715497    13915.395    9017.6793    7955.4705     8248.056   -81.412394   -536.95349     633.9081   -7638.0095 
 5100000    102.88951    -9769.455   -9377.1933    -9769.455            0    6775.8304    24.664553    24.862492    22.795492    13978.703    7751.3934    5506.7319    7069.3658   -776.44708   -240.84923   -237.88087   -7995.8383 
 5101000    103.99342   -9761.2525   -9364.7821   -9761.2525            0     7722.513    24.702302    24.733841    22.810567    13936.864    7596.6274    7713.2854    7857.6262    80.726453   -428.40119    578.09073   -7795.1438 
 5102000     110.3636   -9765.8085   -9345.0521   -9765.8085            0    7301.5175    24.828309    24.653963    22.804863    13959.226    6096.4596     8446.022    7362.0709   -591.46795   -251.10365    81.220314    -7858.602 
 5103000    106.44757   -9757.1121   -9351.2854   -9757.1121            0    7356.2903    24.778969    24.740361    22.764237    13955.403    6888.9391    7985.3019      7194.63    82.758581   -305.86276    688.16427   -7854.0947 
 5104000    102.74437   -9753.3448   -9361.6363   -9753.3448            0    7740.8368    24.705317    24.721053    22.838495    13948.416    8061.3751    7762.3675    7398.7678    241.80556   -342.10442   -350.62569   -7786.9695 
 5105000    105.29482   -9749.5312   -9348.0994   -9749.5312            0    7797.8539    24.676217    24.742217    22.842105    13946.117    7734.6869    8087.6963    7571.1785    217.67228   -677.77387    126.00995   -7762.0953 
 5106000    103.71879   -9769.1302   -9373.7069   -9769.1302            0    6922.8006    24.643131    24.763042    22.909743    13980.416    7670.7303    6398.9955    6698.6759    342.74436   -318.21768   -64.302326   -7962.2169 
 5107000    106.94872   -9762.8356   -9355.0983   -9762.8356            0    7606.1319    24.703018    24.768537    22.785159    13941.273    7940.8548    7489.0155    7388.5253   -89.337821    -465.6748    457.51084   -7808.6259 
 5108000    104.26617   -9758.3625   -9360.8523   -9758.3625            0    6707.8058    24.715643     24.88907    22.724241    13978.802    6303.7966    6332.4384    7487.1825   -123.21659   -437.25357   -60.168948   -7993.3555 
 5109000    102.80951   -9755.9104   -9363.9537   -9755.9104            0    7339.0682    24.693748    24.801084    22.800867    13963.974    7588.9853    7228.9371    7199.2822   -210.48037   -212.63025   -812.15189   -7869.3507 
 5110000    102.19268   -9758.0104   -9368.4052   -9758.0104            0    7313.3031    24.682019    24.800246    22.829198    13974.211    7750.6729    6703.5789    7485.6576    112.11276   -324.84931    14.306066   -7877.9574 
 5111000    106.62961   -9764.8871   -9358.3664   -9764.8871            0     7651.787    24.733189    24.670514    22.854744    13945.519    7517.2073    8493.7482    6944.4056    343.44418    50.178175    489.90192   -7802.1376 
 5112000    104.48967   -9747.8086   -9349.4463   -9747.8086            0    8329.7475    24.695938    24.721705    22.809256    13925.637    8570.6457    7970.2446    8448.3523   -344.72071    387.05792    353.48407   -7657.7484 
 5113000    105.59754   -9759.5818   -9356.9959   -9759.5818            0    7212.1992    24.709329    24.839331    22.758407    13968.273    7078.9442    7051.1993    7506.4541    508.72868    623.36792   -145.06161   -7887.7776 
 5114000    109.51407   -9746.1834   -9328.6659   -9746.1834            0    7628.5564    24.667011    24.819409    22.782442    13947.882    7644.5233    7398.9693    7842.1767   -884.02833    368.80251     465.9577   -7776.8989 
 5115000    108.21538   -9748.4864     -9335.92   -9748.4864            0    7109.8954    24.715332    24.800729     22.79987    13975.369    7585.1179    6994.6278    6749.9406   -580.70399    -1306.901    127.19048   -7886.8066 
 5116000    105.22225   -9761.6831   -9360.5279   -9761.6831            0    8460.5895    24.780218    24.679817    22.718504    13893.984     7583.137     9810.723    7987.9085   -2.8243843    171.36744   -32.074826   -7646.1628 
 5117000    103.79409   -9768.3798   -9372.6694   -9768.3798            0     8674.243      24.6859    24.736992    22.741243    13887.052    8237.3294    8621.9208     9163.479   -9.7617921   -203.13592    -108.6948   -7615.8888 
 5118000    101.81075   -9764.8422   -9376.6932   -9764.8422            0    7831.9312    24.689624    24.729301    22.818543    13932.025    7751.1512    8403.5614     7341.081    255.33534   -354.61149   -113.03399   -7785.3678 
 5119000    103.26431    -9751.141   -9357.4503    -9751.141            0    7243.6241    24.782964    24.653078    22.839614    13954.463    6582.8141    8768.6837    6379.3746   -457.52975   -313.95792   -259.72949   -7883.2893 
 5120000    104.32562   -9760.3255   -9362.5886   -9760.3255            0    8155.5779    24.719631    24.724813    22.793545    13931.147    8407.9527    8539.6191    7519.1618    529.65265   -672.33563   -16.545786   -7705.6077 
 5121000    105.46627    -9763.757   -9361.6715    -9763.757            0    7598.3161    24.600715     24.78742    22.866186    13943.531    8725.9522    7163.6769    6905.3191   -288.15946    -336.7838    128.50013   -7816.5379 
 5122000    103.86424   -9744.0204   -9348.0426   -9744.0204            0    7406.5131    24.733439     24.73116     22.82903    13964.212    7552.0091    7341.4572    7326.0729   -303.21243    18.837486    528.33116   -7839.6787 
 5123000     105.1965    -9771.056    -9369.999    -9771.056            0    7500.7833    24.842265    24.708294    22.716336    13943.514    6962.2486    7716.6023    7823.4989   -48.842868     685.7648   -313.06061   -7844.7008 
 5124000    109.73175   -9759.9314   -9341.5839   -9759.9314            0    7584.7665    24.810332    24.773656    22.698944    13951.739     6780.593    7177.9461    8795.7604   -767.59638    18.999143    609.76619   -7798.2978 
 5125000    104.32733   -9740.3335   -9342.5901   -9740.3335            0    7053.9513    24.677899    24.843961    22.801996     13979.83     8163.473    6289.4624    6708.9184   -351.06467    56.782258   -420.56818   -7904.4201 
 5126000    106.92584    -9765.984    -9358.334    -9765.984            0    7584.1378    24.686329    24.748458    22.805429    13932.944    8067.0909      7371.96    7313.3627   -450.15185   -505.49866    479.06912   -7817.2546 
 5127000     106.1918   -9757.6678   -9352.8163   -9757.6678            0    7390.1799    24.722957    24.688197    22.868557    13958.172    7433.6377    8224.8054    6512.0965   -366.96969    274.30518     566.8816   -7848.4297 
 5128000    103.60462   -9758.6164   -9363.6283   -9758.6164            0    7754.8264    24.705169    24.684771    22.858035    13939.777     7437.635    8425.6159    7401.2284    216.58656   -285.53164   -298.55581   -7787.0927 
 5129000     102.7542   -9749.0247   -9357.2789   -9749.0247            0    6794.6233    24.715016    24.832501    22.809372    13998.925    6976.6113    6597.5527    6809.7061    584.68148    839.30442    158.57492   -7970.0888 
 5130000    105.05696    -9775.595   -9375.0699    -9775.595            0    7045.1283    24.774345    24.738463    22.774052    13957.743    6517.7102    7953.0902    6664.5845   -136.98804   -85.421405    229.00463   -7940.9681 
 5131000    105.70422   -9776.8482   -9373.8555   -9776.8482            0    7374.6286    24.763328    24.755179    22.762376    13953.806    7713.2463    7331.0111    7079.6285    229.84082    66.848429   -271.70911   -7873.1042 
 5132000    100.77634   -9746.5783   -9362.3729   -9746.5783            0    7263.0754    24.697776    24.783795    22.826782    13972.378    8488.9182    6888.3366    6411.9714   -326.16973   -1294.6693    269.71791   -7882.3557 
 5133000    105.91575   -9767.5838   -9363.7846   -9767.5838            0    7324.0784    24.655829    24.771944    22.841139    13950.747    8468.5646    6807.0392    6696.6315   -381.93694   -848.77954    156.23376   -7873.6472 
 5134000       106.42   -9776.0404   -9370.3188   -9776.0404            0    8224.6195    24.683889    24.714874    22.785057    13900.234    8159.4874    8471.5654    8042.8058   -340.49417   -201.65107    155.23705   -7703.0185 
 5135000    104.88598     -9779.07   -9379.1968     -9779.07            0    7341.1414    24.722846    24.673553    22.863064    13946.479    6879.1237    8085.1682    7059.1322     188.3861   -113.61418   -123.67938   -7886.0447 
 5136000    106.23729   -9756.4909   -9351.4659   -9756.4909            0     7676.387    24.740341    24.710004    22.797268    13936.743    7792.5303    7947.0179    7289.6128   -265.61083   -50.618983    237.36954   -7791.2164 
 5137000     104.8965   -9767.6258   -9367.7124   -9767.6258            0    7498.7399    24.711443    24.824678    22.731816    13944.915    7422.2579    7199.5015    7874.4604   -264.29152   -623.54592    813.99411   -7842.6766 
 5138000    105.31553   -9759.4069   -9357.8961   -9759.4069            0    7487.6846    24.692157    24.803894    22.776499    13949.733    8604.3818    6896.0379    6962.6341   -790.38051    34.479564   -61.421004   -7834.5825 
 5139000    105.47855   -9777.3452   -9375.2129   -9777.3452            0     7270.489    24.675109    24.772827    22.828645    13954.517    7690.9768    6805.2432    7315.2471    -18.39815    56.213689    169.47009   -7895.5789 
 5140000    107.28535   -9767.3446   -9358.3239   -9767.3446            0    7533.3925    24.623345    24.765533    22.879832    13952.357    8714.4512    7420.9047    6464.8216   -539.40028   -1080.5437    832.61789   -7825.4231 
 5141000    105.32895   -9776.2711   -9374.7091   -9776.2711            0    7273.5933    24.702024    24.723398    22.844433    13951.506    7283.8131     7351.679    7185.2877   -220.53574    -88.83922   -32.179428   -7894.7627 
 5142000    107.17949   -9783.0513   -9374.4342   -9783.0513            0    7736.0288    24.750222    24.704434     22.78004    13928.632    7401.6949    7975.9582    7830.4334   -298.61373    70.723532    120.77743   -7802.9774 
 5143000    108.39386     -9770.19   -9356.9431     -9770.19            0    7225.6097    24.780163    24.766319    22.725287    13946.813    6807.8115    7537.0288    7331.9889    126.27215   -516.42149   -318.00382   -7887.2544 
 5144000    106.73415   -9771.3642   -9364.4449   -9771.3642            0    7432.4189    24.699627    24.810378    22.775043    13956.707    7808.5421    6549.2159    7939.4987   -206.00866    147.56915   -234.21024   -7851.6187 
 5145000    110.10775    -9754.208   -9334.4271    -9754.208            0    7745.3406    24.753149    24.752891    22.755329    13942.463    7075.8377    8319.8453     7840.339    72.402302   -816.63643    557.53938   -7759.5164 
 5146000    104.11889   -9760.0284   -9363.0797   -9760.0284            0    6836.6354     24.78427    24.768559    22.767514    13976.309    6187.4525    7248.8439    7073.6097   -541.78211     324.2985   -352.81727   -7969.5675 
 5147000    106.90954   -9769.4955   -9361.9076   -9769.4955            0    7816.2107    24.654002    24.821383    22.757212    13926.194    8544.1371    6804.8673    8099.6277    8.8856873     352.2397   -211.16103    -7774.441 
 5148000    101.93356   -9763.8912    -9375.274   -9763.8912            0    7716.9221    24.693181    24.774482    22.778374    13934.915    8358.1806    7326.6104    7465.9754   -49.144558    694.69984   -608.13268   -7806.9914 
 5149000    106.07014     -9760.25   -9355.8623     -9760.25            0    8573.1934    24.678119    24.691989    22.818097    13904.249    8842.4949    8322.1168    8554.9684    191.41281    96.619736   -364.22411   -7617.3969 
 5150000    104.26945   -9763.1262   -9365.6035   -9763.1262            0    7982.3493    24.802812    24.665195    22.789294    13941.719    6386.9996     8534.726    9025.3222   -731.22816   -549.54866    358.51859   -7742.5869 
 5151000    104.16915   -9751.2219   -9354.0816   -9751.2219            0    7739.3016    24.754149    24.768823    22.741082    13943.265    7501.9249     7516.228    8199.7518    540.17897    345.20611    34.053096   -7780.3085 
 5152000    104.41127   -9766.2292   -9368.1658   -9766.2292            0    7364.1483    24.782578    24.799828     22.67865    13938.381    6880.1878    7186.3338    8025.9232    103.75196    -148.3373    234.75334   -7871.2039 
 5153000    108.91116   -9769.7593   -9354.5403   -9769.7593            0    7126.1125    24.721084     24.78693    22.788284    13963.744    7692.1072    6711.9222    6974.3082    105.67464    272.13638    150.12892   -7903.3296 
 5154000    102.03165   -9758.5325   -9369.5413   -9758.5325            0    8418.6569     24.64028    24.761072    22.810183    13916.943    8393.1428    8216.3665    8646.4613   -1.1270612   -1211.0905   -98.723938   -7660.8542 
 5155000    107.16345   -9763.4553   -9354.8993   -9763.4553            0    8599.8824     24.65984    24.752356    22.782432    13906.149     8272.977    8767.3499    8759.3202   -39.371391   -448.52149    473.85612   -7610.7836 
 5156000    99.849561   -9776.6019   -9395.9298   -9776.6019            0    8139.4134    24.727101    24.706081    22.763034     13906.16    7948.1867    8778.4427    7691.6109   -172.86721    122.48091    534.80962   -7745.1992 
 5157000    103.34719   -9755.0423   -9361.0356   -9755.0423            0     8100.654    24.782907    24.694437     22.72764    13909.314    7242.5424    8731.3204    8328.0992    134.83776    1065.9747   -325.16661    -7717.793 
 5158000    106.88532   -9761.8118   -9354.3163   -9761.8118            0    7941.0951    24.639696    24.696711    22.895094     13932.11    8619.5539    8376.4125    6827.3191   -209.79659   -535.20965    300.91064   -7740.8006 
 5159000    107.37222   -9759.0994   -9349.7475   -9759.0994            0    7283.9767    24.699976    24.753346    22.846072     13968.25    7172.5873    7179.6748     7499.668   -26.572275   -1350.3501    59.255587   -7865.9097 
 5160000    103.64894   -9751.9152   -9356.7582   -9751.9152            0    8306.6098    24.616855    24.766739     22.83628    13922.805    9455.9675    7461.4161    8002.4457    31.619497   -284.26189     965.0297   -7670.1024 
 5161000    103.50602   -9771.7883   -9377.1761   -9771.7883            0     7724.725    24.657782    24.755609     22.82557    13933.148    9000.6906    7113.4559    7060.0285   -309.35957   -876.75428    -304.8005   -7807.5068 
 5162000    104.38808   -9764.3514   -9366.3764   -9764.3514            0    7076.9879    24.768091    24.690437     22.85612    13977.317    6619.8816     7245.693    7365.3891   -544.02343     170.5522    46.347856   -7923.7689 
 5163000    106.30696   -9762.1891   -9356.8985   -9762.1891            0    6838.5053    24.763374    24.738555    22.832679     13987.53    6979.4565     6657.066    6878.9935   -154.30924   -655.25317    543.09807    -7961.886 
 5164000    102.76243   -9758.1839   -9366.4066   -9758.1839            0    8571.7205    24.665715    24.804292    22.703109    13890.116    8855.5735    8033.8432    8825.7448    110.28076   -376.18027   -409.22865   -7630.0067 
 5165000    105.08587   -9755.1287   -9354.4934   -9755.1287            0    8010.5013    24.763193     24.74431    22.729907    13927.708    7474.8578    8286.9378    8269.7084    366.44548   -289.15538    345.32077   -7727.3897 
 5166000    107.17858   -9753.7254   -9345.1117   -9753.7254            0    7866.2478    24.739883    24.715723    22.798786    13940.639    8531.1392    7480.2753     7587.329   -42.750434   -521.96865    378.61828   -7745.8255 
 5167000      101.689   -9767.5394   -9379.8545   -9767.5394            0    7862.5687    24.635412    24.761516    22.838247    13931.562      8892.02    7536.4108    7159.2753   -67.757278     -1021.66    159.10181   -7782.3571 
 5168000     107.4505   -9751.7649   -9342.1146   -9751.7649            0    7132.2802    24.710152    24.717044    22.897201    13984.738    6959.3798    7620.7736    6816.6872   -138.67129   -23.994757   -5.8850432   -7887.4642 
 5169000    103.39304   -9746.3284   -9352.1469   -9746.3284            0    8880.4811    24.688426    24.695332    22.799186     13900.41    8629.0654    9605.4254    8406.9525   -219.24991   -651.61784    27.652697   -7551.8672 
 5170000      103.997   -9761.2829   -9364.7989   -9761.2829            0    7541.1752    24.691257    24.822801    22.773386    13957.948    7574.8502    7042.0351    8006.6402   -560.76859   -646.65894    39.126312   -7829.6995 
 5171000    105.53482   -9766.2805   -9363.9336   -9766.2805            0    7663.4539    24.755724    24.740909    22.749337    13933.494    7172.1581    8221.4724    7596.7314    383.94498   -159.34454    548.13633    -7806.676 
 5172000    107.00648   -9772.1968   -9364.2393   -9772.1968            0    7777.9693    24.791667    24.743254    22.706474    13928.753    7628.5159    7375.6225    8329.7693   -696.07114    325.07627    534.82784   -7784.2492 
 5173000    101.54084    -9742.102    -9354.982    -9742.102            0     7944.303     24.66072    24.809831    22.770579    13931.684    9126.0077    7209.1914    7497.7098    29.052694   -357.91805    110.60014   -7740.8639 
 5174000    105.70838    -9771.855   -9368.8464    -9771.855            0    7614.9669    24.705041    24.709793    22.837502    13941.301    8233.8206     7502.784    7108.2961   -459.08505   -676.25462    168.08546   -7820.5746 
 5175000    103.76774   -9759.7372   -9364.1272   -9759.7372            0    6745.4911    24.807175    24.742608    22.773275    13978.104    6113.8218    6889.1998    7233.4517    146.95508    -189.1325   -145.86028   -7989.0163 
 5176000    106.02993   -9774.8992   -9370.6648   -9774.8992            0    6948.1605    24.712035    24.836322    22.768207    13974.125    7032.0695     6483.174     7329.238   -435.94981   -259.07062    326.29366   -7954.6416 
 5177000    105.98721   -9761.5341   -9357.4626   -9761.5341            0    7179.9763    24.747194    24.853694    22.708061    13966.802    7310.5579     6376.677     7852.694   -190.47899   -369.41196    92.461472   -7894.9626 
 5178000    107.83608     -9773.69   -9362.5696     -9773.69            0    7727.8363    24.729723    24.729646    22.799284    13943.068    7671.6162    7511.0379    8000.8548    177.49298   -645.62176   -25.454338   -7791.1501 
 5179000    106.65687    -9766.798   -9360.1733    -9766.798            0    8163.5891    24.735367    24.724378    22.741506    13907.945    8259.1631    8472.5057    7759.0987   -387.47814    267.24667    646.45258   -7704.3272 
 5180000    102.25222   -9765.0669   -9375.2348   -9765.0669            0    7264.9898    24.707847     24.77267    22.808549    13960.642    7826.2463    6948.7403    7019.9827   -381.29044   -874.14812    418.33763    -7896.071 
 5181000    105.92739   -9763.6186    -9359.775   -9763.6186            0    8116.1331    24.716166    24.768691     22.73912    13920.596    7434.8108    8226.4048    8687.1836   -43.072826    188.14979   -196.32459   -7712.0571 
 5182000    105.29609   -9743.9133   -9342.4766   -9743.9133            0    7851.5154    24.724154     24.75114    22.791728     13947.42    7594.3641    8331.7357    7628.4464   -611.15292    385.20078    85.570083   -7745.4091 
 5183000    106.67044   -9771.4619   -9364.7855   -9771.4619            0    7449.5567    24.722219    24.716971    22.815116    13941.368    7350.1483    7518.9429    7479.5789    119.93528    164.18234    46.109437   -7850.1375 
 5184000    104.53164   -9748.7421   -9350.2198   -9748.7421            0    8495.5193    24.835812     24.67841    22.687558    13905.393    7051.0182    9728.9899    8706.5498   -222.41149   -272.99813     513.9769   -7627.3633 
 5185000    107.92381   -9748.8022   -9337.3474   -9748.8022            0    7391.8748     24.75204     24.74562    22.791301    13959.776    6797.5343    7704.1471     7673.943   -86.727781   -402.42034   -258.62357   -7832.4429 
 5186000    108.58833   -9757.0079   -9343.0197   -9757.0079            0    7177.6042    24.628043    24.813311    22.842582    13959.177    8369.3488    6495.1176    6668.3463    -55.93837   -255.24743   -350.32158   -7881.8011 
 5187000    103.19598   -9777.5576   -9384.1275   -9777.5576            0    7080.4563    24.735102    24.728216    22.822215    13959.321    7275.9529    7260.3061      6705.11   -123.14529    -71.61714   -47.101097   -7942.6714 
 5188000     109.8667   -9766.3602   -9347.4982   -9766.3602            0    7301.9039    24.640992    24.793905     22.85403    13962.588    8523.9469    6497.2316    6884.5332   -1115.8637   -674.96512    712.38145   -7860.6113 
 5189000    103.10589    -9766.333   -9373.2463    -9766.333            0    8876.7203     24.63412     24.74055    22.774363    13880.102    9902.9086    8074.0264    8653.2259    309.13873     -119.859   -109.66171    -7576.358 
 5190000    106.71053   -9749.0071   -9342.1779   -9749.0071            0     7185.079    24.730487    24.775793    22.797848    13968.639    7450.3157     7074.174    7030.7475    155.15942    53.993158    589.93914    -7878.446 
 5191000    105.15356   -9759.0275   -9358.1341   -9759.0275            0    7377.4432    24.801719    24.741562     22.74884    13959.445     6750.241    7107.8089    8274.2797   -445.77812     212.1116    844.68123   -7856.2034 
 5192000    106.85702   -9753.6898   -9346.3021   -9753.6898            0    7924.9016    24.738459    24.735799    22.766224    13931.234    7538.4255     7615.811    8620.4683    55.686262    195.82734   -100.96594    -7736.178 
 5193000    105.38197   -9761.1589   -9359.3948   -9761.1589            0    7681.6322    24.657522    24.765942    22.825846    13938.986    8547.3978    7484.6225    7012.8765   -1.2099235   -95.048814    159.36533   -7797.8279 
 5194000    104.64419   -9757.7965   -9358.8451   -9757.7965            0    8535.3365    24.625153    24.741539    22.833971    13911.921    9713.3017    8152.3435    7740.3641    49.691557   -733.44479    144.29306   -7627.1014 
 5195000    103.15589   -9751.8799   -9358.6027   -9751.8799            0    7273.3816    24.724986    24.751274    22.834071    13973.878     7439.244    7131.3308    7249.5701   -189.87156     -153.704   -699.51117   -7876.3262 
 5196000    108.40061   -9760.8543   -9347.5817   -9760.8543            0    7785.5819    24.790139    24.707597    22.751194    13935.215    7449.6988    7531.4339    8375.6131    100.71988   -168.36682    136.56736   -7765.3115 
 5197000    104.04495   -9754.5712   -9357.9044   -9754.5712            0    7166.8083    24.739499    24.804532    22.745527    13957.831    7269.0862    7487.2408    6744.0979     128.6442   -151.66003    372.89928   -7899.0242 
 5198000    107.52097   -9763.6456   -9353.7266   -9763.6456            0    7381.0799    24.707818    24.834411    22.747094     13957.71    7404.9462     7411.361    7326.9326     142.8389    124.16988   -773.50008   -7851.2422 
 5199000    103.86404   -9742.8886   -9346.9115   -9742.8886            0    8183.0561    24.710404    24.744658    22.791103    13935.631    7736.9199    8763.8547    8048.3938   0.34887524   -365.11333    591.69787   -7683.8126 
 5200000    107.27618   -9767.2048    -9358.219   -9767.2048            0     7902.171    24.713267    24.699712    22.816942    13927.703    8042.7758    8253.1308    7410.6064   -968.38471   -1193.1163    385.34509   -7753.1201 
 5201000    108.52288   -9750.5066   -9336.7679   -9750.5066            0    7886.9574    24.661595    24.701279    22.878862    13937.184    8363.4718    8104.8873     7192.513   -99.077476   -804.78468    -207.9289   -7733.6687 
 5202000    106.14885   -9771.4238    -9366.736   -9771.4238            0    7488.0868    24.752715    24.739536    22.780813    13950.302    7903.5415    7418.8702    7141.8486    236.14775    -572.4131    394.39432   -7843.2784 
 5203000    101.02159   -9760.6045   -9375.4641   -9760.6045            0    8282.0062    24.711692    24.758721    22.737879    13911.714     8643.805    7815.3037    8386.9098    424.58919   -937.85974    892.45647   -7695.1438 
 5204000    103.64502   -9742.2641    -9347.122   -9742.2641            0    8218.1939    24.676716    24.808621    22.751077    13928.103    7954.9809    8384.4418    8315.1591    415.76675   -462.39082    83.366107   -7677.7842 
 5205000    103.59926   -9763.9965   -9369.0289   -9763.9965            0     8174.033    24.672661    24.832177    22.712198    13915.216    8443.0227    6728.2367    9350.8398   -81.925777   -312.19281   -422.58039   -7710.1976 
 5206000    100.99392   -9777.7384   -9392.7036   -9777.7384            0    7653.6268    24.722754    24.756295    22.751561    13924.951    8059.9579    7353.9737    7546.9488   -148.30119   -158.65491    -112.5272   -7838.3964 
 5207000    105.32602   -9757.1033   -9355.5525   -9757.1033            0    8276.9806    24.652901    24.710017    22.839139        13913    9222.7323    7927.5625    7680.6469    265.40975     71.74582    106.36846   -7676.0966 
 5208000    105.61648   -9761.7303   -9359.0721   -9761.7303            0    7843.2491    24.659831    24.693386    22.893651    13940.739    8024.1862    7582.4654    7923.0957    73.037468    107.75388    -234.5537   -7764.4503 
 5209000    104.71104   -9744.0233    -9344.817   -9744.0233            0    7736.4006    24.683397    24.735369    22.843277     13947.03    8329.0113    7880.7641    6999.4265   -139.05966   -988.61645   -219.61519    -7771.209 
 5210000    107.50765   -9751.3177   -9341.4495   -9751.3177            0    9489.6453     24.63674    24.745113    22.735485    13860.436    9659.7012    9117.1995    9692.0352   -421.68154      7.38911    946.79893   -7423.2102 
 5211000    109.78472   -9768.8018   -9350.2524   -9768.8018            0    7127.0005     24.71123    24.816261    22.771246    13964.247     7345.582    6906.4923    7128.9272    67.055503    137.56724   -13.792367   -7898.8087 
 5212000    106.36985   -9766.7514    -9361.221   -9766.7514            0    8239.0272    24.775315    24.726756    22.712765    13914.139    7798.7716    7985.2027    8933.1072   -265.33496    139.19683   -177.77456   -7689.3293 
 5213000     104.6187   -9764.9359   -9366.0817   -9764.9359            0    8136.2415    24.683052    24.695562    22.845572    13925.789     8083.249    9057.2609    7268.2147    -566.2207    -52.65712    32.881382   -7713.6651 
 5214000    106.19846   -9757.7384   -9352.8614   -9757.7384            0     7499.393    24.705323    24.710698    22.855635     13953.04    7525.6321    7503.8579    7468.6888   -412.86167   -495.44942     105.5552   -7826.8041 
 5215000    104.05308   -9764.1044   -9367.4066   -9764.1044            0    7351.4956    24.635019    24.809306    22.842086    13960.574     7936.078      7026.12    7092.2889   -110.35527   -323.32132   -422.21741   -7870.6373 
 5216000    104.45256   -9773.8217   -9375.6009   -9773.8217            0    7162.7269    24.745924    24.747092    22.800501    13962.791    6959.6284    7420.5402    7108.0122   -209.29182    233.96174    339.57421   -7917.0335 
 5217000     104.8489   -9751.6868    -9351.955   -9751.6868            0    7076.8577    24.792138    24.819111    22.694749    13964.507     6511.505    6992.7674    7726.3006    143.24253   -135.11135     -234.914   -7910.6963 
 5218000    104.92699   -9754.5227   -9354.4932   -9754.5227            0     8493.578    24.764718    24.765152    22.680794    13910.176    8459.0383    7972.9023    9048.7933    272.09744   -58.525265    558.63432   -7631.4379 
 5219000    103.12099    -9767.681   -9374.5367    -9767.681            0     7470.864    24.756963    24.754451     22.75297    13944.045    7766.9508    7490.1588    7155.4825     377.4828   -1056.0919    295.38135   -7855.2648 
 5220000    106.16164   -9762.9354   -9358.1989   -9762.9354            0    7182.5636    24.705372    24.702756    22.893018    13971.398    7926.6697    6504.7092    7116.3118   -497.18326    839.29798    496.07015   -7894.6904 
 5221000    102.24545   -9751.3201   -9361.5138   -9751.3201            0    7812.9573    24.704232    24.701961    22.856401    13947.958    8191.3593     7943.877    7303.6356    101.06847   -229.49508   -852.39214   -7772.2281 
 5222000    104.65187   -9769.0461   -9370.0655   -9769.0461            0    7632.8995     24.66869    24.761024    22.820244    13939.108    7566.9444    7987.0916    7344.6627   -530.34284    69.873996    572.71498   -7818.3917 
 5223000    107.40917   -9774.6076   -9365.1149   -9774.6076            0    7541.3687    24.717725    24.787362     22.78125     13957.78    7640.9883    7206.9745    7776.1432   -315.13129   -260.57675    535.46549   -7829.9946 
 5224000    109.11876   -9746.3053   -9330.2949   -9746.3053            0    7736.9881    24.833781    24.732221    22.694954    13939.117    6920.7808    8165.7858    8124.3976   -32.008555   -465.16064   -173.77441   -7757.4602 
 5225000    102.80784   -9759.7064    -9367.756   -9759.7064            0    7472.5678    24.742565    24.788225    22.747772    13951.761    8221.4423    6025.0637    8171.1974   -171.26855    274.65347    52.147887   -7847.2968 
 5226000    105.95868   -9770.1658    -9366.203   -9770.1658            0    6357.6532    24.700858    24.865999    22.786056    13995.458    7217.2434    5235.5504    6620.1657   -323.25495    179.29655    220.24006   -8068.5463 
 5227000    105.22529   -9752.1959   -9351.0291   -9752.1959            0    7897.4653    24.778557    24.736015    22.751704    13945.037    7424.0434    7574.2977    8694.0548   -370.40565   -201.89468    58.935376   -7744.8895 
 5228000    107.26847   -9757.0879   -9348.1315   -9757.0879            0    7345.7006    24.650614    24.792765    22.821528    13947.533    8127.8684    6712.7812    7196.4522    -173.5041   -448.83864   -106.90074   -7853.9391 
 5229000    103.69475   -9766.2982   -9370.9666   -9766.2982            0    7463.3156    24.690921    24.768647    22.830548    13962.266    8009.1762    6880.1415    7500.6289   -449.74762    41.118859    688.62008   -7851.2465 
 5230000    104.07677   -9752.3897   -9355.6016   -9752.3897            0    7287.0989    24.739603    24.720302    22.824153    13958.578    7402.2773    7643.9389    6815.0804   -382.64398   -44.915793    192.75373   -7872.1557 
 5231000    107.99569    -9754.071   -9342.3421    -9754.071            0    7896.7176    24.806002    24.709413    22.730902    13932.719    7209.2905    8194.2067    8286.6556   -514.00886    24.891319    62.495972   -7737.7732 
 5232000    107.62197    -9757.402    -9347.098    -9757.402            0    8113.3764    24.727998    24.834395    22.669788    13921.628    8095.3507    7016.9515    9227.8271   -244.11571    465.20491    751.69041   -7699.8176 
 5233000    104.66418   -9738.4879   -9339.4603   -9738.4879            0     8173.673    24.706876    24.758189    22.773102     13930.25    7869.5807    8485.5139    8165.9245   -8.5169006    26.501904    479.29774   -7678.9099 
 5234000    106.72388   -9763.8824   -9357.0023   -9763.8824            0    6807.2754    24.726857    24.812694    22.822765    14002.677    7887.3206    5997.7903    6536.7152    3.3644775    171.04757     215.4489   -7966.8567 
 5235000    103.89291   -9768.9428   -9372.8556   -9768.9428            0    7513.3602    24.701939    24.747568    22.815232    13947.246    8750.9221    6673.8005    7115.3581   -449.86447    -598.3215    588.91394    -7844.591 
 5236000    106.93709   -9751.8403   -9344.1473   -9751.8403            0    9116.5194    24.660435    24.674675     22.82159    13886.669    9349.8666    9412.8327    8586.8588     507.4104    83.506119    91.612937   -7497.8441 
 5237000    104.05552   -9762.7841    -9366.077   -9762.7841            0    7502.1343    24.700015    24.805059     22.77621     13954.65    7605.9846    6869.0464     8031.372    49.459257   -1113.9051    273.25338   -7839.2857 
 5238000    111.02797   -9758.6372   -9335.3479   -9758.6372            0     7342.272     24.83961    24.743045    22.714799    13960.687    7083.7544    7660.6047    7282.4569   -458.76685    274.57565   -33.743079   -7840.4444 
 5239000     109.5017   -9767.2992   -9349.8288   -9767.2992            0    8194.9028    24.734482     24.73866    22.735948     13912.08    8012.2755    8376.6929      8195.74     269.2893    296.79019   -287.43419    -7687.137 
 5240000    106.81867   -9744.7006   -9337.4591   -9744.7006            0     8079.149    24.679556    24.854829    22.710232    13930.596    8312.4965    7219.5267    8705.4238    43.371496    164.36526    575.89429   -7696.0713 
 5241000    107.07198    -9761.225   -9353.0178    -9761.225            0    7291.5275    24.698209     24.74441    22.846055    13962.198    7734.6627     7197.328    6942.5918   -472.07885    511.68797   -157.31693   -7868.2854 
 5242000    109.34365   -9766.5767   -9349.7088   -9766.5767            0    7457.1106    24.742755    24.715329    22.834634    13963.957    6719.0707    8075.9549    7576.3062    159.04495    -693.3028   -501.11431   -7831.0683 
 5243000    103.56973   -9749.5718   -9354.7168   -9749.5718            0    8685.0898    24.657005    24.734787    22.783103    13895.091    9177.4145    9204.8034    7673.0514    105.51494   -518.19024     33.15129   -7594.7212 
 5244000    104.31565   -9761.9959   -9364.2971   -9761.9959            0    8231.6023    24.662667    24.794076    22.750069    13911.395    9410.9155    6938.0866    8345.8047   -722.37165    632.78465   -400.94427   -7694.2414 
 5245000    104.54062   -9753.5792   -9355.0227   -9753.5792            0    7504.8563    24.762122    24.736615    22.799688    13965.518    6761.4646    7592.2752    8160.8291   -105.77471    433.36527    109.55353    -7826.488 
 5246000    103.24219   -9762.5507   -9368.9443   -9762.5507            0     7972.716    24.731682    24.675778    22.820982     13927.04    7698.7746    8480.3669    7739.0063   -320.90187   -364.15722   -223.12285   -7749.5932 
 5247000    108.91516   -9748.1073    -9332.873   -9748.1073            0    8306.3446    24.702487    24.755745    22.767847    13923.186    8093.6807    8341.5165    8483.8367      443.829     351.7817    413.08069    -7646.225 
 5248000    105.89988   -9777.5012   -9373.7626   -9777.5012            0    7769.0315    24.666101    24.872554    22.729975    13945.043    8426.3823    5836.4114    9044.3007    308.67936   -303.14546   -25.520734   -7793.7425 
 5249000    100.03648   -9767.8529   -9386.4682   -9767.8529            0    6957.2274    24.811251    24.749259    22.769192    13981.651    6239.4903    6989.8851    7642.3067   -238.72089   -349.56349   -184.78499   -7967.8336 
 5250000    106.53418   -9756.5445   -9350.3877   -9756.5445            0    7274.5378    24.760693    24.749387    22.789969    13965.966    6859.0913    7325.9669    7638.5553    15.071559    -237.5751    511.93276   -7868.7149 
Loop time of 497.844 on 64 procs for 250000 steps with 1920 atoms

Performance: 86.774 ns/day, 0.277 hours/ns, 502.165 timesteps/s
195.7% CPU use with 32 MPI tasks x 2 OpenMP threads

MPI task timing breakdown:
Section |  min time  |  avg time  |  max time  |%varavg| %total
---------------------------------------------------------------
Pair    | 72.208     | 73.729     | 77.017     |  11.4 | 14.81
Bond    | 0.85824    | 1.0225     | 1.1935     |   8.3 |  0.21
Kspace  | 229.76     | 234.37     | 240.71     |  18.9 | 47.08
Neigh   | 0.17544    | 0.18977    | 0.21028    |   2.2 |  0.04
Comm    | 71.463     | 78.773     | 83.005     |  37.3 | 15.82
Output  | 0.53693    | 0.5372     | 0.53865    |   0.0 |  0.11
Modify  | 86.246     | 91.127     | 95.521     |  25.4 | 18.30
Other   |            | 18.1       |            |       |  3.64

Nlocal:        60.0000 ave          62 max          57 min
Histogram: 1 0 4 0 8 0 4 0 11 4
Nghost:        3511.09 ave        3532 max        3485 min
Histogram: 1 1 5 1 6 2 5 6 2 3
Neighs:        21770.9 ave       22703 max       20768 min
Histogram: 1 3 5 2 6 1 4 6 3 1

Total # of neighbors = 696670
Ave neighs/atom = 362.84896
Ave special neighs/atom = 2.0000000
Neighbor list builds = 325
Dangerous builds = 0

unfix		3
unfix		2
unfix		1

write_data	data.final.${pid}
write_data	data.final.1
System init for write_data ...
PPPM initialization ...
  extracting TIP4P info from pair style
  using 12-bit tables for long-range coulomb (../kspace.cpp:340)
  G vector (1/distance) = 0.37506881
  grid = 30 30 30
  stencil order = 5
  estimated absolute RMS force accuracy = 0.0032002072
  estimated relative force accuracy = 9.637329e-06
  using double precision FFTW3
  3d grid and FFT values/proc = 5400 960
Last active /omp style is kspace_style pppm/tip4p/omp
WARNING: Not all mixed pair coeffs generated from mixing. Use write_data with 'pair ij' option to store all pair coeffs. (../write_data.cpp:312)

write_restart   restart.lmp.${pid}
write_restart   restart.lmp.1
System init for write_restart ...
PPPM initialization ...
  extracting TIP4P info from pair style
  using 12-bit tables for long-range coulomb (../kspace.cpp:340)
  G vector (1/distance) = 0.37506881
  grid = 30 30 30
  stencil order = 5
  estimated absolute RMS force accuracy = 0.0032002072
  estimated relative force accuracy = 9.637329e-06
  using double precision FFTW3
  3d grid and FFT values/proc = 5400 960
Last active /omp style is kspace_style pppm/tip4p/omp
Total wall time: 0:08:17
