LAMMPS (30 Jul 2021)
Processor partition = 1
  using 2 OpenMP thread(s) per MPI task
using multi-threaded neighbor list subroutines
variable        pid world 0 1
variable        phase world IceIh IceIII

shell cd ${phase}
shell cd IceIII
include Restart.lmp
echo both
log log.lammps
#include		in.partitions
include		in.temp
variable        temperature equal 27.72
variable	tempDamp equal 100.0
include		in.pressure
variable        pressure equal 2179.6
variable        pressureDamp equal 1000.0 # This is 1 ps
include		in.seed
variable        seed equal 745823

units		real
atom_style	full

read_restart	restart.lmp.${pid}
read_restart	restart.lmp.1
Reading restart file ...
  restart file = 30 Jul 2021, LAMMPS = 30 Jul 2021
  restoring atom style full from restart
  orthogonal box = (0.064793026 0.081697887 0.022732343) to (19.935208 19.918303 20.677266)
  4 by 2 by 4 MPI processor grid
  restoring pair style lj/cut/tip4p/long/omp from restart
  restoring bond style harmonic/omp from restart
  restoring angle style harmonic/omp from restart
  972 atoms
  648 bonds
  324 angles
Finding 1-2 1-3 1-4 neighbors ...
  special bond factors lj:    0        0        0       
  special bond factors coul:  0        0        0       
     2 = max # of 1-2 neighbors
     1 = max # of 1-3 neighbors
     1 = max # of 1-4 neighbors
     2 = max # of special neighbors
  special bonds CPU = 0.002 seconds
  read_restart CPU = 0.008 seconds
include 	in.setup
variable	out_freq equal 1000
variable	out_freq2 equal 10000
variable	out_freq3 equal 1000

timestep	2.0

neigh_modify    delay 7 every 1

include		in.tip4p
# This is TIP4P/Ice

# create groups ###
group ox type 2
324 atoms in group ox
group hy type 1
648 atoms in group hy

# set charges - beside manually ###
set group ox charge -1.1794
Setting atom values ...
  324 settings made for charge
set group hy charge 0.5897
Setting atom values ...
  648 settings made for charge

# ### TIP3P Potential Parameters ###
pair_style lj/cut/tip4p/long/omp 2 1 1 1 0.1577 8.5
pair_coeff 1 1*2 0.000 0.000
pair_coeff 2 2 0.21084 3.1668
bond_style  harmonic
bond_coeff  1 450 0.9572
angle_style harmonic
angle_coeff 1 55 104.52
kspace_style pppm/tip4p/omp 1.0e-5
pair_modify tail yes

thermo          ${out_freq}
thermo          1000
thermo_style    custom step temp pe etotal epair emol press lx ly lz vol pxx pyy pzz pxy pxz pyz enthalpy

restart 	${out_freq3} restart.lmp.${pid} restart2.lmp.${pid}
restart 	1000 restart.lmp.${pid} restart2.lmp.${pid}
restart 	1000 restart.lmp.1 restart2.lmp.${pid}
restart 	1000 restart.lmp.1 restart2.lmp.1


include         in.dump
dump            myDump all atom ${out_freq2} dump.water.${pid}
dump            myDump all atom 10000 dump.water.${pid}
dump            myDump all atom 10000 dump.water.1
dump            myDump2 all dcd ${out_freq2} dump.dcd
dump            myDump2 all dcd 10000 dump.dcd
dump_modify     myDump append yes
dump_modify     myDump2 append yes


variable natoms 	equal  "count(all)"                        # NUMBER ATOMS
variable H      	equal  "enthalpy/v_natoms"                 # ENTHALPY-per-atom
variable Vol      	equal  "vol/v_natoms"                 # volume-per-atom
fix AVG all 		ave/time ${out_freq} 1 ${out_freq} v_Vol v_H file vol_enthalpy.dat
fix AVG all 		ave/time 1000 1 ${out_freq} v_Vol v_H file vol_enthalpy.dat
fix AVG all 		ave/time 1000 1 1000 v_Vol v_H file vol_enthalpy.dat


timer           timeout 02:55:00 every 1000
New timer settings: style=normal  mode=nosync  timeout=02:55:00

fix 		1 all shake 1e-6 200 0 b 1 a 1
Finding SHAKE clusters ...
       0 = # of size 2 clusters
       0 = # of size 3 clusters
       0 = # of size 4 clusters
     324 = # of frozen angles
  find clusters CPU = 0.000 seconds
fix             2 all nph aniso ${pressure} ${pressure} ${pressureDamp}
fix             2 all nph aniso 2179.6 ${pressure} ${pressureDamp}
fix             2 all nph aniso 2179.6 2179.6 ${pressureDamp}
fix             2 all nph aniso 2179.6 2179.6 1000
fix             3 all temp/csvr ${temperature} ${temperature} ${tempDamp} ${seed}
fix             3 all temp/csvr 27.72 ${temperature} ${tempDamp} ${seed}
fix             3 all temp/csvr 27.72 27.72 ${tempDamp} ${seed}
fix             3 all temp/csvr 27.72 27.72 100 ${seed}
fix             3 all temp/csvr 27.72 27.72 100 745823


run             250000
PPPM initialization ...
  extracting TIP4P info from pair style
  using 12-bit tables for long-range coulomb (../kspace.cpp:340)
  G vector (1/distance) = 0.37177982
  grid = 24 24 24
  stencil order = 5
  estimated absolute RMS force accuracy = 0.003562664
  estimated relative force accuracy = 1.0728857e-05
  using double precision FFTW3
  3d grid and FFT values/proc = 3211 432
Last active /omp style is kspace_style pppm/tip4p/omp
Neighbor list info ...
  update every 1 steps, delay 7 steps, check yes
  max neighbors/atom: 2000, page size: 100000
  master list distance cutoff = 10.8154
  ghost atom cutoff = 10.8154
  binsize = 5.4077, bins = 4 4 4
  1 neighbor lists, perpetual/occasional/extra = 1 0 0
  (1) pair lj/cut/tip4p/long/omp, perpetual
      attributes: half, newton on, omp
      pair build: half/bin/newton/omp
      stencil: half/bin/3d
      bin: standard
Setting up Verlet run ...
  Unit style    : real
  Current step  : 45000000
  Time step     : 2
  Walltime left : 2:54:59.93
Per MPI rank memory allocation (min/avg/max) = 10.19 | 10.19 | 10.19 Mbytes
Step Temp PotEng TotEng E_pair E_mol Press Lx Ly Lz Volume Pxx Pyy Pzz Pxy Pxz Pyz Enthalpy 
45000000    30.897038   -5189.5021   -5129.9146   -5189.5021            0    2506.2646    19.870415    19.836605    20.654533    8141.2234    2111.2989    3029.2904    2378.2044    -50.00294     114.3034    217.22089   -4832.3423 
45001000    27.581837   -5197.9239     -5144.73   -5197.9239            0    2317.8822    19.926272    19.906661    20.554167      8153.13    2248.0671     2141.311    2564.2686   -238.61362   -155.39511   -116.40088   -4869.1221 
45002000     27.56635   -5198.2145   -5145.0505   -5198.2145            0    2288.4342    19.825478    19.922894    20.695632    8174.3793    2605.8681    1925.9272    2333.5072    10.435171    272.45375    469.55957   -4872.2349 
45003000    27.667062   -5199.1126   -5145.7543   -5199.1126            0    2706.4956    19.847578    19.883685    20.629063     8141.115    2682.4109    2624.0944    2812.9815   -153.32701   -154.14232    406.35876   -4824.4126 
45004000    27.239321   -5201.7213    -5149.188   -5201.7213            0    2260.0822    19.898168    19.901049    20.668158     8184.475    1831.8258    2636.0657    2312.3552    11.331019    281.87781    11.688549   -4879.4197 
45005000    27.951433   -5197.6327   -5143.7261   -5197.6327            0    2305.7851    19.876113    19.820164    20.684899    8148.7709    1368.5425     3431.301    2117.5118    80.354562     479.5321    26.454247   -4869.7032 
45006000    28.687859     -5196.21    -5140.883     -5196.21            0     2210.436    19.870267    19.845444    20.614328     8128.936    2141.5898    2110.4332    2379.2849   -65.492088    62.098599    82.211025    -4878.831 
45007000    27.175019   -5196.2032   -5143.7939   -5196.2032            0      2434.36    19.917769     19.86608    20.602004    8151.9658    2084.6817    2598.7756    2619.6228   -113.66075    147.58158   -273.81163   -4854.3776 
45008000    28.094821   -5197.5966   -5143.4134   -5197.5966            0    2106.6583    19.915782    19.805181     20.67787    8156.0893    2362.6677    2424.2388    1533.0683    -42.31022    376.53357   -89.331012   -4892.8302 
45009000    28.393544   -5194.9078   -5140.1484   -5194.9078            0    2438.2678    19.929387    19.826072    20.591248    8136.0438    2462.6721    2663.8185    2188.3128   -251.23683    271.61024   -298.84121   -4850.8337 
45010000    29.327097   -5199.8012   -5143.2414   -5199.8012            0    1903.3643    19.877263    19.953306    20.590356    8166.4876    2402.9603    876.55208    2430.5806   -200.52434   -69.382906   -306.71191    -4916.551 
45011000    26.530612   -5194.8454   -5143.6789   -5194.8454            0    1979.1037    19.888984    19.876864    20.645376    8161.7494    1998.2207    2187.8117    1751.2788    41.191196    158.46239   -51.090023   -4908.1047 
45012000    29.347042   -5195.6307   -5139.0325   -5195.6307            0    2447.7739    19.893506    19.843616    20.648878    8151.3325    2382.6977    2669.0814    2291.5427    61.337552    379.95574    127.74395    -4848.044 
45013000    28.975282   -5196.8547   -5140.9734   -5196.8547            0    1708.1521    19.940283    19.837775    20.651753    8169.2314    1280.2127    1923.8573    1920.3864   -88.340938   -567.16716     -165.733   -4937.4644 
45014000    28.275997   -5199.8185   -5145.2859   -5199.8185            0    2235.9644    19.844792    19.889131    20.658141    8153.6783     2747.613    2121.9633    1838.3168   -82.376889    336.87818    105.18519   -4879.4006 
45015000    27.789919   -5198.7757   -5145.1805   -5198.7757            0    2189.1267    19.922346    19.824046    20.662726     8160.568    1862.8423     2572.574    2131.9638    -148.6101    51.413604   -27.103569   -4884.6449 
45016000    26.453441   -5195.0848   -5144.0672   -5195.0848            0    2059.4646    19.920096    19.915898     20.58271    8165.7088    2354.6518    1389.2964    2434.4458   -3.0278285   -48.347407   -89.753241   -4898.8086 
45017000    27.287769   -5197.6016   -5144.9748   -5197.6016            0    2556.7569    19.939702    19.797094    20.675487    8161.6105    1615.8508    3295.1365    2759.2834   -48.346617       269.37    281.74244   -4840.6473 
45018000    25.918272   -5196.5322   -5146.5466   -5196.5322            0    2214.7015    19.901808    19.826251    20.681611    8160.5137    2291.7648    2246.5473    2105.7925    57.396865    104.39708   -89.262182    -4882.969 
45019000    28.430201   -5199.4819   -5144.6519   -5199.4819            0    2453.6551    19.936592    19.810363     20.65728    8158.6158    1771.9814    3092.6232    2496.3605    31.742775    360.22564   -171.78139   -4852.7037 
45020000    27.732732   -5197.7751   -5144.2902   -5197.7751            0    2515.4496    19.882304    19.835906    20.684915    8157.7893    2983.4128    2514.6281    2048.3077   -8.6840987    281.69952    86.408789   -4845.0196 
45021000    27.892094   -5200.6862    -5146.894   -5200.6862            0    2049.6665    19.896674    19.880518    20.665543    8174.3835    1752.2854     2432.402    1964.3122   -187.25393    308.03233    264.54763    -4902.543 
45022000    28.725583   -5199.1707    -5143.771   -5199.1707            0    2186.2737    19.857553    19.965205    20.581411    8159.7087    2200.1558    2249.0599    2109.6054   -188.69464    440.18992    91.434774   -4883.6023 
45023000    26.360929   -5198.1185   -5147.2793   -5198.1185            0    2478.7791    19.922243    19.872476    20.584219    8149.3807    2328.1142    2759.4777    2348.7454   -170.87216    732.92812    10.619787   -4852.6755 
45024000    28.427172    -5194.018   -5139.1939    -5194.018            0    2559.9576    19.938497    19.824985    20.593289    8140.1239    2531.2731    2562.6816    2585.9183   -113.15568    134.06873   -86.069989   -4835.2876 
45025000    29.239504   -5199.1766   -5142.7858   -5199.1766            0    2368.6197    19.919713    19.866825    20.632356    8165.0789     2742.637    1759.0341    2604.1882    -122.3613    140.53609    -369.1992   -4860.7322 
45026000    27.987059    -5194.305   -5140.3296    -5194.305            0    2382.3646     19.93235     19.86163     20.60128    8155.8191    2514.8547    2147.8174    2484.4218    235.02822   -489.98045   -470.47465    -4856.961 
45027000    28.853937   -5196.4714   -5140.8242   -5196.4714            0    2518.0599    19.922791    19.851466    20.584571    8141.1279    2413.3147    2733.1995    2407.6655   -174.83553     427.9881    113.81481   -4841.8549 
45028000    27.515252   -5200.1643   -5147.0989   -5200.1643            0    1957.1083    19.995994    19.849182    20.621766    8184.8642    884.45267    2695.0134    2291.8588   -35.773213    87.514487    -303.1175   -4913.4831 
45029000    28.868173   -5199.6283   -5143.9536   -5199.6283            0    2012.0508    19.919698    19.867927    20.645977    8170.9162    2251.2102     1737.033    2047.9092   -316.19805    476.39871    336.84283   -4904.1887 
45030000    29.444527   -5198.0803   -5141.2941   -5198.0803            0    2581.9277     19.89827    19.868343     20.58695    8138.9613    2758.5262    2616.9845    2370.2725    22.950657    -169.7785    439.12194   -4834.8234 
45031000    28.596908     -5196.95   -5141.7984     -5196.95            0    2107.1782    19.900415    19.918871    20.602614    8166.7489    2014.1149    2257.8639    2049.5558   -133.84447    162.54691  -0.35720112   -4890.8258 
45032000    27.723113   -5196.2957   -5142.8293   -5196.2957            0    1911.4703    19.917923    19.877679    20.618673     8163.388    1543.9326    2081.6766    2108.8017   -78.192619    139.27697    232.55398   -4915.2599 
45033000    28.312062     -5197.63   -5143.0278     -5197.63            0    2311.4336    19.886934    19.896049     20.62645    8161.2966     1989.182     2743.233    2201.8858   -91.710059   -145.86878     -75.0364   -4867.9114 
45034000    27.263548   -5199.6237   -5147.0437   -5199.6237            0    1527.5853    19.886951    19.914099    20.684556    8191.7191    2371.3637     567.5381    1643.8542   -116.08466    332.25147    30.255222   -4964.5464 
45035000    25.852056   -5198.9466   -5149.0887   -5198.9466            0    2100.7204    19.836022     19.86016    20.680073    8146.8439     1974.853    2519.4071     1807.901   -12.613062    814.96194   -308.15485    -4899.495 
45036000    27.596402   -5201.1804   -5147.9584   -5201.1804            0    1977.2715     19.86157    19.865982    20.717356    8174.4385    1769.7106    2449.3403    1712.7637   -223.37681    835.24484    377.93798   -4912.2364 
45037000    27.773519   -5199.3174   -5145.7539   -5199.3174            0    1778.2442    19.951064    19.868965    20.620653    8174.1709     1353.159    1793.4605     2188.113   -227.09698    468.53768   -384.35712    -4933.766 
45038000    27.730706   -5195.1748   -5141.6938   -5195.1748            0    2216.6096    19.924001    19.848132     20.63261    8159.2525    1854.3269    2368.8865    2426.6153    -269.4529    827.04819   -143.29338   -4877.9299 
45039000    27.798428   -5200.4889   -5146.8773   -5200.4889            0    2113.3869    19.898068    19.879738    20.633695    8162.0374    2365.8058    1864.4738    2109.8813    -447.2402    411.99371    87.946874   -4895.3104 
45040000    27.661231   -5198.9737   -5145.6267   -5198.9737            0    2209.2224    19.832567    19.880853    20.683543    8155.2799    2477.0419    2283.4297    1867.1956      -67.468    480.79883   -476.99947   -4882.8698 
45041000    27.075099   -5196.3984   -5144.1818   -5196.3984            0    1977.0034    20.004304    19.841199    20.592475    8173.3461    1631.9645    1813.4219    2485.6237   -191.46419   -13.849146   -37.536376   -4908.5233 
45042000    27.304552   -5198.3548   -5145.6957   -5198.3548            0    1978.9303    19.889632    19.894131    20.621513    8159.6635    2184.6413    1750.3657    2001.7839   -56.739315    213.95659   -15.509367   -4910.2024 
45043000    28.368151   -5197.5257   -5142.8154   -5197.5257            0     2025.675    19.889129    19.891254    20.626102    8160.0927    1824.9947    2168.7803    2083.2501   -18.219229    426.48905    460.50962   -4901.7467 
45044000    27.050215   -5200.3468   -5148.1782   -5200.3468            0    2193.8537    19.964195    19.875757    20.535257    8148.4618    2376.4996    1561.1525    2643.9091   -206.94528    353.78649   -274.06325   -4887.4673 
45045000    26.708954   -5199.9478   -5148.4373   -5199.9478            0    2198.9466    19.911724      19.8214    20.679876    8161.8974    2494.9511    2075.5975    2026.2911   -38.633746      47.0501   -219.49028   -4886.6903 
45046000    26.998064   -5198.7139   -5146.6459   -5198.7139            0    2204.9816    19.877044    19.829426    20.701126    8159.3568    1758.9429    3112.2298    1743.7722    12.011328   -130.17313   -147.61114   -4884.2622 
45047000    27.547896   -5198.9268   -5145.7984   -5198.9268            0    2033.1461    19.934911    19.860679    20.629139    8167.5066    1599.3519    2611.9921    1888.0941    86.530008     58.00947    214.92111   -4903.6208 
45048000     27.86545   -5200.0962   -5146.3554   -5200.0962            0    2472.5633     19.90323    19.828056    20.615182     8135.624    2913.7327    2175.0613    2328.8958   -103.17162   -5.6205134   -634.56814   -4852.9864 
45049000    28.168496   -5197.2153     -5142.89   -5197.2153            0    2410.3947    19.904334    19.890256     20.56073    8140.0405    2080.7149    2542.1879    2608.2812   -172.44263    638.62934   -104.02172    -4856.742 
45050000    26.233562   -5198.8358   -5148.2422   -5198.8358            0    2186.1312    19.846385    19.898803    20.663526    8160.4254    2464.7154    1779.6228    2314.0552   -301.22175    148.54463    572.82986   -4888.0676 
45051000    29.101985   -5192.8132   -5136.6876   -5192.8132            0     2316.204    19.900355    19.855749    20.676719    8170.1253    2101.0161    2574.0898    2273.5061   -35.074369    246.74447    159.55872   -4860.7052 
45052000     26.58232   -5198.2473    -5146.981   -5198.2473            0    1835.2429    19.898989    19.855553      20.6768    8169.5161    1298.4281    2560.0573    1647.2434   -74.353071    64.137438   -553.93739   -4928.3228 
45053000    26.087808   -5199.3173   -5149.0047   -5199.3173            0    2217.6518    19.859135    19.863487    20.667678    8152.8134    2329.8884    2165.9574    2157.1096   -73.908392    551.10629    344.19228    -4885.325 
45054000    27.318073   -5194.3659   -5141.6807   -5194.3659            0     1988.703      19.9126    19.823676    20.721982    8179.8146    1945.6459    2376.0305    1644.4325   -187.23202    270.83198    384.91987   -4904.4399 
45055000    29.114871   -5199.9173   -5143.7668   -5199.9173            0    1901.1039    19.906924    19.822195    20.692917    8165.4029    1582.1017    2320.8903    1800.3196    177.69468   -281.06334    390.24404   -4917.3757 
45056000    29.713796    -5197.081   -5139.7754    -5197.081            0    2146.1323    19.833031    19.845333    20.688533    8142.8637    2062.7987    2140.3793     2235.219   -101.51527    423.43216    36.428425   -4884.9108 
45057000    27.552424   -5199.9395   -5146.8024   -5199.9395            0    2148.6657    19.959876    19.885151    20.535476    8150.6362    1512.6643    2371.6182    2561.7148    5.8945654    301.99106   -40.423107   -4891.3933 
45058000    28.114955   -5198.1996   -5143.9775   -5198.1996            0    2358.6129    19.900896    19.837698    20.659506    8156.1241    2195.8702    3087.8735     1792.095   -119.28759    557.63711    115.75506   -4863.4236 
45059000    26.834002   -5196.9581   -5145.2065   -5196.9581            0    2310.4299    19.880397    19.873643    20.662462    8163.6539    2022.5611    2575.8189    2332.9098    70.490376    264.64984    154.15831   -4870.1301 
45060000     28.28235    -5200.435   -5145.8902    -5200.435            0    2507.7367    19.880829    19.899137    20.616525    8156.1312    2631.0905    2057.4651    2834.6544    71.394164    292.71426    268.09132   -4847.5979 
45061000     27.86024   -5197.1959   -5143.4651   -5197.1959            0    2321.8838    19.948192    19.831179    20.559707     8133.341    1997.6139    2500.4725    2467.5648    54.164614    168.21368    359.74952   -4868.0515 
45062000    28.947316   -5196.0371   -5140.2098   -5196.0371            0    2041.5923    19.824983    19.937156    20.640757    8158.3373    2155.0278    1913.2141     2056.535   -69.169159    310.67265      -102.97   -4897.2991 
45063000    29.013188   -5197.6663   -5141.7119   -5197.6663            0    2393.1608    19.807791    19.880909    20.710994    8155.9251    2837.3397    2200.9772    2141.1656    39.106029    107.92051   -146.60423   -4857.0555 
45064000    27.205963   -5197.9855   -5145.5165   -5197.9855            0     2000.279    19.883708    19.847755    20.722137    8177.9284    1736.7739    2331.0746    1932.9886   -236.56089    395.89606   -262.99115   -4906.9498 
45065000    27.750337   -5198.8186   -5145.2998   -5198.8186            0    2267.4519    19.842901    19.840564     20.68689    8144.3117    2271.7584    2056.0652    2474.5323    57.183755    201.45295   -235.03133   -4875.9799 
45066000    29.056553   -5196.0026   -5139.9646   -5196.0026            0      2089.44    19.865405    19.907478    20.613596    8152.0612    2159.2913    2423.1299    1685.8988    65.469657    535.61021   -344.24307   -4891.5523 
45067000    26.835038   -5198.0444   -5146.2908   -5198.0444            0     2175.605    19.901032     19.90729    20.574468    8151.1026    2003.0098    2053.3437    2470.4616   -56.099831    605.81339     178.0733   -4887.6647 
45068000    27.878631   -5198.0042   -5144.2379   -5198.0042            0    2506.6701    19.895177    19.863813    20.593612    8138.4736    2408.3982     2216.052    2895.5601    70.635115      22.2424    37.556236    -4846.718 
45069000    26.836127   -5201.6596   -5149.9038   -5201.6596            0    2056.2767    19.904011    19.850641    20.691215    8175.2519    1541.5115    2611.2526     2016.066   -118.64698    45.918936    152.91004   -4904.7388 
45070000    28.063887   -5198.5005    -5144.377   -5198.5005            0    1864.5614    19.889066    19.909019    20.643902    8174.4029    1829.1088    1946.3188    1818.2567    104.98868     512.8153    -201.7925   -4922.0928 
45071000    27.531445   -5196.4614   -5143.3647   -5196.4614            0    2314.6234    19.831904    19.923916    20.639753    8155.3686    2793.5691    1967.8668    2182.4344   -414.23107    332.89052   -68.660941   -4868.0687 
45072000    29.447516   -5195.9866   -5139.1946   -5195.9866            0     2436.975    19.920347    19.823115    20.594448    8132.4043    1799.5225     2888.774    2622.6286   -84.161209   -730.81798   -73.570022   -4850.1626 
45073000    25.434042   -5198.4673   -5149.4156   -5198.4673            0    1853.7707    19.905524    19.892745    20.657164    8179.7314    2090.8976    2182.6735    1287.7411   -227.78134    464.62247   -291.66038   -4928.2738 
45074000    27.947211   -5201.0256    -5147.127   -5201.0256            0    2136.7807    19.921913    19.851441     20.65136    8167.1728    1911.0827    2734.0856    1765.1738   -190.69242    514.39208   -130.83701   -4892.6154 
45075000    26.693523   -5199.6099   -5148.1292   -5199.6099            0     1859.485    19.826371    19.896866    20.765611     8191.673    2599.5627    1440.8706    1538.0218   -144.16272   -136.68107   -253.65627   -4925.9818 
45076000    27.815293   -5198.8543   -5145.2102   -5198.8543            0    2423.0683    19.923006    19.871212    20.632659     8168.352     2069.018     2381.767    2818.4197   -266.89414    528.36045   -314.95594   -4856.5572 
45077000    26.070601   -5200.2368   -5149.9575   -5200.2368            0    1476.7501    19.876489    19.915239     20.65257    8175.2173    1892.3923    662.20801      1875.65    43.803752    578.06793   -668.15235   -4973.8888 
45078000    28.629432   -5195.0513    -5139.837   -5195.0513            0    2271.6856    19.863891    19.875464    20.669579    8160.4334    2862.0238    1702.8704    2250.1626   -83.526437   -10.786106    171.33407   -4869.4802 
45079000     27.74752   -5200.0692   -5146.5558   -5200.0692            0    2083.7902    19.868545    19.833165    20.716733    8163.5556     2103.139    2448.7879    1699.4438   -137.78792    392.07511   -232.01885   -4898.4658 
45080000    29.178034   -5201.0058   -5144.7335   -5201.0058            0    1787.4659    19.897701    19.895991    20.698224    8194.1056    1590.1531     2193.362    1578.8824   -153.11272    423.13764   -109.31843   -4931.1266 
45081000    28.464726   -5197.9327   -5143.0361   -5197.9327            0    1617.6939    19.923921    19.864517    20.703369    8193.9599    1900.2859    1735.3468    1217.4491   -184.80654   -39.412344   -22.534631   -4949.7208 
45082000    26.537766   -5199.0327   -5147.8524   -5199.0327            0    2023.6359    19.873773    19.901387    20.657472    8170.3532    1463.0976     2273.146    2334.6641   -119.88471   -423.25976    13.380193   -4906.7236 
45083000    28.385805   -5197.5531   -5142.8087   -5197.5531            0    2146.1262    19.860619    19.884961    20.652463     8156.228    2627.4124    2146.5733     1664.393   -146.05134     405.4047    394.86021   -4887.5265 
45084000    28.625304   -5196.1496   -5140.9433   -5196.1496            0    2314.3332    19.860889    19.861536      20.7225    8174.3583    2527.7659     2257.442    2157.7918   -88.255007    474.60648    -10.49066   -4865.0409 
45085000    28.046471   -5202.0248   -5147.9348   -5202.0248            0    2113.4854    19.901127     19.88904    20.630939     8166.021    2048.0846     2271.523    2020.8486    15.219806    507.49629   -329.68388   -4896.2334 
45086000    27.108367   -5197.3828   -5145.1021   -5197.3828            0    2429.5889    19.882681    19.866996    20.587837    8132.3842    2328.2511    2236.4266     2724.089   -330.72286   -296.40171   -188.85805   -4856.9468 
45087000    26.560668   -5197.5327   -5146.3082   -5197.5327            0     2251.503    19.945998    19.808063    20.626594    8149.3939    2228.8062    2210.7888     2314.914   -322.46266   -26.206065   -119.37763   -4878.7159 
45088000     27.01034   -5197.2487    -5145.157   -5197.2487            0    1569.2502    19.858768    19.928737    20.667619      8179.42    1700.2012    1506.9684     1500.581     -27.7333     249.9216       187.29   -4957.9636 
45089000    26.999033   -5202.0495   -5149.9796   -5202.0495            0    1789.6176    19.943235    19.897955    20.586264    8169.2384    1624.0947    1614.2745    2130.4837    95.505448    114.07472    462.12283   -4936.7646 
45090000    27.986922   -5200.2134   -5146.2382   -5200.2134            0    1772.4642    19.910669    19.857516    20.705201    8186.3485    1919.7504    1643.3789    1754.2633   -461.04038     329.4009   -421.19036   -4934.6246 
45091000    26.657853   -5199.1332   -5147.7213   -5199.1332            0     1222.048    19.903859    19.884745    20.705862    8195.0312    1516.6166    795.40901    1354.1184   -196.53567   -7.8889327    429.53447   -5001.6669 
45092000    27.235283    -5198.415   -5145.8895    -5198.415            0    1637.7853    19.887615    19.885219    20.698395    8185.5852     990.4376     2308.152    1614.7662   -114.65798    368.55389   -53.112924   -4950.3733 
45093000    29.676775   -5199.4083   -5142.1742   -5199.4083            0    2270.6778    19.938802    19.810723    20.633648     8150.334    2485.4955    1618.8307    2707.7071   -145.93335    289.79518    369.76198   -4872.2717 
45094000    28.601157   -5200.5031   -5145.3434   -5200.5031            0    2132.7561    19.882607    19.912872    20.627953    8167.0152    2234.4127    2063.7717     2100.084   -110.70383    6.7351442    296.22156   -4891.3161 
45095000    26.727899   -5200.1104   -5148.5634   -5200.1104            0    2748.5227    19.873484    19.853451    20.626135    8138.1912    2966.0165    2765.3015    2514.2499   -44.552444    827.82698      276.409    -4822.349 
45096000    28.523653    -5199.845   -5144.8348    -5199.845            0    1927.0649    19.920632    19.868481    20.658533    8176.4962    1936.2099    2034.2991    1810.6857   -161.58976    538.08706   -6.8744808   -4915.0404 
45097000    28.237095   -5199.5479   -5145.0903   -5199.5479            0    2228.6306    19.877745    19.864054    20.650932    8154.0739    2435.7699    1871.7994    2378.3224   -401.90927     551.0721   -156.66509   -4880.0642 
45098000    26.986157   -5197.8317   -5145.7866   -5197.8317            0    1971.1901    19.947651    19.818773    20.660289    8167.7967    1570.7499    2304.8942    2037.9262   -133.67711    47.632196    672.05356   -4910.9806 
45099000    26.628859   -5197.8368   -5146.4808   -5197.8368            0    2133.3488    20.006565    19.849206    20.575954    8171.0084    1629.0434    2427.7809    2343.2219    86.254203   -77.741216    379.77881   -4892.2586 
45100000    27.534632   -5198.4554   -5145.3525   -5198.4554            0    2251.1299     19.92166    19.850527    20.640984    8162.5898    1797.0822    2849.6944    2106.6131    44.045909    430.02636    168.46935   -4877.3713 
45101000    26.271904   -5200.5315   -5149.8639   -5200.5315            0    2114.5406    19.859955     19.83193    20.732836    8165.8602    2851.8187    1578.7543    1913.0486   -307.45189    679.05905   -28.727244   -4898.0418 
45102000    28.018634   -5199.5346   -5145.4983   -5199.5346            0    1760.0858    19.915367    19.889402    20.630151    8171.7005    1975.1516    1482.9615    1822.1443   -59.924965    38.443187   -564.00298   -4935.7386 
45103000    28.658505   -5196.9754   -5141.7051   -5196.9754            0    2120.7965    19.939711    19.797499    20.642702     8148.839    1861.8247    2129.4284    2371.1365    135.16381   -157.65691   -214.98392   -4889.6644 
45104000     28.59008   -5197.2247   -5142.0863   -5197.2247            0    2778.6608     19.91358    19.818995    20.634931    8143.9294    2356.7956    3676.6067    2302.5802   -96.535687    200.60731   -331.43504   -4812.0624 
45105000    27.902419   -5194.6139   -5140.8017   -5194.6139            0    2711.3615    19.937176    19.805438    20.649686     8153.828    2810.6294    2770.2149    2553.2401    64.566512    265.26266    83.641323   -4818.3796 
45106000      27.9891   -5200.7939   -5146.8146   -5200.7939            0    2414.2002    19.902786    19.883705    20.617314    8159.1189    2416.3297     2578.004    2248.2669   -221.13163   -226.79827    216.82662   -4859.5432 
45107000    27.515352   -5196.5831   -5143.5174   -5196.5831            0    2593.7387    19.880147    19.814308    20.680533    8146.2972    2878.3418    2119.6734     2783.201   -258.51181    378.40903    52.610414   -4835.3673 
45108000    28.105644   -5197.8575   -5143.6534   -5197.8575            0    2422.9587     19.93014    19.911347    20.604253    8176.5082    2260.8544    2495.8161    2512.2056   -286.27564    155.96355    23.030294   -4854.7253 
45109000    28.119819   -5199.0809   -5144.8495   -5199.0809            0    2145.6089    19.914173    19.886642     20.64458    8175.7911    1968.3895    2069.2774    2399.1598    -73.47445    39.759274   -148.96904   -4889.0167 
45110000    27.365412   -5193.6898   -5140.9133   -5193.6898            0    2112.3234    19.902758    19.859654     20.63717    8157.0866    2278.5214    1704.1895    2354.2591  0.030082177    765.35771   -148.48987   -4889.6255 
45111000    28.418762   -5197.1587   -5142.3508   -5197.1587            0    1966.8225     19.91607    19.877556    20.674897    8184.8356    1267.1482    3121.7786    1511.5409   -180.86878   -37.709065   -107.63704   -4907.5762 
45112000    28.007709   -5197.0512    -5143.036   -5197.0512            0    1808.5569    19.927195    19.828474    20.673888    8168.7878    2287.7613     1490.911    1646.9986     113.6317    894.03626   -300.64428   -4927.5765 
45113000    26.489867   -5197.8304   -5146.7425   -5197.8304            0    2129.4292    19.834165    19.910565     20.64853    8154.2991    2417.6944    1934.2465    2036.3465    205.55122    309.26597     204.3366   -4893.5063 
45114000    28.577754   -5197.6572   -5142.5426   -5197.6572            0    2776.2132     19.87401    19.884153    20.642755    8157.5597    2857.7307    2604.0074    2866.9013   -60.389334     557.0557   -495.39781   -4812.2575 
45115000    28.210983   -5198.7474   -5144.3402   -5198.7474            0    2259.2168    19.913025     19.88497    20.595139    8155.0556     1784.644    2507.3038    2485.7025   -137.44569    284.43875     204.3682   -4875.6445 
45116000    26.652142   -5199.7317   -5148.3308   -5199.7317            0    2156.9378    19.855411    19.909351    20.632998    8156.3965    2674.1202    1570.8875    2225.8057   -124.25619   -31.269648    355.71733   -4891.7572 
45117000    26.247001   -5198.9213   -5148.3018   -5198.9213            0    2146.7706    19.831892    19.895957    20.699593     8167.531     2307.809    2175.1966    1957.3062   -200.74089    651.79032    100.47956   -4892.5891 
45118000    26.728244   -5198.9544   -5147.4067   -5198.9544            0    1990.7321    19.922236    19.898099    20.630207    8178.1157      1751.23     1910.946    2310.0204    22.823187    229.22675    40.863852   -4909.9732 
45119000    27.468737   -5201.1176   -5148.1418   -5201.1176            0     1727.468    19.910293    19.885335    20.660293    8179.8822    1468.0626    1820.7715    1893.5699    -221.7275    219.47496    233.74494   -4942.0632 
45120000    27.704374   -5196.5624   -5143.1322   -5196.5624            0     2052.025    19.899587    19.930065    20.616637    8176.5597     2012.209    1768.6014    2375.2646   -33.956457   -72.408891   -101.92396   -4898.4349 
45121000    27.490628   -5201.3767   -5148.3587   -5201.3767            0    2042.0009    19.915743    19.913337    20.580229    8161.8907    2315.3306    1634.5126    2176.1595     -114.695    209.61733   -134.93199   -4905.2936 
45122000    28.694299   -5196.9509   -5141.6115   -5196.9509            0    1944.0452    19.876431    19.831025    20.736926     8173.874    1957.7861    1912.1249    1962.2246   -137.75546    40.035207   -339.62152   -4909.8666 
45123000    27.759467   -5198.7943   -5145.2579   -5198.7943            0    1605.8882    19.893638    19.878316     20.67955      8177.77    1646.7143    1557.7053    1613.2451   -76.377956    361.47124     224.3681   -4953.7326 
45124000    27.624185   -5197.5242   -5144.2486   -5197.5242            0    2023.7999    19.932059    19.878805    20.650884    8182.4073    2072.1227    1762.5698    2236.7072   -241.64256    303.29709    239.83022   -4902.7445 
45125000    27.687507   -5197.0928   -5143.6951   -5197.0928            0    2054.5997     19.90325    19.874398    20.698888    8187.7581    1795.6984    2374.9692    1993.1314   -129.56875    477.23897   -13.640716   -4898.3553 
45126000    25.701493   -5198.5352   -5148.9677   -5198.5352            0    1775.0838    19.863028    19.937344    20.652142    8178.5792    2274.8893    1212.8988    1837.4633    -213.9131    793.03642   -143.49155   -4937.2425 
45127000     27.99732   -5199.0009   -5145.0057   -5199.0009            0    2630.0932    19.873338    19.864754    20.689116    8167.6278    2729.8127    3144.2514    2016.2157   -1.7188444    86.254936    425.56416   -4831.7183 
45128000    27.153354   -5198.3384   -5145.9709   -5198.3384            0    2111.5028    19.878198    19.856333    20.653839    8152.2381    2435.8886     2146.173    1752.4469    245.73276     -72.7224   -252.12655     -4894.93 
45129000    29.907088   -5197.2319   -5139.5535   -5197.2319            0    2268.8507    19.905479    19.818873      20.6829    8159.4898    2683.3372    2377.3955    1745.8196   -46.423766    554.29071    73.729646   -4869.5653 
45130000    26.423799   -5199.9077   -5148.9472   -5199.9077            0    2729.4957    19.895231    19.841773    20.658857    8155.2212    2870.7406    2684.5991    2633.1473   -38.831124    298.93799    92.023158   -4824.3132 
45131000    25.418582   -5197.9407   -5148.9188   -5197.9407            0    2067.6953    19.901909    19.858369     20.65642     8163.819    1784.6252    2283.9444    2134.5162  -0.84055127    359.99789   -809.64739   -4902.7371 
45132000    28.727602   -5196.0145   -5140.6109   -5196.0145            0    2349.5989    19.914453    19.815101    20.686842    8163.1704    1628.6056    2973.1193     2447.072   -213.22741    332.39201   -198.06925   -4860.8877 
45133000    28.483612   -5195.9232   -5140.9902   -5195.9232            0      2603.73    19.896157    19.862752    20.628334    8152.1619    2646.6214    2272.9423    2891.6264   -491.04125    199.76158     130.9952   -4831.4303 
45134000    26.634172   -5198.9867   -5147.6204   -5198.9867            0    2298.4098    19.835608    19.926858     20.65996    8166.0835    2429.0327    2133.1055    2333.0911   -283.35713   -21.199189    73.031721   -4873.8937 
45135000    26.793406     -5198.02   -5146.3467     -5198.02            0    1889.2438    19.867633    19.902151     20.69968    8184.8326    1803.9962      1834.28    2029.4552   -65.048234    614.02834   -222.14634   -4920.8326 
45136000    28.501403   -5198.6425   -5143.6751   -5198.6425            0     2580.864    19.955521    19.835315    20.569521    8141.9111    2341.6822    2549.6565    2851.2532   -94.605363    176.22386    276.83949   -4837.2197 
45137000    27.615205   -5200.8775   -5147.6192   -5200.8775            0     1967.927    19.944423    19.873066    20.630216     8176.927    1516.0012    2086.7621    2301.0177   -123.15966    337.72141   -542.44272   -4912.9398 
45138000    27.618931   -5199.5844   -5146.3189   -5199.5844            0    2136.2882    19.916388    19.828767    20.626958     8145.945     1929.627    2465.5548     2013.683   -103.96698   -114.01175    444.10162   -4892.5274 
45139000    26.177138    -5198.671   -5148.1862    -5198.671            0    2302.7422    19.899235    19.867845    20.588586    8139.7987    1974.4746    2313.1777    2620.5744   -26.159051    304.98006    107.25571   -4874.8263 
45140000    27.850899   -5197.9952   -5144.2824   -5197.9952            0    2650.0985    19.894507    19.806093    20.646893    8135.5459    3163.1037    2165.4379    2621.7539   -14.274161    479.24236    48.505597    -4829.852 
45141000    27.971734   -5198.6756   -5144.7298   -5198.6756            0    2180.4217     19.86477    19.902233    20.604446    8146.0351     2191.895    2330.5613    2018.8089   -222.19457    416.18183    224.51994   -4885.6922 
45142000    26.484285   -5195.8196   -5144.7424   -5195.8196            0    2036.4037    19.945666    19.894996    20.553138    8155.8744    1656.3309    2069.9473    2382.9328   -209.18901    204.33803    46.787188   -4902.5223 
45143000    26.925703   -5197.7355    -5145.807   -5197.7355            0    2040.9405    19.875932    19.856304       20.704    8171.0936    3073.3798    1205.9028    1843.5388   -191.14251    657.47463   -192.43028   -4902.5942 
45144000    27.082373   -5196.3286   -5144.0979   -5196.3286            0    2307.4587    19.839047    19.859734    20.679477    8147.6765    2400.4161    2161.7321     2360.228    80.252617     435.5041   -155.06363    -4869.913 
45145000    27.023579   -5196.4257   -5144.3085   -5196.4257            0    2606.0875    19.866271     19.89649    20.590905    8138.9478    2504.9308    2612.5522    2700.7795     42.95713    432.51564    128.95188   -4834.9706 
45146000    26.461309   -5197.9049   -5146.8721   -5197.9049            0    2223.2909    19.864811    19.880895    20.657421    8158.2398    2254.8727    2222.4639     2192.536   -188.43821    327.62411    -78.15111   -4882.3459 
45147000    26.269891    -5198.999   -5148.3353    -5198.999            0    2241.6678    19.909791    19.862311    20.609126    8149.9705    2055.9328    2238.9831    2430.0875   -349.44731    169.68987    265.69486    -4881.893 
45148000    26.541682   -5198.4765   -5147.2886   -5198.4765            0    2096.0973    19.878591    19.801879    20.701146    8148.6635    2453.2226    2133.6779    1701.3913   -29.101051    228.14732    117.53775   -4898.1886 
45149000    28.459917   -5196.9788   -5142.0914   -5196.9788            0     2347.859    19.899222    19.859748    20.663536    8166.0957     2181.439    2675.6872    2186.4508   -66.368862    449.32564   -377.58317   -4862.4752 
45150000    27.572573   -5199.7054   -5146.5294   -5199.7054            0     2216.116    19.912867    19.854477    20.612767    8149.4544     2514.643    2014.5502    2119.1548     -75.3264   -62.744908    450.12142   -4883.1408 
45151000    27.959039   -5195.8153    -5141.894   -5195.8153            0    1648.5504     19.92364    19.840245     20.72344    8191.7663    1852.9493    1401.9642    1690.7377   -81.054351    124.47268   -158.36365   -4944.9441 
45152000    27.483325   -5195.4732   -5142.4693   -5195.4732            0    2286.0436    19.924533    19.835934    20.650614     8161.571    1749.4934     2738.816    2369.8212   -245.16551    516.29645   -98.707526   -4870.3658 
45153000    27.758513   -5197.3298   -5143.7952   -5197.3298            0     2398.379    19.864036    19.869055    20.635792    8144.5266    1849.2674     3078.801    2267.0686   -346.51548    172.50987   -113.78564   -4858.9168 
45154000    29.250327   -5201.8559   -5145.4442   -5201.8559            0    2281.8939    19.899517    19.853447    20.666581    8164.8287    2400.0902    2124.4721    2321.1194   -225.86412    286.37259    366.35258   -4873.7262 
45155000    26.807649   -5197.7903   -5146.0895   -5197.7903            0    2338.2851    19.887717    19.847034    20.709136    8174.1481    2438.5186    2123.0784    2453.2581   -253.68199    233.09241  -0.91590346   -4867.3389 
45156000    27.226721   -5199.7206   -5147.2115   -5199.7206            0    1771.8133    19.907199     19.85468    20.684529    8175.5821    1359.5841    2122.5057    1833.3501   -174.26774    721.09543    694.48538   -4935.9539 
45157000    28.423986   -5197.8628   -5143.0448   -5197.8628            0    2388.5765    19.926924    19.819746    20.612392    8140.7935    2279.4868    2602.9494    2283.2931    -181.9954    36.959635    331.41641   -4859.4607 
45158000    28.314173    -5205.308   -5150.7018    -5205.308            0    1737.1962     19.86582    19.840304    20.729821    8170.5328    1307.3641    2140.1093    1764.1151   -265.02919   -1.8332499    414.91155   -4943.6995 
45159000    26.046647    -5197.381   -5147.1478    -5197.381            0    1832.9188    19.851985    19.862096    20.763491    8187.0868    2149.0553    1960.0993    1389.6018   -298.28526    84.985416    55.532432   -4928.2969 
45160000    27.743293   -5199.4405   -5145.9353   -5199.4405            0    1840.8884     19.91204    19.837696    20.730835    8188.8664    1619.9905    2008.2317    1894.4429   -109.77704    338.52921     127.3895   -4926.0849 
45161000    27.787663   -5200.9261   -5147.3352   -5200.9261            0    2478.1517     19.83018    19.850305     20.70768      8151.27    3096.7713    2519.0496    1818.6342    -251.1333    263.76937    645.20774   -4852.7377 
45162000    27.418819   -5198.0512   -5145.1717   -5198.0512            0    2082.1817    19.903346    19.848498    20.681735    8170.3509    1789.3622    2623.5287    1833.6541   -36.773674    657.92319   -181.46043   -4897.0669 
45163000       27.351   -5197.0322   -5144.2835   -5197.0322            0    2071.8934    19.960032    19.858877    20.604833    8167.4226    1679.5851    2304.6021    2231.4929   -163.87104    11.396491    34.914478    -4897.493 
45164000    26.908341   -5199.1544   -5147.2594   -5199.1544            0    2408.0311    19.892648    19.889497    20.652691    8171.3361    2338.4329    2461.3188    2424.3417    74.404777    214.15385   -409.39232    -4860.293 
45165000    28.246489   -5199.1704   -5144.6947   -5199.1704            0    2625.6795    19.864143    19.823285    20.658255    8134.6538    2756.7565    2573.5283    2546.7537   -96.349794    102.27617    128.54544   -4833.1957 
45166000    27.096428   -5196.1822   -5143.9245   -5196.1822            0     2400.678    19.883387    19.917147    20.592917    8155.2142    3288.5799    1146.4463    2767.0077   -119.01873    1058.0035    554.19783   -4858.3988 
45167000    27.681301   -5197.5953   -5144.2096   -5197.5953            0    1933.8763      19.9818    19.846964    20.561973    8154.4278    2137.8544    1927.5844    1736.1901   -136.63118    162.15192   -598.76602   -4914.2254 
45168000    28.450259   -5195.0325   -5140.1638   -5195.0325            0    2608.8243    19.864854    19.854063    20.711395    8168.5342    2317.7021    3240.6126    2268.1583   -86.496191   -123.09612    106.66208   -4829.3753 
45169000     29.44567   -5198.5945    -5141.806   -5198.5945            0    2427.8163     19.90852    19.821399     20.65976     8152.645    2287.7901    2752.1854    2243.4736    59.996245    280.61487   -67.020251   -4853.1436 
45170000    27.917078   -5198.3895   -5144.5491   -5198.3895            0    1870.8421    19.927805    19.896574    20.538692    8143.4898    2095.0101    1476.0284    2041.4878   -281.91032   -21.252667    111.64116   -4922.3595 
45171000    27.263418   -5196.2008    -5143.621   -5196.2008            0    1980.0197    19.945217    19.903368    20.617676    8184.7429    1624.2121    1970.1855    2345.6615   -152.10704    122.94066   -271.96321   -4907.2738 
45172000      26.5956   -5197.0809    -5145.789   -5197.0809            0     2257.763    19.908769    19.863048    20.621987    8154.9409    1908.3204    2772.0151    2092.9535   -278.97546    71.190979    41.493883     -4877.27 
45173000    26.683839   -5198.3889   -5146.9269   -5198.3889            0    2339.4347    19.870622    19.854981    20.619507     8135.031    2282.2712    2439.9702    2296.0629    -125.7364     252.5879    45.772243   -4869.3738 
45174000    27.419791   -5198.2804   -5145.3991   -5198.2804            0    2210.0308    19.904857    19.853252     20.64566    8158.6726    2580.5947    1866.6086     2182.889   -262.77237    51.194392     334.7912   -4882.4366 
45175000    27.224516   -5198.4633   -5145.9586   -5198.4633            0    2564.1932    19.894449    19.955031      20.5707    8166.4516    2596.2107    2144.0766    2952.2922   -276.10882    535.99433   -303.60528   -4840.5649 
45176000    27.337692   -5199.7165   -5146.9934   -5199.7165            0    2181.4053    19.937032    19.843017    20.611201    8154.0146    1935.9249    2292.9008    2315.3903   -431.66857    532.57706   -388.58466   -4887.5852 
45177000    28.000846   -5199.1329   -5145.1309   -5199.1329            0    2223.8138    19.950241    19.876043    20.572874    8157.7999    1897.4269    2079.0913     2694.923    53.065846    294.75332    172.81392   -4880.5568 
45178000    27.806698   -5198.7645   -5145.1369   -5198.7645            0    1534.4615     19.92943    19.910029    20.622161    8182.7813      1307.23    1770.4924    1525.6621   -50.949679   -134.46536    34.585098   -4962.0182 
45179000     28.07729   -5194.9211   -5140.7717   -5194.9211            0    2118.0859    19.956171    19.862422    20.582401    8158.4085    2014.1044    1844.9985    2495.1547    91.638789    86.598519    186.86027   -4888.7576 
45180000    28.333914   -5196.7439   -5142.0996   -5196.7439            0    2776.5859    19.847312    19.854182    20.729466    8168.4904     2657.865    2794.0839    2877.8088   -177.68273    203.99945    422.02908   -4811.3276 
45181000     27.33884   -5198.3383   -5145.6131   -5198.3383            0    2224.6083    19.890642    19.908467    20.585577    8151.7274    2166.8025    1979.7774    2527.2449   -287.64559   -395.32676   -182.69903   -4881.1415 
45182000    26.947036    -5196.302   -5144.3323    -5196.302            0    2195.9631    19.949846    19.882483    20.557805    8154.3038    2691.2528    1572.4759    2324.1606   -28.378184    640.32506   -125.62407   -4883.1837 
45183000    26.152299   -5197.7069     -5147.27   -5197.7069            0    2418.2161    19.862439    19.854796    20.672666    8152.5692     2176.611    2616.8223    2461.2148   -82.639467    355.41745   -7.5077122   -4859.7517 
45184000    26.127387   -5198.7068    -5148.318   -5198.7068            0    2199.0399    19.864086    19.866769    20.711013    8173.2955    2335.6339    2429.2501    1832.2356   -204.13549   -339.24065   -220.33033   -4886.1943 
45185000    28.352896   -5196.2393   -5141.5584   -5196.2393            0    2834.9178     19.89292    19.841217    20.669983     8158.437    2595.9365    2989.8048     2919.012     88.28563    590.93908   -78.091986    -4804.253 
45186000    28.141908   -5197.3754   -5143.1014   -5197.3754            0    1903.0345    19.906509    19.821304    20.701271    8168.1622    2115.8044    1727.6851     1865.614   -185.59117   -90.693107    8.3339473   -4916.4038 
45187000    27.023691   -5197.3062   -5145.1887   -5197.3062            0    2468.3746    19.913773    19.870234    20.572124    8140.2115    1883.1502    2856.7835      2665.19    72.660162     537.4169    69.224341   -4852.1516 
45188000    28.497773   -5199.5515   -5144.5911   -5199.5515            0    2290.8875    19.919404    19.832659    20.656964    8160.6319    1766.8486    2925.9593    2179.8546   -50.852571     349.4685    113.55299   -4871.9424 
45189000    26.561231   -5198.7466   -5147.5211   -5198.7466            0    1970.1948    19.924209     19.87164    20.641841    8172.6563    1462.0584    2337.4952    2111.0309   -75.010652    379.52043    433.50726   -4912.6939 
45190000    26.950641   -5191.2083   -5139.2317   -5191.2083            0     2463.556    19.932474    19.886244    20.529401    8137.4857    2068.6446    2361.3058    2960.7175    64.613819   -366.97305    351.12724   -4846.8646 
45191000      27.5888   -5197.8542   -5144.6468   -5197.8542            0    1535.9312     19.92048    19.861264    20.660199    8174.1233    1693.1691    1503.6302    1410.9944    -135.4588    682.29743   -476.65157   -4961.5466 
45192000    27.986555   -5197.6352   -5143.6608   -5197.6352            0     2198.068    19.900812    19.843587    20.651425    8155.3199     2217.596    2275.5219    2101.0862   -104.52319    373.10251    23.977585   -4882.2292 
45193000    27.905475   -5199.5563   -5145.7382   -5199.5563            0    1897.6149     19.86407    19.948123    20.650107    8182.6238    2209.3731    1340.2597     2143.212   -18.124766   -46.451796   -168.37465    -4919.286 
45194000    28.792454   -5197.2719   -5141.7433   -5197.2719            0    2701.4136    19.860211    19.843251    20.639592    8133.8808    2796.8202    2577.2327    2730.1879    55.124197    -136.0068     -47.2605   -4821.2899 
45195000    27.799285   -5197.6262    -5144.013   -5197.6262            0    2351.7715    19.874376    19.843171     20.63618    8138.3033    2528.2323    2337.9215    2189.1607    152.18734    500.67922    282.94837    -4864.884 
45196000    27.879304   -5198.3764   -5144.6088   -5198.3764            0    2119.3376    19.871578    19.900093    20.632294    8158.9631    2170.5146    2022.9357    2164.5625   -311.05185    504.13398   -245.36231   -4892.4286 
45197000    27.232346   -5195.7001   -5143.1802   -5195.7001            0    2415.6436     19.83184     19.89036    20.653004    8146.8341    2651.4293    2079.3955    2516.1061   -184.43869    129.47398    453.52622   -4856.1698 
45198000    28.199325   -5198.4452   -5144.0604   -5198.4452            0    2276.2801    19.933473    19.862236    20.576504    8146.7184    1633.7588    2689.0807    2506.0009   -176.02329    18.195177    39.214632   -4873.6121 
45199000    28.954447   -5197.4914   -5141.6503   -5197.4914            0    2177.7847    19.926436    19.822188    20.691593    8172.8806    1736.0823    2817.4575    1979.8144   -104.38235    368.62587    375.43126   -4882.0734 
45200000    27.472761   -5199.5604   -5146.5768   -5199.5604            0    2676.5834    19.823106    19.899125    20.644757    8143.5816    2970.6414    2212.0358    2847.0731   -118.41784    292.50479    385.06152   -4828.6903 
45201000    27.305391    -5197.635   -5144.9742    -5197.635            0      2093.96    19.840437    19.919083    20.621527     8149.696    1889.7066    2203.6091    2188.5643   -84.667973    586.66883   -382.64587   -4896.0967 
45202000    27.624826   -5198.2283   -5144.9515   -5198.2283            0    2626.0638    19.834351    19.890603      20.6834     8159.957    3336.2342    1976.3817    2565.5754   -221.03279     51.12119   -22.846976   -4832.4378 
45203000     26.49044   -5199.2218   -5148.1327   -5199.2218            0    2130.6898    19.853142    19.860431    20.773656    8190.8851    1948.2838    2589.3556      1854.43   -59.737261   -56.881751    117.63128   -4893.6098 
45204000    26.942768   -5198.4323   -5146.4709   -5198.4323            0    2198.2613    19.889566    19.871763    20.611691    8146.5805    2096.9435    2229.2739    2268.5667    140.09294   -7.0789515     87.42716   -4885.2965 
45205000    27.828036   -5203.3866   -5149.7179   -5203.3866            0    2406.6725    19.942781    19.854517    20.642424     8173.456    1736.6744    2955.6514    2527.6915   -250.65933    708.26257    116.25566    -4862.839 
45206000      28.1139   -5201.8985   -5147.6785   -5201.8985            0     1913.296    19.913485    19.881435    20.665025    8181.4622    1778.3265    1771.2591    2190.3025   -53.883368    749.41569    264.68088   -4919.3874 
45207000    27.559902   -5197.6927   -5144.5412   -5197.6927            0    2349.8289    19.975009    19.836973    20.556842    8145.5197    1947.9251    2814.7485    2286.8131   -239.49059    531.06406    464.45921   -4865.3955 
45208000    27.476781   -5196.9722   -5143.9809   -5196.9722            0    2282.5079    19.924039    19.793378    20.675924    8153.8408    2344.8822    2318.9176     2183.724     98.39639    6.3725721    288.71513   -4872.5556 
45209000    27.429098   -5198.0929   -5145.1936   -5198.0929            0    1992.2369    19.967033    19.880779    20.596488    8175.9853    2660.5429    1193.7772    2122.3907   -233.35381    621.25843    -308.1681   -4907.6425 
45210000    28.395574   -5197.3659   -5142.6027   -5197.3659            0     1818.514    19.975963     19.84278    20.669139    8192.8054    1399.9438    2199.9528    1855.6455   -130.50376    426.47587   -303.75327     -4925.32 
45211000       29.425    -5202.067   -5145.3184    -5202.067            0    2086.0103    19.992291    19.818741    20.593506    8159.6005    1495.0172    2223.4109    2539.6026   -14.159549   -364.54264   -11.019199   -4897.0844 
45212000    27.971151   -5197.5625   -5143.6178   -5197.5625            0    2347.2124    19.867656    19.892827    20.649004    8160.9785    2958.3713    2244.3733    1838.8925   -246.85078    318.32011   -111.30036   -4864.2537 
45213000    28.517977   -5198.6289   -5143.6296   -5198.6289            0    2143.9272    19.874775    19.906037    20.663177    8174.9315    1916.8745    1820.2494    2694.6576   -348.91062    5.9336034    276.82939   -4888.0241 
45214000     27.58797   -5198.0199   -5144.8141   -5198.0199            0    2359.5032    19.860702    19.973983    20.579021    8163.6428    2562.4272    2167.7808    2348.3016    7.4729616   -72.155815   -194.16845   -4863.8956 
45215000    27.166031   -5201.7571   -5149.3651   -5201.7571            0    2026.9271    19.845794    19.882288     20.70212    8168.6383    2618.8467    1886.5538    1575.3808   -226.37583    233.26334   -297.90966   -4907.8948 
45216000    27.571125   -5199.0126   -5145.8393   -5199.0126            0    2148.5194    19.876312     19.90607    20.601433    8151.1477    2187.4238    2071.1301    2187.0043   -165.97731    462.63416   -49.464724   -4890.4317 
45217000    26.304691   -5199.2422   -5148.5114   -5199.2422            0    2765.9254    19.832591    19.885461    20.614485    8129.9447    3273.1907    2231.0471    2793.5384   -151.88408    478.29124    56.608286   -4820.5642 
45218000    27.840486   -5197.0145   -5143.3218   -5197.0145            0    1803.2255    19.886072    19.869668    20.736987    8193.7983    2198.3232    1682.6137    1528.7398   -96.938339    529.02514   -463.36458   -4927.8397 
45219000    27.394088    -5197.117   -5144.2852    -5197.117            0    1773.1886    19.917886    19.834274    20.675368     8167.945    1729.2421    2180.9623    1409.3614   -66.017552   -214.98513    607.19397    -4933.061 
45220000    26.165291   -5197.3484   -5146.8864   -5197.3484            0    2184.9807     19.87868    19.919189    20.612486    8161.8683    2306.6992     1625.053    2623.1897   -314.63611   -265.11848   -230.78322   -4886.8028 
45221000    27.081877   -5196.9713   -5144.7416   -5196.9713            0     2698.936    19.923931    19.823535    20.630633    8148.3315    3069.0613    2107.2337    2920.5129   -377.84644     530.2267   -321.65631   -4824.0134 
45222000    27.110904   -5201.3579   -5149.0723   -5201.3579            0    2222.7476    19.954024    19.837764    20.644564    8172.0106     2639.183     1765.017    2264.0428   -168.17743    744.70941    287.46645   -4884.1643 
45223000    27.428106   -5198.3235   -5145.4261   -5198.3235            0    2657.4231    19.838472    19.856934     20.68232    8147.4117    3064.9263    2558.1622    2349.1808   -42.465846     39.01845    179.48782   -4829.6667 
45224000    27.589498   -5198.5963   -5145.3876   -5198.5963            0    2321.3999     19.94311    19.815608    20.674915     8170.413    1630.9722    2959.9564    2373.2712    52.755513    479.02672   -143.55143   -4868.7764 
45225000    27.155406    -5198.913   -5146.5415    -5198.913            0    2647.1555    19.863752    19.876579    20.646702    8151.8015    2808.3293    2519.9053    2613.2319   -29.504725    30.204633    364.44116   -4831.8326 
45226000    28.173106   -5200.6739   -5146.3397   -5200.6739            0     1870.915    19.934676    19.844751    20.669546    8176.8453    1712.9929    2157.9441    1741.8081    -165.3378    218.52308   -319.86789   -4923.2314 
45227000    28.756694   -5194.2397     -5138.78   -5194.2397            0    2463.3707    19.910674    19.823107    20.716619    8176.6716    2632.5847    2501.7215    2255.8061    4.3684937    48.282499    18.843746    -4845.027 
45228000    29.363567   -5199.3812   -5142.7511   -5199.3812            0    2135.4515     19.89082    19.825742    20.691441    8159.6754    1867.6514    2609.6568    1929.0463   -165.52764    330.47758   -189.37795   -4888.6313 
45229000    28.592663    -5198.807   -5143.6637    -5198.807            0    2070.5733    19.911958    19.864977    20.622407    8157.2052    1884.5121    1929.8859    2397.3221    48.286772     -221.571   -107.51346    -4897.339 
45230000    27.799099   -5195.6646   -5142.0517   -5195.6646            0    2225.9527    19.900291    19.895106    20.597933    8155.1005    2255.3342    2365.0222    2057.5018    23.186777    629.40495    245.70197   -4877.3108 
45231000    27.872421   -5196.1629   -5142.4086   -5196.1629            0    2049.3065    19.912761    19.885891    20.632034    8169.9344    1488.1002     2303.103    2356.7164    -290.7646    135.22737   -141.50087   -4898.2335 
45232000    28.018982   -5198.5952   -5144.5582   -5198.5952            0    2376.0151    19.862178    19.890378    20.611475    8142.8972     2097.147    2683.2003    2347.6981   -235.61798    268.98573    581.58383   -4862.3927 
45233000    26.681599   -5197.9924   -5146.5347   -5197.9924            0    2180.6401    19.866777    19.867011    20.657574    8153.4097    2561.1957    2147.2585    1833.4662    -189.7556   -10.181741   -97.568406   -4887.2367 
45234000    28.165564   -5197.4807   -5143.1611   -5197.4807            0    1812.7338     19.99169    19.888663    20.567574    8177.8315    995.38128    2046.1097    2396.7103    96.712521    566.81327    238.04902   -4926.9649 
45235000    27.582411   -5202.8407   -5149.6457   -5202.8407            0    2493.5896    19.858508    19.892529    20.648052    8156.7231    2201.1475    2390.7956    2888.8259   -18.931444    725.06449    70.017003   -4853.0146 
45236000      26.4851   -5199.6003   -5148.5216   -5199.6003            0    1909.4688    19.934903    19.854566     20.63552    8167.5147    1524.1967     2431.828    1772.3817    -122.1707    138.49169   -108.91846   -4921.0755 
45237000    27.976146   -5199.0246   -5145.0703   -5199.0246            0    2064.4913    19.951591    19.908841    20.537756    8157.8648    1718.6604    2031.4336      2443.38   -210.49387    79.955827    -87.57498   -4899.4493 
45238000    27.983663   -5198.3323   -5144.3635   -5198.3323            0    1925.5882    19.863266    19.931533    20.674862    8185.2884    2239.1043    1309.4797    2228.1805   -95.657124    102.89197   -168.73633   -4914.4982 
45239000    26.043202   -5195.5521   -5145.3256   -5195.5521            0    1753.9353    19.972354    19.922799    20.632508    8209.7824    1495.3396    1892.1033    1874.3631   -183.90266     824.0649    154.96393   -4935.3247 
45240000    27.502334   -5197.9268   -5144.8862   -5197.9268            0    2106.5894    19.884894    19.904032    20.632531    8166.1406    2190.6771    2340.7973    1788.2936   -144.64242    106.36638     231.5822   -4894.0024 
45241000     27.41941   -5200.8135   -5147.9329   -5200.8135            0    1854.1918    19.937593    19.934798    20.572736    8176.6725     1937.696    1622.3118    2002.5677     -152.449     253.6753   -63.500782   -4926.8235 
45242000    26.879449   -5199.0865   -5147.2472   -5199.0865            0    2105.4193    19.842557    19.935593    20.691901    8185.1601    2245.7252    1871.3731    2199.1596   -169.88749    53.496701   -82.163468   -4895.9188 
45243000    27.810373   -5196.6239   -5142.9893   -5196.6239            0    2227.8247    19.873236    19.945492    20.589972    8161.4836    1912.8655    2289.3179    2481.2907   -219.69677    286.21965   -67.107176   -4877.8183 
45244000    27.637217   -5195.6658   -5142.3651   -5195.6658            0     1803.739    19.860064    19.925694    20.654893    8173.6691    3063.2195    665.82937    1682.1681   -190.61785    171.97007    150.99112   -4927.3512 
45245000    29.476932   -5197.5179   -5140.6692   -5197.5179            0     2321.145     19.89454     19.81454    20.660069    8144.2231    2248.1624    3264.9576     1450.315   -104.95333    630.61749     213.8537   -4864.9748 
45246000    29.129056   -5198.0941   -5141.9162   -5198.0941            0    2388.0675    19.881155     19.79535    20.689217    8142.3332    2489.5929    2135.5428    2539.0669   -50.496801    386.96916   -33.968137    -4858.339 
45247000    28.137277   -5201.5671    -5147.302   -5201.5671            0    1730.5729    19.975363    19.870105    20.653911    8197.7967    1672.7417    1724.0972    1794.8799   -156.74538   -6.5545853   -197.40138   -4940.4008 
45248000    29.316905   -5199.6333   -5143.0932   -5199.6333            0    2080.3584    19.898585    19.909344    20.614473    8166.7898    2714.8425    1452.3124    2073.9201    41.575488    219.69186    -96.75919   -4895.3136 
45249000    26.720951   -5199.9048   -5148.3712   -5199.9048            0    2184.7593    19.903935    19.930568    20.590172    8168.0539     2381.377     1646.641      2526.26   -265.29616    380.22818    100.72712   -4888.1168 
45250000    28.216431   -5195.0978     -5140.68   -5195.0978            0    1875.8516    19.914982    19.895064    20.610918    8166.2486    2172.3398    1337.1235    2118.0915    6.4703415    -381.6661    311.14875   -4917.2729 
Loop time of 330.525 on 64 procs for 250000 steps with 972 atoms

Performance: 130.701 ns/day, 0.184 hours/ns, 756.372 timesteps/s
195.2% CPU use with 32 MPI tasks x 2 OpenMP threads

MPI task timing breakdown:
Section |  min time  |  avg time  |  max time  |%varavg| %total
---------------------------------------------------------------
Pair    | 23.449     | 33.839     | 43.838     |  80.0 | 10.24
Bond    | 1.043      | 1.1939     | 1.3576     |   7.5 |  0.36
Kspace  | 141.2      | 151.4      | 162.67     |  39.2 | 45.81
Neigh   | 0.07122    | 0.079078   | 0.085858   |   1.5 |  0.02
Comm    | 56.842     | 61.4       | 65.292     |  31.6 | 18.58
Output  | 0.50172    | 0.50203    | 0.50364    |   0.0 |  0.15
Modify  | 67.75      | 69.075     | 70.396     |   7.7 | 20.90
Other   |            | 13.03      |            |       |  3.94

Nlocal:        30.3750 ave          36 max          23 min
Histogram: 2 1 2 3 4 5 4 4 4 3
Nghost:        2667.41 ave        2692 max        2640 min
Histogram: 2 1 1 4 5 8 3 4 1 3
Neighs:        9649.47 ave       12612 max        7105 min
Histogram: 3 1 5 3 8 2 4 3 1 2

Total # of neighbors = 308783
Ave neighs/atom = 317.67798
Ave special neighs/atom = 2.0000000
Neighbor list builds = 250
Dangerous builds = 0

unfix		3
unfix		2
unfix		1

write_data	data.final.${pid}
write_data	data.final.1
System init for write_data ...
PPPM initialization ...
  extracting TIP4P info from pair style
  using 12-bit tables for long-range coulomb (../kspace.cpp:340)
  G vector (1/distance) = 0.37171802
  grid = 24 24 24
  stencil order = 5
  estimated absolute RMS force accuracy = 0.0035690397
  estimated relative force accuracy = 1.0748057e-05
  using double precision FFTW3
  3d grid and FFT values/proc = 3211 432
Last active /omp style is kspace_style pppm/tip4p/omp
WARNING: Not all mixed pair coeffs generated from mixing. Use write_data with 'pair ij' option to store all pair coeffs. (../write_data.cpp:312)

write_restart   restart.lmp.${pid}
write_restart   restart.lmp.1
System init for write_restart ...
PPPM initialization ...
  extracting TIP4P info from pair style
  using 12-bit tables for long-range coulomb (../kspace.cpp:340)
  G vector (1/distance) = 0.37171802
  grid = 24 24 24
  stencil order = 5
  estimated absolute RMS force accuracy = 0.0035690397
  estimated relative force accuracy = 1.0748057e-05
  using double precision FFTW3
  3d grid and FFT values/proc = 3211 432
Last active /omp style is kspace_style pppm/tip4p/omp
Total wall time: 0:05:30
