LAMMPS (30 Jul 2021)
  using 1 OpenMP thread(s) per MPI task
package omp 0
using multi-threaded neighbor list subroutines
echo both

include		in.partitions
variable        pid world 0
include		in.temp
variable        temperature equal 240.08
variable	tempDamp equal 100.0
include		in.pressure
variable        pressure equal 2125.0
variable        pressureDamp equal 1000.0 # This is 1 ps
include		in.seed
variable        seed world 745823

units		real
atom_style	full
box tilt large
read_restart	restart.lmp.${pid}
read_restart	restart.lmp.0
Reading restart file ...
  restart file = 30 Jul 2021, LAMMPS = 30 Jul 2021
  restoring atom style full from restart
  triclinic box = (-10.749075 -9.2925393 -0.11563350) to (12.729075 12.282537 21.975633) with tilt (-9.0156404 2.2477529 3.0274434)
  4 by 4 by 4 MPI processor grid
  restoring pair style lj/cut/tip4p/long/omp from restart
  restoring bond style harmonic/omp from restart
  restoring angle style harmonic/omp from restart
  1296 atoms
  864 bonds
  432 angles
Finding 1-2 1-3 1-4 neighbors ...
  special bond factors lj:    0        0        0       
  special bond factors coul:  0        0        0       
     2 = max # of 1-2 neighbors
     1 = max # of 1-3 neighbors
     1 = max # of 1-4 neighbors
     2 = max # of special neighbors
  special bonds CPU = 0.007 seconds
  read_restart CPU = 0.024 seconds
include 	in.setup
variable	out_freq equal 1000
variable	out_freq2 equal 10000
variable	out_freq3 equal 1000

timestep	2.0

neigh_modify    delay 7 every 1

include		in.tip4p
# This is TIP4P/Ice

# create groups ###
group ox type 2
432 atoms in group ox
group hy type 1
864 atoms in group hy

# set charges - beside manually ###
set group ox charge -1.1794
Setting atom values ...
  432 settings made for charge
set group hy charge 0.5897
Setting atom values ...
  864 settings made for charge

# ### TIP3P Potential Parameters ###
pair_style lj/cut/tip4p/long/omp 2 1 1 1 0.1577 8.5
pair_coeff 1 1*2 0.000 0.000
pair_coeff 2 2 0.21084 3.1668
bond_style  harmonic
bond_coeff  1 450 0.9572
angle_style harmonic
angle_coeff 1 55 104.52
kspace_style pppm/tip4p/omp 1.0e-5
pair_modify tail yes

thermo          ${out_freq}
thermo          1000
thermo_style    custom step temp pe etotal epair emol press lx ly lz vol pxx pyy pzz pxy pxz pyz enthalpy

restart 	${out_freq3} restart.lmp.${pid} restart2.lmp.${pid}
restart 	1000 restart.lmp.${pid} restart2.lmp.${pid}
restart 	1000 restart.lmp.0 restart2.lmp.${pid}
restart 	1000 restart.lmp.0 restart2.lmp.0


include         in.dump
dump            myDump all atom ${out_freq2} dump.water.${pid}
dump            myDump all atom 10000 dump.water.${pid}
dump            myDump all atom 10000 dump.water.0
dump            myDump2 all dcd ${out_freq2} dump.dcd
dump            myDump2 all dcd 10000 dump.dcd
dump_modify     myDump append yes
dump_modify     myDump2 append yes


variable natoms 	equal  "count(all)"                        # NUMBER ATOMS
variable H      	equal  "enthalpy/v_natoms"                 # ENTHALPY-per-atom
variable Vol      	equal  "vol/v_natoms"                 # volume-per-atom
fix AVG all 		ave/time ${out_freq} 1 ${out_freq} v_Vol v_H file vol_enthalpy.dat
fix AVG all 		ave/time 1000 1 ${out_freq} v_Vol v_H file vol_enthalpy.dat
fix AVG all 		ave/time 1000 1 1000 v_Vol v_H file vol_enthalpy.dat


timer           timeout 10:00:00 every 1000
New timer settings: style=normal  mode=nosync  timeout=10:00:00

fix 		1 all shake 1e-6 200 0 b 1 a 1
       0 = # of size 2 clusters
       0 = # of size 3 clusters
       0 = # of size 4 clusters
     432 = # of frozen angles
  find clusters CPU = 0.015 seconds
fix             2 all nph tri ${pressure} ${pressure} ${pressureDamp}
fix             2 all nph tri 2125 ${pressure} ${pressureDamp}
fix             2 all nph tri 2125 2125 ${pressureDamp}
fix             2 all nph tri 2125 2125 1000
fix             3 all temp/csvr ${temperature} ${temperature} ${tempDamp} ${seed}
fix             3 all temp/csvr 240.08 ${temperature} ${tempDamp} ${seed}
fix             3 all temp/csvr 240.08 240.08 ${tempDamp} ${seed}
fix             3 all temp/csvr 240.08 240.08 100 ${seed}
fix             3 all temp/csvr 240.08 240.08 100 745823


run             250000
PPPM initialization ...
  extracting TIP4P info from pair style
  using 12-bit tables for long-range coulomb (../kspace.cpp:340)
  G vector (1/distance) = 0.37597825
  grid = 30 40 36
  stencil order = 5
  estimated absolute RMS force accuracy = 0.0027925208
  estimated relative force accuracy = 8.4095935e-06
  using double precision FFTW3
  3d grid and FFT values/proc = 5472 750
Last active /omp style is kspace_style pppm/tip4p/omp
Neighbor list info ...
  update every 1 steps, delay 7 steps, check yes
  max neighbors/atom: 2000, page size: 100000
  master list distance cutoff = 10.8154
  ghost atom cutoff = 10.8154
  binsize = 5.4077, bins = 7 5 5
  1 neighbor lists, perpetual/occasional/extra = 1 0 0
  (1) pair lj/cut/tip4p/long/omp, perpetual
      attributes: half, newton on, omp
      pair build: half/bin/newton/tri/omp
      stencil: half/bin/3d/tri
      bin: standard
Per MPI rank memory allocation (min/avg/max) = 9.445 | 9.458 | 9.467 Mbytes
Step Temp PotEng TotEng E_pair E_mol Press Lx Ly Lz Volume Pxx Pyy Pzz Pxy Pxz Pyz Enthalpy 
 4500000    242.08671   -6302.3091   -5679.5558   -6302.3091            0    1330.3511    23.478149    21.575077    22.091266    11190.173    1605.9453    1578.7145     806.3934   -681.99655    281.97539   -549.66211   -5462.4462 
 4501000    241.06152   -6343.5834   -5723.4674   -6343.5834            0    1247.6416    23.509954    21.620385    21.882593    11122.796    2199.8935    910.54981    632.48153    501.47911   -288.83089   -1.6137014   -5521.0817 
 4502000    234.23818    -6319.583   -5717.0195    -6319.583            0    2147.2463    23.562406    21.656752    21.709346    11077.958    2162.1549    1353.5973    2925.9867    1152.7216     108.0859   -149.52844    -5370.109 
 4503000    234.29875   -6322.8027   -5720.0835   -6322.8027            0    2127.1769     23.50696    21.580242    21.861216    11089.886    3164.9498    1473.7538    1742.8272    22.512746    511.64371   -501.69539   -5376.0453 
 4504000    226.35779   -6338.4671   -5756.1754   -6338.4671            0     329.1017    23.464488     21.61808    22.058701    11189.434     815.9994    646.65029    -475.3446    1003.5658   -384.26993   -978.31982   -5702.4705 
 4505000    229.65328    -6320.963    -5730.194    -6320.963            0    901.77019    23.597451    21.570741     21.89957    11147.199    655.78532    606.20614    1443.3191   -580.03376    29.587311    661.57128   -5583.5928 
 4506000    241.90912   -6328.1794   -5705.8829   -6328.1794            0    1976.3218     23.42069    21.706276    21.769992     11067.34    2536.7636    535.95286    2856.2489   -108.03834    526.19201     1019.608   -5386.8931 
 4507000    238.85639   -6347.5469   -5733.1034   -6347.5469            0    2423.5355    23.466811    21.442189    21.956353    11047.993    2316.4223    3235.5262    1718.6579    228.42431     406.3049    201.71832   -5342.6145 
 4508000    244.82811   -6345.7458   -5715.9404   -6345.7458            0    1301.9865     23.39617    21.761087    21.807698    11102.868    2025.9874    301.20038    1578.7718    348.83548     905.3889   -103.41332   -5505.1176 
 4509000    251.40545   -6327.6314   -5680.9062   -6327.6314            0    1791.0032    23.526453    21.505178    21.944783    11102.756    1754.3504    2105.3815    1513.2776   -75.349845    5.6811824   -1026.4502   -5390.9028 
 4510000    244.22192   -6336.0836   -5707.8376   -6336.0836            0    2727.2403    23.273785     21.68154    21.888098    11044.986    4296.7954    1794.6725     2090.253    781.60636   -469.56285    49.387303   -5268.5343 
 4511000    240.87792   -6340.6982   -5721.0545   -6340.6982            0    2199.5761    23.573271    21.397355    21.998054    11095.943    1991.1974    2178.0584    2429.4726    316.84165    436.41071    969.50536   -5365.1126 
 4512000    249.69186   -6326.2305   -5683.9133   -6326.2305            0    1618.6278     23.35174    21.714251    21.964982    11137.686    1821.0676    1042.1294    1992.6864   -746.04048    486.43183    177.86141   -5420.9969 
 4513000    240.86793   -6311.0799   -5691.4618   -6311.0799            0    2198.0492    23.814866     21.35732    21.810661    11093.376    156.29872    3185.1915    3252.6573    -424.3896    1110.5803    208.55613   -5335.8493 
 4514000    233.04865   -6351.6188   -5752.1153   -6351.6188            0    2735.5747    23.291256    21.749748    21.788013    11037.349    3276.6723    1413.4225    3516.6292    1044.9366     260.4026   -406.43151   -5311.7742 
 4515000    239.36592   -6331.5113   -5715.7571   -6331.5113            0    1801.4001    23.643969    21.395929    22.008194    11133.608    1682.7586    2714.2298     1007.212    703.88625    434.21188    337.81018   -5423.2597 
 4516000    245.49472   -6355.2485   -5723.7283   -6355.2485            0     1718.366    23.291332    21.690263    21.969547    11098.908    2764.2777    1794.6592    596.16116    482.01331   -839.39896   -395.62295   -5445.5829 
 4517000    247.17458   -6354.6728   -5718.8312   -6354.6728            0    2731.4164    23.682306    21.484577    21.725744    11054.153    1193.8559    3349.3433      3651.05   -290.51824   -244.60967   -392.95052   -5278.4901 
 4518000    231.73578   -6353.6088   -5757.4826   -6353.6088            0    1151.3896    23.437236    21.672001    21.926503    11137.168    1515.4954    688.43514    1250.2383   -322.85284      327.967    24.130784   -5570.4691 
 4519000    235.47258    -6337.665   -5731.9262    -6337.665            0    2078.6901    23.513184    21.449988    21.961102    11076.247    2224.2544    1963.1137    2048.7023    601.30819    67.424055    714.09224   -5396.1435 
 4520000    243.74406   -6363.3154   -5736.2987   -6363.3154            0    3435.4621    23.398942    21.533312    21.827289    10997.826    2999.9661    3668.1548    3638.2654    36.204694    1561.0394   -666.81173    -5185.278 
 4521000    235.53383   -6353.6822   -5747.7857   -6353.6822            0    3595.0167    23.410264    21.530028    21.835053    11005.382    3355.7753    3144.9948    4284.2801   -240.82767    1225.1476    194.34949   -5170.7776 
 4522000     231.9267   -6304.1372     -5707.52   -6304.1372            0     1428.471    23.554006    21.587235    21.900458    11135.635   -157.61824    1418.9127    3024.1186   -509.88444    658.71681   -500.50215   -5475.5337 
 4523000    238.50583   -6355.1898   -5741.6481   -6355.1898            0    1054.6088    23.435415    21.679325    21.922503    11138.034     1035.148    606.81502    1521.8633   -672.46043   -319.73585    934.18599   -5570.3408 
 4524000     258.1616   -6325.8848   -5661.7798   -6325.8848            0    1829.4552    23.457907    21.517951    22.020264    11115.083    1622.5012    1320.2915    2545.5728    1589.0072   -567.90743    448.80623   -5365.2213 
 4525000    249.15493   -6329.5599    -5688.624   -6329.5599            0    3586.6936    23.509204    21.425451    21.944685    11053.435    1144.7269    4676.9203    4938.4336    1361.2828    429.49715    635.71252   -5110.4382 
 4526000    246.03814   -6319.4887   -5686.5706   -6319.4887            0    2930.4333     23.37131    21.639087    21.913929    11082.615    4147.2769    1537.6151    3106.4077    483.46769   -792.52334   -31.472572   -5212.9288 
 4527000     246.3811   -6339.4004      -5705.6   -6339.4004            0    2088.3234    23.476258    21.569896    21.896138    11087.776    3114.6756    1562.2205    1588.0742     60.46237   -1365.7254   -164.97335   -5367.9101 
 4528000    235.36334   -6357.4965   -5752.0386   -6357.4965            0    1217.2753    23.612309    21.565052    21.851434    11126.765    853.73344    1567.9836    1230.1088    -168.3332   -673.00549   -158.28525   -5554.5084 
 4529000    239.25205   -6359.9138   -5744.4525   -6359.9138            0     621.4181    23.533665    21.702407    21.789378    11128.645   -29.500711    121.16994    1772.5851    180.56286    46.201218    1819.8542   -5643.5964 
 4530000    252.46372   -6327.6076     -5678.16   -6327.6076            0    2237.8795    23.587354    21.534609    21.850387    11098.782      2455.35    1797.3731    2460.9154    281.98319   -402.36069    108.26387   -5315.9271 
 4531000    248.98989   -6333.7179   -5693.2066   -6333.7179            0    495.82646    23.433175    21.748754    21.961384    11192.452    818.70639   -1609.9013    2278.6742   -1943.5056    309.72728    1063.3747   -5612.2726 
 4532000    244.04532   -6338.7497   -5710.9579   -6338.7497            0    2453.4614    23.537393    21.546084      21.8116    11061.506    1806.8712    3901.6335    1651.8794    -190.7259     462.5003   -569.32036   -5315.1638 
 4533000    242.40488   -6346.0842   -5722.5125   -6346.0842            0    2795.7931    23.403867    21.611461     21.81969     11036.22    1539.3675    3090.8047    3757.2069   -311.58932    791.51866   -261.36128   -5272.5241 
 4534000    247.51676   -6374.1912   -5737.4694   -6374.1912            0    1005.1606    23.488063    21.433009    22.019458    11085.033    561.93241    1639.8559    813.69347    457.25229    1567.7502    840.23145   -5574.9713 
 4535000    241.39805    -6377.287   -5756.3053    -6377.287            0     1785.721    23.350272    21.631529    21.859596    11041.327     1970.211    1170.0163    2216.9356   -638.44569   -342.09088   -428.29352    -5468.757 
 4536000    239.19706   -6360.3871   -5745.0672   -6360.3871            0    2447.1173    23.487333    21.591592    21.850904    11081.225    1758.1138    3437.3992    2145.8388    301.93355   -660.53384   -690.20258   -5349.5927 
 4537000    240.45479   -6331.6755   -5713.1203   -6331.6755            0    2300.7211    23.276128    21.676627     21.96586    11082.829    2330.7694    2980.6032    1590.7906    287.28051    823.16778    102.13551   -5341.2508 
 4538000    241.38345   -6342.5299   -5721.5857   -6342.5299            0    1809.8636    23.639251    21.441184    21.883333    11091.644    120.77206    3502.5381    1806.2805    1228.3709    329.25289   -837.33626   -5428.8217 
 4539000    242.22774   -6342.6204   -5719.5043   -6342.6204            0    2660.1071    23.318021    21.831595    21.737797    11066.052    2641.0803    1984.7529    3354.4882    390.95001    -154.5957    449.22512   -5290.1975 
 4540000    238.77208   -6346.8267   -5732.6001   -6346.8267            0    1852.4188    23.612275    21.484833     21.88053     11100.12    1505.8528    2620.1507    1431.2529   -758.53087     122.5911   -184.64098   -5432.7234 
 4541000    241.90699   -6369.4902   -5747.1992   -6369.4902            0    1215.2121    23.371005    21.743435    21.904663    11131.203    1963.5268    367.85045    1314.2591   -179.02524   -829.14535   -562.87916   -5549.9251 
 4542000     228.7154   -6318.3485   -5729.9921   -6318.3485            0    2541.2651    23.656517    21.417609    21.865401    11078.456    1474.3436    3943.7559     2205.696    268.35339     825.7337   -596.12845   -5319.4052 
 4543000    240.24242   -6325.9761   -5707.9671   -6325.9761            0     3129.129    23.357677    21.653625    21.785755    11018.764    1843.0604     3758.817    3785.5096    1031.0267    -203.9066    296.14056   -5205.1243 
 4544000    254.28824    -6371.281     -5717.14    -6371.281            0    2935.9932    23.435272    21.420635    21.950813    11019.273    1704.9492    4771.7472     2331.283    657.14835   -555.72151   -416.22152   -5245.3118 
 4545000    227.74381   -6376.2635   -5790.4064   -6376.2635            0    1975.8931    23.300019    21.708192    21.845331    11049.397     3381.615    1025.5013    1520.5631   -1683.8498   -1065.7357    135.12721   -5472.0029 
 4546000     244.2214   -6339.0471   -5710.8025   -6339.0471            0    2369.8195    23.472645    21.479371    21.925118    11054.155    2666.0161     1363.186    3080.2562   -1089.1381    145.47172    291.90789   -5328.7555 
 4547000    226.64658   -6335.0601   -5752.0255   -6335.0601            0    2960.0906    23.426015    21.541967    21.902356    11052.858    2568.2139    3549.5994    2762.4583    1971.1427    482.09789    126.76989   -5274.8749 
 4548000    251.30248   -6353.1095   -5706.6491   -6353.1095            0    2028.4826    23.416829    21.530499    22.038538    11111.302    2338.0524    1883.6128    1863.7827   -184.12128    1607.2919    -738.2069   -5377.9397 
 4549000    240.96227   -6325.7376   -5705.8768   -6325.7376            0    2177.7295    23.484039    21.567777    21.901226    11092.938    2373.4624    1549.4656    2610.2606   -130.22757    65.468744   -734.78237   -5353.5656 
 4550000    251.38013   -6371.1587   -5724.4986   -6371.1587            0    3297.1503    23.404117    21.566136    21.852593    11029.799     2078.867    4966.4694    2846.1144     567.3862    980.89539   -397.33454   -5194.1246 
 4551000    236.81003   -6302.0199   -5692.8405   -6302.0199            0    2333.4225    23.488698    21.522762    21.940237    11091.704    2672.0824    2897.0497    1431.1355   -194.66456   -1003.4079   -353.73114   -5315.3835 
 4552000    235.50681   -6352.3825   -5746.5556   -6352.3825            0    1342.4247    23.619845    21.558099    21.833839    11117.768    496.72133    478.46512    3052.0876   -41.063506   -1103.2132    1339.2048   -5528.8932 
 4553000    236.06415   -6351.6605   -5744.3999   -6351.6605            0    2633.5803     23.41925    21.594012    21.824131    11036.803    4520.9844    804.53475    2575.2217   -1341.5427   -2074.8549    80.641202   -5320.4976 
 4554000    246.72181   -6339.2144   -5704.5376   -6339.2144            0      2067.13    23.415244    21.506302    22.098083    11128.049    3403.8311    2385.6107     411.9483    477.58529   -898.67456   -1166.0112   -5369.0606 
 4555000    247.07746   -6341.7944   -5706.2027   -6341.7944            0    2323.1654    23.491663    21.561075    21.826542    11055.264    1742.0024    2948.8628    2278.6311    855.82558    422.71179   -1546.3566   -5331.6394 
 4556000    248.07484   -6323.3224    -5685.165   -6323.3224            0    2330.0951    23.551938    21.587396    21.821428    11094.559    880.89435    3480.4412    2628.9497   -457.76613    720.52247   -77.387335   -5308.1492 
 4557000    237.34741    -6332.059   -5721.4972    -6332.059            0    2969.4498     23.43096    21.527478    21.932985    11063.205    2283.1861    3904.7195    2720.4436   -717.38147     182.5248       147.46   -5242.3899 
 4558000    245.14675   -6356.8497   -5726.2246   -6356.8497            0     2805.924    23.414765    21.529975    21.916045    11048.301    1507.3924    3068.4994    3841.8802    -84.02812    441.88839    500.66876   -5274.1113 
 4559000    234.99473   -6312.5507   -5708.0411   -6312.5507            0    1649.1496    23.509233    21.513292    21.988115    11120.731    1365.7438    2378.1992    1203.5058   -841.19857    926.68324    681.83038   -5440.5746 
 4560000    238.07867   -6365.9862   -5753.5433   -6365.9862            0    1552.4499    23.491533      21.6698    21.801455    11098.179    2711.8637    413.76934    1531.7166    519.22907   -549.48228    134.06173   -5502.2707 
 4561000       246.21   -6361.2247   -5727.8645   -6361.2247            0    2003.0728    23.620402    21.606644    21.772053    11111.533    2267.8014    1719.4273    2021.9898    760.59877    229.52998   -306.04621   -5403.2659 
 4562000    243.71507   -6338.4289   -5711.4868   -6338.4289            0    2081.6356    23.448581    21.599685    21.940271    11112.352    1418.1922    1696.2604    3130.4543    638.64241   -960.84659   -87.560375   -5374.1322 
 4563000    252.02085   -6324.2142   -5675.9059   -6324.2142            0    1982.9172    23.476679    21.416726    22.170611    11147.241    1220.3336    3818.2358    910.18229    1743.3559   -483.31654     863.9202   -5353.5409 
 4564000    233.74953   -6329.4228   -5728.1164   -6329.4228            0    1005.1195    23.467489    21.706207    21.860797    11135.676    1191.1903    761.13953    1063.0286     647.6377   -772.95219    1413.0166   -5564.8825 
 4565000    239.94993   -6394.4867   -5777.2301   -6394.4867            0    898.04747    23.670304    21.493129    21.872987    11127.858     222.6809    1476.9622    994.49935    -805.3653    676.64795  -0.26170317   -5631.4874 
 4566000    240.19858   -6307.4839   -5689.5877   -6307.4839            0    2759.8334     23.38399    21.740896     21.78298    11074.225    2258.8977     2471.878    3548.7246   -1399.4104    562.66577   -54.003308   -5243.8574 
 4567000    233.03082   -6357.4534   -5757.9958   -6357.4534            0    2115.2442    23.520432    21.513971    21.890682    11077.077    1341.9406    2017.7186    2986.0736    814.31998    538.65204    880.28137   -5416.2828 
 4568000    234.95856   -6341.6988   -5737.2822   -6341.6988            0    1762.2096    23.460649    21.485711    22.069988     11124.79    628.90759    3141.5825    1516.1388    1348.2011    1349.9785     697.2168   -5451.3749 
 4569000    222.69173    -6339.668   -5766.8071    -6339.668            0    1756.9329     23.47442    21.533163    21.973104    11106.932    789.91703     2848.628    1632.2536   -759.18026    682.17982    475.00107   -5482.2134 
 4570000    236.74025   -6340.7318   -5731.7319   -6340.7318            0    1861.4513    23.426473    21.660295    21.855863    11090.196      2365.51    1485.5418     1733.302    -1086.364   -172.58582   -254.77218   -5430.6624 
 4571000     233.8159   -6316.2472   -5714.7701   -6316.2472            0    1709.6553    23.578168    21.509431    21.852882    11082.754    1234.7105    1436.0406    2458.2148      587.499   -33.324868     968.9681   -5438.4375 
 4572000     255.9869   -6312.6274   -5654.1167   -6312.6274            0     1810.579    23.366961     21.67006    22.002118    11141.069      2346.02    1699.4913    1386.2257     148.3233    824.98129    721.97662   -5359.9319 
 4573000    228.51749   -6338.0594   -5750.2121   -6338.0594            0    1214.1598    23.524676    21.414373    22.118195    11142.398    1594.4982     2138.935   -90.953858     876.3404    683.24404   -133.25437   -5552.9106 
 4574000     245.8458   -6360.4223    -5727.999   -6360.4223            0    1769.0434    23.413721    21.748288    21.803112    11102.327    2388.1956    983.81385    1935.1208    38.059228    833.63108    102.65041   -5441.5624 
 4575000    242.50147   -6350.2105   -5726.3903   -6350.2105            0    2273.0898    23.601186    21.506503    21.817019    11073.861    2738.0617    1283.3388    2797.8687   -37.586865   -1053.5301    512.90151   -5359.2842 
 4576000    245.46422   -6357.2083   -5725.7666   -6357.2083            0    3374.9029    23.247956    21.684151    21.887776    11033.895    4686.3295    2596.2191    2842.1601   -491.12049   -1464.3974   -500.25637   -5182.6838 
 4577000    235.92478   -6349.7963   -5742.8942   -6349.7963            0    2081.6983    23.430932    21.480504    21.935812    11040.475    2600.8847    1550.7829    2093.4272   -16.728486   -234.09202    932.07693   -5407.7116 
 4578000    245.76441   -6310.1756   -5677.9616   -6310.1756            0    1949.4438    23.469375    21.642119    21.824013    11085.006    1499.7176     2062.548    2286.0659   -196.10453    1468.0479    558.74371   -5362.8078 
 4579000    237.01207   -6366.4372   -5756.7381   -6366.4372            0    3137.4862    23.454116    21.595729    21.720447    11001.596    2381.3979    3432.6546    3598.4061    48.679686    878.90194    447.08375   -5253.3379 
 4580000    259.41497   -6355.5235   -5688.1943   -6355.5235            0    1317.1653    23.513039    21.574654    21.887054    11102.989    3265.3596   -184.26569    870.40216   -652.14118   -993.20392   -926.70933   -5474.9114 
 4581000    243.33832   -6365.1199   -5739.1469   -6365.1199            0    2074.8497    23.291219      21.5046    22.127585    11083.007    2459.2034    2490.1564    1275.1893    1518.8405   -494.11648   -179.49996   -5403.7801 
 4582000     229.9941   -6326.1596   -5734.5138   -6326.1596            0    2163.0029     23.44468    21.604483    21.909212    11097.239    1506.1192    1906.0719    3076.8176     1299.465   -110.54689    1143.9763   -5384.4494 
 4583000     236.2168   -6336.5501   -5728.8968   -6336.5501            0    2729.1916    23.548318    21.587168    21.726495    11044.478    2222.0395     2709.534    3256.0014    72.944481    359.94251    1033.4928   -5289.2994 
 4584000    255.47372   -6327.0235   -5669.8329   -6327.0235            0    2666.6253    23.443273    21.684507    21.800768    11082.547    2190.3835    3642.5218    2166.9707     361.9788   -165.24844   -1107.3895   -5238.8327 
 4585000     235.6458   -6345.3026   -5739.1181   -6345.3026            0    2282.8865    23.478528    21.537398     21.89002    11069.048    1744.1959    2243.9401    2860.5234   -1186.7077    885.21929   -837.42508   -5370.5901 
 4586000    236.09908   -6351.5694   -5744.2189   -6351.5694            0    3218.4535     23.48126     21.56379    21.719157    10997.386    2458.8931    2745.5461    4450.9214    730.58724    754.01498    65.669335   -5228.0253 
 4587000    240.87431   -6370.2303   -5750.5959   -6370.2303            0    2373.1354    23.522758    21.329738    21.984195    11030.224    1297.3433    4209.2154    1612.8477     1639.273    971.82593   -203.66137   -5368.8426 
 4588000    237.71638   -6330.6392   -5719.1283   -6330.6392            0    1614.8676    23.367976    21.677939    22.014348    11151.798    2796.0883    526.48249    1522.0319    219.31102   -1246.8638    143.40906   -5456.4902 
 4589000    224.36452   -6350.4869   -5773.3229   -6350.4869            0    2383.5403    23.515602    21.478114    21.908846    11065.518    2471.1718     2445.148     2234.301   -1281.0055   -1021.2924    802.61088    -5388.669 
 4590000    244.04453   -6373.9498   -5746.1601   -6373.9498            0    1674.5192    23.406056    21.720319    21.792385    11078.965    1336.5985    947.20179    2739.7572   -1873.4323    845.38676    719.55626   -5475.5991 
 4591000    237.00447   -6368.5011   -5758.8216   -6368.5011            0    1834.0546    23.495236    21.625559    21.767427    11059.978    1248.7019    1277.3594    2976.1026    168.39124    667.65581   -439.79745   -5462.9914 
 4592000    241.72628    -6348.143   -5726.3169    -6348.143            0    2020.9831    23.487549    21.328735    22.059349    11050.845    1780.2213    2511.3264    1771.4018    2034.8758    387.34238    1113.5886   -5400.6046 
 4593000     241.4159   -6348.4602   -5727.4325   -6348.4602            0    2077.8535    23.351085     21.65029    21.989394    11116.909    2470.5816    1317.4741    2445.5047    672.34327    -137.3986    273.53198   -5390.5528 
 4594000    237.65762   -6327.3044   -5715.9447   -6327.3044            0    2096.7007    23.592107    21.568486    21.849373    11117.967    2562.8442    2093.4653    1633.7925   -1632.4357   -316.89159    -1103.595   -5375.9769 
 4595000    236.49678   -6376.1485    -5767.775   -6376.1485            0    2020.9505    23.413887    21.636106    21.828015    11057.752    2373.4575     1760.963    1928.4311    48.181646    325.21276   -172.40038   -5441.8644 
 4596000    235.68747   -6307.9162   -5701.6245   -6307.9162            0    2956.5892    23.390286    21.400156    22.131332    11077.966    2738.2826    3720.5572    2410.9277   -13.083156    986.55225    854.47941   -5223.9557 
 4597000    248.08668    -6366.121   -5727.9331    -6366.121            0    2854.9976    23.300141    21.484833    22.018536    11022.471    3551.1448    3005.5261    2008.3219     -634.558    270.48019    536.16062   -5268.9881 
 4598000    229.22418   -6353.6664   -5764.0012   -6353.6664            0    2914.4141    23.543401    21.599334    21.742919    11056.748    3405.9682    1614.4441    3722.8299   -201.51222   -1397.1873   -248.12862   -5294.0481 
 4599000    247.21981   -6352.9486   -5716.9907   -6352.9486            0    2136.9338    23.610477    21.582804    21.830825    11124.559    1052.1279    2509.3191    2849.3544   -155.12598   -20.927543   -466.12866    -5370.294 
 4600000    237.36986   -6361.8459   -5751.2264   -6361.8459            0    2612.9413    23.271224    21.544279    22.023913    11041.948      2235.53    3091.4041    2511.8897    1719.8906    189.45388    559.93584   -5330.4502 
 4601000    234.68334   -6359.6638   -5755.9552   -6359.6638            0    2588.1774    23.476448    21.534031    21.864867    11053.621    3087.5622    2844.4626    1832.5075    53.387894    156.31362   -281.31319   -5338.7262 
 4602000    237.09758   -6338.2113   -5728.2922   -6338.2113            0    1077.4375    23.540469    21.625524    21.913792    11155.764    653.11736      890.438    1688.7573     1196.426     156.8147   -460.60107   -5552.9981 
 4603000    231.21714   -6289.1721   -5694.3801   -6289.1721            0    1679.7069     23.56464    21.605367    21.938378    11169.326    997.93173    2612.1655    1429.0234   -301.62663    540.94765   -58.571265   -5420.7674 
 4604000    242.56632   -6349.6788   -5725.6918   -6349.6788            0    2608.2814    23.484681    21.456927    21.958792    11065.235     3371.964    2768.0637    1684.8165   -609.60054    321.73177    548.17458   -5304.7801 
 4605000    248.84493   -6347.7068   -5707.5683   -6347.7068            0    2587.1517    23.389502    21.678946    21.822615     11065.37     3167.857    1534.7098    3058.8883    245.98068    673.12574    17.141714   -5290.0614 
 4606000    241.86335   -6361.9395   -5739.7607   -6361.9395            0    2271.3374    23.567613    21.489502    21.796193    11038.819     1949.557    2112.3736    2752.0816   -309.12906      -699.18    62.932974   -5374.0985 
 4607000    236.05545   -6342.8654   -5735.6272   -6342.8654            0    2230.3166    23.292774    21.642008    21.946633    11063.351    2210.7441    2202.0118     2278.194    280.14765    497.05269    235.68862   -5375.7709 
 4608000    235.68099   -6338.3259   -5732.0509   -6338.3259            0    2315.6986    23.558726    21.473414    21.876783    11067.165    2038.1555    2491.9554     2416.985   -294.93789    1122.2873   -825.62895   -5358.2897 
 4609000    235.68853   -6353.5819   -5747.2875   -6353.5819            0    2360.6436    23.349187    21.697022    21.907618    11098.571    3283.8583    1882.2686    1915.8039   -1759.3841     423.0299   -804.70719   -5365.1907 
 4610000    236.12134   -6347.2435   -5739.8358   -6347.2435            0    1410.0931    23.607145    21.504714    21.885517    11110.509    1098.8099    2390.8678    740.60161    509.31232   -7.7617346   -639.96891   -5511.3508 
 4611000    239.56812   -6330.9506   -5714.6762   -6330.9506            0    779.96674    23.397071    21.743361    21.897456    11139.914    151.89251    628.00211    1560.0056   -87.323416   -789.52564    740.92135   -5587.9595 
 4612000    231.33216   -6321.3653   -5726.2774   -6321.3653            0    2531.4784    23.637806     21.39273    21.931968    11090.496    1562.8503    2357.5325    3674.0525    47.063127    -204.0591    219.66445   -5316.8272 
 4613000    236.83515   -6329.7798   -5720.5358   -6329.7798            0    3776.4999    23.323328    21.552908    21.862002    10989.712    4518.9288    4437.0998     2373.471    767.83417   -394.47029   -961.21689   -5115.2623 
 4614000    243.45721   -6334.7789      -5708.5   -6334.7789            0    3229.5597    23.494855    21.465218    21.850814     11019.85    3282.3059    4185.4676    2220.9056     604.3585   -1332.5428   -1305.3928   -5189.4671 
 4615000    241.26024   -6331.5338   -5710.9065   -6331.5338            0    2427.8768    23.350569    21.609454     21.97058    11086.202     3103.166    1922.8512    2257.6133   -161.40113   -545.66456   -125.38661   -5318.3652 
 4616000    235.24833   -6368.5906   -5763.4286   -6368.5906            0    1160.5233    23.465436     21.67326    21.881869    11128.517     1243.816    713.42702     1524.327   -258.72542    -541.0295    1008.1798    -5575.078 
 4617000    229.82632   -6379.0677   -5787.8535   -6379.0677            0     509.7711    23.523235    21.654001    21.887943    11149.109    497.37729    610.52438    421.41162   -372.32337   -409.48814   -113.01048   -5704.9656 
 4618000    229.44041   -6346.0725    -5755.851   -6346.0725            0    1103.8011    23.402488    21.589673     22.04346    11137.503    850.41148    2533.7951   -72.803324    832.53929   -33.286969   -581.81207   -5576.5617 
 4619000    235.31834   -6338.4151    -5733.073   -6338.4151            0    2951.3592    23.532545    21.479121    21.866549     11052.63    4893.9419    2512.1041    1448.0317    368.60229    116.42457   -306.34782   -5257.3397 
 4620000    242.84744    -6359.043   -5734.3327    -6359.043            0    1105.0927    23.474187    21.624854    21.862679    11098.061    1296.0497    591.92047     1427.308    986.52519   -510.56464    839.09924   -5555.4692 
 4621000    232.82366   -6336.1291   -5737.2044   -6336.1291            0    601.69208    23.666584    21.540671     21.90947    11169.319    671.58522    917.73899    215.75201    141.89593   -734.54986    380.42514   -5639.1929 
 4622000    243.36402   -6318.2624   -5692.2233   -6318.2624            0    1250.2825    23.500615    21.713348    21.832676    11140.713    687.21881    1204.3429    1859.2859   -255.38271   -157.41762   -242.14887   -5489.0825 
 4623000    240.84402   -6357.2212   -5737.6646   -6357.2212            0      992.956    23.523494    21.540981    21.931387    11113.053    956.57291    1172.5652    849.72991   -487.49082    403.32878   -384.92656   -5576.7338 
 4624000    242.91214    -6343.092   -5718.2153    -6343.092            0    2191.7506    23.283458    21.633957    22.073226    11118.578     4515.833    748.31725    1311.1015    664.91433   -92.831134    316.42027   -5362.8162 
 4625000    234.63414   -6297.7257   -5694.1437   -6297.7257            0    2862.2025    23.513198    21.372163    22.019674    11065.501    2510.0661    3756.6678    2319.8735   -314.94835    1050.1731   -1342.9875   -5232.2444 
 4626000    238.20874   -6348.9436   -5736.1661   -6348.9436            0    3018.9358     23.45096    21.612878    21.775687    11036.849    3330.8979     3145.997    2579.9125   -1397.2403   -795.26164   -772.48023   -5250.2348 
 4627000    242.08347   -6354.5477   -5731.8027   -6354.5477            0    1559.1654    23.550289    21.586831    21.856824    11111.487    872.44158     1330.652    2474.4025   -392.21721   -197.14779    360.65503   -5479.1405 
 4628000    243.98714   -6353.7024   -5726.0604   -6353.7024            0    3124.3869    23.273163    21.598523    21.878484    10997.569    4911.5648     1784.394    2677.2019    -1600.735   -73.600723    94.802998   -5224.9454 
 4629000    251.83741   -6330.3828   -5682.5464   -6330.3828            0    2506.5999    23.529085    21.631403    21.739175    11064.525    2479.0171    2098.5657     2942.217   -288.06991   -164.76136   -317.23971   -5278.0695 
 4630000    225.00402   -6352.2322   -5773.4231   -6352.2322            0    1464.2727     23.53775    21.472511    22.009956    11124.153    1212.5777    3154.1716    26.068872    52.468806    1140.0826   -1001.8907   -5535.8677 
 4631000    234.81131   -6366.4272   -5762.3894   -6366.4272            0    1589.6285    23.397993    21.663916    21.907111    11104.543    3064.6216    493.78363    1210.4802    799.01131    1040.5766   -1102.8692   -5504.9517 
 4632000    247.03321   -6332.5981   -5697.1202   -6332.5981            0    370.57673    23.663126    21.538742    21.888757     11156.13    113.10019    819.80854    178.82146    141.32974   -478.87696    261.32007   -5636.8271 
 4633000    248.37343   -6354.6684   -5715.7429   -6354.6684            0    1728.8446    23.436233    21.674127    21.835632    11091.625    1414.0945    1137.9881    2634.4512   -203.71705   -398.81839    1230.9162   -5436.0851 
 4634000    221.58866   -6337.0854    -5767.062   -6337.0854            0    1340.3901    23.590828    21.503602    21.936643    11128.191    1000.0836     1940.139    1080.9478    914.98623   -647.46586    471.51387   -5549.5258 
 4635000    239.61311   -6381.6611    -5765.271   -6381.6611            0    3781.0789    23.337776    21.612979     21.77677    10984.178    4475.4439    3040.5574    3827.2352   -1000.8713    208.94599   -494.73782   -5159.5687 
 4636000    252.96343   -6351.5435   -5700.8105   -6351.5435            0    1677.5928    23.592257    21.423981    21.883307      11060.7    279.92961    2681.2637     2071.585    1028.1648     1186.701    37.083433   -5430.1997 
 4637000    240.55297   -6350.6219   -5731.8141   -6350.6219            0    2386.0364    23.408254    21.591646    21.857465     11047.26    1939.3884     2437.499    2781.2217   -222.56258    994.70909    263.46353   -5347.3927 
 4638000    234.26308   -6362.4473   -5759.8198   -6362.4473            0    1172.3316    23.477741    21.551717    22.014873    11139.209      1810.55    954.63352    751.81124   -1210.3221    -204.2816   -88.706976   -5569.3699 
 4639000    232.76496   -6341.2908   -5742.5172   -6341.2908            0    3180.5157    23.434246    21.559567    21.853501    11041.092    2354.4167    3905.1402    3281.9903    101.17788    182.84598     598.1086    -5230.381 
 4640000    237.47029   -6331.7032   -5720.8253   -6331.7032            0    1895.7658    23.506686    21.642895    21.772202    11076.667    1564.7866     1107.837     3014.674   -539.30991   -932.81742     1087.066   -5414.5798 
 4641000    233.00507   -6342.6033   -5743.2119   -6342.6033            0     1319.026    23.595553    21.527094    21.880735    11114.181     542.0724     1178.764    2236.2417    537.98788   -270.29203    837.93245   -5529.4124 
 4642000    231.42881   -6322.3906   -5727.0541   -6322.3906            0    2653.4518    23.427899    21.603371     21.87672     11072.28    2088.0298     2688.459    3183.8667     1456.123  -0.04321143    557.77693   -5298.5804 
 4643000    243.54908   -6347.9242    -5721.409   -6347.9242            0    2792.6531    23.552045    21.523898    21.808917    11055.634    2448.7084    3706.3642    2222.8868    1324.2462   -1282.9702    -1055.214   -5271.1354 
 4644000    243.17949   -6358.5036   -5732.9392   -6358.5036            0    422.94252    23.350288    21.651531    22.080576    11163.265    986.24594     994.9785   -712.39688    29.724035   -330.72417   -635.07892   -5664.0821 
 4645000    245.22772   -6317.6182   -5686.7849   -6317.6182            0    1554.9875    23.484136    21.456883    22.054574    11113.219     835.0095    2913.1168    916.83628    410.27324    1459.4843    1330.3586   -5434.7604 
 4646000    242.08301   -6360.8592   -5738.1154   -6360.8592            0    2081.1075    23.457911    21.677308    21.752194    11061.086    1791.4651    738.13367    3713.7236   -1756.2375    627.22641    1053.5494   -5402.4024 
 4647000    243.78504   -6372.7582   -5745.6361   -6372.7582            0    1821.4303    23.509165    21.496118    21.953633    11094.395    1388.1522    2672.6984    1403.4402   -384.31694   -123.55084   -593.31444    -5450.928 
 4648000    228.83903   -6347.1195    -5758.445   -6347.1195            0    1943.1158    23.307394    21.711666    21.988376     11127.05    2958.3661      2126.59    744.39133   -1387.1824    1351.6313   -1914.1521   -5443.1228 
 4649000    245.04609   -6330.7698   -5700.4037   -6330.7698            0    2233.1575    23.648203    21.435396    21.901438    11102.027    1548.2553    1759.2267    3391.9905   -419.29951    975.14254    383.09509   -5338.8294 
 4650000    237.36576   -6355.9698   -5745.3608   -6355.9698            0    2678.4392    23.290614    21.758428    21.786234    11040.547    3484.3424    1354.1334    3196.8418    206.98758   -503.77198   -384.92532   -5314.0918 
 4651000    244.24796   -6318.9084   -5690.5954   -6318.9084            0    3603.8084    23.355318    21.343366    22.166558    11049.611    3264.3732    5255.2046    2291.8474   -607.70792    663.29582   -89.746576   -5109.8516 
 4652000    230.40627   -6349.1674   -5756.4613   -6349.1674            0    2330.3735    23.291328    21.577929    22.053425     11083.58    4329.2525    1698.3509    963.51707   -190.00088   -1646.9378   -1316.8243   -5379.7735 
 4653000      243.798   -6327.4146   -5700.2592   -6327.4146            0     1968.246    23.611931    21.527016    21.822713    11092.363    2091.8732    2097.9191    1714.9457   -246.30583   -156.27054   -440.60063   -5381.8546 
 4654000    244.50314   -6354.4399   -5725.4704   -6354.4399            0    3072.9112    23.305146    21.729949    21.760411      11019.9    2958.1726    2543.8256    3716.7354   -1005.0989    213.22476    105.90766   -5231.6108 
 4655000    229.42918   -6338.6388   -5748.4462   -6338.6388            0    3061.1289    23.482171    21.293106    22.096612    11048.491    3489.3515    4511.1054    1182.9297    198.32858   -664.46837   -551.37541   -5255.2037 
 4656000    231.02805   -6377.1047   -5782.7991   -6377.1047            0    1555.0731    23.384212    21.714271    21.847987    11093.777    2246.7076     858.7329    1559.7788    173.19587   -50.242554   -187.22271   -5531.2018 
 4657000    233.24924   -6347.9453   -5747.9259   -6347.9453            0    770.61393     23.61787    21.550151     21.91596    11154.537     601.8111    743.12368    966.90701    61.301633    914.59854   -386.39361   -5622.5644 
 4658000    243.07413   -6367.9142   -5742.6209   -6367.9142            0    1079.4375    23.394344    21.705508    21.893228    11117.077    870.60384    454.76268     1912.946    75.149689    550.58323    1363.1916   -5567.6104 
 4659000    234.05078   -6328.8749   -5726.7936   -6328.8749            0     2834.736    23.500043    21.412723    21.918268    11029.271    2278.6855    4158.1948    2067.3278    1423.6005    -142.0274     287.0469   -5270.8246 
 4660000    239.28683   -6357.3515   -5741.8007   -6357.3515            0    2961.9706    23.315653    21.612629    21.940883    11056.287    2712.7833    3439.0227    2734.1058    1145.1959    307.14225   -834.14835    -5264.199 
 4661000    233.16438   -6363.1992    -5763.398   -6363.1992            0    1523.4643    23.610614    21.542322    21.795525    11085.803    5.3382084    2678.9983    1886.0564    159.94381    1070.0905   -608.49922   -5517.0918 
 4662000    239.39534   -6341.5062   -5725.6763   -6341.5062            0    938.00362    23.587386    21.725785    21.696923    11118.686    828.84452   -3.1964554    1988.3628    410.71933    239.96377    351.07033   -5573.5746 
 4663000    244.39061   -6362.5893   -5733.9094   -6362.5893            0    2535.1358    23.389079    21.503043     21.94119    11035.022    2141.9029    2604.8782    2858.6263     104.0254      152.644    507.77688   -5325.9186 
 4664000    235.42656   -6355.7414   -5750.1209   -6355.7414            0     2048.125    23.504016    21.514169    21.882402    11065.261    1869.0471    1879.5857    2395.7422  -0.77027349     54.12141    210.45821   -5419.6037 
 4665000     244.3052    -6356.715   -5728.2548    -6356.715            0    2203.2976    23.426965     21.69123    21.795159    11075.421    2780.2392    1243.6233    2586.0303   -930.05746   -992.17726   -1255.4698   -5372.3701 
 4666000    240.02877   -6315.6803   -5698.2209   -6315.6803            0    1898.1068    23.544667     21.52625    21.876703    11087.734    1723.6199    1678.2635    2292.4369   -678.87673    728.28326    -208.8338   -5391.2909 
 4667000    230.95251   -6340.1169   -5746.0056   -6340.1169            0    1190.4558    23.356386    21.617348    21.998235    11106.978    1919.0599    860.62478    791.68264    891.93471    289.53542    1073.9691    -5553.171 
 4668000    234.01559   -6300.4659   -5698.4751   -6300.4659            0    2075.2926    23.549975    21.555661    21.942644     11138.86     751.4753    3130.9841    2343.4184   -661.36419   -74.926517   -524.02916   -5361.3462 
 4669000    253.89341   -6324.6805   -5671.5552   -6324.6805            0    1608.1027    23.384054    21.707984     21.87341    11103.395    1578.4915    852.59513    2393.2216   -870.38574    1182.5291   -1011.7349   -5411.1525 
 4670000    240.31611   -6342.2648   -5724.0662   -6342.2648            0    3833.6012    23.414071    21.561278    21.798445    11004.668    3963.1775    2546.3666    4991.2594    362.79157    2.4658789    1286.2919   -5108.8047 
 4671000    235.71687   -6326.1285   -5719.7612   -6326.1285            0    3423.1294    23.392436    21.493653    21.880948    11001.498    4494.7027    2697.4056      3077.28   -153.49022   -1033.6563    1485.3733   -5170.5352 
 4672000    250.07687   -6364.9224   -5721.6148   -6364.9224            0    1857.7639    23.386015    21.439472     22.05908    11060.065    2501.0595     3154.696   -82.463959    111.14237   -500.73914   -550.76238   -5421.9581 
 4673000    237.55234   -6356.3576   -5745.2687   -6356.3576            0    2881.7652    23.466732    21.494572    21.846174    11019.371    2906.5317    3349.9687    2388.7954    608.83992   -1269.0492   -756.36762   -5282.1511 
 4674000    240.23615   -6362.8559    -5744.863   -6362.8559            0    2356.9099    23.474863    21.703911    21.701536    11056.853    2447.3907    1064.1461    3559.1929    1213.5441    1208.9429   -514.70313   -5364.8046 
 4675000    236.82015   -6334.4845   -5725.2791   -6334.4845            0    2762.5867     23.58016    21.386534    21.941077    11064.839    1664.8969    3848.4496    2774.4136    473.23749    1140.4551   -52.662027   -5279.4823 
 4676000    236.71583   -6366.2701   -5757.3331   -6366.2701            0    3287.9304    23.303486    21.543764      21.8675    10978.465    4038.3414     2462.096    3363.3538    659.80902   -1341.7909    1113.7095   -5230.9037 
 4677000    243.19609   -6312.5441    -5686.937   -6312.5441            0    2718.1034    23.463988    21.435459    22.013723    11072.052    2998.6809    3191.1224    1964.5068    599.11628   -504.07638    158.86025   -5248.0325 
 4678000    237.13881   -6327.3607   -5717.3356   -6327.3607            0    1703.3702     23.42318    21.592585    21.970866    11112.139    1982.7843    1086.1631    2041.1631    388.20986   -67.278222   -19.376411   -5441.2889 
 4679000     239.8985   -6341.6737   -5724.5495   -6341.6737            0     988.3278    23.640555    21.563056    21.894377    11160.935    764.55852    610.16561    1590.2593    849.54253   -749.02544    164.08945   -5563.6786 
 4680000     244.1516   -6340.0102    -5711.945   -6340.0102            0    1001.1174    23.553803    21.610695    21.823775    11108.608   -235.69777    1683.4127    1555.6374    124.92532     347.4935    409.66044   -5549.7564 
 4681000    244.14794   -6368.2169   -5740.1612   -6368.2169            0    2444.0051    23.479254    21.493205    21.941197    11072.502    2042.3877     3686.969    1602.6586    293.73822    428.55863   -352.91655   -5345.5006 
 4682000    245.77023   -6337.4483   -5705.2194   -6337.4483            0    3221.8927    23.356278    21.573816    21.894119    11032.097    2999.0962    3898.4551    2768.1267    942.16228    636.03216    440.28684   -5186.8432 
 4683000    237.16827   -6357.2833   -5747.1823   -6357.2833            0    2427.8817    23.628332    21.553933    21.727959     11065.69    1820.1612    1308.3349     4155.149   -437.93617   -237.27802    766.95197   -5355.3665 
 4684000    241.49106   -6363.9545   -5742.7335   -6363.9545            0    711.02406     23.43655    21.654959    21.942229    11136.066    969.18002   -298.18555    1462.0777    334.45551    60.473551    45.806599   -5627.2574 
 4685000    233.11386    -6309.487   -5709.8158    -6309.487            0    1761.0469    23.560927    21.569922    21.879278     11119.21     3209.701    369.62073    1703.8189   -713.83066   -784.48004    199.56304   -5424.2404 
 4686000    234.83786   -6314.1027   -5709.9966   -6314.1027            0    1969.1157    23.531625    21.697719    21.834153    11148.139    1086.9025    2494.0058    2326.4387    673.59287    888.43412    727.88477   -5389.8495 
 4687000      237.538   -6369.6289   -5758.5769   -6369.6289            0    2138.0458    23.467404    21.538183    21.862561    11050.327    1942.5779    1677.4753    2794.0841    566.29492    171.23326    298.20312   -5414.0144 
 4688000    240.07527   -6310.3814   -5692.8024   -6310.3814            0    3359.0386    23.338899     21.49051    22.023721    11046.324     4495.161    3665.4356    1916.5193   -494.47171   -107.58812   -1042.9164   -5151.6636 
 4689000    230.97203   -6363.9664   -5769.8049   -6363.9664            0    1633.9234    23.453391    21.622994    21.931628    11122.242    2353.0478    1321.7119    1227.0105   -871.59011    1116.0634   -336.44851   -5504.7719 
 4690000    246.72994   -6308.2924   -5673.5946   -6308.2924            0    2273.2191    23.484285    21.566402    21.903598    11093.548    4060.8816    2268.0687    490.70716    550.25384    157.33637   -194.30265    -5305.815 
 4691000    237.52303   -6312.8903   -5701.8767   -6312.8903            0    2370.8275    23.406967    21.560054    21.960074    11082.272    2856.0939    2714.3168    1542.0719    1695.3138   -17.302121    484.85899   -5318.6951 
 4692000    245.27364   -6347.3199   -5716.3684   -6347.3199            0    1562.3904    23.581161    21.617775     21.74903    11087.052    1740.4074    135.96956    2810.7943    189.09117   -94.338713    561.95304   -5463.7404 
 4693000    239.22622   -6358.9043   -5743.5094   -6358.9043            0    3036.2619    23.411218    21.618131    21.776214    11021.089    3658.8742    2500.0791    2949.8325   -305.66664    153.35557    130.76564   -5255.4871 
 4694000    232.91347   -6313.5129   -5714.3572   -6313.5129            0    2890.4273    23.444583    21.462525    22.004163    11072.054    2162.5637    4219.5437    2289.1745   -934.40792   -29.620514   -637.01479   -5247.6267 
 4695000    245.29027   -6337.1359   -5706.1416   -6337.1359            0     3896.059    23.353435    21.500785    21.939327    11016.113     3990.848    4450.5979     3246.731   -491.56991   -418.57017    1395.4801   -5080.2058 
 4696000    241.34288   -6354.1319    -5733.292   -6354.1319            0    3116.9543    23.485288    21.577456    21.756441    11025.137    1484.5807    4995.9221      2870.36    366.51517   -64.343172   -834.18666    -5232.116 
 4697000    248.47061   -6362.8561   -5723.6806   -6362.8561            0    437.36184    23.595112    21.644948    21.892244    11180.697    -155.7695    1027.6757    440.17929    482.14749    769.86908   -339.94084   -5652.3648 
 4698000    243.34362   -6344.7679   -5718.7812   -6344.7679            0    1340.1718    23.505604    21.570234    21.966154     11137.31    55.591694    2366.8837    1598.0401    741.26753    276.20983    356.04531   -5501.1022 
 4699000    237.93132   -6318.7306   -5706.6668   -6318.7306            0    4755.9293    23.379963    21.523761      21.7563    10948.308    4870.7326     3397.336    5999.7193    487.35185   -25.510067    957.61876   -4947.2883 
 4700000    235.41153   -6343.5524   -5737.9706   -6343.5524            0    3311.2115    23.464589    21.443489    21.905817    11022.189    3604.2738    4145.4333    2183.9273   -163.98255    296.15053   -523.59955   -5205.7022 
 4701000    250.87655   -6363.0995   -5717.7348   -6363.0995            0    1588.5211    23.321465    21.719027    21.915834    11100.797    3155.4553     586.5607    1023.5473   -439.65414   -53.915687   -569.77395   -5460.5632 
 4702000    242.95122    -6351.076   -5726.0988    -6351.076            0    1378.7782    23.610072    21.370362    22.000762    11100.612     1082.817    2481.0624    572.45522    241.75456    1197.0597    671.72745    -5502.887 
 4703000    226.74356   -6368.4318   -5785.1478   -6368.4318            0    1845.5689    23.355147    21.653927    21.934213    11092.804     2251.344    526.91694    2758.4458    -665.7414    1530.2418    703.09607   -5486.5769 
 4704000    240.29268   -6360.7692   -5742.6309   -6360.7692            0    2989.6706    23.452073    21.468586    21.845532    10998.851    2399.7716    2992.0059    3577.2345   -147.39054     206.6537    555.88506    -5263.067 
 4705000     243.8289   -6379.0669    -5751.832   -6379.0669            0    3016.7624    23.383998    21.561678    21.813752    10998.455    2673.3731    2420.4816    3956.4327   -331.54801   -114.98531     1176.733   -5267.9397 
 4706000    240.19892   -6383.5141   -5765.6171   -6383.5141            0    2021.0534    23.458935     21.58021    21.815212    11043.923      1813.11    1734.8454    2515.2049   -60.822744   -990.97035   -476.58067   -5440.0975 
 4707000    229.21839    -6346.488   -5756.8377    -6346.488            0    2043.9912    23.422249    21.483962    22.024077    11082.575     2555.139      2890.46     686.3747    614.46218   -481.37556   -146.70696   -5426.4715 
 4708000    235.57394   -6332.2141   -5726.2145   -6332.2141            0    1523.2801    23.494293    21.621004    21.904594    11126.881    2216.6623     970.7898    1382.3882    1107.7403    18.544537   -314.40839   -5479.0255 
 4709000    247.27026   -6352.3977   -5716.3101   -6352.3977            0    2676.2046     23.57131    21.575714    21.749346    11061.018    2200.2754    2129.3004     3699.038    798.94139   -86.082326    220.09683   -5284.6019 
 4710000    238.59867   -6343.5992   -5729.8187   -6343.5992            0    2180.0138    23.524584    21.747667    21.631508    11066.784     1308.908    1608.9854     3622.148    692.17695   -1229.1108    28.536345   -5377.9695 
 4711000    241.34562   -6336.8022   -5715.9553   -6336.8022            0    1570.8921    23.513003    21.572894    21.944694    11131.304    1644.7545    1402.1607     1665.761   -1494.5525   -634.57721   -546.00215   -5460.9388 
 4712000    235.92034   -6353.7285   -5746.8378   -6353.7285            0    2064.9366    23.318854    21.635609    21.990364    11094.526    3060.6714    2513.3843    620.75413    495.52138    -409.3853   -247.95979   -5412.7263 
 4713000    242.14553   -6367.5544   -5744.6498   -6367.5544            0    1649.7892    23.573069    21.489661    21.876948    11082.365    189.11204    2226.9713    2533.2843     1022.328    26.412296    593.61199   -5478.0027 
 4714000    246.98699   -6364.2396   -5728.8806   -6364.2396            0    2532.9688    23.448246    21.690003     21.66395    11018.123    1882.6222     2274.155    3442.1292   -56.176136    572.09106   -223.86577   -5321.8629 
 4715000    233.68914   -6362.5828   -5761.4317   -6362.5828            0    3124.4721    23.455636    21.424639      21.8951    11002.913    3454.0076    3597.4339    2321.9748   -423.19563    36.361988   -1181.8605   -5260.0596 
 4716000    236.37515   -6337.3056   -5729.2449   -6337.3056            0    3036.4514    23.293858    21.606283    21.939253    11041.888    3397.5624    1998.1332    3713.6586   -571.28443   -153.56986   -5.8490438   -5240.2712 
 4717000    231.51135   -6323.1532   -5727.6044   -6323.1532            0    2467.5785    23.507817    21.518722    21.935408    11096.206    1691.2662    2992.0123    2719.4571   -286.70192    379.61344   -231.22599   -5328.2841 
 4718000    242.89399    -6334.818   -5709.9881    -6334.818            0    1435.9562     23.37931    21.700494    22.015213    11169.255    1854.6218    1201.0166    1252.2303    375.28686    1186.3443    522.68246   -5476.0821 
 4719000    237.32951   -6341.6225   -5731.1068   -6341.6225            0    2601.8532    23.435306    21.457026    21.954852     11040.04    3038.5613    2996.1421    1770.8563   -850.32492   -2.5248799    338.24014   -5312.1885 
 4720000    238.38747   -6387.1979   -5773.9606   -6387.1979            0    2528.4481    23.382576    21.610283    21.879005    11055.551    2658.5402    2117.9369    2808.8671    775.62763    395.47781    176.94783   -5366.2892 
 4721000    231.10574   -6337.1591   -5742.6536   -6337.1591            0    2811.2241    23.465089     21.67112    21.681146    11025.183    2126.9859    3327.9734    2978.7131   -276.81411     428.2787   -786.04473   -5290.6342 
 4722000    234.47539   -6345.2424   -5742.0688   -6345.2424            0    2535.8265    23.486416    21.476792     21.90823    11050.793    1078.2711    2565.9395     3963.269   -245.04792    401.95266    328.61927   -5333.3836 
 4723000    230.26274   -6334.4482   -5742.1114   -6334.4482            0    559.15465    23.369761    21.686949    21.975284    11137.488    90.163669    785.60832    801.69197    966.65405   -52.767012   -56.077211   -5651.2885 
 4724000     248.8945   -6340.7485   -5700.4826   -6340.7485            0    1709.7716    23.594846    21.526065    21.849489    11097.447    1105.5736    1762.7866    2260.9546   -262.42122   -204.44757    661.49618   -5423.7648 
 4725000    237.52611    -6356.606   -5745.5846    -6356.606            0    1432.2176    23.450378    21.717207    21.782139    11093.136    1063.1621    1292.2856    1941.2052     891.5804    -12.67968   -254.67825   -5513.8775 
 4726000    236.36225    -6339.076   -5731.0485    -6339.076            0    1223.1549     23.57788    21.496293    22.008938    11154.945    1893.5657    1370.0678    405.83114    818.21595   -958.46825   -1289.3106   -5532.0615 
 4727000    247.08557   -6312.1912   -5676.5787   -6312.1912            0    3123.5288    23.363683    21.663717    21.864232    11066.455    3948.8221    2817.3538    2604.4106    907.61365   -273.45886   -898.04661   -5172.4633 
 4728000    253.73004   -6335.8017   -5683.0966   -6335.8017            0    2642.5947    23.562128    21.443293    21.955496    11093.006    2149.0371    2895.6206    2883.1264     129.9657   -3.2059524     693.8456   -5255.5773 
 4729000    246.44848   -6347.3037     -5713.33   -6347.3037            0    2017.0524    23.352154    21.663162    21.881814    11069.605     2400.001    1472.3164    2178.8398    1176.6632   -856.25763   -568.82914   -5387.6994 
 4730000    249.33656    -6325.083   -5683.6799    -6325.083            0    996.10693    23.779044    21.456041    21.908919    11178.021     70.07761    653.94779    2264.2954    320.81452   -2363.2668     1315.097   -5521.2946 
 4731000    247.41807   -6332.8904   -5696.4225   -6332.8904            0    2505.8054    23.067461     21.84395    21.955376    11062.973    3473.8618    848.48738     3195.067    680.92894    495.23294    961.14027   -5292.1306 
 4732000    243.14071   -6345.4474   -5719.9828   -6345.4474            0    1751.7898    23.662162     21.35526    21.895654    11064.129   -398.01217    3563.4458    2089.9359    1968.9115   -482.43752    270.92461   -5437.3158 
 4733000    241.03501   -6363.5088   -5743.4609   -6363.5088            0    2623.6999    23.229771    21.736484    21.843533    11029.533    3829.0884    2405.3924    1636.6189    671.42531   -264.12093   -951.00137   -5321.4271 
 4734000    236.03015   -6330.8891   -5723.7159   -6330.8891            0    2298.2234    23.673378    21.262709    21.956553    11052.054     2160.143    2635.1175    2099.4097    76.285085   -345.86898   -356.59287   -5353.2817 
 4735000    236.16879   -6340.6438    -5733.114   -6340.6438            0    3233.7293    23.170357    21.741741    21.896716    11030.775    5187.8092    2043.0368    2470.3418   -1440.1315    463.17386   -705.82469   -5212.8957 
 4736000    233.53406   -6331.7393   -5730.9872   -6331.7393            0    2685.0711    23.607968     21.35472    21.896474    11038.922    3000.9135    2989.9361    2064.3635    183.82627   -346.57506   -210.65368   -5298.7139 
 4737000    236.25694   -6351.8158   -5744.0593   -6351.8158            0    1872.2243    23.237616    21.878851    21.753792    11059.896    1323.6445    685.83245     3607.196    671.16918    1062.3357    833.73452   -5442.0747 
 4738000    253.83926   -6353.8538   -5700.8678   -6353.8538            0    2069.1065    23.677057    21.354259    21.972338    11109.346    1181.5041    3031.1615     1994.654    44.805288    66.166759    676.27915   -5365.6344 
 4739000    237.51095   -6350.3561   -5739.3737   -6350.3561            0     1854.492    23.218937    21.763516    21.968686    11101.341    2629.7592     872.1341    2061.5828   -87.727449   -78.614182    501.34512   -5439.1283 
 4740000    243.98832    -6337.644   -5709.9989    -6337.644            0    2554.3096    23.637021    21.325707    21.948003    11063.465    2221.8667    3042.9134    2398.1488   -574.66126   -267.43576   -183.12287   -5297.8629 
 4741000    245.20676    -6370.516   -5739.7366    -6370.516            0    3287.9636    23.182673    21.712854    21.832374    10989.587    4888.2045    2355.0418    2620.6445     532.6651   -969.28343   -250.22939   -5212.7685 
 4742000    234.59127   -6338.5994   -5735.1276   -6338.5994            0     2323.155    23.726757    21.342754    21.867176    11073.414    146.98183    3603.6087    3218.8746    534.15722    711.54371    232.20256   -5359.9511 
 4743000    238.57307   -6326.4357    -5712.721   -6326.4357            0    2863.7393    23.359861    21.676013    21.864503    11071.062    2864.8636    2332.8714     3393.483    1710.5414   -1319.8934    388.64612   -5250.3415 
 4744000    234.56971   -6340.4264   -5737.0101   -6340.4264            0    329.74474     23.49319    21.600221    22.006867    11167.563    370.29006    666.47674   -47.532587   -130.76366    537.27443    115.49272   -5683.3054 
 4745000    251.77543   -6331.9119    -5684.235   -6331.9119            0    2349.6469    23.517994    21.537042    21.924523    11104.947    1990.1416    3205.1225    1853.6767   -29.569173     784.7845    274.61566   -5303.6996 
 4746000    237.45152   -6351.5266    -5740.697   -6351.5266            0    2694.3347    23.529363    21.482218     21.82673    11032.603    3108.2354    2757.1032    2217.6654    -691.7998     944.3053    73.615825   -5307.1807 
 4747000    229.83793   -6324.3354   -5733.0913   -6324.3354            0    1929.5577    23.454403    21.557259    21.916718    11081.369    1234.7717    2596.6496    1957.2518    844.65091    1012.8719    432.70056   -5421.2547 
 4748000    241.35381   -6336.6919   -5715.8239   -6336.6919            0    2176.9749    23.394298    21.557822    21.983562    11086.973    2737.0714    2266.6675    1527.1859    -1308.202   -72.345832    -230.1659   -5363.8242 
 4749000    239.52082   -6354.9399   -5738.7872   -6354.9399            0    875.14725      23.5235    21.448696    22.027253    11113.815    828.13265    1517.7581      279.551   -1051.6548   -258.54737   -178.83301   -5596.9401 
 4750000    238.20235   -6291.1331    -5678.372   -6291.1331            0    2001.9427    23.453656    21.735764    21.866126    11146.982    1791.6544    2724.9151    1489.2586   -289.00368   -77.796871   -743.97521   -5352.9216 
Loop time of 618.965 on 64 procs for 250000 steps with 1296 atoms

Performance: 69.794 ns/day, 0.344 hours/ns, 403.900 timesteps/s
99.3% CPU use with 64 MPI tasks x 1 OpenMP threads

MPI task timing breakdown:
Section |  min time  |  avg time  |  max time  |%varavg| %total
---------------------------------------------------------------
Pair    | 29.069     | 38.198     | 46.83      |  96.1 |  6.17
Bond    | 0.27351    | 0.27941    | 0.28889    |   0.8 |  0.05
Kspace  | 323.39     | 340        | 354.49     |  40.4 | 54.93
Neigh   | 3.9604     | 4.7821     | 5.5362     |  16.5 |  0.77
Comm    | 94.137     | 105.53     | 119.45     |  50.7 | 17.05
Output  | 1.025      | 1.0268     | 1.029      |   0.1 |  0.17
Modify  | 113.72     | 119.45     | 124.5      |  30.3 | 19.30
Other   |            | 9.696      |            |       |  1.57

Nlocal:        20.2500 ave          28 max          14 min
Histogram: 6 4 10 8 4 14 8 6 3 1
Nghost:        2513.89 ave        2553 max        2479 min
Histogram: 3 2 8 13 11 12 5 6 1 3
Neighs:        6257.42 ave        8609 max        4330 min
Histogram: 6 4 9 9 7 11 8 6 3 1

Total # of neighbors = 400475
Ave neighs/atom = 309.00849
Ave special neighs/atom = 2.0000000
Neighbor list builds = 8838
Dangerous builds = 0

unfix		3
unfix		2
unfix		1

write_data	data.final.${pid}
write_data	data.final.0
System init for write_data ...
PPPM initialization ...
  extracting TIP4P info from pair style
  using 12-bit tables for long-range coulomb (../kspace.cpp:340)
  G vector (1/distance) = 0.36606159
  grid = 30 40 32
  stencil order = 5
  estimated absolute RMS force accuracy = 0.0047688861
  estimated relative force accuracy = 1.4361359e-05
  using double precision FFTW3
  3d grid and FFT values/proc = 5168 640
Last active /omp style is kspace_style pppm/tip4p/omp
WARNING: Not all mixed pair coeffs generated from mixing. Use write_data with 'pair ij' option to store all pair coeffs. (../write_data.cpp:312)

write_restart   restart.lmp.${pid}
write_restart   restart.lmp.0
System init for write_restart ...
PPPM initialization ...
  extracting TIP4P info from pair style
  using 12-bit tables for long-range coulomb (../kspace.cpp:340)
  G vector (1/distance) = 0.36606159
  grid = 30 40 32
  stencil order = 5
  estimated absolute RMS force accuracy = 0.0047688861
  estimated relative force accuracy = 1.4361359e-05
  using double precision FFTW3
  3d grid and FFT values/proc = 5168 640
Last active /omp style is kspace_style pppm/tip4p/omp
Total wall time: 0:10:19
