LAMMPS (30 Jul 2021)
  using 1 OpenMP thread(s) per MPI task
package omp 0
using multi-threaded neighbor list subroutines
echo both

include		in.partitions
variable        pid world 0
include		in.temp
variable        temperature equal 263.79
variable	tempDamp equal 100.0
include		in.pressure
variable        pressure equal 5125.0
variable        pressureDamp equal 1000.0 # This is 1 ps
include		in.seed
variable        seed world 745823

units		real
atom_style	full

read_restart	restart.lmp.${pid}
read_restart	restart.lmp.0
Reading restart file ...
  restart file = 30 Jul 2021, LAMMPS = 30 Jul 2021
  restoring atom style full from restart
  orthogonal box = (-0.021479766 0.028038133 -0.12774396) to (20.021481 19.971963 20.827742)
  4 by 4 by 4 MPI processor grid
  restoring pair style lj/cut/tip4p/long/omp from restart
  restoring bond style harmonic/omp from restart
  restoring angle style harmonic/omp from restart
  972 atoms
  648 bonds
  324 angles
Finding 1-2 1-3 1-4 neighbors ...
  special bond factors lj:    0        0        0       
  special bond factors coul:  0        0        0       
     2 = max # of 1-2 neighbors
     1 = max # of 1-3 neighbors
     1 = max # of 1-4 neighbors
     2 = max # of special neighbors
  special bonds CPU = 1.866 seconds
  read_restart CPU = 2.256 seconds
include 	in.setup
variable	out_freq equal 1000
variable	out_freq2 equal 10000
variable	out_freq3 equal 1000

timestep	2.0

neigh_modify    delay 7 every 1

include		in.tip4p
# This is TIP4P/Ice

# create groups ###
group ox type 2
324 atoms in group ox
group hy type 1
648 atoms in group hy

# set charges - beside manually ###
set group ox charge -1.1794
Setting atom values ...
  324 settings made for charge
set group hy charge 0.5897
Setting atom values ...
  648 settings made for charge

# ### TIP3P Potential Parameters ###
pair_style lj/cut/tip4p/long/omp 2 1 1 1 0.1577 8.5
pair_coeff 1 1*2 0.000 0.000
pair_coeff 2 2 0.21084 3.1668
bond_style  harmonic
bond_coeff  1 450 0.9572
angle_style harmonic
angle_coeff 1 55 104.52
kspace_style pppm/tip4p/omp 1.0e-5
pair_modify tail yes

thermo          ${out_freq}
thermo          1000
thermo_style    custom step temp pe etotal epair emol press lx ly lz vol pxx pyy pzz pxy pxz pyz enthalpy

restart 	${out_freq3} restart.lmp.${pid} restart2.lmp.${pid}
restart 	1000 restart.lmp.${pid} restart2.lmp.${pid}
restart 	1000 restart.lmp.0 restart2.lmp.${pid}
restart 	1000 restart.lmp.0 restart2.lmp.0


include         in.dump
dump            myDump all atom ${out_freq2} dump.water.${pid}
dump            myDump all atom 10000 dump.water.${pid}
dump            myDump all atom 10000 dump.water.0
dump            myDump2 all dcd ${out_freq2} dump.dcd
dump            myDump2 all dcd 10000 dump.dcd
dump_modify     myDump append yes
dump_modify     myDump2 append yes


variable natoms 	equal  "count(all)"                        # NUMBER ATOMS
variable H      	equal  "enthalpy/v_natoms"                 # ENTHALPY-per-atom
variable Vol      	equal  "vol/v_natoms"                 # volume-per-atom
fix AVG all 		ave/time ${out_freq} 1 ${out_freq} v_Vol v_H file vol_enthalpy.dat
fix AVG all 		ave/time 1000 1 ${out_freq} v_Vol v_H file vol_enthalpy.dat
fix AVG all 		ave/time 1000 1 1000 v_Vol v_H file vol_enthalpy.dat


timer           timeout 02:55:00 every 1000
New timer settings: style=normal  mode=nosync  timeout=02:55:00

fix 		1 all shake 1e-6 200 0 b 1 a 1
       0 = # of size 2 clusters
       0 = # of size 3 clusters
       0 = # of size 4 clusters
     324 = # of frozen angles
  find clusters CPU = 0.025 seconds
fix             2 all nph aniso ${pressure} ${pressure} ${pressureDamp}
fix             2 all nph aniso 5125 ${pressure} ${pressureDamp}
fix             2 all nph aniso 5125 5125 ${pressureDamp}
fix             2 all nph aniso 5125 5125 1000
fix             3 all temp/csvr ${temperature} ${temperature} ${tempDamp} ${seed}
fix             3 all temp/csvr 263.79 ${temperature} ${tempDamp} ${seed}
fix             3 all temp/csvr 263.79 263.79 ${tempDamp} ${seed}
fix             3 all temp/csvr 263.79 263.79 100 ${seed}
fix             3 all temp/csvr 263.79 263.79 100 745823


run             250000
PPPM initialization ...
  extracting TIP4P info from pair style
  using 12-bit tables for long-range coulomb (../kspace.cpp:340)
  G vector (1/distance) = 0.37221579
  grid = 24 24 25
  stencil order = 5
  estimated absolute RMS force accuracy = 0.0034305909
  estimated relative force accuracy = 1.0331123e-05
  using double precision FFTW3
  3d grid and FFT values/proc = 2366 288
Last active /omp style is kspace_style pppm/tip4p/omp
Neighbor list info ...
  update every 1 steps, delay 7 steps, check yes
  max neighbors/atom: 2000, page size: 100000
  master list distance cutoff = 10.8154
  ghost atom cutoff = 10.8154
  binsize = 5.4077, bins = 4 4 4
  1 neighbor lists, perpetual/occasional/extra = 1 0 0
  (1) pair lj/cut/tip4p/long/omp, perpetual
      attributes: half, newton on, omp
      pair build: half/bin/newton/omp
      stencil: half/bin/3d
      bin: standard
Per MPI rank memory allocation (min/avg/max) = 9.226 | 9.230 | 9.236 Mbytes
Step Temp PotEng TotEng E_pair E_mol Press Lx Ly Lz Volume Pxx Pyy Pzz Pxy Pxz Pyz Enthalpy 
 4500000    273.72614    -4669.177   -4141.2731    -4669.177            0    4461.9207    20.042961    19.943925    20.955486    8376.6474    4446.7783    4863.8716    4075.1121    291.59886    233.77907   -912.93662   -3596.1834 
 4501000    261.12441    -4686.581   -4182.9806    -4686.581            0    4567.8671    19.937475    20.173705     20.57129     8274.035    3607.6475    5299.8543    4796.0994   -97.658135   -56.774536   -244.53068   -3631.7837 
 4502000    259.19295    -4672.417   -4172.5416    -4672.417            0    6285.7599    19.856114    20.020779    20.787794    8263.8728    7698.6221    5206.0537    5952.6038    104.00883   -564.05588   -666.69051   -3414.9812 
 4503000    266.81743   -4693.9939    -4179.414   -4693.9939            0    4319.3493    20.192831    20.070999    20.609879    8352.9838    5277.4397    3198.2272     4482.381   -447.69798    79.817379    311.20609   -3653.2322 
 4504000    251.90338   -4703.6619   -4217.8451   -4703.6619            0    5998.8533     19.99046     20.10268    20.586768    8273.0357     7641.823    3583.3966    6771.3402   -245.56087    598.89811   -624.97792    -3494.061 
 4505000    260.22974    -4677.283   -4175.4081    -4677.283            0    5484.1109     20.01529    20.007145    20.798749     8328.834     5235.239    5745.5578     5471.536   -100.43385   -264.99226   -829.85291   -3509.2668 
 4506000     263.5447   -4668.5459   -4160.2778   -4668.5459            0    5532.4191    20.010066    19.854508    20.932909    8316.4356    3623.1965    7501.5417    5472.5191   -1018.3787    149.33122   -328.20862    -3489.269 
 4507000    270.26539   -4700.5108   -4179.2812   -4700.5108            0    4786.0175    19.866522    20.271779    20.781196    8369.2058    5827.6501     2627.874    5902.5285     319.1612    1102.6266    612.11128   -3595.1177 
 4508000    264.22501   -4673.0853   -4163.5051   -4673.0853            0    6824.4457     20.07371    20.008034    20.404481    8195.1632    4124.8061    8470.8645    7877.6665    252.89775    303.35576    187.86633   -3347.8607 
 4509000    272.82083   -4673.5262   -4147.3683   -4673.5262            0    5129.6076    19.896487      20.0891    20.720903     8282.197    4790.1582    5219.6666    5378.9979    221.65472   -292.18216   -137.61984   -3527.7766 
 4510000     260.4716   -4657.9209   -4155.5795   -4657.9209            0    5945.8419     19.73655     20.17248    20.643037    8218.7191    7491.7368    4767.1887       5578.6   -283.25171    1026.9488   -711.75329   -3442.9015 
 4511000    265.72336   -4687.8304   -4175.3606   -4687.8304            0    7022.2131    19.864938    19.890919    20.827408    8229.5725     6863.212    6614.5677    7588.8598    318.19017    -987.0725   -776.48302   -3332.5554 
 4512000    268.47061    -4643.604   -4125.8359    -4643.604            0     4038.086    19.933674    20.042711    20.778527    8301.5385    3221.0956    5367.1141    3526.0484    342.88451    201.50829   -553.44338   -3636.9471 
 4513000    283.34594   -4678.0848   -4131.6284   -4678.0848            0    3800.2545    19.838932     20.35416    20.624774    8328.3828     3499.387    3161.9271    4739.4495   -7.8194109   -796.59652   -351.61328   -3670.0459 
 4514000    254.79359   -4673.1613   -4181.7704   -4673.1613            0    3486.0382    20.214704    19.903386    20.721656    8337.1731    4651.4744    1764.8535    4041.7867    351.36289    680.73023    233.86699   -3757.9061 
 4515000    258.39087    -4690.932   -4192.6035    -4690.932            0    4877.1528    20.212496    19.917541     20.64748    8312.3286    5275.4225    4986.4665    4369.5695   -166.62057    429.43075    1767.8563   -3601.3619 
 4516000    265.33403    -4688.805    -4177.086    -4688.805            0    5108.7041    19.930673    20.159558    20.759369    8340.9808     7271.354    4166.8784    3887.8799    177.92456     1116.905    74.011601   -3555.6395 
 4517000    264.69475   -4688.4179   -4177.9318   -4688.4179            0    5590.6972    20.122643    19.797802    20.983318    8359.4199    7337.0253    4324.1406    5110.9257    179.80606   -77.683739    303.20644     -3496.35 
 4518000     261.7394   -4720.8077   -4216.0213   -4720.8077            0    4858.5395     19.99748    20.062306    20.867776    8372.0593    3439.6404    5522.9548    5613.0232    480.00193    116.04346     1419.944   -3622.8038 
 4519000    266.83549   -4695.7016   -4181.0869   -4695.7016            0    3944.8114    19.959658    20.349249    20.544301    8344.3567    1867.5008    4716.6066    5250.3267    305.22999   -297.43869    -2140.596   -3701.0275 
 4520000    268.08766   -4705.1578   -4188.1282   -4705.1578            0    4495.7539    20.186116    19.989846    20.620117     8320.575      3239.36    5083.6777     5164.224    428.31521   -147.96263   -1071.9067   -3642.5817 
 4521000    254.73032   -4690.6805   -4199.4117   -4690.6805            0    4822.0147    19.705162    20.135317    20.998074    8331.3989    6392.5858    3406.4742    4666.9841   -54.566271   -1477.7519    1685.4312   -3613.5132 
 4522000    271.03455   -4694.1139    -4171.401   -4694.1139            0    5837.5417    19.920479    19.889814    20.883893    8274.5037    7633.2547    4566.2941    5313.0764    124.37534   -362.04957    855.34141   -3466.9548 
 4523000    263.82255    -4706.436   -4197.6321    -4706.436            0    5400.6041    19.727088    20.284451    20.711401    8287.7324      7885.51    2453.3444     5862.958   -525.94505    506.01639   -239.12805   -3544.8714 
 4524000    277.11484   -4665.7377   -4131.2984   -4665.7377            0    4337.2798    20.184742    19.928638     20.74886    8346.3208    5489.8903     3890.428    3631.5211   -554.24444    178.00352   -1564.5966   -3603.3538 
 4525000    266.31267   -4656.3991   -4142.7927   -4656.3991            0    5862.2254    19.928226    19.995203    20.712786    8253.4014    6906.3086    4101.0791    6579.2885   -123.10788   -1617.1965    658.33512   -3437.1719 
 4526000    278.33715   -4683.8581   -4147.0615   -4683.8581            0    4431.6459    20.109221    19.915143    20.834954    8343.9407    3688.8584    5892.0638    3714.0155   -377.77806   -496.72643    1632.3029   -3607.7842 
 4527000    270.88519    -4656.154   -4133.7291    -4656.154            0    6515.0529    19.686637    19.989953    21.066095    8290.2443    7780.5089    7035.6208    4729.0289    -457.8164    512.63606   -358.32113   -3346.0285 
 4528000    255.47525   -4686.2702   -4193.5647   -4686.2702            0    5240.5654    20.059771    20.012147    20.680583    8301.9942    5287.5872    4374.2485    6059.8606   -115.67466   -369.64321    81.823457   -3559.0576 
 4529000    259.18973   -4669.4244   -4169.5552   -4669.4244            0    3188.5017     20.29621    20.098444    20.457803    8345.1929    2811.5473    3159.8686    3594.0893    262.28025   -179.40149   -2018.7449   -3781.4952 
 4530000    270.76968    -4677.096   -4154.8939    -4677.096            0    5968.8873    20.058251    20.184313     20.59108    8336.5462    3122.4763    8329.1605    6455.0251    333.78256    -700.7484    13.485274   -3429.1967 
 4531000    271.52871   -4671.6545   -4147.9885   -4671.6545            0    4895.9394    19.890764     19.97545    20.918861    8311.6271    4674.5264    5432.6295    4580.6623    111.47872    388.54146   -761.52058   -3554.5196 
 4532000    269.88768   -4679.0653   -4158.5642   -4679.0653            0    5883.7681    19.939163    19.902774    20.827721    8265.3698     7732.688    5775.1739    4143.4425    16.309728    -11.88122   -107.39829   -3449.3234 
 4533000    262.31564   -4679.6262   -4173.7284   -4679.6262            0       4544.2    20.041012    19.996936    20.723374    8305.0751    5162.0407    3626.5343    4844.0252     -22.6384     604.2829   -1279.9015   -3623.3303 
 4534000    252.04005   -4677.6313   -4191.5509   -4677.6313            0    6473.9478    20.114756    19.936069    20.568281    8248.0691    6516.9675    6085.4089     6819.467   -632.52672    -1425.667   -1802.8271   -3412.8021 
 4535000    259.22635   -4723.7264   -4223.7866   -4723.7264            0    5736.7217    19.834176    20.017363    20.871749    8286.6666     7030.013    5288.3966    4891.7555    -383.5709   -17.853437   -825.44403   -3530.4893 
 4536000    257.02711   -4696.5326   -4200.8342   -4696.5326            0    6060.9441    19.816102    20.077313    20.714198     8241.228    8346.4572    5546.8507    4289.5245   -424.93056    66.546833   -174.97125   -3472.3702 
 4537000    267.91023   -4691.1419   -4174.4545   -4691.1419            0    6137.9164    19.959925    20.027346    20.552732     8215.838    6262.9425    5984.0801    6166.7267   -571.96001   -171.48433    774.75618    -3439.012 
 4538000    275.91073   -4688.0836   -4155.9665   -4688.0836            0    5056.9789    19.910971    20.148146    20.587789    8259.1856    5558.8852    3725.0821    5886.9693   -65.262877   -339.65134    1275.1409   -3546.8446 
 4539000    251.52381    -4684.863   -4199.7782    -4684.863            0    4895.2061    20.112846     19.93005    20.702536    8298.6121    4520.3727    4506.6531    5658.5924    599.65384      469.988    47.160185   -3607.3274 
 4540000    265.93406   -4698.6162     -4185.74   -4698.6162            0    4050.4078    19.985844    19.838255    21.104892    8367.7576     3142.225    5467.0922    3541.9062    580.12733   -937.13423   -536.70404   -3691.4479 
 4541000    264.80082   -4687.5848   -4176.8942   -4687.5848            0    1851.7814    19.987183    20.170876     20.92812    8437.3596    1306.2024    2997.5226    1251.6192   -581.50115     876.2895   -94.080452    -3949.032 
 4542000    255.52367   -4684.4425   -4191.6436   -4684.4425            0    5112.1518    20.055798    20.017102    20.666897    8296.9111     3430.494    5938.1077    5967.8537    1404.3145    1317.3597   -1021.0792   -3573.0633 
 4543000    281.47079   -4700.2286   -4157.3885   -4700.2286            0    4095.8155    19.921276    20.105229    20.726447    8301.3942    4047.4537    2634.3389    5605.6539     387.7228    -220.5683   -16.700202   -3661.5191 
 4544000    271.42592   -4725.5613   -4202.0935   -4725.5613            0    4204.2328    19.995423    19.866053    20.931168    8314.4907    1587.9236     7668.506    3356.2688   -375.05412    -0.469283   -311.69472   -3692.2953 
 4545000    260.96614   -4709.4443   -4206.1491   -4709.4443            0    5073.4619    20.074161    20.104037    20.540078    8289.3932    5806.3219    3436.2181    5977.8459    547.92634   -673.23036    202.21351   -3592.8067 
 4546000    264.12537   -4704.8069   -4195.4189   -4704.8069            0    4809.6855    20.115309     20.11898    20.542056    8313.3598     5208.234    3312.1035    5908.7189   -282.27215      543.513    944.39705   -3612.2839 
 4547000    273.95512    -4706.211   -4177.8655    -4706.211            0    7404.7168    19.926125    19.845761    20.822155    8234.1028    6959.6828     9452.379    5802.0887    1113.8721   -1229.3968   -31.355384   -3288.6631 
 4548000    255.17517   -4701.6186   -4209.4918   -4701.6186            0    6301.6077    19.830587    20.043763    20.755667    8249.9536    8050.0599    3970.2584    6884.5049    87.354786   -458.06599   -371.74871   -3451.3006 
 4549000    276.93751   -4691.6771   -4157.5798   -4691.6771            0    5435.1576    20.126111    19.855174    20.732719    8284.9489    5278.9851    6475.9889    4550.4988   -62.199313    487.93432   -141.18404   -3500.8634 
 4550000    255.49852   -4695.0779   -4202.3275   -4695.0779            0    5949.9323     19.70282    20.295459    20.692952    8274.6516    7730.8581    3116.4961    7002.4426    106.43297    474.55015    198.08158   -3484.3057 
 4551000    278.01667   -4634.5219   -4098.3434   -4634.5219            0    6535.9191    19.886889    19.909928    20.924227    8284.8751     7006.304    6211.2858    6390.1674   -193.88517   -847.02777   -241.14158   -3308.6318 
 4552000    253.71951   -4692.2109   -4202.8915   -4692.2109            0    6495.4637    20.001494    19.834036    20.798151    8250.8416    7379.5943    7453.0962    4653.7006    341.09747   -1617.4857   -972.39872    -3421.292 
 4553000    261.25101   -4718.8098   -4214.9652   -4718.8098            0    6149.7979     20.17074    19.995153    20.507369    8270.9714    3928.7143    7196.5626    7324.1169    5.1528567   -436.73762    -541.3913   -3473.1542 
 4554000     267.0373   -4667.1401   -4152.1362   -4667.1401            0    5926.2674    20.064773    19.988737    20.651862    8282.8312    4690.3192     6902.744    6185.7391   -262.74114    477.42264   -519.70519   -3436.2632 
 4555000    260.27342   -4668.2421   -4166.2829   -4668.2421            0     5260.782    19.823845    19.986406    20.938851    8296.1278    7905.7262    3393.7975    4482.8223    51.205787    920.29446     1082.617   -3529.7782 
 4556000    278.85773   -4665.0803   -4127.2797   -4665.0803            0      4817.08    20.009032    19.863461    21.005759    8348.7102    4661.1928    5179.1003    4610.9468    1081.6708   -1768.3715    907.05127   -3540.7647 
 4557000    252.06774   -4706.2223   -4220.0885   -4706.2223            0    3199.7334    19.918276    20.291614    20.719801    8374.4041    4772.9647    385.52097    4440.7145    365.34376    1566.8305   -642.72381   -3829.2983 
 4558000    269.36984   -4696.6453   -4177.1429   -4696.6453            0    5353.6838    19.958393    20.093388     20.64871    8280.7882    5928.3201    3846.8649    6285.8665    450.74762   -413.03393   -1793.9926   -3530.5956 
 4559000    257.55178   -4680.7582   -4184.0479   -4680.7582            0    5036.6912    20.157449     19.93402    20.676701    8308.2912    2191.1819    7238.4888    5680.4027    -572.8714    757.50973    1139.5595   -3573.7626 
 4560000    263.05228   -4684.2084   -4176.8899   -4684.2084            0    6451.1201    19.873248    20.062142    20.768473    8280.3886    5897.7527    7120.1129    6335.4948    550.01659   -547.14655   -652.04741   -3397.8464 
 4561000    259.73794   -4665.1608   -4164.2343   -4665.1608            0    5244.9906    19.870188    19.885769    20.854326    8240.2529     5373.795    5324.2479     5036.929   -537.66476    171.41983    786.25609   -3533.9142 
 4562000    270.24827   -4655.6073   -4134.4108   -4655.6073            0    5300.2952    19.938392    19.959316    21.026324    8367.5657     5513.977    5302.4266    5084.4818    191.80881    245.15533   -1165.7952   -3487.6032 
 4563000    271.96803   -4667.1518   -4142.6385   -4667.1518            0    5653.0777    19.988041     19.88029    20.926172    8315.3924     4850.084    7031.4771    5077.6718    202.55802   -183.38021    1152.6758   -3457.0815 
 4564000    269.34993   -4695.8661   -4176.4021   -4695.8661            0    6300.0076     19.94997    20.035817    20.673601    8263.5267    7404.2135    5149.5178    6346.2914   -168.33014   -1142.3219    530.61836   -3417.1563 
 4565000    265.64049    -4692.976    -4180.666    -4692.976            0    5740.8414    20.307473    19.893086    20.607542    8324.9999    2771.0499    8293.1742    6158.3002   -129.72611   -418.97903    253.79357   -3483.6613 
 4566000    273.90173   -4663.7158   -4135.4733   -4663.7158            0    4079.1999    19.887821    20.259607    20.614381     8305.935     3524.144    4469.4589    4243.9968   -435.46145    70.345257    1202.9194   -3641.3453 
 4567000    244.11953   -4676.1369   -4205.3318   -4676.1369            0    4963.0088    19.992117    20.025098    20.778655     8318.612    5109.0377     5041.809    4738.1796    206.33871    271.97748    588.86479   -3603.2274 
 4568000    258.58983   -4672.3137   -4173.6015   -4672.3137            0    6451.9526    19.761052    19.998745    20.906992    8262.3648    5151.7212    7168.5784    7035.5583   -314.23137   -920.98144   -891.61266   -3396.1533 
 4569000    255.46663   -4702.8842   -4210.1953   -4702.8842            0    6472.3808    20.129849    19.635581    20.945246    8278.8446    3608.7144    10321.691    5486.7366   -244.56709   -273.33598   -1158.6484     -3428.73 
 4570000     272.4661    -4692.463   -4166.9892    -4692.463            0    5443.2626    20.124941    20.135143    20.581068    8339.8308    5014.3283    5379.7877    5935.6717    950.16641   -851.52071    230.80324   -3504.9367 
 4571000    271.35447   -4687.6556   -4164.3257   -4687.6556            0    6925.5879    19.896526    20.072976     20.56493    8213.2728    7657.0638    6217.9015    6901.7984   -83.675209   -319.01542   -340.45039   -3334.7638 
 4572000    275.49347   -4647.5074   -4116.1951   -4647.5074            0    3750.3565      20.1369    20.019518     20.93817    8440.8265    4020.4122    4894.7939    2335.8633   -246.89268    602.11277   -1065.1924   -3654.5232 
 4573000    256.53089    -4718.663   -4223.9216    -4718.663            0    4250.6283    20.184731    19.923113    20.805933     8366.954    5429.8722      3626.67    3695.3427    236.94543    1495.7403    291.06048   -3705.2453 
 4574000     254.9364   -4694.3399   -4202.6736   -4694.3399            0    5271.3642    20.024492    20.082656    20.706503    8327.0161    6171.6459    3281.6609    6360.7859    232.42769    1440.0965    1366.5905   -3562.5139 
 4575000    261.21071   -4687.7594   -4183.9925   -4687.7594            0    4572.2713    20.179459     19.92499    20.481859    8235.2537    4022.3827    3852.7876    5841.6437    569.31129   -1304.6319   -770.49471   -3634.8503 
 4576000    266.13305   -4693.9244   -4180.6645   -4693.9244            0    5937.9671    20.027855    20.002762    20.691057    8289.0941    4626.8949    5912.1959    7274.8105   -26.587446    591.01035    659.67499   -3462.8359 
 4577000    263.59008   -4723.9068   -4215.5512   -4723.9068            0    6165.2604    19.784531    19.879182    20.877539    8211.1423    5040.2648    7061.9149    6393.6015   -324.58189    949.76703   -947.82858   -3477.2545 
 4578000    274.27552    -4666.496   -4137.5326    -4666.496            0    4790.5143    19.948946    19.963243    20.858441    8306.7835    5181.3646     4826.144    4364.0343   -84.615033   -493.88852   -424.18396   -3557.1813 
 4579000    267.81934   -4714.1275   -4197.6154   -4714.1275            0    6734.4464    19.997589    19.946136    20.611813    8221.5296    6268.5895    7389.9893    6544.7605   -575.41407    101.90305    860.78759   -3390.1379 
 4580000    268.24279   -4662.6804   -4145.3516   -4662.6804            0    6226.4712    19.701406    20.096384    20.779916    8227.3304    8954.6364    3927.7066    5797.0706   -106.95489     814.2391    369.28504   -3398.2549 
 4581000    269.22184    -4688.098    -4168.881    -4688.098            0    5512.9203    20.033961    20.062992    20.753638     8341.742    5142.8871    6192.6822    5203.1915   -390.67075   -527.32813   -1779.8284   -3498.2026 
 4582000    255.37939   -4696.6489   -4204.1283   -4696.6489            0    6902.2432    20.069394     19.81108    20.806866    8272.7344    6126.5215    8026.7621    6553.4459    74.042681   -13.086023   -1706.7363   -3371.3771 
 4583000    267.26077   -4679.6606   -4164.2257   -4679.6606            0    2746.4041    20.112582    20.268995    20.718958    8446.3286    2760.7239    878.95958    4599.5288    834.67479    762.31325   -283.15822   -3825.9208 
 4584000    254.19096   -4631.0102   -4140.7815   -4631.0102            0    4904.7601    20.000273    19.922672    20.914806      8333.69    6341.8563    4466.6493    3905.7746   -653.59162   -1042.2986   -749.45376   -3544.6652 
 4585000    256.10942   -4692.7194   -4198.7908   -4692.7194            0    4334.4453    20.035223    20.115735      20.6804    8334.6817    5604.1393    2898.2468    4500.9498    410.33744   -816.53613   -79.004067   -3671.9269 
 4586000    261.85386   -4697.3222    -4192.315   -4697.3222            0    3469.0529    20.132591    20.269902    20.508868    8369.3745    4372.1016    1670.5861    4364.4709   -315.94224   -4.4625832   -1097.6516   -3768.8868 
 4587000    261.84404   -4693.9694   -4188.9811   -4693.9694            0    5786.3614    20.033305    19.818483    20.879312    8289.7074      5605.91    6819.6335    4933.5407    309.05544    421.59076   -498.40141   -3489.4281 
 4588000    272.55751   -4695.2359   -4169.5858   -4695.2359            0    4604.3841    19.961015    19.981203    20.811064    8300.3907    5959.7068    4079.1984    3774.2472    479.98222    996.59036   -96.716444   -3612.2127 
 4589000    243.61029   -4707.4935   -4237.6706   -4707.4935            0    4592.3976    20.023984    20.047358    20.969796    8417.8632    3309.2931    5722.7567     4745.143   -135.18863   -403.57398    813.20854   -3673.8808 
 4590000    267.35832    -4703.304    -4187.681    -4703.304            0    5455.6735    19.965415    19.969056    20.660103    8236.9864    8088.6719    3971.9164    4306.4322   -373.04246     425.7022   -398.78262   -3532.3019 
 4591000     265.5787   -4700.3066   -4188.1158   -4700.3066            0    4868.9217    19.983125    20.010277    20.619539    8245.0912    5649.8212    2880.3461    6076.5977   -11.194052    1175.4117    1299.7476   -3602.6465 
 4592000    271.92009    -4715.322   -4190.9013    -4715.322            0    4036.3991    19.874234    20.088025    20.892302    8340.9197    4687.5701    4997.8128    2423.8145    249.01334    511.38031    1425.0237   -3699.8985 
 4593000    276.07185   -4688.6754   -4156.2476   -4688.6754            0    4762.8894    20.013176    19.983836    20.751309     8299.279    3668.0389    5473.3886    5147.2406   -816.41171    1416.9215   -916.39032   -3579.7643 
 4594000    262.61014   -4684.8804   -4178.4146   -4684.8804            0    4658.7404    20.035782    20.223121    20.549414     8326.336    4557.6595     4742.475    4676.0865    -445.7798   -636.55952    1321.7894   -3612.6988 
 4595000    248.15194   -4693.6373   -4215.0555   -4693.6373            0    5489.9763    20.024377    19.835324    20.708834    8225.3424    4407.7504    6791.1161    5271.0622    299.32318    159.99914   -914.17118   -3556.4879 
 4596000    270.91327   -4693.9282   -4171.4491   -4693.9282            0    4772.4273    19.898944     20.14576     20.77592    8328.6372    6217.8445     3097.372    5002.0655    339.01021    448.91065    115.67283    -3591.768 
 4597000    266.41677   -4694.1564   -4180.3493   -4694.1564            0    4151.0784    19.883017    20.026156    20.902316    8322.8924    2717.6592    5885.2406    3850.3356   -577.23534   -449.69334    1904.5601   -3676.4879 
 4598000    258.78392   -4676.4328   -4177.3463   -4676.4328            0    6409.5242    20.009697    19.956774    20.561286    8210.7177    5209.3408    7407.0032    6612.2284    44.088353    972.05489    -1028.452   -3409.8385 
 4599000    260.84282   -4685.7669   -4182.7096   -4685.7669            0    4792.1594    20.024452    19.968457    20.665527     8263.264    4680.8008    3777.2347    5918.4427    988.60088    79.064422   -222.35652   -3605.2006 
 4600000    262.60028   -4689.3209   -4182.8742   -4689.3209            0     5906.556    19.916585    19.967871    20.980725    8343.8623    7318.5452    5541.9153    4859.2074   -235.98829   -2047.3201   -63.701615   -3464.1251 
 4601000    246.00918   -4700.0506   -4225.6012   -4700.0506            0    3198.3696    19.878366    20.002222    20.937279    8324.9027    4082.7462    2962.6044    2549.7583   -176.23834    643.42452   -1198.9574   -3837.2866 
 4602000    259.61455   -4665.1543   -4164.4658   -4665.1543            0    6119.0714    19.807991    20.008419    20.739841      8219.75    6945.2729    5829.2293     5582.712    309.89519   -615.17891   -598.01849   -3430.9322 
 4603000    264.18386   -4665.4883   -4155.9875   -4665.4883            0    4478.9391    20.124591    19.960164    20.836902    8369.9781    3535.6447    4339.4521    5561.7204    279.87957   -259.14922   -580.16452   -3609.2544 
 4604000    281.15566   -4702.9582   -4160.7259   -4702.9582            0    5477.7404    20.083483     20.12687    20.472311    8275.2694     4379.703    4754.0913    7299.4268    305.21957   -610.49783    1370.8905   -3499.6376 
 4605000    270.96421   -4654.1219   -4131.5446   -4654.1219            0    4096.7921    20.131784    19.948984    20.725114    8323.3853    2004.8706    6545.8403    3739.6656   -706.87788   -1711.0903   -392.59214    -3634.243 
 4606000    249.33668   -4696.7962   -4215.9295   -4696.7962            0    5073.9858    19.984158    19.947329    20.818162    8298.7559    5088.0658    4894.8983    5238.9934    68.507743    694.94727    535.67348   -3601.8308 
 4607000    276.22148   -4701.1229   -4168.4065   -4701.1229            0    6781.0162    20.008506    19.785049    20.861169    8258.2957    3001.4403    9791.6707    7549.9377   -100.11853    24.965451    1715.8665   -3351.7093 
 4608000    272.12165    -4687.397   -4162.5875    -4687.397            0    3498.6757    20.059677    20.360966    20.576813    8404.2782    1665.5287    3627.9094     5202.589   -20.030925   -270.59929   -1037.7632   -3733.7626 
 4609000     261.8617   -4681.1471   -4176.1248   -4681.1471            0    4569.0357    20.078947    20.039019    20.612169    8293.5615     2434.051    6344.5301     4928.526   -1651.9273    1006.0695   -181.66923   -3623.4858 
 4610000    276.21103   -4680.6787   -4147.9825   -4680.6787            0    5347.9475    19.683325    20.074303    20.910951    8262.5237    7622.9218    4900.2745    3520.6463   -165.41385     961.0597    348.85256   -3503.5525 
 4611000    275.76807   -4680.3715   -4148.5295   -4680.3715            0     5572.069    19.801211    19.986997    21.076943    8341.5533    5123.1823    5332.5489    6260.4759   -25.219054    520.85369    1124.4134   -3470.6706 
 4612000    260.94249   -4672.3598   -4169.1103   -4672.3598            0    4567.2026    20.187134    19.862447    20.764756    8325.9586    3489.9533    5124.8139    5086.8406  -0.50686377   -949.44637   -1335.8315   -3614.5351 
 4613000    251.69883   -4697.7263   -4212.3039   -4697.7263            0    4916.8005    19.933642    20.221551    20.702045    8344.7701    5617.0763    5198.1015    3935.2238    -79.03411    567.62188    745.50637   -3613.9297 
 4614000      258.807   -4669.5783   -4170.4473   -4669.5783            0    4006.0636    20.106592    20.105774    20.703978    8369.7613    5603.8242    2762.2063    3652.1603    1052.8751   -172.95606   -137.13452   -3681.4496 
 4615000     258.6235   -4682.4277   -4183.6506   -4682.4277            0    5614.5008    19.959894    20.096137    20.826732    8353.9514    3837.2436    6131.0827    6875.1762   -395.62664    750.57218   -421.44264   -3499.6145 
 4616000     257.1501   -4698.8572   -4202.9216   -4698.8572            0    5247.9493     20.08817    20.094453    20.497072    8273.8643    3869.2034     6004.186    5870.4585     106.6121   -847.84641   -275.81696   -3569.6734 
 4617000     257.0037   -4699.5825   -4203.9292   -4699.5825            0    4719.7645    20.051422    19.934663    20.691693     8270.849    3462.6234    4971.2319    5725.4381   -414.98977    227.18185    157.49134   -3634.6225 
 4618000     264.2397   -4698.0409   -4188.4325   -4698.0409            0     5725.448    19.802513    19.865618    20.980372     8253.451    6622.3026    6623.0617    3930.9799    187.64324    158.20226    -5.254502   -3499.2711 
 4619000    255.25585   -4697.4213   -4205.1389   -4697.4213            0    6223.0087    19.814499    19.880169    20.946594    8251.1895    6086.3707    6310.3227    6272.3326    173.22997   -2096.4704   -258.72389   -3456.2923 
 4620000    252.97278   -4650.4884   -4162.6091   -4650.4884            0    7531.6857    20.107409    20.008811    20.385168    8201.4699    8174.6648    6594.2373    7826.1549    23.973662    1366.0571     742.4594    -3261.744 
 4621000    251.60245   -4699.0334   -4213.7969   -4699.0334            0    4983.8421    20.070937    20.054286    20.678282    8323.1805    3676.4036    4946.2124    6328.9102    303.50974   -100.56563   -756.29973    -3608.833 
 4622000    271.63424   -4676.8249   -4152.9555   -4676.8249            0     4370.179    19.991704    19.791385    21.097757    8347.6125    2773.7095    7209.9838    3126.8438    317.39356   -389.05007    -746.3735   -3620.9239 
 4623000    258.75611   -4675.0045   -4175.9715   -4675.0045            0    5349.8695    19.994418    19.996785    20.801841    8317.0772    4766.9138    5215.7485    6066.9463    1016.7432    1443.4327   -651.47893   -3527.0536 
 4624000    261.87516   -4682.7688   -4177.7205   -4682.7688            0    4692.6555    20.021345    20.285798     20.53067    8338.5103    5387.8157    3231.4689    5458.6819    276.12581   -770.23977   -314.19403   -3607.0532 
 4625000    259.78527   -4649.5574   -4148.5397   -4649.5574            0    4579.2818    20.049349    20.039424     20.77134    8345.4553    5772.9203    3548.7233    4416.2017   -777.71788    1668.9876   -463.21184   -3591.1957 
 4626000     248.9786   -4695.8824   -4215.7062   -4695.8824            0    4144.7617     20.01329    20.039562    20.744951    8319.9194    3229.1597    2912.6308    6292.4946   -809.68379    622.05917     215.6392   -3712.7912 
 4627000    273.05028   -4709.0682   -4182.4677   -4709.0682            0    5795.0446     19.87958    20.045219    20.724674    8258.5861    5661.7013    5773.3141    5950.1185   -156.65837   -827.99738    57.598254   -3484.4951 
 4628000    259.48626   -4695.6536   -4195.2126   -4695.6536            0     4056.425    19.980656     19.99748    20.838433    8326.2619     4432.194    4589.9179    3147.1632   -313.10853     393.0413    1672.3947   -3702.6409 
 4629000    273.48404    -4658.451    -4131.014    -4658.451            0    3791.8192    20.389217    19.942253    20.522469    8344.5779     3374.584    4234.0127    3766.8609     615.6536   -934.88266    288.49675   -3669.5606 
 4630000    260.29255   -4716.1082   -4214.1121   -4716.1082            0    4676.4041    19.786585    20.150742     20.71045    8257.5539    5416.2957    4579.2809    4033.6356    545.37521    551.42866   -1416.4848   -3650.9423 
 4631000    256.40654   -4709.3266   -4214.8251   -4709.3266            0    4015.0315    19.732642    19.908708    21.106061    8291.5459    3339.3483    5527.9646    3177.7816   -322.44484   -634.18935    150.02446   -3729.3126 
 4632000    258.72817   -4641.4382   -4142.4592   -4641.4382            0    4433.5065    19.913212    20.161195    20.693742    8308.0027    4895.9162    3747.8634    4656.7398    -95.23631   -796.03337    418.07263   -3605.2792 
 4633000    261.40208   -4639.6223   -4135.4864   -4639.6223            0    5291.6043    19.914977    20.070759    20.619655    8241.8557    7108.6666    2380.3522     6385.794   -456.76126   -286.86568    550.85778   -3499.4408 
 4634000    251.48677   -4692.0963   -4207.0829   -4692.0963            0    5699.2165    19.856965    20.070312    20.943187    8346.6033    5482.1258    5636.7287    5978.7951   -482.92704   -334.62758    9.4665446   -3513.3364 
 4635000    258.30751   -4688.4096   -4190.2418   -4688.4096            0    5263.9176    20.202948    19.752826    20.794739    8298.4593    5450.5943    4639.7331    5701.4253   -571.81141    820.71392    1367.6061   -3553.1787 
 4636000    269.80284   -4690.5931   -4170.2556   -4690.5931            0    5965.0554    19.844775    20.116808    20.703496    8265.1158     7422.317    5346.0148    5126.8342   -155.96314    721.80497     515.9345   -3451.2384 
 4637000    266.80303   -4716.6631    -4202.111   -4716.6631            0    3174.9717    19.818128    20.001548    21.165422    8389.8305    3882.9357    4213.0123     1428.967    306.85934    730.04716   -1112.6476   -3813.6308 
 4638000    256.85884   -4684.2257   -4188.8519   -4684.2257            0    6086.4161    19.812084    20.002065    20.778753    8234.2582    6002.2492    4983.9711    7273.0279   -525.90988   -354.27209    1185.4708   -3457.9451 
 4639000    257.51507    -4716.659   -4220.0195    -4716.659            0    5070.8527    19.933119    20.015784    20.817992       8305.9    3313.5252    6336.4568    5562.5761   -751.45588    804.95499    533.85842   -3605.7717 
 4640000    266.68019   -4689.7622   -4175.4471   -4689.7622            0    2415.9305    19.864699    20.096379    21.113722     8428.778    2255.2382    2691.3467    2301.2066   -238.08528    370.61674   -16.079853   -3878.4686 
 4641000    261.55882   -4690.5142    -4186.076   -4690.5142            0    4159.8692    19.853441    20.031333    20.872841    8300.9385    3989.2233     4301.134    4189.2503    451.27964    812.73445    935.75481   -3682.4795 
 4642000    258.61241   -4671.7546   -4172.9988   -4671.7546            0    4457.8987    20.156573    20.030457    20.580249    8309.1806    5434.8414    3624.9443    4313.9105   -551.17189    39.939644    289.09754   -3632.7867 
 4643000    257.64024     -4688.31   -4191.4292     -4688.31            0    4254.6822    20.094671    20.097065    20.741962    8376.5151     3826.634     4343.194    4594.2186   -61.575278     1375.079   -674.05161   -3671.6649 
 4644000    270.24243   -4687.0023   -4165.8171   -4687.0023            0    4355.4546    19.801998    20.115707    20.790428    8281.4757    6153.9563    3386.0862    3526.3213    650.60795    1086.3615   -891.54053   -3639.7791 
 4645000    270.00678   -4693.4547    -4172.724   -4693.4547            0    5339.6912    19.952121    19.922605    20.773037    8257.2455    5232.7349    5589.1831    5197.1558     289.9736    485.98407   -243.11849   -3529.6999 
 4646000    256.64655   -4701.2331   -4206.2687   -4701.2331            0    4861.4201    20.077429    20.128769    20.452795    8265.6682    4443.9636    3654.0408    6486.2559     342.7225    326.97245     386.4411   -3620.2425 
 4647000    246.67102   -4684.5862   -4208.8604   -4684.5862            0    4744.2797    20.077442    20.006751    20.786221    8349.5005    5824.8791     2827.072    5580.8881   -510.90411    -392.3525    634.02615   -3631.1546 
 4648000    267.19391   -4723.9663   -4208.6603   -4723.9663            0     5214.065    19.895686    19.930697    20.953989     8308.988    5938.2623    5416.3133    4287.6195    -223.8636    378.81205    2290.5554     -3576.83 
 4649000    275.15556   -4691.8846    -4161.224   -4691.8846            0    3772.0275    19.987713    19.981771    20.877341    8338.1986    3898.6578    4315.5812    3101.8434    425.30533   -1302.2753   -502.95858     -3702.53 
 4650000     262.3993   -4686.8264   -4180.7673   -4686.8264            0    5239.4537      19.9435    19.969158    20.696654    8242.5438    3601.8975    6548.9502    5567.5132   -225.86201    208.20311   -605.46699   -3550.9376 
 4651000    276.15352   -4671.8442   -4139.2589   -4671.8442            0    5224.7025    20.128504    20.036366     20.72834    8359.7828    4469.2095    5510.1969    5694.7012   -903.43985   -158.99284    1202.2726   -3502.2692 
 4652000    256.58942   -4653.3253    -4158.471   -4653.3253            0    5113.0974    19.977861    19.999688    20.892865     8347.765    4509.0084    5096.0358    5734.2479   -387.24913    -738.7182   -950.21095   -3535.9842 
 4653000    272.25439   -4714.5187   -4189.4532   -4714.5187            0    6462.4004    20.024582    19.934992    20.580426    8215.4975     5393.094    7504.1304    6489.9767   -482.28712   -525.30434    482.49494   -3415.1632 
 4654000    262.64382   -4691.2023   -4184.6716   -4691.2023            0    4091.0352    19.999395    20.131099    20.735543    8348.3327    4548.2745    4312.8058    3412.0254   -104.09988    1041.0708   -133.39453   -3686.5804 
 4655000    251.53979   -4673.6997   -4188.5841   -4673.6997            0    3986.5486    20.092578    20.074207    20.756826    8372.1111     4834.516    2539.4424    4585.6875    255.69023    767.54141   -1419.3507   -3701.8319 
 4656000    254.13153   -4698.7705   -4208.6565   -4698.7705            0    3632.5493    20.006813    19.861334    20.993639    8342.0745    4593.6963    3448.6708    2855.2807   -226.37492    949.32616    138.25654   -3766.7184 
 4657000    266.44287   -4688.6969   -4174.8394   -4688.6969            0    6013.9736    19.829071    20.047589    20.778468    8259.9616    6964.7333    5320.5181    5756.6695   -631.77398    867.59662     177.5681   -3450.3777 
 4658000     251.8891   -4700.8193   -4215.0299   -4700.8193            0    5870.3778    20.196638    19.862362    20.517483    8230.6486    5019.6238    4523.8463    8067.6631   -112.95224    84.559568   -811.33327   -3510.3758 
 4659000    271.04947   -4721.8574   -4199.1157   -4721.8574            0    4251.3584    19.812333    20.062934     20.86869    8295.1691     4082.272    4018.9987    4652.8045   -649.59469    963.25283   -1316.6834   -3684.8011 
 4660000    272.62713   -4703.1313   -4177.3469   -4703.1313            0     4742.063    19.975847    20.145232    20.716261    8336.5977    6143.9083    3343.1721    4739.1088    209.26432   -691.06688      831.432   -3600.8034 
 4661000    268.84907   -4710.8453   -4192.3473   -4710.8453            0    5787.8734     19.78146    20.168145    20.570538    8206.7259    5061.5018    5175.9735    7126.1448    57.105675    545.46293    1302.5404    -3499.616 
 4662000    263.51229   -4681.3897   -4173.1841   -4681.3897            0    4897.9044    20.233505    19.891891    20.773605    8361.0162    4833.9238     5393.735    4466.0544   -373.41055   -1212.6117    150.92479   -3575.9491 
 4663000    254.54912   -4654.8747   -4163.9553   -4654.8747            0    5780.6108    19.864839    20.132093     20.68106    8270.7858    7734.2142    4664.9862     4942.632   -322.10043    -1333.761    1426.3076   -3466.6926 
 4664000    263.88283   -4708.2559   -4199.3357   -4708.2559            0    4231.9301    19.968251    19.845737    20.965258    8308.2099     4164.083    4950.6838    3581.0235    177.35835    878.44213    420.37697   -3686.5666 
 4665000    270.33973   -4700.4796   -4179.1067   -4700.4796            0     5149.858     20.03992    20.061827     20.67217    8310.9856    6509.6477    4714.3357    4225.5905    636.93268   -52.248477   -282.56298   -3554.9068 
 4666000     267.4361   -4678.8631   -4163.0901   -4678.8631            0    5241.1134    19.938749    20.167831    20.595943    8282.0679    4239.6291    6422.2891    5061.4222    745.76498    299.58955   -814.92606   -3530.0398 
 4667000    259.11859   -4669.1374   -4169.4054   -4669.1374            0    5998.1806    19.844087    20.031781    20.572096    8177.6635    7433.6516     4210.796    6350.0941    613.71908   -2798.5586    1436.5335   -3454.0454 
 4668000     272.9192   -4670.3325   -4143.9849   -4670.3325            0    6802.9132    19.839032    20.070922    20.738623    8257.8641    8719.6625    4370.3264    7318.7506    691.93671   -111.58353    1111.0571   -3324.6932 
 4669000    266.00609   -4662.5146   -4149.4995   -4662.5146            0    5571.3273    19.990619    20.145374    20.558897    8279.4483    7117.6964    3636.3681    5959.9175   -423.05318   -1081.6822   -155.90345    -3476.777 
 4670000     261.1151    -4665.058   -4161.4756    -4665.058            0    5467.7681    19.951292    19.859059    20.928731     8292.254    5031.1173    6454.6175    4917.5694   -378.17958   -86.405539   -204.74047   -3500.2364 
 4671000    271.51009   -4685.1669   -4161.5368   -4685.1669            0    4481.2312    20.104907    20.011356    20.819368    8376.1825    5140.0851    3850.5843    4453.0242    91.403174   -54.336337    624.91289   -3614.1184 
 4672000    267.15654   -4709.8914   -4194.6575   -4709.8914            0      5164.44    19.908678    20.077319    20.719075    8281.6811     4426.329    5142.3275    5924.6634    246.81638    -1225.676     537.1311   -3570.8974 
 4673000    250.32757   -4695.7933   -4213.0155   -4695.7933            0    4370.1292    20.149082    20.180454    20.563002    8361.2793    5611.2161    2697.9408    4801.2307    -246.0167    547.99242    882.95374    -3680.119 
 4674000      261.102   -4691.4609   -4187.9038   -4691.4609            0    4941.0974     19.85316     20.02645    20.911012    8313.9742     7483.237    3011.5411    4328.5142   -831.19081   -889.28729    1708.8044   -3588.7918 
 4675000    266.65348   -4711.8219   -4197.5582   -4711.8219            0    5290.2171    19.842218    20.077542    20.831257    8298.8179      6239.99     4607.377    5023.2842   -665.18604   -655.25479   -2371.1618   -3557.2846 
 4676000    258.40318   -4702.2723   -4203.9201   -4702.2723            0    7945.1486    20.003131    19.762316    20.688116    8178.1815    7271.1395    8519.9429    8044.3634    245.44863    829.61314   -556.71177   -3256.2991 
 4677000    262.30365   -4677.9727   -4172.0981   -4677.9727            0    6172.6889     19.83554    20.151881    20.752664    8295.3263    8791.9638    3609.2364    6116.8665   -34.276149    -762.1481   -63.882095   -3425.3334 
 4678000    252.57114   -4662.1112   -4175.0065   -4662.1112            0    5644.2695    19.870038     19.99001    20.678224    8213.4372    4862.6442    6800.5188    5269.6454    182.57954    1215.7353   -1115.5856   -3498.9102 
 4679000    266.50595   -4660.5155   -4146.5364   -4660.5155            0    5627.6477    20.220446    20.036465    20.600621    8346.2645    4338.6102    5981.6078    6562.7252    295.34257   -683.51368   -30.097533   -3461.5295 
 4680000      270.112   -4681.8443   -4160.9106   -4681.8443            0    3708.7287    19.978379     20.07633    20.819973    8350.7358    4226.6026    2388.8669    4510.7164   -25.322673   -1775.7437   -2074.1436    -3709.236 
 4681000    267.46967   -4705.2914   -4189.4536   -4705.2914            0    4081.4935     20.07863    20.034616    20.709482    8330.7543    4794.4642    4310.0669    3139.9495    371.76304    1075.8593    794.51977   -3693.5705 
 4682000     263.7386   -4677.8236   -4169.1815   -4677.8236            0    4906.7732    19.949059    20.293304    20.493561    8296.4556    4411.2808    4561.1829     5747.856    493.60501   -867.18681   -860.66577    -3575.485 
 4683000    253.72151   -4705.6234   -4216.3002   -4705.6234            0    5162.4857    19.969894    19.946403    20.807844    8288.3374    6075.1653    4617.8387    4794.4531    44.682504    398.79985    928.47995   -3592.2749 
 4684000    257.79855    -4696.857   -4199.6708    -4696.857            0    5419.5037    19.928841    19.945172    20.847699    8286.6299    7566.2483    4370.9198     4321.343    635.32055   -589.23191   -531.19138    -3544.713 
 4685000    273.52043   -4680.5354   -4153.0282   -4680.5354            0    4900.0798    19.971928    20.173457    20.627304    8310.7992    6469.2613    3630.9002    4600.0779    -276.0783   -245.11146   -897.42246   -3559.1166 
 4686000    263.77871   -4656.9442   -4148.2248   -4656.9442            0    6199.5103    19.887743    20.142564      20.5846    8245.9878    6948.5516    5254.6212    6395.3582    176.47537    1023.7353    1565.3376   -3402.6762 
 4687000    257.44523    -4690.916   -4194.4112    -4690.916            0    5347.3046     20.01704    19.911285    20.871821    8318.7773    4800.7573    6153.9003    5087.2563    166.15534   -467.91235    139.33193   -3545.6717 
 4688000    270.54834   -4692.1348   -4170.3596   -4692.1348            0    5115.5704    19.841287    20.101548    20.850519    8316.0331    5097.9174    5424.1588    4824.6348     11.25485    1004.2838   -1929.9824    -3549.939 
 4689000    242.95497   -4674.0534   -4205.4943   -4674.0534            0    4700.8202    19.957073    19.766917     20.88457    8238.7496    1921.0874    7436.0058    4745.3675    313.52186    502.98407    -469.9077   -3640.6733 
 4690000    279.25086    -4676.814   -4138.2553    -4676.814            0    6352.4836    19.843556    20.163888    20.777563    8313.5858    8313.8013    3951.7717    6791.8777    -302.3357    1705.4104   -133.45549   -3368.0476 
 4691000    274.20836   -4697.1634   -4168.3295   -4697.1634            0     6927.002    19.955839    20.040391    20.670195    8266.4825    7187.3344    6515.5518    7078.1199   -681.32864   -543.66156    291.15653   -3333.2228 
 4692000    266.10641   -4673.6833   -4160.4747   -4673.6833            0    6685.4064    19.973908    19.913289    20.662309    8218.3552     5537.068    7553.5479    6965.6032   -443.59975    1064.1585    289.54171   -3359.1867 
 4693000    268.14812   -4696.1514   -4179.0052   -4696.1514            0    3097.6819    20.076908    20.043726    20.849565    8390.1994    4278.4369    1483.3534    3531.2553    183.39062   -697.13672   -302.37214   -3799.9653 
 4694000    260.81525   -4657.5417   -4154.5375   -4657.5417            0    6576.1954    19.827221    20.186396     20.74053    8301.1925    8486.7734    5961.0486    5280.7642   -234.77403    -982.5248   -180.50564   -3358.3945 
 4695000    263.73118   -4688.6903   -4180.0625   -4688.6903            0    4840.5538    20.147355    19.966305    20.784798    8361.0639     4526.819    4449.1103    5545.7321   -357.02544    467.59216   -1589.5306   -3589.8173 
 4696000    257.07472   -4681.5066   -4185.7164   -4681.5066            0    4985.7906    20.032295    20.111617    20.701583     8340.292    4103.6827    5481.3009    5372.3881    390.11334   -244.49522    663.60858   -3579.2717 
 4697000    272.72162   -4704.1045   -4178.1379   -4704.1045            0    6325.0311    20.171633    20.026812    20.420416     8249.307    7616.1144    5214.7083    6144.2707    311.66705   -686.83554    84.968992   -3417.1881 
 4698000    262.98545   -4682.6021   -4175.4126   -4682.6021            0    4837.8347    19.972562     19.99814    20.762554    8292.8564    4903.9602     4898.205    4711.3388    783.94962   -1223.8046    1025.3996   -3590.3113 
 4699000    262.06794   -4655.1161    -4149.696   -4655.1161            0    5756.9847    19.841682     20.30688    20.575052    8290.1549    6717.0988    4781.0388    5772.8164    362.25792    1148.9014   -626.41764    -3453.657 
 4700000    254.74028   -4682.5462   -4191.2582   -4682.5462            0    5455.3968     20.27977    19.910896    20.575517    8308.1548     4159.668    5146.2522    7060.2701    75.828711    581.84282   -409.21765     -3530.25 
 4701000    261.04064   -4701.5365   -4198.0976   -4701.5365            0    2491.1095    20.023167    20.245252    20.833291    8445.2758    2590.9642    2432.0632    2450.3012    323.70545    727.54749    170.99174   -3891.2784 
 4702000    263.39472   -4689.3553   -4181.3764   -4689.3553            0    5602.2335    20.082939    19.963072    20.793285    8336.3843    5696.7355    6097.5222    5012.4428    219.31522    340.18069    -1988.276   -3500.2702 
 4703000    258.11669   -4708.5365   -4210.7367   -4708.5365            0    4320.9391    19.782186    20.248902    20.761499    8316.3828    5048.3877    3252.2637    4662.1657   -623.03804   -653.75156     633.8545   -3686.6677 
 4704000    244.33774   -4668.4048   -4197.1789   -4668.4048            0    6367.1572    19.886189     19.93088     20.83851    8259.3277    6045.0153    7590.3782    5466.0782   -786.32641    1270.7242    535.23359   -3430.2305 
 4705000    259.02073   -4712.3797   -4212.8364   -4712.3797            0    5746.3852    20.034336    19.970528    20.819766    8329.9107    5776.7092    6209.8792    5252.5671    240.88442    1704.4483    1550.7764   -3514.7472 
 4706000    254.14319   -4702.4654   -4212.3289   -4702.4654            0    5568.2845    20.149936    20.060189    20.462302    8271.0987    4773.4209     6387.674    5543.7587   -241.58722    1122.7129    817.03599   -3540.6519 
 4707000     261.0665   -4685.3838   -4181.8951   -4685.3838            0    4727.3219    19.945139    20.112964    20.880856    8376.4779    5730.1928    4107.6004    4344.1725   -252.01638    1128.6419    885.62268   -3604.3944 
 4708000    255.49384   -4660.4404   -4167.6991   -4660.4404            0    5027.4606    19.836838    20.110299    20.703827     8259.269    4714.6015    5545.0807    4822.6995    317.92338   -1128.3491    656.36087   -3562.1265 
 4709000    260.14778   -4684.6553   -4182.9385   -4684.6553            0    5972.8916    19.919933    20.188118    20.573159    8273.4126    7103.4121    4418.6426    6396.6201    -7.020561    1013.2342   -96.974746   -3462.2539 
 4710000    271.95623   -4663.5901   -4139.0996   -4663.5901            0    6850.3675    20.026607     19.94956    20.602827    8231.2827     5796.589    7945.0065    6809.5069    737.81775    128.97619     1321.503   -3316.7485 
 4711000     265.4542   -4686.9293   -4174.9785   -4686.9293            0     6628.009    19.737816    20.021728     20.86671    8246.2145    7451.3562     6274.012    6158.6589     -393.751    1460.2285   -435.79226   -3377.8771 
 4712000     257.2798   -4675.5307    -4179.345   -4675.5307            0    5729.2741    20.028799    19.945736    20.844679    8327.2227    6985.8546    5093.4773    5108.4905    -439.7104    1577.2008   -280.11101    -3483.559 
 4713000    269.57851   -4671.4315   -4151.5267   -4671.4315            0    4707.1454    19.911192    20.067472    20.736948    8285.8063    4344.6368    4823.9214    4952.8779    318.72606   -1171.8169    2061.9489   -3582.7153 
 4714000    275.50265    -4703.585   -4172.2549    -4703.585            0    5165.8853     20.23157    19.865007    20.670403    8307.4407    3106.9373    7525.2601    4865.4586    -1014.419   -52.936347    1580.3299   -3546.3795 
 4715000    260.44222   -4734.6929   -4232.4081   -4734.6929            0     4553.209    20.279387    20.084204     20.50337    8350.9272    4073.1929    4671.4396    4914.9944    21.929473   -423.46063   -411.75059   -3677.8742 
 4716000    262.53099   -4696.1001    -4189.787   -4696.1001            0     6952.568    19.827151    19.982276     20.64647    8179.9582    8368.2289    5885.5719    6603.9032    480.55072    789.53436   -434.42875   -3360.3713 
 4717000    268.13249   -4739.5136   -4222.3976   -4739.5136            0    4533.8767    20.235118    19.642788    20.819538    8275.2274    2596.1507    7530.3678    3475.1115   -735.44325    1351.4053    1456.5811   -3675.2235 
 4718000     272.2863   -4681.2648   -4156.1378   -4681.2648            0    6272.5673    19.829548    19.914246    20.828364    8224.9231    6125.2865    7181.9652    5510.4502    554.02504   -1402.8838   -1604.0697   -3403.7304 
 4719000    276.46654   -4705.2953   -4172.1063   -4705.2953            0    4133.9133    19.902868     20.18108    20.829157    8366.2675    5897.3079    3915.2608    2589.1712    67.121397    193.66277    844.26249   -3667.7134 
 4720000    245.87774   -4684.6157   -4210.4198   -4684.6157            0     5912.284    20.003201    20.157872    20.513705    8271.5764    4642.3117    5207.0532    7887.4871    153.04194    1124.7513   -527.76161   -3497.2064 
 4721000    273.27467   -4716.0295   -4188.9963   -4716.0295            0    4180.8723     19.92458    20.007028    20.727219     8262.525    4762.0851    3581.9089     4198.623    469.35616    540.82747    37.135682   -3685.1993 
 4722000    259.85299   -4709.0293    -4207.881   -4709.0293            0    3786.0615    19.984004    20.078513    20.831405    8358.5824    5794.7383    2298.1105    3265.3357    442.30335   -694.44406   -1258.7017    -3746.355 
 4723000    259.40467   -4702.9951   -4202.7114   -4702.9951            0     4828.382    19.984025    20.097978    20.685791    8308.2101    5120.8823    4647.0727    4717.1909    173.67612   -243.19302     48.16421   -3617.6721 
 4724000    263.84483   -4684.3966   -4175.5496   -4684.3966            0    6429.3313    20.037191     19.82115    20.670971    8209.6862     5662.377    5144.2672    8481.3495   -471.60648    1094.0843    364.05444   -3405.7667 
 4725000    263.42152    -4704.888   -4196.8574    -4704.888            0     6275.049    19.934306    19.906481    20.823502    8263.2212    7150.5334    6468.6627     5205.951   -305.34107   -598.83355   -150.89542   -3440.6475 
 4726000    254.65017   -4674.7567   -4183.6424   -4674.7567            0    4941.5405    20.276724     20.02505    20.613869    8370.1049    6152.3562    3320.1236    5352.1418    378.24233    148.08282   -416.27939   -3580.4316 
 4727000    282.35119    -4670.341    -4125.803    -4670.341            0    2762.9738     20.17829    20.070103     20.82737    8434.6757     2764.541    1526.8419    3997.5385    465.03947   -170.51538    1257.4065   -3785.9266 
 4728000    275.20719   -4681.8955   -4151.1353   -4681.8955            0    6854.9397    19.832321    19.976249    20.906945    8282.8168    6080.9332    8222.5072    6261.3788   -680.39428    1795.9628    997.26591   -3323.0833 
 4729000    274.51731   -4691.4559   -4162.0262   -4691.4559            0    4281.5468    19.983825    20.191821    20.545001    8290.1094    6665.5441    1811.7801    4367.3161     180.6543    252.90334    271.48652   -3644.3755 
 4730000    274.23865   -4666.7972   -4137.9049   -4666.7972            0    4763.8623    20.051135     20.09461    20.608799    8303.6916    4576.7634    4629.3628    5085.4606    319.24839    918.28921   -1231.5478   -3560.9973 
 4731000    263.17271   -4665.3258   -4157.7751   -4665.3258            0    5174.2656    20.012268    19.962185    20.870589     8337.562    6466.3424     3932.708    5123.7463    486.33775   -389.81896    1258.6438   -3528.6113 
 4732000    261.89169   -4678.1508   -4173.0706   -4678.1508            0    5207.9601    19.818291    20.066311    20.870925    8299.9493    6849.2893    3693.6116    5080.9794    262.60201    -710.5765    542.04505   -3542.6666 
 4733000    269.48159    -4706.249   -4186.5311    -4706.249            0     6049.658    19.953108    19.940831    20.697639    8235.2088    5823.8161     6049.535     6275.623   -63.760671    -798.9725    1164.5025   -3459.9546 
 4734000    263.16738   -4666.0865   -4158.5461   -4666.0865            0     5380.902    20.027499    20.292171    20.572943    8360.8738    5497.5342    3696.1404    6949.0315   -129.45616   -1003.6728   -439.84167   -3502.4271 
 4735000    263.01079     -4712.68   -4205.4415     -4712.68            0    6193.1858    20.067823    19.877128    20.697516    8256.0461     5087.267    6065.8642    7426.4263   -36.788392    732.89532    984.05613    -3459.745 
 4736000    247.81801    -4679.621   -4201.6831    -4679.621            0    5950.5192    19.974448    20.003895    20.798077    8310.2204    5370.9907    6127.3474    6353.2195    261.82943    955.27631   -966.04673   -3480.5037 
 4737000    252.71067   -4676.2764   -4188.9026   -4676.2764            0    3649.4685    20.169929     19.93611     20.82292    8373.1027    3016.3291    4367.0018    3565.0745    433.34215   -282.13465     110.8645   -3743.2546 
 4738000    266.19973   -4681.2116    -4167.823   -4681.2116            0    5823.1611    19.866975    19.826364    21.071501    8299.8512    5853.2683    5429.3227    6186.8924   -591.66174    525.85004   -227.52483   -3462.9595 
 4739000    260.48345   -4689.2264   -4186.8621   -4689.2264            0    4460.7265     20.01945    20.044791    20.642154    8283.4013    4592.7818    4428.3519    4361.0458    650.36431   -663.94011    427.43034   -3647.9845 
 4740000     255.1384   -4670.8582   -4178.8023   -4670.8582            0    4091.6086    20.127132    20.256444    20.542425    8375.2313    3375.1868    3446.8854    5452.7537    314.62683    34.779075    1996.3768   -3679.0362 
 4741000    263.11421   -4712.7872   -4205.3493   -4712.7872            0    4306.0592    20.086243    20.000861    20.679544    8307.8443     4133.677     4023.782    4760.7187   -394.40693    1752.4871    814.32585   -3683.6212 
 4742000    269.24834   -4712.8268   -4193.5587   -4712.8268            0    4598.6398    19.806388    20.078966    20.993629    8348.9941     5727.911    4354.3624    3713.6459   -597.52686     828.9407   -103.50832   -3633.6213 
 4743000    263.53501   -4681.8442   -4173.5947   -4681.8442            0    5259.9831    20.054279    20.150035    20.974713    8475.7644    7144.0652    4332.1009    4303.7833    200.96761   -326.27896    748.66027   -3523.4065 
 4744000    267.95919   -4685.2669    -4168.485   -4685.2669            0    4485.3606    19.923385    20.031939    20.953578    8362.6578    4594.7597    5523.3449    3337.9773    234.21174    1671.6353   -88.336263   -3621.4469 
 4745000    276.48372   -4669.2348   -4136.0127   -4669.2348            0    3559.2517    20.212607    20.027646    20.718094    8386.9109    4295.2484    2623.9111    3758.5956     -122.854    282.34753   -807.40668   -3700.6646 
 4746000    263.05817   -4664.2655   -4156.9357   -4664.2655            0    4287.4237    20.185928    19.875424    20.611399    8269.3735    4851.5515    3788.1683    4222.5513   -177.85971    333.57811    1878.3114    -3639.871 
 4747000    250.90915   -4663.7091   -4179.8097   -4663.7091            0    5191.8401    19.889226    20.032821    20.841797    8304.1494    6018.8921    3772.8392     5783.789    -109.7127    609.61577    443.48218    -3551.039 
 4748000     271.7145   -4668.2312    -4144.207   -4668.2312            0       5314.6    19.945869    19.938205    20.909324    8315.3207    3904.9095    6721.0661    5317.8246    543.81855    217.93906    158.61893   -3499.7032 
 4749000    249.75368   -4683.5569   -4201.8859   -4683.5569            0    5504.2474    19.990646    20.139016    20.617324    8300.3686    4042.6491    6096.4525    6373.6407   -173.35257   -96.058643    470.93249   -3535.5838 
 4750000    269.58009    -4649.842   -4129.9341    -4649.842            0    5585.8459     20.03371    19.954479    20.603726    8236.5912    3842.0638    6143.3379     6772.136   -395.71219   -775.86689    782.94035   -3458.9498 
Loop time of 500.781 on 64 procs for 250000 steps with 972 atoms

Performance: 86.265 ns/day, 0.278 hours/ns, 499.221 timesteps/s
99.1% CPU use with 64 MPI tasks x 1 OpenMP threads

MPI task timing breakdown:
Section |  min time  |  avg time  |  max time  |%varavg| %total
---------------------------------------------------------------
Pair    | 20.015     | 27.869     | 36.271     |  76.7 |  5.57
Bond    | 0.26103    | 0.27581    | 0.29744    |   1.2 |  0.06
Kspace  | 202.04     | 220.48     | 240.92     |  63.9 | 44.03
Neigh   | 3.1518     | 4.0475     | 5.4992     |  33.2 |  0.81
Comm    | 96.707     | 115.39     | 128.05     |  80.9 | 23.04
Output  | 1.2525     | 1.2581     | 1.2679     |   0.5 |  0.25
Modify  | 122.33     | 123.92     | 127.17     |  10.0 | 24.74
Other   |            | 7.54       |            |       |  1.51

Nlocal:        15.1875 ave          20 max          12 min
Histogram: 5 8 17 6 0 10 9 5 3 1
Nghost:        2235.88 ave        2275 max        2203 min
Histogram: 1 5 17 6 6 10 8 5 4 2
Neighs:        4773.34 ave        6819 max        3458 min
Histogram: 5 8 12 11 8 6 8 3 1 2

Total # of neighbors = 305494
Ave neighs/atom = 314.29424
Ave special neighs/atom = 2.0000000
Neighbor list builds = 8362
Dangerous builds = 0

unfix		3
unfix		2
unfix		1

write_data	data.final.${pid}
write_data	data.final.0
System init for write_data ...
PPPM initialization ...
  extracting TIP4P info from pair style
  using 12-bit tables for long-range coulomb (../kspace.cpp:340)
  G vector (1/distance) = 0.37150032
  grid = 24 24 24
  stencil order = 5
  estimated absolute RMS force accuracy = 0.0035955951
  estimated relative force accuracy = 1.0828028e-05
  using double precision FFTW3
  3d grid and FFT values/proc = 2197 216
Last active /omp style is kspace_style pppm/tip4p/omp
WARNING: Not all mixed pair coeffs generated from mixing. Use write_data with 'pair ij' option to store all pair coeffs. (../write_data.cpp:312)

write_restart   restart.lmp.${pid}
write_restart   restart.lmp.0
System init for write_restart ...
PPPM initialization ...
  extracting TIP4P info from pair style
  using 12-bit tables for long-range coulomb (../kspace.cpp:340)
  G vector (1/distance) = 0.37150032
  grid = 24 24 24
  stencil order = 5
  estimated absolute RMS force accuracy = 0.0035955951
  estimated relative force accuracy = 1.0828028e-05
  using double precision FFTW3
  3d grid and FFT values/proc = 2197 216
Last active /omp style is kspace_style pppm/tip4p/omp
Total wall time: 0:08:25
