LAMMPS (30 Jul 2021)
  using 1 OpenMP thread(s) per MPI task
package omp 0
using multi-threaded neighbor list subroutines
echo both

include		in.partitions
variable        pid world 0
include		in.temp
variable        temperature equal 250.16
variable	tempDamp equal 100.0
include		in.pressure
variable        pressure equal 5375.0
variable        pressureDamp equal 1000.0 # This is 1 ps
include		in.seed
variable        seed world 745823

units		real
atom_style	full
read_restart	restart.lmp.${pid}
read_restart	restart.lmp.0
Reading restart file ...
  restart file = 30 Jul 2021, LAMMPS = 30 Jul 2021
  restoring atom style full from restart
  orthogonal box = (0.41230447 1.5771715 0.50301049) to (17.795268 22.052006 21.710185)
  4 by 4 by 4 MPI processor grid
  restoring pair style lj/cut/tip4p/long/omp from restart
  restoring bond style harmonic/omp from restart
  restoring angle style harmonic/omp from restart
  864 atoms
  576 bonds
  288 angles
Finding 1-2 1-3 1-4 neighbors ...
  special bond factors lj:    0        0        0       
  special bond factors coul:  0        0        0       
     2 = max # of 1-2 neighbors
     1 = max # of 1-3 neighbors
     1 = max # of 1-4 neighbors
     2 = max # of special neighbors
  special bonds CPU = 1.832 seconds
  read_restart CPU = 2.147 seconds
include 	in.setup
variable	out_freq equal 1000
variable	out_freq2 equal 10000
variable	out_freq3 equal 1000

timestep	2.0

neigh_modify    delay 7 every 1

include		in.tip4p
# This is TIP4P/Ice

# create groups ###
group ox type 2
288 atoms in group ox
group hy type 1
576 atoms in group hy

# set charges - beside manually ###
set group ox charge -1.1794
Setting atom values ...
  288 settings made for charge
set group hy charge 0.5897
Setting atom values ...
  576 settings made for charge

# ### TIP3P Potential Parameters ###
pair_style lj/cut/tip4p/long/omp 2 1 1 1 0.1577 8.5
pair_coeff 1 1*2 0.000 0.000
pair_coeff 2 2 0.21084 3.1668
bond_style  harmonic
bond_coeff  1 450 0.9572
angle_style harmonic
angle_coeff 1 55 104.52
kspace_style pppm/tip4p/omp 1.0e-5
pair_modify tail yes

thermo          ${out_freq}
thermo          1000
thermo_style    custom step temp pe etotal epair emol press lx ly lz vol pxx pyy pzz pxy pxz pyz enthalpy

restart 	${out_freq3} restart.lmp.${pid} restart2.lmp.${pid}
restart 	1000 restart.lmp.${pid} restart2.lmp.${pid}
restart 	1000 restart.lmp.0 restart2.lmp.${pid}
restart 	1000 restart.lmp.0 restart2.lmp.0


include         in.dump
dump            myDump all atom ${out_freq2} dump.water.${pid}
dump            myDump all atom 10000 dump.water.${pid}
dump            myDump all atom 10000 dump.water.0
dump            myDump2 all dcd ${out_freq2} dump.dcd
dump            myDump2 all dcd 10000 dump.dcd
dump_modify     myDump append yes
dump_modify     myDump2 append yes


variable natoms 	equal  "count(all)"                        # NUMBER ATOMS
variable H      	equal  "enthalpy/v_natoms"                 # ENTHALPY-per-atom
variable Vol      	equal  "vol/v_natoms"                 # volume-per-atom
fix AVG all 		ave/time ${out_freq} 1 ${out_freq} v_Vol v_H file vol_enthalpy.dat
fix AVG all 		ave/time 1000 1 ${out_freq} v_Vol v_H file vol_enthalpy.dat
fix AVG all 		ave/time 1000 1 1000 v_Vol v_H file vol_enthalpy.dat


timer           timeout 23:50:00 every 1000
New timer settings: style=normal  mode=nosync  timeout=23:50:00

fix 		1 all shake 1e-6 200 0 b 1 a 1
       0 = # of size 2 clusters
       0 = # of size 3 clusters
       0 = # of size 4 clusters
     288 = # of frozen angles
  find clusters CPU = 0.077 seconds
fix             2 all nph iso ${pressure} ${pressure} ${pressureDamp}
fix             2 all nph iso 5375 ${pressure} ${pressureDamp}
fix             2 all nph iso 5375 5375 ${pressureDamp}
fix             2 all nph iso 5375 5375 1000
fix             3 all temp/csvr ${temperature} ${temperature} ${tempDamp} ${seed}
fix             3 all temp/csvr 250.16 ${temperature} ${tempDamp} ${seed}
fix             3 all temp/csvr 250.16 250.16 ${tempDamp} ${seed}
fix             3 all temp/csvr 250.16 250.16 100 ${seed}
fix             3 all temp/csvr 250.16 250.16 100 745823

run             250000
PPPM initialization ...
  extracting TIP4P info from pair style
  using 12-bit tables for long-range coulomb (../kspace.cpp:340)
  G vector (1/distance) = 0.3738656
  grid = 24 24 25
  stencil order = 5
  estimated absolute RMS force accuracy = 0.0031160842
  estimated relative force accuracy = 9.3839952e-06
  using double precision FFTW3
  3d grid and FFT values/proc = 2730 288
Last active /omp style is kspace_style pppm/tip4p/omp
Neighbor list info ...
  update every 1 steps, delay 7 steps, check yes
  max neighbors/atom: 2000, page size: 100000
  master list distance cutoff = 10.8154
  ghost atom cutoff = 10.8154
  binsize = 5.4077, bins = 4 4 4
  1 neighbor lists, perpetual/occasional/extra = 1 0 0
  (1) pair lj/cut/tip4p/long/omp, perpetual
      attributes: half, newton on, omp
      pair build: half/bin/newton/omp
      stencil: half/bin/3d
      bin: standard
Per MPI rank memory allocation (min/avg/max) = 9.237 | 9.242 | 9.249 Mbytes
Step Temp PotEng TotEng E_pair E_mol Press Lx Ly Lz Volume Pxx Pyy Pzz Pxy Pxz Pyz Enthalpy 
 6500000    251.85949   -3885.2712   -3453.5927   -3885.2712            0    3491.0359    17.382963    20.474835    21.207175    7547.9157    6151.9368    1106.2347    3214.9362   -1324.4348   -435.57401   -72.700981   -3069.3043 
 6501000    240.24077   -3898.5721   -3486.8076   -3898.5721            0    5587.4445    17.299409    20.376419    21.105239    7439.5972    3956.5362    5722.1809    7083.6163   -567.44822    216.76724    851.91108   -2880.5761 
 6502000    255.90485   -3928.6852    -3490.073   -3928.6852            0    6957.8929    17.193208    20.251328    20.975673    7303.4206    6466.3596     8303.484    6103.8352    1210.9092   -384.19295    870.50575   -2748.9677 
 6503000    253.63743   -3937.5741   -3502.8483   -3937.5741            0     4661.341    17.256275    20.325613    21.052615     7384.086    3478.7092    5372.1602    5133.1536   -271.55602   -1430.7373    225.90757   -3000.8716 
 6504000    237.97701   -3942.3245   -3534.4401   -3942.3245            0    5825.5121     17.23487    20.300401    21.026502    7356.6426     6940.215    5715.3798    4820.9414    1744.1083   -1400.6263   -317.62206   -2909.4262 
 6505000    255.01811   -3899.6783    -3462.586   -3899.6783            0    4739.9126    17.211042    20.272334    20.997431    7326.1712    4065.1486    6240.2297    3914.3594    536.74435   -911.95577    2622.7456   -2956.1515 
 6506000    260.16353   -3917.1995   -3471.2881   -3917.1995            0    5596.9124    17.213188    20.274862    21.000049    7328.9123    6183.3657    5844.7625     4762.609    93.755608   -871.33576    612.53775    -2873.064 
 6507000    248.44243   -3896.2954   -3470.4736   -3896.2954            0     5432.262    17.232229    20.297289    21.023279    7353.2601    6673.9586     3567.978    6054.8494    185.55868    388.52291    370.42179   -2887.9192 
 6508000    253.64893   -3894.1217   -3459.3761   -3894.1217            0    6403.2355    17.188644    20.245953    20.970106    7297.6068     6099.314     6414.807    6695.5856    449.77379    328.11536    -787.4945   -2777.8918 
 6509000    262.62176   -3912.8741   -3462.7493   -3912.8741            0    5239.9314    17.175051    20.229941    20.953522    7280.3067     4677.618     5366.701    5675.4754   -1778.5934   -809.16355    289.81932   -2906.3954 
 6510000    257.11665   -3931.1559   -3490.4668   -3931.1559            0    4898.2303    17.201383    20.260957    20.985647    7313.8434    3656.7749    6123.6003    4914.3157   -1135.5867   -320.95807   -68.720795   -2967.9975 
 6511000    247.39372    -3901.421   -3477.3966    -3901.421            0    8030.9497    17.138027    20.186332    20.908353    7233.3262    7891.0859    7582.2364    8619.5269     306.0971     1285.535    1739.4651   -2630.2066 
 6512000    265.28823   -3887.5237   -3432.8287   -3887.5237            0    5057.3677    17.153515    20.204574    20.927248    7252.9543    6250.7669    3444.1775    5477.1588    991.52592    382.51993    783.88333    -2897.876 
 6513000    259.79544   -3885.4374   -3440.1569   -3885.4374            0    5831.3771    17.105398    20.147899    20.868545      7192.09    6115.3437    4990.7097     6388.078   -1396.1709    341.02079    468.63142   -2828.5081 
 6514000    238.70449   -3908.8903    -3499.759   -3908.8903            0    5518.3346     17.18795    20.245135    20.969259    7296.7224    4667.5449    5922.9747    5964.4841   -1288.0422     31.62743    290.53574   -2912.5243 
 6515000    250.20084    -3892.468   -3463.6323    -3892.468            0    5013.1803    17.201992    20.261674     20.98639    7314.6206    4600.1306    4945.7271     5493.683   -466.65109    95.522518   -493.02907   -2928.8451 
 6516000     251.9613   -3888.9425   -3457.0894   -3888.9425            0    5377.7772    17.216139    20.278338    21.003649    7332.6824    3954.8295    6621.5043    5556.9978    1972.5376   -198.10179   -84.991725   -2881.9918 
 6517000    249.52328   -3889.5935   -3461.9192   -3889.5935            0    5544.6592    17.292808    20.368644    21.097185    7431.0836    5405.2324    7147.2958    4081.4494   -645.33961   -214.48797   -313.83004   -2861.0182 
 6518000    240.00438   -3921.5282   -3510.1689   -3921.5282            0    5482.2956    17.249143    20.317211    21.043914    7374.9337    5286.7768    6864.8427    4295.2672    1169.3763   -1088.3405    1127.4702    -2920.516 
 6519000      248.786   -3902.3532   -3475.9425   -3902.3532            0    7361.1816     17.15391    20.205041    20.927731    7253.4564    6363.4077    8062.4307    7657.7065     379.3376    9.5865573   -639.48859   -2697.2456 
 6520000    245.24838   -3923.1925   -3502.8452   -3923.1925            0    4857.4893    17.249905    20.318109    21.044843    7375.9111     5482.702     3893.693    5196.0729    708.29784    233.87843   -966.59254   -2980.3246 
 6521000    253.73789   -3922.8698   -3487.9718   -3922.8698            0    4229.9543    17.212575     20.27414    20.999302    7328.1298    3846.8325    3995.5836    4847.4468    1387.5345   -687.73289    -558.5854   -3035.9028 
 6522000    254.77875   -3875.2553   -3438.5733   -3875.2553            0    7011.0808    17.250272    20.318542    21.045292    7376.3825    8719.8399    6174.0886    6139.3139    1513.3035    668.07135    58.271036   -2684.3424 
 6523000    240.82274   -3913.4716   -3500.7097   -3913.4716            0    4030.6471    17.250249    20.318515    21.045264    7376.3531    4506.1744     5616.559    1969.2078    2147.9167     88.10881   -395.32731   -3067.1066 
 6524000    271.72565   -3873.8616   -3408.1331   -3873.8616            0    5461.6636    17.221417    20.284554    21.010088    7339.4283    5041.3525    5269.0035    6074.6346    485.64997    932.11434    1510.6509   -2823.5274 
 6525000    252.58155    -3900.648   -3467.7319    -3900.648            0    3491.6391    17.354982    20.441876    21.173037    7511.5243    3740.9571    4036.3311    2697.6289   -268.14652    216.79103    1244.3569   -3085.2302 
 6526000    248.41579   -3862.9792    -3437.203   -3862.9792            0    4798.4921    17.303173    20.380853    21.109831    7444.4543    3669.3628    5801.7426    4924.3707    1976.7484     873.6126    919.47762    -2916.232 
 6527000    262.81164   -3907.0489   -3456.5988   -3907.0489            0    6752.2692    17.260526    20.330619    21.057801    7389.5442     5823.204    8525.9979    5907.6056     346.1216   -1055.1793   -729.62954    -2728.914 
 6528000    254.88109   -3940.6873   -3503.8298   -3940.6873            0      4538.45    17.202562    20.262346    20.987085    7315.3477    4630.8597    4234.3839    4750.1064   -1719.8316   -126.99256   -563.63217   -3019.6369 
 6529000    251.47324   -3946.9896    -3515.973   -3946.9896            0    5524.9444    17.182101    20.238245    20.962123    7289.2757    5803.9579    5650.4037    5120.4715     84.93159    35.217662    194.89287   -2928.6349 
 6530000    262.15821   -3920.9008   -3471.5706   -3920.9008            0    4720.0636    17.270873    20.342807    21.070424    7402.8413    5132.4177     4440.971    4586.8021   -227.40464   -287.14732   -249.07395   -2961.9791 
 6531000    262.63336   -3891.4501   -3441.3055   -3891.4501            0    4814.4222    17.253358    20.322176    21.049056    7380.3416    6512.5998    2712.8378    5217.8289    406.36987    451.03328    808.09827   -2923.1066 
 6532000    237.88817   -3851.4661   -3443.7339   -3851.4661            0    4008.1952    17.244999    20.312331    21.038858    7369.6202    3995.4167    5812.6856    2216.4834    1233.4359   -1318.1961     1091.439   -3012.9397 
 6533000    251.21767   -3879.5603   -3448.9818   -3879.5603            0    4026.0484    17.269588    20.341293    21.068856    7401.1888    4351.0453    3897.3437    3829.7564   -1721.2982   -656.79913   -648.55371   -3014.4152 
 6534000    238.60836   -3922.9378   -3513.9712   -3922.9378            0    5534.5547    17.211791    20.273217    20.998345    7327.1283     6048.933    5470.5132    5084.2179    323.10967   -263.17274   -254.28261   -2922.5562 
 6535000    233.43778   -3909.1979   -3509.0935   -3909.1979            0    7346.0164    17.115916    20.160288    20.881378    7205.3657    7061.5719    6130.9161    8845.5611    340.40101    593.29595    2478.2805   -2737.1531 
 6536000    248.13237   -3919.0429   -3493.7525   -3919.0429            0    5243.3794    17.140501    20.189247    20.911372    7236.4598    3617.4212    4980.6472    7132.0698    -686.3608     871.0867    1006.2794   -2940.3855 
 6537000    263.40434    -3918.901    -3467.435    -3918.901            0    4986.4213    17.156829    20.208478    20.931291    7257.1593    4959.6345    5021.1454    4978.4841   -340.06759   -329.03076    61.248331    -2939.681 
 6538000    257.76468   -3935.5293   -3493.7294   -3935.5293            0    6357.0561     17.17654    20.231695    20.955338    7282.2005     6963.529    5585.7236    6521.9157  -0.26226663   -654.26298   -910.94357   -2818.5883 
 6539000    251.54145   -3905.7008   -3474.5673   -3905.7008            0     5572.374    17.122627    20.168193    20.889565    7213.8445    3490.6337    5451.1762    7775.3121   -633.87896    271.45879   -477.57017   -2888.3172 
 6540000    240.13097   -3915.1332   -3503.5569   -3915.1332            0    5086.3581    17.150182    20.200649    20.923182    7248.7274    5051.8427    5719.4797    4487.7519   -1064.8911   -1002.5543    1920.1145   -2965.8513 
 6541000    247.23606   -3932.4116   -3508.6575   -3932.4116            0    5720.9234    17.242856    20.309806    21.036244    7366.8727    5662.4688    6018.2485     5482.053   -1014.7906    1012.3747   -1423.6618   -2894.0113 
 6542000     255.3652   -3932.7865   -3495.0993   -3932.7865            0    8722.3453    17.175116    20.230018    20.953601    7280.3894    7956.9889    8073.9815    10136.066    -655.1856   -1688.1505     91.64733   -2568.9867 
 6543000    258.30895   -3934.0999   -3491.3672   -3934.0999            0    4042.1242    17.231041    20.295891     21.02183    7351.7403     2605.975      4393.33    5127.0675    790.66041     590.3788    377.72336   -3057.9804 
 6544000    257.09643   -3917.0138   -3476.3593   -3917.0138            0    6418.7928    17.205231     20.26549    20.990342    7318.7536    4462.4558    7283.4468    7510.4758   0.92585333    246.30796    1265.1384   -2791.2397 
 6545000    239.78862    -3928.147   -3517.1575    -3928.147            0    5569.6134    17.225492    20.289354     21.01506    7344.6393    4443.9599    5870.5304    6394.3498    414.52568   -304.14121   -403.53086   -2920.5738 
 6546000    260.74436   -3915.8378   -3468.9309   -3915.8378            0    5522.2659    17.185747     20.24254    20.966572    7293.9176    3702.1827    6399.6321    6464.9829    799.81199   -906.45357    596.21085   -2881.5037 
 6547000    236.49087   -3890.0408   -3484.7036   -3890.0408            0    4055.9178    17.230416    20.295154    21.021067    7350.9397    4883.2395    3014.2288     4270.285   -1453.1287    501.99863   -335.35669   -3049.8852 
 6548000    254.51003   -3900.2688   -3464.0473   -3900.2688            0    5147.4285    17.194963    20.253396    20.977815    7305.6583    6710.6846    5799.3202    2932.2808   -518.47292   -896.08654   -1562.9903   -2915.6118 
 6549000    262.75903   -3924.0492   -3473.6893   -3924.0492            0    6466.0019    17.164121    20.217067    20.940187    7266.4165    5198.2881    6822.8396    7376.8781   -900.03807    202.84406    -647.4898   -2788.4662 
 6550000    242.45616   -3902.6469   -3487.0853   -3902.6469            0    7589.2521    17.211573     20.27296    20.998079      7326.85    6210.9714    9360.2902    7196.4946    191.81394     287.4997   -269.44784   -2676.1389 
 6551000    259.16474   -3883.8599   -3439.6604   -3883.8599            0    5388.7571    17.253376    20.322198    21.049079    7380.3657    4758.9689     6452.237    4955.0655    100.58284     -568.352   -1005.7276   -2859.6412 
 6552000    245.03665   -3898.5064    -3478.522   -3898.5064            0    5952.5722    17.191073    20.248813    20.973069    7300.7005    8465.9917    6542.3679     2849.357     242.2266    1056.6982   -129.07471   -2844.7324 
 6553000    240.83387   -3891.0825   -3478.3015   -3891.0825            0    6165.8731    17.208237    20.269031    20.994009    7322.5906    6290.2689     7057.727    5149.6233   -984.85583   -475.64501    570.19317   -2819.8326 
 6554000     249.2286   -3885.1147   -3457.9454   -3885.1147            0    3599.3178     17.29532    20.371602     21.10025    7434.3224    2817.5948    4651.1893    3329.1693    458.25461    1124.4756     164.2629   -3067.7003 
 6555000    240.17762   -3891.1143   -3479.4581   -3891.1143            0    6316.8859    17.223485     20.28699    21.012611    7342.0722    6475.3542    5196.5988    7278.7046   -476.20988   -499.46537   -51.875194   -2803.0674 
 6556000    267.27521   -3901.8773   -3443.7768   -3901.8773            0    5425.6915    17.277519    20.350635    21.078533    7411.3913     5256.024    6647.5308    4373.5198   -1241.5294    49.893466   -1295.2463   -2857.3271 
 6557000     251.5111    -3920.216   -3489.1346    -3920.216            0    5901.5319    17.272841    20.345125    21.072825    7405.3721    5258.2822    6649.0542    5797.2594   -1.1512728    638.36534   -743.20095   -2851.7706 
 6558000    251.93707   -3914.2094   -3482.3978   -3914.2094            0    6094.9882    17.249528    20.317665    21.044383    7375.4276    6702.5854    5305.9656    6276.4135    -759.4371    208.56117   -822.38287   -2826.8023 
 6559000    255.28498   -3897.8495   -3460.2998   -3897.8495            0    4947.9647     17.20201    20.261696    20.986412    7314.6442     4819.901    5788.6696    4235.3236   -313.01717    933.30293   -102.13184   -2932.4678 
 6560000    229.48113   -3903.4739   -3510.1511   -3903.4739            0     4762.974     17.20793    20.268669    20.993635    7322.1986    4995.6267     4075.609    5217.6863   -1240.0275    1545.6408   -323.11524   -3001.5286 
 6561000    243.88707   -3899.6924   -3481.6783   -3899.6924            0    4367.4567    17.277633    20.350769    21.078672    7411.5377    3676.9716    5823.0052    3602.3933     904.8097    62.897944    385.91944   -3009.6013 
 6562000    258.78531   -3925.6487   -3482.0995   -3925.6487            0    3962.1159    17.280028    20.353591    21.081594    7414.6209    3921.5463    2855.5496    5109.2517   -1592.3649     367.4473   -569.72014   -3053.6575 
 6563000    254.44422   -3878.2959   -3442.1872   -3878.2959            0    4279.8762    17.260155    20.330182    21.057349    7389.0677    4791.9545    3105.8303    4941.8439   -23.059576    255.22955    633.28256   -2980.9793 
 6564000    241.87194   -3918.1723   -3503.6121   -3918.1723            0    4254.5221    17.336919      20.4206    21.151001     7488.095    2942.3358    5302.6477    4518.5829   -222.72142   -185.53123    1219.3672    -3038.992 
 6565000    229.91214   -3923.2827   -3529.2212   -3923.2827            0    4886.1029    17.305402    20.383478     21.11255    7447.3315    5757.6862    4856.0162    4044.6064    1440.5783   -241.58914    652.30974   -2998.5333 
 6566000    252.10544   -3909.0748   -3476.9747   -3909.0748            0     5821.125    17.301164    20.378486     21.10738    7441.8612    5958.0649    6229.5115    5275.7988     554.2083   -351.40639    976.55055   -2845.1969 
 6567000    235.91063   -3939.0759   -3534.7332   -3939.0759            0    5464.4972    17.266356    20.337487    21.064914    7397.0349    5207.7916    4578.1551    6607.5449    565.98611   -1022.5065   -114.62137   -2945.2333 
 6568000    254.64392   -3916.7364   -3480.2855   -3916.7364            0    5933.5472    17.278738    20.352071     21.08002    7412.9595    6157.1591    4077.7402    7565.7424     678.0817    1155.6083    320.18504   -2838.8072 
 6569000    236.67167   -3930.7531    -3525.106   -3930.7531            0    5630.3101    17.268562    20.340085    21.067606    7399.8707    5768.7343    7114.2993    4007.8967    1530.5221    315.11612   -1236.6904   -2917.4856 
 6570000    249.30825   -3906.2049   -3478.8991   -3906.2049            0     4369.316    17.222228    20.285509    21.011078     7340.465    3285.8128    5499.1632    4322.9719   -1121.4664   -364.59053   -460.96469     -3011.15 
 6571000    249.68413   -3912.7385   -3484.7885   -3912.7385            0     6987.745    17.230142    20.294832    21.020734    7350.5899    7850.1048    6564.7473    6548.3828    -517.3052    1088.4653   -282.47808   -2735.6965 
 6572000    272.69726   -3864.3828   -3396.9891   -3864.3828            0    4561.8732    17.304538    20.382461    21.111497    7446.2164    4870.2404     4827.657    3987.7223   -41.164267    577.42717   -1290.2062   -2901.5905 
 6573000    243.07895   -3883.4405   -3466.8115   -3883.4405            0    6377.9583    17.186412    20.243323    20.967382    7294.7635    7175.3607    5802.5285    6155.9858    2185.3884   -309.87495   -475.80952   -2788.2819 
 6574000    259.39118   -3922.4575   -3477.8699   -3922.4575            0    5839.4926    17.222542    20.285879    21.011461    7340.8666    4442.7149    5896.5854    7179.1776   -132.82321   -813.29016    -338.9418   -2852.6996 
 6575000    244.92163   -3895.7977   -3476.0104   -3895.7977            0     3223.421    17.251536    20.320031    21.046834    7378.0041      3718.58    2964.9948    2986.6881   -69.972667   -518.52025   -152.28878   -3129.1682 
 6576000    245.27338   -3911.9588   -3491.5687   -3911.9588            0    5866.0036    17.208332    20.269142    20.994125    7322.7112    6304.0453    5090.9932    6202.9724   -401.44293    373.71047   -436.62107   -2865.1133 
 6577000    244.37941    -3915.858   -3497.0001    -3915.858            0    5337.4163     17.22265    20.286006    21.011592    7341.0046    4929.4701    5349.9882    5732.7906    348.64709   -614.46458    78.250854   -2925.5708 
 6578000    261.05732   -3861.0175   -3413.5742   -3861.0175            0    5200.0225    17.283739    20.357961    21.086121    7419.3979     4436.473    6379.3333    4784.2612    200.02974    1035.6146   -1744.9126   -2850.9093 
 6579000     257.5449   -3944.3508   -3502.9276   -3944.3508            0    3015.6947    17.324141     20.40555    21.135412    7471.5505    3568.9143    2556.6853    2921.4845    1337.1261   -1133.1106   -252.38095   -3174.3228 
 6580000    264.99658   -3912.4954   -3458.3003   -3912.4954            0    7150.7574     17.17245    20.226878    20.950349    7277.0004    7848.3671    4194.7495    9409.1557    2547.6729   -492.09831   -359.43079   -2699.4077 
 6581000    243.64728   -3916.8655   -3499.2624   -3916.8655            0      5290.77    17.198483    20.257542    20.982109    7310.1457    5646.8079    5022.1029    5203.3993   -51.870198    213.56878    619.74547   -2935.2082 
 6582000    246.05675   -3938.8519    -3517.119   -3938.8519            0    5100.7934     17.17409     20.22881     20.95235    7279.0854    5209.4663    5168.4714    4924.4425   -900.90431   -278.81282   -1547.5601    -2975.629 
 6583000    240.23613   -3917.8168   -3506.0603   -3917.8168            0    4716.0767    17.189363    20.246799    20.970983    7298.5224    4476.7387    4687.5368    4983.9547    390.34469    227.42645   -531.67391   -3004.0742 
 6584000    259.88756   -3909.3327   -3463.8943   -3909.3327            0    5451.6966    17.257667    20.327252    21.054313    7385.8728    6852.5896    4066.4244    5436.0759    1284.6771   -1546.6341   -11.775098   -2876.6627 
 6585000    262.42073   -3947.8709   -3498.0907   -3947.8709            0    5153.7438     17.24575    20.313216    21.039775    7370.5833    4968.1526    3920.9255    6572.1534   -191.07144    189.46538    192.87798   -2944.1025 
 6586000    252.61884   -3937.2422   -3504.2621   -3937.2422            0    6991.8567    17.224775     20.28851    21.014185    7343.7226    7075.6916    7937.3748    5962.5037   -896.70051   -262.82361   -901.19275   -2755.4296 
 6587000    234.90236   -3932.0254   -3529.4108   -3932.0254            0    3197.3216    17.246073    20.313596    21.040169    7370.9971    3583.8313    2345.8134    3662.3202    -105.7234    50.334754   -10.884106   -3185.7037 
 6588000    259.64556   -3911.5105   -3466.4869   -3911.5105            0    6137.0037    17.209552    20.270579    20.995614    7324.2693    6284.1277    4903.0099    7223.8736   -127.45754   -219.97981    233.19839   -2810.9509 
 6589000    237.77235   -3941.5028   -3533.9691   -3941.5028            0    3864.4306    17.268019    20.339446    21.066943    7399.1727    5114.1328     3312.072    3167.0871   -246.94203    1704.6006   -724.05376    -3116.961 
 6590000    243.72515   -3921.9912   -3504.2546   -3921.9912            0    3397.3274    17.328467    20.410645    21.140689    7477.1488    3453.7053    5209.6641    1528.6129   -1009.7776   -178.12331      405.303   -3133.7878 
 6591000    236.60263   -3926.4926   -3520.9638   -3926.4926            0    4804.3106    17.341121     20.42555    21.156127    7493.5412    5505.9939    4970.9623    3935.9756   -1029.2291    44.201124    879.52795   -2995.9218 
 6592000    260.03748   -3909.6456   -3463.9502   -3909.6456            0    6398.8105    17.292215    20.367945    21.096462    7430.3193    8405.5301    5016.7542    5774.1472    336.28802   -845.22106    -300.8206   -2770.5522 
 6593000    251.86799   -3947.5231   -3515.8299   -3947.5231            0    4059.7313    17.301607    20.379008    21.107921    7442.4333    4105.0635    3718.2453    4355.8852   -990.32744    650.80063    304.48424   -3075.1857 
 6594000     248.2592   -3921.6101   -3496.1023   -3921.6101            0    5514.4986    17.230204    20.294904    21.020808    7350.6681    7376.1304    5835.1349    3332.2306    317.41563   -1080.9958    617.03761   -2904.9373 
 6595000    245.88957   -3926.4157   -3504.9694   -3926.4157            0    4725.1478    17.262618    20.333084    21.060354    7392.2322    4511.1229    4233.7768    5430.5437   -425.16765   -230.98196   -240.20186     -2995.56 
 6596000    256.36148   -3905.9283   -3466.5335   -3905.9283            0    5563.0723    17.333283    20.416318    21.146565    7483.3846     5810.861    5080.2031    5798.1527    9.2797031    1295.2969   -10.645373   -2859.3937 
 6597000    250.23343   -3906.0624   -3477.1709   -3906.0624            0    5586.7174    17.242573    20.309473    21.035899    7366.5104     4532.496    5927.5608    6300.0955   -607.70762    104.73099    11.363027   -2876.9731 
 6598000     252.9206   -3955.0473   -3521.5501   -3955.0473            0    5117.9529    17.365271    20.453995     21.18559    7524.8921    3978.4782    4414.8295    6960.5508    1680.4058    2845.7092    1587.1336   -2959.8914 
 6599000    268.06338   -3951.5276   -3492.0761   -3951.5276            0    5098.6935    17.224792     20.28853    21.014206    7343.7445    3667.8023    6030.4865    5597.7915   -274.96554    870.93737   -672.74361   -2946.0011 
 6600000    254.56921   -3957.9236   -3521.6007   -3957.9236            0    4956.7309    17.247557    20.315344    21.041979    7372.8998    4513.3872    4648.8234    5707.9821   -22.667212   -566.52897   -29.243814   -2988.6223 
 6601000    239.16284    -3941.854   -3531.9371    -3941.854            0    5515.4315    17.180944    20.236883    20.960712     7287.804    5586.3901    3774.3537    7185.5507    435.64343   -1161.6146    613.98039   -2945.7286 
 6602000     260.1452   -3923.7167   -3477.8367   -3923.7167            0    5525.6841    17.237136    20.303069    21.029265    7359.5436    4223.8655    5629.3065    6723.8803    511.89806   -798.42584   -759.26656   -2884.7573 
 6603000    256.05476   -3914.1441    -3475.275   -3914.1441            0    4741.9623    17.234527    20.299996    21.026083    7356.2027    5912.1669    3932.2701    4381.4497   -1174.4155   -131.22034   -332.56774   -2966.5447 
 6604000     253.3934   -3935.2496   -3500.9419   -3935.2496            0    6208.6965    17.189872    20.247399    20.971604    7299.1713    7077.2626    6817.7337    4731.0932   -611.32059     247.8046    1461.9647   -2840.0205 
 6605000      256.342   -3917.9839   -3478.6225   -3917.9839            0    4878.8581    17.245802    20.313277    21.039838    7370.6501    3391.1877    4602.5195    6642.8671    289.95985    132.25636   -235.17872   -2954.1776 
 6606000    245.64228   -3937.1545    -3516.132   -3937.1545            0    4741.8542    17.224721    20.288446    21.014119    7343.6529    4403.1845    4391.6343    5430.7439   -385.80921    140.90407    175.53051   -3008.2811 
 6607000    252.09512   -3936.7198   -3504.6374   -3936.7198            0    3658.9807    17.220032    20.282923    21.008399    7337.6579    3145.1933    3712.2722    4119.4767   -1382.0694   -110.50537   -1167.7448   -3113.0818 
 6608000    257.23736   -3930.1803   -3489.2843   -3930.1803            0    3129.6171     17.25656    20.325948    21.052963    7384.4517    3549.3262    1266.0352      4573.49    29.329964   -122.92476    1251.8286   -3152.2413 
 6609000     245.6922   -3921.7697   -3500.6617   -3921.7697            0    4079.5138    17.225752    20.289661    21.015377    7344.9725     4407.927    3487.5898    4343.0245   -291.99106   -543.39658   -77.148989   -3063.6687 
 6610000    238.22546   -3894.0828   -3485.7725   -3894.0828            0    5243.3948    17.215817    20.277959    21.003257    7332.2711    4022.8087    5295.0113    6412.3645   -445.35274   -675.96596    197.64249   -2925.0772 
 6611000    259.08696   -3911.4676   -3467.4015   -3911.4676            0     4944.773    17.219483    20.282277    21.007729    7336.9562    4215.8787    5284.7651    5333.6751     964.1476    854.11673    791.30122    -2938.301 
 6612000    249.89209   -3909.5994   -3481.2929   -3909.5994            0     5086.872    17.241321    20.307999    21.034372    7364.9062    4740.8763    5265.9546    5253.7852   -779.97247   -349.94956    150.51083    -2934.914 
 6613000    240.40902    -3900.341   -3488.2882    -3900.341            0    4345.1834    17.222777    20.286156    21.011747    7341.1671    4880.0482    4694.1967    3461.3053   -185.52952    -580.7414    414.70307   -3023.0781 
 6614000    267.85824    -3910.674   -3451.5741    -3910.674            0    5188.8351     17.20503    20.265253    20.990096    7318.4968    5152.2227    5575.7796    4838.5031   -529.14343   -89.936424    2170.4159   -2897.7554 
 6615000    262.31499   -3907.2942   -3457.6953   -3907.2942            0    6822.1919    17.155958    20.207452    20.930228    7256.0537    7007.1584    7205.0548    6254.3626    444.63043   -2017.2775   -83.630864   -2735.7566 
 6616000    241.35921   -3920.2258   -3506.5444   -3920.2258            0    5099.3484    17.190734    20.248414    20.972656    7300.2694    5545.9396    5417.4976     4334.608    119.29163   -1105.3659   -2857.4995   -2963.6324 
 6617000    244.07356   -3967.2644   -3548.9307   -3967.2644            0    6631.4306    17.164802     20.21787    20.941019    7267.2818     5848.393     7707.987    6337.9117    901.75266   -214.69312    637.17224   -2846.0929 
 6618000     243.9444   -3948.1884   -3530.0761   -3948.1884            0     4768.265    17.177976    20.233387    20.957091    7284.0277    2931.1933    3749.6762    7623.9253   -614.39701    64.383471   -217.69579    -3023.543 
 6619000    252.70713   -3931.3944    -3498.263   -3931.3944            0     4547.121    17.269238    20.340881     21.06843    7400.7391    5208.2455    3848.8975    4584.2199    934.52889    214.50461    468.14599   -3007.4823 
 6620000    245.13793   -3934.6375   -3514.4795   -3934.6375            0    5964.4036    17.169703    20.223642    20.946997    7273.5082    4329.8339    6346.6746    7216.7023   -302.44678    800.23922   -1248.0512   -2881.7955 
 6621000    257.67505   -3972.9693   -3531.3231   -3972.9693            0    3756.2913    17.244713    20.311994     21.03851     7369.254    3916.7775    2434.7676    4917.3289    168.55188    346.83198    1059.6143   -3127.6231 
 6622000    256.26245   -3931.7592   -3492.5341   -3931.7592            0    4410.7858    17.255339     20.32451    21.051474    7382.8849     3181.883    4327.5958    5722.8786    672.61659    296.45387   -539.54852   -3017.6168 
 6623000    240.15947    -3951.694   -3540.0689    -3951.694            0     5270.679    17.176276    20.231384    20.955017    7281.8651    5539.4672    4814.4795    5458.0903    762.97907    193.36086   -140.70621   -2980.3305 
 6624000    240.56303   -3911.8753   -3499.5585   -3911.8753            0    4396.8395    17.208837    20.269737    20.994741    7323.3562    5124.2488    2696.3341    5369.9354    285.52563    469.36064   -547.79712     -3029.96 
 6625000    252.91747   -3906.4362   -3472.9443   -3906.4362            0    5985.5486    17.219559    20.282366    21.007821    7337.0528    5002.8771    6464.7629     6489.006   -1908.7649    1034.1493    150.06342   -2832.4703 
 6626000    260.10834   -3931.4674   -3485.6506   -3931.4674            0    5403.8461    17.149974    20.200404    20.922928    7248.4642    5704.2307    4562.3171    5944.9906   -220.87629   -153.47123   -249.78824   -2914.4024 
 6627000    237.28671   -3878.8173    -3472.116   -3878.8173            0    5333.2867    17.213639    20.275392    21.000599    7329.4878    3922.5258    6542.1939    5535.1403    151.37451   -24.472827   -379.51615   -2902.0247 
 6628000    259.85814   -3918.9072   -3473.5193   -3918.9072            0    6385.7326    17.197666    20.256578    20.981112    7309.1031    6822.4587     8179.831    4154.9082   -841.68628   -119.21347   -923.20463   -2792.8272 
 6629000    253.32689   -3881.5389   -3447.3453   -3881.5389            0    5051.3013    17.253069    20.321836    21.048703    7379.9706    4508.9958    6655.5121    3989.3959    1038.7912   -254.38857    110.71013   -2903.6772 
 6630000    240.95546   -3922.4546   -3509.4651   -3922.4546            0    6677.5269    17.160662    20.212993    20.935967    7262.0239    4976.7973    7114.1348    7941.6487   -120.92258    -2041.778    295.79259   -2802.2538 
 6631000    245.64297   -3944.8985   -3523.8749   -3944.8985            0    5949.6594    17.217651    20.280119    21.005494    7334.6148    5974.2666    5665.4655     6209.246    -2029.958   -1514.6474   -617.34091   -2887.4527 
 6632000     249.2131   -3881.5786   -3454.4358   -3881.5786            0     5031.957    17.275015    20.347685    21.075477    7408.1686    5447.4746    4277.9708    5370.4257    199.00019    743.18436   -1067.5685   -2910.7805 
 6633000    249.14407   -3924.7529   -3497.7285   -3924.7529            0    4738.3598    17.213917    20.275721    21.000939    7329.8439    1896.3614    6319.9862    5998.7318    863.45441    399.78993    190.23487   -2991.2061 
 6634000    241.75774   -3920.9735    -3506.609   -3920.9735            0    5163.8605    17.196539    20.255252    20.979738    7307.6671    4495.3405    6216.5984    4779.6425    1438.3407    288.11127   -410.14256   -2956.2715 
 6635000    244.62549   -3937.5992   -3518.3195   -3937.5992            0    5220.5144    17.214276    20.276143    21.001376    7330.3015    3812.5476    4970.4751    6878.5203     565.7439   -7.9444907   -377.55206   -2960.2208 
 6636000     239.2019   -3907.1772   -3497.1933   -3907.1772            0    6758.2565    17.235273    20.300875    21.026993    7357.1584    7638.4824    4810.3315    7825.9557    798.34066    1105.9292   -2381.8075   -2772.0553 
 6637000    240.18033    -3930.469   -3518.8081    -3930.469            0    4400.7217    17.293096    20.368983    21.097537    7431.4555    3120.4365    4141.4884    5940.2404   -56.667186    663.37399    952.13624   -3041.8572 
 6638000    256.50457   -3969.7222   -3530.0822   -3969.7222            0    5204.8903    17.311161    20.390261    21.119576    7454.7689      5218.73    4436.4237    5959.5173    302.35527    810.65278    96.075183   -2964.2057 
 6639000    237.57995   -3979.8621   -3572.6582   -3979.8621            0    6086.9884    17.223178    20.286629    21.012237    7341.6806    7337.0072    5800.5221    5123.4361    928.28951    773.23603     235.9317    -2920.919 
 6640000    246.34772   -3940.2692   -3518.0376   -3940.2692            0    3192.2356    17.370933    20.460665    21.192498    7532.2555    2813.1575    3104.3936    3659.1555   -159.34454    865.81358   -1022.1659   -3167.3699 
 6641000    252.22833    -3976.272   -3543.9613    -3976.272            0    5859.6549    17.218726    20.281385    21.006805    7335.9883    4741.4814    5683.3171    7154.1662    721.68622   -333.66604   -726.72668   -2917.0493 
 6642000    246.95909   -3942.8238   -3519.5443   -3942.8238            0    4356.3451    17.238488    20.304661    21.030915    7361.2756    5310.4883    3812.7262    3945.8206   -519.17786   -820.52878    958.05115   -3051.8617 
 6643000    242.68917   -3931.2463   -3515.2854   -3931.2463            0    3952.8063    17.205866    20.266238    20.991117    7319.5644    3014.9668    4738.3501    4105.1019    1558.6737   -295.39164   -545.91401   -3093.3299 
 6644000    251.02636   -3924.1505   -3493.8999   -3924.1505            0    4507.9513    17.201449    20.261034    20.985727    7313.9276    3281.3848     6153.606    4088.8632    490.21543    884.40817   -1148.7345   -3013.0542 
 6645000     258.4006   -3900.7624   -3457.8726   -3900.7624            0    4785.9485    17.240975    20.307592     21.03395    7364.4629    3822.3643    5704.1962    4831.2851    1411.2152   -753.46418   -1471.3377   -2943.8467 
 6646000    246.75399   -3930.3765   -3507.4486   -3930.3765            0    6125.9494    17.213903    20.275704    21.000921    7329.8256    6755.7816    5094.8295     6527.237    834.42962   -1221.9617    1082.1682    -2852.597 
 6647000    240.97105   -3938.1283   -3525.1122   -3938.1283            0    6736.2505    17.261673    20.331971    21.059201    7391.0178    6830.4641     6751.194    6627.0934   -1082.7062   -1107.0269   -26.669557   -2799.0089 
 6648000    239.82722   -3957.7676    -3546.712   -3957.7676            0    6730.2969    17.170225    20.224258    20.947635    7274.1722     8940.954    5342.7626    5907.1742    1455.0083    244.94786   -257.94275   -2832.7194 
 6649000    256.75679   -3903.9413    -3463.869   -3903.9413            0    4457.4282    17.218552     20.28118    21.006593    7335.7661    4131.9583    3901.8849    5338.4415    866.04036     1224.013     395.9729   -2986.9927 
 6650000      248.639   -3924.6725   -3498.5138   -3924.6725            0    5407.3768    17.204537    20.264672    20.989495    7317.8675    5085.2005    4911.0662    6225.8637   -852.41674    6.4036847   -682.82683   -2921.4191 
 6651000    257.09586   -3905.7949   -3465.1414   -3905.7949            0    6784.0703    17.180537    20.236403    20.960215    7287.2858    7513.8583    7543.8218    5294.5308   -149.22975    732.25172  -0.98710256   -2744.1468 
 6652000    235.48709   -3933.0003   -3529.3834   -3933.0003            0    5640.8036    17.220083    20.282984    21.008462    7337.7235    5352.3624    6111.9834    5458.0649    301.77808   -707.58076    1552.7319   -2925.7432 
 6653000    242.94755   -3886.6674   -3470.2636   -3886.6674            0    3691.8247    17.216526    20.278793    21.004121    7333.1767    3633.5323    3571.4228     3870.519    436.11345    1942.6097     322.8231   -3075.4346 
 6654000    241.21408    -3934.567   -3521.1343    -3934.567            0    2238.9617    17.259794    20.329757    21.056908    7388.6041    850.45186    2483.0207    3383.4125    67.371252    574.64839    956.40831   -3279.8745 
 6655000    252.18515   -3916.5699   -3484.3331   -3916.5699            0    6551.5561    17.202644    20.262443    20.987186    7315.4527    5568.2413    7245.5397    6840.8872   -234.69584   -518.44961   -135.05662   -2785.3583 
 6656000    240.59645   -3938.3553   -3525.9812   -3938.3553            0     4572.748    17.199367    20.258582    20.983187    7311.2723    3191.5765    4243.1634     6283.504    -519.4098   -845.21191    168.61135    -3038.401 
 6657000    248.89712   -3948.1559   -3521.5547   -3948.1559            0    7433.5448    17.168397    20.222104    20.945404    7271.8483    6325.8485    7628.5642    8346.2216   -718.52432    847.41877   -1626.2851   -2733.2091 
 6658000    253.96726   -3945.6495   -3510.3583   -3945.6495            0    5913.4867    17.186728    20.243695    20.967768    7295.1662    4712.7545    7429.6496    5598.0559    1056.0732   -1131.3395   -136.55192   -2881.2076 
 6659000    262.49441   -3937.2628   -3487.3564   -3937.2628            0     5912.023    17.158933    20.210956    20.933858    7259.8294    6104.1277    6678.1974     4953.744    716.30791    546.03615   -634.67518   -2861.4081 
 6660000    260.12029   -3905.3977   -3459.5604   -3905.3977            0    5924.9135     17.20172    20.261354    20.986058    7314.2737    8075.9478    4578.2914    5120.5014    1086.6443    975.23062   -392.58251   -2827.5429 
 6661000    248.62626   -3940.7267   -3514.5898   -3940.7267            0    4616.1447    17.183571    20.239977    20.963916    7291.1468    5527.9061    6154.0642    2166.4638    1700.8906    973.62404    2029.3674   -3023.7371 
 6662000    242.63137   -3892.9361   -3477.0742   -3892.9361            0    4550.3503    17.175662    20.230661    20.954268    7281.0844    5360.2672    4482.5931    3808.1906    2329.2498    287.89323    1661.9656   -2993.8855 
 6663000    254.69778   -3894.8056   -3458.2623   -3894.8056            0     6903.399    17.142266    20.191325    20.913525    7238.6953    7598.7954    6770.8565    6340.5451     1553.036   -133.04757    216.65543   -2729.4777 
 6664000    246.70017   -3895.9979   -3473.1623   -3895.9979            0    5910.4194    17.216721    20.279023    21.004359     7333.426     7393.319    5653.3337    4684.6054    935.48561   -911.47784    658.39208     -2841.04 
 6665000     256.7885   -3934.0897    -3493.963   -3934.0897            0    6159.1384    17.216817    20.279137    21.004477    7333.5491    6231.4098    5544.9888    6701.0167    64.511534    407.07257    1340.9264   -2835.2291 
 6666000    258.19915   -3917.5237   -3474.9792   -3917.5237            0    7463.2944    17.156105    20.207626    20.930408    7256.2411    8770.8653    6464.9176    7154.1003     65.43063   -1068.8918     1306.481   -2685.1774 
 6667000    236.01581   -3916.4706   -3511.9476   -3916.4706            0    4988.9755    17.287206    20.362045    21.090351    7423.8642    6570.1789    4436.9404    3959.8071    1012.2572   -300.57126   -140.44893    -2971.794 
 6668000    262.50917   -3915.9739   -3466.0422   -3915.9739            0    2925.4667    17.364612     20.45322    21.184786    7524.0359    2067.3914    3060.0371    3648.9716    1221.0082    1228.4596   -44.580239   -3145.0297 
 6669000    249.51091   -3893.1859   -3465.5327   -3893.1859            0    4073.1256    17.354727    20.441576    21.172726     7511.193    4817.2119    1956.2856    5445.8793     250.3693   -1692.9231    1139.7856   -3019.3501 
 6670000    249.66175   -3908.7013   -3480.7896   -3908.7013            0    7752.8576    17.259131    20.328977    21.056099    7387.7529    9048.0661    6536.7948     7673.712   -311.99551   -401.20478    -286.4589    -2645.475 
 6671000    251.29271   -3924.3153   -3493.6082   -3924.3153            0    5171.8687    17.287364    20.362232    21.090544    7424.0681    4917.4301      4826.94     5771.236    1605.5477    576.53941   -1065.1955   -2933.6375 
 6672000    250.08027   -3937.7712   -3509.1422   -3937.7712            0    5134.3822     17.32005    20.400732    21.130421    7466.2589    5852.2619    4516.0711    5034.8135    1935.0453    133.42707    -544.4259    -2950.071 
 6673000    244.56467   -3937.5203   -3518.3449   -3937.5203            0    4812.3761    17.350451     20.43654     21.16751    7505.6434    3584.0551    5816.8719    5036.2012    1120.4831    1049.3774   -270.30128    -2991.572 
 6674000    231.70948   -3906.6132   -3509.4711   -3906.6132            0    5318.1374     17.25557    20.324782    21.051755    7383.1806         6740    4709.0064    4505.4058   -397.01946   -1987.2108    1904.2073   -2936.8347 
 6675000    252.95825    -3918.139   -3484.5772    -3918.139            0    4303.4306    17.295695    20.372044    21.100707    7434.8054    3968.4597    3246.5721    5695.2601    -747.4878    477.87751    338.07176   -3017.9605 
 6676000    255.68322   -3951.8783    -3513.646   -3951.8783            0    5239.2762    17.274696     20.34731    21.075089    7407.7588    4439.3691    7130.2239    4148.2357    957.62331    258.34407   -1820.9807   -2947.6231 
 6677000    255.25869   -3895.7058   -3458.2012   -3895.7058            0    5303.5609    17.267396    20.338711    21.066183    7398.3713    5581.3415    5562.1639    4767.1772   -375.85795   -753.20685    1495.7319   -2885.9594 
 6678000    250.90064   -3904.0903   -3474.0551   -3904.0903            0    4537.1278    17.316425    20.396461    21.125997    7461.5708     5493.561    3870.9813    4246.8412    -833.9139   -652.97977    850.03569   -2980.3278 
 6679000    234.32496   -3883.5882   -3481.9632   -3883.5882            0    4128.8736    17.257058    20.326535     21.05357    7385.0913    2639.8502    5328.7766     4417.994    591.20336    13.113096   -674.13304   -3037.2671 
 6680000    244.61306   -3904.3327   -3485.0743   -3904.3327            0    6394.7127    17.173891    20.228575    20.952106    7278.8316    7019.8034    6881.2589    5283.0757   -276.33964    172.04472   -617.03283   -2806.2481 
 6681000    269.66349   -3916.1099   -3453.9159   -3916.1099            0    7909.0821    17.095635      20.1364    20.856635    7179.7831    9194.3589    7658.3459    6874.5415   -1758.2186   -720.92379   -231.79883   -2625.7577 
 6682000     270.4346   -3906.0096   -3442.4939   -3906.0096            0    7044.6056    17.096811    20.137785     20.85807    7181.2646    7201.9308    7943.0982    5988.7879    548.59198    849.56508    50.089306   -2704.7027 
 6683000    242.87791   -3934.9027   -3518.6183   -3934.9027            0    6604.6712     17.16613    20.219433    20.942638    7268.9682     6956.348    6895.3696    5962.2961   -905.46173   -821.19023   -882.40867   -2818.4542 
 6684000    240.48274   -3937.1777   -3524.9985   -3937.1777            0    4634.9979    17.192495    20.250488    20.974804    7302.5125    5220.8739     5798.815    2885.3048   -1335.5067    20.368437   -470.79773   -3031.3728 
 6685000    262.44501   -3932.9204   -3483.0986   -3932.9204            0    6594.1287    17.167538    20.221092    20.944356    7270.7566    7239.8956    6907.1231    5635.3674   -1956.1254   -377.04044    16.386749   -2783.8801 
 6686000    258.28139   -3926.0702   -3483.3847   -3926.0702            0    4022.9052    17.210734    20.271971    20.997055    7325.7779    4559.3118    4543.0164    2966.3875   -1798.7194    731.58152   -520.09122   -3053.5817 
 6687000     246.5507   -3922.0697   -3499.4902   -3922.0697            0    6299.0828    17.141938    20.190938    20.913124     7238.279    5569.7556    6244.9178    7082.5749    283.10759    392.86559   -222.34712    -2834.541 
 6688000     248.3965   -3887.9203   -3462.1772   -3887.9203            0    7108.2712    17.145969    20.195687    20.918042    7243.3869    7343.8788    8964.3071    5016.6277   -1692.5329    1897.2677    35.048857   -2711.2782 
 6689000     235.9973   -3906.9754   -3502.4841   -3906.9754            0    3975.2678     17.31008    20.388987    21.118257    7453.3716    3605.3078      2426.18    5894.3157   -1566.2154    124.81395    785.95318   -3070.3734 
 6690000    252.15175   -3875.3091   -3443.1297   -3875.3091            0     6016.965    17.326784    20.408663    21.138636    7474.9706    6374.3323    4968.5717     6707.991   -29.009572    1069.2322   -361.86098   -2787.1916 
 6691000    251.39257   -3911.1121   -3480.2339   -3911.1121            0    5881.3066    17.230813    20.295622    21.021552    7351.4484    5730.7798    5741.2115    6171.9284   -1497.1124     411.5362   -648.83488   -2849.6794 
 6692000    253.17743   -3893.3995    -3459.462   -3893.3995            0    7639.8489    17.184324    20.240864    20.964836     7292.106    5135.9243    9173.7912    8609.8311   -1401.9334   -673.55483     734.9128   -2646.9803 
 6693000    250.61738   -3901.1342   -3471.5846   -3901.1342            0    5670.6454    17.158782    20.210778    20.933674    7259.6377    6449.0324    6253.0707    4309.8331   -1340.3225    301.76837    -290.9297   -2871.2086 
 6694000    266.12346   -3919.6165     -3463.49   -3919.6165            0    4854.3727    17.209962    20.271062    20.996114    7324.7928    5434.2631    3983.2786    5145.5764   -1194.3929    587.99133    1517.9558   -2944.9236 
 6695000    246.51249   -3910.8366   -3488.3226   -3910.8366            0    4032.5467    17.251034     20.31944    21.046222    7377.3605    2246.6329     5300.198    4550.8093    1599.6761     669.7765   -211.14491   -3054.4559 
 6696000    254.40937    -3896.199     -3460.15    -3896.199            0    3026.0765    17.244716    20.311997    21.038513     7369.257    4069.1932    1242.4938    3766.5424    -711.8086    59.374591   -128.46889   -3134.9283 
 6697000    247.67182   -3892.8043   -3468.3033   -3892.8043            0    5346.0306    17.192969    20.251046    20.975382    7303.1164    4218.0353    6036.7398    5783.3168   -158.14635   -70.992728   -950.75676   -2898.9058 
 6698000    244.20856     -3875.59   -3457.0249     -3875.59            0    4790.1916    17.224949    20.288715    21.014398    7343.9451    6407.5471    3831.9787     4131.049    132.64256    1646.4511    1203.7829   -2943.9767 
 6699000     260.9274   -3886.3588   -3439.1382   -3886.3588            0    7756.0244    17.171175    20.225376    20.948793    7275.3787    9494.4333     6139.537    7634.1029    1416.6683   -806.34813   -1132.1104   -2616.1935 
 6700000    251.41832   -3905.1676   -3474.2452   -3905.1676            0    5167.3285    17.263604    20.334245    21.061557    7393.4986    6163.5519    3967.9985    5370.4352   -1170.5566    749.46559   -593.19419   -2917.0698 
 6701000    261.57278   -3931.1578    -3482.831   -3931.1578            0    5782.9237    17.209385    20.270383     20.99541    7324.0561    5297.4421    6745.9497    5305.3794    99.899243   -333.21513    532.75153   -2865.1347 
 6702000    239.67784   -3875.4604   -3464.6608   -3875.4604            0    5215.5229    17.284418    20.358761     21.08695     7420.273    6232.8607    4168.0425    5245.6655    212.71185     1458.029    988.24644   -2900.2522 
 6703000    254.41379   -3913.1676   -3477.1111   -3913.1676            0    4991.1065    17.239615    20.305989     21.03229    7362.7194    5622.9275    4833.8981    4516.4938    926.55673   -442.31456   -1248.8374   -2941.1775 
 6704000    239.99945   -3899.8313   -3488.4805   -3899.8313            0    7120.8463    17.201431    20.261013    20.985706     7313.905    7300.3607    7129.8391    6932.3391    1693.8382    843.97659    -1381.506   -2728.9297 
 6705000    245.12832   -3939.5322   -3519.3906   -3939.5322            0    6072.4792    17.282904    20.356978    21.085102    7418.3227    6149.9958    4829.9446    7237.4971    180.72881   -556.08216   -635.57342   -2862.4174 
 6706000     249.2309   -3930.3472    -3503.174   -3930.3472            0    4936.7554    17.293703    20.369698    21.098278    7432.2379    4611.3655     3966.646    6232.2547    805.45583    1397.9899     -226.356   -2968.0713 
 6707000    248.57593   -3899.8047    -3473.754   -3899.8047            0    6148.1629    17.133056    20.180477    20.902288    7227.0341    5134.3353    5562.8603    7747.2932    902.58139    1349.3018     670.9948   -2825.7445 
 6708000      257.314   -3917.8946   -3476.8672   -3917.8946            0    5890.1028    17.209567    20.270597    20.995632    7324.2886    3689.8361    6301.2954    7679.1769    454.69704     1124.366    333.67291   -2847.7027 
 6709000    261.06736   -3926.9367   -3479.4762   -3926.9367            0    5246.3992    17.145661    20.195324    20.917667    7242.9969    4710.1598    4352.2382    6676.7996    758.71982   -339.10373    1253.5692   -2925.2903 
 6710000     256.9266   -3897.6285   -3457.2651   -3897.6285            0    6421.3921    17.184769    20.241388    20.965378    7292.6718    6673.8542     7541.883    5048.4391   -935.48928    1317.7347    204.94988   -2774.3107 
 6711000    261.32897   -3932.0646   -3484.1557   -3932.0646            0    5205.1375    17.147064    20.196976    20.919377    7244.7743    3902.4494    6762.7254    4950.2377    177.02123    1278.9116   -146.42489   -2934.1933 
 6712000    258.95022   -3911.7898    -3467.958   -3911.7898            0    8297.6299    17.117953    20.162687    20.883863    7207.9385    8743.7718    6685.2297    9463.8883    639.68756     1469.332   -300.99092   -2595.7079 
 6713000    257.80534   -3908.7141   -3466.8446   -3908.7141            0    4627.2225    17.212465     20.27401    20.999167    7327.9886    4776.2546    4587.9152    4517.4978    503.98591    200.39116    502.26752   -2972.3278 
 6714000    249.69261   -3906.7559   -3478.7914   -3906.7559            0    3214.3991     17.25234    20.320977    21.047814    7379.0354    5416.1853    2290.2516    1936.7605    45.212855   -284.22123   -323.55403   -3132.8717 
 6715000    237.03966   -3933.5517   -3527.2738   -3933.5517            0     5822.548    17.173483    20.228094    20.951609     7278.313    6473.5407    4837.7363    6156.3671    1384.3902    164.65135    92.970887   -2909.2294 
 6716000    251.33773   -3924.0514   -3493.2671   -3924.0514            0    4703.1374     17.27745    20.350554    21.078449    7411.3021    4513.3706    4261.3486    5334.6932   -120.57648    734.79469    540.06282   -2984.9226 
 6717000    238.41761   -3914.1955   -3505.5559   -3914.1955            0    5358.5359    17.174994    20.229874    20.953452    7280.2344    5363.0202    4946.1787    5766.4087    815.05479    1160.9017   -139.88891   -2936.6147 
 6718000    239.45254     -3881.75   -3471.3366     -3881.75            0    4126.8331    17.221067    20.284142    21.009662    7338.9811    2806.4103    3901.9004    5672.1888    742.61611   -599.97791    652.51906   -3029.6354 
 6719000    245.99318   -3894.4833   -3472.8594   -3894.4833            0    4272.2766    17.232293    20.297365    21.023357    7353.3426    4394.0507    3522.0305    4900.7487   -1040.5833    649.84155    1162.4628   -3014.6963 
 6720000    236.44942   -3918.7456   -3513.4794   -3918.7456            0    4011.5058    17.220991    20.284053    21.009569    7338.8842    4076.8937    2653.6918     5303.932   -248.57166    269.55809    905.23848   -3084.1275 
 6721000    240.49395   -3905.4836   -3493.2852   -3905.4836            0    4672.9342    17.333675     20.41678    21.147043    7483.8926    3298.7537    5335.3579    5384.6911   -1260.6003   -445.68856   -1139.6917   -2983.2583 
 6722000    243.15287   -3939.7987    -3523.043   -3939.7987            0    6810.0011    17.222185    20.285459    21.011025    7340.4103     6917.369    6521.7417    6990.8925   -50.762375    440.79958    216.24737   -2794.0164 
 6723000    252.80124   -3949.0935   -3515.8008   -3949.0935            0    4347.5396    17.302436    20.379984    21.108931    7443.5022    3360.8739    5647.3956    4034.3492   -312.39334    106.91399     705.6353   -3043.8499 
 6724000    255.46094   -3914.6999   -3476.8486   -3914.6999            0    6979.8855    17.235503    20.301146    21.027273    7357.4526    7486.0196    6321.4307    7132.2061   -153.22632    1104.0338    2244.8796   -2727.9006 
 6725000    246.61165   -3944.9833   -3522.2993   -3944.9833            0    5171.5702    17.295511    20.371827    21.100483    7434.5683    4530.1891    6225.8108    4758.7106    -798.5217   -192.45847    330.78782    -2961.569 
 6726000    265.90658   -3925.1328    -3469.378   -3925.1328            0    5788.3648    17.224659    20.288373    21.014043    7343.5739    5210.5759    6284.4417    5870.0768    827.49961    368.95691   -31.661638   -2849.4529 
 6727000    269.29983   -3877.1448   -3415.5741   -3877.1448            0    3544.9266    17.269152     20.34078    21.068325    7400.6283    3253.8457    2788.2685    4592.6657    922.01024   -290.71349    1526.2164   -3032.9681 
 6728000    263.56313   -3914.2806   -3462.5424   -3914.2806            0    5832.0191    17.236635    20.302479    21.028654    7358.9019    7058.9237    4632.7771    5804.3566   -859.06581    696.53949   -963.60842   -2836.6383 
 6729000    255.11244    -3920.623    -3483.369    -3920.623            0     3939.078    17.278814    20.352161    21.080113     7413.058    2747.2169    4676.4996    4393.5177    256.24168    235.81121    -1251.935    -3057.508 
 6730000    254.96012   -3897.9598   -3460.9669   -3897.9598            0     5162.868    17.215751    20.277881    21.003176    7332.1865    6618.5888    5026.7349    3843.2805   -1057.5401   -1448.1133    431.28902    -2908.889 
 6731000    249.26196   -3887.5511   -3460.3246   -3887.5511            0    6759.8545    17.152969    20.203932    20.926583    7252.2627    8117.5197    6172.8326    5989.2112   -259.21269    325.85392   -54.314543   -2745.3564 
 6732000    253.30363   -3903.6908   -3469.5371   -3903.6908            0    3299.8367    17.184193    20.240709    20.964675    7291.9384    2773.1681    3554.7493    3571.5928    886.35108   -329.63563    1075.8557   -3118.6145 
 6733000    243.51726   -3892.3361   -3474.9558   -3892.3361            0    4331.7322    17.153868    20.204991    20.927679    7253.4027    3797.9982    4999.1379    4198.0604   -95.741613   -1362.6105   -171.45657   -3016.7303 
 6734000    269.86925   -3904.9767     -3442.43   -3904.9767            0    4867.5816    17.142773    20.191922    20.914143    7239.3372    3888.4449    4779.4646    5934.8354    313.85623    1188.8799   -314.17092    -2928.519 
 6735000    253.71636   -3935.2029   -3500.3417   -3935.2029            0    6474.0514     17.16123    20.213662     20.93666    7262.7451    6924.4104     4683.791    7813.9529    164.93477    1462.6566    268.62266   -2814.6122 
 6736000     242.9026   -3899.1045   -3482.7777   -3899.1045            0    4300.3155    17.236564    20.302396    21.028568    7358.8119    4917.0133    1996.6371     5987.296   -596.56452     1227.507    153.59819   -3021.2647 
 6737000     238.4103   -3907.9831   -3499.3561   -3907.9831            0    6018.1609    17.251868    20.320422    21.047239    7378.4301    6666.4065    5194.7559    6193.3202   -760.59775    205.45214   -1090.9125   -2851.7608 
 6738000     251.8262   -3896.3751   -3464.7536   -3896.3751            0    5455.5241    17.207737    20.268441    20.993399    7321.9517    4148.1631    5723.9309    6494.4784    1057.2203   -159.20401    255.85525   -2882.1955 
 6739000    244.35899   -3895.8611   -3477.0381   -3895.8611            0    4618.9706    17.201858    20.261517    20.986227    7314.4503    6060.3189    4538.5161    3258.0767   -504.22205    1196.2265   -61.380734   -2984.3152 
 6740000    253.22741   -3891.4952   -3457.4721   -3891.4952            0    6306.3467    17.135218    20.183023    20.904926      7229.77    4854.8564    5158.3345    8905.8492   -212.08999   -1736.4202   -227.59256   -2792.5386 
 6741000    237.06363   -3930.5643   -3524.2453   -3930.5643            0    5782.7094    17.126025    20.172195     20.89371      7218.14    8266.6316    3274.3296    5807.1671   -398.59447   -128.94435   -879.90483   -2915.5043 
 6742000    250.62488   -3917.1328   -3487.5703   -3917.1328            0    4606.8084    17.243121    20.310119    21.036567    7367.2128    3483.2373    3623.5688    6713.6191     929.1465   -14.360354   -119.02018   -2992.5999 
 6743000    249.10546   -3888.0018   -3461.0436   -3888.0018            0    6424.5581    17.155178    20.206534    20.929278    7255.0649    7009.1565    6341.3848     5923.133    1060.0249    131.63491      -1404.4    -2781.276 
 6744000     250.3662   -3885.1843   -3456.0652   -3885.1843            0    8213.7771    17.043542    20.075042    20.793082    7114.3492    9057.2898    6587.6814      8996.36    4.3979038   -679.33996   -1981.8225   -2603.8407 
 6745000    260.99593   -3895.8719   -3448.5338   -3895.8719            0    5824.7896    17.147929    20.197995    20.920433     7245.871    6371.9996     5809.119    5293.2503     809.3179    53.452426    730.42112   -2833.0073 
 6746000    255.33717   -3903.5243   -3465.8851   -3903.5243            0    5268.8703    17.155309    20.206688    20.929437    7255.2309    5464.6998    3128.1263    7213.7847   -67.922308    694.47391   -771.38623   -2908.3854 
 6747000    247.27996   -3908.7659   -3484.9365   -3908.7659            0    4356.0944    17.212666    20.274247    20.999412    7328.2456    4721.9095    4800.7483    3545.6253   -487.88179    400.44432     111.7427   -3019.3791 
 6748000    264.65787   -3892.3192   -3438.7046   -3892.3192            0    7500.0772    17.150231    20.200707    20.923242    7248.7904    6692.9829    7164.4226    8642.8263    -609.4903   -289.03298   -698.61815   -2645.8252 
 6749000    243.49268   -3918.4413   -3501.1032   -3918.4413            0    5003.1242    17.255159    20.324299    21.051254     7382.654    3865.3357    4277.5151    6866.5217    100.44261    1159.7587     569.6086   -2962.4246 
 6750000    258.70314   -3887.8338   -3444.4254   -3887.8338            0     4653.312    17.278398    20.351671    21.079605    7412.5223    4558.6092    5058.8261    4342.5006   -306.64534    1636.4539    666.99762   -2941.3836 
Loop time of 598.589 on 64 procs for 250000 steps with 864 atoms

Performance: 72.170 ns/day, 0.333 hours/ns, 417.649 timesteps/s
99.1% CPU use with 64 MPI tasks x 1 OpenMP threads

MPI task timing breakdown:
Section |  min time  |  avg time  |  max time  |%varavg| %total
---------------------------------------------------------------
Pair    | 20.976     | 25.797     | 30.034     |  49.0 |  4.31
Bond    | 0.28481    | 0.29725    | 0.31185    |   1.1 |  0.05
Kspace  | 264.47     | 278.48     | 300.61     |  48.0 | 46.52
Neigh   | 5.3581     | 6.5969     | 9.0725     |  33.8 |  1.10
Comm    | 120.32     | 142.74     | 155.93     |  67.8 | 23.85
Output  | 1.6351     | 1.6364     | 1.6401     |   0.1 |  0.27
Modify  | 132.84     | 136.12     | 141.09     |  15.7 | 22.74
Other   |            | 6.935      |            |       |  1.16

Nlocal:        13.5000 ave          18 max           8 min
Histogram: 1 2 4 5 7 12 16 3 6 8
Nghost:        2160.62 ave        2192 max        2104 min
Histogram: 1 1 3 4 6 7 9 19 12 2
Neighs:        4162.73 ave        5595 max        2215 min
Histogram: 2 1 4 5 10 13 9 10 4 6

Total # of neighbors = 266415
Ave neighs/atom = 308.35069
Ave special neighs/atom = 2.0000000
Neighbor list builds = 12770
Dangerous builds = 0

unfix		3
unfix		2
unfix		1

write_data	data.final.${pid}
write_data	data.final.0
System init for write_data ...
PPPM initialization ...
  extracting TIP4P info from pair style
  using 12-bit tables for long-range coulomb (../kspace.cpp:340)
  G vector (1/distance) = 0.37436236
  grid = 24 24 25
  stencil order = 5
  estimated absolute RMS force accuracy = 0.0030607286
  estimated relative force accuracy = 9.2172932e-06
  using double precision FFTW3
  3d grid and FFT values/proc = 2730 288
Last active /omp style is kspace_style pppm/tip4p/omp
WARNING: Not all mixed pair coeffs generated from mixing. Use write_data with 'pair ij' option to store all pair coeffs. (../write_data.cpp:312)

write_restart   restart.lmp.${pid}
write_restart   restart.lmp.0
System init for write_restart ...
PPPM initialization ...
  extracting TIP4P info from pair style
  using 12-bit tables for long-range coulomb (../kspace.cpp:340)
  G vector (1/distance) = 0.37436236
  grid = 24 24 25
  stencil order = 5
  estimated absolute RMS force accuracy = 0.0030607286
  estimated relative force accuracy = 9.2172932e-06
  using double precision FFTW3
  3d grid and FFT values/proc = 2730 288
Last active /omp style is kspace_style pppm/tip4p/omp
Total wall time: 0:10:01
