LAMMPS (30 Jul 2021)
  using 1 OpenMP thread(s) per MPI task
package omp 0
using multi-threaded neighbor list subroutines
echo both

include		in.partitions
variable        pid world 0
include		in.temp
variable        temperature equal 268.18
variable	tempDamp equal 100.0
include		in.pressure
variable        pressure equal 10500.0
variable        pressureDamp equal 1000.0 # This is 1 ps
include		in.seed
variable        seed world 745823

units		real
atom_style	full
read_restart	restart.lmp.${pid}
read_restart	restart.lmp.0
Reading restart file ...
  restart file = 30 Jul 2021, LAMMPS = 30 Jul 2021
  restoring atom style full from restart
  orthogonal box = (0.65501883 1.8630569 0.79912145) to (17.552554 21.766121 21.414074)
  4 by 4 by 4 MPI processor grid
  restoring pair style lj/cut/tip4p/long/omp from restart
  restoring bond style harmonic/omp from restart
  restoring angle style harmonic/omp from restart
  864 atoms
  576 bonds
  288 angles
Finding 1-2 1-3 1-4 neighbors ...
  special bond factors lj:    0        0        0       
  special bond factors coul:  0        0        0       
     2 = max # of 1-2 neighbors
     1 = max # of 1-3 neighbors
     1 = max # of 1-4 neighbors
     2 = max # of special neighbors
  special bonds CPU = 1.635 seconds
  read_restart CPU = 2.026 seconds
include 	in.setup
variable	out_freq equal 1000
variable	out_freq2 equal 10000
variable	out_freq3 equal 1000

timestep	2.0

neigh_modify    delay 7 every 1

include		in.tip4p
# This is TIP4P/Ice

# create groups ###
group ox type 2
288 atoms in group ox
group hy type 1
576 atoms in group hy

# set charges - beside manually ###
set group ox charge -1.1794
Setting atom values ...
  288 settings made for charge
set group hy charge 0.5897
Setting atom values ...
  576 settings made for charge

# ### TIP3P Potential Parameters ###
pair_style lj/cut/tip4p/long/omp 2 1 1 1 0.1577 8.5
pair_coeff 1 1*2 0.000 0.000
pair_coeff 2 2 0.21084 3.1668
bond_style  harmonic
bond_coeff  1 450 0.9572
angle_style harmonic
angle_coeff 1 55 104.52
kspace_style pppm/tip4p/omp 1.0e-5
pair_modify tail yes

thermo          ${out_freq}
thermo          1000
thermo_style    custom step temp pe etotal epair emol press lx ly lz vol pxx pyy pzz pxy pxz pyz enthalpy

restart 	${out_freq3} restart.lmp.${pid} restart2.lmp.${pid}
restart 	1000 restart.lmp.${pid} restart2.lmp.${pid}
restart 	1000 restart.lmp.0 restart2.lmp.${pid}
restart 	1000 restart.lmp.0 restart2.lmp.0


include         in.dump
dump            myDump all atom ${out_freq2} dump.water.${pid}
dump            myDump all atom 10000 dump.water.${pid}
dump            myDump all atom 10000 dump.water.0
dump            myDump2 all dcd ${out_freq2} dump.dcd
dump            myDump2 all dcd 10000 dump.dcd
dump_modify     myDump append yes
dump_modify     myDump2 append yes


variable natoms 	equal  "count(all)"                        # NUMBER ATOMS
variable H      	equal  "enthalpy/v_natoms"                 # ENTHALPY-per-atom
variable Vol      	equal  "vol/v_natoms"                 # volume-per-atom
fix AVG all 		ave/time ${out_freq} 1 ${out_freq} v_Vol v_H file vol_enthalpy.dat
fix AVG all 		ave/time 1000 1 ${out_freq} v_Vol v_H file vol_enthalpy.dat
fix AVG all 		ave/time 1000 1 1000 v_Vol v_H file vol_enthalpy.dat


timer           timeout 23:50:00 every 1000
New timer settings: style=normal  mode=nosync  timeout=23:50:00

fix 		1 all shake 1e-6 200 0 b 1 a 1
       0 = # of size 2 clusters
       0 = # of size 3 clusters
       0 = # of size 4 clusters
     288 = # of frozen angles
  find clusters CPU = 0.706 seconds
fix             2 all nph iso ${pressure} ${pressure} ${pressureDamp}
fix             2 all nph iso 10500 ${pressure} ${pressureDamp}
fix             2 all nph iso 10500 10500 ${pressureDamp}
fix             2 all nph iso 10500 10500 1000
fix             3 all temp/csvr ${temperature} ${temperature} ${tempDamp} ${seed}
fix             3 all temp/csvr 268.18 ${temperature} ${tempDamp} ${seed}
fix             3 all temp/csvr 268.18 268.18 ${tempDamp} ${seed}
fix             3 all temp/csvr 268.18 268.18 100 ${seed}
fix             3 all temp/csvr 268.18 268.18 100 745823

run             250000
PPPM initialization ...
  extracting TIP4P info from pair style
  using 12-bit tables for long-range coulomb (../kspace.cpp:340)
  G vector (1/distance) = 0.37463841
  grid = 24 24 24
  stencil order = 5
  estimated absolute RMS force accuracy = 0.0031182757
  estimated relative force accuracy = 9.3905947e-06
  using double precision FFTW3
  3d grid and FFT values/proc = 2535 216
Last active /omp style is kspace_style pppm/tip4p/omp
Neighbor list info ...
  update every 1 steps, delay 7 steps, check yes
  max neighbors/atom: 2000, page size: 100000
  master list distance cutoff = 10.8154
  ghost atom cutoff = 10.8154
  binsize = 5.4077, bins = 4 4 4
  1 neighbor lists, perpetual/occasional/extra = 1 0 0
  (1) pair lj/cut/tip4p/long/omp, perpetual
      attributes: half, newton on, omp
      pair build: half/bin/newton/omp
      stencil: half/bin/3d
      bin: standard
Per MPI rank memory allocation (min/avg/max) = 9.237 | 9.241 | 9.244 Mbytes
Step Temp PotEng TotEng E_pair E_mol Press Lx Ly Lz Volume Pxx Pyy Pzz Pxy Pxz Pyz Enthalpy 
14250000    287.32349   -3859.7483   -3367.2857   -3859.7483            0     9755.557    16.897535    19.903064    20.614953    6933.0708    8520.9773    10415.645    10330.049    1776.8686    441.79135    1282.0332   -2380.8845 
14251000    274.07932   -3883.8548   -3414.0923   -3883.8548            0    7677.5001     16.97455    19.993777    20.708911    7028.3011    7325.1112    9293.8076    6413.5816    279.51383    595.67056   -911.45138   -2627.1442 
14252000    273.38702   -3841.6796   -3373.1036   -3841.6796            0    12982.528    16.790596    19.777105    20.484488    6802.2713    15642.721    12533.175     10771.69    562.56518   -781.13593    307.49911   -2085.1829 
14253000    281.27472   -3851.5782    -3369.483   -3851.5782            0    8626.0915    16.843475    19.839388       20.549    6866.7406    7899.9627      9048.89    8929.4219    838.64611   -369.88556   -321.73794   -2505.6285 
14254000     243.7336   -3843.8074   -3426.0563   -3843.8074            0     9628.027    16.873888    19.875211    20.586104    6904.0043    9714.2615    9656.2545     9513.565   -1229.2756   -172.49559    851.43476   -2456.6313 
14255000    264.12279   -3807.0423   -3354.3448   -3807.0423            0    9193.8781    16.860107     19.85898    20.569292    6887.1034     11076.39    6988.9896    9516.2544   -33.833492   -201.62995   -1.8239671   -2430.8994 
14256000    262.32084   -3828.6884   -3379.0795   -3828.6884            0    11426.757    16.817217    19.808461    20.516966    6834.6772     12771.98    10557.444    10950.846   -640.60015    52.801952    1344.9144   -2240.0974 
14257000    273.42152   -3847.8331    -3379.198   -3847.8331            0    10198.389    16.834577    19.828908    20.538144    6855.8641    12713.619    8452.4001    9429.1483   -827.15971    1143.2089    179.85341   -2359.5044 
14258000      270.745   -3854.5577   -3390.5101   -3854.5577            0     9345.694    16.915462     19.92418    20.636824     6955.161    8350.3122    8135.3547    11551.415    1051.6411    121.20262    350.06107     -2442.54 
14259000    278.48857   -3840.4561   -3363.1363   -3840.4561            0    9931.7995    16.879604    19.881944    20.593078    6911.0236    10111.351    8721.9436    10962.104   -419.09885    657.21377    496.41823   -2362.1083 
14260000     261.2253    -3813.453   -3365.7218    -3813.453            0    13310.681    16.778109    19.762397    20.469254    6787.1063    12974.937    10868.847    16088.259    -995.2667    867.76587    502.28747   -2048.1909 
14261000    260.20093   -3820.7209   -3374.7454   -3820.7209            0    9901.5134    16.821687    19.813725    20.522419    6840.1278    9190.4338    10129.798    10384.308    1864.2196    802.33395   -997.21717   -2387.0076 
14262000    293.68212   -3833.2338   -3329.8728   -3833.2338            0    11355.064    16.816032    19.807065     20.51552    6833.2322    11627.849    9981.9607    12455.381    1495.4689   -510.69376     345.1354   -2198.2761 
14263000    280.29439   -3840.7762   -3360.3612   -3840.7762            0    10797.467    16.868276    19.868602    20.579258     6897.119    10524.439    10176.653    11691.307   -45.154366    1875.4061    1265.5966    -2274.272 
14264000    253.35668   -3825.5898   -3391.3451   -3825.5898            0     10669.97    16.771238    19.754304    20.460872    6778.7714    10224.554    9527.9418    12257.414    114.68654    780.57859   -681.27258   -2336.4967 
14265000    272.30743   -3865.5925   -3398.8668   -3865.5925            0    9163.1185    16.874364    19.875771    20.586684    6904.5885    8451.4244    8640.7488    10397.182   -1951.9274   -1838.7507    500.25735   -2476.1743 
14266000    275.94938   -3846.3008    -3373.333   -3846.3008            0    12092.993    16.842403    19.838126    20.547692    6865.4303    9523.0703    12491.165    14264.743    1175.8827   -535.28636   -1156.2749   -2162.5189 
14267000    276.18984   -3847.2818   -3373.9019   -3847.2818            0    9373.9476     16.89306    19.897793    20.609493    6927.5639    10120.606    8261.0497    9740.1874    1706.4808    276.68563    920.71352   -2426.8387 
14268000    251.82643    -3869.245   -3437.6231    -3869.245            0    9727.4172    16.876879    19.878734    20.589753    6907.6767    8885.4847    10614.651    9682.1156   -374.30409     30.39799    119.05956   -2457.6697 
14269000    262.38586   -3823.9542   -3374.2338   -3823.9542            0    10531.676    16.798853     19.78683    20.494561    6812.3109    12851.498    10728.824    8014.7072    761.45128   -1012.6599   -595.75219   -2327.9058 
14270000    264.56836   -3867.5888   -3414.1277   -3867.5888            0    10352.232    16.805324    19.794452    20.502456    6820.1869    9278.4203    11816.004     9962.271    42.003324   -2445.1367    34.202967   -2384.4385 
14271000    277.26823    -3885.334   -3410.1057    -3885.334            0    10143.242    16.799409    19.787485     20.49524    6812.9879    11797.789     9734.853    8897.0841   -415.51369    117.65923    1342.8628   -2402.2687 
14272000    274.83716   -3860.3998   -3389.3383   -3860.3998            0    10394.359    16.856747    19.855022    20.565192    6882.9864    8144.0816    9735.2241    13303.771   -707.98692   -1108.8341    45.333649    -2345.939 
14273000    254.54188   -3858.0662   -3421.7901   -3858.0662            0    10282.449    16.848697    19.845539     20.55537    6873.1293    11859.704    9732.0653    9255.5765    1216.0089    131.62566    802.77004   -2391.1027 
14274000    279.94033    -3814.592   -3334.7838    -3814.592            0     10314.21    16.907387    19.914668    20.626972    6945.2047     8958.837     9856.028    12127.764      438.219   -1151.4204   -32.248733   -2290.0711 
14275000    276.14237   -3862.6018   -3389.3033   -3862.6018            0    10015.151    16.881479    19.884152    20.595365    6913.3262    9474.7258     10260.97    10309.756    1396.0999   -65.884468    1318.1702    -2379.538 
14276000    275.41396   -3829.3469   -3357.2968   -3829.3469            0    9987.5028    16.862421    19.861704    20.572114    6889.9384    10901.306    8937.5672    10123.635    1083.6711   -501.97168   -1548.7033   -2353.7257 
14277000    273.72018    -3824.491    -3355.344    -3824.491            0    10077.469    16.906559    19.913693    20.625962    6944.1844    10867.168    10064.845    9300.3924   -1047.2775   -1232.9724     3.027693   -2334.7604 
14278000     267.7544    -3844.501   -3385.5791    -3844.501            0      12922.1    16.802615    19.791261    20.499151    6816.8885    14513.256    11715.149    12537.893    729.83228   -1906.0258   -2289.3099   -2100.8985 
14279000    264.74957   -3868.5782   -3414.8065   -3868.5782            0    7662.6675     16.86293    19.862304    20.572735    6890.5632    5693.0819    8225.9931    9068.9274    430.99881    981.92062   -1085.1956   -2644.7713 
14280000    279.27617   -3813.6658   -3334.9961   -3813.6658            0    11264.979    16.885536    19.888931    20.600314    6918.3116    11495.433     12912.23    9387.2751   -28.012834   -1662.9925     1234.178   -2198.3993 
14281000     287.3151   -3818.2601   -3325.8118   -3818.2601            0    10981.643    16.794369    19.781549    20.489091    6806.8578    9999.6667    11968.309    10976.953    1538.3466    7.6435667   -804.00354   -2235.6527 
14282000    268.59266   -3809.5833   -3349.2247   -3809.5833            0    11034.465     16.85858     19.85718    20.567428    6885.2316     11916.88    10769.605    10416.909    346.76887   -551.78522   -1408.4586   -2241.2095 
14283000    274.24483   -3828.2304   -3358.1841   -3828.2304            0     10435.09    16.863614     19.86311     20.57357    6891.4018    10715.317    10816.687    9773.2672   -1969.5082    1022.9931     904.3921   -2309.4155 
14284000    250.56643    -3830.384   -3400.9217    -3830.384            0    9243.7316    16.857185    19.855537    20.565727    6883.5229    8115.1163    8519.7519    11096.327    424.06512    925.08083   -73.201903   -2472.9516 
14285000    262.38153   -3850.2314   -3400.5184   -3850.2314            0    9863.5411    16.825841    19.818618    20.527487     6845.197    10819.197    10918.042    7853.3849   -1635.3179    353.38788   -1182.3956   -2415.8394 
14286000    274.31882   -3863.7061   -3393.5331   -3863.7061            0    11588.265    16.794979    19.782266    20.489835    6807.5989    11487.367    12531.114    10746.314    149.04708    1857.8867    1392.7044   -2243.0287 
14287000    275.58554   -3854.6266   -3382.2825   -3854.6266            0    10673.833    16.886364    19.889907    20.601325    6919.3302    10603.479    11078.901    10339.119   -729.72099    125.86218    -3211.232   -2305.1717 
14288000    277.85802    -3842.584   -3366.3449    -3842.584            0    9356.1495    16.917738     19.92686      20.6396    6957.9683    9896.7598     8979.695    9191.9937    407.86251   -2022.6308    450.68206   -2416.9312 
14289000    277.16163   -3868.4563   -3393.4107   -3868.4563            0    11509.818    16.873944    19.875278    20.586173    6904.0739    12148.555    11497.508    10883.392    711.72073   -253.00154    280.00301   -2234.5005 
14290000     264.3288   -3843.3533   -3390.3028   -3843.3533            0    9843.6052    16.841984    19.837632    20.547181    6864.9174    8487.0385    9026.5131    12017.264   -208.14688   -1731.0213    940.21356   -2404.7829 
14291000    263.05862   -3830.9977   -3380.1242   -3830.9977            0    9387.8423    16.851295      19.8486    20.558541    6876.3102    9514.6818    8935.5692    9713.2758    128.22352   -1650.6511   -1906.0664   -2438.6745 
14292000    283.33015   -3857.7213   -3372.1031   -3857.7213            0    11809.015    16.782793    19.767914    20.474968     6792.792    10197.872    13713.047    11516.126      -446.46    1041.6851   -1097.3167   -2202.2324 
14293000    272.80332   -3811.1292   -3343.5537   -3811.1292            0    9645.7628    16.799231    19.787275    20.495023    6812.7714    9803.6242    8682.3815    10451.283   -490.91801    266.64666    570.96019   -2385.1769 
14294000    273.95275   -3809.6794   -3340.1337   -3809.6794            0    10962.809    16.797333     19.78504    20.492707    6810.4623     10877.32    8509.5711    13501.535    705.01498   -758.48355   -907.27037    -2251.268 
14295000     248.8765   -3805.4807   -3378.9149   -3805.4807            0    11632.073    16.800098    19.788296     20.49608    6813.8255    11577.504    12119.851    11198.863    -1533.221    281.38487   -68.642283    -2223.005 
14296000    285.49258   -3821.4693   -3332.1448   -3821.4693            0    12276.764    16.831411    19.825179    20.534282    6851.9969    14323.874    11258.781    11247.639   -950.87378    385.72173    1479.0814   -2105.3357 
14297000    259.80267   -3809.2369    -3363.944   -3809.2369            0    11879.542    16.843372    19.839268    20.548875    6866.6156    11871.097    10112.074    13655.456     1417.043   -86.684566   -227.97241   -2174.2964 
14298000    275.69161   -3820.2718   -3347.7458   -3820.2718            0    11467.075    16.815837    19.806835    20.515282    6832.9944    12462.224    11704.071    10234.929    1254.4365    -660.7088   -262.01752   -2205.0265 
14299000    274.21125   -3838.3226   -3368.3339   -3838.3226            0    9484.3882    16.829386    19.822794    20.531812    6849.5243     9006.248    10160.872    9286.0448    -190.7978   -979.34894    820.85283   -2420.9072 
14300000    274.07988   -3876.4417   -3406.6782   -3876.4417            0     10802.07    16.806854    19.796254    20.504322    6822.0492    10265.128    10058.699    12082.382    214.65984    1414.2173   -645.29827   -2331.9523 
14301000    265.57973   -3826.1142   -3370.9196   -3826.1142            0    10711.558    16.847399    19.844011    20.553787    6871.5415    10127.398    9256.3695    12750.907    639.97187    405.09641    2038.4191   -2297.4674 
14302000    258.74573   -3844.0486   -3400.5673   -3844.0486            0    9291.9887    16.827769    19.820889    20.529839    6847.5504     9498.059    9009.4646    9368.4425    1186.7275    1230.0463   -510.96966   -2472.6275 
14303000    268.42404   -3853.9942   -3393.9245   -3853.9942            0    11947.797    16.820951    19.812858    20.521521      6839.23    11405.295    10905.872    13532.224   -2156.6113    181.06147    1211.4665   -2202.2136 
14304000    278.17053   -3837.7054   -3360.9306   -3837.7054            0    8226.3769    16.881007    19.883597    20.594789    6912.7469    7825.9494    8801.3592    8051.8222   -333.91785   -466.84968    -266.9596   -2531.5857 
14305000    274.89671   -3845.5598   -3374.3962   -3845.5598            0    10866.935    16.809119    19.798922    20.507086    6824.8085    10799.674    10882.495    10918.636   -440.05874    -1075.255   -746.00907   -2292.7794 
14306000    282.51212   -3826.7516   -3342.5355   -3826.7516            0    10815.436    16.863291    19.862729    20.573176    6891.0053    10201.666     10740.81    11503.832   -1006.1111    439.94562   -772.01865   -2255.6031 
14307000    277.77645   -3855.3821   -3379.2828   -3855.3821            0    10510.386    16.887178    19.890865    20.602317      6920.33    10232.113    11086.966     10212.08      151.938   -2075.9643   -504.25198   -2318.5124 
14308000    263.99747   -3843.2483   -3390.7657   -3843.2483            0    9547.0468    16.905034    19.911897    20.624102    6942.3057    8176.3663    9976.2639     10488.51    706.01658   -406.23523    419.27313   -2424.1615 
14309000    267.51249   -3870.4881   -3411.9808   -3870.4881            0    10470.437    16.910106    19.917871    20.630289    6948.5558    8824.2509    12226.952    10360.108    725.16697   -739.26713    715.35287   -2350.9323 
14310000    268.77256    -3912.752    -3452.085    -3912.752            0    9839.5046    16.903504    19.910095    20.622236    6940.4215    8686.4722    10563.043    10268.998   -878.26429    375.95496    478.90286   -2456.1409 
14311000    268.71045   -3856.2387   -3395.6781   -3856.2387            0    8346.1506    16.927008     19.93778     20.65091     6969.413    8234.3417    8292.8261    8511.2839    762.19545   -590.61733   -57.631195   -2547.3609 
14312000     268.6908   -3811.7806   -3351.2538   -3811.7806            0    9274.3344    16.898017    19.903632    20.615542    6933.6649    8187.4869    9546.0583    10089.458    397.46059    3055.3765    203.53545   -2413.4295 
14313000    277.16436   -3793.8911   -3318.8409   -3793.8911            0    10667.969    16.846352    19.842778    20.552511     6870.261    10196.058    10975.109     10832.74    -1936.609    620.21778    423.46982   -2249.9562 
14314000    265.28047   -3829.9788   -3375.2972   -3829.9788            0    10346.072    16.866316    19.866292    20.576866    6894.7141      8718.11    10917.183    11402.924    -585.3684   -386.52282     -464.246   -2334.9755 
14315000    258.18501   -3854.1483   -3411.6281   -3854.1483            0    9001.5475    16.887386     19.89111    20.602571    6920.5861    8152.9729    9706.8896    9144.7798    563.82965   -6.3964246    486.05617    -2503.105 
14316000    289.30654   -3815.9967   -3320.1352   -3815.9967            0    10578.603    16.840853      19.8363    20.545801    6863.5345    9404.5481    10068.693    12262.567    1328.1762   -1067.1824     991.6074   -2261.2423 
14317000     262.9572   -3849.4958   -3398.7961   -3849.4958            0    11375.438     16.86825     19.86857    20.579225    6897.0863    10279.562    12744.062     11102.69   -1235.2014    42.915392   -1669.0324   -2254.5758 
14318000    269.87394   -3835.3371   -3372.7824   -3835.3371            0    10773.796    16.876206    19.877941    20.588931    6906.8498    11275.726    9749.1923    11296.468   -1138.3944  -0.51803831    -1636.806   -2287.5453 
14319000    266.28649    -3871.347   -3414.9411    -3871.347            0    12737.155    16.824087    19.816553    20.525347    6843.0566    10901.691    13845.896    13463.877     213.4288   -108.66548    17.692445   -2143.7863 
14320000    270.16505   -3832.7523   -3369.6986   -3832.7523            0    9725.9913    16.855702     19.85379    20.563917    6881.7059    8276.7227    10740.263    10160.988    917.74868    184.69501    931.23791   -2393.5726 
14321000    267.27571   -3848.1661   -3390.0646   -3848.1661            0    11587.606    16.838861    19.833954    20.543371    6861.0994     12018.92    10879.884    11864.013      1890.81    687.12423   -1305.5276   -2230.5845 
14322000    262.20029   -3767.0817   -3317.6793   -3767.0817            0    10813.678    16.839328    19.834505    20.543941     6861.671    11289.509    9458.9821    11692.543   -1449.3659    1047.5948   -59.865923   -2235.5499 
14323000    251.71071   -3839.9501   -3408.5266   -3839.9501            0    9909.2603    16.831905    19.825761    20.534885    6852.6007    11689.859    8189.4745    9848.4472   -527.71448    1672.1841   -7.9772751   -2418.2134 
14324000    284.64535   -3868.1044    -3380.232   -3868.1044            0    10702.584    16.852898    19.850488    20.560496    6878.2724      9267.35    12049.034    10791.368    571.74066    368.13566   -2259.0298   -2306.6285 
14325000    260.29473    -3835.192   -3389.0558    -3835.192            0    9170.0271    16.942842     19.95643    20.670228    6988.9894    9298.0856    8411.3257    9800.6698    909.17088   -562.23967   -586.89793   -2454.3802 
14326000    270.62673   -3846.7117   -3382.8667   -3846.7117            0    11951.738    16.837179    19.831973     20.54132    6859.0443    11026.563    13113.702     11714.95   -92.617345    1205.9349   -521.40132   -2187.3089 
14327000    253.40033   -3830.2822   -3395.9627   -3830.2822            0    10812.036    16.840866    19.836316    20.545817     6863.551    10138.386    10503.944    11793.777   -2086.9009    -658.2428   -1730.8737   -2313.7012 
14328000    278.24831   -3819.1227   -3342.2146   -3819.1227            0    8736.5341    16.928201    19.939185    20.652366    6970.8866    7118.1863    8007.5889    11083.827   -1717.6172    1186.4064   -769.68801   -2454.0303 
14329000    278.31594   -3862.6081   -3385.5841   -3862.6081            0     10697.25    16.858898    19.857555    20.567816    6885.6211    10530.569    10661.516    10899.663    281.71591    43.202757   -183.48493   -2311.3693 
14330000    277.51664   -3857.3771    -3381.723   -3857.3771            0    8921.7709    16.934744    19.946891    20.660348    6978.9721     8393.408    9793.7063    8578.1983   -180.50565    546.74557    824.87186   -2473.6549 
14331000     254.1813   -3856.9046   -3421.2465   -3856.9046            0      11620.9    16.858594    19.857197    20.567446    6885.2493    9156.5692     14549.92    11156.211    68.123729   -301.67919   -161.56488    -2254.342 
14332000     270.8458   -3891.5893   -3427.3688   -3891.5893            0    9394.6257    16.881591    19.884285    20.595502    6913.4644    9450.2443    9717.2013    9016.4315    695.41624    275.70717   -1394.1637   -2480.1483 
14333000    257.75483   -3869.5147   -3427.7317   -3869.5147            0    9795.0652    16.856682    19.854945    20.565113    6882.9071    11275.387    7944.0411    10165.768   -1580.5521    757.91453    1741.7859   -2444.5017 
14334000    275.99995   -3826.4196   -3353.3652   -3826.4196            0     10379.46    16.864731    19.864425    20.574932    6892.7707    10617.858     12115.67    8404.8523   -843.97341   -161.78867    901.70043   -2309.9804 
14335000    267.25658   -3858.2005   -3400.1318   -3858.2005            0    9933.3611    16.826377     19.81925    20.528141    6845.8512    9287.8775    10581.507    9930.6987   -613.66347   -1027.5111   -319.15689   -2408.3879 
14336000    270.85151   -3855.7346   -3391.5043   -3855.7346            0    11605.107     16.83117    19.824895    20.533988    6851.7021    10392.068     14288.58    10134.674      1325.63   -710.66368    461.20034   -2231.8634 
14337000    264.09044   -3863.4622   -3410.8202   -3863.4622            0    10143.201    16.841593    19.837172    20.546704    6864.4396    10974.371     11065.14    8390.0928   -481.38522    1064.4309   -1172.9761   -2395.3761 
14338000    283.62861   -3844.2308   -3358.1011   -3844.2308            0    10809.952    16.852711    19.850267    20.560268    6878.0433    11446.423    11513.536    9469.8954    1395.4768    642.83763   -1243.0447   -2273.7634 
14339000    261.58693   -3888.7911   -3440.4401   -3888.7911            0    9366.5618    16.929711    19.940963    20.654207    6972.7515    9909.4187    9831.0619    8359.2047   -648.14053    1644.3565    1991.8207   -2487.9504 
14340000    272.70727   -3842.0911   -3374.6802   -3842.0911            0    11162.878    16.885531    19.888925    20.600308    6918.3058    13140.608     10645.25    9702.7778   -274.68929   -1274.8126   -1244.6524    -2248.386 
14341000     265.3529   -3869.1972   -3414.3914   -3869.1972            0    11913.197    16.826301     19.81916    20.528048    6845.7583    13114.461    9755.2949    12869.833   -407.58493    798.98613   -351.86613   -2224.9974 
14342000    265.69215   -3841.9448   -3386.5576   -3841.9448            0    9445.6313    16.913815    19.922239    20.634814     6953.129    9356.5462    11018.822    7961.5254    236.96012   -2335.2283   -540.16622   -2428.7304 
14343000    263.52067   -3863.7836   -3412.1181   -3863.7836            0    10834.744    16.812766    19.803217    20.511535    6829.2511    10481.277    10482.238    11540.717    656.23426    -514.1152   -367.40558   -2333.0034 
14344000    265.45681   -3864.6363   -3409.6524   -3864.6363            0    11666.856    16.820717    19.812583    20.521236    6838.9453    10732.973    11143.269    13124.325    -656.4529   -799.56346    387.09557   -2246.0118 
14345000    279.50284   -3900.3687   -3421.3104   -3900.3687            0    9828.1496    16.854955    19.852911    20.563006    6880.7911    8301.0735    9958.2467    11225.129    272.48414   -590.39962    667.27959   -2435.0627 
14346000    282.01438   -3841.2407   -3357.8777   -3841.2407            0    12246.295    16.764707    19.746611    20.452904     6770.855    12774.932    12906.941    11057.012    521.42139    82.677252   -967.08084   -2148.6053 
14347000    262.84633   -3837.0418   -3386.5322   -3837.0418            0    8506.6411    16.885992    19.889468    20.600871    6918.8726    7822.2731    7718.8007    9978.8495    174.50181    444.38834   -129.68902   -2528.1725 
14348000    265.48956   -3872.3788   -3417.3387   -3872.3788            0    9952.4202     16.90887    19.916415    20.628782    6947.0327    9506.1631    9507.6074     10843.49    1696.0078   -1947.8434   -1128.2841   -2409.0058 
14349000    280.89554   -3855.9847   -3374.5393   -3855.9847            0    10597.597    16.820526    19.812357    20.521002    6838.7115    12981.386    7564.1521    11247.252   -751.20639   -608.37174    -898.4615   -2317.5817 
14350000    264.84868   -3858.4434   -3404.5019   -3858.4434            0    11476.459    16.855367    19.853396    20.563508    6881.2955    12512.679    11215.077    10701.621    199.03536   -158.76828    -1450.646    -2252.763 
14351000     268.3457    -3891.057   -3431.1217    -3891.057            0    9923.5747    16.919437    19.928862    20.641674    6960.0658    9206.7009    8392.3068    12171.716    594.05712    596.23635    371.01284    -2423.825 
14352000    276.38707   -3813.7835   -3340.0655   -3813.7835            0    11798.412    16.829109    19.822468    20.531474    6849.1864    14925.313    9195.6781    11274.245    11.488206    608.21182    618.58412   -2161.5415 
14353000    267.31754   -3810.6797   -3352.5065   -3810.6797            0    10004.715    16.904869    19.911703    20.623901    6942.1027    9047.9706     9586.172    11380.002    2061.8502   -1261.8291    309.32579   -2339.5947 
14354000    262.17112   -3813.2841   -3363.9318   -3813.2841            0    10010.504    16.874132    19.875499    20.586402    6904.3043    7598.7084    11868.749    10564.055    1096.3181    923.81704   -1009.9343   -2355.9522 
14355000    285.86422    -3826.306   -3336.3445    -3826.306            0    9212.5417    16.942599    19.956144    20.669931    6988.6888    11205.565    8469.3385     7962.722   -602.73404    73.335738    674.91619    -2397.376 
14356000    268.05115   -3867.4798   -3408.0493   -3867.4798            0    11448.341    16.875697    19.877342     20.58831    6906.2249    11678.063     12134.44    10532.521   -634.36286   -918.12779     571.6906     -2254.97 
14357000    279.26269   -3903.9769   -3425.3302   -3903.9769            0    11295.256    16.903917    19.910582     20.62274    6940.9302    9823.8188    13266.398    10795.552   -1846.5159    11.130282    -2405.326   -2281.9526 
14358000    276.00458   -3871.1905   -3398.1281   -3871.1905            0    9405.7762    16.882973    19.885912    20.597187    6915.1616     9781.553    9715.6845    8720.0909    3.5580964    502.16169   -558.94407   -2449.5506 
14359000    266.02813   -3863.4838   -3407.5207   -3863.4838            0    8531.2509    16.948078    19.962597    20.676615    6995.4705    9592.0766    7226.0079    8775.6683   -326.10508   -167.76674   -1619.9842   -2537.1474 
14360000    257.91359   -3840.0694   -3398.0143   -3840.0694            0    9947.3127    16.898841    19.904603    20.616547     6934.679    8999.8417     10967.26    9874.8359    1103.7999    723.92265   -1626.7137    -2391.991 
14361000    261.55472   -3839.7613   -3391.4655   -3839.7613            0    10101.113    16.888203    19.892072    20.603568    6921.5908    9858.2384     10001.64    10443.462    115.77974    516.94749    387.63375   -2371.8157 
14362000    278.64073   -3869.5095   -3391.9289   -3869.5095            0    11870.809     16.82108     19.81301    20.521678    6839.3878    10139.101    14760.102    10713.224    642.46702   -175.29747    -2575.775   -2207.8696 
14363000    254.32318   -3845.1937   -3409.2925   -3845.1937            0    10471.309    16.833779    19.827968    20.537171    6854.8896    9966.8658    10720.234    10726.827   -1165.3824   -676.34135     1204.616   -2362.4597 
14364000    273.88863   -3819.5285   -3350.0928   -3819.5285            0    9817.0656    16.928799    19.939889    20.653095    6971.6249    9843.9013    9500.1856     10107.11   -446.81517     501.7872   -999.43494   -2351.9525 
14365000    280.19829    -3836.801   -3356.5507    -3836.801            0    10461.932    16.924162    19.934428    20.647438    6965.8982    10815.934    10442.988    10126.874    216.53133    678.75851    839.95624    -2293.718 
14366000    257.67744   -3830.4471   -3388.7968   -3830.4471            0    14281.623    16.844678    19.840805    20.550467    6868.2121    14802.409    14273.351     13769.11    3660.0726   -401.12578   -1534.7588   -1958.2661 
14367000    266.38339   -3894.5665   -3437.9945   -3894.5665            0    8994.3798    16.921174    19.930908    20.643793    6962.2097    8811.8052     9850.722    8320.6123   -1804.3035    1320.8861    -358.1517   -2524.7349 
14368000    262.67233   -3863.2373   -3413.0259   -3863.2373            0    11347.983    16.833006    19.827057    20.536228    6853.9448    9830.5881    9604.9507     14608.41   -292.91397    185.01084    451.64846    -2278.707 
14369000    279.54064   -3862.3851   -3383.2621   -3862.3851            0    11255.902    16.864444    19.864088    20.574583    6892.4194    10826.604    12975.449    9965.6514    824.23064    -885.4733   -92.801016   -2251.8316 
14370000    257.83376   -3848.5464   -3406.6281   -3848.5464            0    10402.123    16.817407    19.808684    20.517197    6834.9084    11856.097    10848.208    8502.0632    2616.9764    693.65517   -2026.7395   -2369.7432 
14371000    259.78614   -3832.4202   -3387.1557   -3832.4202            0    11468.303    16.786572    19.772364    20.479578    6797.3813    10411.042    10713.767    13280.101   -1225.7968    -66.22627   -301.48752   -2250.2703 
14372000    281.86221   -3838.6754   -3355.5732   -3838.6754            0    9423.8159    16.871332      19.8722    20.582985    6900.8673     9451.984    10424.697    8394.7671   -305.40122   -280.91506    1031.9867   -2407.1408 
14373000    271.15456   -3894.4701   -3429.7204   -3894.4701            0    11444.926    16.782027    19.767011    20.474034    6791.8616    11690.451      13350.8    9293.5259    1812.1632    69.792608    392.24874   -2296.0738 
14374000    263.23074   -3827.2072   -3376.0387   -3827.2072            0    10483.525     16.88309     19.88605    20.597331    6915.3064    8977.1165    11564.711    10908.748    725.09216   -329.37206    1429.9937   -2318.7474 
14375000    276.74314   -3799.9606   -3325.6323   -3799.9606            0    10310.006    16.853773    19.851518    20.561564    6879.3438    10891.469    10414.284    9624.2664   -265.99497   -679.75889     541.8101   -2291.2482 
14376000    281.09028   -3849.4887   -3367.7096   -3849.4887            0    9391.4647    16.817495    19.808788    20.517305    6835.0157    8141.5478     10879.05     9153.796    2111.7622   -472.74547    258.76052   -2431.5525 
14377000    271.06388   -3821.9772    -3357.383   -3821.9772            0    10009.547    16.897089    19.902538    20.614409    6932.5215    11221.929    11007.221    7799.4919     202.0914    676.28555    479.38507   -2345.3805 
14378000    272.09345   -3837.5833   -3371.2245   -3837.5833            0    9597.2638    16.860443    19.859375    20.569701    6887.5145    8063.2401    12159.873    8568.6782   -1849.3871    394.85007    537.22938   -2407.2049 
14379000    259.38456   -3792.0168   -3347.4406   -3792.0168            0    10070.737    16.884226    19.887387    20.598716    6916.7013    10894.519    8465.7684    10851.924   -426.85259   -595.08919    218.76938   -2331.5752 
14380000     271.1134   -3883.1393   -3418.4602   -3883.1393            0    8918.8579    16.893592    19.898419    20.610142    6928.2183    10031.469    8162.8192    8562.2859   -185.36981   -1733.7922   -97.821657   -2517.2903 
14381000    262.79003   -3870.2078   -3419.7946   -3870.2078            0    10908.468    16.908955    19.916515    20.628886    6947.1375    9744.4029    9706.3136    13274.687    659.54557    103.38814   -855.83132   -2314.5828 
14382000    270.38443    -3814.351   -3350.9214    -3814.351            0    10324.835    16.906494    19.913617    20.625883    6944.1047    10822.486    10089.387    10062.631    307.70327   -876.00833   -202.23141   -2305.2981 
14383000    265.23292   -3829.1757   -3374.5756   -3829.1757            0    11612.386    16.796215    19.783722    20.491343    6809.1021     11370.66    11670.531    11795.968   -1428.5948   -764.33121   -702.92351   -2221.4219 
14384000    253.18134   -3859.7621   -3425.8179   -3859.7621            0    8770.4885    16.860622    19.859585    20.569919    6887.7336    8349.5188    8732.3327    9229.6141   -1509.6182   -548.00047   -273.92726   -2544.8177 
14385000    246.41237    -3859.682   -3437.3396    -3859.682            0    10447.733    16.843082    19.838926    20.548521    6866.2608    10841.962    10996.437    9504.7981   -1253.0261   -1244.8763    630.31865   -2391.1312 
14386000    269.67323   -3842.9995   -3380.7889   -3842.9995            0    10002.054    16.866205    19.866161     20.57673    6894.5779    10459.674    9845.8725    9700.6168    21.171121   -401.12515   -1224.8178   -2375.0788 
14387000    259.26228   -3855.1814   -3410.8147   -3855.1814            0    11031.744    16.813842    19.804485    20.512848    6830.5622    15635.515    10279.221    7180.4973    532.90987    1962.5444   -230.65595   -2311.8682 
14388000    270.11749    -3852.401   -3389.4288    -3852.401            0    10154.651    16.888123    19.891978     20.60347    6921.4921    8877.2564    11482.618    10104.079   -376.71096     1287.401   -950.42477   -2364.3893 
14389000    254.93275    -3899.238    -3462.292    -3899.238            0    7702.1704    16.851779    19.849169    20.559131    6876.9019    7561.5427    6958.0415    8586.9268    78.388409   -28.259706   -499.08062   -2689.8216 
14390000    261.42724   -3852.7087   -3404.6314   -3852.7087            0    12323.902    16.783443    19.768678    20.475761    6793.5806    11759.475    10643.168    14569.064   -1332.6325   -2601.8902    1690.3689   -2183.6111 
14391000    266.18182   -3885.2503   -3429.0238   -3885.2503            0    7214.5595    16.885833    19.889281    20.600677    6918.6768    5023.4106    8603.0353    8017.2325    712.10589    -654.8645   -339.00938   -2701.0617 
14392000    263.14562   -3863.7851   -3412.7626   -3863.7851            0    10211.022    16.803264    19.792025    20.499942    6817.6783    9944.1561    10360.936    10327.973    187.59029   -1518.7559   -224.53362   -2397.4924 
14393000     261.4216   -3856.4245   -3408.3568   -3856.4245            0    9548.5676    16.840093    19.835406    20.544875    6862.6063    8744.7957    10681.116    9219.7907    699.59186    1309.7663   -79.221283   -2452.6973 
14394000    250.78582    -3823.736   -3393.8976    -3823.736            0    9937.2548     16.82265     19.81486    20.523594    6841.3029    8494.9698    10710.866    10605.928    968.54565   -1274.1321    66.501916   -2402.4241 
14395000    267.77801   -3824.3624   -3365.4001   -3824.3624            0    10891.428    16.860104    19.858975    20.569287    6887.0988    10564.207    11556.759    10553.318    439.13774   -1494.5751    340.45915   -2271.4512 
14396000    271.50806   -3877.6806   -3412.3251   -3877.6806            0    10086.366    16.835753    19.830293     20.53958    6857.3015    9064.9462    9464.7772    11729.374   -79.946618    131.62278   -1052.2086   -2403.6208 
14397000    247.20925   -3858.5074   -3434.7992   -3858.5074            0    10837.056    16.830777    19.824432    20.533509    6851.2229    11024.297    11295.835    10191.034    923.01952     63.15168    2101.2059   -2351.9816 
14398000    261.14803   -3884.0875   -3436.4887   -3884.0875            0    10424.406    16.830841    19.824508    20.533587     6851.301    13872.706     8859.529    8540.9827    1161.5609    -1764.484   -367.60706   -2394.8904 
14399000    275.73054   -3827.8279   -3355.2352   -3827.8279            0    11628.218    16.857243    19.855606    20.565797     6883.594    12262.626    11943.609    10678.418     749.4502    1515.5694   -1112.5339   -2187.8766 
14400000     254.3012   -3824.8405   -3388.9769   -3824.8405            0    10637.347    16.846702     19.84319    20.552938    6870.6892    8085.1977    13224.366    10602.476   -10.386154   -227.79851    -1461.574    -2323.094 
14401000    279.56824   -3840.7693   -3361.5989   -3840.7693            0    12135.181    16.810928    19.801053    20.509293    6827.0122    12884.185    11039.709     12481.65   -836.00215    -1312.577    971.82363   -2153.3599 
14402000    252.84418   -3863.3459   -3429.9797   -3863.3459            0    10611.859     16.86805    19.868335    20.578982    6896.8413    8369.3418    11835.042    11631.192     543.2197   -992.71062   -364.85482   -2362.6033 
14403000    259.46711   -3821.5826   -3376.8648   -3821.5826            0     10401.36     16.83515    19.829583    20.538844    6856.5643    12227.119    8494.8974    10482.065   -831.10596    285.65755    606.67209   -2336.7708 
14404000    265.60961   -3852.1784   -3396.9326   -3852.1784            0    9634.8408    16.788892    19.775097    20.482409    6800.2005    10835.459    10623.661    7445.4025   -1295.3776    1926.6003   -844.35198   -2441.4074 
14405000    272.83367   -3849.9919   -3382.3643   -3849.9919            0    10917.093    16.821778    19.813833     20.52253    6840.2395    11690.092    10571.562    10489.624   -609.57753   -912.92542   -502.04671   -2293.2983 
14406000    244.01117   -3864.7441   -3446.5173   -3864.7441            0    10145.472     16.79257    19.779429    20.486896    6804.6701    6809.3831    12292.198    11334.834    192.84615   -341.44079    858.26331   -2439.6895 
14407000    262.08754   -3843.9712   -3394.7621   -3843.9712            0    10514.169    16.781529    19.766424    20.473426    6791.2567    10843.161    10588.043    10111.303   -709.76785   -124.15567    91.461078   -2353.4019 
14408000    279.27359    -3867.027   -3388.3616    -3867.027            0    11686.698    16.718052    19.691657    20.395984    6714.4833    12323.277    11511.373    11225.443   -277.71131   -1632.1714   -1559.5103   -2243.9552 
14409000    267.61745   -3840.5868   -3381.8996   -3840.5868            0    9534.6878    16.784295    19.769683    20.476801     6794.616    9619.1601    9745.8982    9239.0053   -574.76338   -1584.8906   -840.30722   -2437.0835 
14410000    275.22838   -3791.1454   -3319.4134   -3791.1454            0    11320.732    16.798632     19.78657    20.494292    6812.0425    10927.534    10575.383    12459.279    606.01749    1071.6958    818.71188   -2194.7366 
14411000    260.21127   -3847.3034   -3401.3102   -3847.3034            0    11222.293    16.826269    19.819122    20.528009    6845.7187    11996.118    8831.0672    12839.693    221.67371    622.84794    1033.5422   -2280.9014 
14412000    266.34451   -3850.2037   -3393.6984   -3850.2037            0    10345.409    16.874698    19.876165    20.587092    6904.9987    12672.246    8615.6691    9748.3123    52.171921    1259.6017    401.69758   -2351.8916 
14413000    271.96357   -3852.3033   -3386.1671   -3852.3033            0    9091.9119    16.865743    19.865617    20.576167    6894.0114    8529.8775     9289.212    9456.6461   -1629.4018    342.83084    1811.8097   -2472.0473 
14414000    269.08593   -3854.6767   -3393.4726   -3854.6767            0    9355.1323     16.92142    19.931197    20.644093    6962.5126    10253.286    8544.3551    9267.7553   -2244.9773   -771.56352    -731.0999   -2443.5421 
14415000    249.98418   -3817.2071   -3388.7427   -3817.2071            0    9753.2353    16.912024     19.92013     20.63263     6950.921     7603.158     12943.47    8713.0775      553.665     503.9047    -1868.465   -2400.0372 
14416000    275.99678   -3837.7026   -3364.6536   -3837.7026            0    10237.766     16.89123    19.895638    20.607261    6925.3131    10823.768    9731.1517    10158.378   -1868.5323    2510.4524   -1870.3335   -2330.6537 
14417000    251.81855   -3838.0355   -3406.4272   -3838.0355            0    8982.4019    16.899348      19.9052    20.617166    6935.3034    9809.0005    7230.3363     9907.869   -711.94486    672.82007   -833.99529   -2497.9085 
14418000    269.49739   -3820.7667   -3358.8574   -3820.7667            0    9367.8102    16.875541    19.877158     20.58812    6906.0333    10066.061    6906.4735    11130.896   -408.46129    66.423245   -421.26385   -2415.3558 
14419000    275.83616     -3846.97   -3374.1962     -3846.97            0    8752.6123    16.941273    19.954582    20.668314    6987.0478    7420.7034     8460.011    10377.123   -470.30083   -204.54044    246.10865   -2482.3144 
14420000    269.37621   -3848.5736    -3386.872   -3848.5736            0     10476.16    16.871862    19.872825    20.583633    6901.5186    10657.347    9653.8481    11117.285   -146.82858    39.631963   -1862.7094     -2332.43 
14421000    257.03013   -3858.2025   -3417.6616   -3858.2025            0    10739.559     16.78385    19.769158    20.476258    6794.0753    10961.311    10806.485     10450.88   -1380.9207   -860.71221    2810.1773   -2353.5366 
14422000    267.82192   -3861.0402   -3402.0026   -3861.0402            0    9421.8253    16.785551    19.771162    20.478333    6796.1414    9710.7386    10097.679    8457.0583    343.24971   -45.631147    461.15255   -2468.1607 
14423000    264.59027   -3854.7691   -3401.2704   -3854.7691            0    10595.621    16.879469    19.881785    20.592913    6910.8575    11461.869    9885.3238    10439.672   -1014.5353    521.58738   -407.57665   -2333.3614 
14424000    257.65111   -3849.3735   -3407.7684   -3849.3735            0    9136.0081    16.889542     19.89365    20.605202    6923.2373    11643.801    6960.7457    8803.4779    -524.1354    173.76099   -151.26556    -2485.321 
14425000    257.76264   -3808.9648   -3367.1685   -3808.9648            0    11137.702     16.81697    19.808169    20.516664    6834.3752    10790.653    11911.793    10710.659    242.51515   -2063.2238   -1324.7105   -2257.0476 
14426000    266.95002   -3865.9768   -3408.4336   -3865.9768            0    10000.405    16.845569    19.841855    20.551555    6869.3027    8974.5184    9777.0267    11249.669   -958.21806    1276.7798   -1880.3264   -2406.5758 
14427000    272.08595   -3824.4396   -3358.0936   -3824.4396            0    9769.8804    16.891559    19.896025    20.607663    6925.7179    8777.5652    9941.3959     10590.68   -1269.4838     181.0789     437.4531   -2371.2918 
14428000    271.11049   -3840.0685   -3375.3945   -3840.0685            0    10497.572    16.872808    19.873939    20.584786    6902.6791    11949.913    10455.701    9087.1024    1113.8523    711.17254   -744.60693   -2318.6197 
14429000    269.78253   -3834.4727   -3372.0746   -3834.4727            0     10873.91    16.860098    19.858968     20.56928    6887.0917    10077.182     11716.26    10828.289    272.42961    643.09362    2513.0319   -2279.8864 
14430000    257.94206   -3831.5945   -3389.4906   -3831.5945            0    9635.6409    16.854386    19.852241    20.562312    6880.0947    10353.605    9826.3527    8726.9647    2016.6274   -620.27649    849.63694   -2422.6588 
14431000    272.17968   -3837.5939   -3371.0873   -3837.5939            0    12382.019    16.813972    19.804638    20.513007     6830.721    14949.308    12092.112    10104.636   -794.52671    245.76639    295.18582   -2137.6022 
14432000    271.47453   -3824.6796   -3359.3815   -3824.6796            0    11449.486    16.907158    19.914399    20.626693    6944.9227    9220.7966    11406.578    13721.083   -502.02586   -1987.7189   -2075.1223   -2199.7253 
14433000    257.70025   -3839.8712   -3398.1818   -3839.8712            0    9941.0602    16.821507    19.813513    20.522199    6839.9083    11007.082    9767.4455    9048.6528    1612.8872    947.15722   -537.78777   -2406.5308 
14434000    258.67303   -3869.2029   -3425.8462   -3869.2029            0    9451.6653     16.86593    19.865838    20.576395     6894.241      11019.9    6829.5528    10505.543    969.88299   -28.767164    1165.0691   -2475.5244 
14435000    264.60394   -3831.7326   -3378.2106   -3831.7326            0    9578.8308     16.89682    19.902223    20.614082    6932.1916    9645.6546    8220.0918    10870.746    352.12949    -349.2201    697.85731   -2409.8013 
14436000    259.56815   -3846.2136   -3401.3227   -3846.2136            0    10094.538    16.894615    19.899625    20.611391    6929.4775    8832.5514    13531.834    7919.2288   -318.15261    268.77451   -358.21001   -2381.1755 
14437000    263.70886   -3876.4276   -3424.4396   -3876.4276            0    9243.8471    16.955003    19.970754    20.685064    7004.0493    7965.3411    11088.142     8678.058    69.257234   -590.89729   -354.53928   -2480.2095 
14438000    293.33534   -3862.1514   -3359.3846   -3862.1514            0    10166.621    16.911483    19.919493     20.63197    6950.2537    10462.536    7741.4563    12295.871    523.23654   -114.21567   -763.90696   -2328.8723 
14439000    269.35632    -3868.137   -3406.4695    -3868.137            0    12959.864    16.856603    19.854852    20.565017    6882.8103    12268.345    13489.665    13121.583   -633.58054     69.72441   -890.14073   -2105.5748 
14440000    271.26113   -3789.1237   -3324.1914   -3789.1237            0    12676.489    16.858863    19.857514    20.567774    6885.5787    13215.107    13044.515    11769.845    145.65388    867.74448   -1804.7221   -2051.2297 
14441000      269.966   -3834.9872   -3372.2747   -3834.9872            0    12373.805     16.90378     19.91042    20.622572    6940.7605    10245.561     12069.26    14806.595    1403.8436   -1173.1336   -376.18191   -2119.7502 
14442000    263.04519   -3812.2243   -3361.3738   -3812.2243            0    13006.888     16.80134    19.789759    20.497595    6815.3372    13260.447    13587.338     12172.88     298.7308    220.95982   -1043.6888    -2068.558 
14443000    260.53556   -3793.8683   -3347.3193   -3793.8683            0     12215.46    16.823613    19.815993    20.524768    6842.4774    11962.771    12135.448    12548.163   -785.68238    13.362033    1886.4973   -2128.3322 
14444000    266.52361   -3809.5001   -3352.6877   -3809.5001            0    9898.1087    16.904087    19.910781    20.622946    6941.1389    8605.8956    11104.657    9983.7738   -466.41282    211.12814    990.29241   -2350.7082 
14445000    270.37712   -3837.7818   -3374.3647   -3837.7818            0    9405.5642    16.869016    19.869472     20.58016     6898.026    10816.431     10790.17    6610.0912    673.37867   -375.95683    394.99593    -2428.159 
14446000    274.19446   -3830.7961   -3360.8361   -3830.7961            0    10108.277    16.794035    19.781155    20.488684    6806.4517     13102.66    8876.2179    8345.9531    696.08006    1127.5366   -986.00901   -2357.4368 
14447000    272.71801   -3843.6552   -3376.2259   -3843.6552            0    9862.0181    16.863947    19.863502    20.573976    6891.8097    11252.363     10626.37    7707.3218   -674.52902   -2612.8316   -1532.0743   -2384.9947 
14448000    270.79795   -3834.5675   -3370.4291   -3834.5675            0    12230.236    16.810544      19.8006    20.508824    6826.5441    9215.1619    13386.782    14088.765    1205.3724   -1523.0875   -320.86914   -2152.8095 
14449000    271.08655   -3828.1422   -3363.5091   -3828.1422            0    9836.2492    16.864795      19.8645     20.57501    6892.8488    9900.7157     9978.879    9629.1528   -619.06409   -743.01967    1699.0182   -2374.7189 
14450000    263.69701   -3863.1708   -3411.2031   -3863.1708            0    11455.754    16.835793    19.830341    20.539629    6857.3505    10460.408    11935.891    11970.962    1048.9899   -1029.4877   -1049.1297   -2265.5427 
14451000    251.11236   -3822.7219   -3392.3239   -3822.7219            0    9853.5242    16.925548     19.93606     20.64913    6967.6102    10498.104    9716.5523     9345.916   -324.67311    1386.0077     808.4621   -2391.0536 
14452000    261.87885   -3826.9135   -3378.0621   -3826.9135            0    11125.238    16.921069    19.930784    20.643665    6962.0794    9775.0903    12150.695    11449.928    1791.6349    578.89675    204.04378   -2248.4634 
14453000    267.38447   -3870.5685   -3412.2807   -3870.5685            0    10607.786    16.855618    19.853691    20.563814     6881.603    10405.948    12335.869    9081.5409    781.56497    131.26602    368.44132   -2347.6714 
14454000    260.96523   -3852.6801   -3405.3946   -3852.6801            0    10451.226    16.899282    19.905122    20.617085    6935.2219    10176.307    12251.546    8925.8236   -563.95921       867.25    293.11311   -2348.3253 
14455000    244.73065   -3854.0764   -3434.6164   -3854.0764            0     10283.97    16.842223    19.837915    20.547473    6865.2106    10366.932    8454.9187    12030.058   -1434.1543   -1665.2073  -0.54309077   -2404.9642 
14456000     265.5702    -3886.696   -3431.5178    -3886.696            0    10536.827    16.816251    19.807323    20.515787    6833.4995    10506.356    9805.6456     11298.48    1132.2299    329.70513    41.705514    -2381.422 
14457000    272.14171   -3888.3355    -3421.894   -3888.3355            0    8358.1853    16.862175    19.861415    20.571814    6889.6377    8936.7023    7214.3285     8923.525    127.51662   -297.50002      601.134   -2582.0777 
14458000    259.48938     -3832.55   -3387.7941     -3832.55            0    12045.599    16.800769    19.789086    20.496899     6814.642     10122.64    11244.388     14769.77    1435.8195     434.3589    1857.1238   -2190.6475 
14459000    268.99277   -3872.2569   -3411.2125   -3872.2569            0    12105.923    16.809585     19.79947    20.507654    6825.3753    11515.393    11363.285     13439.09    1290.4336   -1187.4032   -2282.1674   -2206.1757 
14460000     283.3424   -3854.7174   -3369.0782   -3854.7174            0    10450.372     16.83179    19.825625    20.534744    6852.4594    10782.492    10101.606    10467.017   -677.31013   -1360.9793   -245.00692   -2324.7089 
14461000    270.82219   -3868.5634   -3404.3834   -3868.5634            0    11459.543    16.832635     19.82662    20.535775    6853.4918    10553.406     10602.71    13222.514   -795.36213    856.31265   -425.01824   -2258.9889 
14462000    272.07543   -3847.4949   -3381.1669   -3847.4949            0    9846.6413    16.884976    19.888271    20.599631    6917.6236    10878.371    9193.4447    9468.1087    1756.4564     114.0689    24.509127   -2387.7742 
14463000     290.5833   -3866.7551   -3368.7053   -3866.7551            0     11662.94    16.836262    19.830893      20.5402    6857.9231    11635.105    11237.351    12116.363   -1049.4296    123.36829    -941.3269   -2202.2274 
14464000    254.08152   -3825.5096   -3390.0226   -3825.5096            0     9846.169    16.873061    19.874238    20.585096    6902.9901    10901.576    8220.5767    10416.354    -80.67658    712.55317   -1545.2053   -2398.7789 
14465000    255.59779   -3872.1195   -3434.0336   -3872.1195            0    9464.7184    16.799697    19.787824    20.495591    6813.3377    9018.1876    8366.6242    11009.344   -1392.3335    237.20886    339.36939   -2493.5667 
14466000    255.33987   -3869.2514   -3431.6076   -3869.2514            0    8685.0047    16.918089    19.927274    20.640029    6958.4017    9524.8473    6834.3876    9695.7792   -293.23441    423.62068    788.67336   -2550.2433 
14467000     264.4217   -3867.6355   -3414.4257   -3867.6355            0    10748.485    16.890984    19.895348     20.60696      6925.01    10951.847    8780.8874    12512.722   -944.80959   -456.58794    1167.4849   -2328.8914 
14468000    271.06303   -3828.6587   -3364.0659   -3828.6587            0    9580.8921    16.908612    19.916112    20.628468    6946.7152    11594.228    9063.4871    8084.9615    -64.82698    169.76939   -1599.2959   -2393.4189 
14469000    264.74649   -3830.5908   -3376.8244   -3830.5908            0    9112.3819    16.953545    19.969037    20.683286     7002.243    8568.5318    8572.3981    10196.216   -412.64058    -1825.751    1943.9693   -2446.2631 
14470000    275.29944   -3885.5728   -3413.7189   -3885.5728            0    11334.024    16.839894     19.83517    20.544631     6862.362    10659.147    12330.381    11012.544    1583.9908    799.17281    1055.1268    -2279.404 
14471000    269.47728   -3858.4796   -3396.6047   -3858.4796            0    10691.295    16.872408    19.873468    20.584299    6902.1886    9740.2323    12090.385    10243.267   -1808.0875    -276.1141    1755.1409   -2320.4047 
14472000    267.96605   -3866.8967   -3407.6121   -3866.8967            0     8926.981    16.862153    19.861389    20.571787    6889.6102    9768.3297    9909.5977    7103.0155   -1711.6208   -387.26128    297.98978   -2510.6478 
14473000    263.63014   -3855.2127   -3403.3596   -3855.2127            0    11204.639    16.838187     19.83316    20.542549    6860.2756    11439.038    9857.1175    12317.762   -990.76267    9.8753742   -215.64592   -2282.3346 
14474000    255.65628   -3812.0287   -3373.8426   -3812.0287            0    9460.1338      16.8854    19.888771    20.600149    6918.1451    10064.826    8526.2371    9789.3385   -904.77595   -156.83453    744.30012   -2419.3714 
14475000    264.83086   -3835.6053   -3381.6943   -3835.6053            0    9086.2836    16.844489    19.840583    20.550237    6867.9813    9644.4726    7703.3179    9911.0602    506.68731    1015.3674    1695.6897   -2471.5897 
14476000    265.64504   -3823.1132   -3367.8067   -3823.1132            0    9483.1084    16.799152    19.787182    20.494926    6812.6752    9516.4677    9445.1749    9487.6826   -12.096939   -577.42998    463.51776   -2425.6042 
14477000    295.13811   -3817.2293   -3311.3727   -3817.2293            0    11129.972    16.842497    19.838237    20.547807    6865.5455    10318.956     12250.07     10820.89   -362.46343    140.04982    1135.0782   -2196.9626 
14478000    271.10986   -3823.3648   -3358.6918   -3823.3648            0    11816.931    16.860642    19.859609    20.569944    6887.7587    13039.122    9715.3433    12696.328   -409.77727    93.996732     171.5159   -2171.6705 
14479000    271.29903   -3825.7355   -3360.7382   -3825.7355            0     9445.217    16.942518    19.956048    20.669832    6988.5877    8323.3851     8646.874    11365.392   -949.56091   -1057.2689   -313.72237   -2398.0686 
14480000    277.18627   -3833.7349   -3358.6471   -3833.7349            0    10264.206    16.937534    19.950178    20.663752    6982.4228    11244.901    8388.8996    11158.817    2100.6585    1158.7613   -757.56796   -2313.4279 
14481000    281.63237   -3826.6642   -3343.9559   -3826.6642            0    10593.541    16.880247    19.882701    20.593862    6911.8133    11660.881    10735.151    9384.5915   -896.12529     1914.697   -314.81518   -2276.1089 
14482000    275.57951   -3824.3486   -3352.0148   -3824.3486            0    9319.6236    16.912912    19.921177    20.633714    6952.0164    9083.1467    8758.5677    10117.156   -695.39544    1402.1586    -653.1164   -2407.1165 
14483000    262.00899   -3848.8829   -3399.8085   -3848.8829            0    11429.848    16.865245    19.865031    20.575559     6893.401    10752.282    11909.999    11627.263    341.09573   -862.50727    1063.9727   -2250.7295 
14484000    274.62011   -3851.1978   -3380.5083   -3851.1978            0    9767.1286    16.905324    19.912239    20.624456    6942.6634    11183.372    10844.759     7273.255   -866.90562    963.39039    1095.4574   -2391.5707 
14485000    268.12907   -3852.9379   -3393.3738   -3852.9379            0    11231.927    16.883267    19.886258    20.597546    6915.5232    12633.973    9712.8845    11348.923    428.33876   -403.06746   -310.68707   -2260.5687 
14486000    273.00337   -3837.7307   -3369.8123   -3837.7307            0    12288.847     16.84741    19.844024    20.553801    6871.5551    11227.937    13524.786    12113.817    602.84098    891.78259    13.514795   -2138.2906 
14487000    273.64543   -3843.1567   -3374.1378   -3843.1567            0    10574.736    16.882538    19.885399    20.596657    6914.6274    12931.817    7655.9597     11136.43   -264.76484   -44.768996   -964.27973   -2307.7524 
14488000    273.89516   -3846.5241   -3377.0772   -3846.5241            0    9994.2243    16.864715    19.864406    20.574913     6892.751    8190.8453     9641.121    12150.707    318.28595     1174.405     831.8533   -2372.4207 
14489000    270.40149   -3870.5233   -3407.0644   -3870.5233            0    8408.9281    16.875043    19.876571    20.587513    6905.4223    8523.8557    7444.9237     9258.005   -938.03193    540.37658     2006.797   -2560.2138 
14490000    262.90055   -3819.5846    -3368.982   -3819.5846            0    10149.934    16.853896    19.851663    20.561713     6879.494    10157.633    9239.8606    11052.307   -179.95863    649.67372   -150.83254   -2350.6355 
14491000    266.88895   -3861.3882   -3403.9497   -3861.3882            0    11256.723    16.861827    19.861006     20.57139    6889.2115    12656.634    8459.4716    12654.063     731.9019   -344.19458    2133.1915   -2272.9633 
14492000    270.84627   -3840.8435   -3376.6223   -3840.8435            0    10192.084    16.882786    19.885692     20.59696    6914.9326    9163.1294    10779.679    10633.443    1408.1947    515.60312   -170.87804   -2348.7792 
14493000    279.87341   -3825.8049   -3346.1114   -3825.8049            0    11462.839    16.873072     19.87425    20.585108     6903.003    9770.2634     14440.02    10178.233   -809.25037   -429.51533   -562.96924   -2192.1105 
14494000    269.03959   -3823.4177    -3362.293   -3823.4177            0    12322.041    16.849366    19.846328    20.556187    6873.9488    11817.123    13776.582    11372.417    1568.9351    1688.5558    983.17186   -2127.0147 
14495000    279.90085   -3817.9371   -3338.1966   -3817.9371            0    11388.914    16.788967    19.775185      20.4825    6800.2912    9463.5735    11264.788    13438.379     779.0257   -691.08099   -186.36492    -2208.698 
14496000    265.86075    -3808.239   -3352.5628    -3808.239            0    10067.433    16.900143    19.906136    20.618134    6936.2812    11430.902    8974.7548    9796.6432    386.87435   -1615.7625    378.92478   -2334.1559 
14497000    272.86628   -3841.0232   -3373.3398   -3841.0232            0    11908.955    16.846547    19.843008    20.552748    6870.4994    12603.153    12055.019    11068.694    271.50753    -536.8287   -778.41996   -2180.0721 
14498000    290.32531   -3824.9461   -3327.3385   -3824.9461            0    10144.395    16.871573    19.872484     20.58328    6901.1635    12236.872    9094.1076    9102.2047   -950.00984   -102.33499    1182.7057   -2306.3417 
14499000    247.86121   -3816.9354   -3392.1097   -3816.9354            0    10713.352    16.826296    19.819154    20.528042    6845.7524    12491.767    10572.582    9075.7084   -2233.6757   -598.13119    1124.0532   -2322.5071 
14500000    285.91185   -3825.3864   -3335.3433   -3825.3864            0    10618.832      16.8716    19.872516    20.583312     6901.196    11101.305    9905.4931    10849.699    986.41261    152.38933    390.58378   -2266.5911 
Loop time of 513.496 on 64 procs for 250000 steps with 864 atoms

Performance: 84.129 ns/day, 0.285 hours/ns, 486.859 timesteps/s
99.2% CPU use with 64 MPI tasks x 1 OpenMP threads

MPI task timing breakdown:
Section |  min time  |  avg time  |  max time  |%varavg| %total
---------------------------------------------------------------
Pair    | 22.588     | 27.541     | 32.027     |  47.4 |  5.36
Bond    | 0.27755    | 0.29393    | 0.31284    |   1.2 |  0.06
Kspace  | 208.22     | 221.79     | 241.22     |  52.7 | 43.19
Neigh   | 5.3071     | 6.6695     | 9.0869     |  39.6 |  1.30
Comm    | 112.01     | 130.46     | 143.36     |  72.0 | 25.41
Output  | 1.2056     | 1.2068     | 1.2128     |   0.1 |  0.24
Modify  | 118.85     | 120.87     | 122.96     |   9.2 | 23.54
Other   |            | 4.672      |            |       |  0.91

Nlocal:        13.5000 ave          20 max           8 min
Histogram: 1 6 3 9 15 19 5 4 1 1
Nghost:        2293.62 ave        2336 max        2263 min
Histogram: 6 5 6 15 12 9 3 1 4 3
Neighs:        4470.23 ave        7177 max        2281 min
Histogram: 1 5 6 12 19 11 2 5 2 1

Total # of neighbors = 286095
Ave neighs/atom = 331.12847
Ave special neighs/atom = 2.0000000
Neighbor list builds = 14715
Dangerous builds = 2

unfix		3
unfix		2
unfix		1

write_data	data.final.${pid}
write_data	data.final.0
System init for write_data ...
PPPM initialization ...
  extracting TIP4P info from pair style
  using 12-bit tables for long-range coulomb (../kspace.cpp:340)
  G vector (1/distance) = 0.37476482
  grid = 24 24 24
  stencil order = 5
  estimated absolute RMS force accuracy = 0.0031040601
  estimated relative force accuracy = 9.3477849e-06
  using double precision FFTW3
  3d grid and FFT values/proc = 2535 216
Last active /omp style is kspace_style pppm/tip4p/omp
WARNING: Not all mixed pair coeffs generated from mixing. Use write_data with 'pair ij' option to store all pair coeffs. (../write_data.cpp:312)

write_restart   restart.lmp.${pid}
write_restart   restart.lmp.0
System init for write_restart ...
PPPM initialization ...
  extracting TIP4P info from pair style
  using 12-bit tables for long-range coulomb (../kspace.cpp:340)
  G vector (1/distance) = 0.37476482
  grid = 24 24 24
  stencil order = 5
  estimated absolute RMS force accuracy = 0.0031040601
  estimated relative force accuracy = 9.3477849e-06
  using double precision FFTW3
  3d grid and FFT values/proc = 2535 216
Last active /omp style is kspace_style pppm/tip4p/omp
Total wall time: 0:08:39
