LAMMPS (30 Jul 2021)
  using 1 OpenMP thread(s) per MPI task
package omp 0
using multi-threaded neighbor list subroutines
echo both

include		in.partitions
variable        pid world 0
include		in.temp
variable        temperature equal 261.47
variable	tempDamp equal 100.0
include		in.pressure
variable        pressure equal 7875.0
variable        pressureDamp equal 1000.0 # This is 1 ps
include		in.seed
variable        seed world 745823

units		real
atom_style	full
read_restart    restart.lmp.${pid}
read_restart    restart.lmp.0
Reading restart file ...
  restart file = 30 Jul 2021, LAMMPS = 30 Jul 2021
  restoring atom style full from restart
  triclinic box = (-3.2136787 -0.19186077 0.0037173404) to (14.823678 22.771860 19.226281) with tilt (0.033500744 -6.1501954 -0.022884080)
  4 by 4 by 4 MPI processor grid
  restoring pair style lj/cut/tip4p/long/omp from restart
  restoring bond style harmonic/omp from restart
  restoring angle style harmonic/omp from restart
  1008 atoms
  672 bonds
  336 angles
Finding 1-2 1-3 1-4 neighbors ...
  special bond factors lj:    0        0        0       
  special bond factors coul:  0        0        0       
     2 = max # of 1-2 neighbors
     1 = max # of 1-3 neighbors
     1 = max # of 1-4 neighbors
     2 = max # of special neighbors
  special bonds CPU = 0.577 seconds
  read_restart CPU = 0.747 seconds

include 	in.setup
variable	out_freq equal 1000
variable	out_freq2 equal 10000
variable	out_freq3 equal 1000

timestep	2.0

neigh_modify    delay 7 every 1

include		in.tip4p
# This is TIP4P/Ice

# create groups ###
group ox type 2
336 atoms in group ox
group hy type 1
672 atoms in group hy

# set charges - beside manually ###
set group ox charge -1.1794
Setting atom values ...
  336 settings made for charge
set group hy charge 0.5897
Setting atom values ...
  672 settings made for charge

# ### TIP3P Potential Parameters ###
pair_style lj/cut/tip4p/long/omp 2 1 1 1 0.1577 8.5
pair_coeff 1 1*2 0.000 0.000
pair_coeff 2 2 0.21084 3.1668
bond_style  harmonic
bond_coeff  1 450 0.9572
angle_style harmonic
angle_coeff 1 55 104.52
kspace_style pppm/tip4p/omp 1.0e-5
pair_modify tail yes

thermo          ${out_freq}
thermo          1000
thermo_style    custom step temp pe etotal epair emol press lx ly lz vol pxx pyy pzz pxy pxz pyz enthalpy

restart 	${out_freq3} restart.lmp.${pid} restart2.lmp.${pid}
restart 	1000 restart.lmp.${pid} restart2.lmp.${pid}
restart 	1000 restart.lmp.0 restart2.lmp.${pid}
restart 	1000 restart.lmp.0 restart2.lmp.0


include         in.dump
dump            myDump all atom ${out_freq2} dump.water.${pid}
dump            myDump all atom 10000 dump.water.${pid}
dump            myDump all atom 10000 dump.water.0
dump            myDump2 all dcd ${out_freq2} dump.dcd
dump            myDump2 all dcd 10000 dump.dcd
dump_modify     myDump append yes
dump_modify     myDump2 append yes


variable natoms 	equal  "count(all)"                        # NUMBER ATOMS
variable H      	equal  "enthalpy/v_natoms"                 # ENTHALPY-per-atom
variable Vol      	equal  "vol/v_natoms"                 # volume-per-atom
fix AVG all 		ave/time ${out_freq} 1 ${out_freq} v_Vol v_H file vol_enthalpy.dat
fix AVG all 		ave/time 1000 1 ${out_freq} v_Vol v_H file vol_enthalpy.dat
fix AVG all 		ave/time 1000 1 1000 v_Vol v_H file vol_enthalpy.dat



fix 		1 all shake 1e-6 200 0 b 1 a 1
       0 = # of size 2 clusters
       0 = # of size 3 clusters
       0 = # of size 4 clusters
     336 = # of frozen angles
  find clusters CPU = 0.037 seconds
fix             2 all nph tri ${pressure} ${pressure} ${pressureDamp}
fix             2 all nph tri 7875 ${pressure} ${pressureDamp}
fix             2 all nph tri 7875 7875 ${pressureDamp}
fix             2 all nph tri 7875 7875 1000
fix             3 all temp/csvr ${temperature} ${temperature} ${tempDamp} ${seed}
fix             3 all temp/csvr 261.47 ${temperature} ${tempDamp} ${seed}
fix             3 all temp/csvr 261.47 261.47 ${tempDamp} ${seed}
fix             3 all temp/csvr 261.47 261.47 100 ${seed}
fix             3 all temp/csvr 261.47 261.47 100 745823


run             250000
PPPM initialization ...
  extracting TIP4P info from pair style
  using 12-bit tables for long-range coulomb (../kspace.cpp:340)
  G vector (1/distance) = 0.38302315
  grid = 24 30 32
  stencil order = 5
  estimated absolute RMS force accuracy = 0.0019876288
  estimated relative force accuracy = 5.9856852e-06
  using double precision FFTW3
  3d grid and FFT values/proc = 4080 384
Last active /omp style is kspace_style pppm/tip4p/omp
Neighbor list info ...
  update every 1 steps, delay 7 steps, check yes
  max neighbors/atom: 2000, page size: 100000
  master list distance cutoff = 10.8154
  ghost atom cutoff = 10.8154
  binsize = 5.4077, bins = 5 5 4
  1 neighbor lists, perpetual/occasional/extra = 1 0 0
  (1) pair lj/cut/tip4p/long/omp, perpetual
      attributes: half, newton on, omp
      pair build: half/bin/newton/tri/omp
      stencil: half/bin/3d/tri
      bin: standard
Per MPI rank memory allocation (min/avg/max) = 9.340 | 9.346 | 9.349 Mbytes
Step Temp PotEng TotEng E_pair E_mol Press Lx Ly Lz Volume Pxx Pyy Pzz Pxy Pxz Pyz Enthalpy 
15750000    254.80251   -4770.5123   -4260.8758   -4770.5123            0    7974.0966    18.037356    22.963721    19.222563    7962.0783    6598.0749    8240.1749    9084.0398    882.86985   -408.79064   -180.32381   -3334.9337 
15751000    251.97106   -4804.0967   -4300.1235   -4804.0967            0    8005.6864    17.898034    22.860259    19.422987    7946.9869     7994.792    8537.9497    7484.3175    852.93859    198.54515    54.031981   -3372.2752 
15752000    252.84025    -4800.596   -4294.8842    -4800.596            0    5925.7272    18.182258    22.923544    19.306481    8046.9756     6898.046    4852.3761    6026.7595   -84.342465    378.59313    1528.5012   -3599.4593 
15753000    251.05954   -4809.8596   -4307.7095   -4809.8596            0     6468.504    18.197365    22.477035    19.532994    7989.4401    5706.8646     7740.521    5958.1265    -1207.114    1472.5699   -1532.2215   -3554.0137 
15754000    253.56929   -4844.9986   -4337.8287   -4844.9986            0    7235.2085     18.12372    22.711651    19.397826    7984.5256    6971.9772    7134.0901    7599.5582    -1121.237    325.62947   -775.07138   -3495.3167 
15755000    265.78197   -4819.1776   -4287.5808   -4819.1776            0    6823.7099    18.196171    22.698095    19.334763    7985.6133    5470.8048    8377.5345    6622.7904   -757.70449   -672.39928    940.46876   -3492.8781 
15756000    259.84445   -4803.2936   -4283.5726   -4803.2936            0    6414.2472    17.960276    22.907837    19.507226    8025.8791    6114.7999    6826.2904    6301.6512   -1521.2248    214.26142    1410.6121     -3532.79 
15757000    255.38297   -4810.8924   -4300.0949   -4810.8924            0    7797.8937    17.963763     22.99157    19.238556    7945.8141    9025.0306    7593.2669    6775.3838    -883.2148   -381.38918    115.54219   -3396.4629 
15758000    259.59797   -4806.2732   -4287.0452   -4806.2732            0    8977.6148    17.949349    22.817117    19.429933    7957.5758     7789.947    10627.549    8515.3484     648.8686      1284.84    435.19033   -3245.1653 
15759000    268.87785   -4802.2923   -4264.5034   -4802.2923            0    7355.5928    18.122766    22.955143    19.211292    7992.1026    6694.4646    7491.2193    7881.0946    486.86768   -346.17054     1105.354   -3407.1604 
15760000    268.90986   -4815.8591   -4278.0061   -4815.8591            0    8517.9517    18.014929    22.786638    19.362106    7948.1382    9311.0581    8364.3114    7878.4857   -639.79262   -296.10898   -2054.0004    -3290.644 
15761000    269.45353   -4834.8854    -4295.945   -4834.8854            0    6563.4045    17.950425    22.946318    19.277092    7940.1602     5412.544    6022.0063    8255.6633   -503.55802   -1655.3377   -1613.7966   -3535.9087 
15762000    271.65577   -4781.8316   -4238.4865   -4781.8316            0    9500.7808    17.920782    22.773562    19.410306    7921.7348    9186.0058    9893.1358    9423.2008    1780.5097   -414.16288      3006.15   -3140.8577 
15763000    264.75718   -4791.0711   -4261.5241   -4791.0711            0    7674.7681    18.131918    22.665788    19.488929    8009.4471    6868.0726    8292.4115    7863.8203    386.21014    1454.0328   -202.99434   -3365.0377 
15764000    264.81321   -4829.5587   -4299.8995   -4829.5587            0    7833.1648    18.052551    22.764771    19.394231    7970.2961    7629.9473    7305.1035    8564.4436   -606.67181    -602.3071   -197.73621   -3389.3835 
15765000     254.2964   -4799.1448   -4290.5206   -4799.1448            0    9117.0547    18.129572    22.730859    19.227746    7923.7685    9790.7361    9457.7003    8102.7277    2401.0285    784.06077   -213.57612   -3236.9534 
15766000    273.25597   -4826.4422   -4279.8965   -4826.4422            0     8060.109    17.907859    22.651616    19.633728    7964.2636    8649.8228    9364.0008    6166.5032    1235.7081    143.07991    1128.0692   -3343.7099 
15767000    262.94122   -4817.5273   -4291.6123   -4817.5273            0    9372.9454    18.101131    22.687965    19.337137    7941.3334    10317.233    10277.066    7524.5364    187.50661   -600.60747   -1018.6584   -3206.0734 
15768000    255.86499   -4820.5465   -4308.7849   -4820.5465            0    8682.9202    17.965224    22.873166    19.354885    7953.3391    8398.2684    9635.1966    8015.2954    -400.3952    1868.3663   -701.01261   -3301.6417 
15769000    258.74298   -4816.7814   -4299.2635   -4816.7814            0     7918.554    17.981958    23.005122    19.186157    7936.8744    9501.6691    7037.7327    7216.2601    565.97156   -84.230864   -111.08077   -3382.6816 
15770000    258.80238    -4816.746   -4299.1093    -4816.746            0    8410.8804    17.808249    23.025868      19.3344    7928.0784    7392.4575    9678.3293    8161.8544    325.58967    653.65926    1396.1317    -3326.619 
15771000    253.52362   -4827.7852   -4320.7066   -4827.7852            0    7334.0244    18.010476    23.162782    19.121224    7976.8534    7238.2078    6844.1034     7919.762    337.99566   -529.44117    1608.0592   -3467.5086 
15772000    261.76208   -4820.3383   -4296.7818   -4820.3383            0    7361.6272    17.959472    22.769492    19.513145    7979.4724    7530.4715     8092.336    6462.0741   -1910.7791    306.57658   -702.52477   -3440.0914 
15773000    253.27938    -4838.458    -4331.868    -4838.458            0    7948.7988    18.089265    22.745909    19.341747    7958.2928    6558.9852    8396.2542    8891.1569    724.98718   -165.32161     1020.107   -3409.3023 
15774000    278.90818   -4801.6688    -4243.818   -4801.6688            0    7153.7019    18.220903    22.596897    19.441328    8004.6917     6791.885    7968.2376    6700.9832    -761.6317    494.67411    1398.0502   -3408.6932 
15775000    283.19329   -4823.4439   -4257.0224   -4823.4439            0    10593.423    18.014745    22.631664    19.337309    7883.8919    9768.1554    11381.965    10630.148   -375.19471   -619.84685   -384.30563   -3039.0067 
15776000    278.73961   -4827.7809   -4270.2672   -4827.7809            0    7019.8567    17.963753    22.945455    19.392386    7993.2795    6392.3299    7250.6479    7416.5924   -345.29888    131.42149    2657.9259    -3451.936 
15777000    257.08605   -4773.6884   -4259.4845   -4773.6884            0    6852.6279    18.014322    22.947884    19.398955    8019.3448    6129.7499     7255.505    7172.6287   -541.96957    161.84357    -934.0033   -3458.0428 
15778000      264.894   -4838.6078   -4308.7871   -4838.6078            0    6722.8498    18.159405    22.903863    19.197866    7984.7862    6519.5843    6596.5597    7052.4054   -491.56872    1281.0963   -905.42346   -3525.9118 
15779000    262.81666   -4817.1995   -4291.5337   -4817.1995            0    8200.3847    17.906415    22.943083    19.344012    7947.0692    7539.9889    8923.4986    8137.6666   -294.94797    549.33737   -267.95815   -3341.1103 
15780000    272.29335   -4799.6013    -4254.981   -4799.6013            0    9166.6602    18.090972     22.88541    19.175336    7938.9597    8125.2956    9911.4224    9463.2626   -1013.8027   -763.63217   -1696.4378   -3193.6506 
15781000    268.82834   -4791.1379    -4253.448   -4791.1379            0     8033.641    17.846511    23.136591    19.359647    7993.7418    7917.6739    7495.2411    8688.0082    812.04659    364.72383    152.51753    -3316.882 
15782000    266.61128   -4813.9627   -4280.7072   -4813.9627            0    8519.6991    17.850219    22.988604    19.362101    7945.2694    9533.1132     8943.635     7082.349   -499.53134    621.28782    900.27213   -3293.4989 
15783000    260.31973   -4821.8191   -4301.1475   -4821.8191            0     6764.738    18.098435    22.872364    19.325017     7999.668     6927.345    6545.1731    6821.6958    1364.3237    952.86036    1595.4083   -3511.9261 
15784000    260.21528    -4842.083   -4321.6203    -4842.083            0     8685.951    17.953359    22.938604    19.273666    7937.3774    7828.5796    7817.6638     10411.61    -264.3397    706.46007    411.44448   -3316.1476 
15785000    258.96875   -4852.2913   -4334.3218   -4852.2913            0    9010.4005    17.844979     22.91926    19.330591    7906.0902    8480.0907    8786.4386    9764.6722    741.28995   -959.83565   -713.46001   -3295.4027 
15786000     257.7758   -4831.7904    -4316.207   -4831.7904            0    8770.9288     18.04508    22.913826    19.132736    7911.0387    9177.1263     8514.986    8620.6741   -1126.2163   -1174.1675   -909.76524   -3304.2665 
15787000    255.40836   -4807.5829   -4296.7346   -4807.5829            0    6019.1237    17.993264    22.958545    19.460849    8039.2602    5149.7407    6548.1119    6359.5187   -1005.5895    119.97627   -1466.6145   -3591.0263 
15788000    262.99079    -4832.007   -4305.9929    -4832.007            0    7292.6795     18.00369    22.849275    19.380704    7972.6649    6573.0825    7087.5961    8217.3598    717.12182   -293.04568   -394.12783   -3458.0502 
15789000    265.18084   -4833.9014   -4303.5069   -4833.9014            0    6356.6799    18.108592    22.889236    19.315712    8006.2049    7609.5444    5965.2687    5495.2266    -260.7708   -646.04839   -1460.1998   -3561.2864 
15790000    256.85944    -4802.142   -4288.3914    -4802.142            0    7182.2879    18.210322    22.575358    19.434672    7989.6818    6773.0713    7832.4933    6941.2993   -611.83707    1141.2273   -453.34422   -3451.5018 
15791000    263.01879   -4816.2749   -4290.2048   -4816.2749            0    6673.6731    18.103208    22.584882    19.588126    8008.7784    7337.2064    7787.4471    4896.3659    307.16711   -235.28674    -1247.858    -3510.721 
15792000    268.52768   -4835.2901   -4298.2016   -4835.2901            0    7463.5987    18.113198    22.798627    19.312622    7975.2643    6841.4568    7871.8146    7677.5246   -716.72555   -573.46514   -1576.5546   -3430.1026 
15793000     268.2839   -4800.8371   -4264.2361   -4800.8371            0    9575.9738    17.894222    22.572641    19.593236    7914.0971    10848.083    10236.411     7643.428   -483.58407   -255.08645   -186.23208   -3158.9869 
15794000    254.86913   -4831.3111   -4321.5413   -4831.3111            0    6629.6884    18.194018     22.79073    19.270018    7990.4083    5483.7631      7617.98    6787.3223    1666.5353   -337.52112    1287.0792   -3548.9711 
15795000    257.28409   -4846.4123   -4331.8124   -4846.4123            0     6833.893    17.849392    22.954035    19.442469    7965.8821    8183.4395    7078.0561    5240.1834   -471.74689   -322.50698   -842.88861   -3537.8902 
15796000     262.8837   -4838.5039    -4312.704   -4838.5039            0     8036.716    17.983853    23.087687    19.101826    7931.1843    7879.8777     7554.321    8675.9492    1364.9856    216.77415   -1346.5005   -3383.1116 
15797000    258.02759   -4812.8402   -4296.7532   -4812.8402            0    7160.3143    17.815555     23.21884    19.324451    7993.6852    9411.2295    5822.3454    6247.3679    119.83095    121.86325   -1745.7022   -3462.0059 
15798000    264.70948   -4843.1925   -4313.7409   -4843.1925            0    7869.5349    17.832205    23.287454    19.086224    7925.8724    8509.4901    7088.7601    8010.3546     59.80241   -1197.7827   -24.787174   -3404.0957 
15799000    266.27003   -4805.0911   -4272.5182   -4805.0911            0    6837.9562    17.904039    23.130711    19.252375    7973.0466    5447.8281    7808.1177    7257.9227    -766.9447    458.59315   -2859.9477   -3477.4095 
15800000    262.92951   -4841.5153   -4315.6238   -4841.5153            0    7615.6812    17.909056    22.943081    19.406581    7973.9488    8376.2602    7441.3945     7029.389    1051.8845    1108.8494   -1595.2454    -3429.982 
15801000    272.78218   -4787.7552   -4242.1571   -4787.7552            0    7738.2057    18.058282    23.067974    19.248819    8018.4412    7750.2705    8174.6542    7289.6923    346.02051    866.87262   -1297.1215   -3337.2456 
15802000    257.86237   -4830.3744   -4314.6178   -4830.3744            0    8286.7786    17.868707    22.881481    19.364406     7917.379    8321.6532    8723.5311    7815.1516    434.97342   -485.87179    479.91151   -3357.7696 
15803000    251.05767   -4835.5808   -4333.4344   -4835.5808            0    7477.0483    18.106081    22.812071    19.253096    7952.2449     7621.449    8071.3691    6738.3267    -967.9499    472.85076   -1227.8218   -3466.2812 
15804000    266.98042    -4796.893   -4262.8992    -4796.893            0    7826.1163    17.903313    22.669043    19.625886    7965.1852    7878.7532    8166.8652    7432.7306   -1463.2224    166.69654   -925.00195   -3353.7858 
15805000    261.53059   -4806.5966   -4283.5031   -4806.5966            0    8167.0154     18.30119    22.774961    19.201098    8003.1881    6479.0183    7694.3741    10327.654    780.51479    248.98289    3176.3904    -3330.263 
15806000    266.25975   -4791.2785   -4258.7261   -4791.2785            0    8114.6532    17.962778    22.807616    19.469281    7976.3334    7815.7228    8672.9666    7855.2702    1672.5045    1182.1485   -881.31545   -3314.7758 
15807000    256.91466   -4843.8838   -4330.0227   -4843.8838            0     8320.124    18.063612    22.826886    19.227086    7928.0201    7003.6919    9188.7196    8767.9604    938.75137    690.13244    1188.1704    -3368.033 
15808000     249.0081   -4788.6685   -4290.6215   -4788.6685            0    7724.5825     18.06462    22.787313    19.424057    7995.7994    7467.4615    7990.9202    7715.3657   -2279.5192   -214.05091    21.520538   -3389.8538 
15809000    261.06428   -4818.8268    -4296.666   -4818.8268            0    9636.1103    18.005641     22.79021    19.271396    7908.0623    8152.4408    10696.597    10059.293     616.1765   -26.766602    1509.8973    -3185.324 
15810000    271.29067   -4836.0487   -4293.4339   -4836.0487            0    8734.7408    17.893697    22.808095    19.417304    7924.6119    9947.9435    8432.6092    7823.6696    949.72527    312.08979    428.17879   -3283.9395 
15811000    265.77494   -4802.4931   -4270.9104   -4802.4931            0    8593.4455    18.124558    22.769566    19.266613    7951.1061    10256.578    8226.3804    7297.3782    702.74548     410.8041    1302.7387   -3274.4254 
15812000    271.50114   -4785.7484   -4242.7126   -4785.7484            0    8045.6104    18.042735    22.933278    19.295288    7983.9863    9658.5712    6789.2543    7689.0057    397.52807    384.52413   -325.49788   -3305.8958 
15813000    271.32907   -4800.4239   -4257.7322   -4800.4239            0    7056.8701    17.919578    22.892763    19.448543    7978.3498    7694.6768    7650.4614    5825.4719    269.14011   -307.85729   -638.51741   -3436.6227 
15814000    262.99217   -4826.8132   -4300.7964   -4826.8132            0    6162.2185    18.182986    22.972992    19.154388    8001.1245    4067.2967    6153.5039    8265.8549    41.846619   -330.32692    361.60195   -3581.7382 
15815000    256.60447   -4833.2324   -4319.9917   -4833.2324            0    8310.3332    17.909641    22.926145    19.335929    7939.3137        11085     6998.436    6847.5632    -532.6876    1267.2198   -1359.3734   -3357.7653 
15816000    273.21985   -4803.6239   -4257.1505   -4803.6239            0    9036.3525    17.970608    22.799303    19.395348    7946.6102    8954.0859    8635.1671    9519.8044    260.51524   -215.66034    171.71154    -3209.899 
15817000    263.57087   -4835.4065   -4308.2322   -4835.4065            0    7147.3268    18.071386     22.66545    19.507452     7990.176    7261.9782    7498.4247    6681.5775   -1264.7128   -28.884667    116.34952   -3475.3648 
15818000    262.53196   -4814.2418   -4289.1454   -4814.2418            0    6062.4443    17.949718    23.071684    19.362541    8018.6134     5588.682    6538.4851    6060.1657   -226.34216    646.97006   -2831.9726   -3580.1835 
15819000    255.88791   -4844.8817   -4333.0743   -4844.8817            0     7262.254     17.93206    23.079076     19.20758    7949.1602    6334.5944    7692.9827    7759.1848    472.94968    801.73778    947.20765   -3491.1587 
15820000    252.00259   -4790.2128   -4286.1764   -4790.2128            0    8607.8223    17.935845    22.877668    19.369086    7947.7232    9078.8769    9446.6619    7297.9279   -201.59241    546.10532   -1189.4436    -3288.449 
15821000    266.16084   -4826.0982   -4293.7436   -4826.0982            0    7491.3225    18.085393    22.700294    19.438693    7980.4337    6156.8715    8578.1761      7738.92    419.26214   -927.30479   0.12427421   -3421.8553 
15822000     268.2581   -4782.0104   -4245.4611   -4782.0104            0    7875.0244    18.084558     22.77029    19.468037    8016.7552    5618.0345    9644.3202    8362.7184    559.20841   -3.1255581   -44.191469   -3324.7435 
15823000     246.7514   -4833.2997   -4339.7664   -4833.2997            0    6832.5389    18.034182    22.798443    19.356762    7958.5574    6298.6107    6597.2546    7601.7513    690.01769   -1427.4759   -663.55418   -3546.7314 
15824000    263.50312   -4853.0673   -4326.0286   -4853.0673            0    8733.7141     18.03066    22.749398    19.333241    7930.2377    7969.1506    9651.2713    8580.7205    629.51307      200.391   -769.58052   -3315.9362 
15825000    247.49266   -4797.6701   -4302.6542   -4797.6701            0    9088.2737    17.979816    22.892269    19.302701    7944.9681    8456.3997    8772.3451    10036.076    870.06916    171.73728    1485.9342   -3249.6031 
15826000    265.51847   -4817.2015   -4286.1317   -4817.2015            0    7973.4489    18.002764    22.908445    19.319447    7967.6363    6892.7884    9063.5679    7963.9904    1125.8757    862.86041    164.17014   -3359.6185 
15827000    252.17361    -4844.923   -4340.5446    -4844.923            0    7450.6888    18.078044    22.889688     19.22027    7953.3626    7835.6512    7279.5555    7236.8597   -232.95552   -687.26082   -126.18755    -3476.327 
15828000    273.49637   -4787.1471   -4240.1206   -4787.1471            0    7925.6775    17.876254    22.855114    19.522137    7976.0389    10108.791    7112.9235    6555.3175    -156.3243    402.35354   -914.08544   -3318.1872 
15829000    252.21484   -4817.9551   -4313.4942   -4817.9551            0    7462.4965    17.999143    22.951649    19.307063    7975.9411    6400.2012    8875.1288    7112.1594    126.26717    627.50002    956.91455   -3445.4498 
15830000    275.43691   -4821.2164   -4270.3085   -4821.2164            0    7020.4181    18.093034    22.955199    19.267495    8002.3533    6133.6062    7991.2441    6936.4039   -187.69213   -365.18518   -109.28832   -3450.9828 
15831000     258.5961   -4801.1657   -4283.9415   -4801.1657            0    8873.2737    17.720425     23.30196    19.204505    7929.9363    8245.4904    9986.3094    8388.0213   -592.39826     2147.215    676.36222   -3257.7475 
15832000    243.13478   -4821.4489   -4335.1493   -4821.4489            0    6152.8437    17.995523    23.168367    19.160985    7988.7301    4400.4326     8636.937    5421.1614    742.14606     831.7368   -910.17227   -3618.2972 
15833000    262.57643   -4792.2036   -4267.0183   -4792.2036            0    10054.375    17.743444    23.084485    19.262331    7889.8175     9860.839    10318.233    9984.0524   -131.45226    947.37368    177.59822   -3110.1127 
15834000    272.01531   -4797.5129   -4253.4487   -4797.5129            0    6354.8391    17.814018    23.404762    19.221027    8013.8779    6150.4186    5816.9717    7097.1269    2133.7567   -839.10629    3304.2464    -3510.732 
15835000    249.28464   -4805.0712   -4306.4711   -4805.0712            0     8377.316    17.913053    23.123982    19.125598    7922.2264    7845.8541    7186.7376    10099.356   -1877.3557   -157.57245   -926.58383   -3338.5766 
15836000    255.72051   -4825.4044   -4313.9318   -4825.4044            0    7225.0388    17.916746    23.044045    19.391167    8006.1144    7964.5904    7055.9056    6654.6204   -798.78405    2067.0875   -1062.0236   -3470.3293 
15837000    258.61889   -4830.1322   -4312.8625   -4830.1322            0    6597.8431    17.980302    23.050396     19.27629     7989.118     6888.992    6573.8829    6330.6543   -205.43902   -883.35376    522.57055   -3544.1274 
15838000    266.08603   -4829.7595   -4297.5546   -4829.7595            0    8285.3146    17.728769    23.163031    19.337251     7940.881    8863.8674    7329.5175     8662.559    258.21897    -273.6779   -714.32339   -3338.0356 
15839000    247.57624   -4842.7172   -4347.5342   -4842.7172            0    7925.1925    17.899933    23.045994    19.278459    7952.7841    8955.6054    7831.1868    6988.7853   -284.44705    505.18373   -133.07028    -3428.345 
15840000    264.79863   -4837.9276   -4308.2976   -4837.9276            0    8204.8751    17.989471     22.89875    19.255984    7932.2407    8470.4503    8197.3344    7946.8406     469.8508    448.43788    1023.6877   -3359.1282 
15841000    261.08751    -4831.763   -4309.5557    -4831.763            0    5846.1517    17.903221    23.121433    19.299567    7989.0198    5347.5999    4834.0758    7356.7794   -1530.9634   -788.34233   -78.170254   -3628.4109 
15842000    262.03809   -4834.6604   -4310.5519   -4834.6604            0    7170.2598    17.950735    23.058494    19.248341    7967.2138    8875.5238    6696.2138    5939.0417   -198.47169   -466.21555     620.8681   -3477.4133 
15843000    275.80777   -4825.4257   -4273.7761   -4825.4257            0    7847.5004    17.876091     22.91516    19.494837    7985.7381    9091.4602     7853.309     6597.732   -205.06557    237.68748   -1836.8318   -3359.8264 
15844000    256.49184   -4807.1575   -4294.1421   -4807.1575            0    8770.6943      18.1195    22.925005    19.152208    7955.6285    8200.2315    9386.3065    8725.5448    69.902932    422.69764    1216.6713   -3276.5251 
15845000    243.83721   -4826.7642   -4339.0597   -4826.7642            0    8296.2393    17.847017    23.034147    19.284508    7927.6845    8924.7996    6504.7027    9459.2156   -1252.6356   -498.01699   -1644.2701   -3379.8721 
15846000    278.59702   -4843.3214    -4286.093   -4843.3214            0     5758.363    17.988355    23.089561     19.31437    8022.0925    5620.9972    6406.7593    5247.3324   -1920.9387   -802.58666    2027.5039   -3612.3991 
15847000    260.54794   -4816.3944   -4295.2664   -4816.3944            0    8670.2371    17.714485    23.089991    19.414952    7941.2453    11173.119    6685.5307    8152.0614   -819.94915   -873.38475     1201.994   -3291.1236 
15848000    254.07472   -4807.7963   -4299.6155   -4807.7963            0    7919.5792    18.046907    22.937361    19.282564    7981.9869    7076.5006    7119.6964    9562.5404   -1337.2157   -768.98439    224.44953   -3377.7045 
15849000    260.53813   -4820.9718   -4299.8634   -4820.9718            0    8876.2011    17.771636     23.08694    19.343957    7936.6842    11578.423    7256.4359    7793.7441   -52.889927    431.45524    279.00465   -3272.4573 
15850000    265.66535   -4826.9568   -4295.5933   -4826.9568            0    8522.3293    18.013733    22.936405    19.228026    7944.4489    7839.4262    8133.6945    9593.8671   -1124.9764    346.17536   -398.53025   -3308.1823 
15851000    249.89109   -4843.1169   -4343.3039   -4843.1169            0     6464.778    17.841028    23.096505     19.39159    7990.6027     6427.119    6121.8242    6845.3906    434.65841   -73.154833    4.6654519   -3589.9326 
15852000    251.06371   -4793.5022   -4291.3438   -4793.5022            0     7129.547    17.888585    23.164849    19.276148    7987.7735    7522.9315    6297.9902    7567.7193   -1055.2678   -662.04311    611.17204    -3460.798 
15853000    266.57777   -4816.0286   -4282.8402   -4816.0286            0    6194.5423    17.927241    23.166625    19.253778    7996.3572    4563.8129    6298.8452    7720.9689   -1545.9134    62.343639   -1634.7749   -3560.4409 
15854000    273.60703   -4834.5378     -4287.29   -4834.5378            0      8712.53    18.001142    22.908092    19.300219    7958.8663      6531.63    8506.1536    11099.806   -881.37155    639.88001   -497.81156     -3276.01 
15855000    278.50559   -4803.1567   -4246.1111   -4803.1567            0    10282.365    17.869892    22.879937    19.325343    7901.3983    8953.3004     10779.03    11114.766   -148.60169    1647.7855    -335.5927   -3061.2352 
15856000    252.80179   -4830.5279   -4324.8931   -4830.5279            0    7902.0043    17.976547    23.118648    19.193446    7976.6707    8299.6263    6435.8917    8970.4949    430.88663   -97.889969    1011.5447   -3405.6406 
15857000    250.92774   -4791.1417   -4289.2552   -4791.1417            0     7413.145    17.808078    23.168306    19.319674    7970.9691    8478.9854    6486.3986     7274.051   -190.79921   -759.99348    2022.0704   -3427.4889 
15858000    263.84703   -4811.1416    -4283.415   -4811.1416            0    6520.6499    17.883098     23.17183    19.328179      8009.29    7030.2921    6618.8657    5912.7919   -671.99159    151.81868    933.54679   -3521.7556 
15859000    255.73646   -4828.0685    -4316.564   -4828.0685            0    6725.2412    17.999745    23.108033    19.245359    8004.8896    6352.2414    7013.0937    6810.3886     590.7452    1047.9205    1261.7646   -3531.4385 
15860000    269.92904   -4820.8371   -4280.9457   -4820.8371            0    6197.5985    17.909203    23.326066    19.176008    8010.8011    7210.4739    4542.4149    6839.9067   -300.32855    639.36857   -1001.9734   -3556.8845 
15861000    276.70045   -4804.9579   -4251.5228   -4804.9579            0    8842.9437    18.005992     23.04945    19.141093    7944.0936    6763.3934     9713.375    10052.063     724.1518    1009.7134   -64.739651   -3227.0107 
15862000    254.08679   -4804.0984   -4295.8934   -4804.0984            0    6729.1887    17.883586    23.041353    19.407447    7997.0718    6607.7276    7236.1062    6343.7323    3.1771268    122.44297    193.99302   -3511.0742 
15863000    267.00769   -4842.0093   -4307.9609   -4842.0093            0    9829.3965     17.93248    22.795197    19.229489    7860.5233    9457.8416    9854.9017    10175.446   -236.21099   -1267.7847   -1514.8317   -3181.1418 
15864000    272.59688   -4828.8391   -4283.6116   -4828.8391            0    8821.6708    17.942485    22.870046    19.397177    7959.5434    8174.1112    9180.1326    9110.7685   -946.11211    705.41649   -1430.3983   -3259.5764 
15865000    257.29526   -4818.2022   -4303.5799   -4818.2022            0    6846.6691    18.164418    22.848846    19.401296     8052.236    6013.2257    7107.4151    7419.3665    41.852277   -449.65515    1255.6919   -3499.5508 
15866000    257.99191   -4849.6159   -4333.6002   -4849.6159            0    6467.5522    18.164732    22.611967    19.492617    8006.4039    5698.9919     7195.429    6508.2357    513.81601    491.10974    1238.8135   -3578.4152 
15867000    243.61047   -4823.5663   -4336.3153   -4823.5663            0     6666.229    17.978623    22.815014    19.525493    8009.0165    7374.7347    6388.3319    6235.6204   -461.14181   -252.28493   -556.46207   -3557.6778 
15868000    261.60416   -4838.2581   -4315.0175   -4838.2581            0    8661.0479    18.009485    22.918494    19.168292    7911.7177    9115.0154     8600.476    8267.6524   -232.58594   -694.94529   -709.73235   -3315.6686 
15869000    245.36381   -4814.6581   -4323.9002   -4814.6581            0     5503.321    17.871155    23.128901    19.330681    7990.1471    6102.8149    5293.0262     5114.122      189.146   -669.02994    1379.9811   -3682.6087 
15870000    251.77463   -4806.8969   -4303.3166   -4806.8969            0    7726.8351    17.904207    23.201568    19.151812    7955.7714    7485.5045    7272.1529    8422.8478    289.66011   -980.09477   -541.24612   -3406.7969 
15871000    261.70446   -4846.6283    -4323.187   -4846.6283            0    7895.3647    17.990892    22.969888    19.265419    7961.4109     7798.979    8606.7144    7280.4006   -242.04656    1125.9115   -1227.4182    -3406.464 
15872000    257.39214   -4782.2632   -4267.4471   -4782.2632            0    7742.4225    17.938602     22.95839    19.333651    7962.3981    7027.8285    7927.6981    8271.7408    116.45337    705.12855   -571.83197   -3368.3706 
15873000    258.60605   -4810.3037   -4293.0596   -4810.3037            0    6830.8003    18.178161    22.798066    19.213313     7962.514    5346.6455    7706.4042    7439.3513    511.58068   -374.05525   -1035.5715   -3499.8323 
15874000    266.12548    -4820.353   -4288.0692    -4820.353            0    6811.1557    18.021043    22.836142    19.430077    7996.0808    6385.0726     7588.895    6459.4996    1307.9584   -609.95252    412.01887   -3493.7887 
15875000    256.40426   -4784.4108   -4271.5706   -4784.4108            0    8029.6686    18.049907    22.686693    19.486493    7979.5768     6785.628    9659.9941    7643.3837   -1698.0805    690.29655    1401.5523   -3337.1264 
15876000     258.5216   -4835.5909   -4318.5157   -4835.5909            0     6496.809    18.064185    22.811458    19.373769    7983.3568    6070.6779    6129.5836    7290.1655    1231.5936   -848.28831    222.84406   -3562.0983 
15877000    250.45197   -4812.4005   -4311.4656   -4812.4005            0    8288.6959    17.991363    22.709064     19.51494    7973.1607    9775.0796    7324.0755    7766.9327    221.05469    633.77781    -1066.823    -3347.653 
15878000    252.10308   -4808.9449   -4304.7076   -4808.9449            0    9772.1574    18.066512    22.711777    19.251642    7899.3836    9523.7643    10523.714    9268.9934    1535.7527   -143.12036    2326.2921    -3178.912 
15879000    284.35916   -4816.7532   -4247.9997   -4816.7532            0    6583.8899    17.957454    23.006414    19.407992     8018.152    5923.4114    6957.5501    6870.7082    34.832151   -695.40914   -587.46345   -3478.1025 
15880000    251.88507   -4845.4118   -4341.6105   -4845.4118            0    5365.2711    17.917628    23.181876    19.337344    8032.0408    5939.3434    5867.2213    4289.2488    1066.3213    220.45185     430.0751   -3713.1276 
15881000    249.44174   -4842.6562   -4343.7419   -4842.6562            0    7990.5995     18.00741    22.932274    19.284951    7963.7369    7780.0369    8611.2199    7580.5417   -102.99844   -190.73313    1013.5915   -3415.6902 
15882000    264.93124   -4802.8388   -4272.9436   -4802.8388            0    8121.8539    17.969346    23.192101    19.192165    7998.2749    8765.1665    7635.6277    7964.7675    1107.9767    40.047573    2102.3223   -3325.5567 
15883000    270.71377   -4816.8231   -4275.3621   -4816.8231            0    8079.8246    17.672443    23.176047    19.426574    7956.6853    8706.6821    8127.5038    7405.2877    1378.8964    446.35306    1190.8454   -3337.7785 
15884000    251.44276   -4825.6617   -4322.7451   -4825.6617            0    9289.9926    17.781291    23.199097    19.157701    7902.7412     9950.292    8153.8009    9765.8848   -925.62776    243.47989    320.27398   -3252.0421 
15885000    257.05712   -4815.9889   -4301.8429   -4815.9889            0     9338.977    17.802166    23.262044    19.100366    7909.7436    10732.915    7299.8347    9984.1812    177.55512   -477.93985    2237.9488   -3224.5406 
15886000    271.24244   -4810.9249   -4268.4065   -4810.9249            0    7144.5352    18.086372    23.040088    19.188916    7996.2437    6618.1567    7519.1092    7296.3396    531.46629   -1130.7687    1850.1989   -3435.2321 
15887000    257.74113   -4828.3045   -4312.7904   -4828.3045            0     8128.532    17.989677    22.904705    19.308601    7956.0751    7885.9887    8946.9604    7552.6469   -373.71683    1263.7997    665.85435   -3369.6271 
15888000    262.63739   -4820.6746   -4295.3674   -4820.6746            0    9234.7285    17.905942    22.753903    19.464917    7930.5924    10367.087    9271.0486    8066.0494    314.98734    704.42844    959.75095   -3227.2828 
15889000    262.19821   -4858.5096   -4334.0808   -4858.5096            0    6646.8898    18.233603    22.763303    19.256979    7992.7446    5959.1319    7244.4758    6737.0618    -235.7028   -217.27279    -840.1255   -3559.2796 
15890000     258.6006   -4805.2164   -4287.9833   -4805.2164            0    7761.2512    18.051136    22.620119    19.513383     7967.682    6588.1139    8806.9213    7888.7185   -655.64387   -165.16141   -381.93407   -3386.1223 
15891000    250.87109    -4810.646   -4308.8728    -4810.646            0     8868.471    17.997573    22.741202    19.413101    7945.5189     8972.068     7951.947    9681.3981    145.83237   -1595.2228   -331.94309   -3281.2189 
15892000    259.97169   -4818.3972   -4298.4217   -4818.3972            0    8304.3726    18.067974    22.544257    19.548026    7962.4788    7483.2418    9414.8904    8014.9857    813.16921   -241.18702    697.93919   -3334.0798 
15893000    256.95147   -4819.5535   -4305.6188   -4819.5535            0    7409.7363    18.141902    22.684516    19.418271    7991.4004    6289.3255    7768.2162    8171.6671    654.64125    1232.4766    2216.1671   -3442.0409 
15894000    267.66612    -4838.811   -4303.4457    -4838.811            0    6719.2695    18.129443    22.722157    19.382671    7984.4985    5746.5137    7380.4324    7030.8624   -510.23396    596.88079   -42.372948   -3521.0156 
15895000    268.98939      -4836.9    -4298.888      -4836.9            0    5719.2787    18.005817    22.892142    19.433249    8010.2244    6386.3778    5739.9509    5031.5074    -1312.551    245.11567   -1159.6866   -3630.7567 
15896000    257.77586   -4825.8407   -4310.2571   -4825.8407            0    9199.9652    18.089765    22.917348    19.127213    7929.5577    7557.4031     9334.775    10707.717    556.08787    1884.0099    225.63399    -3246.332 
15897000    254.85842   -4834.6743   -4324.9259   -4834.6743            0    6114.1655    17.910862    23.006041    19.382122    7986.5589    7183.4611    6382.0353         4777   -1544.6333    1085.5712    2091.8652   -3612.7738 
15898000    258.18592   -4828.0377    -4311.634   -4828.0377            0     5939.477    18.064045    22.895679    19.371313    8011.7536    5888.7745    6776.2988    5153.3576   -2172.8348    500.33838    567.62328   -3617.6464 
15899000    263.49677   -4793.8773   -4266.8512   -4793.8773            0    8592.1041    17.942941    22.975885    19.377967    7988.6627    8401.6524    8066.2331    9308.4269   -290.37783    324.08134    68.596846   -3265.8156 
15900000    260.31493   -4829.2906   -4308.6286   -4829.2906            0    9382.2636    17.885757    23.040821    19.185485    7906.3867    8048.7396    10840.057     9257.994   -2733.6217    1375.1682    -917.0234   -3226.7923 
15901000    275.33542      -4802.7   -4251.9951      -4802.7            0    8126.8072    17.941715     23.02433    19.276767    7963.1549    7706.6091    8340.3147    8333.4977    893.72328   -11.445567     84.03163   -3308.1929 
15902000    260.04625   -4805.3405   -4285.2159   -4805.3405            0    8607.6283    17.849072    23.014527    19.319962    7936.4073    10014.181    7994.1848    7814.5194    1002.2099    49.792271   -197.66618   -3288.9314 
15903000    257.78306   -4797.3811   -4281.7831   -4797.3811            0    7064.1792    18.025752    23.029814    19.270092    7999.5882    6173.5029    7678.2789    7340.7559   -288.44724    16.895842    1612.8924    -3457.635 
15904000    267.81573   -4842.0674   -4306.4029   -4842.0674            0    8147.5947    17.862457    22.892584    19.434708    7947.1977    8725.2659    8243.2649    7474.2533      391.416    741.74292    331.00672   -3362.0826 
15905000    260.55435   -4832.0833   -4310.9425   -4832.0833            0    8207.5529    18.040511    22.975324    19.143194     7934.597    7549.6171     8230.989    8842.0526   -574.35825     218.5203    133.72799   -3361.1812 
15906000    249.72614   -4837.6132     -4338.13   -4837.6132            0    7292.3628    17.869947    22.983171    19.388569     7963.041    7157.8421    7694.0631    7025.1833   -298.61481    733.20416    1311.0208   -3491.2476 
15907000    258.55267   -4822.6309   -4305.4936   -4822.6309            0    8629.3367    17.976832    22.872414    19.317433    7942.8175    6948.7931    10193.933    8745.2845    950.80896    1850.4026    3021.0254   -3305.8898 
15908000    253.05319   -4830.5358   -4324.3982   -4830.5358            0    7832.0417    17.954044    22.940782    19.279127    7940.6834    8125.8181    7597.1536    7773.1534   -1852.9019   -476.95619   -732.06074   -3417.3951 
15909000    258.29193   -4838.1755   -4321.5597   -4838.1755            0    8082.0183    18.078071     22.82197    19.322396      7971.98    8895.9901    8668.8863    6681.1786   -106.90788    805.69644    2259.8963   -3381.9188 
15910000    263.95241   -4824.7215   -4296.7841   -4824.7215            0    7502.7282    17.942302    22.880058    19.449104     7984.264    6576.0892    7651.4577    8280.6377   -1917.8517     1216.169   -197.45436   -3423.1491 
15911000    264.57155   -4852.3479   -4323.1721   -4852.3479            0    7672.6275    18.044139    22.575103    19.554091    7965.3251    7534.7589     8131.811    7351.3127   -847.86908    970.07376    1156.6613   -3431.8729 
15912000    250.67211   -4796.9092    -4295.534   -4796.9092            0    7984.2965     18.05795    22.893535    19.341464    7995.9604     9267.604     7072.854    7612.4315   -460.27393   -825.18452    -808.4027   -3364.4622 
15913000    262.70732   -4834.0496   -4308.6025   -4834.0496            0    8271.3045    17.867905      22.7959    19.538279    7958.2337    10618.113    8399.0603    5796.7399   -1525.7477   -1162.1907    -180.0774   -3348.6128 
15914000    257.12384    -4827.801   -4313.5216    -4827.801            0    7982.9067    18.004137    22.862713    19.273134    7933.2732    7777.9782    7917.0239    8253.7181    992.96496    502.30172    1397.2229   -3389.9101 
15915000    249.49372    -4805.315   -4306.2967    -4805.315            0    9319.1894     17.96386    22.826533    19.350256    7934.6237    9976.5121     9208.019    8773.0371   -486.34214    892.07223    1596.2636   -3227.8955 
15916000    270.57566   -4795.0495   -4253.8648   -4795.0495            0    9012.6544     18.05376    22.915704    19.186979    7937.9336    9645.2207    8200.5144    9192.2281    211.35502    1689.9077   -755.94574   -3210.5002 
15917000    261.53986   -4830.6321   -4307.5201   -4830.6321            0    7445.5864    17.995931    22.915646    19.339587    7975.4212    9778.5779    6501.3568    6056.8244   -1054.9782   -281.96303   -1725.4913   -3441.4991 
15918000    275.15162   -4822.6458   -4272.3085   -4822.6458            0    8047.5137    17.998603     22.88795    19.305495    7952.9202    6488.0436    8603.0777    9051.4198   -1099.2157   -526.31035    748.15952   -3338.9162 
15919000    265.00726   -4791.0909   -4261.0437   -4791.0909            0    8249.6629    17.985535    22.959818    19.281715    7962.2805    7986.5823    9302.9022    7459.5044   -1816.5568    246.14725    -1375.175   -3303.0788 
15920000    262.98719   -4806.7209    -4280.714   -4806.7209            0    8730.4782    17.772606    22.991333    19.380436    7919.1547     10293.96    7190.9033    8706.5714   -842.00841   -2354.3153   -512.81012   -3272.4071 
15921000    254.88107   -4788.4739   -4278.6803   -4788.4739            0    9489.5663    18.037482    22.769183    19.337784     7942.003    7334.3294    11397.177    9737.1919    720.81376   -737.28649    1478.7343   -3179.5421 
15922000    255.06433   -4822.6746   -4312.5145   -4822.6746            0    7161.0882    17.941304    22.916925    19.389435     7972.151    6426.8113    8001.0323    7055.4209   -1992.3031    2061.7435   -774.16081   -3479.9259 
15923000    249.65328   -4836.6997   -4337.3623   -4836.6997            0    6219.0373    17.978108    22.965866    19.412564     8015.114    6859.2216    6787.1966    5010.6938   -892.22393    862.56663    728.40035   -3610.4053 
15924000    254.01991   -4815.9187   -4307.8475   -4815.9187            0    7765.4587    18.099983    22.831435    19.238063    7950.1022    8060.3326    7762.4313    7473.6123   -1438.7254   -920.60088    792.80731   -3407.4884 
15925000    268.38391    -4845.214    -4308.413    -4845.214            0    7249.2845    17.919989    22.578775    19.658456    7954.0351     6432.707     9205.248    6109.8985    -960.6306    715.95042     -232.162   -3467.4855 
15926000    261.21051   -4833.3624   -4310.9091   -4833.3624            0     9015.492    18.115187    22.793246    19.164636    7913.1533    9240.3774    7824.8416    9981.2569    18.990622   -1786.4338   -107.31613   -3270.4743 
15927000    267.79134   -4813.3157      -4277.7   -4813.3157            0    8621.5192    17.879499    22.741323    19.574141    7958.9133    10142.794    8861.8784    6859.8848   -1279.1085     242.5459    -414.3113   -3276.9779 
15928000    259.57984   -4801.8294   -4282.6377   -4801.8294            0    7710.5938    18.264287    22.678245     19.25762    7976.5441    6752.3761     8791.123    7588.2823     -1851.04   -392.15794   -232.43017   -3385.6665 
15929000    259.66793   -4799.9345   -4280.5665   -4799.9345            0    9173.9469    17.940737    22.887683    19.320678    7933.4936    8931.1657    9754.1941    8836.4807    1740.0527    1464.7119    1950.5302   -3219.1238 
15930000    263.72129   -4818.2168   -4290.7416   -4818.2168            0    8280.2784    18.067042    22.837441     19.21551    7928.4159    7659.8969    6967.9216    10213.017    173.86782    278.72504   -477.65178   -3333.3111 
15931000    259.59038   -4833.4595   -4314.2466   -4833.4595            0    7465.7097    17.980506     22.77722    19.518828    7993.8566    7234.7924    7508.6676    7653.6691    1356.9089    869.22661    2179.1475   -3443.8778 
15932000    266.98322   -4827.5013   -4293.5018   -4827.5013            0    7025.5544    18.174838    22.664504    19.433047    8004.9323     6734.566    6505.6647    7836.4325    838.23264   -180.54721   -1826.4555   -3473.3124 
15933000     254.4199   -4841.2349   -4332.3637   -4841.2349            0    7354.8556    18.044713    22.892551    19.313327    7978.1327    6457.7998    7063.5347    8543.2324    380.78513   -910.32175    335.42913    -3476.605 
15934000    260.52657   -4856.6884   -4335.6031   -4856.6884            0    6452.0855    18.052796     22.86484    19.361032    7991.7361    5113.4932    6332.8053     7909.958   -825.04163   -484.40816   -1047.6299   -3583.6043 
15935000    266.24627   -4794.3728   -4261.8473   -4794.3728            0    8586.1029    17.951956    23.065746    19.176285    7940.4256    9839.4661    6165.6306    9753.2118    927.75756    -1017.926    1302.3612   -3267.5512 
15936000     263.3536   -4809.6879   -4282.9481   -4809.6879            0    8663.3892    17.895898    23.087056    19.319994    7982.3181    9920.5167    8411.9937    7657.6572    369.45028    622.60042    111.22918    -3274.409 
15937000    270.62228   -4858.8331   -4317.5551   -4858.8331            0    6535.3738    17.919961    23.072697    19.258442    7962.6308    5776.0272    7786.2522    6043.8418    -299.9107    292.76793   -38.814775   -3558.6231 
15938000    279.91652   -4830.0134   -4270.1458   -4830.0134            0    9749.1362    17.797898    23.208272     19.11465    7895.4681    7864.1489    10516.702    10866.557     2104.089   -386.76936    765.24359    -3147.559 
15939000    250.83043   -4825.6776   -4323.9857   -4825.6776            0    7482.8707    17.769212    23.351083    19.166114    7952.6024    8443.1054    7093.1684    6912.3383    1043.3006    93.400876    1223.0989   -3456.1183 
15940000    275.02817   -4807.6575   -4257.5672   -4807.6575            0    8254.7796    17.790363    23.198051    19.325209    7975.5473    8298.3945    8927.3943      7538.55   -969.32641       150.97   -1561.9387    -3297.411 
15941000    267.80291   -4834.2761   -4298.6372   -4834.2761            0    7420.2972    18.037086     23.19747    19.053079    7972.0892    4379.3979    8197.2513    9684.2425    1193.4583   -346.55198    1068.4803   -3435.9182 
15942000    264.27884   -4817.5318   -4288.9414   -4817.5318            0    5908.2743    17.762903    23.220462    19.387821     7996.755    5653.5799    5481.9143    6589.3285    872.08083    518.33089    424.56498   -3599.8921 
15943000    249.90609   -4800.4294   -4300.5863   -4800.4294            0    8204.7022    18.120694    23.110985    18.963514    7941.6749    6615.8588    8471.8866    9526.3611    375.14953   -628.79629   -198.97818    -3350.308 
15944000    265.75926   -4821.7661   -4290.2147   -4821.7661            0     6493.428    17.910803    22.944314    19.417702     7979.726    7163.3786    6862.5961    5454.3094    1285.0659    -967.7242    632.33555   -3534.5348 
15945000    248.88296    -4792.849   -4295.0523    -4792.849            0    8255.2379    17.997425    23.004707    19.249585    7969.8194     6088.831    10689.349    7987.5331    841.01959      1515.43    1041.3014   -3335.5324 
15946000    251.67899   -4815.0281    -4311.639   -4815.0281            0    6802.3327    17.870386    23.031071    19.412889    7989.8429    7941.8157    7395.2933     5069.889    1074.5985    483.70289    28.207953   -3519.0063 
15947000    247.98606    -4805.779   -4309.7763    -4805.779            0    6770.5053    18.098356    23.074174    19.182704    8010.7855    7952.5426    6645.0792     5713.894   -193.02313    701.53561   -541.21535   -3518.7843 
15948000    253.07914   -4800.0234   -4293.8338   -4800.0234            0    9122.5196    17.886131    22.748909    19.428388     7905.216    10948.928    9784.2798    6634.3513    -531.8096      769.866    271.98638   -3242.1034 
15949000    267.21181   -4812.4983   -4278.0417   -4812.4983            0    6468.9454     18.12284    22.839591    19.330359    8001.1886    6747.0867    6073.0596    6586.6899    500.15067    682.31408    569.53188   -3523.1861 
15950000    263.63986   -4825.5919   -4298.2796   -4825.5919            0    7212.1208    17.926118    22.645507    19.600455    7956.7268    7955.1058    9149.4946    4531.7621    172.83673   -254.86264    653.68964     -3461.38 
15951000    267.35643   -4826.0539    -4291.308   -4826.0539            0    8576.2702    18.138109    22.700842    19.275228    7936.5817    5773.4976    8469.4467    11485.866    971.78167    485.29785   -903.77335   -3298.6313 
15952000     257.5062   -4811.2389   -4296.1947   -4811.2389            0     9978.848    17.994501    22.652385    19.377141    7898.4785    10533.841     9990.599    9412.1038    1163.7881   -214.96125     288.8448   -3146.7192 
15953000    248.80127   -4830.4483    -4332.815   -4830.4483            0    7266.5504    18.077396    22.780242    19.346099    7966.8679    5794.9253    8442.9488    7561.7771   -722.94853    590.64488   -706.89512   -3488.5247 
15954000    252.15996   -4832.3457   -4327.9946   -4832.3457            0     9110.795    17.975573     22.56117     19.47727    7899.0064    10043.224       8740.3    8548.8613   -567.42831   -1224.1582   -419.78178    -3278.441 
15955000    249.78891   -4829.5068   -4329.8981   -4829.5068            0    7856.7671    18.069015    22.817968    19.339528    7973.6528    9355.8291    6527.9528    7686.5195     820.8881   -798.26917    2110.1149   -3416.2539 
15956000    256.69623   -4837.0679   -4323.6438   -4837.0679            0    6781.3806    17.948361     22.80859    19.447053    7961.1724    4957.2042    7942.4397     7444.498   -1414.9217   -272.49063   -526.50733   -3536.2879 
15957000    267.89822   -4829.0448   -4293.2153   -4829.0448            0    8779.8546     18.12256    22.939735    19.075106    7930.0314    7706.7332      8545.56    10087.271   -542.08396   -384.31721   -857.69282   -3277.8131 
15958000    273.61126   -4827.5962   -4280.3399   -4827.5962            0    8348.8322    17.825121    22.896525    19.462727    7943.3877    8314.2996    8893.7323    7838.4647    296.77846    145.89036    731.23878   -3313.1597 
15959000    255.88265    -4814.646    -4302.849    -4814.646            0    8805.4963     18.11122    22.916058    19.088132    7922.2957    5374.4293    10927.957    10114.102    1036.6868    397.51834   -89.313367   -3285.4747 
15960000    265.75341   -4812.3858   -4280.8461   -4812.3858            0    7864.9306    17.708047    23.084747    19.537628    7986.7049    7976.1718    7543.5528    8075.0671   -545.81689   -297.15478     17.97163   -3364.7556 
15961000     263.6815   -4825.3078   -4297.9122   -4825.3078            0    6949.4643    17.969681    23.051158    19.280244    7986.3004    7285.3152    6919.9602    6643.1175    399.65398   -94.205588   -1220.5572   -3488.4942 
15962000    257.82381   -4807.1268   -4291.4474   -4807.1268            0    10465.282    17.746186    23.006966    19.314449    7885.8173    11362.841    9863.0315    10169.975   -386.11945    1043.0414   -995.23512   -3087.8713 
15963000     252.8109   -4805.1308   -4299.4778   -4805.1308            0     9656.637    18.081491    22.820039    19.195699    7920.5355    7972.2985    10095.308    10902.305   -346.88809      198.296   -908.66786   -3184.0118 
15964000    264.73051   -4830.6457    -4301.152   -4830.6457            0    8582.9867    17.941769    22.916754    19.287294    7930.3007    7046.7879    8999.3652    9702.8071    448.51168    1324.8591    995.94164   -3308.4841 
15965000    243.76978    -4836.494   -4348.9243    -4836.494            0    7072.5443    17.951713    22.975999    19.318621    7968.1302    7805.4794    7825.4182    5586.7352   -305.09093    908.00035   -1128.3477   -3527.0451 
15966000    263.79173    -4832.657   -4305.0409    -4832.657            0    5984.4957    18.073776    22.912614    19.389491    8029.5265    6401.2159    5476.4747    6075.7963    -1523.472   -1291.1662    146.59437   -3604.2421 
15967000     262.2521   -4861.8629   -4337.3263   -4861.8629            0    7439.8466    17.960221    23.001473    19.235786     7946.525    8314.0165     6169.318    7836.2051   -1262.9184   -1634.6018    455.61721   -3475.1083 
15968000    270.08026   -4820.8808   -4280.6869   -4820.8808            0      8952.83    17.893336    23.081192    19.245213    7948.2634    8227.4544    8493.7937    10137.242    -2336.924   -590.37393   -708.41087   -3242.8993 
15969000    260.13536   -4833.6431   -4313.3402   -4833.6431            0    7346.2629    17.996232    22.934352    19.327241    7976.9692    8522.3773    7601.7292    5914.6823     572.6232    1189.5317    847.95808    -3458.706 
15970000    248.88847   -4825.7392   -4327.9315   -4825.7392            0    9579.5565    17.775745    22.976221    19.314258    7888.3184    9034.3792    8773.9921    10930.298    959.86439    920.45894   -1175.7083   -3225.8702 
15971000    258.81388   -4831.4351   -4313.7754   -4831.4351            0    8517.3578    18.006359    23.056618    19.179205    7962.5487    8146.0866    7660.6911    9745.2957    347.88724    1045.9896    975.14077    -3324.692 
15972000    256.13026   -4855.3278   -4343.0356   -4855.3278            0    8209.9572    17.785742    23.011319     19.34002    7915.3558    7643.3969    8690.5297    8295.9451   -180.73063   -955.39104      137.899   -3395.2999 
15973000    250.22741   -4825.8875   -4325.4018   -4825.8875            0    7703.4782    17.986747    23.031422    19.142381    7929.9298    10119.586    7194.8346    5796.0139    803.33848    263.06954   -763.84371   -3434.4954 
15974000    254.12534   -4804.8979   -4296.6158   -4804.8979            0    8128.4358    17.864851    23.006088    19.392917    7970.4958    8530.9734      7940.41    7913.9241   -967.31485    324.45214   -1989.8215   -3351.7542 
15975000    265.64677   -4849.3508   -4318.0244   -4849.3508            0    9358.3575    17.810338    23.051141     19.21787    7889.8699    10084.196    8836.5642    9154.3126     2162.934    97.685683   -496.38841   -3241.1988 
15976000    257.61969   -4813.7148   -4298.4436   -4813.7148            0    6751.8999    17.722945     23.24747    19.363474    7978.0157    7523.5912    7103.2706    5628.8378    516.32012    -436.3401   -1051.8059   -3512.8521 
15977000    265.11152   -4771.9199   -4241.6641   -4771.9199            0    7767.4953    17.877951    23.379887    19.171315    8013.3121    6252.1146    7480.0315    9570.3397    811.75384    56.760563     1374.893   -3333.9085 
15978000    267.73041    -4806.068   -4270.5741    -4806.068            0     8271.456    17.842174    23.236498    19.152233    7940.3174    7185.4605    9416.7165     8212.191   -663.03427    1381.9893   -45.556655   -3312.7281 
15979000    267.92473   -4819.2623   -4283.3797   -4819.2623            0    8124.8031    17.779669    23.177462    19.345869    7972.1925    7865.5343    7476.2902    9032.5849    712.97409      -49.266   -1073.0375   -3338.7393 
15980000    272.85563   -4792.2881   -4246.5431   -4792.2881            0    7463.9014     17.79529    23.275304    19.284769    7987.5736     8170.296    6586.5513     7634.857    2049.7297    467.46363    3539.3754    -3377.069 
15981000    269.57143   -4815.3641   -4276.1879   -4815.3641            0    6572.7316    17.981176    23.217001    19.159706    7998.5832    8436.0664    4575.4572    6706.6713   -346.54181   -649.85152   -372.13909   -3509.4714 
15982000    253.43948   -4801.3293    -4294.419   -4801.3293            0    6803.8678    17.840375    23.165954    19.328498    7988.2617    7182.1626    5965.7896    7263.6513    503.15419    -668.0734   -1779.0656   -3501.7643 
15983000    256.15717   -4829.8395   -4317.4935   -4829.8395            0    7561.5135    18.076657    23.018991    19.142777    7965.4322    6850.2613    7158.4331     8675.846    217.64564   -122.08707   -698.16678   -3439.0902 
15984000    271.39796   -4813.7008   -4270.8713   -4813.7008            0     9436.329    17.900305    22.825886    19.408586    7930.1599    11406.406    9088.8343    7813.7465    161.96159    830.52914   -302.50368   -3179.5292 
15985000    253.35105   -4830.4662   -4323.7327   -4830.4662            0    6878.2808    17.961179    22.987021     19.33711    7983.7897    6444.7008    7396.9241    6793.2175   -1370.7315   -199.80643   -4310.1458   -3522.8575 
15986000    250.60679   -4818.0286    -4316.784   -4818.0286            0    6372.2529    17.987308    22.988693    19.378398    8013.0589    5122.8609    7548.7604    6445.1373   -215.52737    1004.3163    693.53448   -3572.1083 
15987000    257.31587   -4827.8185   -4313.1549   -4827.8185            0    7517.2863    17.864182    23.162557    19.286747    7980.4728     6042.223    7868.1746    8641.4615   -63.210459   -1098.1386    838.68357   -3438.2404 
15988000    271.04325   -4814.4635   -4272.3436   -4814.4635            0    8767.0384    17.959568    23.013986    19.108845    7898.0914    7075.8267    8984.7365    10240.552    1075.2127   -426.44477    -1040.962   -3262.5073 
15989000    258.71958   -4813.4078   -4295.9366   -4813.4078            0    5693.5979    17.966276    23.001595    19.333639    7989.6844    5646.7046    5293.8788    6140.2103   -822.67333   -330.32938   -777.20989   -3632.5109 
15990000    264.57353     -4816.07   -4286.8903     -4816.07            0    7658.6543    17.896889     23.10072    19.260337    7962.8207    7492.8312    7158.5296    8324.6022   -332.79438    696.81768   -1341.7519    -3397.494 
15991000    261.50031    -4840.437    -4317.404    -4840.437            0    9374.5028    17.787885    23.054178    19.236879    7888.7569     11648.56    7965.7716    8509.1766    253.75143   -1003.6035    603.72644   -3238.8728 
15992000    260.30441   -4825.6886   -4305.0476   -4825.6886            0    9286.2725    17.641565     23.23534    19.342292    7928.5557    11332.017    8360.4142    8166.3861    -859.0822    573.02396   -2018.8233   -3231.2773 
15993000     267.9234   -4803.5189    -4267.639   -4803.5189            0    8952.1245    17.859218      23.3102    19.035214    7924.3968    7362.9303    9709.0073    9784.4358   -1283.7391    1132.9109     247.3264   -3233.0491 
15994000    290.62751   -4845.6963   -4264.4053   -4845.6963            0    8434.7613    17.805091    23.283389    19.092192     7914.914    7418.0367    8589.1012    9297.1458   -660.52526    669.21996     434.9664   -3290.7732 
15995000    276.27178   -4805.0705   -4252.4928   -4805.0705            0    9743.4952    17.774692    23.181152    19.206692    7913.8836     10499.64     7765.438    10965.407   -626.75092   -1240.4172   -389.94371   -3127.9388 
15996000    259.17806   -4813.2592    -4294.871   -4813.2592            0    7164.8629    17.682384      23.3349    19.260905    7947.3705    7342.8721    6402.2141    7749.5024    48.692046   -108.14065     754.9499    -3464.433 
15997000     265.8979   -4830.3137   -4298.4851   -4830.3137            0     8887.149    17.891752    23.057847    19.143147    7897.4147    10392.155    6936.9112    9332.3809     116.8864   -1408.2515    745.90968   -3274.9015 
15998000    265.48031   -4806.8168   -4275.8234   -4806.8168            0    6744.4258    18.108511    23.255135    19.068673     8030.121     4891.941    6603.1281    8738.2083    1124.1045   -323.74856   -543.64534   -3485.9764 
15999000    263.86843   -4838.8315   -4311.0621   -4838.8315            0    7559.8147    17.845284    23.098645    19.292681    7952.4792    8412.0895    7518.9177    6748.4369    741.50502   -143.02183    1110.8959   -3434.2842 
16000000    272.39715   -4814.0392   -4269.2112   -4814.0392            0    8900.3889    17.672532      23.3311    19.195935    7914.8604    7942.7232    8093.7488    10664.695    494.65995    -1174.943    592.78576   -3241.8382 
Loop time of 469.044 on 64 procs for 250000 steps with 1008 atoms

Performance: 92.102 ns/day, 0.261 hours/ns, 532.999 timesteps/s
99.1% CPU use with 64 MPI tasks x 1 OpenMP threads

MPI task timing breakdown:
Section |  min time  |  avg time  |  max time  |%varavg| %total
---------------------------------------------------------------
Pair    | 28.596     | 32.749     | 36.662     |  31.6 |  6.98
Bond    | 0.27665    | 0.28413    | 0.29676    |   0.8 |  0.06
Kspace  | 219.06     | 224.86     | 230.36     |  16.1 | 47.94
Neigh   | 4.2948     | 4.7353     | 5.0201     |   7.2 |  1.01
Comm    | 92.113     | 96.279     | 102.43     |  20.8 | 20.53
Output  | 0.72884    | 0.73065    | 0.73267    |   0.1 |  0.16
Modify  | 98.84      | 102.52     | 105.08     |  20.5 | 21.86
Other   |            | 6.881      |            |       |  1.47

Nlocal:        15.7500 ave          20 max          11 min
Histogram: 1 0 7 11 10 10 13 8 3 1
Nghost:        2494.78 ave        2518 max        2474 min
Histogram: 5 4 10 3 8 16 7 6 4 1
Neighs:        5270.45 ave        6794 max        3679 min
Histogram: 1 2 6 10 10 10 13 8 3 1

Total # of neighbors = 337309
Ave neighs/atom = 334.63194
Ave special neighs/atom = 2.0000000
Neighbor list builds = 9559
Dangerous builds = 0

unfix		3
unfix		2
unfix		1

write_data	data.final.${pid}
write_data	data.final.0
System init for write_data ...
PPPM initialization ...
  extracting TIP4P info from pair style
  using 12-bit tables for long-range coulomb (../kspace.cpp:340)
  G vector (1/distance) = 0.38347377
  grid = 24 30 32
  stencil order = 5
  estimated absolute RMS force accuracy = 0.0019444125
  estimated relative force accuracy = 5.8555406e-06
  using double precision FFTW3
  3d grid and FFT values/proc = 3825 384
Last active /omp style is kspace_style pppm/tip4p/omp
WARNING: Not all mixed pair coeffs generated from mixing. Use write_data with 'pair ij' option to store all pair coeffs. (../write_data.cpp:312)

write_restart   restart.lmp.${pid}
write_restart   restart.lmp.0
System init for write_restart ...
PPPM initialization ...
  extracting TIP4P info from pair style
  using 12-bit tables for long-range coulomb (../kspace.cpp:340)
  G vector (1/distance) = 0.38347377
  grid = 24 30 32
  stencil order = 5
  estimated absolute RMS force accuracy = 0.0019444125
  estimated relative force accuracy = 5.8555406e-06
  using double precision FFTW3
  3d grid and FFT values/proc = 3825 384
Last active /omp style is kspace_style pppm/tip4p/omp
Total wall time: 0:07:50
