LAMMPS (30 Jul 2021)
  using 1 OpenMP thread(s) per MPI task
package omp 0
using multi-threaded neighbor list subroutines
echo both

include		in.partitions
variable        pid world 0
include		in.temp
variable        temperature equal 211.78
variable	tempDamp equal 100.0
include		in.pressure
variable        pressure equal -500.0
variable        pressureDamp equal 1000.0 # This is 1 ps
include		in.seed
variable        seed world 745823

units		real
atom_style	full

read_restart	restart.lmp.${pid}
read_restart	restart.lmp.0
Reading restart file ...
  restart file = 30 Jul 2021, LAMMPS = 30 Jul 2021
  restoring atom style full from restart
  orthogonal box = (-0.089854156 -0.12707598 -0.18222699) to (20.089855 20.127077 20.882225)
  4 by 4 by 4 MPI processor grid
  restoring pair style lj/cut/tip4p/long/omp from restart
  restoring bond style harmonic/omp from restart
  restoring angle style harmonic/omp from restart
  972 atoms
  648 bonds
  324 angles
Finding 1-2 1-3 1-4 neighbors ...
  special bond factors lj:    0        0        0       
  special bond factors coul:  0        0        0       
     2 = max # of 1-2 neighbors
     1 = max # of 1-3 neighbors
     1 = max # of 1-4 neighbors
     2 = max # of special neighbors
  special bonds CPU = 1.918 seconds
  read_restart CPU = 2.334 seconds
include 	in.setup
variable	out_freq equal 1000
variable	out_freq2 equal 10000
variable	out_freq3 equal 1000

timestep	2.0

neigh_modify    delay 7 every 1

include		in.tip4p
# This is TIP4P/Ice

# create groups ###
group ox type 2
324 atoms in group ox
group hy type 1
648 atoms in group hy

# set charges - beside manually ###
set group ox charge -1.1794
Setting atom values ...
  324 settings made for charge
set group hy charge 0.5897
Setting atom values ...
  648 settings made for charge

# ### TIP3P Potential Parameters ###
pair_style lj/cut/tip4p/long/omp 2 1 1 1 0.1577 8.5
pair_coeff 1 1*2 0.000 0.000
pair_coeff 2 2 0.21084 3.1668
bond_style  harmonic
bond_coeff  1 450 0.9572
angle_style harmonic
angle_coeff 1 55 104.52
kspace_style pppm/tip4p/omp 1.0e-5
pair_modify tail yes

thermo          ${out_freq}
thermo          1000
thermo_style    custom step temp pe etotal epair emol press lx ly lz vol pxx pyy pzz pxy pxz pyz enthalpy

restart 	${out_freq3} restart.lmp.${pid} restart2.lmp.${pid}
restart 	1000 restart.lmp.${pid} restart2.lmp.${pid}
restart 	1000 restart.lmp.0 restart2.lmp.${pid}
restart 	1000 restart.lmp.0 restart2.lmp.0


include         in.dump
dump            myDump all atom ${out_freq2} dump.water.${pid}
dump            myDump all atom 10000 dump.water.${pid}
dump            myDump all atom 10000 dump.water.0
dump            myDump2 all dcd ${out_freq2} dump.dcd
dump            myDump2 all dcd 10000 dump.dcd
dump_modify     myDump append yes
dump_modify     myDump2 append yes


variable natoms 	equal  "count(all)"                        # NUMBER ATOMS
variable H      	equal  "enthalpy/v_natoms"                 # ENTHALPY-per-atom
variable Vol      	equal  "vol/v_natoms"                 # volume-per-atom
fix AVG all 		ave/time ${out_freq} 1 ${out_freq} v_Vol v_H file vol_enthalpy.dat
fix AVG all 		ave/time 1000 1 ${out_freq} v_Vol v_H file vol_enthalpy.dat
fix AVG all 		ave/time 1000 1 1000 v_Vol v_H file vol_enthalpy.dat


timer           timeout 02:55:00 every 1000
New timer settings: style=normal  mode=nosync  timeout=02:55:00

fix 		1 all shake 1e-6 200 0 b 1 a 1
       0 = # of size 2 clusters
       0 = # of size 3 clusters
       0 = # of size 4 clusters
     324 = # of frozen angles
  find clusters CPU = 0.319 seconds
fix             2 all nph aniso ${pressure} ${pressure} ${pressureDamp}
fix             2 all nph aniso -500 ${pressure} ${pressureDamp}
fix             2 all nph aniso -500 -500 ${pressureDamp}
fix             2 all nph aniso -500 -500 1000
fix             3 all temp/csvr ${temperature} ${temperature} ${tempDamp} ${seed}
fix             3 all temp/csvr 211.78 ${temperature} ${tempDamp} ${seed}
fix             3 all temp/csvr 211.78 211.78 ${tempDamp} ${seed}
fix             3 all temp/csvr 211.78 211.78 100 ${seed}
fix             3 all temp/csvr 211.78 211.78 100 745823


run             250000
PPPM initialization ...
  extracting TIP4P info from pair style
  using 12-bit tables for long-range coulomb (../kspace.cpp:340)
  G vector (1/distance) = 0.37145056
  grid = 24 24 25
  stencil order = 5
  estimated absolute RMS force accuracy = 0.0035261289
  estimated relative force accuracy = 1.0618832e-05
  using double precision FFTW3
  3d grid and FFT values/proc = 2366 288
Last active /omp style is kspace_style pppm/tip4p/omp
Neighbor list info ...
  update every 1 steps, delay 7 steps, check yes
  max neighbors/atom: 2000, page size: 100000
  master list distance cutoff = 10.8154
  ghost atom cutoff = 10.8154
  binsize = 5.4077, bins = 4 4 4
  1 neighbor lists, perpetual/occasional/extra = 1 0 0
  (1) pair lj/cut/tip4p/long/omp, perpetual
      attributes: half, newton on, omp
      pair build: half/bin/newton/omp
      stencil: half/bin/3d
      bin: standard
Per MPI rank memory allocation (min/avg/max) = 9.224 | 9.228 | 9.234 Mbytes
Step Temp PotEng TotEng E_pair E_mol Press Lx Ly Lz Volume Pxx Pyy Pzz Pxy Pxz Pyz Enthalpy 
18000000    232.51974   -4783.6527   -4335.2189   -4783.6527            0   -238.77254    20.179709    20.254153    21.064452    8609.5243   -635.48365   -234.84018    154.00621   -274.48634    8.9864039    239.07192   -4365.1994 
18001000    202.45779   -4790.3618   -4399.9049   -4790.3618            0   -463.83914    20.197248    20.301971     21.25059    8713.6755   -867.63822   -1329.8677    805.98851   -237.33648    20.519734   -405.07568   -4458.8496 
18002000    220.33231   -4815.0504    -4390.121   -4815.0504            0    536.09948    20.141017    20.174715    21.209527     8618.264     1503.889    337.29459   -232.88513    188.73362   -55.665413   -1037.6728   -4322.7394 
18003000    213.74867   -4814.2643    -4402.032   -4814.2643            0    -1547.643    20.313224    20.284262    21.140025    8710.5099   -2735.8789   -816.57314    -1090.477    -606.4613    1975.1789    83.593139   -4598.6351 
18004000    206.91114   -4824.3205    -4425.275   -4824.3205            0   -1004.0362    19.956714    20.393762    21.249504    8648.3879    535.09541   -2898.5139   -648.68999   -17.505614    1.5749746    794.52175   -4551.9119 
18005000    208.04434   -4793.9983   -4392.7673   -4793.9983            0   -846.71795    20.207998    20.251524    21.284354    8710.4676   -1901.1723    75.955686   -714.93729   -315.62019   -261.76691    -91.77111   -4500.3286 
18006000    214.42138   -4793.8465   -4380.3169   -4793.8465            0    629.99453    20.208028    20.063732    21.193213    8592.7553    594.65188    378.43258    916.89912   -101.90505    895.29795    583.59878   -4301.3681 
18007000    218.50988   -4805.4067    -4383.992   -4805.4067            0   -416.93501    20.410666    20.080143    21.183308    8681.9594   -1361.4061    706.46161   -595.86054   -490.83547    87.789306    77.226929   -4436.7833 
18008000    209.69595   -4802.0647   -4397.6484   -4802.0647            0   -118.89512    20.248652    20.244838     21.01935    8616.4765     35.64317   -1027.6388    635.31028    20.730012   -90.767494    557.68708   -4412.5891 
18009000    217.60746   -4784.7174   -4365.0431   -4784.7174            0   -1501.7979    20.217095     20.18357    21.429441    8744.3509   -1844.8808   -947.43833   -1713.0745    320.72805    306.18711    620.16894   -4556.5635 
18010000    225.23753   -4809.1263   -4374.7368   -4809.1263            0    58.008845    20.101528    20.284853    21.342074    8702.3707    -741.5832    452.40876    463.20098   -8.8589249   -987.82925     247.4547   -4367.3746 
18011000    210.97497   -4801.6554   -4394.7724   -4801.6554            0   -96.139352    20.320881    20.228988    20.952969    8613.1548   -1243.0011   -248.15335    1202.7364   -592.04909    918.95498   -174.98367   -4406.8489 
18012000    209.40452   -4759.8062    -4355.952   -4759.8062            0   -478.32322    20.362999    20.126909    21.090979    8644.0159   -3366.8359    2135.7479   -203.88164    81.273453    1386.8748    1856.5397   -4416.2514 
18013000    219.01991    -4779.182   -4356.7837    -4779.182            0   -134.10171    20.274591    20.053033    21.342326    8677.0864    -445.9753   -275.86506    319.53524   -41.776273   -1556.6893   -984.26845   -4373.7538 
18014000    202.98602   -4798.5774   -4407.1017   -4798.5774            0    829.51222    20.351588    19.980403    21.161975    8605.1557    485.14337    1189.0916    814.30169     82.90719   -489.07552   -1348.0473   -4303.0001 
18015000    219.12663   -4818.2192   -4395.6151   -4818.2192            0    93.246859    20.226329    20.239863    21.035132    8611.3226    788.60425   -878.62776    369.76408   -316.40819    455.92859    158.14542   -4383.9044 
18016000    208.93279   -4790.6827   -4387.7382   -4790.6827            0    250.21573     19.91287    20.334016    21.329344    8636.4353    2237.3396   -729.91458   -756.77786   -487.84203   -1707.7325   -176.19594   -4356.2227 
18017000    209.22896   -4801.5408   -4398.0252   -4801.5408            0   -1471.9436    20.315391    20.201173      21.1698    8687.9741   -1904.9986   -1608.0851   -902.74688    354.09698    810.20711    372.80353   -4584.5281 
18018000    198.10045   -4788.1045   -4406.0511   -4788.1045            0    523.67214    20.208626    20.391899    21.073777    8684.3401    479.82835    229.50579    861.68229   -735.10925    2.4423478    103.10898   -4339.7269 
18019000    203.54409   -4791.2736   -4398.7217   -4791.2736            0     1000.065      20.0823    20.068738    21.382079    8617.5427    284.34741    2918.6919   -202.84425    168.49165    447.49317   -88.531735   -4273.0356 
18020000    208.35099   -4801.1205   -4399.2981   -4801.1205            0     -991.872     20.22691     20.17289    21.212082    8655.2771   -1482.1867    -1147.055   -346.37436    75.958578    203.60417    897.20347   -4524.5004 
18021000     206.4198   -4810.9338   -4412.8358   -4810.9338            0   -264.97843    20.331947    20.275021    20.965671    8642.6921   -233.48759   -633.92961    72.481901   -468.09846     118.4622    957.14793    -4446.235 
18022000    208.80682   -4793.1854   -4390.4839   -4793.1854            0   -702.25457    20.248687     20.13374    21.192594    8639.8351    1075.7679   -496.21797   -2686.3136   -292.49391    944.22783   -1351.9181   -4478.9702 
18023000    205.40185   -4811.4775   -4415.3428   -4811.4775            0    97.445916     20.17188     20.18399    21.345658    8690.8639    593.40928   -183.41199   -117.65953   -124.31696   -1002.0036    489.17328   -4402.9918 
18024000    214.88072   -4763.6464   -4349.2308   -4763.6464            0    -675.7546    20.184691    20.305042    21.309996    8733.9233   -673.75437   -716.04467   -637.46476    266.30777   -654.78858   -984.56114   -4435.3053 
18025000    221.63499   -4795.6506   -4368.2089   -4795.6506            0    832.46596    20.088112    20.320349    21.104244    8614.6984    1914.9983   -707.49728    1289.8968   -90.933176    1055.5436    -333.7224   -4263.6207 
18026000    223.75331   -4798.1975   -4366.6704   -4798.1975            0   -332.35734    20.233087    20.272549    21.096317    8653.2083    -3231.233    1544.3258    689.83514    35.635546   0.02062805     1772.336   -4408.6133 
18027000    228.60105   -4802.1319   -4361.2556   -4802.1319            0    753.71011    20.111638    20.046604    21.355085    8609.7307    738.85085    1520.6224    1.6570766     35.00099   -912.40343   -318.02889   -4266.6167 
18028000    209.31547   -4808.3995   -4404.7171   -4808.3995            0    96.170475    20.301245    20.153002    21.124422    8642.6567   -175.43383    732.46588   -268.52063     126.2298    247.05842   -463.03749   -4392.5953 
18029000    216.52995    -4807.698   -4390.1018    -4807.698            0    171.74506    20.265815     20.21621    21.107865    8647.8493   -1091.3748    1117.8828    488.72711   -206.27025   -532.65307   -674.59776   -4368.4413 
18030000    211.36021   -4782.9767   -4375.3508   -4782.9767            0   -621.69176    20.224874    20.214291    21.277698    8698.9929    74.765982   -1729.1606   -210.68071   -186.05092   -199.30244    757.52776   -4454.2223 
18031000    213.09412   -4779.7948   -4368.8249   -4779.7948            0   -1277.6868    20.162744    20.170616    21.511228    8748.5082   -753.83772   -1895.3117   -1183.9109   -762.73331   -1289.0157    1252.2418   -4531.8424 
18032000     213.7073   -4781.7845    -4369.632   -4781.7845            0   -1303.9851    20.134191    20.334347    21.353682    8742.5312   -1129.4926   -1813.7544   -968.70823    451.11272    -988.4929    -757.5205   -4535.8912 
18033000    213.56501   -4797.5453   -4385.6673   -4797.5453            0    1052.5201    20.205888    20.238608    20.986729    8582.2933    102.27392    887.07138    2168.2151   -880.59576   -413.22213    864.37131   -4253.9297 
18034000    205.37151   -4807.7171   -4411.6408   -4807.7171            0   -640.88284    20.243377    20.122773    21.161251    8620.0961   -1665.6114    345.35728   -602.39438     608.2427    367.45005   -312.55138   -4492.2096 
18035000    197.18745   -4804.3215   -4424.0289   -4804.3215            0   -89.843011    20.249634    20.093774    21.438397     8723.103   -881.86996    1464.6996   -852.35862    277.71357    684.65734    385.11462   -4435.4585 
18036000    213.74726   -4830.9296      -4418.7   -4830.9296            0    1588.6603    20.132643    20.082893    21.195934    8569.9767    1188.0345    1555.0725    2022.8739   -246.66376   -328.26748    948.17949   -4220.1424 
18037000     209.2696   -4797.3168   -4393.7227   -4797.3168            0   -216.97548    20.238925    20.341575    20.970526    8633.3899   -1760.0329    1134.1434   -25.036926    664.02734     283.5453   -31.933131   -4421.0419 
18038000    212.45589   -4784.5416   -4374.8025   -4784.5416            0   -603.46864    20.205143    20.075697    21.235429    8613.7763   -683.52215   -17.123677   -1109.7601   -35.379742    242.46856    -830.6568   -4450.6121 
18039000    211.54503   -4818.1643   -4410.1819   -4818.1643            0     1061.484    20.094023    20.092526    21.261338    8584.0461    2034.8146   -347.60716    1497.2444   -664.00216    92.417812    1186.4474   -4277.2953 
18040000    210.11062   -4802.2527   -4397.0366   -4802.2527            0    684.16992    20.241268    20.177803    21.195879    8656.9123    670.05222    753.33057    629.12696   -937.01035    110.82157   -65.336147   -4310.6587 
18041000    216.17588   -4809.6472   -4392.7338   -4809.6472            0   -2034.9868    20.474871    20.205779    21.127553    8740.6949    -1830.119   -2347.8907   -1926.9506   -810.45429    937.64518   -374.06394   -4652.1418 
18042000    208.58156   -4801.2489   -4398.9818   -4801.2489            0     630.8676    20.102015    20.072735    21.260569    8578.6906    161.33592    1613.3083     117.9586   -147.20399   -195.45355    406.81966   -4320.0531 
18043000    220.16136   -4801.5557   -4376.9561   -4801.5557            0   -1709.6288     20.32073    20.256901    21.181593    8719.0856   -1569.0585   -2405.8553   -1153.9725   -162.85304    252.63419   -435.85058   -4594.3506 
18044000    201.56147   -4807.8174   -4419.0892   -4807.8174            0    2097.5983      20.1458    20.111058      21.0255    8518.5517    1797.6257    3154.9022     1340.267     10.83159    810.54175   -507.35771   -4158.4954 
18045000    211.23576   -4830.0904   -4422.7045   -4830.0904            0   -969.66261     20.17359    20.300147    21.173074    8670.9423   -1453.0145   -1329.1549   -126.81848    -37.05456   -34.500573   -324.89103   -4545.3249 
18046000    207.91391   -4813.7785   -4412.7991   -4813.7785            0   -503.99077    20.218436     20.15785    21.115213    8605.7205    159.53999   -1095.5713   -575.94101    414.43107   -754.50101   -206.15116   -4476.0527 
18047000    206.05794   -4789.1996   -4391.7995   -4789.1996            0   -341.44939    20.193064     20.08974    21.435031    8695.6221   -616.15804    221.91749   -630.10763   -137.71456   -173.73285   -215.34297    -4435.101 
18048000    210.06429   -4822.6872   -4417.5606   -4822.6872            0   -1118.7251     20.43193      20.0267    21.212394    8679.7749   -1252.3236   -1393.9802   -709.87145   -413.42245   -262.56028    -336.1605   -4559.1751 
18049000    212.95178    -4797.309   -4386.6136    -4797.309            0   -2018.4978    20.159415    20.330272    21.276251    8719.9944   -248.89481   -3213.7794   -2592.8192    563.87062    96.489215    954.11155   -4643.3103 
18050000    204.41654    -4806.605   -4412.3705    -4806.605            0    153.85274    20.090757    20.258563    21.112992    8593.1962    391.32975   -616.32641    686.55489    80.106732   -503.40479    910.82562   -4393.0893 
18051000    225.58651   -4762.9376    -4327.875   -4762.9376            0   -2215.8118    20.343663    20.096847     21.53962    8806.3329   -1778.1313   -1853.4292   -3015.8749   -102.84971    613.66545    1142.9739   -4612.4547 
18052000    206.97265   -4810.0062    -4410.842   -4810.0062            0    329.40214    20.100834    20.147554    21.293067    8623.3224    29.949334    1253.0809    -294.8238   -293.62082   -721.90541    459.31239   -4369.4156 
18053000    198.85647   -4808.7659   -4425.2545   -4808.7659            0    364.74309    20.154559    20.309198    20.985667    8589.9143   -422.14308    1019.8053    496.56701   -1019.8232    219.48598   -1254.1279   -4379.5613 
18054000    218.09416     -4800.09   -4379.4771     -4800.09            0   -730.84997    20.373954    20.100903    21.052158    8621.5932    -1032.658   -1104.8715    -55.02041   -157.02747   -112.16249   -458.03596   -4471.3721 
18055000    213.82685   -4801.4863   -4389.1033   -4801.4863            0    1107.7549    20.150443    19.925821     21.36972    8580.2445    1351.1768    2925.7766    -953.6887   -271.39811     983.5453   -129.60982   -4250.4854 
18056000    229.43354   -4795.3057   -4352.8238   -4795.3057            0   -1810.2041    20.207783    20.187933    21.297866     8688.536   -2564.0832   -1716.7286   -1149.8004   -98.919367    262.19873    1015.6444   -4582.2009 
18057000    207.66556   -4825.0914   -4424.5909   -4825.0914            0   -63.786505    20.338915     20.25263    20.796556    8566.4447   -1929.2886    621.21445    1116.7147    237.61456   -1345.2494   -143.55505   -4432.5599 
18058000    210.20736   -4799.2822   -4393.8796   -4799.2822            0   -7.0586751    20.264941    20.252497     21.03836    8634.4724   -223.71354    -895.8564    1098.3939   -360.90831   -149.21898   -107.72478   -4394.7685 
18059000    210.71211   -4807.5151   -4401.1391   -4807.5151            0    147.64672    20.110662    20.090989    21.259275    8589.6635    254.50843    134.72995    53.701792   -322.12909    -517.4268   -912.15374   -4382.6432 
18060000    210.92317   -4799.5305   -4392.7474   -4799.5305            0   -373.80261    20.283732    20.074384    21.350791    8693.6883   -2104.4488    2035.8554   -1052.8144   -415.33981    646.67959    803.00866   -4440.1413 
18061000    217.07921   -4805.3698   -4386.7143   -4805.3698            0    670.55339    20.005646     20.19986    21.188615    8562.5577    1405.2263   -66.367124    672.80096    -402.7285   -486.65148    442.14672   -4302.9782 
18062000    227.59254    -4796.907   -4357.9756    -4796.907            0   -1287.9116    20.245283     20.36941    21.197139    8741.3708   -102.40838   -1820.1811   -1941.1454   -365.28982   -690.52948    62.190482   -4522.1637 
18063000    218.44829   -4795.0082   -4373.7123   -4795.0082            0   -986.03148    20.206077    20.189419    21.145667    8626.3524   -269.07927   -2160.8955    -528.1197    303.42257   -877.97966   -61.689658   -4497.7615 
18064000     223.5912   -4819.7597   -4388.5453   -4819.7597            0   -1538.3013    19.988641    20.179155    21.557712    8695.3866   -1620.9317   -1259.1852    -1734.787   -254.77656   -1300.5386    659.83877   -4583.6223 
18065000    214.21897   -4811.3046   -4398.1653   -4811.3046            0   -381.07847    20.346001    20.271287    21.091611    8699.0164   -684.98903   -890.30085    432.05445   -554.64447    553.84829   -1117.3747   -4446.5113 
18066000    225.30965   -4795.3464   -4360.8178   -4795.3464            0   -675.39109    20.108537    20.289568    21.164905    8635.1444   -396.20499   -406.98213   -1222.9861    494.09471   -665.55957   -290.41936    -4445.873 
18067000    205.79576   -4798.9322   -4402.0377   -4798.9322            0   -1066.3709    20.302014    20.212951     21.06934    8646.0907    -2866.122    358.34025   -691.33102    474.89639    499.43111   -724.23679   -4536.5011 
18068000    211.68295   -4803.2439   -4394.9955   -4803.2439            0   -158.83636    20.101351    20.236784    21.178332     8615.064    1324.7355   -1307.6141   -493.63047     303.0326   -36.793494    371.67779    -4414.952 
18069000    200.49124    -4808.273   -4421.6088    -4808.273            0   -15.792012     20.20281    20.214571    21.249941    8678.2874   -590.71666   -143.35214    686.69276    18.950756    -1041.915    384.97722   -4423.6075 
18070000    209.34079   -4789.2803    -4385.549   -4789.2803            0      -511.78    20.286305    20.113407    21.207092      8653.06   -2057.3789    1519.6588   -997.61985     465.8265    986.11984   -25.773608   -4450.1335 
18071000    212.52519   -4797.3601   -4387.4874   -4797.3601            0    807.41679    20.318695    20.074715    21.282239    8680.8551    1079.4534    248.92493     1093.872     608.6189    820.27098   -7.6306859   -4285.2674 
18072000    230.28719   -4791.6711   -4347.5429   -4791.6711            0    274.81617    20.199581    20.123474    21.125616    8587.2617   -267.87027    1707.7152   -615.39641   -122.33534    542.76759   -126.34837   -4313.1259 
18073000    202.59563   -4813.5649   -4422.8421   -4813.5649            0   -2403.3998    20.377139    20.388996    20.916568    8690.1945   -3688.3839   -2012.9428   -1508.8727    349.97174    708.54614    482.40418   -4727.4432 
18074000    211.90811   -4826.5647   -4417.8821   -4826.5647            0   -793.64022    20.142957    20.222831    21.060157    8578.8042   -3149.4449    950.08811   -181.56389   -8.4641363    517.10426   -555.26115   -4517.1769 
18075000    209.95211   -4802.5733    -4397.663   -4802.5733            0   -2658.3757    20.226217    20.163371    21.526443    8779.1012   -2261.4393   -2784.4775   -2929.2104     687.5544   -716.85663   -845.66828    -4738.026 
18076000    205.39077   -4793.0101   -4396.8967   -4793.0101            0   -1295.4388    20.368217    20.152139    21.203845    8703.3964    -1458.334    -3094.559    666.57662     111.1406   -892.94105    7.2693399   -4561.3269 
18077000    197.44281   -4810.5844   -4429.7993   -4810.5844            0    -2316.815    20.311755    20.260459    20.997329    8640.9359   -3227.7145   -1872.5485   -1850.1818   -606.77071    1023.2377    1149.9121   -4721.7625 
18078000    218.21624   -4783.0378   -4362.1894   -4783.0378            0   -7.7886497     20.12358    20.200484    21.298151    8657.8273    341.18327   -425.86864     61.31942   -6.7193558     769.5092    135.30971   -4363.1728 
18079000    215.81116   -4829.0776   -4412.8676   -4829.0776            0    426.11668    20.037976    20.132078    21.379078    8624.4505    2215.2214    86.201028   -1023.0724   -58.355717   -588.47786    143.72941   -4359.2712 
18080000      215.435   -4786.6336   -4371.1491   -4786.6336            0   -1119.7569    20.402607    20.169428    21.056835     8665.075   -634.22271   -1524.2656   -1200.7824   -34.931532   -480.55627   -340.03917   -4512.6541 
18081000    217.42927   -4803.2129   -4383.8823   -4803.2129            0   -1449.5581    20.254032    20.278119    21.061144    8650.0998   -1222.3699   -1057.5298   -2068.7746   -419.54693   -1157.1688   -118.62323   -4566.7482 
18082000    205.56099   -4811.8534   -4415.4117   -4811.8534            0   -426.93667    20.162599    20.196848    21.299056    8673.4215   -1426.5231   -382.48008    528.19313    180.84184   -77.729375   -1025.9444   -4469.4162 
18083000    213.69667   -4792.6034   -4380.4714   -4792.6034            0   -458.28771    20.332032    20.092338    21.371439    8730.6183    -214.2445   -475.18419   -685.43444    125.09226   -340.55919   -16.864643   -4438.8238 
18084000     223.6683   -4790.2275   -4358.8644   -4790.2275            0   -334.75202    20.227115    20.286827    21.119776    8666.3731    -954.3132   -683.70718    633.76434   -180.86627    19.449435   -106.15743   -4401.1737 
18085000    208.74437   -4819.3188   -4416.7378   -4819.3188            0    302.38237    20.180628    20.337433    20.841624    8553.8646   -865.36886    3.4793954    1769.0366    276.33269   -249.12877    394.77718   -4379.0158 
18086000     210.2345   -4809.5783   -4404.1234   -4809.5783            0    130.45905    20.302147      20.0564    21.312848    8678.3353     1143.862     440.7336   -1193.2184   -109.89944   -313.90351   -538.64199   -4387.6119 
18087000    210.60506   -4813.7669   -4407.5973   -4813.7669            0   -905.85546    20.142502    20.228462    21.263821    8663.9831   -788.24607   -620.37048   -1308.9498   -335.00009   -217.73453    838.97558    -4522.057 
18088000    217.47943   -4811.3544   -4391.9271   -4811.3544            0   -173.06104    20.390738    20.320138    20.700186    8576.9691   -2618.3885     1286.706    812.49938   -563.66003    -252.2713    750.85699   -4413.5746 
18089000    208.45732   -4838.1124    -4436.085   -4838.1124            0   -491.06562    20.284552    20.154469     21.07168    8614.6164    129.56511   -1236.6125   -366.14945   -118.96202   -290.16804    454.25465   -4497.7802 
18090000    207.70005   -4802.7327   -4402.1657   -4802.7327            0   -706.74745    20.113098     20.11422    21.533034    8711.3888   -8.9485347   -129.86216   -1981.4317   -544.48311    1395.3641   -243.55145   -4491.9556 
18091000    210.58577   -4809.7081   -4403.5757   -4809.7081            0   -1628.9965    20.262943    20.196275    21.201304    8676.3363   -2321.1912   -747.92718   -1817.8711    416.73401   -1059.4233     585.1003   -4609.7016 
18092000    215.24651   -4816.2936   -4401.1726   -4816.2936            0    516.28724    20.262637    20.151803    21.070749    8603.7906   -1446.6038    2454.3703    541.09516   -499.69653    281.36492    1751.7279   -4336.3902 
18093000    219.33401   -4799.9807   -4376.9766   -4799.9807            0   -1144.7347    20.181492     20.01998    21.521289    8695.3125    5.5094544   -1249.7003   -2190.0134   -406.83304   -1312.5983   -296.86361   -4522.1429 
18094000     214.3465   -4812.8613    -4399.476   -4812.8613            0   -1107.2558    20.282348    20.083003    21.296913    8674.8809   -2421.6275   -368.85944   -531.28037    477.09098   -1176.8658    910.22016   -4539.5597 
18095000    200.42301   -4812.7626   -4426.2299   -4812.7626            0   -366.25469    20.190856    20.245252    21.134375    8639.0766    -1113.161    288.43497   -274.03805   -6.4038317    467.69634   -979.33113   -4472.3751 
18096000    223.03216   -4807.9839   -4377.8476   -4807.9839            0   -724.99549    20.353286    20.345978    21.056992    8719.8585    -1834.381   -854.15231    513.54681    -208.8837    74.450077    1078.7865   -4470.0454 
18097000    211.64236   -4802.7247   -4394.5546   -4802.7247            0    78.869418    20.142917    20.118494    21.330613     8644.128     1370.606    83.912602   -1217.9103    432.12856    120.57164    821.17807   -4384.6119 
18098000    208.35285   -4797.2362   -4395.4102   -4797.2362            0    627.13715    20.147316    20.075075    21.380558    8647.5568   -33.001795    3224.7616   -1310.3483    273.90382    34.943101   -667.81642   -4316.3183 
18099000    213.43238   -4812.3596   -4400.7373   -4812.3596            0   -951.46845    20.274602    20.095705     21.07925    8588.3697   -1385.1271    -383.9697   -1085.3085   -273.33746   -56.370485     422.8931   -4519.9112 
18100000    208.75134   -4806.5038   -4403.9093   -4806.5038            0   -709.57516    20.186614    20.204164    21.167065    8633.0654   -548.12603   -1146.4024   -434.19702    323.51198   -1062.8495   -300.71276    -4493.248 
18101000    202.70385   -4820.5508   -4429.6193   -4820.5508            0   -973.79962    20.145912    20.367656     21.09159    8654.4069    433.31938   -2639.8592   -714.85906   -240.27003    -661.9258    286.32728   -4552.5281 
18102000    206.32827   -4796.0799   -4398.1585   -4796.0799            0    524.40276    20.230524    20.126955    21.104726    8593.3976    555.64424   -206.02086    1223.5849   -107.38469   -172.92291    -26.58951   -4332.4372 
18103000    213.24558   -4790.8462   -4379.5841   -4790.8462            0   -324.30396    20.192608    20.161054    21.382316    8704.8317    391.44183    -521.3774   -842.97631    17.330163    439.03315    498.87477   -4420.7549 
18104000    211.05594   -4786.4417   -4379.4026   -4786.4417            0   -910.37333    20.207337    20.257263    21.227249    8689.2754    -714.9544   -1163.3554   -852.81021   -359.16519   -162.76782    1046.0474   -4494.7689 
18105000    223.17525   -4795.5149   -4365.1026   -4795.5149            0    565.71179    20.229311     20.25683    21.030703    8617.9974    281.64122    445.36714      970.127   -504.39766   -268.68446     500.4321   -4294.0013 
18106000    203.15225   -4806.8329   -4415.0367   -4806.8329            0   -1420.7783    20.314943    20.282216    20.995048    8650.6325   -762.74883   -2388.0082   -1111.5779    -423.2381   -1138.2452    22.897581   -4594.2829 
18107000    205.78946   -4791.9443   -4395.0621   -4791.9443            0   -631.79464    20.215745    20.128339    21.253568     8648.276   -1302.7523   -325.07275   -267.55883    -385.7627   -482.34739   -580.18153   -4474.7479 
18108000     211.0734   -4777.7657   -4370.6929   -4777.7657            0   -1947.3201    20.189058    20.241065    21.476767    8776.4385    -2387.063   -704.23579   -2750.6616    627.93935    -208.1858    1007.1795   -4619.9408 
18109000    219.53505   -4818.4731   -4395.0813   -4818.4731            0   -1199.9858     20.18254    20.351695    20.989614    8621.4608    -1265.617    -1566.494   -767.84645   -237.29386    -27.71499   -118.97075   -4545.9617 
18110000     227.3944   -4806.7972    -4368.248   -4806.7972            0   -1473.0256    20.337728      20.2258    21.065181    8665.0952   -1035.2479   -1930.6054   -1453.2234    431.31435   -342.42836   -253.14224   -4554.3965 
18111000    222.56347   -4801.7505   -4372.5181   -4801.7505            0   -1187.6484    20.273083    20.155072    21.329639    8715.4068    -427.8265   -1042.9417    -2092.177   -530.23825   -603.70933   -719.87268   -4523.4745 
18112000      203.373   -4776.2196   -4383.9976   -4776.2196            0   -926.78432    20.235469    20.176638    21.325447     8706.833    -909.2153   -1244.4029   -626.73477   -376.05293   -1359.4716    799.03415   -4501.6809 
18113000    207.44868   -4817.2669   -4417.1847   -4817.2669            0    211.27188    20.353775    20.027033    21.067297    8587.5721   -2175.2274    1305.6623    1503.3808   -868.56652      141.659   -859.12254   -4390.7248 
18114000    214.60535   -4796.0659   -4382.1814   -4796.0659            0   -1497.3368    20.316074    20.392263    20.982241    8692.7475   -645.24172   -2602.6536   -1244.1151   -301.15179    905.06602    72.420818    -4572.006 
18115000     208.1059   -4798.7286   -4397.3788   -4798.7286            0    704.94001    19.943318    20.218777    21.379136    8620.6984    1445.1669    2035.1859   -1365.5327    509.40858    154.58662    646.75947   -4308.7509 
18116000    202.00946    -4805.341   -4415.7487    -4805.341            0   -665.21904    20.164325     20.19763    21.342802    8692.3165    333.76489   -923.04327   -1406.3787   -460.13174    351.67537    663.92455   -4500.0776 
18117000    197.94468   -4800.8456   -4419.0927   -4800.8456            0    94.485915     20.35704    20.116049    21.151269    8661.5127   -1471.6481    1005.3329    749.77295   -370.15968    1128.2272   -765.72826   -4407.1573 
18118000    217.07206   -4830.9619   -4412.3201   -4830.9619            0    571.47982    20.302317    19.976839     21.01212    8522.0139   -355.80008    1232.2416    837.99791   -51.291444    500.07214   -453.81425   -4341.2939 
18119000    207.73225    -4817.922   -4417.2929    -4817.922            0   -2255.9216    20.344788    20.210192    21.261638    8742.1917   -3820.8177   -759.22109   -2187.7261   -507.94614   -211.09313    227.66251   -4704.9136 
18120000    207.42541   -4788.7475   -4388.7101   -4788.7475            0   -758.78071    20.182332    20.103446    21.383923    8676.1934   -865.16843   -458.35327   -952.82042   -314.29659   -80.191366     1668.263   -4484.7212 
18121000    207.14662   -4817.5249   -4418.0252   -4817.5249            0   -1285.2212    20.373932    20.279195    21.051518    8697.7915   -2227.8846   -1389.8919   -237.88699    192.88648    53.651276    212.78236   -4581.0534 
18122000    215.32859   -4791.1485   -4375.8692   -4791.1485            0    23.820136    20.142136    20.247798    21.016354    8571.1817    191.61092   -380.49642    260.34591   -315.24834    865.81413   -5.4500239   -4372.8916 
18123000    213.88561   -4809.2549   -4396.7585   -4809.2549            0   -761.86507    20.266848    20.034135    21.341134     8665.114   -287.81463   -875.20658    -1122.574   -394.10975   -645.90381   -530.74679   -4493.0368 
18124000    209.16854   -4791.3398   -4387.9406   -4791.3398            0   -1269.8602    20.170927    20.269419    21.286748    8703.1503    -556.0904   -2102.2666   -1151.2235    272.87202   -966.85037    226.27462   -4549.1196 
18125000     210.6285   -4767.5178    -4361.303   -4767.5178            0   -1042.4436    20.296656    20.340114    21.035246     8684.113   -1790.7772   -139.14362   -1197.4101   -241.20987   -712.97295    570.33953   -4493.3273 
18126000    202.16317   -4820.0299   -4430.1412   -4820.0299            0   -267.04666    20.194465    20.352598     20.96195    8615.5676   -41.865263   -2054.6087    1295.3339    609.72629    92.702244   -56.324023   -4463.6954 
18127000    217.04743     -4822.32   -4403.7258     -4822.32            0    -653.7193    20.143544     20.18055    21.266637    8645.0538   -159.03624   -1114.0042   -688.11751    285.68838    599.70446   -546.72532   -4486.1462 
18128000    222.15361   -4832.1494   -4403.7075   -4832.1494            0   -1708.6154    20.387702    20.077143    21.248483    8697.5735   -3138.7773   -706.80599   -1280.2629    82.153454    89.919965   -115.04998   -4620.4371 
18129000    218.14992    -4780.174   -4359.4535    -4780.174            0    -873.6181     20.16276    20.321286    21.050606    8625.1325   -1309.6499   -774.30221   -536.90216   -173.92404   -272.10108    710.67724   -4469.3448 
18130000    196.89786   -4805.9811    -4426.247   -4805.9811            0   -1884.5661    20.236319    20.269582    21.238846    8711.7869   -2535.1764   -1685.3963   -1433.1255    190.73986    348.50891   -865.92002   -4665.6858 
18131000    196.94611   -4805.5745   -4425.7473   -4805.5745            0    76.525898    20.047873    20.253905    21.054307     8549.053    1408.1381   -378.67131   -799.88908    -264.2837    436.57892   -916.63454   -4416.2061 
18132000    227.13893    -4802.751   -4364.6945    -4802.751            0    -1456.198    20.258682     20.34084    21.060668    8678.6509   -2228.8957   -1669.5574   -470.14103    235.60893   -1826.0493   -1126.8305   -4549.0043 
18133000    217.45672   -4782.9771   -4363.5935   -4782.9771            0    365.14673    19.972118    20.215888    21.498647    8680.1667    1423.2184   -895.56403    567.78586    281.83726    647.44719   -135.61335   -4317.3691 
18134000    205.41203   -4809.1725   -4413.0181   -4809.1725            0    31.115811    20.280155    20.142016    21.159888     8643.459   -1210.5411    444.37335    859.51514   -177.16386   -562.48628   -1157.2123   -4409.0958 
18135000    208.55115    -4806.439   -4404.2306    -4806.439            0    1138.1813    20.145715    20.198728    20.910108    8508.6956    2074.4072   -421.75018    1761.8867    476.96149   -348.33976    396.97665    -4262.993 
18136000    216.53602   -4803.8004   -4386.1924   -4803.8004            0   -511.05617    20.318881    20.212856    21.203143    8708.1865   -557.40301   -873.39603   -102.36948    389.84027   -408.59312    90.523057   -4451.0965 
18137000    209.46912   -4817.1453   -4413.1665   -4817.1453            0    35.837375    20.210251    20.109838    21.263355    8641.9564   -1901.2631    1928.9657    79.809542    99.572884   -616.82032    428.25098   -4408.6498 
18138000    210.89238   -4807.6375   -4400.9138   -4807.6375            0   -934.82664    20.236281    20.298182    21.165938    8694.1147    62.882778   -1450.8151   -1416.5476    190.99002    15.793429   -686.89373   -4519.4449 
18139000    205.28603   -4830.3375   -4434.4261   -4830.3375            0    751.21766    20.155267    20.355114    20.909818    8578.5195    1842.6203   -881.38144    1292.4141   -80.642985    594.62454    618.65178   -4340.4421 
18140000    211.83587   -4793.6059   -4385.0626   -4793.6059            0    12.263227    20.197108      20.2628     21.15134     8656.185    1925.1056   -1423.9305   -464.38548   -159.28741     24.21439    142.03627   -4383.5145 
18141000    211.41044   -4809.1003   -4401.3775   -4809.1003            0   -510.51469    20.209881    20.119611    21.446514     8720.473    786.82174   -1192.1945   -1126.1713    257.55772    359.67694    643.75191   -4466.3043 
18142000    203.43079   -4782.4971   -4390.1638   -4782.4971            0   -2503.0315    20.252475     20.26537    21.374028    8772.4123   -2311.7177   -3171.4579   -2025.9189   -366.60926   -107.29793    162.72838   -4710.3932 
18143000    210.53626    -4812.087   -4406.0501    -4812.087            0   -219.38436    20.330177    20.226816    20.974617     8625.072   -1604.7526    433.30088    513.29861    713.89002    -685.2799   -265.49689    -4433.646 
18144000     209.6064    -4796.227   -4391.9835    -4796.227            0    1936.9022    20.189419    20.160076     21.15105     8608.905    664.17235    2953.9664    2192.5679   -304.19919    359.88045    118.88225   -4148.8014 
18145000    202.83897   -4788.8218   -4397.6298   -4788.8218            0   -749.91276    20.214609    20.190049    21.266056    8679.3997    -1605.885   -300.91715   -342.93613   -241.43544    105.09687    -6.212138   -4492.5539 
18146000    207.88023   -4813.9787   -4413.0642   -4813.9787            0   -454.85673    20.313415    20.082875    21.140885    8624.4614   -2205.6839     1360.492   -519.37833    116.41549     355.2244    1519.2818   -4470.2756 
18147000    211.59406   -4832.6105   -4424.5335   -4832.6105            0    654.15561    20.068529    20.120526    21.240642    8576.7456    1018.4781    959.35868   -15.369965   -7.7353579    353.33266     175.7653   -4342.7098 
18148000    214.07147   -4827.5792   -4414.7243   -4827.5792            0   -542.75323    20.049758    20.382135    21.152051    8643.9311   -215.48016   -882.60563   -530.17389   -108.84331    29.752074    -64.84939   -4483.1454 
18149000    215.34002   -4795.5708   -4380.2695   -4795.5708            0    522.10897    20.232083    20.273274    21.132029    8667.7362   -2017.3201    2837.9906    745.65643   -326.43768   -53.477703   -750.21379   -4314.2697 
18150000    205.71589   -4799.4574    -4402.717   -4799.4574            0       700.75    20.115087    20.073758    21.257308    8583.3905    1830.3237    1004.2876   -732.36135    272.77295    773.63653    27.100138   -4314.9971 
18151000    220.18249   -4790.0244    -4365.384   -4790.0244            0    -288.4466    20.245616    20.230568    21.225285    8693.4588    230.28581   -214.49671   -881.12888   -453.78563    573.51467   -319.62844   -4401.9547 
18152000    221.33628   -4806.3591   -4379.4934   -4806.3591            0   -486.69604     20.16075    20.285945    21.055738    8611.3729   -1197.7402    1062.6976   -1325.0456    -782.5683    -1370.696    526.51486   -4440.6166 
18153000    211.28983   -4810.1415   -4402.6513   -4810.1415            0   -1011.7763     20.32145    20.030026    21.165387    8615.1413   -1888.5708    352.12609   -1498.8843   -444.66439    872.80972   -34.982727   -4529.7739 
18154000    211.90377   -4804.2404   -4395.5661   -4804.2404            0   -889.17361    20.377694    20.072986    21.215047    8677.8278   -2045.9872    153.24069   -774.77431   -395.94992    366.24203   -828.47436   -4508.0975 
18155000    207.86749   -4803.9092   -4403.0193   -4803.9092            0   -41.544828    20.152327    20.225051    21.252786    8662.2495   -241.21891    263.83691   -147.25249    10.330655     2206.009    279.77621   -4408.2677 
18156000    210.48077   -4818.9626   -4413.0327   -4818.9626            0    564.75516    20.342498    20.054954    21.081052    8600.3918    1567.4571    100.40768    26.400704    246.33017    326.78037   -611.49042   -4342.1967 
18157000    215.54965   -4809.4006    -4393.695   -4809.4006            0    601.16566    20.263833    20.167534    20.999777    8582.0111   -499.64643    157.59632    2145.5471    209.22814    37.010295   -341.93183   -4318.4532 
18158000    208.78074   -4823.9006   -4421.2494   -4823.9006            0    -481.2449    19.994971    20.312055    21.407278    8694.3292   -1017.5144   -141.62439   -284.59587     629.7996    291.93029     308.6891   -4482.2702 
18159000     204.7322   -4810.1654   -4415.3221   -4810.1654            0    14.041377    20.301266    20.231879    21.091765    8663.0791    9.2976532   -21.239114    54.065591    248.80118     146.0494    842.51081   -4413.5481 
18160000     224.9156   -4824.5842   -4390.8155   -4824.5842            0    657.53727    20.216278    20.338107    20.800378    8552.3003    682.79189   -1093.6949    2383.5148   -147.53551    768.42782     346.7703   -4308.8032 
18161000    212.04815   -4825.9806   -4417.0279   -4825.9806            0    536.81782    20.099378    20.306255    21.005681    8573.3239    1506.4754   -586.68007    690.65812    288.26598    573.97188   -1091.2853   -4349.9079 
18162000    207.18736   -4786.9683     -4387.39   -4786.9683            0   -1777.9465    20.325232    20.025521    21.382071    8703.0025   -3078.2087    89.199022   -2344.8299    651.75963   -391.18215   -189.73123   -4613.0548 
18163000    215.45277   -4803.5557    -4388.037   -4803.5557            0   -841.82284    20.381861    20.114464    21.186653    8685.8966   -2387.7483    1733.7412   -1871.4614    445.29775   -2067.8876   -883.99877   -4494.6748 
18164000    209.98835   -4810.4337   -4405.4535   -4810.4337            0   -490.99295    20.159047    20.295132    21.063143    8617.5746   -710.05828   -1131.0523    368.13175   -267.85547   -810.96565   -143.28574   -4467.1607 
18165000    206.31976   -4798.3771   -4400.4721   -4798.3771            0   -1625.8182    20.252084    20.245675    21.142243    8668.6812   -2202.9696   -695.05606   -1979.4288    111.44054   -947.86999   -153.14397   -4606.0143 
18166000     203.7952   -4770.1321    -4377.096   -4770.1321            0   -578.29671    20.100497    20.251511    21.340644    8687.0388    1258.2232   -2276.5199   -716.59348    199.38606     796.3119   -481.61142   -4450.3613 
18167000    210.93503   -4796.2017   -4389.3958   -4796.2017            0   -348.15032    20.242783     20.13916     21.26109    8667.5644    1269.1809   -1590.5437   -723.08822    388.90235    629.02134     223.0054   -4433.4046 
18168000    207.77921   -4768.6697     -4367.95   -4768.6697            0    995.92827    20.191391    20.312594    20.878206    8562.9776    539.92358     1341.077    1106.7842    1.4899126    1239.9092    384.49902   -4243.5762 
18169000    221.03026   -4794.7958   -4368.5204   -4794.7958            0    525.59655    20.257849    20.200876    21.086079    8628.9779    552.98614    764.07094    259.73256   -525.73925    534.46618    370.54329   -4302.3768 
18170000    223.04708   -4820.8825   -4390.7175   -4820.8825            0    882.24781    20.144501    20.157943    21.201578     8609.361     463.3996    1099.4151    1083.9288     120.0791   -570.36744    -432.9275   -4279.9436 
18171000    218.70433   -4800.6998   -4378.9101   -4800.6998            0   -451.65316     20.30837    20.083263    21.230521    8659.0449   -1500.2002    140.84516    4.3955668   -91.387095    251.93827    891.07312   -4435.9463 
18172000    205.98851   -4803.7173   -4406.4511   -4803.7173            0    609.77471    20.236627    20.285896    20.932185    8593.0411    146.52472     96.37091    1586.4285   -883.15167    756.49293   -1070.9617   -4330.0337 
18173000    211.78059   -4832.4241   -4423.9874   -4832.4241            0    -738.9235    20.193288    20.297706    21.090397    8644.4776   -551.82044   -833.68836   -831.26169    9.5733927   -841.21232   -588.35311   -4517.1441 
18174000    214.85088   -4809.9024   -4395.5444   -4809.9024            0    830.76583    20.182606    20.141941    21.202786    8619.2902    2494.4229   -82.440246    80.314808    498.02556   -598.73556    305.10808   -4291.1142 
18175000    212.16729   -4810.0957   -4400.9133   -4810.0957            0   -34.730441     20.10738    20.047728    21.605323    8709.2635   -404.05963    2029.2588   -1729.3905    397.00385   -42.829698   -678.60918   -4405.3246 
18176000    211.07596   -4830.0778        -4423   -4830.0778            0   -730.17119    20.142939    20.156541    21.106198     8569.369   -253.72889   -396.27834   -1540.5063   -319.43452   -88.226945    285.70802   -4514.2535 
18177000    195.28435   -4776.1598   -4399.5375   -4776.1598            0   -385.06653    20.162258    20.311571    21.027218    8611.2162   -1099.0015   -616.88115    560.68306    99.541419   -389.28922    330.11094   -4447.8964 
18178000    220.98416   -4820.4421   -4394.2556   -4820.4421            0   -810.69103    20.172859    20.185575     21.25186    8653.7735   -1146.1707   -162.75405   -1123.1484   -715.09358    684.73383   -140.97415     -4496.57 
18179000    211.59217   -4779.8768   -4371.8035   -4779.8768            0    82.827788    20.206053     20.18252    21.165849    8631.6251    555.61893   -871.33282    564.19726   -414.94713    49.959976   -521.34851   -4361.3769 
18180000     217.2999    -4793.555   -4374.4739    -4793.555            0   -248.49969    20.168029    20.181448    21.234396    8642.8242   -140.89498    390.28377   -994.88787   -360.90083   -431.22559    996.17616   -4405.7964 
18181000    209.65364   -4809.2755   -4404.9408   -4809.2755            0   -490.31029    20.278229    20.090218    21.169179    8624.1973   -162.35243    1081.6597   -2390.2381    34.176828    97.686862    -439.2694   -4466.6096 
18182000    205.50638   -4796.4628   -4400.1265   -4796.4628            0   -265.22133    20.048281    20.274017    21.345695    8676.1536    1046.8275   -1223.9486   -618.54295    189.24144      630.628   -708.64186   -4433.6857 
18183000    201.98614   -4802.6991   -4413.1518   -4802.6991            0   -1333.0608    20.199874    20.112386    21.475224    8724.6889   -1753.3328   -440.23279   -1805.6167    215.85238   -547.27042    34.443178   -4582.7713 
18184000    201.69897    -4807.162   -4418.1686    -4807.162            0    1735.8249    20.278248    20.188742    20.988523    8592.5402    2335.8567    1247.5777    1624.0404   -704.19887    541.64044     702.6163   -4200.6465 
18185000    224.45205   -4805.6666   -4372.7919   -4805.6666            0    755.24641    20.227962    20.267941    20.907932    8571.8158    159.07346    1088.3018    1018.3639    78.478108    800.06575    1330.4638   -4278.3777 
18186000     207.6527   -4770.9052   -4370.4295   -4770.9052            0   -893.98906    20.200538    20.115689     21.40201    8696.6586   -2117.7464    237.63176   -801.85255   -707.89665   -478.75533     1679.401   -4483.8158 
18187000    209.42845   -4814.8186   -4410.9182   -4814.8186            0   -355.27076    20.260344    20.123448     21.21395    8649.0965   -753.19315    349.66065   -662.27976   -628.68644    1004.2067   -257.52518   -4455.7314 
18188000    217.83421   -4801.3346    -4381.223   -4801.3346            0   -986.42022    20.414859     20.26599    21.124204    8739.6606   -1840.8209    115.92077   -1234.3606   -605.70142    -116.4863   -382.07868   -4506.9512 
18189000    203.65738   -4816.9084   -4424.1381   -4816.9084            0    1660.3203    20.043952     20.22648    21.106163    8556.8307    2849.9502    1353.4172    777.59334   -683.41528   -387.48157   -297.42739   -4216.9424 
18190000    221.85412   -4784.0875   -4356.2231   -4784.0875            0   -1113.4887    20.159546    20.259391    21.279717    8691.0648   -1274.4068   -1301.3255   -764.73375    328.00853   -821.63761    478.28365   -4497.3581 
18191000    210.63725   -4797.7344   -4391.5027   -4797.7344            0   -607.47715    20.422595    20.068839    21.110194    8652.1769   -1170.0884    264.25599   -916.59909    209.37246   -123.66793     469.9153   -4468.1561 
18192000     223.2613   -4816.9586   -4386.3804   -4816.9586            0   -718.93185     20.27873    20.040851    21.278084    8647.4772   -718.94926    334.18045   -1772.0267    159.11077    153.13862   -1336.0847   -4477.0482 
18193000    209.94413   -4793.2961   -4388.4012   -4793.2961            0    50.072734    20.173303    20.405153    20.975839    8634.4802    1145.2852   -1698.2631     703.1961    136.49617   -542.87609   -195.77888   -4382.0958 
18194000    215.34526   -4787.0171   -4371.7056   -4787.0171            0    446.52382    20.286776    20.090617    21.292483     8678.259   -923.09293    2642.5352   -379.87078    153.08476    466.70439   -1420.1184    -4315.192 
18195000    215.97457   -4805.8208   -4389.2957   -4805.8208            0   -827.32141    20.162606    20.312722    21.436566     8779.504    406.00689   -1363.9858   -1523.9853    87.554025    6.4139738   -117.65575    -4495.226 
18196000     209.1708   -4800.1324   -4396.7289   -4800.1324            0   -486.37412    20.280272    20.099051    21.180798    8633.5945   -429.58046   -128.67592   -900.86599   -237.80477    683.32015   -397.56415   -4457.9693 
18197000    199.45052   -4780.8277   -4396.1706   -4780.8277            0   -148.79245    20.186066    20.240251    20.940322    8555.6089   -529.50696   -255.08371    338.21331   -502.04657   -926.49549    899.21574   -4414.7361 
18198000    207.04462   -4785.6539   -4386.3509   -4785.6539            0    -2066.956     20.44835     20.35511    20.995315    8738.8465    -3816.572   -2126.3628   -257.93324    479.08838   -997.84599    898.92134   -4649.7785 
18199000    212.62732   -4785.1635   -4375.0939   -4785.1635            0   -345.20476    20.116171    20.149577    21.298964    8633.1591    784.57033   -268.59269   -1551.5919    334.11975     957.4716    183.51498   -4418.5572 
18200000    203.40743   -4797.3667   -4405.0783   -4797.3667            0   -1236.1332    20.322298    20.034236    21.450305     8733.314   -2801.0359     455.7266   -1363.0902     102.9699   -773.13591   -216.77056   -4562.5202 
18201000     204.4627   -4788.3577   -4394.0342   -4788.3577            0   -1022.2383    20.239976    20.264522    21.322148    8745.3523   -1437.7907   -1374.1826   -254.74157    71.251624    -1755.437   -1155.1781   -4524.4125 
18202000    208.46396   -4790.0911   -4388.0508   -4790.0911            0    -2245.863    20.429084    20.105319      21.1313    8679.3272   -3192.4365   -1423.5986    -2121.554     74.03002   -266.72949   -828.79092   -4672.3301 
18203000    207.82422   -4819.2538   -4418.4473   -4819.2538            0   -874.77921    20.188987    20.204527    21.311108    8692.9914   -824.48831   -386.82363   -1413.0257    126.73133   -178.51821    726.27809   -4529.3504 
18204000    198.27561    -4794.405   -4412.0138    -4794.405            0    -1420.157    20.204155    20.221863    21.610289    8829.2218   -392.56154   -2091.7807   -1776.1288    39.879005   -303.42559   -10.429802   -4594.8805 
18205000    199.02166   -4808.0599   -4424.2299   -4808.0599            0   -179.45325    20.252688    20.103158     21.18857    8626.7776   -1593.1262    1370.9764   -316.20989   -278.58595   -672.20846   -214.12489   -4446.8074 
18206000    201.00973   -4804.6409   -4416.9767   -4804.6409            0   -830.01569    20.372643    20.224426    20.962082    8636.9017   -1572.3761   -112.13109   -805.53989   -652.71971    24.853403    154.36526   -4521.5258 
18207000    214.97693   -4817.8692   -4403.2681   -4817.8692            0   -56.087584    20.168454    20.208332    21.172899    8629.4558    1175.6739   -904.40322   -439.53339   -107.55812   -8.4957908   -137.74558   -4410.3268 
18208000     211.0022   -4796.4437   -4389.5082   -4796.4437            0   -1399.8567    20.180285    20.059064    21.520825    8711.5791   -1517.1127   -763.78221   -1918.6754   -273.20145   -1042.6804   -776.85375   -4567.3593 
18209000    207.75623   -4799.5284    -4398.853   -4799.5284            0   -896.70903    20.306137    20.110957    21.129544    8628.7954   -297.24204   -1191.6121   -1201.2729    -267.3451    217.88219    99.151166   -4511.6968 
18210000    211.88093   -4780.3767   -4371.7466   -4780.3767            0   -114.77971    20.171891    20.320276     21.02949     8619.954    1019.1941   -745.82855   -617.70465   -458.35352    131.97414   -884.29707   -4386.1759 
18211000    207.44578   -4792.9884   -4392.9117   -4792.9884            0   -340.80533    20.262073    20.286552    21.048782    8652.0511    203.77762   -206.25593   -1019.9377   -899.99384   -233.49131    381.82025    -4435.915 
18212000    209.69012    -4799.397    -4394.992    -4799.397            0    1123.9602    20.043194     20.10597    21.376967     8614.658    1723.8349     1315.146     332.8998    -186.3764   -56.679479     1391.285   -4253.7821 
18213000    213.48924   -4785.5965   -4373.8646   -4785.5965            0   -1307.5662    20.303361    20.208375     21.33504    8753.7229   -2719.1333    201.97217   -1405.5374    17.930749    768.34357    68.940509   -4540.7938 
18214000    206.94795   -4790.1835    -4391.067   -4790.1835            0   -747.25679    20.250724    20.123471     21.21563    8645.6844   -923.46949    -656.4525   -661.84838    18.697685    222.35398    292.69752   -4485.2875 
18215000    200.03177   -4819.6106   -4433.8325   -4819.6106            0   -150.11763    20.042198    20.272355    21.364904    8680.6152     2032.323   -1600.3961    -882.2798   -276.26505    1172.7824    812.79533   -4452.8371 
18216000    205.03442   -4808.1015   -4412.6754   -4808.1015            0   -280.14182    20.185552     20.14204    21.157068    8602.0026    -923.5934   -279.48172    362.64966   -295.45152    37.618457    1540.8787   -4447.8196 
18217000    207.64841   -4825.4252   -4424.9578   -4825.4252            0   -284.62885     20.30362    20.237039    20.959918    8612.1189   -460.70486    270.67444   -663.85611   -716.55873    824.82243   -50.705584   -4460.7069 
18218000    218.54993   -4802.2157   -4380.7238   -4802.2157            0    883.11084    20.152161    20.339243     20.96593    8593.5096    79.302991    960.45501    1609.5745   -45.832219    659.02467    322.31176   -4270.0457 
18219000    206.36915   -4784.3711   -4386.3709   -4784.3711            0    1184.5187    20.153075    20.067313    21.386667    8649.1544    1550.5986    1642.4769    360.48075   -39.298529    1904.8914     564.0826   -4236.9568 
18220000    207.12785    -4821.338   -4421.8745    -4821.338            0    402.24254    20.089776    20.040578    21.268876    8563.0776   -123.96287    1979.9249   -649.23438   -64.877082   -117.54887    432.23682    -4371.641 
18221000    206.38045   -4799.1459   -4401.1238   -4799.1459            0    61.740152     20.21719     20.31254    21.041542    8640.9723    971.02051   -1151.3265     365.5264   -276.23663     295.1264    -128.5119   -4393.3433 
18222000    204.01478   -4809.8883   -4416.4287   -4809.8883            0    513.54437    20.256947    20.226562    20.969379      8591.75    1957.4078   -821.53513    404.76049   -58.979376   -77.150142    611.08353   -4352.0806 
18223000    199.62119   -4788.7096   -4403.7233   -4788.7096            0   -1457.5138    20.288879    20.033512    21.443979    8716.0662   -1945.1025     874.2401   -3301.6789   -45.905398    -293.7121   -330.96112    -4588.995 
18224000    217.21298   -4814.9085   -4395.9951   -4814.9085            0   -3012.4139    20.212447    20.302456    21.261901    8725.0831   -2269.1803    -4305.853   -2462.2082   -118.77361    548.25261    571.10062   -4779.3138 
18225000     207.9774   -4816.7527   -4415.6508   -4816.7527            0    840.53843     20.28848    20.116582    20.851316    8510.1494    684.90524    910.10893    926.60112    163.46726   -351.85717    1789.6712     -4311.33 
18226000    219.87947   -4822.7307   -4398.6747   -4822.7307            0   -716.27504    20.294325    20.261774    21.237739    8732.9376   -1306.4753    211.09759   -1053.4474   -119.78016   -51.605905    1370.8607   -4489.9001 
18227000     226.9435   -4777.1547    -4339.475   -4777.1547            0   -393.59636    20.298273    20.079504    21.316825    8688.2954   -354.10971   -105.27693   -721.40245    -363.1134    521.79309    542.65301   -4389.3476 
18228000    225.90052   -4805.8614   -4370.1932   -4805.8614            0   -758.15592    20.044965    20.439353    21.208311    8689.1745    653.58796   -1568.8093   -1359.2464   -257.96423    472.92679   -391.20965   -4466.2688 
18229000    222.39136   -4812.5613   -4383.6609   -4812.5613            0    645.50109    20.065245    20.237882    21.232221    8621.9392     1073.512     1021.377   -158.38573   -146.13672    580.61513   -624.68691   -4302.4942 
18230000    226.77962   -4797.3342   -4359.9707   -4797.3342            0   -1519.8488     20.42545    20.030857     21.28373    8708.0098   -1810.6975   -1053.1459    -1695.703   -388.45818    335.41272   -416.67536   -4552.9875 
18231000    229.99051   -4823.3435   -4379.7875   -4823.3435            0   -790.41147    20.362264    20.088272    21.070288    8618.6476   -1787.5251   -628.80509    45.095816    -650.1578   -772.13933    1742.8695   -4479.1375 
18232000    207.24132   -4793.0846   -4393.4023   -4793.0846            0   -720.31774    20.028996    20.349673    21.118923    8607.7249   -595.09559   -479.25401   -1086.6036    480.08175   -573.21748    520.03988   -4483.8273 
18233000    220.25673   -4836.9997   -4412.2161   -4836.9997            0    423.63854     20.13422    20.191668    21.093793    8575.5442    1197.0667    278.45169   -204.60281    83.699289    1121.9599   -609.78376   -4359.2335 
18234000    216.67365   -4796.2001   -4378.3267   -4796.2001            0   -33.494108    20.326116    20.170887    21.069045    8638.2199   -1266.5152    833.67705     332.3558   -430.04322   -965.30663    355.52207   -4382.5463 
18235000    206.54625   -4811.4305   -4413.0887   -4811.4305            0    260.14041     19.92238    20.296073    21.324039    8622.2916    3069.2523   -2460.1652    171.33417   -139.35038    904.26419   -984.72844   -4380.3767 
18236000    209.86031   -4815.8317   -4411.0984   -4815.8317            0   -2515.7617    20.498463    20.184901    21.002057    8689.7996   -3622.7939   -2343.0348   -1581.4566    376.78826   -977.99224   -151.17654   -4729.9255 
18237000    213.24682    -4806.183   -4394.9186    -4806.183            0   -1462.8363    20.209386    20.212818    21.260712    8684.7593   -848.93726   -639.19963    -2900.372    177.19238    472.69553    230.03192   -4580.1989 
18238000    218.23536   -4800.3252   -4379.4399   -4800.3252            0   -601.54472      20.1685    20.157032     21.40814    8703.2033   -1391.1383    1611.3378   -2024.8337   -91.515967    131.10555   -483.30685   -4455.7924 
18239000    201.89108    -4791.678   -4402.3141    -4791.678            0   -47.161546    20.244795    20.332778    20.931061    8615.9142   -812.62887   -587.30508    1258.4493   -407.56327    125.83994   -1107.2859   -4408.2401 
18240000    215.92824   -4804.4486   -4388.0129   -4804.4486            0   -337.03461    20.311705    20.180623    21.071934     8637.446   -659.11882   -66.657163   -285.32785    36.369402    1192.2789    99.361925   -4430.4685 
18241000    212.64949   -4820.5891   -4410.4767   -4820.5891            0   -1325.1289    20.256194    19.957529    21.578144    8723.2576   -1218.8169   -883.05756   -1873.5121     171.9895   -623.57436    361.86659   -4579.0593 
18242000    213.33914   -4801.1076   -4389.6651   -4801.1076            0   -902.02485    20.128432    20.275467    21.280437    8684.8308   -89.000216   -665.24562   -1951.8287   -501.37043    1519.0452    891.85342    -4503.915 
18243000    216.59869   -4798.9046   -4381.1758   -4798.9046            0   -1297.4667    20.273352    20.264028    21.043967    8645.2777    -1443.486   -1557.6106   -891.30348   -233.95396    1099.4702    63.534089   -4544.7637 
18244000    212.53284   -4796.8408   -4386.9534   -4796.8408            0   -328.81953    20.343922    20.072293      21.2628    8682.6465   -267.12331   -840.14171    120.80642    73.687153    168.27048    -347.9533    -4428.591 
18245000    226.08262   -4793.8415   -4357.8222   -4793.8415            0   -794.21977    20.167528    20.212134    21.452257    8744.5573    1335.8842   -2305.9268   -1412.6167   -79.424037   -395.74662   -349.85644   -4459.1093 
18246000    214.89083   -4798.9889   -4384.5539   -4798.9889            0     1117.356    20.081716    20.015998    21.117154    8488.1579    768.59085    1818.6054    764.87173    589.70757    549.36692   -811.64354   -4246.2352 
18247000    210.56852    -4800.144   -4394.0449    -4800.144            0   -952.65886    20.401256    20.256076     21.12784    8731.0672   -3033.8902    344.76842   -168.85481   -539.25174   -214.30513     161.9725   -4515.3505 
18248000    219.50343   -4804.4627   -4381.1319   -4804.4627            0   -266.83095    20.077036    20.202578    21.121453    8567.0277   -36.329594   -858.41374    94.250484     -333.082    297.37994    -767.9866   -4414.4701 
18249000    207.97639   -4813.5905   -4412.4906   -4813.5905            0   -1124.8493    20.300163    20.257838     21.28452    8752.9915   -1329.0131   -2103.0155    57.480874   -837.19477    432.87154    827.41624   -4556.0814 
18250000    221.57465   -4783.1525   -4355.8271   -4783.1525            0   -686.00256    20.351795    19.999655     21.21829    8636.4563   -902.75871    692.25384   -1847.5028   -615.01548   -38.605353   -463.08952   -4442.2318 
Loop time of 419.822 on 64 procs for 250000 steps with 972 atoms

Performance: 102.901 ns/day, 0.233 hours/ns, 595.491 timesteps/s
99.2% CPU use with 64 MPI tasks x 1 OpenMP threads

MPI task timing breakdown:
Section |  min time  |  avg time  |  max time  |%varavg| %total
---------------------------------------------------------------
Pair    | 18.196     | 26.704     | 34.782     |  77.3 |  6.36
Bond    | 0.25721    | 0.27591    | 0.28931    |   1.0 |  0.07
Kspace  | 173.46     | 186.15     | 201.43     |  48.0 | 44.34
Neigh   | 1.9491     | 2.2366     | 2.8382     |  17.0 |  0.53
Comm    | 82.827     | 95.71      | 102.74     |  54.3 | 22.80
Output  | 1.0815     | 1.0825     | 1.0842     |   0.1 |  0.26
Modify  | 97.327     | 100.01     | 103.15     |  13.0 | 23.82
Other   |            | 7.652      |            |       |  1.82

Nlocal:        15.1875 ave          20 max          10 min
Histogram: 2 2 4 5 9 10 11 16 3 2
Nghost:        2141.67 ave        2171 max        2107 min
Histogram: 3 2 7 4 8 15 10 6 5 4
Neighs:        4567.80 ave        6780 max        2888 min
Histogram: 4 4 9 8 17 12 6 3 0 1

Total # of neighbors = 292339
Ave neighs/atom = 300.76029
Ave special neighs/atom = 2.0000000
Neighbor list builds = 5618
Dangerous builds = 0

unfix		3
unfix		2
unfix		1

write_data	data.final.${pid}
write_data	data.final.0
System init for write_data ...
PPPM initialization ...
  extracting TIP4P info from pair style
  using 12-bit tables for long-range coulomb (../kspace.cpp:340)
  G vector (1/distance) = 0.37136002
  grid = 24 24 25
  stencil order = 5
  estimated absolute RMS force accuracy = 0.0035377971
  estimated relative force accuracy = 1.0653971e-05
  using double precision FFTW3
  3d grid and FFT values/proc = 2366 288
Last active /omp style is kspace_style pppm/tip4p/omp
WARNING: Not all mixed pair coeffs generated from mixing. Use write_data with 'pair ij' option to store all pair coeffs. (../write_data.cpp:312)

write_restart   restart.lmp.${pid}
write_restart   restart.lmp.0
System init for write_restart ...
PPPM initialization ...
  extracting TIP4P info from pair style
  using 12-bit tables for long-range coulomb (../kspace.cpp:340)
  G vector (1/distance) = 0.37136002
  grid = 24 24 25
  stencil order = 5
  estimated absolute RMS force accuracy = 0.0035377971
  estimated relative force accuracy = 1.0653971e-05
  using double precision FFTW3
  3d grid and FFT values/proc = 2366 288
Last active /omp style is kspace_style pppm/tip4p/omp
Total wall time: 0:07:04
