#include		in.partitions
include		in.temp
variable        temperature equal 190.22
variable	tempDamp equal 100.0
include		in.pressure
variable        pressure equal 1720.2
variable        pressureDamp equal 1000.0 # This is 1 ps
include		in.seed
variable        seed equal 745823

units		real
atom_style	full
#include		in.box
read_restart	restart.lmp.${pid}
read_restart	restart.lmp.0
Reading restart file ...
  restart file = 30 Jul 2021, LAMMPS = 30 Jul 2021
  restoring atom style full from restart
  orthogonal box = (0.021019960 0.18599661 0.17662706) to (18.186552 23.443181 22.036569)
  2 by 4 by 4 MPI processor grid
  restoring pair style lj/cut/tip4p/long/omp from restart
  restoring bond style harmonic/omp from restart
  restoring angle style harmonic/omp from restart
  864 atoms
  576 bonds
  288 angles
Finding 1-2 1-3 1-4 neighbors ...
  special bond factors lj:    0        0        0       
  special bond factors coul:  0        0        0       
     2 = max # of 1-2 neighbors
     1 = max # of 1-3 neighbors
     1 = max # of 1-4 neighbors
     2 = max # of special neighbors
  special bonds CPU = 0.002 seconds
  read_restart CPU = 0.008 seconds
include 	in.setup
variable	out_freq equal 1000
variable	out_freq2 equal 10000
variable	out_freq3 equal 1000

timestep	2.0

neigh_modify    delay 7 every 1

include		in.tip4p
# This is TIP4P/Ice

# create groups ###
group ox type 2
288 atoms in group ox
group hy type 1
576 atoms in group hy

# set charges - beside manually ###
set group ox charge -1.1794
Setting atom values ...
  288 settings made for charge
set group hy charge 0.5897
Setting atom values ...
  576 settings made for charge

# ### TIP3P Potential Parameters ###
pair_style lj/cut/tip4p/long/omp 2 1 1 1 0.1577 8.5
pair_coeff 1 1*2 0.000 0.000
pair_coeff 2 2 0.21084 3.1668
bond_style  harmonic
bond_coeff  1 450 0.9572
angle_style harmonic
angle_coeff 1 55 104.52
kspace_style pppm/tip4p/omp 1.0e-5
pair_modify tail yes

thermo          ${out_freq}
thermo          1000
thermo_style    custom step temp pe etotal epair emol press lx ly lz vol pxx pyy pzz pxy pxz pyz enthalpy

restart 	${out_freq3} restart.lmp.${pid} restart2.lmp.${pid}
restart 	1000 restart.lmp.${pid} restart2.lmp.${pid}
restart 	1000 restart.lmp.0 restart2.lmp.${pid}
restart 	1000 restart.lmp.0 restart2.lmp.0


include         in.dump
dump            myDump all atom ${out_freq2} dump.water.${pid}
dump            myDump all atom 10000 dump.water.${pid}
dump            myDump all atom 10000 dump.water.0
dump            myDump2 all dcd ${out_freq2} dump.dcd
dump            myDump2 all dcd 10000 dump.dcd
dump_modify     myDump append yes
dump_modify     myDump2 append yes


variable natoms 	equal  "count(all)"                        # NUMBER ATOMS
variable H      	equal  "enthalpy/v_natoms"                 # ENTHALPY-per-atom
variable Vol      	equal  "vol/v_natoms"                 # volume-per-atom
fix AVG all 		ave/time ${out_freq} 1 ${out_freq} v_Vol v_H file vol_enthalpy.dat
fix AVG all 		ave/time 1000 1 ${out_freq} v_Vol v_H file vol_enthalpy.dat
fix AVG all 		ave/time 1000 1 1000 v_Vol v_H file vol_enthalpy.dat


timer           timeout 23:50:00 every 1000
New timer settings: style=normal  mode=nosync  timeout=23:50:00

fix 		1 all shake 1e-6 200 0 b 1 a 1
       0 = # of size 2 clusters
       0 = # of size 3 clusters
       0 = # of size 4 clusters
     288 = # of frozen angles
  find clusters CPU = 0.001 seconds
fix             2 all nph aniso ${pressure} ${pressure} ${pressureDamp}
fix             2 all nph aniso 1720.2 ${pressure} ${pressureDamp}
fix             2 all nph aniso 1720.2 1720.2 ${pressureDamp}
fix             2 all nph aniso 1720.2 1720.2 1000
fix             3 all temp/csvr ${temperature} ${temperature} ${tempDamp} ${seed}
fix             3 all temp/csvr 190.22 ${temperature} ${tempDamp} ${seed}
fix             3 all temp/csvr 190.22 190.22 ${tempDamp} ${seed}
fix             3 all temp/csvr 190.22 190.22 100 ${seed}
fix             3 all temp/csvr 190.22 190.22 100 745823


run             250000
PPPM initialization ...
  extracting TIP4P info from pair style
  using 12-bit tables for long-range coulomb (../kspace.cpp:340)
  G vector (1/distance) = 0.37200416
  grid = 24 27 25
  stencil order = 5
  estimated absolute RMS force accuracy = 0.003114245
  estimated relative force accuracy = 9.3784564e-06
  using double precision FFTW3
  3d grid and FFT values/proc = 4410 672
Last active /omp style is kspace_style pppm/tip4p/omp
Neighbor list info ...
  update every 1 steps, delay 7 steps, check yes
  max neighbors/atom: 2000, page size: 100000
  master list distance cutoff = 10.8154
  ghost atom cutoff = 10.8154
  binsize = 5.4077, bins = 4 5 5
  1 neighbor lists, perpetual/occasional/extra = 1 0 0
  (1) pair lj/cut/tip4p/long/omp, perpetual
      attributes: half, newton on, omp
      pair build: half/bin/newton/omp
      stencil: half/bin/3d
      bin: standard
Per MPI rank memory allocation (min/avg/max) = 10.19 | 10.21 | 10.23 Mbytes
Step Temp PotEng TotEng E_pair E_mol Press Lx Ly Lz Volume Pxx Pyy Pzz Pxy Pxz Pyz Enthalpy 
12750000     205.7938   -4382.4742   -4029.7507   -4382.4742            0    1832.3226    18.165532    23.257185    21.859942    9235.3694    3362.7806    184.71327     1949.474     69.92352   -408.06979    68.300972   -3782.9581 
12751000     196.5952   -4391.8402   -4054.8827   -4391.8402            0    1607.9091    17.811097    23.758154    21.855478    9248.3377    1326.9715    612.90895    2883.8468   -615.47264    163.57087    -325.5138   -3838.0119 
12752000    194.98254   -4396.5791   -4062.3857   -4396.5791            0     1761.664    18.005704    23.428491    22.060177    9306.0081    276.52185    1829.4093     3179.061    -1201.699    185.90604    743.54819   -3823.2951 
12753000    187.59803   -4376.9592   -4055.4226   -4376.9592            0    1992.9966    17.982567    23.307691    22.082406    9255.4455      2892.54    1859.3764    1227.0734    -492.3776    -62.09949    134.23653   -3786.4055 
12754000    176.16972   -4391.8811   -4089.9322   -4391.8811            0    1673.2594    17.888837    23.662476    21.910779    9274.7052    3094.5538    894.68895    1030.5354    297.64935    473.98246    14.968801   -3863.6037 
12755000    195.54833   -4384.3501    -4049.187   -4384.3501            0    1797.9412    18.081712    23.244094    22.007163    9249.4571    2008.0405    1584.2503    1801.5327   -298.73523    -389.6081   -1523.6683   -3806.6558 
12756000    197.35827   -4384.6294   -4046.3641   -4384.6294            0    699.22042    18.053732    23.491897    22.013235    9336.1742    -305.3582    1150.0463    1252.9731   -436.81095    139.72184     1204.706   -3951.1593 
12757000    189.31207   -4376.1926   -4051.7182   -4376.1926            0    3194.3056    17.963424    23.341759      21.9445    9201.2828    2689.5401    3868.6955    3024.6812    1460.2261    23.536783   -732.19645   -3623.0702 
12758000    185.62902    -4368.015   -4049.8532    -4368.015            0    1353.3161    18.023232    23.364114    22.105941    9308.7422    2788.7858     1165.739    105.42366   -684.60384   -36.416786     53.26738   -3866.1291 
12759000    196.12138   -4366.6188   -4030.4734   -4366.6188            0    1878.1084    17.846424    23.769604    21.777752    9238.1755    2070.2934    1078.3921    2485.6397    57.698006    574.69755    487.12974   -3777.4372 
12760000    200.43505    -4393.837   -4050.2982    -4393.837            0    2312.2902    18.039309    23.280616    22.071933    9269.4661    2731.5872    2924.2309    1281.0524   -236.52947   -1001.2255    1033.7301   -3737.7098 
12761000    190.01526   -4390.6964   -4065.0168   -4390.6964            0    1711.2381    18.030814    23.412353    21.985884    9281.2045    3145.4255    718.57894      1269.71   -1566.0776   -184.86015    256.72519    -3833.389 
12762000    203.39451   -4370.1603    -4021.549   -4370.1603            0    3040.7064     17.94184    23.398613    21.922448    9203.3545    1921.3082    3437.2227    3763.5884   -351.36208    136.10205    95.338451   -3613.4209 
12763000    196.98964   -4371.5114   -4033.8779   -4371.5114            0    1686.7431    18.223176    23.141379    21.951889    9257.3181    1284.9137    1284.4359    2490.8797   -752.74995    247.07518   -234.74247   -3806.1532 
12764000    179.75913   -4381.1422   -4073.0412   -4381.1422            0    1761.6078    17.976618    23.488277    21.960271    9272.5001    2333.4398    1210.4749    1740.9085    205.10368    742.78147    230.57628   -3834.8192 
12765000    191.23239   -4382.7146   -4054.9488   -4382.7146            0    1483.2544    18.011632    23.335022    22.078096    9279.4644    661.26149    453.79135    3334.7104   -825.30678    149.97267    31.669627   -3854.2178 
12766000    192.91612   -4380.2224   -4049.5708   -4380.2224            0    1821.1469    17.994131    23.372971    22.039479    9269.2825    2500.9469    183.32243    2779.1714   -834.58137    676.56184   -375.17793   -3803.3827 
12767000    189.87085   -4376.9918   -4051.5596   -4376.9918            0    1638.2741    17.886527     23.46614    22.107577    9279.1637    1894.4676    1412.9871    1607.3677   -427.11962    235.69442   -141.88199   -3829.8567 
12768000    181.22155   -4387.7577   -4077.1501   -4387.7577            0    1438.7022    18.229242      23.0497    22.016929    9251.0414    121.59277    2767.5589     1426.955   -221.43089     173.5124    154.23636   -3883.0448 
12769000      198.741   -4398.7973    -4058.162   -4398.7973            0    1544.2322    17.835123    23.520077    22.100608    9270.8392    2294.1322      1803.65    534.91461    25.723511       245.84    402.18995   -3849.3731 
12770000    185.36514    -4386.368   -4068.6585    -4386.368            0    2389.6007    18.088392    23.431691    21.771113    9227.5034    1010.6326    2664.1345     3494.035    284.81304    370.50091   -78.288455   -3747.0812 
12771000    179.50882   -4377.7373   -4070.0654   -4377.7373            0    2126.5983    17.966039    23.339289    22.168267    9295.4771    3099.3237    1855.6263     1424.845   -35.046859    800.59346     515.7219   -3781.7731 
12772000    187.60564   -4362.6784   -4041.1288   -4362.6784            0    2225.6533    18.174437     23.47595    21.713926    9264.5109   -423.25534    3644.8872    3455.3282   -200.07774    76.412718   -197.54392   -3740.4132 
12773000    180.81575   -4385.5693   -4075.6573   -4385.5693            0    1878.2878    17.903032    23.357586    22.174666    9272.8157    1872.7162    2136.9375    1625.2097    878.81323   -568.40346    99.690421   -3821.6479 
12774000    196.07251   -4356.5821   -4020.5205   -4356.5821            0    1797.8488    18.018619    23.410577    22.073248    9311.0759     1205.597    2714.6439    1473.3055    332.61519    -186.7691   -289.24222   -3776.3861 
12775000    189.41129   -4374.5081   -4049.8636   -4374.5081            0    2784.7579     18.02282     23.35148    21.952513    9238.9239    2573.3276    2682.6004    3098.3458    377.77069    43.451316    117.97015   -3674.6447 
12776000    194.32923   -4366.3163   -4033.2427   -4366.3163            0    2468.0886    17.932773    23.315152    22.119054    9248.0947    3338.5135    2156.8119    1908.9404    346.18048    366.16557   -1539.5979   -3700.3617 
12777000    195.76799   -4378.4802   -4042.9405   -4378.4802            0    1671.6544    18.008814    23.674866    21.717691    9259.4736    894.46761    457.77128    3662.7242    -241.1275    666.51179   -452.25856   -3817.2005 
12778000    194.62185   -4405.4547   -4071.8795   -4405.4547            0    65.225662    18.104803    23.361468    22.179282     9380.833    528.47649    155.30222   -488.10173    541.19794   -224.36503   -237.41468    -4062.956 
12779000    189.40498   -4406.2319   -4081.5983   -4406.2319            0      1647.81    17.923641     23.46606    22.064179    9280.1329    549.67113    1909.2529    2484.5059    51.698068    408.53408    839.35907   -3858.5816 
12780000    196.48894   -4375.6337   -4038.8584   -4375.6337            0    1489.1025    17.934359    23.571206    22.008015    9303.5465    2691.9794    1821.0796   -45.751659     395.2264   -207.45207   -938.92531    -3836.813 
12781000    191.79733   -4361.3938   -4032.6597   -4361.3938            0    1552.9018    18.178488    23.303089    21.932915      9291.11    569.65309    1861.4418    2227.6104    162.10505    45.124448   -401.17544   -3822.2395 
12782000    185.34591   -4364.7071   -4047.0305   -4364.7071            0   -522.68284    18.027272    23.668615    22.098353    9428.9376    494.81381   -949.26582   -1113.5965    665.63257   -160.71915    259.07217   -4118.9053 
12783000     187.7385   -4372.7735   -4050.9961   -4372.7735            0    1115.6557    18.006032    23.365613    22.126357    9309.0448    548.64804    1358.1611    1440.1578   -578.67082    285.12874    1093.1002   -3899.5315 
12784000    181.72637   -4386.8816   -4075.4088   -4386.8816            0    1180.2095    18.132603     23.37794    21.965298    9311.1536   -718.92677    2069.3538    2190.2015    960.43444    -316.7443   -81.256286   -3915.1439 
12785000    183.32417   -4400.2785   -4086.0671   -4400.2785            0    1109.0424    17.989268    23.461581     22.03655    9300.6729     831.8269    1708.2596     787.0408    1212.6831   -9.7585995    216.45179   -3935.6358 
12786000    185.87853   -4387.9649   -4069.3754   -4387.9649            0    1518.3556     18.18715    22.980642    22.140868    9253.8285    153.15729    2143.8747    2258.0348   -188.33756   -794.66379    -317.0453   -3864.4618 
12787000     193.0252   -4380.9016    -4050.063   -4380.9016            0    2388.8453    17.868882     23.64866     21.84407    9230.7602     2904.206    2579.5001    1682.8299   -393.55629   -460.68203   -194.65403   -3728.4738 
12788000    187.02326   -4374.8178   -4054.2664   -4374.8178            0    1413.5239    17.901006    23.247558    22.303004    9281.4993    2042.7288     1157.349    1040.4938   -272.85964    351.05494   -19.580007   -3862.9302 
12789000    192.90014   -4382.9969   -4052.3726   -4382.9969            0    2987.2324    18.064991     23.28684    21.942543    9230.7131    962.13856     4775.564    3223.9946   -48.006192   -173.87588   -231.86506     -3650.23 
12790000    179.76221   -4367.7579   -4059.6517   -4367.7579            0    1934.6911    17.708648    23.618181    22.041177    9218.6352    2859.5384    2363.0584    581.47651   -877.00516    55.452353   -514.39354   -3799.5434 
12791000    192.18979   -4391.7248    -4062.318   -4391.7248            0    1097.2372    18.142565     23.29138     21.91745    9261.5551    529.09115    1635.4581    1127.1624     424.2427   -724.35191   -592.40184   -3914.1139 
12792000    189.99628   -4388.8988   -4063.2516   -4388.8988            0    2008.3103    18.040662    23.396752    21.978166    9276.8276    1852.5323    2750.2834    1422.1153    -647.4129   -15.115354    12.320118   -3791.5413 
12793000    191.02984   -4376.6227   -4049.2041   -4376.6227            0    1559.3557      17.9297    23.510413    22.009831    9277.9063    1749.3902   -36.213977    2964.8909   -841.53898    211.75855   -301.69957   -3838.2096 
12794000    190.73223   -4378.4107   -4051.5022   -4378.4107            0    2009.9653    18.052158    23.330043    21.951255    9244.9383    1145.6075     631.0587    4253.2297    1695.5138    365.03578     625.0904   -3780.5027 
12795000    179.42083   -4401.8143   -4094.2932   -4401.8143            0     2253.956    17.845176    23.414703    22.035909    9207.4735     2358.836    1999.8243    2403.2077   -169.80318    2.5084972   -582.99451   -3791.6285 
12796000    192.60946   -4374.5813   -4044.4553   -4374.5813            0    2757.4575    18.031522     23.29225    21.921902    9207.0828    3567.1241    2687.6423     2017.606    202.93618     640.3314    366.39712   -3674.1953 
12797000    192.48049   -4405.6835   -4075.7785   -4405.6835            0   -357.34033    18.091233    23.495449    22.121404    9402.9604   -640.79987   -219.18696   -212.03417   -260.19607   -278.31421     335.3922   -4124.7815 
12798000    193.36073   -4379.0963   -4047.6826   -4379.0963            0    742.07379    17.966305    23.567791    22.088566    9352.8758    722.74095    557.21083    946.26959   -1108.8825    477.65101     202.2428   -3946.4622 
12799000    200.84598   -4387.6975   -4043.4544   -4387.6975            0    343.70702    18.134454    23.407791    22.064236    9365.9925   -668.12728    244.05927    1455.1891    174.24336    207.30221    256.80968   -3996.5063 
12800000    186.01031   -4381.4145   -4062.5991   -4381.4145            0    1359.4344    17.996431    23.413936    22.139657    9328.9269    876.03082    1628.7249    1573.5475   -979.16523    788.45378    331.37384   -3877.6442 
12801000    190.22969   -4360.8925   -4034.8454   -4360.8925            0    2472.1546     17.92533    23.582273    21.864165    9242.4205    1797.8993    2928.1504    2690.4142    249.09234    350.42518    14.291798   -3701.6206 
12802000    188.25052   -4383.0116   -4060.3567   -4383.0116            0    2124.1406     18.06805    23.144116    22.117154    9248.7092     1954.938    1665.0257    2752.4582   -571.80854    445.27723   -505.58464   -3773.8464 
12803000     191.6072   -4399.8922    -4071.484   -4399.8922            0    2187.7986    17.931698    23.628664    21.890729    9275.1471    1274.6304    1943.2309    3345.5345    4.1071747    -324.0564    189.96235   -3775.5438 
12804000     196.7051   -4375.8766   -4038.7308   -4375.8766            0    2165.8741    17.969145    23.286547    22.144595      9266.17    2514.6485    2482.4886    1500.4853   -854.73953   -849.35532   -632.65357   -3746.0398 
12805000    186.43661   -4375.7988   -4056.2529   -4375.7988            0    1680.2507    18.082955    23.443791    21.910905    9288.7562    2119.0025    1673.9381    1247.8116    1.6158793     323.8807    400.57535   -3828.6344 
12806000    192.62588   -4359.2782    -4029.124   -4359.2782            0    2460.1477    18.018554    23.454166    21.990355    9293.3473    2588.8132    2968.2441    1823.3859   -128.18876    291.00017   -57.952241   -3695.6905 
12807000    197.51865   -4395.7343   -4057.1941   -4395.7343            0    2571.6453    18.053818    23.255399    22.111083    9283.3106    2637.5271     4107.885    969.52381     1287.145    357.08367    52.001015   -3709.0253 
12808000    189.14298   -4380.2763   -4056.0917   -4380.2763            0    2033.4336    17.988923    23.549188     21.88663    9271.7132    1847.7774    1767.0785    2485.4448   -674.45756   -184.43414   -78.203792    -3781.134 
12809000     191.5222   -4385.1555    -4056.893   -4385.1555            0      2218.24    17.986782     23.39681    22.044548    9277.0804     1457.469    1835.2276    3362.0234   -721.88012   -170.34894    540.71831   -3756.7724 
12810000    177.78393   -4387.7007   -4082.9851   -4387.7007            0    1388.9357    18.195735    23.367853     21.90095    9312.1803    951.51871    1140.9884       2074.3    223.47036    507.57248    2.1635176   -3894.3557 
12811000    188.76901   -4379.7979   -4056.2542   -4379.7979            0    1322.7779    17.888458    23.381064     22.29873      9326.47    2216.2851    1890.6292   -138.58058    473.77896    378.23546    45.348161    -3876.334 
12812000    182.56321   -4358.8871     -4045.98   -4358.8871            0    1406.8709    18.119852    23.433398    21.942302    9316.9147    649.81253    1593.0078    1977.7923   -26.146839    919.49351    216.95071   -3854.8177 
12813000    204.11362   -4377.2277   -4027.3839   -4377.2277            0    2916.7875    17.912723    23.314099    22.108558    9232.9538    3215.6883     2223.172    3311.5021   -118.48894   -519.35642    920.39752   -3634.6292 
12814000    193.82832   -4387.7311    -4055.516   -4387.7311            0    2392.2518    18.083301    23.446335    21.803572    9244.4339    1382.7984    2900.6923    2893.2647    326.60215     95.95765    86.105172   -3732.9912 
12815000    180.11226   -4387.9377   -4079.2314   -4387.9377            0    1220.3513     17.97165    23.344749    21.997135    9228.7585    569.29541    2329.4877    762.27078    633.92515    1261.1385    523.86892   -3914.9819 
12816000    190.09781   -4361.1122   -4035.2911   -4361.1122            0    2337.0469    18.053927    23.546572    21.849322    9288.3237    2388.1501    2929.3979    1693.5928   -645.86966   -54.059247    -27.43977   -3718.7131 
12817000     187.1233   -4402.2888   -4081.5659   -4402.2888            0      3265.71    17.927233    23.160832      22.1261    9186.9701    5271.6122    2263.0118     2262.506    783.17999    -359.1707    517.12316   -3644.0178 
12818000     185.0534   -4374.6899   -4057.5147   -4374.6899            0     3055.938    17.950171    23.439964    21.823183     9182.134    2788.8524    2814.0949    3564.8666   -906.91491     -142.769    305.81383   -3648.2879 
12819000    186.88905   -4410.3848   -4090.0633   -4410.3848            0    1892.9943    17.921231    23.370479    22.077834      9246.81    3150.4144    1948.8031    579.76551    115.93715   -455.29921   -81.107115   -3834.7831 
12820000    193.81794   -4384.7739   -4052.5766   -4384.7739            0    2224.2427    18.145418    23.290529    21.857088    9237.1634     1525.355    1208.2802     3939.093    802.06364    -776.0541    2.4988032   -3752.9387 
12821000    185.91775    -4383.857   -4065.2003    -4383.857            0    1369.7399    17.852948    23.514179    22.087036    9272.0809    1674.2767   -269.33589     2704.279    465.53724    450.41916   -123.55166   -3879.9789 
12822000    204.11436   -4356.3679   -4006.5229   -4356.3679            0    2537.5194    17.939061    23.350722    21.922383    9183.0675    1778.8688    2479.8701    3353.8194   -530.20233   -104.67788   -14.904829    -3666.684 
12823000    184.48145   -4397.5913   -4081.3964   -4397.5913            0    2277.2543     17.95439     23.37274    22.034127    9246.4736    2976.1052    3147.1799    708.47793   -399.18716   -367.95559    142.35639   -3774.3079 
12824000    195.11136    -4395.105   -4060.6908    -4395.105            0    2644.8901    17.820619     23.50566    22.015137    9221.8198    3779.2872    2998.8496    1156.5335    129.64364    211.44034   -207.97619   -3704.9774 
12825000    197.67913    -4401.026   -4062.2108    -4401.026            0    1730.2187     18.13109    23.452341    21.827777    9281.5315    1720.5829    1883.8986    1586.1745    833.67624    445.72514     296.3693   -3828.0056 
12826000    189.13082    -4389.609   -4065.4452    -4389.609            0    1404.3184    17.957157    23.158499    22.332007    9287.0064    1019.6997    1668.4633    1524.7922   -805.84484    63.305435   -555.58421   -3875.2423 
12827000    181.44336    -4382.688   -4071.7003    -4382.688            0    1865.0446    18.021154    23.511451    21.826377    9247.9117    1116.7878    1781.7114    2696.6345    114.91434    -970.8087     425.0345   -3820.1593 
12828000    204.09215   -4374.6593   -4024.8523   -4374.6593            0    2409.7182     18.01099    23.093629    22.302575    9276.5134    2841.4531    3000.7115      1386.99     765.8529    635.79413   -75.565589   -3698.8453 
12829000    191.85122   -4390.7568   -4061.9304   -4390.7568            0    714.26832    18.087993    23.468732    21.906489    9299.3542    1747.8734   -212.83601    607.76762    97.360214   -130.94741    714.19377   -3965.0602 
12830000    200.65853   -4371.4614   -4027.5395   -4371.4614            0    2249.5366    17.865442    23.357703    22.240078    9280.6885     1916.131    4067.8921    764.58675    889.54908   -429.79558    701.91129   -3723.0662 
12831000    190.01256   -4381.4723   -4055.7973   -4381.4723            0    2561.1502    18.045899    23.404318    21.869466    9236.6116    3424.7598    2107.2601    2151.4307   -760.31047    294.93171    216.42843   -3710.7937 
12832000    188.66013   -4398.2931   -4074.9361   -4398.2931            0    1255.0686    17.943782    23.471594    22.147337    9327.7756    1042.7914    1633.3361    1089.0783    708.65365   -512.73129    999.27169   -3904.2015 
12833000    185.31911   -4396.2105   -4078.5799   -4396.2105            0    1428.0541    18.016653    23.473009    22.047139    9323.8468    2408.5536    965.96167    909.64705    480.20032    45.242775   -9.2589155   -3884.3949 
12834000    197.63046   -4367.1648    -4028.433   -4367.1648            0     2524.326    18.001219    23.160949    22.218348    9263.3915    2565.5645    3662.6486    1344.7647   -839.15473     102.9715    562.41758    -3687.404 
12835000    194.15239   -4390.0859   -4057.3154   -4390.0859            0    2196.8831    17.962374    23.666335    21.707142    9227.7834    1804.7763     592.0122    4193.8609   -168.55528   -101.10745      252.403   -3761.6638 
12836000    195.03747   -4390.4062   -4056.1187   -4390.4062            0     2268.471    17.963561    23.276355    22.106456    9243.2887    2634.9822    2750.1296    1420.3011   -212.67468    -386.5977    316.69452     -3750.32 
12837000    195.12213   -4403.5318   -4069.0991   -4403.5318            0    2893.5446    18.105971    23.288286    21.844125    9210.7289    2329.5207    4272.0436    2079.0696   -226.53475    521.33078    6.6908205   -3680.4121 
12838000    201.32395   -4382.1614    -4037.099   -4382.1614            0    2505.9733    17.944568    23.401715    22.014321    9244.5544     2315.265     2668.842    2533.8128    283.73809    335.91167    652.55734   -3699.2378 
12839000      187.585   -4405.9842     -4084.47   -4405.9842            0    1240.9616    17.901083      23.4957    22.129274    9307.5394    690.77412    1176.3762    1855.7344    500.03551   -439.21683    -779.0884   -3916.0207 
12840000    189.44404   -4377.6288   -4052.9282   -4377.6288            0    1884.5835    18.127117    23.320362    21.941958    9275.5441    1804.4815    582.46256    3266.8064    -5.713593   -1282.9999    -102.6596   -3797.9925 
12841000    188.79942   -4404.1659   -4080.5701   -4404.1659            0    1371.6937    17.770207    23.574483    22.192398    9296.9161    2487.1786    1769.8658   -141.96329   -1525.0391   -412.30871    439.36001   -3894.5877 
12842000     184.9745   -4362.6791   -4045.6391   -4362.6791            0    1870.7288    18.046951    23.511052    21.921789    9301.4765    391.94831     1398.306     3821.932   -794.31125     188.3363    -271.0397   -3791.8701 
12843000    182.33479   -4389.5333   -4077.0177   -4389.5333            0     1080.951    18.066143    23.204244    22.261726    9332.3646    967.64573    1706.4363    568.77109   -133.52779   -289.04609   -64.050645    -3929.897 
12844000    193.79305    -4390.559   -4058.4043    -4390.559            0    1489.5388    17.979053    23.498775    21.893254    9249.5873    1457.6996    1584.2955    1426.6214    933.36296   -819.66434    326.20888   -3857.4719 
12845000    181.53036   -4390.2037   -4079.0669   -4390.2037            0   -57.821197    18.136746    23.420507    22.033719    9359.3022    262.48296   -301.09496   -134.85159    77.968211   -44.255502    752.96811   -4086.9592 
12846000    200.58333   -4384.5283   -4040.7353   -4384.5283            0    1755.7851    17.952109    23.344986    22.118571    9269.7102    1352.3983    2972.4723    942.48463    780.73893   -443.04658    416.41561   -3803.3721 
12847000    191.08533   -4382.2058    -4054.692   -4382.2058            0    891.91646    18.042302    23.670739    21.802773    9311.4111    14.433223    282.06256    2379.2536    124.43675   -650.66776    107.95203   -3933.5721 
12848000     182.8697   -4401.8995   -4088.4671   -4401.8995            0    2104.5391    17.995002    23.192166    22.184789     9258.668    3179.4159    1779.0759    1355.1256     155.7853   -159.25262     282.9222    -3804.295 
12849000    196.13785   -4390.2185   -4054.0449   -4390.2185            0    2233.5665    18.067137     23.32181    21.984244    9263.2445    1828.7102    2509.5112    2362.4782   -557.13249   -619.08773   -398.29443   -3752.3014 
12850000    181.87811   -4386.4573   -4074.7244   -4386.4573            0    763.33966    17.991058    23.586345    22.079866    9369.4428    480.28802    480.73923    1328.9917    1133.6326    102.13745    91.127563   -3970.4189 
12851000    180.07692   -4390.8381   -4082.1924   -4390.8381            0     3090.214    18.079401    23.219702    22.004359    9237.3927    2610.7384    3616.1985    3043.7049    641.07441    347.53959   -552.20617   -3665.8853 
12852000    201.65291   -4387.9602    -4042.334   -4387.9602            0    2439.1546    17.963101    23.364441    21.940328    9208.3075    3005.1996    3340.5473    971.71696   -107.05592   -172.72169   -57.072908   -3714.7708 
12853000    195.13754   -4377.9726   -4043.5135   -4377.9726            0    1842.7354    17.887242    23.393717    22.088265    9242.8142    2737.1489    1414.4229    1376.6344   -201.64997     326.1938    282.79549   -3795.1184 
12854000    189.75756   -4386.3416   -4061.1036   -4386.3416            0    2380.1416    18.071417    23.319418     21.96205    9255.1355    1951.4468    1699.5964    3489.3814   -192.29404   -42.096396    395.89784     -3739.84 
12855000    193.42338   -4378.4947   -4046.9737   -4378.4947            0     2721.156    17.825206    23.573309    22.042531    9262.2513    2636.9944    1198.8723    4327.6012    853.14605    632.50599   -479.24672   -3679.3987 
12856000    176.62752   -4378.7668   -4076.0333   -4378.7668            0    1011.9007    18.082636    23.356512    21.961149    9275.2321    1154.8923    1610.5534    270.25625   -132.43224    692.48807   -96.432042   -3939.1537 
12857000    187.68649   -4396.8562    -4075.168   -4396.8562            0    2264.7974    18.048022    23.236989    22.038804    9242.6711    2750.9683    1301.2893    2742.1347   -167.74825   -597.13937    406.65994   -3769.8849 
12858000    184.28707   -4375.8319   -4059.9701   -4375.8319            0     2299.072    17.828376    23.651751    21.983419    9269.7991    4017.6476    1681.6072    1197.9612     125.4561    392.53637    48.164323   -3749.1574 
12859000    191.01398   -4394.0657   -4066.6743   -4394.0657            0    2235.3905    18.058408    23.336733    21.934508    9243.7334    2658.5564    2351.6107    1696.0044   -113.61711    94.834235    550.51427   -3765.3204 
12860000    189.08767   -4388.7837   -4064.6939   -4388.7837            0    1547.5907    17.966714    23.393854    22.048734    9267.3182    2147.7061    1423.4935    1071.5726   -340.36571    565.30031   -398.19383   -3855.5303 
12861000    196.98299   -4389.5492   -4051.9271   -4389.5492            0    2740.5028    17.832655    23.540091    21.960241    9218.5211    3360.7313    2247.5052     2613.272   -220.66455     116.4668   -412.38201   -3683.4866 
12862000    191.03589   -4382.6236   -4055.1947   -4382.6236            0    456.32787    18.089724    23.225603    22.214629    9333.3597    549.51829    1262.9536   -443.48831   0.77636134   -393.21533     187.9891   -3993.0805 
12863000    180.11839   -4373.1256   -4064.4088   -4373.1256            0      758.781    18.110248    23.513713    21.858227    9308.0897    266.79541    888.23172    1121.3159   -162.22147   -156.20423    -109.3069   -3961.4051 
12864000    194.49662   -4362.3925   -4029.0319   -4362.3925            0     2987.872     17.94013    23.426013    21.974263    9235.0294    2317.5302    3324.2401    3321.8456    530.54732    326.67213    -158.2765   -3626.6151 
12865000     201.1413   -4380.6848   -4035.9355   -4380.6848            0    3218.3553    18.149269    23.143165    21.902968    9199.9372    2312.6688     4488.478    2853.9192    722.85092    274.67729   -306.51912   -3604.1235 
12866000    185.73302   -4385.1614   -4066.8214   -4385.1614            0    837.81034    17.954912    23.718624    21.891596    9322.8826    582.46807   -15.054308    1946.0173    619.88754    359.84332   -31.964711   -3952.9088 
12867000    177.21587   -4387.2659    -4083.524   -4387.2659            0    1883.2757    18.031944    23.191892     22.18764    9278.7576    1962.4504    2303.0357    1384.3409   -15.734089   -41.377392    226.42979   -3828.6769 
12868000     185.1905   -4389.1245   -4071.7143   -4389.1245            0    1976.3298    18.032652    23.382082      21.8939    9231.3644     2672.631    1457.7342     1798.624    420.20672    308.20332   -43.592531    -3805.641 
12869000    191.41242   -4376.2462   -4048.1719   -4376.2462            0    2143.0261    17.855251    23.424722    22.052161    9223.4111    1563.0211    2746.4609    2119.5961   -727.02761    719.57191    171.69307   -3759.9049 
12870000    186.28113   -4390.8832   -4071.6037   -4390.8832            0    1582.9373    18.219482    23.214885    21.944534    9281.7299     1341.203    1702.7074    1704.9014    707.62011   -190.11078   -229.79278   -3857.3302 
12871000    181.05675   -4379.4161    -4069.091   -4379.4161            0    1100.5653    17.929216    23.457752     22.06489     9280.032    936.77938    888.79158     1476.125    -103.4371   -84.995617   -45.583803   -3920.1407 
12872000    194.93764   -4370.1528   -4036.0364   -4370.1528            0    2133.4872    17.844089    23.469906    21.948716    9192.1024    2858.9591    1758.2687    1783.2337   -533.73786   -812.55836    217.74639   -3750.0267 
12873000    186.21993   -4408.0745   -4088.8999   -4408.0745            0    877.79811    18.156558     23.26983    22.003859    9296.6307    1024.8252    450.54586    1158.0232    1121.3008    -550.4995   -326.90075   -3969.8864 
12874000    190.28677   -4367.7887   -4041.6437   -4367.7887            0     2074.599    17.760337    23.642355    21.970027    9225.1312    2943.9748    1385.7266    1894.0957    1289.1941    545.72979   -36.911725    -3762.529 
12875000    200.99504   -4376.1168   -4031.6182   -4376.1168            0    1094.2359    18.150852    23.219037    22.044158    9290.4069    1143.7204    1818.1054    320.88187    672.27387   -373.64357   -379.63737    -3883.359 
12876000    189.61187   -4379.9276   -4054.9394   -4379.9276            0    2969.7782    18.048534     23.22943    22.076836    9255.8714    3706.9084    3341.3075    1861.1188   -925.73353    468.07241    399.98913   -3654.0568 
12877000    197.36739    -4392.411     -4054.13    -4392.411            0    2216.9646    17.953678    23.534652    21.866115    9239.1672    1823.5913    2544.0691    2283.2336    227.71366    279.92092   -1456.2426   -3755.4079 
12878000    182.95138   -4368.5502   -4054.9778   -4368.5502            0    1976.4886     17.87559    23.293023    22.097196    9200.7537    1468.9633    2977.2692    1483.2332    1228.7936   -353.48559    470.95538   -3789.7655 
12879000    193.71589   -4376.0037   -4043.9813   -4376.0037            0    886.78654    18.175878    23.487101    21.858769    9331.4796    328.77047     517.5022     1814.087    49.554827   -351.50876   -60.503139   -3923.2985 
12880000    183.57976   -4392.0017   -4077.3523   -4392.0017            0    1927.8937    17.974667    23.320395     22.04879     9242.331    1031.5362    386.83742    4365.3075    -1205.226    239.86723    342.83074   -3817.4916 
12881000    185.14945   -4399.0739   -4081.7341   -4399.0739            0    2100.8199    18.016299    23.392254    21.984847    9265.3342    2045.3122    1710.2816    2546.8658   -329.44147    283.17349   -56.847961     -3797.86 
12882000     202.3801    -4384.273   -4037.4004    -4384.273            0    1121.0106    17.918619    23.419249    22.181299     9308.174     1847.117    230.06202     1285.853    -682.6786   -279.17573    431.06597    -3885.223 
12883000    178.41108   -4375.1489   -4069.3585   -4375.1489            0    2122.5308    18.145365    23.290182    21.911778    9260.1116    2208.6362      2233.21    1925.7461   -400.26445   -378.99165    362.50167   -3782.7123 
12884000    177.90751   -4386.0806   -4081.1533   -4386.0806            0    1915.5319    18.000181    23.436173    21.948583    9259.1274    2359.1702    2364.2402    1023.1854   -250.74593   -90.623104   -685.12992   -3822.4897 
12885000    176.98033   -4392.1336   -4088.7953   -4392.1336            0    2169.8714    17.857099    23.393277    22.136689    9247.2928    1761.4371    2811.5861    1936.5909    1211.9343     234.0139    411.54535   -3796.1615 
12886000    184.87719   -4376.2203   -4059.3471   -4376.2203            0    1548.4895    18.138975    23.609359    21.702775    9294.2045    113.52938    1632.1696    2899.7695     142.0413   -279.62223    1121.6203   -3849.4549 
12887000    178.04945   -4381.0679   -4075.8972   -4381.0679            0    658.18817    18.030468    23.348699    22.134992    9318.5654   -670.43941    1534.7365    1110.2674   -222.13662    170.04547   -19.151366   -3986.4483 
12888000    193.14974    -4391.167   -4060.1149    -4391.167            0    446.57186    18.184231    23.589506    21.772138    9339.3114   -981.64824   -291.15109    2612.5149    43.642062    169.92799    115.61663   -3999.2899 
12889000     178.1415   -4404.1304   -4098.8019   -4404.1304            0    1786.3897    18.025333    23.280327    22.084679    9267.5187    2055.4026    2041.5881    1262.1785   -75.550335    290.76114   -770.83645   -3857.3584 
12890000     180.3267   -4372.3309   -4063.2571   -4372.3309            0     1217.577    17.872371    23.594113    22.188023    9356.3068    1620.2375     929.5524    1102.9412   -15.709208    20.532744   -695.12919   -3897.1161 
12891000    179.14485   -4386.1482      -4079.1   -4386.1482            0    1605.6497    18.212969    23.298345    21.845947    9269.9353    442.55742    1383.9874    2990.4044   -2044.2426   -546.44212    128.78175   -3862.0283 
12892000    190.47184   -4397.9404   -4071.4782   -4397.9404            0    3140.6796    17.976772    23.278913    21.962658    9190.9268    4222.0753    1773.3895     3426.574   -135.49768   -527.12116    30.841512   -3650.5007 
12893000     183.5774   -4385.6924    -4071.047   -4385.6924            0     3255.434    17.872687      23.5018    21.928976     9211.054    2819.6062    2231.7261    4714.9697   -542.83023    218.38901   -14.461261   -3633.7323 
12894000    185.26641   -4379.6773    -4062.137   -4379.6773            0    3183.2348    17.957019    23.340835    21.982882    9213.7254    2631.3469    3122.2508    3796.1069   -225.10518   -182.74226   -603.94516    -3634.397 
12895000    192.96111   -4372.4825   -4041.7538   -4372.4825            0    2551.7972    18.054297    23.382815     22.02246    9297.0081     3590.666    2788.0919    1276.6336   -82.955542   -595.09211   -551.08629   -3695.7624 
12896000    181.93267   -4384.5073   -4072.6809   -4384.5073            0    1290.0429    17.791738    23.666229    22.050284    9284.5662    2967.3853    719.68401    183.05943   -439.29879    820.74322    576.78738   -3898.0015 
12897000     181.9421   -4399.3102   -4087.4676   -4399.3102            0     243.7071    18.181538    23.345229    22.027229    9349.5053    392.51658    273.51268    65.092041   -811.69675    331.61688    287.68557   -4054.2375 
12898000    176.79726   -4388.9491   -4085.9247   -4388.9491            0    2721.4039    17.955167    23.510514    21.884031    9238.0201    3355.6828    2870.6263    1937.9025    734.76336    62.023221    872.53956    -3719.278 
12899000    196.34059   -4364.4135   -4027.8924   -4364.4135            0    2846.5274     18.13707    23.211529    21.938492     9235.866    2579.8668    2895.1487    3064.5665    574.05443    435.57529   -187.26239   -3644.4776 
12900000    187.10155   -4389.4237    -4068.738   -4389.4237            0    588.87826     17.95128      23.3291    22.180384    9288.8613    352.65823    1104.8645    309.11204    245.75899   -365.02006    210.14208   -3988.9635 
12901000    187.39818   -4362.8547   -4041.6606   -4362.8547            0    1956.3731    17.946964    23.493877    21.923165    9243.7657     2392.677    1448.1658    2028.2764    236.73313   -109.33333    101.52273   -3777.9204 
12902000    185.52217   -4399.5874   -4081.6088   -4399.5874            0    1353.5847    18.273947     22.94419    22.123728    9276.0569    1670.3287    1060.2716    1330.1539    124.32111     177.4032    15.283294   -3898.4934 
12903000     190.0057   -4382.6251   -4056.9618   -4382.6251            0    1129.9582    17.920031    23.619549    21.973257    9300.4676    1646.9733    86.672795    1656.2286    430.57195    269.56957    231.84464   -3903.6968 
12904000    187.89761   -4402.5906   -4080.5406   -4402.5906            0    1546.6732    17.953721    23.425559    22.049029    9273.2916    2248.0891    478.93588    1912.9946    907.32454    269.20287    847.10703   -3871.3662 
12905000    186.24808    -4384.246   -4065.0231    -4384.246            0    2157.9753    18.044538     23.23428    22.110437    9269.8411    2673.9079    2130.3468    1669.6712   -184.79669   -766.20545    149.72115    -3773.284 
12906000    176.88445   -4397.0609   -4093.8871   -4397.0609            0    1865.2906    18.013653    23.409579    21.878975    9226.1896    1185.4226    2268.5927    2141.8565   -138.05734    394.86005    404.43034   -3842.9038 
12907000    179.90073   -4380.5148   -4072.1712   -4380.5148            0    2359.9277    17.833535     23.53639    22.042743    9252.1559     4256.298    2178.2842    645.20101   -1136.3904    133.36643    136.10988   -3753.7385 
12908000    185.36699   -4394.2777   -4076.5651   -4394.2777            0    2914.8673    18.129517    23.172321    21.996792     9240.918    2726.4181    4280.3663    1737.8176   -603.41215    604.27023   -860.53775   -3683.7304 
12909000    194.19493   -4397.4784    -4064.635   -4397.4784            0    1214.5945    18.013443    23.380603    22.049566    9286.5091    876.57477    2715.3495    51.859327   -560.56905   -438.52208    153.49061   -3900.1373 
12910000    198.97126   -4382.2255   -4041.1956   -4382.2255            0    2118.8889     17.96376    23.589074    21.832605    9251.5326    2601.6929    1385.7805    2369.1934   -254.39043    369.36089   -713.93074   -3755.3063 
12911000    181.18731   -4398.3825   -4087.8337   -4398.3825            0    1162.0159     18.19266    23.239814    22.104998    9345.8609    796.57773    1703.9356    985.53428   -1201.4371   -692.95975    467.41232   -3929.4512 
12912000    186.60655   -4391.4456   -4071.6084   -4391.4456            0    1938.8354    17.933382    23.535183    21.968397    9272.1009    2307.5118    2355.9028    1153.0915    9.9643712    557.73619    357.38686   -3809.4312 
12913000    190.59597   -4387.9329   -4061.2579   -4387.9329            0     2694.055    17.983586    23.347919    22.043759    9255.7182    2487.9034    767.74392    4826.5176   -262.56201    271.37286    370.40036   -3697.6005 
12914000    182.76732   -4383.1576   -4069.9007   -4383.1576            0    2498.6318    18.143391    23.442236    21.779148     9263.143     2593.857    2397.5166    2504.5217   -1306.0837   -707.65492    -521.7275   -3732.3519 
12915000    180.81056   -4375.0787   -4065.1756   -4375.0787            0    1922.0887    17.883497    23.502435     22.06564    9274.3152     2411.568    2529.6619    825.03615    35.319451    189.47539    300.51068   -3805.2008 
12916000    194.61378    -4381.103   -4047.5417    -4381.103            0    1157.9019    18.395629    23.125059    21.921492    9325.4031   -773.25432    2101.9374    2145.0227    766.43944    154.51334    28.687383   -3890.0654 
12917000    181.45959   -4394.9425   -4083.9269   -4394.9425            0    1445.8221    17.899729    23.473918     22.13053    9298.7345    1970.4534    1160.4664    1206.5464   -278.09649   -231.10371    250.04332   -3887.8554 
12918000    189.65904   -4359.9407   -4034.8716   -4359.9407            0    1219.8036    17.985382    23.516924    21.991408     9301.505    460.11317    1493.4319    1705.8657    406.71027   -274.26419    80.003811   -3869.4017 
12919000    194.55746   -4371.5555   -4038.0907   -4371.5555            0    2781.4488    18.110755    23.241668    21.938608    9234.4899    1867.3777    2772.9017     3704.067    666.69916    109.59289   -906.33569   -3663.4975 
12920000    191.99871   -4390.0454   -4060.9662   -4390.0454            0    2239.4089    17.862086    23.542696    21.923615    9219.3547    2098.6235    2189.6934    2429.9098   -121.04848   -173.58221   -424.08896   -3759.8668 
12921000    195.06903   -4400.9322   -4066.5906   -4400.9322            0    555.10432    18.068845    23.277059    22.128056    9306.8297     703.3959   -359.82227    1321.7393   -192.04154   -25.297479    653.24621    -3991.246 
12922000    191.93207   -4393.2475   -4064.2825   -4393.2475            0    3160.7571    18.094248     23.27324    21.912659    9227.6787    2927.2303    3091.7487    3463.2923    1062.1412    427.70037     376.4399   -3638.9198 
12923000    184.84116   -4387.5621   -4070.7507   -4387.5621            0     985.7574    17.995462    23.416382    22.131931     9326.144    722.21473    828.68513    1406.3723    291.98159   -695.28182   -19.745179   -3936.6756 
12924000    188.13448   -4402.1321    -4079.676   -4402.1321            0    905.51132     18.03813    23.406307    22.027126    9299.9854    876.18766    1549.1673    291.17898   -1108.3996    581.81344    -492.9992   -3956.8609 
12925000    198.55085   -4390.8328   -4050.5234   -4390.8328            0    1825.8677    17.992882     23.50479    21.874575    9251.1719    1372.5409    2204.0557    1901.0065    135.00658    483.09054   -505.34454   -3804.1795 
12926000    185.66338   -4393.5916   -4075.3709   -4393.5916            0    576.68619    18.067599    23.377417    22.104984    9336.5659   -242.82904    1154.3028    818.58477     1318.215    6.3905458   -355.97267   -3996.8469 
12927000    186.28821    -4360.853   -4041.5614    -4360.853            0    1017.4847    18.059806    23.584103    21.901011    9328.1735    1156.1284   -65.674345    1962.0001     514.7397   -425.12436   -292.05554   -3903.1409 
12928000     191.3722   -4373.1628   -4045.1574   -4373.1628            0    973.95505    17.985046    23.466653    22.078961    9318.4001    2011.0353    131.92328    778.90658   -858.65212   -8.3200346   -182.53235   -3912.7976 
12929000    180.57883   -4371.7589    -4062.253   -4371.7589            0    1049.8617    18.274685    23.198299    21.964766     9311.778    848.26266     1822.557    478.76543   -52.137186   -681.80209    169.40236   -3919.6789 
12930000    182.90046   -4379.9373   -4066.4522   -4379.9373            0    1783.2513    17.879583    23.535372       22.014    9263.5494     2469.914    1687.1799      1192.66    462.93478    744.36307    362.50293   -3825.5361 
12931000    187.78158   -4378.7237   -4056.8725   -4378.7237            0    2054.8073    18.030636     23.46046    21.902147     9264.762    1982.5673    2329.5792    1852.2754   -162.51147   -135.55238    634.28963    -3779.233 
12932000    194.91832   -4368.0311   -4033.9478   -4368.0311            0    2141.8107    18.127869    23.274604    22.014743    9288.4375    1598.9592    3927.7117    898.76128   -300.18978    468.10686    28.654893   -3743.8131 
12933000    185.59149   -4391.4659   -4073.3684   -4391.4659            0      1804.24    17.792418    23.786527    21.949895    9289.6307     1614.343    2299.3608    1499.0162   -508.48836   -386.60279    1322.5558   -3828.9304 
12934000    189.20681   -4401.9716   -4077.6776   -4401.9716            0    1974.4178    18.106969    23.219008    21.977925    9240.0883    2416.9804    1576.0487    1930.2243   -248.59441   -24.555807    409.97439   -3811.6105 
12935000    199.47804   -4385.2726   -4043.3741   -4385.2726            0    2171.7678    17.905215    23.410753    21.986356    9216.1214     2151.642     2842.321    1521.3405    713.93203   -5.7992434    17.212747   -3751.4718 
12936000    190.53964    -4371.567   -4044.9885    -4371.567            0    679.74156    17.931998    23.639541    21.983746    9319.0023   -256.34287    -485.4839    2781.0515   -258.43469    256.76362    751.26992   -3952.6062 
12937000    181.92452    -4381.948   -4070.1356    -4381.948            0    2254.7379    18.116242    23.213519    22.027781    9263.6007    1860.0538    2236.3953    2667.7647   -308.77341    142.06653    26.941621   -3765.5203 
12938000    195.60663   -4368.5877   -4033.3247   -4368.5877            0    2873.2243    17.979651    23.576224    21.819234    9249.0052    3840.3562    1299.8184    3479.4984     814.3033   -36.241166    151.21344   -3645.7633 
12939000    184.43196   -4402.2027   -4086.0926   -4402.2027            0     1393.098    17.974037    23.375954    22.094956    9283.4223    704.41694    1901.0315    1573.8455    787.88046   -461.84585     349.5467   -3897.4822 
12940000    204.39546   -4381.5783   -4031.2515   -4381.5783            0    1438.7842    18.038133    23.404804    21.989961    9283.6995    1129.8578    1555.2891    1631.2056    159.93737   -67.777068    381.59742   -3836.4499 
12941000    191.91985   -4382.3772   -4053.4332   -4382.3772            0    630.59505    17.967469    23.546818    22.089726     9345.649     1061.654    823.78629    6.3448333    5.3627394   -182.71818    368.20147   -3967.4852 
12942000    191.54693   -4382.9684   -4054.6635   -4382.9684            0     1291.715    18.024758     23.40856    22.096281    9323.1643    1707.8668    1406.5045    760.77381   -380.70804   -847.60952    -973.6078   -3879.0306 
12943000    200.00446   -4398.7321   -4055.9313   -4398.7321            0    1651.7798    18.033292    23.445879    21.987551    9296.4772    1677.3401    935.84944      2342.15    287.28808   -726.33548   -566.03538   -3831.9837 
12944000    194.10516   -4369.1109   -4036.4213   -4369.1109            0    755.35195    17.980519    23.455021    22.130852    9333.3205    969.42477    35.701318    1260.9298    43.335825    305.66561   -436.65905   -3933.6051 
12945000    188.41833   -4385.9256    -4062.983   -4385.9256            0    2520.7707    18.108045    23.316669    21.819039    9212.4192    2612.4167    2546.6598    2403.2356   -860.64593    77.938904    769.35057   -3724.3082 
12946000    190.13142   -4386.3287   -4060.4499   -4386.3287            0    1208.5771    17.933155    23.270574    22.254379    9287.0822    1888.7142    269.52767    1467.4896   -302.94475   -699.28274   -304.31968   -3896.7571 
12947000    188.50457   -4384.1176   -4061.0272   -4384.1176            0    1730.9141    17.923986    23.579269    21.928961    9267.9352    2389.5146    908.91855    1894.3092    252.25519     105.1479   -185.65765   -3827.0711 
12948000    191.24603   -4383.9965   -4056.2073   -4383.9965            0    1292.9165    18.017195    23.276407    22.209859    9314.2725    1470.9169    2057.5879    350.24464    223.40761   -348.09466   -282.36823   -3880.5787 
12949000    203.45101   -4392.5227   -4043.8146   -4392.5227            0     1402.982    18.038389     23.59373    21.891296    9316.7799    938.21656    1225.7818    2044.9478   -262.54996     -603.869   -540.63001   -3853.1835 
12950000    191.04792   -4387.2422   -4059.7925   -4387.2422            0    2595.6297    18.002678    23.229527    22.098006    9241.2469     1491.573    2556.3981     3738.918   -14.012594    627.88853   -323.26657   -3709.9689 
12951000    188.91749    -4386.376   -4062.5779    -4386.376            0    1760.9496    18.095943      23.4494    21.916888    9300.1905     1967.719    1503.3248    1811.8051   -254.08989    695.96383    292.67564   -3823.7337 
12952000    190.41895   -4380.5968   -4054.2252   -4380.5968            0    1116.5386    17.982256    23.443929     22.10992    9320.9832    1356.2583    323.33261    1670.0248   -606.19753    399.68075   -290.38448   -3902.4463 
12953000    181.45061   -4384.6767   -4073.6766   -4384.6767            0    2558.9232    17.986137    23.327443    22.043348    9248.7402    2860.6843    3225.7129    1590.3723    381.06585    726.54357    -471.0112   -3728.5204 
12954000    183.98244    -4392.408   -4077.0684    -4392.408            0    1501.7205    18.157314    23.449778    21.835426    9297.1965   -64.983769    1605.0635    2965.0817   -655.65678   -857.64917    543.14916     -3873.45 
12955000    187.20509   -4400.4764   -4079.6133   -4400.4764            0    1500.2317    18.100121    23.069867    22.262264    9295.9955    1209.7345    3033.8257    257.13483   -322.71171    434.22133    -441.6871    -3876.223 
12956000    185.39689   -4391.4495   -4073.6856   -4391.4495            0    1990.5441    17.889171    23.561989    21.866386     9216.779    2080.0281    1108.5714    2783.0327    137.90896   -211.81379    217.39174   -3806.1221 
12957000    190.09152   -4390.3998   -4064.5894   -4390.3998            0    1243.3683    18.052415    23.266234    22.112212    9287.3883    565.43908    2334.1978    830.46809     697.8094    924.07666    362.23517   -3896.1789 
12958000    189.21222   -4374.1044   -4049.8011   -4374.1044            0    1634.3718    18.023569    23.583842    21.837144    9282.2059    1692.7961    1281.0211    1929.2981    904.60088   -402.98248    99.465603   -3828.5538 
12959000    188.97194   -4388.7236   -4064.8322   -4388.7236            0    2285.4884    17.849661    23.456474    22.153052    9275.2643    2500.2026    1709.7115     2646.551   -6.9485406   -870.91527    132.43735   -3755.6737 
12960000    201.92337   -4382.5695   -4036.4797   -4382.5695            0    1353.3448    18.086787    23.367764    21.991327    9294.5853   -439.93092    2285.7741    2214.1913    397.07012    299.63947    436.79808   -3853.0312 
12961000    183.95399   -4385.5252   -4070.2344   -4385.5252            0    176.46849    17.957403     23.54347     22.16786    9372.1184    1746.1107    294.21929   -1510.9245   -289.35615   -544.38766   -171.46123   -4046.1142 
12962000    196.53908   -4396.2365   -4059.3752   -4396.2365            0    719.39209    18.025727    23.491751    22.011526    9320.9107     208.4513    790.39484    1159.3301   -35.119023   -457.63498    261.38292    -3961.584 
12963000    188.98679    -4373.952   -4050.0351    -4373.952            0    820.99976    18.267993    23.179077    22.103705    9359.4873   -590.05712    1721.0664      1331.99   -311.08677   -118.54108    -171.6755   -3937.9698 
12964000     196.2341   -4406.7638   -4070.4253   -4406.7638            0    1323.8076    18.001318    23.594398     21.91433     9307.679      2468.71   -177.32475    1680.0376   -426.47961   -485.53741    306.49993   -3890.7278 
12965000    180.91715   -4411.4567   -4101.3709   -4411.4567            0    1244.6549    17.992884    23.148393    22.311573     9292.912    1250.0309    2535.0868   -51.153132   -190.29849    100.22528    300.48996   -3932.6858 
12966000    190.42692   -4401.2957   -4074.9105   -4401.2957            0    986.66237    18.145825     23.53542    21.724155    9277.7264    1008.0383    971.47851    980.47033    233.23862    495.07775    253.13553    -3941.409 
12967000    195.56944   -4415.7853    -4080.586   -4415.7853            0    1851.1837    17.943743    23.346023    22.165801    9285.5872    2390.6284    1575.6374    1587.2852   -701.50518   -478.83004    125.42028   -3829.8972 
12968000    192.51896    -4383.931   -4053.9601    -4383.931            0    1758.5886    18.062986    23.515515    21.836384    9275.2315    1574.5366     760.0021    2941.2272    301.63274    56.078955   -283.13216   -3816.0763 
12969000    198.08576   -4384.8821   -4045.3698   -4384.8821            0    1379.3603    17.813559    23.627955    22.067677    9288.2406    1537.3643    838.98593    1761.7306   -798.58853    176.32428    142.59658   -3858.5225 
12970000    184.65713   -4397.5704   -4081.0744   -4397.5704            0     1559.036    18.079632    23.400179    22.003475    9308.9357    857.69454    499.65721    3319.7564    888.06731    173.55137   -434.35981   -3869.4177 
12971000    186.76349   -4383.7064   -4063.6001   -4383.7064            0    1730.5266    18.046092    23.493484    21.883296    9277.7643    925.56618    1976.0456     2289.968   -6.0295452   -83.389934    362.83633   -3829.4483 
12972000    179.69458   -4381.2917   -4073.3013   -4381.2917            0    2787.5092    17.820117    23.435137    22.098977    9228.9061    2494.0876    4302.6627    1565.7774  -0.59333005   -408.34205    205.59231    -3698.119 
12973000     187.7711   -4393.3479   -4071.5146   -4393.3479            0    119.84893    18.211965    23.247413     22.07369    9345.5824   -1209.3155    866.27946    702.58282    116.88708   -557.90267   -786.41373   -4055.1797 
12974000    190.01633   -4384.2048   -4058.5233   -4384.2048            0    2918.1866    17.839051    23.444176    22.018561    9208.6432    2808.5276    2592.6824    3353.3498   -487.22804    711.17028     200.4756   -3666.6149 
12975000    186.19439   -4393.4189   -4074.2881   -4393.4189            0     2093.216     17.93702    23.506848    22.005542    9278.4785    1865.6269    2774.5442    1639.4769   -771.83469    656.02636   -165.29215   -3791.0402 
12976000    188.60702   -4382.6539    -4059.388   -4382.6539            0    1330.0959    18.202676    23.137027     22.02037    9274.0067    932.76667    1941.0915    1116.4296    579.16939     494.5317    777.77679     -3879.49 
12977000    206.77779   -4372.2318   -4017.8217   -4372.2318            0    1165.4835    17.948099    23.496021    22.016168    9284.4145    254.50964    2345.8945    896.04631    15.647811     491.9855   -676.03649    -3860.011 
12978000    193.29124   -4376.9738   -4045.6792   -4376.9738            0    2250.1265    18.104831    23.230637    22.065416    9280.4215    1683.9848     3902.499    1163.8956    420.70069   -232.41023    218.16074   -3741.1349 
12979000    193.67909   -4378.5315   -4046.5722   -4378.5315            0     2215.454    18.046195    23.197241    22.079266     9242.865    2307.2354    3627.4951    711.63139   -855.73507    698.83998    203.37724   -3747.9341 
12980000    191.59565   -4364.7596   -4036.3712   -4364.7596            0    577.73148    18.020059    23.574162    22.064494    9373.1686    1004.0376   -1089.3736    1818.5305   -171.13875   -222.70282   -360.28228   -3957.3964 
12981000    182.88484   -4362.3475   -4048.8892   -4362.3475            0    1117.3649    18.198605    23.386139    21.928479    9332.6533    789.41378    1934.8989    627.78193    -18.03453   -750.05228    46.037164   -3896.8078 
12982000    192.18167   -4383.2381   -4053.8453   -4383.2381            0    2875.3655     18.01851    23.239438    22.064501    9239.2907    2683.0411    4282.7021    1660.3532   -741.56604    398.67448   -359.53144   -3666.4025 
12983000    195.36194   -4410.4903   -4075.6467   -4410.4903            0      1198.14    17.927883    23.518517    22.055744    9299.5225    376.82692    2677.9532    539.63996   -665.84231   -311.29505    32.359279   -3913.1501 
12984000    190.84101   -4375.6779   -4048.5829   -4375.6779            0    1147.8503    18.025976    23.457427    22.050216      9323.78     1448.867    1201.4899    793.19401   -422.18313     151.5124   -457.99984   -3892.5008 
12985000    193.02882   -4408.9545   -4078.1097   -4408.9545            0    1881.4671    18.045601    23.178725    22.146111    9263.1429    1552.3169    2075.9835    2016.1009   -384.16472    210.28432   -542.44664   -3823.9359 
12986000    199.10472   -4409.1772   -4067.9186   -4409.1772            0    1000.4145    18.015986    23.630206    21.893984    9320.7388    863.16182    1596.3744    541.70719   -984.47956   -572.13739   -548.90369   -3931.9288 
12987000    197.76845   -4399.0669   -4060.0985   -4399.0669            0    2446.0696    17.888418     23.25297    22.195423    9232.3824    3382.6582    2630.7202    1324.8305   -613.69501   -262.99109    12.685732   -3730.7479 
12988000    189.33898   -4370.2475   -4045.7269   -4370.2475            0    1560.4142    18.173002    23.416517    21.735059    9249.3201    1503.9811    602.86781    2574.3937    530.24092   -155.04109    -352.9971   -3835.2398 
12989000    187.21929   -4375.5196   -4054.6321   -4375.5196            0    1164.6706    17.979201    23.301846    22.150638    9279.9781    2419.5205    1779.6419   -705.15069   -41.347946   -134.48896    286.23171   -3897.0068 
12990000      181.956   -4369.3374    -4057.471   -4369.3374            0    2897.3131    18.013783    23.301415    21.950826    9213.7854    1916.9438    3356.0455    3418.9499   -754.32263    36.282987    266.32454   -3668.1486 
12991000    186.48727   -4401.4437   -4081.8109   -4401.4437            0    1697.3505    18.051858     23.38419    21.947849    9264.8036    1361.4775    2289.8799    1440.6943   -129.29443    63.616377   -236.61065   -3852.4688 
12992000    200.57655   -4398.3089   -4054.5276   -4398.3089            0    2066.2534    17.858798     23.44147     22.12771     9263.467    2291.6121    2509.7489    1397.3994   -697.48233   -153.50719    479.57002   -3775.3806 
12993000    199.57409   -4384.7978   -4042.7347   -4384.7978            0    1498.1023    18.124091     23.29273    21.982834    9280.2634    304.58869    733.91936    3455.7988    482.17382   -682.88968    590.36248   -3839.9768 
12994000     190.9662   -4377.5305    -4050.221   -4377.5305            0     1810.188     17.88907    23.509726    22.017376    9259.7846    954.98774    2752.4129    1723.1632    -546.2622   -32.401065   -50.608432   -3805.7652 
12995000    199.50667   -4382.4888   -4040.5412   -4382.4888            0    1409.9492    18.127803    23.404775    21.958062    9316.3041    512.94978    1763.0712    1953.8267    1243.4594   -270.08186    243.45471   -3848.9731 
12996000     188.6865   -4388.4359   -4065.0337   -4388.4359            0    1553.4706    18.078241    23.260403    22.096557    9291.7608    1723.8366    422.26113     2514.314   -104.76065   -423.63221    1209.1949   -3854.5217 
12997000    185.31154    -4381.411   -4063.7933    -4381.411            0    2161.7315    17.966673    23.631809    21.827255    9267.5247    2903.7559    2040.0306    1541.4079    861.70339   -38.482501   -340.85722   -3771.6194 
12998000    191.77618     -4371.01   -4042.3122     -4371.01            0    2687.2848    18.118888    22.992229     22.24075    9265.3545    2707.5696    4642.5174    711.76745    544.71197   -143.41412   -192.31484    -3679.191 
12999000    187.92497   -4403.5345   -4081.4375   -4403.5345            0    2458.5921    18.076204    23.423401    21.865581    9258.0222    1234.9015    1983.4251    4157.4498   -957.72843   -131.03833    37.035145   -3749.4814 
13000000     194.8653   -4367.3241   -4033.3317   -4367.3241            0    2390.1097    17.927389    23.311402    22.235363    9292.4382    1666.5839    3189.4287    2314.3165    682.68464    328.51959    470.09941   -3709.4224 
Loop time of 318.181 on 64 procs for 250000 steps with 864 atoms

Performance: 135.772 ns/day, 0.177 hours/ns, 785.716 timesteps/s
195.8% CPU use with 32 MPI tasks x 2 OpenMP threads

MPI task timing breakdown:
Section |  min time  |  avg time  |  max time  |%varavg| %total
---------------------------------------------------------------
Pair    | 16.833     | 24.831     | 35.556     | 108.2 |  7.80
Bond    | 0.94408    | 1.2096     | 1.5555     |  12.4 |  0.38
Kspace  | 155.85     | 168.18     | 178.18     |  45.5 | 52.86
Neigh   | 0.94704    | 1.0156     | 1.1694     |   5.7 |  0.32
Comm    | 46.82      | 50.844     | 54.402     |  23.0 | 15.98
Output  | 0.5682     | 0.56905    | 0.57152    |   0.1 |  0.18
Modify  | 57.59      | 59.284     | 63.27      |  18.2 | 18.63
Other   |            | 12.25      |            |       |  3.85

Nlocal:        27.0000 ave          38 max          17 min
Histogram: 4 6 2 4 1 3 2 3 2 5
Nghost:        2122.94 ave        2230 max        2035 min
Histogram: 12 2 2 0 0 0 0 6 7 3
Neighs:        6534.56 ave        9360 max        4048 min
Histogram: 4 5 2 4 2 4 3 2 3 3

Total # of neighbors = 209106
Ave neighs/atom = 242.02083
Ave special neighs/atom = 2.0000000
Neighbor list builds = 4017
Dangerous builds = 0

unfix		3
unfix		2
unfix		1

write_data	data.final.${pid} nocoeff
write_data	data.final.0 nocoeff
System init for write_data ...
PPPM initialization ...
  extracting TIP4P info from pair style
  using 12-bit tables for long-range coulomb (../kspace.cpp:340)
  G vector (1/distance) = 0.37147606
  grid = 24 27 25
  stencil order = 5
  estimated absolute RMS force accuracy = 0.0031944692
  estimated relative force accuracy = 9.6200491e-06
  using double precision FFTW3
  3d grid and FFT values/proc = 4410 672
Last active /omp style is kspace_style pppm/tip4p/omp

write_restart   restart.lmp.${pid}
write_restart   restart.lmp.0
System init for write_restart ...
PPPM initialization ...
  extracting TIP4P info from pair style
  using 12-bit tables for long-range coulomb (../kspace.cpp:340)
  G vector (1/distance) = 0.37147606
  grid = 24 27 25
  stencil order = 5
  estimated absolute RMS force accuracy = 0.0031944692
  estimated relative force accuracy = 9.6200491e-06
  using double precision FFTW3
  3d grid and FFT values/proc = 4410 672
Last active /omp style is kspace_style pppm/tip4p/omp
Total wall time: 0:05:18
