LAMMPS (30 Jul 2021)
  using 1 OpenMP thread(s) per MPI task
package omp 0
using multi-threaded neighbor list subroutines
echo both

include		in.partitions
variable        pid world 0
include		in.temp
variable        temperature equal 268.83
variable	tempDamp equal 100.0
include		in.pressure
variable        pressure equal 11375.0
variable        pressureDamp equal 1000.0 # This is 1 ps
include		in.seed
variable        seed world 745823

units		real
atom_style	full
read_restart    restart.lmp.${pid}
read_restart    restart.lmp.0
Reading restart file ...
  restart file = 30 Jul 2021, LAMMPS = 30 Jul 2021
  restoring atom style full from restart
  triclinic box = (-3.1067341 -0.18699201 0.013674034) to (14.716733 22.766991 19.216324) with tilt (0.23278205 -6.3849853 0.11836362)
  4 by 4 by 4 MPI processor grid
  restoring pair style lj/cut/tip4p/long/omp from restart
  restoring bond style harmonic/omp from restart
  restoring angle style harmonic/omp from restart
  1008 atoms
  672 bonds
  336 angles
Finding 1-2 1-3 1-4 neighbors ...
  special bond factors lj:    0        0        0       
  special bond factors coul:  0        0        0       
     2 = max # of 1-2 neighbors
     1 = max # of 1-3 neighbors
     1 = max # of 1-4 neighbors
     2 = max # of special neighbors
  special bonds CPU = 0.225 seconds
  read_restart CPU = 0.365 seconds

include 	in.setup
variable	out_freq equal 1000
variable	out_freq2 equal 10000
variable	out_freq3 equal 1000

timestep	2.0

neigh_modify    delay 7 every 1

include		in.tip4p
# This is TIP4P/Ice

# create groups ###
group ox type 2
336 atoms in group ox
group hy type 1
672 atoms in group hy

# set charges - beside manually ###
set group ox charge -1.1794
Setting atom values ...
  336 settings made for charge
set group hy charge 0.5897
Setting atom values ...
  672 settings made for charge

# ### TIP3P Potential Parameters ###
pair_style lj/cut/tip4p/long/omp 2 1 1 1 0.1577 8.5
pair_coeff 1 1*2 0.000 0.000
pair_coeff 2 2 0.21084 3.1668
bond_style  harmonic
bond_coeff  1 450 0.9572
angle_style harmonic
angle_coeff 1 55 104.52
kspace_style pppm/tip4p/omp 1.0e-5
pair_modify tail yes

thermo          ${out_freq}
thermo          1000
thermo_style    custom step temp pe etotal epair emol press lx ly lz vol pxx pyy pzz pxy pxz pyz enthalpy

restart 	${out_freq3} restart.lmp.${pid} restart2.lmp.${pid}
restart 	1000 restart.lmp.${pid} restart2.lmp.${pid}
restart 	1000 restart.lmp.0 restart2.lmp.${pid}
restart 	1000 restart.lmp.0 restart2.lmp.0


include         in.dump
dump            myDump all atom ${out_freq2} dump.water.${pid}
dump            myDump all atom 10000 dump.water.${pid}
dump            myDump all atom 10000 dump.water.0
dump            myDump2 all dcd ${out_freq2} dump.dcd
dump            myDump2 all dcd 10000 dump.dcd
dump_modify     myDump append yes
dump_modify     myDump2 append yes


variable natoms 	equal  "count(all)"                        # NUMBER ATOMS
variable H      	equal  "enthalpy/v_natoms"                 # ENTHALPY-per-atom
variable Vol      	equal  "vol/v_natoms"                 # volume-per-atom
fix AVG all 		ave/time ${out_freq} 1 ${out_freq} v_Vol v_H file vol_enthalpy.dat
fix AVG all 		ave/time 1000 1 ${out_freq} v_Vol v_H file vol_enthalpy.dat
fix AVG all 		ave/time 1000 1 1000 v_Vol v_H file vol_enthalpy.dat



fix 		1 all shake 1e-6 200 0 b 1 a 1
       0 = # of size 2 clusters
       0 = # of size 3 clusters
       0 = # of size 4 clusters
     336 = # of frozen angles
  find clusters CPU = 0.049 seconds
fix             2 all nph tri ${pressure} ${pressure} ${pressureDamp}
fix             2 all nph tri 11375 ${pressure} ${pressureDamp}
fix             2 all nph tri 11375 11375 ${pressureDamp}
fix             2 all nph tri 11375 11375 1000
fix             3 all temp/csvr ${temperature} ${temperature} ${tempDamp} ${seed}
fix             3 all temp/csvr 268.83 ${temperature} ${tempDamp} ${seed}
fix             3 all temp/csvr 268.83 268.83 ${tempDamp} ${seed}
fix             3 all temp/csvr 268.83 268.83 100 ${seed}
fix             3 all temp/csvr 268.83 268.83 100 745823


run             250000
PPPM initialization ...
  extracting TIP4P info from pair style
  using 12-bit tables for long-range coulomb (../kspace.cpp:340)
  G vector (1/distance) = 0.38325773
  grid = 24 30 32
  stencil order = 5
  estimated absolute RMS force accuracy = 0.0019751678
  estimated relative force accuracy = 5.9481591e-06
  using double precision FFTW3
  3d grid and FFT values/proc = 4080 384
Last active /omp style is kspace_style pppm/tip4p/omp
Neighbor list info ...
  update every 1 steps, delay 7 steps, check yes
  max neighbors/atom: 2000, page size: 100000
  master list distance cutoff = 10.8154
  ghost atom cutoff = 10.8154
  binsize = 5.4077, bins = 5 5 4
  1 neighbor lists, perpetual/occasional/extra = 1 0 0
  (1) pair lj/cut/tip4p/long/omp, perpetual
      attributes: half, newton on, omp
      pair build: half/bin/newton/tri/omp
      stencil: half/bin/3d/tri
      bin: standard
Per MPI rank memory allocation (min/avg/max) = 9.342 | 9.347 | 9.351 Mbytes
Step Temp PotEng TotEng E_pair E_mol Press Lx Ly Lz Volume Pxx Pyy Pzz Pxy Pxz Pyz Enthalpy 
29500000    281.64736   -4799.1208   -4235.7913   -4799.1208            0     11680.29    17.823467    22.953983     19.20265    7856.1797    10872.559    11478.598    12689.714     -1213.71    -358.0187   -1043.7107   -2897.5299 
29501000    268.59622   -4798.7723   -4261.5467   -4798.7723            0    11466.854    17.845378    22.811671    19.255014    7838.3863    12690.443    10356.022    11354.095   -735.05982   -760.87906    1511.8808   -2950.7153 
29502000    265.66026   -4795.2581   -4263.9048   -4795.2581            0    10913.085    17.800403    22.948654    19.297537    7882.9529    13122.193    10454.727    9162.3352   -529.58032   -1568.7996   -472.03592   -3009.2843 
29503000    257.50491   -4785.7113   -4270.6697   -4785.7113            0    10949.598     17.87235    22.812778    19.300285    7869.0727    12311.129    11375.269    9162.3968   -776.52255    708.03263   -575.58886    -3014.068 
29504000    275.30566   -4860.8577   -4310.2124   -4860.8577            0    9786.7473    17.771777     22.90863    19.316294    7864.1858    11480.381     9601.105    8278.7559    1251.6551   -127.24755   -877.87316   -3187.7598 
29505000    260.97206   -4784.3455   -4262.3692   -4784.3455            0     11895.26    17.908442    22.967965    19.007427    7818.1437    9871.2802     12444.72    13369.781    1786.6606   -214.56326    363.86895   -2906.0763 
29506000    267.18507   -4787.9379   -4253.5348   -4787.9379            0    10147.495    17.804369    23.027123    19.219037    7879.4862    9630.2918    10931.103    9881.0887    2648.0869   -174.47213    646.87332   -3087.4433 
29507000    274.83563     -4807.12   -4257.4148     -4807.12            0    12391.457    17.693119    22.869564    19.162161    7753.6605    12736.074    11696.311    12741.985   -313.51692    310.78048   -342.01104    -2856.199 
29508000    262.29142   -4782.0921   -4257.4768   -4782.0921            0    9986.1032    17.798773    23.242185    19.029467    7872.1548    10805.271    9203.3289    9949.7096   -786.33131   -171.28881   -630.20584   -3110.9993 
29509000     272.3765   -4773.3556   -4228.5689   -4773.3556            0    11914.535    17.682679    23.109035    19.188688    7841.0669     11885.58    9774.7028     14083.32      1723.52    133.90445   -2373.6735   -2866.0952 
29510000    272.34868    -4785.557    -4240.826    -4785.557            0    11418.716    17.882758    22.778656    19.260839    7845.8102    11653.271     10889.73    11713.147    479.58646   -349.02991   -1007.0493   -2934.2612 
29511000    266.21459    -4795.054   -4262.5919    -4795.054            0    13595.434     17.83029    22.770462     19.15037    7775.1258    14052.164    12712.093    14022.047    2246.5047    -1762.611    806.57537   -2720.9752 
29512000    273.13225    -4748.414   -4202.1157    -4748.414            0    11520.464    17.870638    22.928754    19.190434    7863.3087    12438.107    10867.116     11256.17   -1515.1537   -1240.1491   -2462.4075   -2880.9686 
29513000    282.58337   -4799.3011   -4234.0995   -4799.3011            0    9593.4275    17.830204     22.95729    19.304472    7901.9608     9279.421    9969.5897    9531.2717   -260.06156    68.320527    1343.1079   -3128.5338 
29514000    264.68032    -4784.444   -4255.0507    -4784.444            0    13819.099    17.834301    22.868075    19.078916    7781.0715    15015.805    13096.474    13345.018   -709.18147    868.77342   -1362.0865   -2686.8739 
29515000    272.02136   -4795.3954    -4251.319   -4795.3954            0    12235.759    17.760651    22.862598    19.220883    7804.7286     14101.44    11382.041    11223.797    45.296902   -572.70123   -997.22477   -2858.5964 
29516000    272.99115   -4808.1826   -4262.1665   -4808.1826            0    10111.993    17.961054    22.862406    19.228741    7895.9539    10080.674    9110.3676    11144.937    -984.4463    -1595.162   -410.41878   -3097.7262 
29517000    276.29162   -4833.3106   -4280.6933   -4833.3106            0     9457.533    17.961132    22.780581    19.310786    7901.2983    7709.9168    9933.0352    10729.647   -236.55412   -5.0307914   -579.59195   -3190.8797 
29518000    271.37457   -4841.1294   -4298.3468   -4841.1294            0    10228.846    18.073428    22.637027    19.259877    7879.7684     9141.964    9686.5092    11858.064    247.96096    129.25756     998.7506   -3122.8648 
29519000     269.7399   -4796.5309   -4257.0178   -4796.5309            0    11152.561    17.916925     22.66178    19.301594    7837.0148    9356.1758    11950.075    12151.433    -490.2804   -285.26832   -1435.6719   -2982.3377 
29520000    260.27265   -4788.1983   -4267.6208   -4788.1983            0    11240.584    18.108081    22.377628    19.341191    7837.3583    10704.601    11908.621    11108.529    39.980682    176.21777    404.92335    -2982.824 
29521000     263.9204   -4818.2103   -4290.3369   -4818.2103            0    10310.976    17.851828    22.712249    19.376593      7856.34    10660.512    11369.316    8903.1012    263.13991    379.11551   -1396.4523   -3108.9396 
29522000    265.98888   -4789.5793   -4257.5687   -4789.5793            0    11805.553    17.856615    22.985614    19.120532    7847.9316    13541.931    10391.563    11483.166    388.16241   -1923.5816    284.87912   -2906.3755 
29523000    258.30551   -4813.4268   -4296.7838   -4813.4268            0    10332.462    17.625326    23.176197    19.235447    7857.4497    9710.1317    10590.306    10696.949    653.61272    166.20171   -911.23154   -3112.7576 
29524000    280.85113   -4782.6999    -4220.963   -4782.6999            0    10063.607    17.879755     23.04075    19.135759    7883.2238    9136.0722    11736.716    9318.0314   -1434.6602    967.41731   -1253.3058   -3063.9628 
29525000    275.84645   -4790.2331   -4238.5061   -4790.2331            0    11981.063    17.746479    22.987065     19.25208    7853.6831    13608.572    11637.178    10697.438    -1470.049    747.20921   -434.60936   -2866.2202 
29526000    271.90834   -4785.3684   -4241.5181   -4785.3684            0    11689.201     17.97374     22.73097    19.171694    7832.7982    11040.748    12144.955    11881.899   -977.98692   -728.31011    674.19884   -2906.2218 
29527000    274.43872    -4771.989   -4223.0777    -4771.989            0     12012.15    17.856696    22.758861     19.23707    7817.9081    12427.378    11535.473      12073.6    217.20626   -568.88459     2314.311   -2853.4983 
29528000    254.47819   -4792.7204   -4283.7326   -4792.7204            0    10076.977    18.083751    22.574715    19.315884    7885.4298    8853.0531    11175.854    10202.023    280.86872    68.930967    1278.6497   -3124.8711 
29529000     269.3136   -4797.1703   -4258.5099   -4797.1703            0    10723.907    17.873345    22.516188    19.528469    7859.0293        10090    12605.924    9475.7982    451.90802    1014.5895     60.28305   -3029.3798 
29530000    266.79148   -4781.0542   -4247.4383   -4781.0542            0    9424.9129    17.983208    22.846883    19.247235    7907.9239    9699.9077    9740.8194    8834.0115    1100.6775   -298.93848   -321.34202   -3160.4729 
29531000    275.46988   -4791.0819   -4240.1081   -4791.0819            0    9581.9678    17.740861    23.190614    19.162247    7883.7599    10290.746    8927.7702    9527.3877    -772.0137   -704.50336    467.19506   -3138.4065 
29532000    269.48512   -4784.0704   -4245.0669   -4784.0704            0    11132.843    17.756766    23.119115     19.04866    7819.8692    9536.6266    12180.138    11681.763   -305.55737    1393.6353   -387.71903   -2975.4244 
29533000    271.44287   -4795.8309   -4252.9116   -4795.8309            0    12328.042     17.74327    23.142835    19.026677    7812.9164    12648.051    12545.463    11790.613    692.25802    1134.7951   -556.20008   -2848.2129 
29534000    268.54224   -4832.4501   -4295.3325   -4832.4501            0    10954.543    17.654375    23.118562    19.218637    7843.9669    12268.293    11007.285    9588.0496    282.30119    -853.5679    1045.5509   -3042.1743 
29535000    264.23036   -4828.5346   -4300.0412   -4828.5346            0    10092.611    17.856924    22.878022     19.24134    7860.6858    10577.669    8836.6776    10863.488   -1040.1261   -2755.3467   -312.48626   -3143.0239 
29536000    273.67296   -4829.2098     -4281.83   -4829.2098            0    13985.252    17.985559    22.341938    19.295324    7753.4831    13919.425    13916.542    14119.788   -164.84217   -13.578857    -96.08459   -2700.4253 
29537000    280.67972   -4813.1451    -4251.751   -4813.1451            0    12845.843    17.835956    22.759139    19.157397    7776.5816    13942.734     12098.18    12496.615     998.0066   -1030.3621    59.494363   -2794.8595 
29538000    270.39503   -4812.0782   -4271.2547   -4812.0782            0    9419.5344    17.821761    22.864926    19.367633      7892.18     9296.475    9419.6511    9542.4769    795.49557   -799.13172    1012.1486   -3187.0724 
29539000    273.15894    -4817.977   -4271.6254    -4817.977            0    10931.993    17.959497    22.727603    19.222168    7846.0338    11712.156    10528.585    10555.237    145.03943   -878.13292   -344.34944   -3020.7174 
29540000    268.98674   -4791.3448   -4253.3381   -4791.3448            0    10724.685    17.902998    22.866853    19.182097    7852.8671    10527.283    10300.701    11346.069    320.33684   -469.77532    991.96962   -3025.0827 
29541000    271.92959   -4813.5794   -4269.6866   -4813.5794            0    8143.2579    17.899808    22.871881     19.34175    7918.5567    7390.9199    8979.8478    8059.0059   -1954.4282   -234.81025    788.14485   -3329.2704 
29542000    271.76744   -4817.5068   -4273.9383   -4817.5068            0     10785.88    17.752742    22.965374     19.32857     7880.226    12131.019    10281.118    9945.5018    167.07631    295.81432    641.67084    -3034.371 
29543000    278.46153   -4793.6888   -4236.7313   -4793.6888            0    11376.612    17.964162    22.735096    19.198078    7840.8203    10097.979    10902.204    13129.653    -520.0943   -43.612689    1709.6881   -2935.8121 
29544000    268.08155   -4835.7402    -4299.544   -4835.7402            0    10291.497    17.817913     22.96268    19.296773    7895.2173     11200.99      8973.19    10700.311   -1490.2384    571.83153    152.51974   -3114.5435 
29545000    266.82668   -4829.1347   -4295.4483   -4829.1347            0     11929.29    18.018411    22.676647    19.132244    7817.3804     9785.944    12770.234    13231.692   -263.17197    711.86534    327.79903   -2935.4082 
29546000    259.72585   -4796.7028    -4277.219   -4796.7028            0    9910.0975    17.775841    22.778026    19.429439    7866.9524    10939.841    10455.579    8334.8728    837.79238   -1613.2931   -165.20838   -3140.2193 
29547000    269.03115   -4795.8365    -4257.741   -4795.8365            0    12605.224    17.923004    22.863251    19.012419    7790.8734    14138.824    11496.076    12180.773   -1505.7841   -1274.3838    125.63893   -2825.5115 
29548000    274.23389   -4833.7148   -4285.2132   -4833.7148            0    10976.284    17.684104    22.905807    19.358194    7841.3977    10958.192    10611.328    11359.331    1579.2116     572.5799    1003.2405   -3029.9792 
29549000    280.37451   -4806.8145   -4246.0309   -4806.8145            0    11102.859    17.946961    22.949434    19.107484     7869.849    10616.831    11204.862    11486.886   -368.34664     1817.054   -2839.6595   -2971.7149 
29550000    269.12179   -4833.4939    -4295.217   -4833.4939            0    10286.052     17.67745    23.041255    19.310158    7865.2326    13465.363    9036.0553    8356.7374    2321.0516   -1267.8596   -495.48287   -3115.3416 
29551000    289.07933   -4776.3016   -4198.1073   -4776.3016            0    11803.385    17.740811    23.078956    19.221167    7869.9035    12655.867    11141.762    11612.527    1826.6152   -710.28582     261.0866     -2843.38 
29552000    267.54565   -4820.7197   -4285.5954   -4820.7197            0    11490.553    17.862706    23.149417    18.934782     7829.745    9445.7456     11586.46    13439.453    63.690664   -114.76313   -1585.1017   -2973.5029 
29553000    250.45298   -4806.9087   -4305.9718   -4806.9087            0    10648.609    17.586393    23.272069    19.125688     7827.604      13607.9    9142.7563    9195.1705   -897.27102   -434.58265   -888.80417   -3090.3524 
29554000    285.48969   -4807.1391   -4236.1245   -4807.1391            0      9993.24    17.809677    23.260411    19.040848    7887.8692    8444.5117     10175.17    11360.039   -466.70375    479.72718    212.21812   -3086.5373 
29555000    285.45432   -4824.5434   -4253.5995   -4824.5434            0    9018.1887    17.721446    23.169474    19.238729    7899.3565    8757.5741    7883.5996    10413.392   -191.84145   -1584.9773    518.93903    -3214.668 
29556000     285.4007    -4799.585   -4228.7483    -4799.585            0     10277.82    17.937667    23.006131    19.221635    7932.3136    8799.4578    11246.474    10787.527    521.51992    303.06418    -685.9369   -3039.7623 
29557000    246.30869   -4789.1069   -4296.4591   -4789.1069            0      11068.9    17.863195    22.907127    19.190592    7852.6844    10230.639    10655.328    12320.732   -596.85395   -262.67192    1935.5528   -3028.8116 
29558000    275.93469    -4812.518   -4260.6145    -4812.518            0    10357.179    17.798398    22.838251    19.322901    7854.4556    8797.5245     11394.91    10879.101    -870.6117   -1489.7572   -3179.0779   -3074.2082 
29559000    266.74422   -4804.0925   -4270.5711   -4804.0925            0     10269.18    17.814471    22.741926    19.424536    7869.5666    10221.069    11548.036    9038.4339     952.3359    -204.1949    2844.4665   -3091.9819 
29560000    264.36335   -4809.0944    -4280.335   -4809.0944            0     10553.54    17.884567    22.961735    19.186134    7878.9911    11279.604    8508.1799    11872.838   -2460.9312   -571.04679   -1359.2782   -3067.6593 
29561000    268.66929   -4774.5999   -4237.2281   -4774.5999            0    10742.867    17.642249    23.066571    19.339664    7870.2031     12537.21    11423.235    8268.1559   -547.96485   -144.68488   -1730.7266   -3004.1743 
29562000    287.98302   -4775.8617   -4199.8601   -4775.8617            0    12262.611    17.716531    23.089933    19.057838    7796.0569    14620.568    10678.705     11488.56    -1113.091   -665.72505    1935.5632   -2805.6319 
29563000    291.27491    -4816.996   -4234.4102    -4816.996            0    11218.167    17.786503    22.892884     19.25415    7839.9884    12079.836    11025.078    10549.586    35.866649   -430.33918    1505.8848   -2951.7454 
29564000    259.35105   -4788.6177   -4269.8835   -4788.6177            0     11730.16    17.901815    22.810096    19.220892    7848.6997    10355.864    13262.448    11572.166   -264.01568    2242.3499    1069.4765   -2927.1881 
29565000    255.90328   -4791.7743   -4279.9361   -4791.7743            0    11099.271     17.87099    22.847209    19.229035    7851.2583    9571.5333    11622.074    12104.207    317.32942    330.51476    -227.7554   -3009.0412 
29566000    278.09446   -4776.8347   -4220.6114   -4776.8347            0     10497.68    17.819095    23.194531    18.995457    7850.9278    8897.0606    10299.774    12296.206    210.39478   -1375.8835   -816.71824   -3018.6508 
29567000    276.03206   -4831.4214   -4279.3232   -4831.4214            0    11137.866    17.607207    23.155211    19.165058     7813.567    12728.358    10412.127    10273.113    1000.1278     334.4427    1822.3541   -3010.1315 
29568000    266.32304   -4797.2934   -4264.6144   -4797.2934            0    11077.453     17.95592    23.038621    18.997996    7859.0839    10509.258    11627.632    11095.468   -844.28163    953.70533   -654.67988   -2994.9536 
29569000    254.45599   -4806.8391   -4297.8957   -4806.8391            0     13124.34    17.704268    22.815087     19.26721    7782.4963    13012.245    12294.832    14065.944   -1627.8067   -566.75883    251.31802   -2808.2867 
29570000    259.97714   -4762.3433   -4242.3569   -4762.3433            0    12194.849    17.863607     22.98753    19.072555    7831.9579    11832.406    11759.215    12992.927   -305.93801     -419.598    22.908595   -2849.4482 
29571000    271.70844   -4795.6768   -4252.2264   -4795.6768            0    11561.457    17.717742    22.787494    19.368649    7819.9553    12887.715    11328.005     10468.65    126.53774    1290.0176     1029.164   -2933.6882 
29572000    280.10705   -4764.8256   -4204.5769   -4764.8256            0    11719.068     18.07453    22.836505    19.095238    7881.7331    10368.667    12414.101    12374.436    378.74795     1478.362    440.49719   -2857.5053 
29573000    259.09512   -4821.8283   -4303.6061   -4821.8283            0    11964.789    17.804257    22.880564    19.231102    7834.2017    11319.181    12412.022    12163.163    12.082281    362.11179   -485.48054   -2936.5835 
29574000    249.92459   -4805.3367   -4305.4567   -4805.3367            0    11246.709    17.937758    22.898505    19.111414    7849.9717     10886.79    10705.264    12148.072    1241.0524    222.99692     51.45532   -3017.8909 
29575000    274.38862   -4819.5163   -4270.7052   -4819.5163            0    13368.218    17.910847     22.71308    19.202976    7811.9722    11874.777    13742.034    14487.841   -1406.5696   -159.16015   -2040.0056   -2747.6695 
29576000    282.69917   -4816.8901   -4251.4568   -4816.8901            0    11004.603    17.808172    22.711505    19.450982    7866.9571    12486.923     11738.78    8788.1059    1211.4603    516.82289    305.15913   -2988.8822 
29577000    250.87545   -4811.3064   -4309.5245   -4811.3064            0    12382.609    17.956036    22.838468     19.05348    7813.6104    10975.141    13166.321    13006.365     990.9836    1355.5978   -167.44413   -2898.4829 
29578000     291.4916   -4804.3894   -4221.3702   -4804.3894            0    11511.979    17.755047     22.85072    19.302542    7831.3424    11533.374     11415.06    11587.504   -1581.3457   -117.59831   -1743.8423   -2906.5629 
29579000    267.29449   -4808.4328   -4273.8108   -4808.4328            0    13716.072    17.760961    23.026047    19.067615    7797.9821     12454.56    13832.783    14860.872    736.26349    841.08886     1365.045   -2713.9427 
29580000    269.84769   -4784.0627    -4244.334   -4784.0627            0    10544.698    17.827761    22.956027    19.275728    7888.6798    11603.263    10889.384    9141.4481   -579.26767    101.94138    87.607125   -3031.1844 
29581000    257.92965   -4770.3444   -4254.4532   -4770.3444            0    10862.043    18.018977    22.731382    19.175264     7854.116    10997.813    11537.017    10051.298    2363.8546    900.82037    670.62123   -3010.2689 
29582000     260.6127   -4830.5943   -4309.3367   -4830.5943            0    8909.0057    17.963816    22.952401    19.183748    7909.7034    8535.4595    8218.5801    9972.9775    804.84786   -1201.3936    143.50959   -3281.6391 
29583000    261.69136    -4756.066    -4232.651    -4756.066            0    11911.696    17.856907    22.719496      19.3377    7845.3032    11078.073    12113.211    12543.805   -2084.8958   -771.05721   -2959.7629   -2869.7659 
29584000    271.72809   -4778.3323   -4234.8425   -4778.3323            0    11136.834    17.854846    22.909442    19.286066    7888.8603    11449.441    11163.263    10797.797   -1077.1267   -250.93837    259.64117   -2953.5394 
29585000    265.32747   -4805.6594   -4274.9717   -4805.6594            0    12873.823    17.716346    23.150815    18.982416    7785.5972    11617.995    12142.633     14860.84   -859.58748   -420.37786    1671.1265   -2813.2142 
29586000    262.31938    -4784.887   -4260.2158    -4784.887            0    13912.716    17.462339    23.128358    19.211717    7759.1365    15917.647    13707.407    12113.092   -527.33342    183.40138   -485.22881   -2685.8662 
29587000    269.50198   -4817.3828   -4278.3456   -4817.3828            0    12367.966    17.798742    23.178586    18.978714    7829.6625    13435.407    10791.999    12876.491    1021.3936   -452.56554    1190.4673   -2866.0773 
29588000    269.54793    -4802.865   -4263.7359    -4802.865            0     10225.56    17.795399    22.832918    19.388321    7877.8797    9146.1587    10464.454    11066.066   -184.89535   -117.59479   -688.69069   -3088.9132 
29589000    259.87735   -4819.8436   -4300.0568   -4819.8436            0    12503.767    17.806483    22.930519    19.043025    7775.4939     13057.08    10856.808    13597.414   -97.872935   -978.75831    335.41765   -2882.1596 
29590000    276.08783   -4828.5065   -4276.2967   -4828.5065            0    11146.506    17.664053    22.940054    19.328097    7832.0216    12827.572    9924.2169     10687.73   -435.80811    -526.6229   -887.35868   -3003.1204 
29591000    262.71169    -4816.159   -4290.7031    -4816.159            0    10238.949    17.920163    23.110045     19.01236    7873.6985    10938.517    10145.741     9632.587   -730.50001    102.99555    96.840755   -3114.9666 
29592000    265.77187   -4803.5787   -4272.0021   -4803.5787            0    12834.493    17.533803     23.11519    19.195466    7779.8683     15117.44    11283.279    12102.759   -1436.5534    -1220.516     495.1872   -2815.7826 
29593000    280.41713   -4796.3582   -4235.4893   -4796.3582            0    11433.289    17.840687    23.169493    18.984212     7847.308    10832.186    12083.736    11383.944   -550.85076   -135.45492    910.87376   -2927.0072 
29594000     260.2706   -4787.0134     -4266.44   -4787.0134            0    10722.979    17.792726    22.899909    19.261929    7848.3074    11755.501    10614.462    9798.9736    1241.3448   -925.69057   -356.27872   -3039.0931 
29595000    258.74142   -4833.8244   -4316.3096   -4833.8244            0     10822.47    18.084353    22.596553    19.180879    7838.1517    11169.403    11475.958    9822.0474    1175.8562   -1238.5141     699.2861   -3079.1779 
29596000    268.77454   -4782.9975   -4245.4152   -4782.9975            0    12339.667    17.871905    22.479437    19.456781    7816.7684    13075.621    12907.266    11036.115   -389.87281   -311.35146   -1263.5536   -2838.6987 
29597000    264.55734   -4788.6629   -4259.5156   -4788.6629            0     12920.47     17.78455    22.755831    19.302182    7811.6357     13382.31     12425.95    12953.151    2223.6728    203.53419    3059.9495   -2787.5549 
29598000    258.09386   -4793.0632   -4276.8436   -4793.0632            0    10604.932    17.872628    22.981994    19.154547    7867.7044    7752.7098    12573.147    11488.939   -1335.1457     1706.528   -269.73395   -3060.0083 
29599000    268.65056   -4809.5047   -4272.1703   -4809.5047            0    12246.931    17.991999    22.856801    19.012959    7818.8806    11492.226    11924.494    13324.074   -946.07493    867.80109    1301.9856   -2875.6484 
29600000    280.15872   -4823.4013   -4263.0492   -4823.4013            0     11404.69     17.58744    23.125225    19.230192    7821.1787    11824.961    11055.845    11333.264    -1063.312    564.13203    753.77722   -2962.1861 
29601000    247.34495    -4808.357   -4313.6366    -4808.357            0    10674.004    17.707201     23.16741    19.134395    7849.5026    10212.174    11414.592    10395.247    148.32969   -807.77113    709.09152   -3091.7092 
29602000    270.07634   -4824.6193   -4284.4333   -4824.6193            0    10220.806    17.887374    22.949028    19.219082    7889.3918    8795.5624    10015.336     11851.52   -513.08442    694.39906   -1132.8125   -3108.4407 
29603000    275.61477   -4792.1569   -4240.8933   -4792.1569            0    13924.122    17.738744    22.886543    19.169549    7782.4255    14951.966    12942.113    13878.286    1729.3922     395.9969   -175.15291   -2660.5236 
29604000    270.56597   -4792.2268   -4251.0614   -4792.2268            0    12354.928    17.931737    22.904667    19.023921    7813.5132    11802.754    12321.958    12940.072   -43.038768   -405.08183      3132.18   -2843.1918 
29605000    273.13023   -4767.9475   -4221.6533   -4767.9475            0    11558.408    17.737587    22.814099    19.412555    7855.6217    12175.962    11297.872    11201.389   -611.62999    238.73242   -1749.3423   -2897.4507 
29606000    262.08021   -4819.9796   -4295.7868   -4819.9796            0    9720.9413     17.93515    22.957164    19.074593    7853.7762     8598.494    10152.137    10412.193    1850.2291    641.92442   -712.26756   -3182.3573 
29607000    263.46792   -4792.2012   -4265.2328   -4792.2012            0    9783.9385    17.731061    23.066929    19.284425    7887.3516    11608.895    10144.666    7598.2546    16.304571   -233.21482   -1032.1577   -3139.7968 
29608000    272.78678   -4794.4286   -4248.8213   -4794.4286            0    10214.236    17.921167    22.794939    19.225987    7854.0445    9572.3974     10304.49    10765.819   -1160.2579   -1651.4697   -303.59074   -3078.8502 
29609000    258.38537   -4791.8185   -4275.0158   -4791.8185            0    10868.498    17.904759    22.854403    19.178907    7848.0582     9699.255     11081.79    11824.448   -1359.4925    528.98857    -760.9087   -3031.0523 
29610000    288.16105   -4809.0829   -4232.7252   -4809.0829            0    12929.175    17.923865    22.636973    19.259021    7814.1948    12609.715     12998.47     13179.34    19.146462     433.1888    -1105.166   -2759.2904 
29611000    293.59708   -4814.0833   -4226.8529   -4814.0833            0    11947.762    17.847993    22.681668    19.390393    7849.6626    12899.065    12515.973    10428.247    251.39013    539.37966    1498.5698   -2859.0818 
29612000    255.77305   -4775.2917    -4263.714   -4775.2917            0    9013.3053    18.049581     22.79511     19.25673    7923.0312     9370.498    8508.5256    9160.8923   -1598.7426   -119.97956    686.73987    -3222.233 
29613000    266.91928   -4819.2575   -4285.3859   -4819.2575            0    11561.223    17.788392    22.737581    19.383237    7839.8406    11934.627     12649.04    10100.001    352.91153   -175.61669    -1088.369   -2963.5215 
29614000    265.55914   -4774.3783   -4243.2272   -4774.3783            0    12406.662    17.887044    22.948559    19.092517    7837.1327    11289.723    12853.371    13076.891    446.52242    257.49795    34.457543   -2825.1887 
29615000    257.81761   -4780.1037   -4264.4367   -4780.1037            0    12739.361    17.676682    22.852028    19.401103    7837.0375    14723.452    11104.697    12389.932    1759.9151     -68.7632    425.79091   -2808.3895 
29616000    252.78201   -4805.9972    -4300.402   -4805.9972            0    11226.422     18.03282    22.918844    19.018234    7860.0722    10681.484    10319.917    12677.865    -997.7193   -392.83271   -439.93107    -3013.505 
29617000    261.58599   -4819.2661   -4296.0618   -4819.2661            0    10803.793    17.755238    22.869234    19.282067     7829.458    11742.846    9671.2211    10997.311    305.36742   -1163.9152   -1337.5777   -3062.4349 
29618000    259.67744   -4809.9471   -4290.5601   -4809.9471            0    10947.024    17.755684    23.047676    19.141714    7833.3111    9296.0014    10377.197    13167.875   -405.26028   -714.35007    -435.7298   -3039.9633 
29619000    266.35151   -4816.3931   -4283.6572   -4816.3931            0    11548.287    17.783294    23.018898    19.082963    7811.6455    11538.428    11081.832      12024.6   -270.01167   -228.92475    63.904275   -2968.0205 
29620000    271.94171   -4814.4813   -4270.5643   -4814.4813            0    10570.432     17.77485     23.25754    19.058296    7878.6855    11557.871    9807.1291    10346.295    1040.5555   -196.61547    874.40408   -3055.9948 
29621000    258.63842   -4805.9658   -4288.6571   -4805.9658            0    9816.4789    17.693119    23.322603    19.044719    7858.7958    11613.942    8858.7913    8976.7037    -666.3258   -358.78235    -1708.682   -3163.5661 
29622000    268.72997    -4780.826   -4243.3328    -4780.826            0    10861.929    17.762126    23.317774    19.086008     7904.914    10738.594    10587.793    11259.399    2205.5545    901.72563   -115.33768   -2991.1147 
29623000     269.4434   -4824.5143   -4285.5942   -4824.5143            0    8514.0577    17.910356    23.123154    19.169293     7938.846    8911.5897    8003.1906    8627.3928   -913.66969   -87.916548   -86.767033   -3299.8372 
29624000    282.27456   -4810.1741   -4245.5901   -4810.1741            0    11812.098    17.862231    22.802945    19.127329    7790.7805     10007.35    12642.479    12786.465     988.5401    128.26947   -846.36781   -2903.4931 
29625000    269.96203   -4760.8201   -4220.8627   -4760.8201            0    11921.045    17.874926    22.712417    19.275319    7825.4475    9464.5339    13463.813    12834.789     107.9962   -254.80459    527.29657   -2860.3599 
29626000    259.15925   -4805.3303   -4286.9798   -4805.3303            0    11627.999    18.133974    22.627857    19.202524    7879.4291    10283.288    12199.352    12401.357    12.218558      1142.55   -597.40134    -2950.767 
29627000    263.40107   -4815.9168   -4289.0822   -4815.9168            0    11051.185    17.991157    22.569999    19.364593    7863.1942     11406.44    11777.894    9969.2208    730.78756   -898.29603    305.33576   -3021.7696 
29628000    271.42287   -4820.3894   -4277.5101   -4820.3894            0    12406.995    18.022614    22.572322    19.179798    7802.5768    10776.375    13263.569     13181.04    1004.8194   -1286.5654   -952.90133   -2865.6862 
29629000    283.86066    -4782.165   -4214.4086    -4782.165            0    12482.049    17.811575    22.689949    19.439291    7856.2677    13261.566    13692.151    10492.431   -229.26843    1288.0688   -6.1804624   -2784.2703 
29630000    261.57828    -4832.213   -4309.0242    -4832.213            0    10831.332    18.056568    22.725607    19.137823     7853.138    8596.7957    12595.705    11301.495   -428.32166     1008.107   -1530.2696   -3068.5121 
29631000     261.7031   -4832.8796   -4309.4411   -4832.8796            0    12787.562     17.77858    22.601741    19.467166    7822.4299    14879.646     12744.55    10738.491   -462.20435    834.22366    1271.8519   -2850.6089 
29632000    271.83211   -4784.1829   -4240.4851   -4784.1829            0    9516.5378    17.931979    22.923463    19.247202    7911.8138    9876.3711    8184.8619     10488.38   -159.98166   -1167.0754     209.0444   -3142.4128 
29633000    279.07808   -4797.5602   -4239.3695   -4797.5602            0    10898.509    17.714778    23.162409    19.144645     7855.372    10920.629    9359.8814    12415.017   -1199.4545   -137.49272   -1179.7067   -2990.8086 
29634000    261.92305   -4808.8138   -4284.9354   -4808.8138            0    12668.184    18.003232    22.935454    18.859893    7787.4821    10210.052    12778.773    15015.728   -916.69254    703.76559    1219.9452   -2846.1788 
29635000     260.5196   -4797.5609   -4276.4896   -4797.5609            0    12201.157    17.698182    22.924107    19.230085    7801.9342    12475.437    10858.667    13269.367   -603.95005   -622.37548   -941.70308   -2888.2027 
29636000       274.81   -4787.1525   -4237.4986   -4787.1525            0    13051.664    17.777153    23.053484    19.069594     7815.202    11786.374     13535.82    13832.798   -209.07125    1656.8163   -1727.6165    -2749.913 
29637000     271.0592   -4811.1772   -4269.0253   -4811.1772            0    12843.751     17.70147    23.043599    19.075011    7780.8036     13309.04    13945.791    11276.421    -154.2663    -15.74657   -697.56944   -2811.5802 
29638000    265.16216   -4788.3639   -4258.0069   -4788.3639            0    12725.811    17.670943    22.986055    19.143253    7775.7073     12656.43    13360.902    12160.101    323.16991    732.06753    750.91026   -2814.8908 
29639000    257.76754   -4820.5234   -4304.9565   -4820.5234            0    11296.007    17.704697    22.909738    19.273184    7817.3954    11464.613    11395.421    11027.987    529.50525    654.49334    -62.64246   -3017.1135 
29640000    266.25293   -4787.7795   -4255.2408   -4787.7795            0    11703.449    17.994386    22.878144      19.0941    7860.6238    10616.939     12322.89    12170.518      1751.41   -584.58191    3148.1601   -2913.5676 
29641000    257.62898   -4797.7062   -4282.4164   -4797.7062            0        11680    17.693925    23.043818    19.194609    7826.3252    12012.641    10864.957    12162.401   -946.95131   -688.47437   -470.51558   -2949.2738 
29642000    279.32445   -4832.1996   -4273.5162   -4832.1996            0      9852.74    17.781863    23.060501     19.18107    7865.3643    8266.2559    9305.3116    11986.652     1341.776   -1250.2177   -327.26202   -3143.3254 
29643000    272.89434   -4831.0813   -4285.2589   -4831.0813            0    10691.459    17.667954    23.260568    19.076715    7839.8936    12231.148    8844.1468    10999.082    1779.5764   -1416.6315    462.49986   -3062.8316 
29644000    268.64347   -4793.4629   -4256.1428   -4793.4629            0    12141.534    17.815848     22.83147    19.198463    7809.2051    11252.476    13864.523    11307.603    583.44529   -119.50935   -613.24157   -2873.3526 
29645000    268.81143   -4804.0936   -4266.4375   -4804.0936            0     12519.54    17.989334    22.788693    19.138939    7846.0729    12936.299    12568.935    12053.387      802.077       570.69    -1188.376    -2833.865 
29646000    267.55796   -4809.7728   -4274.6238   -4809.7728            0    9776.1621    17.838291     22.70612    19.417635    7864.8872     10567.52    10938.637    7822.3298   -1613.1931    666.04174    330.26672   -3153.2852 
29647000    258.94544   -4821.6344   -4303.7115   -4821.6344            0    10906.556    17.907976    22.976141    19.042835     7835.292    10080.621    11605.095     11033.95   -1359.3079   -16.240575   -2123.4272   -3057.4227 
29648000    275.75898   -4830.7786   -4279.2266   -4830.7786            0    11457.375    17.803328    22.743655    19.330387    7827.1202    13376.933    10218.762     10776.43   -1344.5322    241.87347      621.947   -2971.3613 
29649000    277.85972   -4792.2744   -4236.5206   -4792.2744            0     10028.21    17.910355    22.983149    19.178754    7894.6722    9149.2915    9803.7026    11131.635   -811.88036   -714.51632    3150.5442   -3081.9158 
29650000    266.35416   -4819.0334   -4286.2922   -4819.0334            0    10309.036    17.972997    22.892379    19.155737    7881.5255    8406.1273    10211.649     12309.33   -1573.1456   -48.085715    1711.7007   -3101.3307 
29651000    272.67295   -4756.6929   -4211.3134   -4756.6929            0    12441.906    17.725031    22.826267    19.324994    7818.8209    12340.253    13950.307    11035.157     996.1429    1327.5436   -567.64843   -2792.5693 
29652000    281.45505   -4822.9102   -4259.9653   -4822.9102            0      11233.5    17.928788    23.145508    18.941031    7859.9771    11947.236     9907.871    11845.393   -768.09858    489.90585    764.78086   -2972.2726 
29653000    272.10871   -4797.7025   -4253.4515   -4797.7025            0    10772.454    17.621365    23.202599    19.246058    7868.9714    10935.636    11520.048    9861.6789    75.502097     312.0142    342.65434   -3017.1952 
29654000    266.71801   -4806.3527   -4272.8837   -4806.3527            0    11124.747     17.85231    23.208262     18.94492    7849.2799    11648.601    9674.1427    12051.498   -495.51682   -386.82785   -962.29676   -2999.3928 
29655000    258.06117   -4800.3905   -4284.2363   -4800.3905            0    10700.776    17.741563    22.985677    19.208983    7833.4584    10395.402    10869.752    10837.175   -271.26794   -1101.9546    425.40384    -3061.748 
29656000    258.89281   -4816.0284   -4298.2108   -4816.0284            0     11417.19    17.973022    22.646427    19.239792    7831.0711     11671.36    11265.559    11314.651   -611.63638    375.30173   -570.16525   -2994.2748 
29657000    271.29046   -4815.7631   -4273.1487   -4815.7631            0    13016.771    17.986525    22.521183    19.294197    7815.6516    14466.147    13088.738    11495.428    1193.9849   -725.57123    710.51572   -2789.4547 
29658000    255.68924   -4808.5684   -4297.1584   -4808.5684            0    12139.193    17.930624    22.581145     19.28144    7806.9396    12345.341    11702.537    12369.702    935.62066   -578.09111    1258.2304   -2915.0359 
29659000    244.66255   -4781.5816   -4292.2262   -4781.5816            0    10957.398    18.057352    22.495505    19.371587    7868.9182    12255.159    11070.801    9546.2328   -733.26794    482.63623   -1200.6016   -3034.7542 
29660000    279.29571   -4813.6062   -4254.9803   -4813.6062            0    11826.511    18.005433    22.644821     19.26515    7854.9761    11361.627    13202.797    10915.109   -104.96785     510.1036    1516.3131   -2900.1734 
29661000    271.70254   -4841.5042   -4298.0656   -4841.5042            0    9896.5462    17.870862    22.816791    19.336007    7884.3673    8392.2234    10921.207    10376.208    367.95594    691.58154    10.498719   -3160.1072 
29662000    266.55902    -4797.258    -4264.107    -4797.258            0    11463.484     17.87598    23.047853     19.06025    7852.8796    12730.059    9425.3818    12235.012     1238.902   -1246.5782     421.1673   -2951.2378 
29663000    260.45066   -4789.7068   -4268.7733   -4789.7068            0    12957.645    17.674076    23.024544    19.117909    7779.7951    14360.864    12176.592     12335.48   -117.83956   -87.387288    667.15156   -2798.5946 
29664000    274.72738   -4820.9889   -4271.5002   -4820.9889            0    11335.035    17.712702    23.121737    19.042798    7798.9484    10941.397    11459.344    11604.362    821.78362    1085.1334    306.73949   -2982.2572 
29665000    266.88856   -4823.3271    -4289.517   -4823.3271            0     9287.526    17.662146    23.288648    19.222397    7906.7008    9753.5735     8663.109    9445.8956    119.13775    399.32633   -254.76641    -3218.562 
29666000    275.40668   -4784.8145   -4233.9672   -4784.8145            0    10066.224    17.855447    23.019104    19.269102     7919.917    10136.875    10726.887     9334.911     1219.192    792.66698    2255.1879   -3071.2794 
29667000    266.87185   -4822.7791   -4289.0024   -4822.7791            0    9597.3971    17.814447    22.944219    19.264937    7874.3226    10991.091    10291.035    7510.0659   -812.66452   -600.66112     1339.324   -3186.8477 
29668000    273.40245   -4792.3205   -4245.4818   -4792.3205            0    11311.812    17.945175    22.713762    19.274105    7856.1719    11412.975    12168.004    10354.455   -554.17997    899.60478    109.34534     -2949.44 
29669000    279.62134    -4790.698   -4231.4208    -4790.698            0    10146.097    18.002648    22.919615    19.158203    7904.9385    8388.7421    10537.669    11511.881   -2592.0078    124.92498   -626.14716   -3061.7237 
29670000    273.08747   -4812.4929   -4266.2842   -4812.4929            0    10736.741    17.840404    22.824477    19.348786     7878.785    10438.442    11761.721     10010.06   -1415.3577    820.62758    2062.1304   -3032.5898 
29671000    279.87147   -4819.5498   -4259.7723   -4819.5498            0    10538.913    17.980745    22.691662    19.260104    7858.3726    11170.984    10842.464    9603.2907   -1042.9682    324.26368    594.68596   -3051.9465 
29672000    263.44849   -4812.9337   -4286.0041   -4812.9337            0    12055.617    17.886919    22.586239    19.366083    7823.8631     10841.22    12370.217    12955.414    452.10303    147.25465   -588.04819   -2910.4218 
29673000    261.97463   -4813.5214   -4289.5398   -4813.5214            0    10830.239     17.96825    22.682011    19.191987    7821.8104    11803.122    10052.844    10634.749   -1087.7373   -74.137224    93.506089   -3054.1011 
29674000    271.29538    -4814.344   -4271.7197    -4814.344            0    11477.388    17.840974    22.564095    19.441424    7826.4457    12139.578    11623.944    10668.643   -357.79361    92.547226   -24.646895   -2961.6828 
29675000    262.05123   -4799.5392   -4275.4043   -4799.5392            0    11592.526    17.864554    22.687589    19.320385    7830.6226    12845.803    11063.566    10868.209    330.20126    266.03622   -1401.5883   -2951.5193 
29676000    264.23172   -4811.3436   -4282.8475   -4811.3436            0    10453.812    18.038241    22.770849    19.138894    7861.2253    10886.756    10389.488    10085.193    637.66532    1225.6814    192.41144   -3084.3398 
29677000    274.11902   -4789.1668   -4240.8949   -4789.1668            0    10967.281    17.648788    22.953947    19.348889    7838.4157    11137.493    12403.906    9360.4452     1319.189   -237.54717   -1290.4112   -2987.1674 
29678000    275.81049   -4798.4179   -4246.7628   -4798.4179            0    12281.325    17.868587    23.090883    18.940742    7814.9772     11802.26    11576.581    13465.132    318.69577    1498.4904   -427.90973   -2847.0182 
29679000    280.93227   -4811.4685   -4249.5692   -4811.4685            0    10925.665    17.752361    23.075107    19.164435    7850.4734    14245.971    8842.4644    9688.5594   -449.64437   -321.95879   -105.03576   -2998.6779 
29680000    263.72126   -4784.7603   -4257.2852   -4784.7603            0    11935.123    17.676782    23.196487    19.145701    7850.4886    12598.543    11852.274    11354.553    1.0941623    198.95561    23.988043   -2890.8172 
29681000     269.6905   -4809.9187   -4270.5044   -4809.9187            0    10914.388    17.543965    23.499994    18.956116    7815.2857    12748.176     9159.209    10835.778   -240.25239    215.78345   -1304.5157   -3026.5051 
29682000    268.40074   -4794.4667   -4257.6321   -4794.4667            0    11373.974     17.69563    23.063302    19.167351    7822.5728     12764.44    9686.8854    11670.596   -22.424328    180.21759   -764.32061   -2960.0414 
29683000    261.67002   -4805.5935   -4282.2212   -4805.5935            0    13401.451    17.899783    22.835943    19.067265     7793.905    11250.663    14420.686    14533.004   -1104.1979     1706.367   -1528.6574   -2758.9304 
29684000    263.39042   -4826.6899   -4299.8765   -4826.6899            0    12179.716    17.666435    22.651946    19.586859    7838.2522    14007.278    13752.025    8779.8449     562.3717    425.17322     1139.743   -2907.5782 
29685000    282.40206   -4801.8925   -4237.0535   -4801.8925            0    11185.091    18.069482    22.729576    19.127121    7855.7315    11073.532    11914.859    10566.883   -314.54477    200.23813    537.50061   -2955.6023 
29686000    265.45104   -4783.5243   -4252.5895   -4783.5243            0    11380.072    17.738318     22.66027    19.545862    7856.5587    11998.425    12172.379    9969.4123    1006.5641    534.03672    448.86677   -2948.6625 
29687000    258.30695   -4801.3961   -4284.7503   -4801.3961            0    11933.815    17.848793    22.851409    19.169018    7818.4687     12582.53    11685.877    11533.039     330.4259   -827.51627   -994.41145   -2924.0048 
29688000    288.39843   -4812.7864   -4235.9539   -4812.7864            0    12478.125    17.944662    22.582733    19.257121    7803.7464    10689.491    13352.368    13392.517   -322.09234    996.02297    837.11962    -2815.823 
29689000    258.90861   -4829.4002    -4311.551   -4829.4002            0    8051.7053    17.863117    22.862311    19.392111    7919.5857    7721.4155    9064.5728    7369.1275    466.93069   -1092.2696    1250.8518   -3381.5868 
29690000    272.24761   -4768.1506   -4223.6218   -4768.1506            0    10562.128    17.902068    22.847425    19.314425    7899.9117    9709.0697    12116.179    9861.1337     1952.176    864.72342    1310.1321   -3006.7368 
29691000    279.56829   -4814.0933   -4254.9222   -4814.0933            0     11741.52    17.904211    22.860406    19.056295    7799.6945    12010.555    10878.483    12335.522   -193.58753   -1204.1126   -2308.1869   -2919.3179 
29692000    277.52215   -4798.1979   -4243.1193   -4798.1979            0    11831.859    17.737886    22.824863    19.331338    7826.5786    12659.223    12143.031    10693.322   -108.05693    911.00304   -1022.2579      -2892.6 
29693000    271.62644   -4814.5247   -4271.2383   -4814.5247            0     10340.55    17.826482     23.00128    19.130366    7844.0606    9667.7637    9504.8576     11849.03   -1692.9032   -928.99778    252.57332   -3088.3043 
29694000    271.50554   -4814.4037   -4271.3591   -4814.4037            0    10340.676    17.886735    22.779977    19.328312    7875.5028    9191.9785    12246.828    9583.2218   -1182.4912    1062.5211   -541.37481    -3083.669 
29695000    264.56972   -4794.8118   -4265.6396   -4794.8118            0    14364.762    17.837558     22.79926    19.194818    7806.2084    14274.073    14374.448    14445.765     822.2765    5.3766472    356.62682   -2630.2755 
29696000    268.05457   -4812.7042    -4276.562   -4812.7042            0    10692.885     17.75285    22.942655    19.270496    7848.8253    10949.725    10353.365    10775.564   -319.93513   -252.57921    2995.8293   -3052.5789 
29697000    267.90082   -4795.4543   -4259.6196   -4795.4543            0    11490.993    17.856919    22.971207    19.119025    7842.5282     10508.35    12103.598    11861.031    1526.7143   -484.80266    2295.8331   -2945.3346 
29698000     262.1073   -4798.1881   -4273.9411   -4798.1881            0    10838.558    17.909014    22.920381    19.157008    7863.5957    8809.2764    11067.496    12638.903    105.57741   -227.95407    1406.1833   -3030.9484 
29699000     284.4576    -4821.567   -4252.6167    -4821.567            0     11383.94    17.917374    22.769789    19.239376    7849.1811    10921.323    11639.312    11591.185    1145.9649   -95.205128   -628.85578   -2949.4714 
29700000    263.39255   -4804.9899   -4278.1723   -4804.9899            0    10912.046    17.721983    23.140483    19.174969    7863.5634    10770.144    10740.027    11225.967   -2269.3379    741.91026   -25.638791   -3026.7569 
29701000     277.3945   -4817.2087   -4262.3854   -4817.2087            0    10963.947    17.549806    23.210157    19.197218    7819.6748    11608.384    10732.076    10551.381   -344.54493     825.6886    2232.5998   -3012.0357 
29702000    253.60507   -4780.6894   -4273.4479   -4780.6894            0    11192.475    17.830144    23.100729    19.091772     7863.697    10510.691    10946.024     12120.71    -1981.543    835.57013    -1381.073   -2989.8507 
29703000    263.80517   -4822.4924   -4294.8495   -4822.4924            0    13207.275    17.727352     22.83463     19.31107    7817.0734    14728.492    12584.453     12308.88    666.61807    385.67474    1661.1828   -2789.1673 
29704000     263.7755   -4828.1685   -4300.5849   -4828.1685            0    12306.438    17.837335    22.819827    19.204562     7817.119    15049.094    11359.213    10511.007   -474.21299   -857.14321    601.01232   -2897.5936 
29705000    267.34754   -4836.6698   -4301.9417   -4836.6698            0    10147.552    17.905479    22.711978    19.402485    7890.3859    11383.594    10414.978    8644.0835    109.92813   -582.78066   -59.954933   -3134.2306 
29706000    267.86759   -4827.8375   -4292.0692   -4827.8375            0    10674.387    18.044564    22.682292    19.188264    7853.6039    9075.2127     11175.48    11772.469    238.19231    -832.2227    298.92281   -3069.4595 
29707000    273.46916   -4813.2052   -4266.2331   -4813.2052            0      10975.9    17.884586    22.590588    19.389931    7833.9839    12142.279    11256.245     9529.175    6.6366488   -155.38994     319.8627   -3012.2298 
29708000     274.2781    -4791.278   -4242.6879    -4791.278            0    12728.163    18.062429    22.562303    19.232791    7837.9394    10843.896    14834.967    12505.624    1124.3283   -409.37576    2068.0425   -2787.7532 
29709000    273.95032   -4808.2138   -4260.2793   -4808.2138            0     12866.65    17.968816    22.612873     19.22276    7810.7181    11346.286    13705.874     13547.79   -288.11263   -1199.0432   -2466.0374   -2794.6224 
29710000     280.9949   -4813.7622   -4251.7377   -4813.7622            0    9225.9294    17.877097    22.858332    19.296511    7885.3385    10106.705    9432.8572    8138.2257    1459.4012   -846.68622   -1325.4256   -3190.7598 
29711000    274.75153   -4818.3396   -4268.8026   -4818.3396            0    10592.992    17.805062     22.77289     19.42058    7874.5154      10843.2    10761.265     10174.51    477.98122    21.899606   -1092.4524   -3052.2852 
29712000    270.72305   -4811.6006   -4270.1211   -4811.6006            0    10607.216     17.91709    22.872851    19.174334    7857.9284    11786.187    10219.732    9815.7302   -1433.2853   -105.01843   -213.52398   -3054.5359 
29713000    270.29518   -4790.2838     -4249.66   -4790.2838            0    12052.765    17.533253    23.053527    19.261769    7785.6711    14260.098    10875.161    11023.034    533.89738   -1558.3945    2118.9957   -2881.1165 
29714000      268.385   -4811.8496   -4275.0464   -4811.8496            0    10235.762    17.812791     22.71591    19.434913    7864.0222    9559.6309    10834.683     10312.97   -167.36126   -507.77045    2466.1764   -3101.1202 
29715000     254.0093   -4833.3818   -4325.3318   -4833.3818            0    10511.333    17.922508    22.736311    19.251917    7844.9969    10812.726    10158.377    10562.894   -20.632273   -205.93212     827.3176   -3122.7173 
29716000    265.45826   -4800.0269   -4269.0775   -4800.0269            0    12601.539    17.864156    22.781323    19.212006    7818.6929    12048.374    14130.027    11626.217    610.26366   -184.18621   -524.71304   -2832.1541 
29717000    267.94548   -4845.0814   -4309.1574   -4845.0814            0    9431.7805    17.768996    22.992149    19.284408    7878.5947    9411.0751    9433.6344     9450.632   -867.61304    -311.2898   -2545.1065   -3225.4343 
29718000     273.3906    -4806.663    -4259.848    -4806.663            0    10601.738    17.659597     23.18367    19.215891    7867.2602    11132.119    10687.142    9985.9525   -944.32068   -1311.5299   -3329.5001   -3043.4478 
29719000    274.96811   -4824.8212    -4274.851   -4824.8212            0    11081.696    17.798989    23.014455    19.179307    7856.4967    12775.114    11285.189    9184.7845    789.78041    513.16887    929.82037   -3005.1219 
29720000    255.39675   -4809.3796   -4298.5545   -4809.3796            0    12805.512    17.753465    23.058515    19.081197    7811.2419    12660.658    12222.496    13533.381   -1165.1187     576.6603     1544.689   -2839.7641 
29721000    262.15867   -4815.0005   -4290.6508   -4815.0005            0    9074.8062    17.817131    23.125239    19.195223    7908.9198    9853.2216    8384.7398    8986.4573   -1076.5619    323.71211   -491.82994    -3243.931 
29722000    266.14372   -4835.4604     -4303.14   -4835.4604            0    11728.796    17.743191    22.727397    19.302765    7783.9663      13204.8    12163.207    9818.3804   -940.81105   -629.82226    1323.4349   -2971.6735 
29723000    265.64953   -4830.5462   -4299.2143   -4830.5462            0    11369.215     17.89874    22.765558    19.206902    7826.3285    11244.297    11713.339     11150.01    2635.4773    -684.9655    1730.8728   -3001.5438 
29724000    269.96391   -4811.7524   -4271.7912   -4811.7524            0     11062.77    17.891314    22.846249    19.218795    7855.6713     10915.87    10672.635    11599.806   -963.79279    436.55608   -862.20883   -3004.3638 
29725000    272.84788   -4831.4069   -4285.6775   -4831.4069            0    11989.265    17.945173    22.626761    19.201561    7796.6238    10521.446    12270.806    13175.545    350.02114    1282.5103    1052.4408   -2922.4289 
29726000    265.57373   -4807.8486   -4276.6683   -4807.8486            0    11024.483    17.991143    22.769107    19.258017     7888.898    9750.4368    11179.814    12143.197    217.51329   -799.51625   -859.96431   -3008.2852 
29727000    291.91078    -4783.172   -4199.3144    -4783.172            0     11525.87    17.872022    22.656601     19.37982    7847.2623    10704.637    12085.967    11787.004    1236.0375   -718.49797    14.417706   -2880.2447 
29728000    275.73869   -4785.3788   -4233.8673   -4785.3788            0    10956.271    18.047173     22.81266    19.087002    7858.1954    8105.9129    11782.369    12980.532   -27.048794    601.98474   -642.44284   -2978.2379 
29729000    271.47996   -4808.0873   -4265.0939   -4808.0873            0    9273.2299    17.929008    22.787011    19.425383    7936.2107    9872.2766    9375.0494    8572.3637    794.45616   -73.998965    578.19547   -3191.7964 
29730000    276.28911   -4773.3499   -4220.7375   -4773.3499            0    12789.883    17.976827    22.697188    19.188605    7829.4001    11631.325    13852.545    12885.778    764.51362    571.99587   -36.074926   -2760.3405 
29731000    286.59847   -4808.3457   -4235.1133   -4808.3457            0    10773.807    17.685484    22.861229    19.356071    7825.8898    12054.407    10260.463    10006.551   -533.17796    -1002.006   -1014.8281    -3005.471 
29732000    265.37927    -4800.187   -4269.3957    -4800.187            0    11196.024    17.941137    22.905475    19.205978    7892.7022    11745.592    10215.931     11626.55    1544.9593    85.101401    1746.0884   -2980.6553 
29733000    259.44923   -4798.3429   -4279.4123   -4798.3429            0    13297.527    17.680072    23.012442    19.166759    7798.2192    13763.568    12740.938    13388.077    650.33416     944.0176    1269.4207   -2767.0975 
29734000    270.98296   -4778.9027   -4236.9033   -4778.9027            0    11115.764    17.599286    23.274515    19.102379    7824.6179    11797.876    9926.1081    11623.309    1199.2152    -446.7285    640.01678   -2968.4386 
29735000    266.86965   -4827.3621   -4293.5898   -4827.3621            0    11157.194      17.7703    23.251662    18.968393     7837.531    11379.636    10804.486    11287.459    -988.1601    830.74155    367.18991   -3018.2963 
29736000    266.96933   -4813.0644   -4279.0927   -4813.0644            0    10393.995     17.63046    23.374976    19.133793    7885.2577    11883.486    9520.3219    9778.1757   -259.44199    925.12301    -678.5744      -3083.8 
29737000     271.7535   -4825.8193   -4282.2787   -4825.8193            0    9322.1616    17.725291     23.37228    19.038667    7887.3478    8480.8693    8458.2407    11027.375    1016.3779   -104.29305    40.507949   -3209.9609 
29738000    279.44361    -4803.732   -4244.8102    -4803.732            0    11317.447    17.632068    23.275005    19.085066    7832.2526    11158.505    10638.581    12155.255    643.61166   -520.05112    556.40844   -2952.0706 
29739000    281.07997   -4823.4704   -4261.2757   -4823.4704            0    11144.677    17.618716     23.13985    19.070891    7775.0967    10261.571     11223.66    11948.799    400.69784    271.54207    1025.6051   -2997.5606 
29740000     260.2432   -4765.5732   -4245.0547   -4765.5732            0     12629.33    17.727053    23.218391    18.990326    7816.2975    10747.812    11898.982    15241.197    1341.4778    132.24858    732.23261   -2805.4034 
29741000    269.06824   -4825.3968   -4287.2271   -4825.3968            0    11739.964    17.595055    23.194678    19.155004    7817.3802     14430.56    11167.119    9622.2116    618.91191   -559.71146   -250.22574   -2948.7718 
29742000     263.5741   -4807.4458   -4280.2651   -4807.4458            0     11223.69    17.804604    23.208314    19.009405    7854.9683    11323.237    11563.641    10784.193     45.53321    1167.8172    851.49727   -2994.5167 
29743000    277.81766   -4795.7947   -4240.1251   -4795.7947            0    11119.199    17.625736    23.051655    19.278838    7833.0382    12178.904    10435.814    10742.879    1032.9176   -186.42283    176.87553   -2969.9031 
29744000    269.25539   -4783.0249   -4244.4808   -4783.0249            0    10892.725    17.825376    23.133068    19.001553    7835.3974    11218.424    10733.933     10725.82     1866.724   -1246.4977    1576.4533   -2999.7556 
29745000    276.30334    -4774.868   -4222.2272    -4774.868            0    12829.045    17.745692    22.976299     19.16191    7812.8921    13339.033    12116.325    13031.777   -532.39891   -1206.4928   -1936.9991   -2760.4471 
29746000    259.39572   -4799.4477   -4280.6242   -4799.4477            0    8994.3045    17.821307    22.994558    19.244232     7886.153    9097.2834    8985.4399    8900.1901   -500.11715    -853.7403   -285.55243   -3246.1762 
29747000    269.38937   -4801.3607   -4262.5487   -4801.3607            0    11950.579    17.804237    22.698897    19.341806    7816.7306    13249.072    11150.553    11452.111   -1658.1897   -811.11155   -1751.1081   -2900.1947 
29748000    286.33324   -4807.4918     -4234.79   -4807.4918            0    11469.343    18.049061    22.785967    19.032615    7827.4546    12550.053    10166.348    11691.629    1240.2467   -74.032717   -402.53869   -2925.5026 
29749000    268.07666   -4812.9096   -4276.7231   -4812.9096            0    12171.672    17.805525    22.626271     19.37682    7806.3904    11544.136    14672.188    10298.691   -311.06127    1530.7707   -28.567005   -2891.0002 
29750000    273.11559   -4786.7624   -4240.4975   -4786.7624            0    10678.829    18.023725    22.799905    19.243272    7907.8154    10881.282    9892.0656     11263.14    150.63202    133.20593    1404.6822   -3008.9361 
Loop time of 499.244 on 64 procs for 250000 steps with 1008 atoms

Performance: 86.531 ns/day, 0.277 hours/ns, 500.757 timesteps/s
99.1% CPU use with 64 MPI tasks x 1 OpenMP threads

MPI task timing breakdown:
Section |  min time  |  avg time  |  max time  |%varavg| %total
---------------------------------------------------------------
Pair    | 29.096     | 33.16      | 37.107     |  35.7 |  6.64
Bond    | 0.27237    | 0.28166    | 0.29611    |   0.9 |  0.06
Kspace  | 231.28     | 238.94     | 245.85     |  23.7 | 47.86
Neigh   | 4.7802     | 5.2894     | 5.7953     |  13.2 |  1.06
Comm    | 97.258     | 103.1      | 108.56     |  31.0 | 20.65
Output  | 1.5444     | 1.5461     | 1.5524     |   0.1 |  0.31
Modify  | 107.08     | 110.29     | 112.03     |  14.2 | 22.09
Other   |            | 6.639      |            |       |  1.33

Nlocal:        15.7500 ave          19 max          12 min
Histogram: 2 4 8 0 14 14 0 12 8 2
Nghost:        2503.86 ave        2529 max        2480 min
Histogram: 3 8 7 5 8 13 6 4 7 3
Neighs:        5284.55 ave        6405 max        4025 min
Histogram: 2 4 6 3 13 14 4 9 7 2

Total # of neighbors = 338211
Ave neighs/atom = 335.52679
Ave special neighs/atom = 2.0000000
Neighbor list builds = 10021
Dangerous builds = 0

unfix		3
unfix		2
unfix		1

write_data	data.final.${pid}
write_data	data.final.0
System init for write_data ...
PPPM initialization ...
  extracting TIP4P info from pair style
  using 12-bit tables for long-range coulomb (../kspace.cpp:340)
  G vector (1/distance) = 0.3788128
  grid = 24 27 32
  stencil order = 5
  estimated absolute RMS force accuracy = 0.0025144888
  estimated relative force accuracy = 7.5723082e-06
  using double precision FFTW3
  3d grid and FFT values/proc = 3825 384
Last active /omp style is kspace_style pppm/tip4p/omp
WARNING: Not all mixed pair coeffs generated from mixing. Use write_data with 'pair ij' option to store all pair coeffs. (../write_data.cpp:312)

write_restart   restart.lmp.${pid}
write_restart   restart.lmp.0
System init for write_restart ...
PPPM initialization ...
  extracting TIP4P info from pair style
  using 12-bit tables for long-range coulomb (../kspace.cpp:340)
  G vector (1/distance) = 0.3788128
  grid = 24 27 32
  stencil order = 5
  estimated absolute RMS force accuracy = 0.0025144888
  estimated relative force accuracy = 7.5723082e-06
  using double precision FFTW3
  3d grid and FFT values/proc = 3825 384
Last active /omp style is kspace_style pppm/tip4p/omp
Total wall time: 0:08:20
