#include		in.partitions
include		in.temp
variable        temperature equal 127.60
variable	tempDamp equal 100.0
include		in.pressure
variable        pressure equal 2055.9
variable        pressureDamp equal 1000.0 # This is 1 ps
include		in.seed
variable        seed equal 745823

units		real
atom_style	full
#include		in.box
read_restart	restart.lmp.${pid}
read_restart	restart.lmp.1
Reading restart file ...
  restart file = 30 Jul 2021, LAMMPS = 30 Jul 2021
  restoring atom style full from restart
  orthogonal box = (0.092405326 0.12025553 0.14591288) to (18.115167 23.508922 22.067283)
  2 by 4 by 2 MPI processor grid
  restoring pair style lj/cut/tip4p/long/omp from restart
  restoring bond style harmonic/omp from restart
  restoring angle style harmonic/omp from restart
  864 atoms
  576 bonds
  288 angles
Finding 1-2 1-3 1-4 neighbors ...
  special bond factors lj:    0        0        0       
  special bond factors coul:  0        0        0       
     2 = max # of 1-2 neighbors
     1 = max # of 1-3 neighbors
     1 = max # of 1-4 neighbors
     2 = max # of special neighbors
  special bonds CPU = 0.001 seconds
  read_restart CPU = 0.005 seconds
include 	in.setup
variable	out_freq equal 1000
variable	out_freq2 equal 10000
variable	out_freq3 equal 1000

timestep	2.0

neigh_modify    delay 7 every 1

include		in.tip4p
# This is TIP4P/Ice

# create groups ###
group ox type 2
288 atoms in group ox
group hy type 1
576 atoms in group hy

# set charges - beside manually ###
set group ox charge -1.1794
Setting atom values ...
  288 settings made for charge
set group hy charge 0.5897
Setting atom values ...
  576 settings made for charge

# ### TIP3P Potential Parameters ###
pair_style lj/cut/tip4p/long/omp 2 1 1 1 0.1577 8.5
pair_coeff 1 1*2 0.000 0.000
pair_coeff 2 2 0.21084 3.1668
bond_style  harmonic
bond_coeff  1 450 0.9572
angle_style harmonic
angle_coeff 1 55 104.52
kspace_style pppm/tip4p/omp 1.0e-5
pair_modify tail yes

thermo          ${out_freq}
thermo          1000
thermo_style    custom step temp pe etotal epair emol press lx ly lz vol pxx pyy pzz pxy pxz pyz enthalpy

restart 	${out_freq3} restart.lmp.${pid} restart2.lmp.${pid}
restart 	1000 restart.lmp.${pid} restart2.lmp.${pid}
restart 	1000 restart.lmp.1 restart2.lmp.${pid}
restart 	1000 restart.lmp.1 restart2.lmp.1


include         in.dump
dump            myDump all atom ${out_freq2} dump.water.${pid}
dump            myDump all atom 10000 dump.water.${pid}
dump            myDump all atom 10000 dump.water.1
dump            myDump2 all dcd ${out_freq2} dump.dcd
dump            myDump2 all dcd 10000 dump.dcd
dump_modify     myDump append yes
dump_modify     myDump2 append yes


variable natoms 	equal  "count(all)"                        # NUMBER ATOMS
variable H      	equal  "enthalpy/v_natoms"                 # ENTHALPY-per-atom
variable Vol      	equal  "vol/v_natoms"                 # volume-per-atom
fix AVG all 		ave/time ${out_freq} 1 ${out_freq} v_Vol v_H file vol_enthalpy.dat
fix AVG all 		ave/time 1000 1 ${out_freq} v_Vol v_H file vol_enthalpy.dat
fix AVG all 		ave/time 1000 1 1000 v_Vol v_H file vol_enthalpy.dat


timer           timeout 23:50:00 every 1000
New timer settings: style=normal  mode=nosync  timeout=23:50:00

fix 		1 all shake 1e-6 200 0 b 1 a 1
       0 = # of size 2 clusters
       0 = # of size 3 clusters
       0 = # of size 4 clusters
     288 = # of frozen angles
  find clusters CPU = 0.000 seconds
fix             2 all nph aniso ${pressure} ${pressure} ${pressureDamp}
fix             2 all nph aniso 2055.9 ${pressure} ${pressureDamp}
fix             2 all nph aniso 2055.9 2055.9 ${pressureDamp}
fix             2 all nph aniso 2055.9 2055.9 1000
fix             3 all temp/csvr ${temperature} ${temperature} ${tempDamp} ${seed}
fix             3 all temp/csvr 127.6 ${temperature} ${tempDamp} ${seed}
fix             3 all temp/csvr 127.6 127.6 ${tempDamp} ${seed}
fix             3 all temp/csvr 127.6 127.6 100 ${seed}
fix             3 all temp/csvr 127.6 127.6 100 745823


run             250000
PPPM initialization ...
  extracting TIP4P info from pair style
  using 12-bit tables for long-range coulomb (../kspace.cpp:340)
  G vector (1/distance) = 0.37186264
  grid = 24 27 25
  stencil order = 5
  estimated absolute RMS force accuracy = 0.0031372984
  estimated relative force accuracy = 9.4478811e-06
  using double precision FFTW3
  3d grid and FFT values/proc = 6300 1296
Last active /omp style is kspace_style pppm/tip4p/omp
Neighbor list info ...
  update every 1 steps, delay 7 steps, check yes
  max neighbors/atom: 2000, page size: 100000
  master list distance cutoff = 10.8154
  ghost atom cutoff = 10.8154
  binsize = 5.4077, bins = 4 5 5
  1 neighbor lists, perpetual/occasional/extra = 1 0 0
  (1) pair lj/cut/tip4p/long/omp, perpetual
      attributes: half, newton on, omp
      pair build: half/bin/newton/omp
      stencil: half/bin/3d
      bin: standard
Per MPI rank memory allocation (min/avg/max) = 12.26 | 12.29 | 12.31 Mbytes
Step Temp PotEng TotEng E_pair E_mol Press Lx Ly Lz Volume Pxx Pyy Pzz Pxy Pxz Pyz Enthalpy 
22500000    131.63663   -4489.7297    -4264.109   -4489.7297            0    1108.6856    18.022762    23.388667     21.92137    9240.4793    2018.7525    1233.0316    74.272698    79.232488    172.60075   -24.503555   -4114.6993 
22501000    128.63128   -4508.1459   -4287.6762   -4508.1459            0     3310.309    17.908982    23.278098    21.939031    9146.0972    3537.9188    3378.1091     3014.899    427.69279   -195.65313    412.53499   -3846.1259 
22502000    122.97324    -4499.113   -4288.3411    -4499.113            0    2346.4396    18.017471    23.219331    21.941138    9179.1543    2604.7148    1856.7716    2577.8324   -668.94019    300.53666   -124.08149   -3974.2266 
22503000    124.60205   -4507.0291   -4293.4654   -4507.0291            0    1334.2691    17.952026    23.576375    21.825107    9237.3391    1875.2167    1172.1474    955.44315   -40.728754   -81.274645    138.83307   -4113.7165 
22504000    114.08335   -4505.2632   -4309.7283   -4505.2632            0    1851.8472      18.0043    23.358647    21.887718     9205.013    825.13407     1534.987    3195.4205    176.09624    -371.9978    925.67045   -4061.1258 
22505000    132.40561   -4509.8337    -4282.895   -4509.8337            0    1487.4849     17.98971    23.303818    22.025443    9233.7026    1444.5591     745.0661    2272.8294    608.97153     6.451231    64.838715   -4082.5842 
22506000    124.97618   -4493.8313   -4279.6264   -4493.8313            0    2641.7458    17.834411    23.357187    22.082628    9198.7764    3473.2411    2909.3963    1542.6001    526.97237   -34.767064    552.47504   -3925.2238 
22507000    127.53965   -4509.3713   -4290.7727   -4509.3713            0    1587.2733    18.005652    23.313242    21.921634     9202.047    1694.5866    1398.0566    1669.1767    288.48932   -643.40016    -132.2953   -4077.7568 
22508000    131.00694   -4508.0925   -4283.5511   -4508.0925            0    1974.0391    18.068666    23.309858    21.845202    9200.7193    2197.5796      1072.38    2652.1576    11.626029     494.8343   -478.48767   -4018.6685 
22509000    133.11023    -4500.575   -4272.4286    -4500.575            0    3618.6171    17.797144    23.424531    21.935369    9144.6306    4169.2362     3534.297    3152.3181    453.40693     195.3171    900.45187   -3789.8315 
22510000    128.68416   -4507.3238   -4286.7636   -4507.3238            0    2373.2216    17.900239    23.354105    21.976536    9187.1605    3094.3705     2235.752    1789.5424    -160.3646    20.591788   -809.87876   -3968.7868 
22511000    130.32288   -4512.0287   -4288.6598   -4512.0287            0    2694.5889    17.914888    23.321033    21.943275    9167.7619    2621.6743    2472.5093     2989.583   -923.87926   -157.68948   -386.41783   -3928.3868 
22512000    124.80722   -4483.5618   -4269.6465   -4483.5618            0    2037.1863    18.101068    23.236955    21.889466    9207.0089     2692.623    2119.7884    1299.1476   -426.78137    426.22064    170.52494   -3996.1037 
22513000    126.10801   -4491.9802   -4275.8354   -4491.9802            0     1631.241    18.013556    23.281901    22.032241    9240.0976    2924.9691    291.02712    1677.7267   -353.75594      100.577    202.84777   -4056.0137 
22514000    121.96141   -4508.5869   -4299.5492   -4508.5869            0    2503.8568      17.8986     23.34231    21.966557    9177.5103    1676.7553    4261.4592    1573.3559   -361.79279   -23.669892    723.19698   -3964.4215 
22515000    124.04471   -4501.7642   -4289.1558   -4501.7642            0     2050.215     18.04475    23.234388    21.968201    9210.3598    1993.9925    1519.1942    2637.4583   -391.75506    80.443929   -89.229301   -4013.7635 
22516000     129.1968   -4511.1115   -4289.6726   -4511.1115            0    2078.1446    18.050254     23.36967     21.84399    9214.4167    1896.1403    2159.8309    2178.4625    113.70965    226.12028    50.163081   -4010.4057 
22517000    129.78645   -4510.6232   -4288.1736   -4510.6232            0    1365.8708    17.922745    23.459632    21.945976    9227.4273     1774.455    1144.4979    1178.6596   -873.85288    200.08509     148.0857   -4104.3649 
22518000    127.44523   -4520.0476   -4301.6109   -4520.0476            0    1993.5278    18.038963    23.241021    21.939977    9198.2018    1410.1782    2885.7607    1684.6443    471.26628   -383.75304    20.540538   -4034.1864 
22519000    127.31675   -4508.2409   -4290.0244   -4508.2409            0    2208.4331    17.998584    23.467878     21.77357    9196.9068    2585.2018    1137.2527    2902.8448   -279.59278    52.159602    353.58499   -3993.8129 
22520000    121.98335    -4511.848   -4302.7727    -4511.848            0    1779.2359      17.9841    23.395188    21.921276    9223.1883    647.72259    2100.7687    2589.2165    406.09266    44.930462    -224.9576   -4063.4463 
22521000    126.35566   -4517.6535   -4301.0842   -4517.6535            0    2537.8117    17.913071    23.290318    21.984555    9171.9812    2161.5668    2990.6432     2461.225    -46.67702    253.78187   -3.5750223   -3961.6166 
22522000    131.47571   -4504.5765   -4279.2316   -4504.5765            0     2313.732    17.845874    23.347496    22.074298     9197.399    2271.7438    2034.6996    2634.7525   -77.996984    63.826218    109.01257     -3968.88 
22523000    121.47054   -4509.1274    -4300.931   -4509.1274            0    2152.5803    17.867215    23.344456    22.065894    9203.6937    1238.5901    2932.4336    2286.7172    70.457384    727.81816    744.93046   -4011.9978 
22524000    136.17124   -4497.2349   -4263.8421   -4497.2349            0    1740.8693    18.038699    23.167252    22.075801    9225.6336    1696.7255    2672.4826     853.3999    343.75147   -377.57409    157.08269   -4029.6144 
22525000    133.95714   -4515.3677   -4285.7697   -4515.3677            0     2575.474    17.757903    23.483249    21.985063    9168.0628    2689.7853    2436.1405    2600.4962    145.63851    15.702967   -481.43831   -3941.4114 
22526000    130.82357   -4497.5588   -4273.3317   -4497.5588            0    3016.9069    17.925208     23.33415    21.960569    9185.4362    4060.1498    2202.4948    2788.0762      629.579    119.14789   -17.250507   -3869.1863 
22527000     137.8149   -4515.4664   -4279.2564   -4515.4664            0    2938.4782    18.004568    23.256971    21.946544     9189.714    2228.5553    3582.9524    3003.9268    -613.2591    164.99821    243.77499    -3885.434 
22528000    126.11799   -4516.0631   -4299.9012   -4516.0631            0    2251.3881    17.906582    23.477845    21.940453    9223.9409    2601.8113    1961.7526    2190.6004   -33.091712   -444.11722   -471.78994   -3997.0406 
22529000    125.18203   -4520.2276   -4305.6699   -4520.2276            0    2123.3552    18.013013    23.313026    21.954247    9219.4187    2199.7468    2003.0521    2167.2668   -505.21333   -621.49232    -395.7016   -4020.1726 
22530000    131.47507    -4505.192   -4279.8482    -4505.192            0    2027.5524    18.113184    23.217189    21.908833    9213.4795    1438.9016    2358.0715    2285.6842   -414.80286    30.005692    173.70745   -4007.4077 
22531000    130.06062   -4497.8338   -4274.9144   -4497.8338            0    1756.8095    18.000045    23.526276    21.831855    9245.2234    2317.9148    1406.1461    1546.3675   -89.353643   -51.635255    478.97987   -4038.0401 
22532000    130.34111   -4505.1386   -4281.7384   -4505.1386            0    1783.7653    18.127131    23.395647    21.769593     9232.396    2026.4634     1246.954    2077.8783   -1728.2217   -230.46395    379.47173   -4041.5633 
22533000    136.66737    -4521.911   -4287.6678    -4521.911            0    434.20521    18.071346    23.338452    22.028348    9290.6153   -818.30983    1222.0091    898.91635   -35.064944   -329.09321    240.52568   -4228.8356 
22534000    126.02769   -4515.3262    -4299.319   -4515.3262            0    1469.1474      17.8623    23.427759    22.024767    9216.7844    1984.0309    1194.5273     1228.884    151.35451   -229.28967   -120.13068   -4101.8402 
22535000    119.77668   -4511.0077   -4305.7146   -4511.0077            0    1880.3867    18.086469     23.20663     21.99389    9231.4074    2221.7203    1979.5069     1439.933   -614.39033    65.845744    495.41658    -4052.557 
22536000    126.91612   -4518.8229    -4301.293   -4518.8229            0    1466.1152    18.037963    23.302157    21.964686    9232.2725    958.30888    2044.4464    1395.5903      187.984   -339.38765    515.12909   -4103.8906 
22537000    127.87423   -4504.2424   -4285.0704   -4504.2424            0    1576.0601     17.95119    23.377318    22.063673    9259.0352    2105.9894    1535.2762    1086.9149    1421.0341   -314.67776    54.576963   -4072.2494 
22538000    130.86163   -4514.9011   -4290.6087   -4514.9011            0    2411.2036    17.931872     23.31934      22.0105     9203.898    2334.5308    1841.6311     3057.449   -1098.9619    -206.6703   -23.818602   -3966.9543 
22539000     127.9571   -4506.1546   -4286.8405   -4506.1546            0    1720.5584    18.006072    23.287462    21.967065    9211.1358    2636.6261    1471.8013    1053.2477    225.75555   -83.488663    282.96544   -4055.7094 
22540000    128.42344   -4513.6207   -4293.5073   -4513.6207            0    1625.2675    17.972653     23.51343    21.809745    9216.7699     2092.033    974.29717    1809.4723   -115.30521   -78.115995   -273.16454   -4075.0435 
22541000    120.20492   -4500.1089   -4294.0818   -4500.1089            0     2005.628    18.073463    23.383059    21.829096    9225.2567    2757.9594    1390.9737     1867.951    259.98603   -713.27435   -208.85417   -4024.2428 
22542000    121.80615   -4502.8404   -4294.0688   -4502.8404            0    2403.0646    17.963793     23.49568    21.769535     9188.301    2599.0916    2216.2157    2393.8865    -1067.924   -103.35794    152.63573   -3972.0535 
22543000    123.84232   -4497.7418   -4285.4803   -4497.7418            0    2033.3881    17.973984     23.38737    21.910724    9210.4844    3447.7572    1924.2842    728.12301   -528.44624   -20.897229   -228.44177   -4012.3445 
22544000    130.17742   -4508.5218   -4285.4021   -4508.5218            0    2100.9335    18.088182    23.176218    22.013602    9228.4464    3171.7801    2196.0726    934.94775   -303.52338    173.94162    123.55819   -4002.6429 
22545000    124.02181   -4527.7425   -4315.1734   -4527.7425            0    2131.4047    17.947416    23.323569    21.977117    9199.5727    2175.8798    1658.9669    2559.3674    331.42838   -545.43801    333.60345   -4029.2106 
22546000     127.6884   -4498.4749   -4279.6214   -4498.4749            0     2854.711    17.829162    23.386045    22.009409    9176.9019     3803.568    2716.3305    2044.2345   -353.61449    -427.5217   -18.185796   -3897.5591 
22547000    122.97502   -4509.5542   -4298.7792   -4509.5542            0    1507.0775    18.059182    23.123874    22.067846    9215.4938    1372.6013     1437.396    1711.2353   -332.38397    67.865316    171.54207   -4096.2302 
22548000    129.58394   -4511.4943   -4289.3919   -4511.4943            0     1055.261    17.945951    23.423638    22.010085    9252.1476    1548.3462    949.58148    667.85523    382.79929   -170.96968   -705.59396   -4147.0023 
22549000    129.26947   -4504.3723   -4282.8088   -4504.3723            0    1969.7544     17.94258    23.412951    21.880311    9191.6725     2713.098    2269.1236    927.04159    -36.27175    1073.2792    240.18527    -4018.761 
22550000    122.55195    -4504.893   -4294.8432    -4504.893            0    2208.7985     18.09872    23.213766    21.907632    9204.2604     3231.855     2059.042    1335.4986    332.65788    -226.6215   -209.61446   -3998.3458 
22551000     132.1493   -4502.9467   -4276.4473   -4502.9467            0    1122.4548    17.979477    23.328105    21.984609    9220.9416    1729.0055    1028.5187    609.84021    -361.7138     52.47301    44.221815   -4125.5019 
22552000    125.60388   -4506.6582   -4291.3775   -4506.6582            0    2065.0776    17.917353    23.458501    21.820732    9171.5643     1316.603    1617.4497    3261.1801    451.65784    10.024919    434.43044   -4015.1571 
22553000    127.31145   -4513.4655    -4295.258   -4513.4655            0    2572.5199    17.954586    23.384397    21.844325    9171.4966    3157.3913    2861.7476    1698.4208   -269.25309    103.24163   -16.733676   -3951.1658 
22554000    127.97621   -4499.5301   -4280.1832   -4499.5301            0     1587.797     17.95828    23.510166    21.853507    9226.5977    1267.6142    1325.2276    2170.5493    1171.1208   -148.98206    4.1744361   -4066.5285 
22555000    121.11878   -4493.4778   -4285.8844   -4493.4778            0    2673.1203     17.85974    23.478936    21.829443    9153.6902    3156.7643    1979.2498    2883.3468    286.18001   -87.778339    426.29314   -3929.0304 
22556000    131.09114   -4498.1135   -4273.4278   -4498.1135            0    2840.2871    17.973992    23.250105     21.93902    9168.2549    3812.6206    1975.2954    2732.9453    448.26586   -166.60715    12.713885   -3893.6541 
22557000    132.09258   -4515.8428   -4289.4407   -4515.8428            0    2206.5851    17.915856    23.221325    22.027738    9164.1982      1974.54    2409.7085    2235.5069   -793.63783   -69.609393    161.43162   -3994.5296 
22558000    128.06754   -4509.7539   -4290.2505   -4509.7539            0    2688.5028    17.930485    23.228518    22.017993    9170.4637    3150.7589     3452.418    1462.3315     608.3389    436.84226    37.275217   -3930.6853 
22559000    130.68621   -4512.5329   -4288.5412   -4512.5329            0    1545.1731    17.777758    23.380537    22.184778    9221.1815    2433.3926    1803.2047    398.92204   -36.955322   -123.09339    257.56556   -4080.7441 
22560000    121.49275   -4517.3227   -4309.0883   -4517.3227            0    1237.0399    17.983398    23.318306    21.992109     9222.223    1197.1525    1037.0737    1476.8935    95.707474    113.08659   -241.83797   -4142.7105 
22561000    127.89173   -4508.5923   -4289.3903   -4508.5923            0    2258.9643    17.949493    23.318338    21.969119    9195.2264    2703.9149    1634.7971     2438.181      322.139   -337.53329    -590.4783   -3986.4565 
22562000    123.08794   -4491.1339   -4280.1654   -4491.1339            0    2068.3208    18.039494    23.221979    21.961356    9199.8919    1588.8028    2574.8524    2041.3071   -763.24788   -827.59128   -4.0036356   -4002.6568 
22563000    138.03128   -4504.9603   -4268.3794   -4504.9603            0    2409.7727    17.967671     23.15834    22.027536    9165.6893    2206.3269    2522.3049    2500.6863     561.9422   -109.27171    855.66944   -3946.2598 
22564000    129.25133   -4512.1526   -4290.6203   -4512.1526            0    2429.2466    17.801411    23.461631    21.930944    9159.4619    3278.7813    2396.4467    1612.5118   -848.99844    469.85769    64.469806   -3966.1182 
22565000    122.16964   -4510.1442   -4300.7496   -4510.1442            0    2258.7835    18.055718    23.208873    21.857088    9159.2756    1873.9448    2753.1674    2149.2385    426.02688    347.61458   -68.676992   -3999.0244 
22566000    128.90286   -4493.6929   -4272.7578   -4493.6929            0    2324.2013    17.923123    23.223371    22.061584    9182.8109    2656.0286    2481.5315    1835.0439   -627.03348   -513.78374   -144.74395   -3961.4964 
22567000     119.7109   -4513.8335   -4308.6531   -4513.8335            0    1935.4651    17.720862    23.508131    22.018741    9172.6627    1141.3642    1798.3418    2866.6892   -485.82825   -286.59042    341.70791   -4049.7385 
22568000    126.86471   -4509.2226   -4291.7808   -4509.2226            0    2390.4914     18.05776    23.162383    21.936666    9175.2463    1787.5887    2525.3011    2858.5844    309.36091    80.397422   -420.20686   -3971.9055 
22569000    116.60429    -4507.817   -4307.9612    -4507.817            0    1786.6617    17.993987     23.35449    21.887289    9197.9232    914.60562    2133.6089    2311.7706    -430.6253    345.17761    449.94634   -4068.2944 
22570000    123.70515   -4502.1678   -4290.1414   -4502.1678            0    2138.4425    17.833006    23.611845    21.806103    9181.8994    1824.4671    825.98476    3764.8756   -634.08558    -114.9359    -224.4435   -4003.7856 
22571000    128.40493   -4511.9757   -4291.8941   -4511.9757            0    2090.1424    18.060948    23.193325    21.930948    9186.7301    2712.5069    1526.1542    2031.7661   -45.588541   -10.661183    134.84148   -4011.8588 
22572000    132.97771    -4490.657   -4262.7377    -4490.657            0    1960.5829    17.885854    23.633233    21.830398    9227.7211    2389.0511    1006.2207    2486.4769   -814.32704    61.706997      533.605   -3998.8887 
22573000    120.33352   -4514.3712   -4308.1237   -4514.3712            0    2407.5182    18.003437     23.32642    21.903768    9198.6131    1649.0579    2711.5061    2861.9907   -249.28964   -214.99433    137.79936   -3985.1495 
22574000    128.14677   -4512.3871   -4292.7479   -4512.3871            0    2379.0759    18.111538    23.186632    21.883263    9189.7793    1260.2536    1971.9874    3904.9866   -362.17641    -123.4095   -330.70241   -3973.8958 
22575000    123.59049   -4505.6562   -4293.8263   -4505.6562            0    2350.3952    17.875968    23.467385    21.959402    9212.0178    2426.5923    2269.4105    2355.1829   -91.994545    -524.8022   -72.018585   -3978.0558 
22576000     119.9177    -4501.312   -4295.7772    -4501.312            0    1852.8315     17.87606    23.365489    22.051594    9210.5736    1144.5819     2549.548    1864.3644    108.38155    325.22169   -409.18375   -4046.8923 
22577000    126.32921   -4515.3014   -4298.7775   -4515.3014            0    1479.7572    18.075696    23.195807    21.981498      9216.41    1028.6189    2619.7033    790.94933    735.70801   -598.53922   -644.86562   -4099.8805 
22578000    133.78294   -4498.3936   -4269.0942   -4498.3936            0       1796.6    18.000116     23.38807    21.838064    9193.5623    1850.7687    1178.2978    2360.7333    587.64844   -114.36681    217.97418   -4028.2084 
22579000       126.15   -4508.7566   -4292.5398   -4508.7566            0    2160.9412    17.937247    23.481776    21.837332    9197.8496    3258.9535    1956.9963    1266.8739   -208.56053   -724.46833    -275.4922   -4002.6685 
22580000    133.94403   -4500.4864   -4270.9109   -4500.4864            0    1861.6114    18.200459    23.023442    21.987773    9213.6945    299.45276    3059.5315    2225.8498   -732.70539    229.09076   -454.52445   -4020.7619 
22581000    123.71808   -4503.9954   -4291.9469   -4503.9954            0    1044.7295    17.930285    23.458938    21.954608    9234.6666     180.8635    1291.3948    1661.9303    705.38994    62.122964   -172.12932   -4151.2446 
22582000    128.15855   -4520.9327   -4301.2733   -4520.9327            0    2517.5603    17.873101    23.406242     21.85326    9142.1391    2983.7826    2247.3284    2321.5699    244.39984    84.020029    57.294619   -3965.6102 
22583000    117.07817   -4502.0868   -4301.4188   -4502.0868            0    3068.2723    17.948375    23.206674     21.96241    9147.8287    2379.3745    3930.7584     2894.684   -750.42164    198.20045   -474.89804   -3892.0754 
22584000    128.17638   -4488.8179    -4269.128   -4488.8179            0    1827.4262    17.839423    23.516232    21.918261    9195.0615    1831.1088    1654.0694    1997.1003   -176.56592   -339.21253    2.9891727   -4024.0692 
22585000    130.75232   -4516.8554   -4292.7504   -4516.8554            0    1549.0225    18.041713    23.375666    21.902721    9237.1891    1757.6275     1884.528    1004.9118    292.53136     62.51266   -185.06728   -4084.0739 
22586000    128.03078   -4510.5278   -4291.0874   -4510.5278            0    2484.4245    18.106943    23.106149    21.895142    9160.5274    1951.3664    2675.4497    2826.4573    497.69926    287.26354    82.823386    -3959.176 
22587000    125.60349   -4514.1684   -4298.8883   -4514.1684            0    2029.7897    17.802471    23.573175    21.942538    9208.4222    2927.1306    1045.7502    2116.4883   -917.49413   -173.06911   -109.69314   -4026.2969 
22588000    134.49679   -4502.9943   -4272.4714   -4502.9943            0    2665.8527    17.885471    23.283722    22.042045    9179.1966    2825.7166    2858.9939    2312.8477   -158.09654    232.31558    194.57572   -3915.5959 
22589000    124.22479    -4516.015   -4303.0979    -4516.015            0    2933.1486    18.021633    23.237931    21.853571    9151.9578     2284.879     2931.358    3583.2088   -96.029926   -331.85348   -69.120322    -3911.605 
22590000    128.49203   -4508.3247   -4288.0937   -4508.3247            0     2016.801    17.922539    23.387151     21.89978    9179.4487    2458.2199    2385.9272    1206.2558    11.277327   -750.59263   -475.85733   -4018.0989 
22591000    125.82813   -4521.3396   -4305.6745   -4521.3396            0     2736.828    17.927999    23.376464    21.874588    9167.4915    2068.7961    2726.4767    3415.2113    535.04744   -134.51506    258.14271   -3939.7648 
22592000    127.43199    -4498.215   -4279.8009    -4498.215            0    1736.9941    18.003912    23.324177    21.945371    9215.4411     2044.465    2009.2173    1157.3002   -21.793198   -205.95638    256.79419   -4046.3528 
22593000    123.52312   -4511.1266   -4299.4122   -4511.1266            0    1914.8373    17.740088    23.491259    22.059828    9193.1468     3476.278    1674.6369    593.59706   -657.52616    571.74925   -13.604637    -4042.685 
22594000    127.43547   -4513.7599   -4295.3399   -4513.7599            0    1640.1386    17.956369    23.355961    22.019314    9234.6417    1518.9703    1932.8321    1468.6133     146.4782   -520.42938    894.25822   -4074.4497 
22595000    132.04635   -4524.6646   -4298.3417   -4524.6646            0    2165.6997    17.803644    23.336132    22.123442    9191.5865     2962.538    2212.9299    1321.6311    225.11842    -423.0876   -10.741976   -4008.0299 
22596000    125.37354    -4498.179   -4283.2931    -4498.179            0    1712.5993    17.859439    23.376007    22.040007    9201.3144    1906.0718    1118.9567    2112.7694   -66.100108   -289.03852    259.96581   -4053.4764 
22597000    126.43094   -4503.2678   -4286.5695   -4503.2678            0    1642.1365    18.009415    23.226152    22.077286    9234.6951     1451.096    1302.0561    2173.2574   -597.72308   -473.17273    146.32072   -4065.4089 
22598000    121.08114   -4516.5807   -4309.0517   -4516.5807            0    1939.8964    17.886591    23.476725    21.894398    9193.8648    2282.6776    1544.9189    1992.0927   -450.46062    135.53881    126.36667   -4048.9444 
22599000    129.37995   -4508.3069   -4286.5541   -4508.3069            0    2710.8825    17.948269    23.369447    21.900367    9185.9146    3057.8285    2545.9031    2528.9158   -68.246298   -16.001809    1.4257148    -3923.385 
22600000    124.60882   -4517.4341   -4303.8589   -4517.4341            0    1365.9817    18.017566    23.196259    22.055586    9217.9144    1094.6609    2079.3162    923.96796    28.085431    213.07937   -280.71851   -4120.2248 
22601000     122.1666   -4516.9246   -4307.5353   -4516.9246            0    1615.4079    17.930571    23.424455    21.948338    9218.6059    2052.5189    1396.1879    1397.5171    144.33202    62.996101   -144.66522   -4090.3535 
22602000    129.86986   -4501.3458   -4278.7533   -4501.3458            0    3644.2659    17.910191    23.369728    21.834714    9139.0568    3457.9621    3703.9062    3770.9293   -700.39285   -358.19406    148.93388   -3793.0318 
22603000    131.84346   -4507.6862    -4281.711   -4507.6862            0     1707.557    17.921596    23.494823    21.863096    9205.7788    740.54346     2076.298    2305.8295    37.806583   -420.71103   -127.17596   -4052.4598 
22604000    125.74382    -4507.845   -4292.3244    -4507.845            0    1160.7648    18.115765    23.319023    21.927714    9263.1858    1012.0402    2104.7275    365.52675    -493.2734   -254.29773    31.232026    -4135.512 
22605000    129.16514   -4501.3879   -4280.0033   -4501.3879            0    3218.1606    17.969811    23.247817    21.919874    9157.2219     3841.608    3022.1658    2790.7078   -479.06602    61.584717    367.73772   -3850.2222 
22606000    123.83014   -4517.6202   -4305.3796   -4517.6202            0    1897.1591    17.868461    23.278195    22.096478     9190.931    1909.4063    2866.4717    915.59943   -293.36135    357.83174    672.56544   -4051.0838 
22607000    125.35134   -4517.6445   -4302.7966   -4517.6445            0    1786.9607    17.916365    23.236739    22.110381    9204.9469     2373.139    636.95113     2350.792   -684.26047   -108.75258    122.59734   -4062.9066 
22608000    125.34327    -4503.728   -4288.8939    -4503.728            0      3266.96    17.904323    23.265347    21.915531    9128.9208    2839.4673     2777.952    4183.4607    124.76603   -1.4439183   -72.293345   -3853.9441 
22609000     126.8352   -4514.4647   -4297.0735   -4514.4647            0    844.97997    17.995746    23.428385    21.923281    9243.1023   -730.02923    1790.0934    1474.8757    78.290633   -307.55804    616.05417   -4183.1692 
22610000    125.46342   -4512.2458   -4297.2058   -4512.2458            0     1035.531    18.102807    23.243912    21.973603    9246.0539    935.45567    2353.8419   -182.70466   -125.38376    442.43299   -63.317117   -4157.5705 
22611000    126.50957   -4500.6411    -4283.808   -4500.6411            0    1893.3102    17.793615    23.413176    22.040198    9182.0576    3033.3927    2029.0686    617.46916    796.39925   -489.45629    406.37959   -4030.2731 
22612000    130.99814   -4514.7588   -4290.2325   -4514.7588            0    2589.9423    17.841795    23.376485    21.946751    9153.5169    2004.5174    2551.7514    3213.5582   -109.00775    78.715784   -124.87421    -3944.489 
22613000    125.07096    -4508.182   -4293.8146    -4508.182            0    968.98845    17.995335    23.336235    21.964684    9223.9232    256.84092    1346.0667    1304.0577   -76.197088    506.85225    355.85264   -4163.4649 
22614000    132.55005   -4498.5273   -4271.3411   -4498.5273            0    2577.5746    17.905093     23.39919    21.886917     9169.845     3522.333    2225.8612    1984.5296    353.39485   -708.91373    137.21485   -3926.6349 
22615000    130.20595   -4500.9578   -4277.7893   -4500.9578            0    1943.7104    17.925067    23.189434    22.126198    9197.2442    1648.6505    2772.3482    1410.1326     688.3802   -61.121809   -242.14207   -4017.0748 
22616000    123.86895   -4510.4482   -4298.1411   -4510.4482            0    2556.4532    18.005883    23.133546    22.006338    9166.5184    2962.6852    3192.9319    1513.7426   -716.81626   -1081.8403    22.914734   -3956.3835 
22617000    121.87088   -4516.7993   -4307.9167   -4516.7993            0    2258.8316    17.968114    23.281937    21.940035    9178.2293    2720.0626    1869.5984    2186.8337     454.7124    384.07207    158.41148   -4005.5607 
22618000    122.51743   -4510.0216   -4300.0309   -4510.0216            0    1607.5234    17.916061    23.445431    21.948602    9219.5053    1514.7378    1659.3559    1648.4764   -86.673532    217.65712    289.64556   -4083.8881 
22619000     131.9639   -4509.9454   -4283.7638   -4509.9454            0    1811.5614    17.924998    23.431318    21.869533    9185.3423    1336.2311    1795.4006    2303.0526    250.68565    440.96666    93.797767   -4041.0892 
22620000    128.79631   -4519.0564    -4298.304   -4519.0564            0    1840.5006    18.166721    23.233616    21.793237    9198.4592    1917.2442    2104.0927     1500.165   -139.30418   -642.58138   -353.09696   -4051.4006 
22621000    126.51709   -4516.3035   -4299.4575   -4516.3035            0    1864.7937     17.97997    23.516741    21.757857    9199.8813    2599.2629    905.90434    2089.2137   -240.15713   -80.511321   -997.04735   -4049.2566 
22622000    132.02967   -4500.6283    -4274.334   -4500.6283            0    3098.8714    17.901769    23.345332     21.85412    9133.3335     3772.682     2953.057    2570.8752   -1080.3564    209.36032    -245.9632   -3861.5634 
22623000    121.07172   -4513.8776   -4306.3648   -4513.8776            0    2532.6842     17.90302    23.146663    22.165163    9185.1364    3043.8506    2895.2729     1658.929    501.52435   -359.80738   -366.78753   -3967.0971 
22624000    129.51512    -4501.569   -4279.5845    -4501.569            0    1429.4372    17.889922    23.370972     22.04308    9216.3189    411.10453    2190.5399    1686.6671   -498.50011   -528.90314    207.76479   -4087.4531 
22625000     133.4123   -4500.6865   -4272.0224   -4500.6865            0    2328.1861    18.020283    23.311337     21.89159    9196.1512     2677.519     2510.668    1796.3712   -138.09659    2.3850167    492.32876   -3959.7744 
22626000    128.72583   -4510.6948   -4290.0631   -4510.6948            0    2500.7527    17.911137    23.352731     21.94046    9177.1233    2158.1262    3102.2964    2241.8356    401.15435   -157.03963    499.68124    -3955.365 
22627000    130.85805   -4512.4076   -4288.1214   -4512.4076            0    1015.3176    17.831363     23.43512    22.145707    9254.2513    347.99753    1918.0131    779.94226   -583.99875    25.547308    676.31757   -4151.0903 
22628000    135.28925   -4520.8854   -4289.0043   -4520.8854            0    2129.4383    17.999836    23.243015    21.975181    9193.7664    2964.2306    2176.6218    1247.4624   -284.93072   -227.56862   -446.79073   -4003.4857 
22629000    136.77747   -4512.5824   -4278.1505   -4512.5824            0    1617.5406    17.952648    23.320042    21.959648    9193.5493     896.2861    2012.6511    1943.6845    272.84673    596.24913    41.183738   -4061.2731 
22630000    122.62413   -4511.5953   -4301.4217   -4511.5953            0      1730.94    17.918417    23.517698    21.810061    9190.7577    2165.4465    1338.6252    1688.7484    -821.3664   -280.37833   -159.17995   -4069.4104 
22631000    124.88778   -4520.0097   -4305.9563   -4520.0097            0    1695.8835    17.996939    23.400899    21.846269    9200.4368    1362.7077    2306.2299    1418.7129   -571.18573   -48.519334    370.16712   -4078.4045 
22632000    128.51501   -4495.5117   -4275.2414   -4495.5117            0    2417.4072    18.024768    23.173582    21.993726    9186.7451    2097.1526    2478.3383    2676.7308    111.83428    41.750095    50.133265    -3951.359 
22633000     121.3809   -4506.2004   -4298.1577   -4506.2004            0    2427.8822    17.937133    23.432878    21.783045    9155.8198     3459.911    2360.6905    1463.0451    317.75435    123.35963   -153.76406   -3973.9669 
22634000    119.98623   -4511.3788   -4305.7265   -4511.3788            0    1560.5349    18.049119    23.440115    21.815137    9229.4048    544.24436    1934.3652    2202.9952   -113.01016   -233.48625   -114.01001   -4095.6763 
22635000    122.28383   -4524.4849   -4314.8946   -4524.4849            0    1488.7834    18.007676    23.228505    22.056715    9226.1339    994.39214    1988.1614    1483.7965    70.179145    55.048279    313.01366   -4114.5733 
22636000    125.24132   -4504.1291   -4289.4698   -4504.1291            0    2505.1535    17.867426    23.203202    22.126438    9173.2118     3593.662    2804.1255    1117.6731    301.97428   -158.12339   -511.20966   -3954.3256 
22637000    125.49769   -4514.4771   -4299.3784   -4514.4771            0    2169.2141    17.551005     23.59532    22.182784    9186.3691    3575.1616    1921.1553    1011.3256    396.75485    181.97391   -220.01465   -4008.7606 
22638000    126.26054   -4504.1857   -4287.7794   -4504.1857            0    2815.8419    17.938578    23.258757    21.946005    9156.5105    2962.7388    3065.7397    2419.0473    479.24638    131.81942   -316.27252   -3911.7566 
22639000    115.16497   -4512.5348    -4315.146   -4512.5348            0    901.82297    18.048891    23.348757     21.90283    9230.2727    1494.1155    1138.7503    72.603104    433.39983   -390.15539    32.944063    -4193.748 
22640000    122.68895   -4505.1155   -4294.8308   -4505.1155            0    2871.6645    17.866756    23.406546    21.867401    9144.9264    2013.4472    2696.4912     3905.055    -112.6051   -388.34549    352.52031   -3911.8387 
22641000    121.88231   -4516.3342   -4307.4321   -4516.3342            0    3103.0617    17.885667    23.358005    21.859979      9132.52    3469.4991    3342.0308    2497.6551    858.11593    179.87854    306.64758   -3894.1402 
22642000    120.10347   -4507.4977   -4301.6444   -4507.4977            0    1310.1365    18.058085    23.338993    21.899857    9229.8594      1906.86     502.6249    1520.9247   -490.77978    584.25911    165.65746   -4125.2895 
22643000    117.67759   -4499.7713    -4298.076   -4499.7713            0    2159.1205    18.123605    23.354166    21.718999      9192.82    2237.6821    2063.0136    2176.6657   -201.78844   -119.36574     568.3394   -4008.6073 
22644000    128.33059   -4515.5583   -4295.6041   -4515.5583            0     2357.645    17.889003    23.459152    21.917918    9198.0922    3952.3237    1117.2763    2003.3351     231.9596   -25.535834    436.47098   -3979.3384 
22645000     128.6424   -4498.8964   -4278.4077   -4498.8964            0    2615.0543    18.010107    23.274364    21.960139    9205.1147    1474.4293     3617.408    2753.3256    -397.9118    22.359091    560.34856   -3927.3441 
22646000    126.26601     -4514.85   -4298.4344     -4514.85            0    2249.2966    17.977255    23.192148    22.007683    9175.6885    3362.5795    2309.1885    1076.1218    661.31569    1073.3963   -137.34029    -3997.438 
22647000     121.3384   -4518.3383   -4310.3685   -4518.3383            0    1954.8852    17.893827    23.368395    22.021427    9208.2602    2869.5678    1492.3481    1502.7398   -52.110164   -787.23029   -41.157544    -4047.841 
22648000    128.90252   -4535.0192   -4314.0847   -4535.0192            0    1333.2197    17.982483    23.277426     22.07636    9240.8531    1774.9061    1345.4471    879.30598    750.88124     95.28049    324.63685   -4134.4088 
22649000    136.79296   -4506.3673   -4271.9089   -4506.3673            0    2109.9991    17.991809    23.252512      22.0185    9211.5443    2299.8109    1520.9974     2509.189   -68.465258   -194.95888    416.14687   -3988.4496 
22650000    122.01841   -4503.4992   -4294.3639   -4503.4992            0    2155.4383    17.887389    23.528663    21.851357    9196.5006    3073.6634    890.07221    2502.5792    325.92909   -57.755926     217.6959   -4005.2732 
22651000    120.10034   -4490.0382   -4284.1903   -4490.0382            0    1325.5921    18.004858    23.398932    22.011483    9273.3157    2907.2039    970.21676    99.355761    406.01807   -206.36721    585.61042   -4104.9148 
22652000     122.5021   -4517.3296   -4307.3652   -4517.3296            0    2233.8487    17.920232    23.209244    22.095166    9189.7117    2224.4351    1725.4646    2751.6464    87.532552     477.3721   -222.48868   -4007.9791 
22653000    128.17384    -4507.511   -4287.8254    -4507.511            0    1801.0979     17.82364    23.417553    22.057058    9206.3078    1748.7017    2008.9365    1645.6556    25.682361    217.78261   -649.36657   -4046.0018 
22654000    118.90262   -4505.8088   -4302.0138   -4505.8088            0    1436.8542    17.931385    23.294502    22.108585    9234.8149    1200.7565    1564.6993    1545.1069    383.74681   -416.05704    592.30568   -4108.4979 
22655000    126.99514   -4512.1743    -4294.509   -4512.1743            0    1952.2862    17.977405    23.100657    22.174661    9208.9123    2343.3959     1551.213    1962.2497     331.7971    380.88388    69.725169    -4032.312 
22656000    119.97207   -4520.7979   -4315.1699   -4520.7979            0    2689.3899    17.932474    23.386422    21.876116    9174.3267    1940.5694    2196.4229    3931.1773   -741.56554    211.77235   -34.163633   -3955.3345 
22657000    118.83945   -4504.4453   -4300.7585   -4504.4453            0    1808.3597    17.904938    23.407239    21.946719    9197.9837    2212.6657    2021.7099    1190.7036   -211.79152    344.05718   -140.58426   -4058.1795 
22658000    130.52904   -4526.1311   -4302.4088   -4526.1311            0    1826.2799    17.981731    23.442246    21.884388    9224.9734    1333.0974    1436.2356    2709.5068   -188.31379   -274.25141   -974.49989   -4056.7069 
22659000    134.70519   -4523.3732   -4292.4932   -4523.3732            0    2635.3619    18.083829    23.226711    21.760225    9139.9008    2099.9355    3424.9786    2381.1717    449.26587   -22.830555   -364.61504   -3941.2098 
22660000     131.0548   -4504.3615    -4279.738   -4504.3615            0    1111.7013    17.925604    23.484723    21.942065    9237.1233     1536.628    209.44198     1589.034   -98.009548   -95.090263   -201.46132   -4129.9763 
22661000    122.63549   -4516.9301   -4306.7371   -4516.9301            0    2222.3089    17.924326    23.244296    21.989067    9161.4887    2440.1775    3357.0916    869.65747    283.49011   -25.525693     109.8697   -4009.8124 
22662000    125.69696   -4516.7861   -4301.3458   -4516.7861            0    1264.1862    18.140682    23.128176    22.007236    9233.3755    195.28708     1473.191    2124.0806    637.75541   -48.278121     315.1921   -4131.1114 
22663000    123.58425   -4503.6881   -4291.8689   -4503.6881            0    688.82626    17.970836    23.588626    21.827345    9252.7718    286.15828    607.26162    1173.0589   -402.91184    454.18045   -646.68124   -4198.9172 
22664000    122.58245   -4511.4204   -4301.3183   -4511.4204            0    1324.9605    18.018744    23.427773    21.884459    9238.2847    1163.5032    2113.1948    698.18351    -814.3259    605.61919     574.6137   -4122.8052 
22665000     126.3252   -4507.8069   -4291.2899   -4507.8069            0    2695.6113    18.048782    23.092042    22.016522    9176.1172    1782.0774    3544.0129    2760.7437    197.80518    422.54762    831.92501   -3930.5517 
22666000    129.45533   -4507.6246   -4285.7426   -4507.6246            0    632.58796    17.888759    23.736084    21.854444    9279.5956     1232.218    99.439071    566.10678    222.35859    263.38799   -284.11087   -4200.1323 
22667000    121.98262   -4516.3411   -4307.2671   -4516.3411            0    2689.3758    17.986278    23.350938    21.842719    9173.8647    1861.8169    2542.4989    3663.8115    29.443554    47.853707   -152.14176   -3947.4517 
22668000    132.40075   -4501.3031   -4274.3727   -4501.3031            0    1062.0311    18.120361    23.097851    22.093583    9247.0794    604.39144    937.45891    1644.2429    314.99451   -348.34189    800.74872   -4131.1481 
22669000    132.88321   -4502.2455   -4274.4882   -4502.2455            0    3472.0882    17.902601    23.346483    21.920535    9161.9678     3248.055    3273.4716    3894.7379   -494.10658    390.35932    319.86359   -3810.5551 
22670000    128.96463   -4513.5568   -4292.5158   -4513.5568            0    2668.8745    17.951673    23.481351    21.814639    9195.5145     3399.587     1958.378    2648.6584    699.21706    783.47712   -503.16245   -3934.6007 
22671000    128.36645    -4511.468   -4291.4523    -4511.468            0    1728.4027    18.086685    23.449359    21.722385    9212.9232    1581.7929    1871.7492     1731.666   -752.54661   -34.117302   -477.22709   -4059.2223 
22672000    131.85115   -4521.5601   -4295.5717   -4521.5601            0    1994.4463    17.986233    23.303752      21.9608    9204.7969    1911.7719    2579.3448    1492.2222   -1308.2745    136.32584    -104.0296   -4027.8322 
22673000    126.05665   -4514.0076   -4297.9508   -4514.0076            0    2618.0891    17.922289    23.406523    21.842097    9162.7262    3285.4805    3394.5893    1174.1975   -432.09271    -169.2964   -125.49253   -3948.0983 
22674000    123.69361   -4513.3553   -4301.3487   -4513.3553            0    1878.6137    18.052402    23.193685    21.934661    9184.0807    1267.5427    2458.2971    1910.0013   -179.99096    192.68064    118.61338   -4049.7264 
22675000    125.23861   -4495.6307   -4280.9761   -4495.6307            0    2702.8085    17.867868    23.232468    22.064457    9159.2793     3318.392    3323.2502    1466.7833   -359.62245    210.93498   -24.026764   -3919.9384 
22676000     127.6911   -4516.1102   -4297.2521   -4516.1102            0    2418.5257    17.856222    23.200136    22.128941    9167.2852    2818.9244    2529.9401    1906.7127   -10.096099     -324.409   -353.50515   -3973.9062 
22677000    131.93364   -4504.5829   -4278.4531   -4504.5829            0     1367.659    17.920232    23.432038    21.944843    9214.8052    897.38209    1179.6411    2025.9537   -538.37379   -226.12443    370.35101   -4094.6555 
22678000    131.18747   -4507.7976   -4282.9467   -4507.7976            0    2116.3428    18.109123    23.330059     21.79172    9206.7164    1765.7134    2717.6195    1865.6953   -215.22011   -375.07664    232.71278   -3998.7843 
22679000    121.42188   -4502.2484   -4294.1354   -4502.2484            0    2008.2463    18.109463    23.258731    21.831397    9195.4529    1439.8593    2142.4323    2442.4472    275.74992   -395.81203   -18.321172   -4024.8171 
22680000    127.60795   -4515.5897   -4296.8741   -4515.5897            0    2478.5895    17.861921    23.487541    21.860421    9171.1595    3280.4994    2408.7449    1746.5243    -118.9849    11.643262    -25.73249   -3965.3579 
22681000    133.02765   -4511.7426   -4283.7378   -4511.7426            0    2308.7182    17.903036    23.120858    22.192782     9186.337    1513.6743    2676.5794    2735.9009    188.53936   -364.25704    118.34812   -3974.4312 
22682000    131.91906   -4503.7729   -4277.6681   -4503.7729            0    1266.2039    18.032794    23.343364    21.981317    9252.9493    1072.4658     1765.045    961.10093    206.19545   -310.34568   -120.71928   -4106.8005 
22683000    130.23069   -4523.6875   -4300.4765   -4523.6875            0    2351.3667    18.054537    23.324784    21.761149    9164.0151    2537.3575    2148.8724    2367.8701    95.482417    249.28429    683.59588   -3986.2216 
22684000    128.28828   -4525.0063   -4305.1246   -4525.0063            0    1511.7578    17.932659     23.43883     21.95265    9227.1499    2025.8666    1214.3793    1295.0275   -137.06943    52.408872    106.96402   -4101.6896 
22685000    130.95138   -4506.2549   -4281.8087   -4506.2549            0    1430.8053    17.816766    23.398801    22.118197    9220.8762    1607.0574    982.12368    1703.2348   -1012.7006    59.056398   -574.30438   -4089.3983 
22686000    133.10102   -4508.8799   -4280.7493   -4508.8799            0     2666.576    18.011304    23.170811    21.951952    9161.3512    2881.7384    2941.9613    2176.0284   -339.92058   -465.27256    178.55828    -3924.471 
22687000    123.61655   -4514.9534   -4303.0788   -4514.9534            0    1976.5765    17.851717    23.522925    21.907434    9199.4702     2338.259    924.02134    2667.4492    107.61387   -95.905994   -281.79811   -4037.8918 
22688000    130.39982   -4499.1774   -4275.6765   -4499.1774            0    1985.8504     17.90077    23.325667    22.105527    9230.1052    2465.0791    2145.1745    1347.2977    43.288354    298.91093    392.52585    -4008.358 
22689000    123.82516   -4518.9105   -4306.6784   -4518.9105            0    2494.6909    17.927135    23.280516    21.974985    9171.3252    3255.2116    2870.8252     1358.036    250.24901    -431.4186   -138.76171   -3973.0026 
22690000    132.48452   -4497.6127   -4270.5387   -4497.6127            0    1299.7293    17.941772    23.485884     21.89303    9225.2497    398.07518    599.16176    2901.9509   -858.51426   -277.38597   -203.12842   -4095.6721 
22691000    131.56223   -4512.3628   -4286.8696   -4512.3628            0    1802.9028    18.005154    23.510394    21.804149    9229.8763    2401.0095    1359.4971    1648.2019    531.74262   -158.84412    258.39388    -4044.184 
22692000    128.91558   -4510.2312   -4289.2743   -4510.2312            0    731.80813    18.074671    23.341082    21.955703    9262.7241     502.3328    1022.7186    670.37302   -597.31335    713.11567   -566.03275   -4190.4163 
22693000    129.33086   -4509.2093   -4287.5407   -4509.2093            0    1735.3199    17.915857     23.46395    21.927162    9217.6696     2261.522    1587.5013    1356.9364    325.91798   -369.23923   -27.462492   -4054.2612 
22694000    138.25107   -4514.5858   -4277.6281   -4514.5858            0    2075.9673    17.929566    23.400137    21.958338    9212.7149    2777.8183    2487.5318    962.55188     910.4625    9.9947236    45.343667   -3998.7053 
22695000    121.73524   -4502.6148   -4293.9648   -4502.6148            0    1911.7756    18.038161    23.358843    21.848742    9205.9795    1760.2263    886.42895    3088.6715   -250.96422    198.62505    296.48555   -4037.2903 
22696000    131.16913   -4517.6551   -4292.8356   -4517.6551            0    2691.0348    17.865983    23.482593    21.840948    9163.1429    2594.1828    2002.7726    3476.1489   -83.260461   -113.98354   -332.77619   -3933.2191 
22697000      125.539   -4506.1509   -4290.9814   -4506.1509            0     1356.771    17.863447     23.41302    22.129244    9255.2739    2771.3289    1046.5262    252.45784    170.86109   -52.667874   -19.107572   -4107.8462 
22698000    131.73226   -4515.0468   -4289.2622   -4515.0468            0    1040.7853    18.050199    23.245706    22.100164    9272.9994    102.66662    376.62364    2643.0657   -16.559569    678.75079    421.46408   -4148.5093 
22699000    130.65438   -4503.2932    -4279.356   -4503.2932            0    2120.8729    17.982534    23.386961    21.836737    9183.5888    2273.9992    998.85995    3089.7594    301.42152    55.868372    230.09414   -3995.3007 
22700000    125.97187    -4509.296   -4293.3845    -4509.296            0    2858.6925    18.064507    23.297365    21.745771     9151.825    2396.8784    2789.7774    3389.4217   -388.78688    192.05301   -208.15239   -3911.8349 
22701000    121.51101    -4498.147   -4289.8813    -4498.147            0    1875.8877    18.011954    23.351877     21.84342     9187.625    1852.3493    1585.3094    2190.0043    194.37057   -22.471645     20.82826   -4038.5272 
22702000    123.64676   -4498.1625   -4286.2362   -4498.1625            0    2280.3711    17.963426    23.410317    21.846787    9187.2184    3373.1584    881.88149    2586.0735     369.3213    534.63013    301.38293    -3980.698 
22703000    121.93737   -4511.3999   -4302.4034   -4511.3999            0    1815.0027    17.951871    23.392347    21.957025    9220.5541    1673.1203    2467.0866    1304.8012   -234.33638   -510.26147    -21.53565   -4058.3358 
22704000    124.06055   -4514.2212   -4301.5857   -4514.2212            0    2178.2893    17.966768    23.266989    22.021888    9205.8672    2194.9133    2319.0272    2020.9273     126.1212   -315.77008     332.0732   -4009.1326 
22705000    127.97521   -4527.1456   -4307.8004   -4527.1456            0    2361.7001    17.918428    23.316402    22.024009    9201.4829    2385.1313    1558.1483    3141.8207   -1124.6181   -347.75922    188.43113    -3990.874 
22706000    129.40555    -4521.576   -4299.7794    -4521.576            0    2629.8915    17.998048     23.29102    21.910394    9184.6818    1396.6731    3505.2319    2987.7695   -20.184966    229.62642    1.8979942   -3947.5076 
22707000    127.67865   -4513.2475   -4294.4106   -4513.2475            0    2192.7718    17.868433      23.4629    21.914375    9187.4974     2686.003    2249.6276    1642.6849    63.116123   -321.15337    260.90688   -4000.6006 
22708000    132.56509   -4509.0096   -4281.7975   -4509.0096            0    2880.4567     17.89677    23.153951    22.109607    9161.7995    1835.7274     3411.472    3394.1706    627.15488   -8.3021075    208.35082    -3896.924 
22709000    121.70151   -4505.1703    -4296.578   -4505.1703            0    1724.9039    18.012991    23.258071    22.013647    9222.5603    1001.3239    2323.1921    1850.1958    140.86823   -122.98947    46.595305   -4064.5757 
22710000    131.72114   -4502.8301   -4277.0646   -4502.8301            0    1264.8336    17.964741    23.602414    21.842198    9261.3377    1217.1829    498.91591     2078.402   -455.39061   -69.969596   -173.54494   -4106.2272 
22711000     123.6091   -4506.1226   -4294.2608   -4506.1226            0    2510.3417    18.030724    23.302565    21.846508    9179.0752    1728.5211    1504.4109     4298.093     302.9928   -264.89668      316.527   -3958.2079 
22712000    129.24883   -4511.3498   -4289.8217   -4511.3498            0     2584.048    18.010928    23.217451     21.99199    9196.3432    1150.2552    3483.9864    3117.9023    626.57011    96.456834   -57.392032   -3943.2512 
22713000    130.66051   -4506.5256   -4282.5779   -4506.5256            0    1752.2736    17.802097     23.50346    22.025982    9215.9103    3143.7907    1026.8072    1086.2231    -1135.538      495.364   -241.09626   -4047.0643 
22714000    131.98013   -4523.0892   -4296.8798   -4523.0892            0    2203.3114    18.006267    23.272048    21.998286    9218.2212    2334.7614    1910.8819     2364.291   -92.997572    500.25734   -215.20033   -4000.6704 
22715000    122.93843   -4528.4663   -4317.7541   -4528.4663            0    2196.4241    17.977338    23.263141    21.949169     9179.348    1137.2322    2613.2616    2838.7785   -77.003027    221.98599   -296.58652   -4023.7158 
22716000    131.43261   -4526.5338   -4301.2628   -4526.5338            0    824.62501     17.81809    23.614006    21.963063     9241.101    2225.8489    869.49305   -621.46694     173.4995   -432.76661    85.277198   -4190.1265 
22717000    124.36257   -4516.6817   -4303.5285   -4516.6817            0    1595.9745    17.993353    23.275304    21.981267    9205.7715    2234.8505    806.69698     1746.376   -405.77478    469.09849    106.53748   -4089.2582 
22718000    133.37716   -4515.7673   -4287.1634   -4515.7673            0    1832.5025    17.890669    23.322815    22.106086    9224.0024    1946.2553    1928.5905    1622.6617   -226.72435    461.07338    260.33452   -4040.6504 
22719000    129.38777   -4511.9647   -4290.1985   -4511.9647            0    2246.7818    17.923137    23.529634    21.883929    9228.9967    2506.7284    1927.3424    2306.2745   -289.39164    305.26761    1003.5488   -3987.7919 
22720000    118.08762   -4506.5684   -4304.1703   -4506.5684            0    2427.8386    17.952634    23.349885    21.902456    9181.3331    2957.3231    1815.6862    2510.5065   -60.487109    -493.2218   -59.701079   -3979.0819 
22721000    128.71141   -4516.2519    -4295.645   -4516.2519            0    1978.3488    17.872829    23.444549    21.966035     9204.217    1727.4118    1834.4798    2373.1549    266.23634    73.969132   -115.58674   -4030.0832 
22722000    128.72283   -4519.8679   -4299.2414   -4519.8679            0    3238.7572    17.892451    23.287266    21.994731    9164.4625    3803.3008    4073.1997     1839.771   -260.57025    264.39001    476.56261   -3866.3676 
22723000    121.43052   -4507.9842   -4299.8565   -4507.9842            0    1436.9583    17.978124    23.214786    22.091821    9220.2049     1162.123    891.19246    2257.5595    368.90139   -132.13359    222.40449   -4106.6326 
22724000    126.26562   -4506.1485   -4289.7335   -4506.1485            0    2682.3369    17.839468    23.250173    22.061267    9150.3679    3910.4449    2372.6739    1763.8919   -359.36435    682.01249   -226.36424   -3931.7791 
22725000    134.05666   -4531.7563   -4301.9877   -4531.7563            0    2934.0922    17.977561    23.252269    21.893059    9151.7167    2758.5391    2195.8127     3847.925   -805.15504   -334.11088   -352.32949   -3910.3791 
22726000    128.55528   -4512.4576   -4292.1183   -4512.4576            0    1925.0074    17.954324    23.406102    21.884834    9196.8986    1472.3894    2075.1632    2227.4697   -176.40768   -145.79241   -527.62848   -4033.9222 
22727000    134.21442   -4492.1713   -4262.1323   -4492.1713            0    786.14881    17.830892    23.656795    21.910929    9242.5066     1340.227   -333.46734    1351.6867    127.67584   -152.16967   -564.54097   -4156.1654 
22728000    129.42335   -4503.9623   -4282.1352   -4503.9623            0    2838.8574    18.012813    23.175603    21.987181    9178.7201    2018.1127    3270.4117    3228.0478   -555.75093    -290.3709     94.92227   -3902.1194 
22729000    128.92135   -4503.5293   -4282.5625   -4503.5293            0    3257.5493    18.037472    23.107952    21.884191    9121.5286    2168.3652    4742.4513    2861.8313   -83.217466   -357.19083   -178.64584   -3849.2168 
22730000    139.65671   -4516.6036   -4277.2368   -4516.6036            0    728.22218     17.89319    23.531596    21.936611    9236.5268    1479.8009    144.05178    560.81387   -790.53315    533.40549    81.620985   -4179.1414 
22731000    133.27502   -4512.2341   -4283.8052   -4512.2341            0    1330.1828    18.008508    23.222632    22.080858    9234.3243    267.98995    1426.1322    2296.4262   -43.745197   -24.737281    414.75513   -4104.6653 
22732000    129.14116   -4510.9446    -4289.601   -4510.9446            0    1819.0426    18.036721    23.195965    22.011219    9209.0349    1459.2348    1369.7665    2628.1266    -174.9227    158.42685    559.63498   -4045.2957 
22733000    125.51976   -4514.7383   -4299.6017   -4514.7383            0    3069.2047    17.781906      23.5106    21.907554     9158.744    4668.4846    2713.6235    1825.5061    437.49188    376.00318   -91.939114   -3889.6453 
22734000    133.28182   -4510.6847   -4282.2442   -4510.6847            0    1370.0692    17.970195    23.404399    21.928745     9222.827    2169.8663    1463.3415    476.99995    211.97977    134.97012    306.78176   -4097.9624 
22735000    128.42991    -4521.722   -4301.5975    -4521.722            0    2305.0616     17.98445    23.149884    22.020791    9168.0906    2986.5149    1858.3891    2070.2808   -443.93797   -221.45109    224.33309   -3993.3942 
22736000     127.8295   -4516.1633   -4297.0679   -4516.1633            0    1734.2676    17.895672    23.298723    22.093209    9211.6815    1925.1114    1747.8287    1529.8628   -690.47272   -63.986882    33.373143   -4064.0813 
22737000    123.07745   -4504.7867   -4293.8362   -4504.7867            0    1286.2704      17.9048      23.2927    22.142521    9234.5638    2188.3943    1454.5969    215.82005   -848.25954    175.40722   -286.41945   -4120.6056 
22738000    129.26008   -4506.5209   -4284.9736   -4506.5209            0    2099.7219    18.096168    23.236136    21.870235    9196.1063    1417.5901    1529.3638    3352.2118    474.90608   -683.28415    62.398077   -4003.3677 
22739000    128.89574   -4509.7151   -4288.7922   -4509.7151            0    1630.9015     18.00512      23.4303    21.870597    9226.4472    835.30095    993.53955    3063.8639   -822.37708    409.56033     332.2059   -4069.3409 
22740000    123.05754    -4499.116   -4288.1996    -4499.116            0    2158.7299    17.906402    23.378451    21.946705    9187.4163    2188.9801    2090.4062    2196.8034   -989.73752    -312.2407    356.11447   -3998.9534 
22741000    124.02302    -4516.349   -4303.7778    -4516.349            0    1003.1135    18.059574    23.330798    21.926278    9238.5117    115.88674    1210.8408    1682.6129   -651.88732   -50.968549   -73.152301   -4168.6241 
22742000    124.05225   -4503.4859   -4290.8646   -4503.4859            0    1578.6819    17.861093    23.513882    21.870285    9185.1619     1511.056    1403.2249    1821.7647    1016.5649    457.54096    361.97881   -4079.3904 
22743000    133.09428   -4505.8882   -4277.7692   -4505.8882            0     1765.495    17.982134      23.3052    22.007841    9222.9851    1152.0299    2363.9827    1780.4723    841.36336    302.47436      7.29064   -4040.2964 
22744000     133.0056    -4513.418    -4285.451    -4513.418            0    1854.5318    18.020888    23.189161    22.015177    9199.9065    2594.2493    991.19105    1978.1551    270.96043   -449.01812    168.36705   -4036.6262 
22745000    130.92241   -4502.2775    -4277.881   -4502.2775            0    2108.5109    17.810433     23.53492    21.925027    9190.2499    2743.4149    598.90575    2983.2121   -854.26432    191.96392   -193.67286   -3995.2765 
22746000    123.10076   -4504.1318   -4293.1413   -4504.1318            0    2155.1449     17.96922    23.236954    22.001867    9186.8783    2763.9738    1151.1331    2550.3277   -808.62772   -668.90572    59.623739   -4004.3925 
22747000    125.24119   -4509.9801    -4295.321   -4509.9801            0     1369.443    18.023199    23.170167    22.100314     9229.103    1427.0168    1562.4955    1118.8165    741.67167    388.58525    145.57693   -4110.9981 
22748000    134.09323    -4506.283   -4276.4518    -4506.283            0    1320.5858    17.906897    23.385828    21.985012    9206.6109    658.91484    475.95413    2826.8884    -9.501903   -113.34014   -145.26008   -4099.1381 
22749000    124.42389    -4518.182   -4304.9238    -4518.182            0    1402.4651    17.912058    23.437071    21.982323     9228.315    2241.5529    554.77872    1411.0637   -340.75367    95.255808    64.909705   -4116.1723 
22750000    135.46158   -4504.3074   -4272.1309   -4504.3074            0    2110.0113    18.028343    23.039328    22.109984    9183.6229    2579.5255    2930.6803    819.82807    182.60764    739.21756    949.63034   -3989.5292 
Loop time of 406.876 on 64 procs for 250000 steps with 864 atoms

Performance: 106.175 ns/day, 0.226 hours/ns, 614.438 timesteps/s
376.1% CPU use with 16 MPI tasks x 4 OpenMP threads

MPI task timing breakdown:
Section |  min time  |  avg time  |  max time  |%varavg| %total
---------------------------------------------------------------
Pair    | 25.58      | 28.454     | 34.618     |  39.4 |  6.99
Bond    | 1.597      | 1.8864     | 3.1323     |  25.3 |  0.46
Kspace  | 208.38     | 218.69     | 225.53     |  26.1 | 53.75
Neigh   | 0.72128    | 0.77578    | 0.87081    |   4.9 |  0.19
Comm    | 55.618     | 59.378     | 64.046     |  35.4 | 14.59
Output  | 0.46754    | 0.46789    | 0.46973    |   0.1 |  0.11
Modify  | 64.461     | 72.258     | 78.481     |  45.6 | 17.76
Other   |            | 24.97      |            |       |  6.14

Nlocal:        54.0000 ave          63 max          46 min
Histogram: 2 2 4 0 0 0 0 6 1 1
Nghost:        2578.69 ave        2624 max        2542 min
Histogram: 5 3 0 0 0 0 2 1 1 4
Neighs:        13212.1 ave       15532 max       11573 min
Histogram: 5 1 2 0 0 2 2 3 0 1

Total # of neighbors = 211394
Ave neighs/atom = 244.66898
Ave special neighs/atom = 2.0000000
Neighbor list builds = 2714
Dangerous builds = 0

unfix		3
unfix		2
unfix		1

write_data	data.final.${pid} nocoeff
write_data	data.final.1 nocoeff
System init for write_data ...
PPPM initialization ...
  extracting TIP4P info from pair style
  using 12-bit tables for long-range coulomb (../kspace.cpp:340)
  G vector (1/distance) = 0.37193622
  grid = 24 27 25
  stencil order = 5
  estimated absolute RMS force accuracy = 0.0031345603
  estimated relative force accuracy = 9.4396352e-06
  using double precision FFTW3
  3d grid and FFT values/proc = 6300 1296
Last active /omp style is kspace_style pppm/tip4p/omp

write_restart   restart.lmp.${pid}
write_restart   restart.lmp.1
System init for write_restart ...
PPPM initialization ...
  extracting TIP4P info from pair style
  using 12-bit tables for long-range coulomb (../kspace.cpp:340)
  G vector (1/distance) = 0.37193622
  grid = 24 27 25
  stencil order = 5
  estimated absolute RMS force accuracy = 0.0031345603
  estimated relative force accuracy = 9.4396352e-06
  using double precision FFTW3
  3d grid and FFT values/proc = 6300 1296
Last active /omp style is kspace_style pppm/tip4p/omp
Total wall time: 0:06:46
