LAMMPS (30 Jul 2021)
  using 1 OpenMP thread(s) per MPI task
package omp 0
using multi-threaded neighbor list subroutines
echo both

include		in.partitions
variable        pid world 0
include		in.temp
variable        temperature equal 293.51
variable	tempDamp equal 100.0
include		in.pressure
variable        pressure equal 13625.0
variable        pressureDamp equal 1000.0 # This is 1 ps
include		in.seed
variable        seed world 745823

units		real
atom_style	full
read_restart	restart.lmp.${pid}
read_restart	restart.lmp.0
Reading restart file ...
  restart file = 30 Jul 2021, LAMMPS = 30 Jul 2021
  restoring atom style full from restart
  orthogonal box = (-0.10154213 -0.075444248 -0.029899914) to (24.831543 24.805445 22.839900)
  4 by 4 by 4 MPI processor grid
  restoring pair style lj/cut/tip4p/long/omp from restart
  restoring bond style harmonic/omp from restart
  restoring angle style harmonic/omp from restart
  1920 atoms
  1280 bonds
  640 angles
Finding 1-2 1-3 1-4 neighbors ...
  special bond factors lj:    0        0        0       
  special bond factors coul:  0        0        0       
     2 = max # of 1-2 neighbors
     1 = max # of 1-3 neighbors
     1 = max # of 1-4 neighbors
     2 = max # of special neighbors
  special bonds CPU = 0.129 seconds
  read_restart CPU = 0.347 seconds
include 	in.setup
variable	out_freq equal 1000
variable	out_freq2 equal 10000
variable	out_freq3 equal 1000

timestep	2.0

neigh_modify    delay 7 every 1

include		in.tip4p
# This is TIP4P/Ice

# create groups ###
group ox type 2
640 atoms in group ox
group hy type 1
1280 atoms in group hy

# set charges - beside manually ###
set group ox charge -1.1794
Setting atom values ...
  640 settings made for charge
set group hy charge 0.5897
Setting atom values ...
  1280 settings made for charge

# ### TIP3P Potential Parameters ###
pair_style lj/cut/tip4p/long/omp 2 1 1 1 0.1577 8.5
pair_coeff 1 1*2 0.000 0.000
pair_coeff 2 2 0.21084 3.1668
bond_style  harmonic
bond_coeff  1 450 0.9572
angle_style harmonic
angle_coeff 1 55 104.52
kspace_style pppm/tip4p/omp 1.0e-5
pair_modify tail yes

thermo          ${out_freq}
thermo          1000
thermo_style    custom step temp pe etotal epair emol press lx ly lz vol pxx pyy pzz pxy pxz pyz enthalpy

restart 	${out_freq3} restart.lmp.${pid} restart2.lmp.${pid}
restart 	1000 restart.lmp.${pid} restart2.lmp.${pid}
restart 	1000 restart.lmp.0 restart2.lmp.${pid}
restart 	1000 restart.lmp.0 restart2.lmp.0


include         in.dump
dump            myDump all atom ${out_freq2} dump.water.${pid}
dump            myDump all atom 10000 dump.water.${pid}
dump            myDump all atom 10000 dump.water.0
dump            myDump2 all dcd ${out_freq2} dump.dcd
dump            myDump2 all dcd 10000 dump.dcd
dump_modify     myDump append yes
dump_modify     myDump2 append yes


variable natoms 	equal  "count(all)"                        # NUMBER ATOMS
variable H      	equal  "enthalpy/v_natoms"                 # ENTHALPY-per-atom
variable Vol      	equal  "vol/v_natoms"                 # volume-per-atom
fix AVG all 		ave/time ${out_freq} 1 ${out_freq} v_Vol v_H file vol_enthalpy.dat
fix AVG all 		ave/time 1000 1 ${out_freq} v_Vol v_H file vol_enthalpy.dat
fix AVG all 		ave/time 1000 1 1000 v_Vol v_H file vol_enthalpy.dat




fix 		1 all shake 1e-6 200 0 b 1 a 1
       0 = # of size 2 clusters
       0 = # of size 3 clusters
       0 = # of size 4 clusters
     640 = # of frozen angles
  find clusters CPU = 0.049 seconds
fix             2 all nph aniso ${pressure} ${pressure} ${pressureDamp}
fix             2 all nph aniso 13625 ${pressure} ${pressureDamp}
fix             2 all nph aniso 13625 13625 ${pressureDamp}
fix             2 all nph aniso 13625 13625 1000
fix             3 all temp/csvr ${temperature} ${temperature} ${tempDamp} ${seed}
fix             3 all temp/csvr 293.51 ${temperature} ${tempDamp} ${seed}
fix             3 all temp/csvr 293.51 293.51 ${tempDamp} ${seed}
fix             3 all temp/csvr 293.51 293.51 100 ${seed}
fix             3 all temp/csvr 293.51 293.51 100 745823


run             250000
PPPM initialization ...
  extracting TIP4P info from pair style
  using 12-bit tables for long-range coulomb (../kspace.cpp:340)
  G vector (1/distance) = 0.37461519
  grid = 30 30 30
  stencil order = 5
  estimated absolute RMS force accuracy = 0.0032543673
  estimated relative force accuracy = 9.8004305e-06
  using double precision FFTW3
  3d grid and FFT values/proc = 3600 512
Last active /omp style is kspace_style pppm/tip4p/omp
Neighbor list info ...
  update every 1 steps, delay 7 steps, check yes
  max neighbors/atom: 2000, page size: 100000
  master list distance cutoff = 10.8154
  ghost atom cutoff = 10.8154
  binsize = 5.4077, bins = 5 5 5
  1 neighbor lists, perpetual/occasional/extra = 1 0 0
  (1) pair lj/cut/tip4p/long/omp, perpetual
      attributes: half, newton on, omp
      pair build: half/bin/newton/omp
      stencil: half/bin/3d
      bin: standard
Per MPI rank memory allocation (min/avg/max) = 9.332 | 9.341 | 9.346 Mbytes
Step Temp PotEng TotEng E_pair E_mol Press Lx Ly Lz Volume Pxx Pyy Pzz Pxy Pxz Pyz Enthalpy 
14750000    298.29994   -8947.9997   -7810.7443   -8947.9997            0    13025.293    24.933085    24.880889      22.8698    14187.448    13273.565    12128.512    13673.803   -821.77669   -707.79074   -262.98325    -5115.689 
14751000     301.3921   -9015.8855   -7866.8413   -9015.8855            0    12274.159    24.863116    25.017384    22.759607    14156.706    12865.388    10809.901    13147.187    538.52799   -699.26704   -257.69991   -5332.7059 
14752000    290.98672   -8961.0097   -7851.6357   -8961.0097            0    13389.703    24.666973      24.9139      23.0532    14167.355     15128.18    12763.785    12277.143   -522.80506    -385.4747   -565.82419   -5085.1043 
14753000     302.9226   -9007.3058   -7852.4267   -9007.3058            0    13323.193     24.84259    24.978801    22.808615    14153.615    12926.784    12372.531    14670.264    590.35276    1098.0871   -31.971864   -5102.3071 
14754000    291.81423   -9008.7312   -7896.2022   -9008.7312            0    12990.833    24.827412    24.974445    22.846227    14165.822    13376.986    12112.992    13482.522   -1060.6888   -573.69138   -1189.1312   -5212.3743 
14755000    292.95463   -8955.4762   -7838.5996   -8955.4762            0    12752.705    24.809409    24.966333    22.897126    14182.479    14426.464     11659.17    12172.482    635.25733   -1739.4676     391.5886   -5200.8695 
14756000    298.34736   -8942.8994   -7805.4632   -8942.8994            0    12715.274    24.990425    24.971874    22.763686    14205.855    12986.732    13611.505    11547.585   -491.26958   -609.12137   -738.75096   -5171.1405 
14757000    287.12114   -8977.0441   -7882.4074   -8977.0441            0    13384.345     24.94993    24.815106    22.900325    14178.396    13144.322    13901.872    13106.841   -269.08717   -90.033326    1009.3344   -5114.8278 
14758000    285.07691   -8977.3562    -7890.513   -8977.3562            0    12553.935    24.947914    24.863192    22.875536    14189.347    11629.472    14209.193    11823.141     126.5107    72.910349     377.5875   -5292.6384 
14759000    293.10651   -8916.9364   -7799.4807   -8916.9364            0    13026.511    24.880534    25.021258    22.811877    14201.357    14835.624    11197.938    13045.973   -426.13477    467.03361   -234.74182   -5101.5309 
14760000     298.1952   -8963.6506   -7826.7945   -8963.6506            0     13347.08    24.763929    24.953725    22.927178    14167.901    13975.729    12582.664    13482.847    -496.1267   -705.53801    470.65679   -5068.9632 
14761000    289.58896   -8962.8106   -7858.7654   -8962.8106            0    12850.897    24.898677    24.925876    22.851946    14182.405    13237.606    12632.562    12682.523    1128.7296    27.396163   -271.26315   -5200.7395 
14762000    302.80349   -8960.7409   -7806.3159   -8960.7409            0    13245.699    24.902476    24.779751    23.022733    14206.803    12259.143    14140.725    13337.229   -819.09116     378.9564    169.35609   -5061.9177 
14763000    297.44323   -8954.5902   -7820.6009   -8954.5902            0    12650.962    25.036705     24.95203    22.710842    14187.841      12645.5    11654.468    13652.917   -951.14875    1795.6368   -623.87777   -5202.9258 
14764000    282.43944   -8974.8668   -7898.0789   -8974.8668            0    13363.469    24.814633    24.861516    22.943741    14154.668    12354.676    15247.645    12488.087   -278.90895   -101.48063    1027.3711   -5139.4404 
14765000    288.90645   -8947.8977   -7846.4545   -8947.8977            0    13619.309    24.927574    24.888568    22.839882    14170.128    14006.304    12047.335    14804.287    -285.7709   -713.97164   -849.70304    -5031.932 
14766000    293.71663   -8959.9236   -7840.1418   -8959.9236            0    13547.858    24.932368    24.967576     22.73594    14153.141    13615.706    11912.766    15115.103    681.38879    1147.8336    1459.4496   -5043.7414 
14767000    294.02222   -8967.7249   -7846.7781   -8967.7249            0    14129.886    24.854903    24.815656    22.929082    14142.445    14861.445    14699.199    12829.013   -199.62812    961.65078    822.40038    -4932.446 
14768000    287.85941   -8990.6889   -7893.2376   -8990.6889            0    12593.461    24.946586    25.054941    22.671523    14170.501    12365.777    11937.503    13477.103   -129.36005   -1134.9102    1144.2862   -5290.6449 
14769000    285.52195   -8961.3341   -7872.7942   -8961.3341            0    13380.046    24.762892    24.838827    23.037628    14170.012    14350.272    13082.027     12707.84   -1096.1989   -1000.0579   -565.29716   -5107.7396 
14770000    288.84099   -8993.0243   -7891.8307   -8993.0243            0    12251.679    24.904868     25.06152    22.739299    14192.821    11808.663    10943.513     14002.86   -137.94533   -56.549371   -99.069537   -5355.8835 
14771000    297.18758   -9010.1517   -7877.1371   -9010.1517            0    13354.403    24.918032    24.871949    22.853769    14163.852    12382.001    14532.727    13148.481    698.64542   -294.98264    141.40415   -5118.5813 
14772000     292.2768    -8938.648   -7824.3555    -8938.648            0    13177.349    24.977145    24.876779    22.816014     14176.75    11654.289    15075.966    12801.792    404.94205   -485.27478   -591.27639   -5099.8943 
14773000    288.32831   -9000.0045   -7900.7655   -9000.0045            0    13739.544     24.93591    24.727146      22.9216    14133.318    13994.855    14104.477      13119.3    -104.6467   -1254.1097    61.002464   -5068.7713 
14774000    304.78905   -8936.9889    -7774.994   -8936.9889            0    12860.958    25.001952    24.821474    22.900841    14211.925    11445.836    14005.423    13131.614    936.07412   -508.20003    898.91052   -5109.3503 
14775000    297.62937   -8987.9975   -7853.2986   -8987.9975            0    12102.027    24.956065    24.868792    22.915952    14222.263    11084.584    12690.817     12530.68    55.862559   -319.39479    446.46658   -5343.1311 
14776000    296.42411   -8954.2484   -7824.1445   -8954.2484            0    12741.408      24.9301    24.929872    22.875137    14216.994    13122.269    12327.429    12774.525   -573.28047   -48.660065    437.36467   -5182.3376 
14777000    290.71989   -8960.8493   -7852.4925   -8960.8493            0    11632.889    25.069981     24.86561    22.822835    14227.308     10773.21    12955.938    11169.519    1234.7808   -628.98046    1027.2997   -5438.7764 
14778000    292.97177   -8990.8975   -7873.9555   -8990.8975            0    13338.915    24.913421    24.804053    22.908485    14156.386    13101.285    14146.756    12768.705    282.26555   -1160.0337    255.47271   -5120.0515 
14779000    283.39128   -8963.5235   -7883.1067   -8963.5235            0    13356.102    24.976455    24.887284    22.787564    14164.662     12889.83    13571.562    13606.915   -894.30596   -217.44473    680.17223   -5124.0423 
14780000    298.00491   -8946.3685   -7810.2379   -8946.3685            0    12536.892    24.759251    24.939357    23.002954     14203.86    14430.885    11851.173     11328.62    374.96622   -213.48597   -467.70957   -5213.2366 
14781000    297.61135   -8932.6291   -7797.9989   -8932.6291            0    12647.771    24.966733    24.916259     22.86009     14220.75    11760.354    13865.715    12317.243   -660.90052   -215.27032   -720.69598   -5174.9138 
14782000    295.48477    -8941.171   -7814.6483    -8941.171            0    12511.552    25.107308    24.824711    22.774908    14195.183    12015.112    11817.154     13702.39    198.28557   -402.11432   -215.80489   -5224.4795 
14783000    295.54947    -8950.143   -7823.3736    -8950.143            0    13683.968     24.89517    24.782605    22.913794    14137.059    13493.221    14956.923    12601.759    608.53242   -1103.8219   -655.13349   -5002.0884 
14784000    284.68968   -9000.5641   -7915.1972   -9000.5641            0    12087.554    24.931632    24.935152    22.828307    14191.766    13207.975    10424.286    12630.402    345.41309   -337.01147   -421.90943   -5413.4077 
14785000    285.12846    -9003.582   -7916.5422    -9003.582            0    13486.714    24.914606    24.867552    22.821858     14139.63    13011.654    14228.618     13219.87   -12.594063    -447.2043    329.88551   -5135.4199 
14786000    301.89006   -9021.3301   -7870.3875   -9021.3301            0    13199.945    24.839725    24.892277    22.865362    14138.049    13190.464    12821.159    13588.212   -698.53367    1552.5171   -507.32321   -5148.7047 
14787000    284.59443    -8921.916   -7836.9123    -8921.916            0    15417.991    24.613884    24.911791     22.92681    14058.168    17116.178    14138.865     14998.93     286.2801   -121.10808    52.048026   -4675.8547 
14788000      296.198    -8942.927   -7813.6852    -8942.927            0    15139.749    24.799551    24.893198    22.793924    14071.604    15403.729    15464.377    14551.142    778.58474   -809.69279    799.91837   -4706.7071 
14789000    289.99244    -8984.893   -7879.3095    -8984.893            0     13184.82    24.907913    24.882295    22.826638    14147.175     13471.84    13281.416    12801.204   -1151.3817   -688.98097    1658.2995   -5158.9906 
14790000    291.78476   -8988.0962   -7875.6796   -8988.0962            0    13739.899    24.762063    24.876215      22.9156    14115.698    15539.341    12383.699    13296.658   -516.79012   -98.140765    630.90331   -5047.1431 
14791000     285.9511   -8999.0571   -7908.8811   -8999.0571            0    14164.162     24.86097    24.945905    22.725046    14093.605    13650.293    14002.162    14840.032    -194.3711    1170.7692     795.5503   -4997.5683 
14792000    292.50345   -8993.9257   -7878.7691   -8993.9257            0    12394.003    24.715423    24.997356    22.986352    14201.433    14927.375    10326.487    11928.147   -493.92555   -356.41329    7.3861729   -5311.8059 
14793000     294.1087   -8961.3165     -7840.04   -8961.3165            0    13419.996    24.883235    24.992082    22.779312    14166.086    13094.002     13361.84    13804.147    520.70144     316.4184    529.14712   -5067.4979 
14794000    287.53844   -8940.2296   -7844.0019   -8940.2296            0    15470.292    24.977284    24.735149    22.783402    14075.969     13616.72     16293.94    16500.216   -165.76436   -902.17805   -1272.9436   -4668.2051 
14795000    288.52322   -9019.6082   -7919.6261   -9019.6082            0    13336.963    24.951514    24.835582    22.804676    14131.724    10953.324    15612.497    13445.068    103.91542   -999.40574   -91.976659   -5170.9221 
14796000    301.55991   -8937.1999    -7787.516   -8937.1999            0    13207.566    24.951345    24.765739    22.941468    14176.417    12628.088    13634.843    13359.769    95.025985    646.59759   -537.08435   -5056.8716 
14797000    291.95928    -8982.454   -7869.3721    -8982.454            0    14289.344    24.943143    24.819697    22.800272    14115.221    14021.155    14692.619    14154.257    383.03639    153.06123   -1794.4242   -4927.8247 
14798000    293.12305   -8976.9435   -7859.4248   -8976.9435            0    13808.466    24.893276    24.837192     22.83558    14118.761    13186.688    14373.043    13865.666    680.15949   -283.94482   -214.63209   -5016.1561 
14799000    297.69131   -8953.2225   -7818.2874   -8953.2225            0    13062.243    24.806963    24.907377    22.920818    14162.232    13510.873    12858.791    12817.065    1301.0753   -130.75451   -821.62404   -5120.3906 
14800000    299.85066   -8955.9771   -7812.8096   -8955.9771            0     14183.79    24.868337    25.074061     22.67782    14140.759    15084.229    12075.562     15391.58   -31.028048   -204.68229    407.67828   -4887.7083 
14801000     287.8063   -8947.7417   -7850.4928   -8947.7417            0    12779.357    24.864552    24.914049    22.934508    14207.392    12221.458    12787.242    13329.371   -296.68277    1867.6025   -1771.9469    -5202.607 
14802000    298.58618   -8993.2853   -7854.9387   -8993.2853            0     12364.78    24.871034    24.939652     22.85102    14173.914    13012.056    12017.158    12065.126   -936.65807   -992.31535   -274.11322   -5298.9902 
14803000    295.91271    -9003.822   -7875.6678    -9003.822            0    12223.506    24.831408    24.937987    22.984444     14233.01    12407.659    13350.565    10912.294   -946.88111   -754.85525   -485.77443   -5338.3877 
14804000    299.60019   -8978.7278   -7836.5153   -8978.7278            0    12728.895    24.919029    24.979599     22.80111    14192.946    12348.425    12501.526    13336.733    343.20128    336.86578    1064.0145   -5201.7669 
14805000    291.73525   -8938.2832   -7826.0554   -8938.2832            0    12868.323    24.924149    24.809802    22.967348    14202.163    12180.086    14527.106    11897.775    234.19706   -385.52995   -433.92675   -5160.7172 
14806000     296.9687   -8950.6181   -7818.4379   -8950.6181            0    13571.352    24.972731    24.857264    22.834109    14174.359    13468.446    13578.118    13667.491    48.969937    -534.9443    278.17611   -5012.9887 
14807000    299.70326   -8996.0885    -7853.483   -8996.0885            0    13456.704    24.851407    24.880959    22.840084    14122.637    13169.563    14097.417    13103.132   -548.92625    383.64863    240.85608    -5081.884 
14808000    301.53562   -9021.7936   -7872.2023   -9021.7936            0    13508.122    24.798469    24.802816    22.944714    14112.648    13756.386     13403.99    13363.991   -883.60904    593.54055    379.48408   -5091.9808 
14809000    298.89559   -8972.2681   -7832.7418   -8972.2681            0    14032.965     24.84937    25.010691    22.646849    14075.015    15349.198    11864.511    14885.186    192.50708    34.586469    -772.0077      -4952.2 
14810000    292.02885   -9016.3714   -7903.0243   -9016.3714            0    13629.137    24.783847    24.937233    22.855201    14125.442    14537.354    13341.263    13008.793    929.29831    449.81369   -930.38697   -5095.3529 
14811000    294.19257   -8997.7862   -7876.1899   -8997.7862            0    13116.512    24.836534    25.035649    22.786697     14168.74    14492.785    10665.769    14190.983   -874.32638   -664.50959   -403.51221   -5165.8393 
14812000     299.3517   -8975.7029   -7834.4377   -8975.7029            0    14707.032    24.688337     24.92662    22.902329     14094.02    15653.474    14914.277    13553.346    965.46769   -1316.3099   -751.17785   -4811.4539 
14813000     303.0491   -8953.9108   -7798.5494   -8953.9108            0    13425.578    24.881752    24.946206    22.845672     14180.43    14128.201    11802.476    14346.057    309.84304   -238.66219    82.588369   -5022.0456 
14814000    294.47916   -8961.9466   -7839.2577   -8961.9466            0     13036.79    24.942987    24.885887    22.824672    14167.921    13840.511    12253.155    13016.703    345.11708    353.42851   -194.58344   -5145.5363 
14815000    283.08273    -9005.404   -7926.1635    -9005.404            0    12051.237    24.814442    24.893731    23.044837     14235.35    12960.283    11810.463    11382.964    555.23886   -11.463512    1929.9174   -5424.2306 
14816000    307.31843   -8950.3267   -7778.6887   -8950.3267            0    13226.205    24.959045    24.904963    22.810436    14179.061    13381.129    13327.249    12970.237   -386.08343    746.96559    617.28519   -5043.6806 
14817000    296.66467   -9025.9254   -7894.9044   -9025.9254            0    13381.078    24.903867    24.699591    22.997791    14146.294    13925.568     13938.26    12279.408    970.68259   -1479.0267   -1373.4909    -5134.265 
14818000    293.64287   -9005.7769   -7886.2763   -9005.7769            0    14367.862    24.841354    24.906888    22.795014     14103.75    15016.933    13621.722     14464.93   -257.16979    1158.1583   -783.19612   -4930.9692 
14819000    288.88329   -8992.9697   -7891.6149   -8992.9697            0    13139.692    24.789657    24.975994    22.862469    14155.214    13162.859    12486.619    13769.598   -728.75753   -352.55892    253.67884   -5179.0665 
14820000    289.04871   -8987.0073   -7885.0218   -8987.0073            0    13614.463    24.765624     25.02497    22.816519    14140.743    14869.896     12579.56    13393.933    749.79467    193.57557   -124.41774   -5077.3353 
14821000    294.04037   -8974.3569   -7853.3409   -8974.3569            0    12898.578    24.798672    24.944203    22.943117    14192.225    14067.927    12794.632    11833.175    295.20358    724.85779    968.42427   -5183.6056 
14822000    298.84257   -8946.4046   -7807.0805   -8946.4046            0    13838.509    24.951961    24.940908    22.776885    14174.615    12990.983    12649.895    15874.649    500.37121   -278.24351    371.86693   -4946.3532 
14823000     285.3823   -9026.0709   -7938.0634   -9026.0709            0    13884.156    24.819881    24.770141    22.956811    14113.662    14618.192     13990.44    13043.835   -1074.4477   -912.09272     433.5778    -5080.242 
14824000    301.24118   -8978.4544   -7829.9856   -8978.4544            0    14001.485    24.888454     24.94511    22.753011    14126.098    13463.477    13634.203    14906.775    311.63538    226.13895   -28.568232   -4945.4745 
14825000    297.64321   -8942.3062   -7807.5545   -8942.3062            0    13544.676    24.902958    24.934584    22.833282    14178.209    13592.067    12456.443     14585.52     944.0784    54.696419    987.30832   -5006.8589 
14826000    293.94636   -8967.0381   -7846.3805   -8967.0381            0    14904.632    24.683134    24.790497    23.027559    14090.728    15681.143    14039.081    14993.671    607.55324   -1716.7008   -82.813907   -4783.4964 
14827000    286.80287   -8991.9913   -7898.5679   -8991.9913            0    15039.372    24.839351    24.886202    22.791874    14088.959    15154.467    13885.657    16077.991    322.40563    174.41523   -201.17746   -4808.3829 
14828000     293.4191   -8912.8046   -7794.1572   -8912.8046            0    15240.618    24.876834    24.811144    22.826933    14089.302    13572.927    16727.972    15420.956    477.81575   -859.93833    717.09565   -4662.5453 
14829000    296.32634   -8998.7286   -7868.9974   -8998.7286            0    13847.339    24.779639    24.822078    22.926081    14101.424    15192.961    13353.315    12995.739   -104.62673   -1135.5408    -116.4818   -5021.2258 
14830000    295.88158    -8991.852   -7863.8165    -8991.852            0    13118.549    24.915454    25.012965    22.737703     14170.35    13401.595    11623.488    14330.564    673.60815    2068.7958    587.45669   -5152.7369 
14831000    304.88789   -8977.2546   -7814.8829   -8977.2546            0    13901.087    24.710587    24.807736    23.048805    14129.233    15490.652    14096.094    12116.516    284.19304    720.94062    387.97216   -4950.4197 
14832000    280.25235   -8926.1675   -7857.7177   -8926.1675            0    14379.849    24.863395    24.964274     22.73597    14112.139    13812.975    14004.463    15322.108   -976.73931    448.49176    1198.5924   -4898.1856 
14833000     293.8505   -9031.7861    -7911.494   -9031.7861            0    13122.961    24.769904    24.942593    22.880059    14135.887    13811.635    11612.009    13945.238   -822.09603    336.37916   -10.090516   -5206.0984 
14834000    300.41079   -8957.9581   -7812.6551   -8957.9581            0    12185.184    24.932917    24.960327    22.848963    14219.681     12086.92    11677.219    12791.412    252.97725   -937.73964    860.17215   -5285.6983 
14835000    288.82694   -8976.8858   -7875.7458   -8976.8858            0    13109.313    24.915183     24.89736    22.875296    14190.056    13803.728    13108.759    12415.453   -239.25604    898.90791    665.26183   -5162.8074 
14836000    293.47837   -8967.3683   -7848.4949   -8967.3683            0    13806.549      24.8291    24.816701    22.995088     14169.03    13641.872    14942.678    12835.096     599.6327     249.6857    661.65244   -4995.4992 
14837000    287.72413    -8952.933   -7855.9974    -8952.933            0    14640.408    24.928581    24.945916    22.691267    14110.934    14206.282    14176.179    15538.762   -903.66392   -131.11465   -689.84478   -4843.0966 
14838000    302.83147   -8949.3692   -7794.8375   -8949.3692            0     14457.72    24.788704    24.781057    23.004391    14131.374    14464.693    16012.238    12896.228   -236.94067    1012.3255    1066.7805    -4815.223 
14839000    279.44684   -8975.1061   -7909.7273   -8975.1061            0    14264.578    24.835976     24.85869    22.828023    14093.789    14721.117    14513.974    13558.642    258.54254    193.29205   -509.06877   -4977.7366 
14840000    307.40209   -9010.9772   -7839.0203   -9010.9772            0    12443.994    24.969928    24.979834    22.744806    14186.951    12559.217    12187.534    12585.232    327.41268   -488.19894    1170.7426   -5264.3313 
14841000    284.88113   -8977.7925   -7891.6957   -8977.7925            0    14042.685    24.796237    24.884061    22.894979    14126.913    14675.557     13404.41    14048.087   -334.46563    290.57648   -5.4463946   -4998.5301 
14842000    299.16197    -8981.917   -7841.3752    -8981.917            0    13445.602    24.791309    25.117037    22.720968    14147.989    14206.962    11396.328    14733.516   -733.18512   -457.81753   -604.39402   -5067.0916 
14843000    290.20123   -8945.3574   -7838.9779   -8945.3574            0      13524.5    24.717774    24.995735    22.933854    14169.428    13906.504    12642.538    14024.459    304.03525    1110.6714   -654.30259   -5044.1863 
14844000    284.20898   -8954.9152   -7871.3809   -8954.9152            0    12938.295    24.851519    25.018875    22.796433    14173.843    13385.892    11872.137    13556.854    292.11814     1056.623     99.60186   -5196.8937 
14845000    283.57268   -9013.0903   -7931.9819   -9013.0903            0     13741.22    24.835819    24.881686    22.858659     14125.67    14179.707    13185.509    13858.444   -40.933503   -1762.4949    278.25643   -5101.1751 
14846000    291.30136   -8974.1228   -7863.5492   -8974.1228            0     11986.89    24.987736    24.986156    22.748362    14202.882    10650.312    12408.204    12902.153   -484.36984   -2025.9284    858.88164   -5380.6511 
14847000    300.29698   -8973.0603   -7828.1912   -8973.0603            0    13900.247    24.808263    24.880331    22.898553    14133.852     14263.47    13881.299    13555.972    195.34522   -1174.6108     306.5536   -4962.9648 
14848000     283.8521   -9000.1167    -7917.943   -9000.1167            0    14338.519    24.897937    24.736471    22.878304    14090.452    13846.655    15229.051     13939.85   -143.17015    100.61431    602.46639   -4971.4522 
14849000    295.34853   -8958.5709   -7832.5676   -8958.5709            0    13215.848    24.991433    24.816404    22.867714    14182.499    12768.194    14000.766    12878.585   -694.27193   -811.51991   -965.27019   -5099.0385 
14850000    288.04307   -8995.8217   -7897.6701   -8995.8217            0    12449.031    24.856183    24.783252    23.021152    14181.422     12774.26    12964.076    11608.757    1048.5294    722.98205   -237.75613    -5322.943 
14851000    299.42721   -9001.7886   -7860.2355   -9001.7886            0    15004.834    24.784276    24.927044    22.776476    14071.278    15988.184    13640.463    15385.856   -284.81337    554.58963    102.83206   -4781.0161 
14852000    293.95685   -8942.0684   -7821.3708   -8942.0684            0    13276.873    24.717871    25.015062    22.947732    14189.021    15205.928    12414.091    12210.599     398.2108    415.46036    525.65726   -5073.9569 
14853000    292.42102   -8962.8014   -7847.9591   -8962.8014            0    12085.205    24.870322    25.011956    22.825474    14198.709    13727.584    9954.8056    12573.227   -556.14134   -411.05892    411.63855    -5345.432 
14854000    290.61219   -8997.8777   -7889.9315   -8997.8777            0    10601.999    25.029057    25.011996    22.835037    14295.342    11456.148    9936.6538    10413.196   -534.38107       497.66     -1067.44    -5679.596 
14855000    292.66921   -8960.8258   -7845.0372   -8960.8258            0    12314.908    24.878049    24.921013    22.883785     14187.63    11392.711    12422.151    13129.861   -798.92641   -482.82548    -802.1031   -5296.9347 
14856000    290.14751   -9001.8153   -7895.6407   -9001.8153            0    13329.101    24.925147    24.820047    22.887772    14159.367    13926.451    13405.512    12655.341   -106.50494    2.1243063    321.77613   -5143.1832 
14857000    299.60085   -8998.7054   -7856.4903   -8998.7054            0    14368.662    24.992027    24.762419     22.84824    14139.931    13195.981    15458.581    14451.426    2405.2345   -775.53313    303.82505   -4893.4366 
14858000    297.01072   -8984.1689   -7851.8285   -8984.1689            0    13836.716    24.893377    24.780168    22.868625    14106.787    13519.699    14681.967    13308.484    279.18462   -50.726512   -506.08863   -5005.1591 
14859000    289.70775   -8971.5036   -7867.0055   -8971.5036            0    13203.463    24.989121     24.85353    22.827617    14177.499    12646.138    13547.804    13416.448    82.359963    275.26095   -704.07934   -5137.0009 
14860000    294.47012   -9006.1964   -7883.5421   -9006.1964            0    13661.702    24.761062    24.898915    22.967528    14160.022    13985.791    13442.231    13557.086   -454.44283   -39.817555    407.93389   -5062.2722 
14861000    292.31584   -8968.0546   -7853.6133   -8968.0546            0    13114.633    24.876143    24.967576    22.821657    14174.463    14706.587    11020.339    13616.972    443.94676   -1724.5863    1253.4572   -5142.5563 
14862000    297.24984   -8989.0946   -7855.8426   -8989.0946            0    11588.046    24.970047    24.961368    22.868659    14253.727    11330.671    10947.087    12486.378   -289.33173    413.35397   -1348.9589   -5446.9662 
14863000    283.53101   -8941.5935    -7860.644   -8941.5935            0    12846.728    25.013591    24.806355     22.85104    14178.979    11923.685    13690.012    12926.487   -360.25581    504.45324   -97.934543   -5204.1224 
14864000    303.97608   -8934.4027   -7775.5073   -8934.4027            0    13216.277    24.975478    24.658174    22.992763    14160.085    12419.777    14432.881    12796.172   -315.98122   -64.516963   -252.86984   -5046.2096 
14865000     302.3075   -8947.5351   -7795.0011   -8947.5351            0    13417.403    24.909888    24.948576    22.812436    14177.159    13336.721    13205.634    13709.855   -919.86344    65.151972    896.83428   -5020.8279 
14866000    294.00038   -8981.7042   -7860.8407   -8981.7042            0    16026.247    24.699075    24.881235     22.82292    14025.677    17488.474    16076.024    14514.244    187.04277    -930.8329   -655.41577     -4582.67 
14867000    282.85197   -8992.1513   -7913.7906   -8992.1513            0    14586.115    24.868698    24.865073    22.788955    14091.824    14865.584    14856.185    14036.574     582.6947    359.56167   -206.65234   -4916.1283 
14868000    286.41059   -9003.0692   -7911.1414   -9003.0692            0    14640.781    24.896225    24.750542    22.814141    14057.961    14554.233    15404.961    13963.148   -34.532045   -248.41773     -912.476   -4909.4747 
14869000    286.86381   -8938.9687   -7845.3131   -8938.9687            0    14570.112    24.928468    24.804712    22.819655    14110.385    13367.501    15825.837    14516.999   -406.14428      70.1232   -391.23178   -4846.9954 
14870000    286.42245   -8958.0593   -7866.0863   -8958.0593            0    14483.512    24.903541    24.759259    22.893844    14116.189    13460.616    16109.273    13880.646    433.19167    865.03764    -561.4453   -4884.3638 
14871000    296.27325   -9001.6684   -7872.1396   -9001.6684            0    14108.236    24.777292     25.02151    22.742148    14099.341    15313.222    12327.581    14683.906    444.61752    181.06548    203.33277   -4971.1416 
14872000    291.48222   -8937.8602    -7826.597   -8937.8602            0    13987.139    24.847302    24.804682    22.966882    14155.165    14679.748    13344.337    13937.332    6.3354265    232.16751   -107.11374   -4939.1121 
14873000    277.97482   -8945.6951   -7885.9283   -8945.6951            0    13664.732    25.062475    24.800856    22.780595    14159.754    12078.486    14988.563    13927.148   -294.60044     465.8869    1322.6551   -5064.0861 
14874000    298.26993   -8950.6468   -7813.5058   -8950.6468            0    13085.243    24.897828    24.850872    22.910877     14175.71    14239.652    12256.073    12760.005   -241.14464   -1421.2418   -105.01803   -5108.2862 
14875000    298.64714   -8928.5912   -7790.0121   -8928.5912            0    14424.623    24.890248    24.963155    22.740913    14129.819     12487.76    14784.146    16001.964    628.41366   -474.83282    990.64325   -4817.5457 
14876000    291.64943   -8964.4848   -7852.5842   -8964.4848            0    13315.293    24.786003    24.966686    22.861689     14147.37    14235.572    12165.069     13545.24    1224.2549   -1.9494008    508.04285   -5105.3079 
14877000    298.41508   -8969.1891   -7831.4948   -8969.1891            0    13964.134    24.796918    24.934372    22.852709    14129.729    15152.001    12235.032    14505.369    375.32268   -812.49844   -1777.7798   -4953.9391 
14878000    293.46984   -8962.9021   -7844.0612   -8962.9021            0    14289.949     24.84629    24.961857     22.73707    14101.747    15175.571    13324.475    14369.801    568.21486    492.10661    1819.7138   -4905.1971 
14879000    292.33034   -8950.0016    -7835.505   -8950.0016            0      13578.1    24.877008    24.803946    22.930569    14149.261    14328.671    13438.836    12966.793   -722.01541    161.73627    20.414202   -5033.6308 
14880000    294.00664   -9022.4198   -7901.5324   -9022.4198            0    13523.402    24.959005    24.859542    22.780183    14134.407    12791.079    14158.952    13620.176     167.7271   -598.09776   -580.05381   -5113.8747 
14881000    294.71678   -9017.1603   -7893.5655   -9017.1603            0    14335.508    24.893411    24.707594    22.907186    14089.209    14934.922    14812.334    13259.268   -627.19191     158.3853   -397.80275   -4947.9532 
14882000    288.83666   -8962.4145   -7861.2374   -8962.4145            0    11705.291     25.07124    24.930463    22.721497     14201.79    10936.196    12097.017    12082.661    31.689032   -855.98455    785.49073   -5436.8546 
14883000    287.94276   -8975.7011    -7877.932   -8975.7011            0    12142.731    24.930615    24.910185    22.899004    14220.882    12843.005    11773.487    11811.701    122.60712   -368.07203   -321.06222   -5359.5663 
14884000    281.18018   -8993.9675   -7921.9805   -8993.9675            0    11801.595    24.957919    24.905761    22.901274     14235.34    11955.917    11534.374    11914.494    219.03716   -710.24555   -301.52591    -5471.877 
14885000    294.10648   -9041.5622   -7920.2942   -9041.5622            0    13258.348    24.781229    24.961933    22.847622    14133.251    14151.652    13049.196    12574.196    164.12664   -721.27446    325.02369   -5187.4973 
14886000    290.57903   -8971.8256   -7864.0058   -8971.8256            0    12922.257    24.794403    24.995898    22.895101    14189.431    13855.728    12096.216    12814.828    144.33635   -447.50963   -1122.6173    -5189.896 
14887000    294.76759   -9023.2502   -7899.4617   -9023.2502            0    13038.238    24.882039    24.963773    22.796128    14159.806    14031.018    12108.772    12974.924   -90.374492    1199.8982     543.7921   -5206.9842 
14888000    290.73147   -8967.0844   -7858.6835   -8967.0844            0    13267.295    24.905183    24.795687    22.928163    14159.083    12465.598    14016.525     13319.76   -771.35176    431.69798   -308.32205   -5119.0441 
14889000    295.09093   -9035.1857   -7910.1645   -9035.1857            0    14070.871    24.978031    24.769608    22.818852    14117.933    12877.823    14126.492    15208.298    432.48374   -1227.6037   -252.86414   -5013.0344 
14890000    298.78512   -9006.7172    -7867.612   -9006.7172            0    11887.107    24.969151    24.759946    23.006729    14223.561    10458.044    13986.701    11216.575   -456.12872   -309.30499     239.1556   -5401.7976 
14891000    282.89336    -8984.653   -7906.1345    -8984.653            0    11954.704    25.040091    24.881429    22.829286    14223.403    10780.964    13307.719    11775.428   -422.99211   -274.76441    666.51136   -5426.3255 
14892000    298.18076   -9041.5887   -7904.7877   -9041.5887            0    12191.572    24.974724    24.777049    22.889593    14164.079    11454.771     13178.56    11941.386   -511.21867   -54.309152    1233.0634    -5386.392 
14893000    287.37096   -8957.3406   -7861.7514   -8957.3406            0    13601.986    25.005962    24.877681    22.806397    14187.639    13184.278    12888.384    14733.295    460.10003    353.55084    247.07902   -5047.3351 
14894000    293.66483    -8980.114   -7860.5297    -8980.114            0    14101.584    24.938055    24.795062    22.864671    14138.155    13780.869    14124.739    14399.143   -320.88022    116.51481    206.78741   -4952.9174 
14895000    307.13208   -8951.0678   -7780.1402   -8951.0678            0    14034.777    24.937796    24.866096    22.771147    14120.517    12944.388    13650.824     15509.12    435.04009   -284.92221     1259.577   -4889.9128 
14896000    292.60403   -8989.4575   -7873.9175   -8989.4575            0    13442.464    24.813304    24.907715     22.84684    14120.323    14642.336    13733.667     11951.39   -372.76574   -850.90775    156.27998   -5105.7051 
14897000    293.65043   -8982.9289   -7863.3996   -8982.9289            0    13993.624    24.751441    24.970632    22.845044    14119.588    14137.047    13570.118    14273.707    469.30264    -780.7005   -600.86687   -4981.8366 
14898000    292.14944   -9018.6435   -7904.8366   -9018.6435            0    13643.431     24.80768    24.980004    22.798874     14128.37    15086.179    12797.112    13047.003    261.72308    318.44832     630.9486   -5093.6379 
14899000    296.24435   -8979.8496    -7850.431   -8979.8496            0     13511.72    24.808011    24.922212     22.87081    14140.348    14649.864    12869.652    13015.644      340.018   -650.83777    49.676559   -5064.0108 
14900000    283.02629   -8953.7024   -7874.6771   -8953.7024            0    14280.911    24.930207    24.899891    22.751966    14123.497    13462.101      13868.5    15512.131   -320.92465    139.74252    -2136.197    -4933.142 
14901000    289.87374   -8943.0573   -7837.9264   -8943.0573            0     14576.73    24.900124     24.82469    22.892398    14150.658    14569.075    14183.425    14977.691   -1053.8266   -318.53648    1609.0511   -4829.6852 
14902000    293.01462   -9012.0633    -7894.958   -9012.0633            0    12506.155    25.030318    24.678508    22.945286    14173.553    11426.391    14038.405    12053.669   -123.43619    181.06744    898.14933   -5309.8515 
14903000    296.78114   -8982.0415   -7850.5764   -8982.0415            0    12547.218    25.017386    24.903139     22.76751     14184.42    10885.393    13590.534    13165.726    312.79366   -1359.4483    176.50776   -5254.9936 
14904000    290.46275   -9014.4893   -7907.1128   -9014.4893            0    12603.167    24.932632    24.901718    22.858983    14192.351    11859.709    13014.249    12935.543   -40.611827   -426.40759    218.69169   -5298.4981 
14905000    290.82918   -8982.4848   -7873.7113   -8982.4848            0    13180.478    24.802569    24.890893    22.965873    14178.167    14554.318     12608.73    12378.387    72.077054   -323.93669    988.31067   -5148.3307 
14906000    276.24881   -9024.6877   -7971.5012   -9024.6877            0    12400.252    24.832807    24.964932     22.85844    14171.075    13438.534    11416.122    12346.101   -435.95946     907.7979    438.27691   -5408.7338 
14907000    290.26915   -8993.1293   -7886.4909   -8993.1293            0    10870.466    24.839866     25.18877     22.81566    14275.432    10329.611    9132.5643    13149.221   -752.79104   -485.85518   -380.87722   -5623.3412 
14908000    297.87725   -8990.0648   -7854.4208   -8990.0648            0    13364.702    24.825327    24.983579    22.815731    14150.899    14644.235    11695.815    13754.056   -449.17821    1578.0666   -287.51459   -5096.2624 
14909000    296.49521   -8956.8699   -7826.4949   -8956.8699            0    13954.221    24.755513    24.915737    22.900074    14124.809     14373.39    14200.102    13289.172   -265.93229     277.8492   -358.37769   -4951.9833 
14910000    289.36602   -8963.8995   -7860.7042   -8963.8995            0    15153.648    24.897162    24.875096    22.738323    14082.282    14256.285    15082.802    16121.856     -215.126   -693.10558    146.16141    -4748.514 
14911000     292.0861   -9034.8228   -7921.2574   -9034.8228            0    13982.671    24.939773    24.819315    22.769761    14094.211    12533.086    14795.467     14619.46   -440.82851   -604.70578   -1203.2479   -5047.1248 
14912000    280.18576    -8944.532   -7876.3361    -8944.532            0    13205.208    25.037895    24.731773    22.883646    14170.275    11791.316    14981.197    12843.113    1486.1593   -1219.2853    282.65258    -5147.362 
14913000    295.41777   -8970.7461   -7844.4789   -8970.7461            0    13958.018    24.840345    24.922479    22.827739    14132.265    14331.657    13426.229    14116.168    650.76507    470.62707     190.3258   -4967.6674 
14914000    287.69414   -8986.2251   -7889.4038   -8986.2251            0    13505.335      24.8559    24.906027    22.851217    14146.313    14094.183      12788.2    13633.621    224.39712   -146.55758   -387.51968   -5103.1254 
14915000    299.15177   -9008.4503   -7867.9473   -9008.4503            0    13173.773    24.878247     24.84991    22.912283    14164.882    13817.107    12952.543    12751.667     1070.639    242.83217   -681.00514   -5146.5057 
14916000    293.31411   -8954.8361    -7836.589   -8954.8361            0    13034.087    24.997719    24.970517    22.730772    14188.683    12015.707    14159.677    12926.875    513.24536   -544.23495   -843.55564   -5139.4794 
14917000    271.97623   -8983.2216   -7946.3242   -8983.2216            0    12986.897    24.943821    24.837901    22.889112    14180.999    13130.271    12777.512    13052.909   -94.906397   -846.10314    208.90964   -5260.4349 
14918000    297.13828   -8927.9433   -7795.1166   -8927.9433            0    14505.038    24.996374    24.762695    22.820482    14125.367    13083.215    15733.945    14697.954    761.64981    502.94481    525.70453   -4807.0209 
14919000    289.50307   -8975.8627    -7872.145   -8975.8627            0    13079.635    25.034227     24.85918    22.805632    14192.637     11484.81    12115.071    15639.024      494.561    497.44657   -668.91817    -5164.856 
14920000    296.43726   -8997.2045   -7867.0505   -8997.2045            0    13462.607    24.872858    24.815607    22.919437    14146.681    14474.477    14293.816    11619.527    212.99288    187.76695    306.40176   -5089.5151 
14921000    295.10735   -8994.4632   -7869.3794   -8994.4632            0    13697.406    24.923429    24.963818    22.717571    14134.508    12957.611    12623.285    15511.322    75.323181   -360.82554    1432.7474   -5045.8331 
14922000    291.83223   -8990.6665   -7878.0689   -8990.6665            0    13125.471    24.781808    24.876967    22.984683     14169.97    12834.028    13637.964     12904.42    465.26561   -513.37265   -236.17462   -5165.6317 
14923000    291.46878   -8958.0345   -7846.8226   -8958.0345            0     15879.05    24.764645    25.005003    22.696201    14054.396    17403.586    13844.943    16388.622   -1019.2071    756.71042   -290.98903   -4592.1103 
14924000    292.20761        -8992   -7877.9714        -8992            0    14890.755    24.758654     24.86456    22.870103    14079.134    16112.636    13684.419    14875.211    36.350366   -909.27703    251.51033   -4820.4565 
14925000    294.33951   -8982.8335   -7860.6771   -8982.8335            0    14396.377    24.817266    25.041808    22.657661    14081.039    15733.794    11829.751    15625.585    626.37661     713.9537    1275.7294    -4904.273 
14926000    286.44294   -8972.0589   -7880.0078   -8972.0589            0    14537.291    24.828876    24.825417    22.869253    14096.315    15313.997    14825.722    13472.154   -502.35507   -529.02209   -442.76281   -4891.4272 
14927000    294.65921   -8978.2609   -7854.8856   -8978.2609            0    13305.265    24.967858     24.95305    22.691402    14137.293    12092.587    13193.784    14629.425   -1729.3899   -58.970828   -149.96384   -5111.6338 
14928000    292.82883   -9002.9478   -7886.5508   -9002.9478            0     11593.01    24.717707    24.975629    23.024498     14213.95    13594.882    10053.253    11130.897   -358.95843   -314.20956   -311.38376   -5483.3674 
14929000    291.66811   -8995.2906   -7883.3188   -8995.2906            0    12615.636    24.871551    25.008568    22.837991    14205.274    12996.159    11220.615    13630.133   -10.475903   -199.88382   -287.50317   -5269.7457 
14930000    284.10687   -8982.8575   -7899.7125   -8982.8575            0    11952.189    24.899484    24.978765    22.913584    14251.295    12664.314    11008.567    12183.686    396.09622   -150.69491    607.38344   -5415.5634 
14931000    292.02429   -8988.7388    -7875.409   -8988.7388            0    12973.176    24.896311    24.859648    22.867898    14153.251    12493.823    13632.204    12793.503    370.75618   -159.30582    370.48609   -5197.6072 
14932000    297.67224   -8950.8775   -7816.0152   -8950.8775            0     14100.82    24.941235    24.918852    22.723805    14123.003    13917.701     14426.26    13958.498    816.20276   -159.91619    121.39209   -4911.6763 
14933000    289.71116   -8963.0677   -7858.5566   -8963.0677            0    13492.199    24.847666    24.752041    23.015704    14155.359    14262.463    14014.116    12200.018    80.654979    282.62204   -251.84435   -5073.2082 
14934000    296.66387    -8988.022    -7857.004    -8988.022            0    13346.394    24.995125    24.847534    22.768563    14140.808    13433.706    12990.213    13615.262   -908.08049    791.55747   -756.62879   -5104.5882 
14935000    308.20901   -8970.0705   -7795.0372   -8970.0705            0    14710.533     24.93656    24.882047    22.713559    14093.142    14025.102    14697.928    15408.569    -758.8769    407.02866    264.35954   -4771.5222 
14936000    303.49803   -8972.0831   -7815.0102   -8972.0831            0    13495.816    24.795272    24.845087    22.983898    14159.017    12453.303    15121.896    12912.248   -131.02533    122.01077   -1584.0814   -5028.1952 
14937000    292.05462   -9045.6547   -7932.2093   -9045.6547            0    12711.167     24.91792    24.903368    22.818943     14160.07    11257.591    12852.365    14023.545   -543.51638   -882.31246   -1097.8056   -5307.2249 
14938000    304.91778   -8987.5378   -7825.0521   -8987.5378            0     12781.82    24.902405    24.784571     22.98934    14188.916    12011.583    13924.581    12409.296    126.81957   -82.504813   -10.081767   -5180.1001 
14939000    283.88306   -9000.1283   -7917.8366   -9000.1283            0    13239.526     24.95821    25.010491    22.643817    14134.657    12061.331    13603.305    14053.944    120.69849    445.53618    241.80411   -5188.6475 
14940000    300.34117   -8956.3587   -7811.3211   -8956.3587            0    13513.201     24.81835    24.750193    23.038687    14151.719    13255.887    13508.854    13774.862   -1187.6379    -763.4961   -1496.1809   -5022.3544 
14941000    288.83839   -8953.4321   -7852.2485   -8953.4321            0    14014.887    24.939194    24.927917    22.728704     14130.03    12715.554    13895.595    15433.512    793.83885   -678.50943   -783.67141   -4964.1729 
14942000    305.18635    -8994.297   -7830.7874    -8994.297            0    14211.221     24.84583    24.833046    22.892033     14124.33    14695.346    13954.507    13983.809    -756.7596   -1031.6659   -711.82581   -4903.4341 
14943000    289.69662   -8976.4443   -7871.9886   -8976.4443            0    12609.457    24.976047    24.872033    22.845057    14191.465    11190.178    13736.901    12901.292    820.07898    435.33452    -696.2208    -5262.235 
14944000    278.52498   -8955.7558   -7893.8915   -8955.7558            0     12498.72    24.942233    24.961417    22.862091    14233.789    12979.753    10942.626    13573.782    236.33121   -666.01463   -116.10018   -5299.3421 
14945000     291.5393   -8972.8656   -7861.3849   -8972.8656            0    13616.026    24.937279    24.830064    22.841838    14143.534    14410.438    12415.377    14022.263   -361.07877    476.21098    6.9932721   -5052.8217 
14946000    292.91719    -8944.116   -7827.3821    -8944.116            0    15068.926    25.015343    24.760977    22.753588    14093.671    13844.725    15874.487    15487.566   -855.33353    570.09421    466.08115   -4730.0888 
14947000    284.29264    -8941.096   -7857.2428    -8941.096            0    13638.107    24.834812    24.900467    22.924685    14176.589    14037.848    13989.425    12887.048    -248.2266    801.48607    37.886709   -5037.5504 
14948000     299.5606   -8971.4157   -7829.3541   -8971.4157            0    13130.463    24.772889    24.873795    23.011811    14179.781    12317.752    14338.139    12735.499   -631.90525    641.77991    -165.7863   -5114.0064 
14949000     300.7782   -8961.7742   -7815.0706   -8961.7742            0    14976.069      24.8949    24.877302    22.778255    14106.982     14199.93    14713.169    16015.107    982.19591    246.98306   -113.20946   -4733.9562 
14950000    294.38137     -8980.49    -7858.174     -8980.49            0    13900.577    24.806874    24.863357    22.894935    14121.188    15574.396    12786.659    13340.675   -367.00796   -1620.2789    288.27694   -4995.4469 
14951000    297.82287   -8944.6854   -7809.2488   -8944.6854            0    14476.893    24.760384    25.013123    22.780974    14109.044    15509.177    13588.331    14333.172   -1093.0733    342.26413      978.764   -4830.3974 
14952000    292.03218   -8975.8255   -7862.4656   -8975.8255            0    15298.113    24.736863    24.884263    22.818279    14045.988    16955.929    15309.167    13629.242    -48.24405   -423.08745    96.433056   -4728.7033 
14953000    286.21095   -8996.7036   -7905.5369   -8996.7036            0    14466.603    24.782164     24.94312    22.777948    14080.063    14157.583    14789.637    14452.589   -505.79602   -838.40226   -31.843125   -4934.9173 
14954000    293.70437   -8971.6656   -7851.9306   -8971.6656            0    12530.208    24.772562    25.052219    22.851108    14181.572    12522.434    12455.864    12612.325   -129.14111   -793.53536     561.3895   -5260.3868 
14955000    286.30683    -8995.305   -7903.7728    -8995.305            0    12574.389    24.722153    25.083125    22.879496    14187.778    13591.154    11364.897    12767.116   -691.62261   -1596.1002    1364.7388   -5301.9533 
14956000    273.81349   -8995.2606   -7951.3587   -8995.2606            0    13462.507    24.850253    24.920265    22.815294    14128.939    13599.862     12273.46    14514.201    -1067.216    42.232828    516.10252   -5177.3273 
14957000    293.02269   -8980.9961     -7863.86   -8980.9961            0    12065.682    25.107587    24.842625    22.764028    14198.798    11036.106    12836.852    12324.088   -828.15469    75.403686   -1295.4538   -5365.3601 
14958000    293.55166   -8991.9422   -7872.7894   -8991.9422            0    13368.576    24.890782     24.83257     22.91573     14164.26    13803.638    13156.697    13145.394    128.32199   -558.00723   -883.85261   -5111.2266 
14959000    294.06727   -8949.5046    -7828.386   -8949.5046            0     12830.74    24.878131    25.051098    22.763134    14186.543    13299.942    10946.143    14246.134   -96.807571   -185.39671    1011.6312    -5173.755 
14960000      297.754   -8973.8789   -7838.7049   -8973.8789            0    13275.803    24.601102    25.029284    22.950828    14131.926    16583.168    10577.515    12666.726    259.08437    518.03544   -97.431112   -5102.5666 
14961000    297.10754   -8955.0368   -7822.3273   -8955.0368            0    13699.257    24.936884    24.922923    22.728342    14125.665    12546.848    13926.022    14624.902   -608.21666   -110.42528    1276.9507   -5000.1661 
14962000    292.88396   -8989.3318   -7872.7246   -8989.3318            0    13015.397    24.889366    24.840838    22.914338     14167.31    14011.577    13369.912    11664.703    826.25332   -39.756296    136.62539   -5183.5394 
14963000    291.66134   -8990.2098   -7878.2638   -8990.2098            0    13475.884    24.820208    24.789106    23.026367     14167.45    14169.499    14107.654    12150.498    311.23105    5.1558454   -149.54864   -5093.9072 
14964000    296.73159   -8969.2512    -7837.975   -8969.2512            0    13198.524    24.974534    24.862367    22.771571    14139.462    12303.817    14621.877    12669.878    83.165314    281.90752   -1147.4133   -5116.3134 
14965000    288.32284   -8978.3709   -7879.1528   -8978.3709            0    14037.938    24.770354    24.744411    23.040972    14122.453    14831.041    14387.818    12894.954    161.16504    1070.7141   -87.346186   -4987.8782 
14966000    290.90182   -9020.9553   -7911.9049   -9020.9553            0    13011.997    24.992793    24.870101    22.760816    14147.516    12603.032    13640.622    12792.336    141.46444    1071.7953    438.70656   -5227.1787 
14967000    301.15723   -8977.2602   -7829.1114   -8977.2602            0     14124.11    24.904658    24.811427    22.838195    14112.179    14402.467    13957.027    14012.837   -81.666011    664.66151   -637.78858   -4922.2049 
14968000    281.56117   -8919.7925   -7846.3529   -8919.7925            0    15020.277    24.864089    24.809574    22.837506    14087.714    14618.642    15152.381    15289.807    624.94945   -585.65584   -76.643127   -4760.3642 
14969000    280.79958   -8983.5308   -7912.9948   -8983.5308            0     14303.83    24.845595    24.820991    22.862992    14099.431     15427.82    13674.333    13809.336   -559.68842    900.25451    1287.4032   -4971.7593 
14970000    291.51254   -9001.8859   -7890.5071   -9001.8859            0    12800.897    24.865281    24.856634    22.965409    14194.166    11560.929    12980.374    13861.387    1268.1404    68.887505    37.764471   -5240.6274 
14971000    291.37047   -8978.8892   -7868.0521   -8978.8892            0    13953.423    24.967076    24.962261    22.679358    14134.562    12177.889    13109.017    16573.362   -352.12878   -1129.2655   -560.86163   -4991.7203 
14972000    291.50675   -8986.1525   -7874.7959   -8986.1525            0     15047.74    24.742771    24.767751    22.936185    14055.817    15936.625    15842.463    13364.132    978.33935    9.0509039   -659.68142   -4790.1646 
14973000    294.37259   -8972.3436    -7850.061   -8972.3436            0    14992.458    24.978191    24.847016    22.677353    14074.326    13686.218    14999.692    16291.464   -255.27073    1376.9159    571.24747    -4772.715 
14974000      306.108   -8950.0824   -7783.0591   -8950.0824            0    15203.642    24.896351    24.736403    22.911407    14109.902    13580.941    17037.932    14992.054    -919.0243   -410.15585    256.92073   -4654.4772 
14975000    283.79004   -8948.3271   -7866.3901   -8948.3271            0     15594.76    24.872484    24.816564    22.803868    14075.678    14785.705    16858.577    15139.999    683.97308     415.6077   -335.83565   -4665.1083 
14976000    294.42451   -8960.7079   -7838.2273   -8960.7079            0    15635.204    24.797171    24.731387    22.930262    14062.406    16273.808    16717.102    13914.701   -348.42664    40.036379   -367.23364   -4631.6696 
14977000    289.72976   -8934.1592   -7829.5772   -8934.1592            0    13067.884    25.106459    24.814019    22.808592    14209.574    10498.594    13951.255    14753.802   -114.94669    -939.6518   -176.93458   -5121.4928 
14978000     290.2628   -8944.4153   -7837.8011   -8944.4153            0    13739.983    24.886131    24.896936    22.956018    14223.283    13860.841    13532.516    13826.593    163.57969   -1379.9956   -289.27099    -4987.689 
14979000    286.85219   -8967.9673    -7874.356   -8967.9673            0    13595.983    24.902005    24.754391    22.924903    14131.689    13144.938    14926.699    12716.313    1615.9329   -689.79514    -876.0631   -5072.2757 
14980000    292.10906   -8958.6694   -7845.0164   -8958.6694            0    13533.544    24.875295    24.889914    22.867467    14158.254    12801.183    14459.653    13339.795    631.01444   -177.58013    112.56281   -5050.5614 
14981000    298.89846   -8965.2942   -7825.7569   -8965.2942            0     12425.33    25.091895    24.899311    22.714928    14191.626     11123.25      12166.5     13986.24    375.35434      1025.65    574.78625   -5254.0825 
14982000    293.82197   -8967.8752   -7847.6918   -8967.8752            0    12919.014    24.858922      24.8119    22.951724    14156.557    12496.378    13683.109    12577.556   -165.37233     182.8895   -305.36476   -5180.4469 
14983000    297.38717   -8964.8661   -7831.0905   -8964.8661            0    13473.007      24.8074    25.127369    22.731006    14169.252    14294.014    11450.723    14674.282   -1200.8538     -509.122   -620.45197   -5046.9744 
14984000    291.48355   -8948.7176   -7837.4493   -8948.7176            0     14447.11     24.76741    24.887496    22.921165    14128.579    14227.582    14361.141    14752.608   -542.48966    1119.2344   -667.87337   -4860.6102 
14985000    290.16334   -9007.1488   -7900.9138   -9007.1488            0    12735.735    24.945125    24.942453    22.770804    14167.826    12690.752    11715.104    13801.348    149.52459    1291.3514   -299.90913   -5269.4154 
14986000    304.00195    -8995.066   -7836.0719    -8995.066            0    14256.133    24.895108    24.820324    22.827268    14105.075    13132.578    14609.714    15026.106   -87.202721    144.22702    206.75024   -4903.4706 
14987000    288.36244   -8965.6619   -7866.2928   -8965.6619            0    15426.313    24.977906    24.806723    22.682709     14054.66    15590.152    15893.349    14795.438    611.48267   -88.966432    1289.5395   -4704.3182 
14988000    306.90956   -8962.8057   -7792.7265   -8962.8057            0    13460.529    24.826365    24.946619    22.894589    14179.395    14610.364    12183.269    13587.956   -579.93377   -171.11766      532.729   -5009.1976 
14989000    293.83484   -8975.3561   -7855.1236   -8975.3561            0    13118.509    24.826884    25.008458    22.864396    14196.093    13311.467    13734.415    12309.646   -879.95019    619.91329   -474.88505   -5139.1271 
14990000    299.13841   -8938.7072   -7798.2552   -8938.7072            0    15831.594     24.83692    24.838735    22.774706    14050.119    15671.529    16864.692     14958.56   -656.38335    660.94893    566.34224   -4554.2576 
14991000    302.21072   -8993.3318   -7841.1667   -8993.3318            0    14142.136    24.945472     24.79158    22.833253    14120.944    13314.584    15036.493    14075.331    255.90787   -1073.5521    22.384721   -4928.7426 
14992000    298.08416   -8959.3297    -7822.897   -8959.3297            0    13312.317    24.961339    24.851579    22.844234    14170.934    12995.455    13195.112    13746.385   -639.19523   -410.52931   -25.486636   -5071.6599 
14993000     295.1152   -8994.8958   -7869.7821   -8994.8958            0    13557.172    24.938421    24.910367    22.756151    14136.695    12877.982    14755.523    13038.012   -378.07623    415.48117 -0.027472865   -5074.7108 
14994000    283.16124   -8973.6494   -7894.1096   -8973.6494            0    13517.725    24.793347    24.825111    23.004978    14159.508    13324.951    14375.993    12852.232    120.60407    726.91032   -860.16689   -5102.6735 
14995000     298.7411   -8979.9647   -7841.0274   -8979.9647            0    13843.252    24.931743    24.927983     22.73038    14126.887    14234.909    13448.587     13846.26   -607.04395   -1248.9738   -415.64196   -4988.9554 
14996000    294.40173   -8994.7335   -7872.3398   -8994.7335            0    13543.571    24.962222     24.80702    22.853153    14151.548    13569.715    14204.026    12856.974    33.525288   -256.71362    399.48139   -5077.1387 
14997000    296.39684   -8923.3002   -7793.3002   -8923.3002            0     15003.66    24.940945    24.759534    22.831188    14098.856    14809.989    14591.555    15609.437    580.70351    267.35071    -690.8044   -4708.2873 
14998000    289.36616   -9006.5368   -7903.3411   -9006.5368            0    14313.224    25.007304    24.756964    22.758154    14089.686    12485.268    15631.232    14823.171    1728.0931    1006.2108    211.40522   -4962.2082 
14999000    279.91439    -8993.617   -7926.4557    -8993.617            0    12987.255    24.859261    24.850194    22.880676    14134.708    12940.301    12887.504     13133.96   -36.489541     375.9061    16.960842   -5249.2602 
15000000    306.30571   -8988.0112   -7820.2341   -8988.0112            0     13864.22    24.818277     24.96315    22.850369    14156.772    13952.924    14187.477    13452.259   -530.77124    1446.0633   -811.11565   -4957.7995 
Loop time of 565.336 on 64 procs for 250000 steps with 1920 atoms

Performance: 76.415 ns/day, 0.314 hours/ns, 442.215 timesteps/s
99.2% CPU use with 64 MPI tasks x 1 OpenMP threads

MPI task timing breakdown:
Section |  min time  |  avg time  |  max time  |%varavg| %total
---------------------------------------------------------------
Pair    | 63.155     | 65.803     | 67.693     |  11.4 | 11.64
Bond    | 0.27188    | 0.28161    | 0.29622    |   1.0 |  0.05
Kspace  | 235.81     | 248.04     | 261.19     |  41.3 | 43.88
Neigh   | 7.0483     | 8.566      | 10.461     |  29.5 |  1.52
Comm    | 102.13     | 117.08     | 130.58     |  67.1 | 20.71
Output  | 0.98677    | 0.98772    | 0.98886    |   0.0 |  0.17
Modify  | 111.43     | 118.39     | 124.53     |  29.6 | 20.94
Other   |            | 6.177      |            |       |  1.09

Nlocal:        30.0000 ave          35 max          25 min
Histogram: 1 2 3 12 7 12 15 3 5 4
Nghost:        2872.70 ave        2900 max        2854 min
Histogram: 6 7 13 7 11 5 7 3 3 2
Neighs:        10735.5 ave       12548 max        8863 min
Histogram: 3 2 8 8 6 17 8 6 4 2

Total # of neighbors = 687073
Ave neighs/atom = 357.85052
Ave special neighs/atom = 2.0000000
Neighbor list builds = 14742
Dangerous builds = 5

unfix		3
unfix		2
unfix		1

write_data	data.final.${pid}
write_data	data.final.0
System init for write_data ...
PPPM initialization ...
  extracting TIP4P info from pair style
  using 12-bit tables for long-range coulomb (../kspace.cpp:340)
  G vector (1/distance) = 0.37467111
  grid = 30 30 30
  stencil order = 5
  estimated absolute RMS force accuracy = 0.0032480163
  estimated relative force accuracy = 9.7813047e-06
  using double precision FFTW3
  3d grid and FFT values/proc = 3600 512
Last active /omp style is kspace_style pppm/tip4p/omp
WARNING: Not all mixed pair coeffs generated from mixing. Use write_data with 'pair ij' option to store all pair coeffs. (../write_data.cpp:312)

write_restart   restart.lmp.${pid}
write_restart   restart.lmp.0
System init for write_restart ...
PPPM initialization ...
  extracting TIP4P info from pair style
  using 12-bit tables for long-range coulomb (../kspace.cpp:340)
  G vector (1/distance) = 0.37467111
  grid = 30 30 30
  stencil order = 5
  estimated absolute RMS force accuracy = 0.0032480163
  estimated relative force accuracy = 9.7813047e-06
  using double precision FFTW3
  3d grid and FFT values/proc = 3600 512
Last active /omp style is kspace_style pppm/tip4p/omp
Total wall time: 0:09:27
