LAMMPS (30 Jul 2021)
  using 1 OpenMP thread(s) per MPI task
package omp 0
using multi-threaded neighbor list subroutines
echo both

include		in.partitions
variable        pid world 0
include		in.temp
variable        temperature equal 248.50
variable	tempDamp equal 100.0
include		in.pressure
variable        pressure equal 4375.0
variable        pressureDamp equal 1000.0 # This is 1 ps
include		in.seed
variable        seed world 745823

units		real
atom_style	full
box tilt large
read_restart	restart.lmp.${pid}
read_restart	restart.lmp.0
Reading restart file ...
  restart file = 30 Jul 2021, LAMMPS = 30 Jul 2021
  restoring atom style full from restart
  triclinic box = (-10.781527 -9.2339930 0.016747362) to (12.761527 12.223991 21.843252) with tilt (-9.3153201 1.5785159 3.1347252)
  4 by 4 by 4 MPI processor grid
  restoring pair style lj/cut/tip4p/long/omp from restart
  restoring bond style harmonic/omp from restart
  restoring angle style harmonic/omp from restart
  1296 atoms
  864 bonds
  432 angles
Finding 1-2 1-3 1-4 neighbors ...
  special bond factors lj:    0        0        0       
  special bond factors coul:  0        0        0       
     2 = max # of 1-2 neighbors
     1 = max # of 1-3 neighbors
     1 = max # of 1-4 neighbors
     2 = max # of special neighbors
  special bonds CPU = 0.951 seconds
  read_restart CPU = 1.212 seconds
include 	in.setup
variable	out_freq equal 1000
variable	out_freq2 equal 10000
variable	out_freq3 equal 1000

timestep	2.0

neigh_modify    delay 7 every 1

include		in.tip4p
# This is TIP4P/Ice

# create groups ###
group ox type 2
432 atoms in group ox
group hy type 1
864 atoms in group hy

# set charges - beside manually ###
set group ox charge -1.1794
Setting atom values ...
  432 settings made for charge
set group hy charge 0.5897
Setting atom values ...
  864 settings made for charge

# ### TIP3P Potential Parameters ###
pair_style lj/cut/tip4p/long/omp 2 1 1 1 0.1577 8.5
pair_coeff 1 1*2 0.000 0.000
pair_coeff 2 2 0.21084 3.1668
bond_style  harmonic
bond_coeff  1 450 0.9572
angle_style harmonic
angle_coeff 1 55 104.52
kspace_style pppm/tip4p/omp 1.0e-5
pair_modify tail yes

thermo          ${out_freq}
thermo          1000
thermo_style    custom step temp pe etotal epair emol press lx ly lz vol pxx pyy pzz pxy pxz pyz enthalpy

restart 	${out_freq3} restart.lmp.${pid} restart2.lmp.${pid}
restart 	1000 restart.lmp.${pid} restart2.lmp.${pid}
restart 	1000 restart.lmp.0 restart2.lmp.${pid}
restart 	1000 restart.lmp.0 restart2.lmp.0


include         in.dump
dump            myDump all atom ${out_freq2} dump.water.${pid}
dump            myDump all atom 10000 dump.water.${pid}
dump            myDump all atom 10000 dump.water.0
dump            myDump2 all dcd ${out_freq2} dump.dcd
dump            myDump2 all dcd 10000 dump.dcd
dump_modify     myDump append yes
dump_modify     myDump2 append yes


variable natoms 	equal  "count(all)"                        # NUMBER ATOMS
variable H      	equal  "enthalpy/v_natoms"                 # ENTHALPY-per-atom
variable Vol      	equal  "vol/v_natoms"                 # volume-per-atom
fix AVG all 		ave/time ${out_freq} 1 ${out_freq} v_Vol v_H file vol_enthalpy.dat
fix AVG all 		ave/time 1000 1 ${out_freq} v_Vol v_H file vol_enthalpy.dat
fix AVG all 		ave/time 1000 1 1000 v_Vol v_H file vol_enthalpy.dat


timer           timeout 10:00:00 every 1000
New timer settings: style=normal  mode=nosync  timeout=10:00:00

fix 		1 all shake 1e-6 200 0 b 1 a 1
       0 = # of size 2 clusters
       0 = # of size 3 clusters
       0 = # of size 4 clusters
     432 = # of frozen angles
  find clusters CPU = 0.063 seconds
fix             2 all nph tri ${pressure} ${pressure} ${pressureDamp}
fix             2 all nph tri 4375 ${pressure} ${pressureDamp}
fix             2 all nph tri 4375 4375 ${pressureDamp}
fix             2 all nph tri 4375 4375 1000
fix             3 all temp/csvr ${temperature} ${temperature} ${tempDamp} ${seed}
fix             3 all temp/csvr 248.5 ${temperature} ${tempDamp} ${seed}
fix             3 all temp/csvr 248.5 248.5 ${tempDamp} ${seed}
fix             3 all temp/csvr 248.5 248.5 100 ${seed}
fix             3 all temp/csvr 248.5 248.5 100 745823


run             250000
PPPM initialization ...
  extracting TIP4P info from pair style
  using 12-bit tables for long-range coulomb (../kspace.cpp:340)
  G vector (1/distance) = 0.36609891
  grid = 30 40 32
  stencil order = 5
  estimated absolute RMS force accuracy = 0.0047853054
  estimated relative force accuracy = 1.4410805e-05
  using double precision FFTW3
  3d grid and FFT values/proc = 5168 640
Last active /omp style is kspace_style pppm/tip4p/omp
Neighbor list info ...
  update every 1 steps, delay 7 steps, check yes
  max neighbors/atom: 2000, page size: 100000
  master list distance cutoff = 10.8154
  ghost atom cutoff = 10.8154
  binsize = 5.4077, bins = 7 5 5
  1 neighbor lists, perpetual/occasional/extra = 1 0 0
  (1) pair lj/cut/tip4p/long/omp, perpetual
      attributes: half, newton on, omp
      pair build: half/bin/newton/tri/omp
      stencil: half/bin/3d/tri
      bin: standard
Per MPI rank memory allocation (min/avg/max) = 9.433 | 9.439 | 9.446 Mbytes
Step Temp PotEng TotEng E_pair E_mol Press Lx Ly Lz Volume Pxx Pyy Pzz Pxy Pxz Pyz Enthalpy 
13500000    253.57656   -6293.7436   -5641.4334   -6293.7436            0    3622.9657    23.543054    21.457984    21.826504    11026.455     3169.714    3681.3164    4017.8667   -617.58479    753.52731   -665.01483   -5058.8259 
13501000    252.34938   -6337.6847   -5688.5313   -6337.6847            0    4795.0828    23.336989    21.550866    21.810168    10969.038    4100.4727    5082.8653    5201.9102   -479.43423    671.68239    209.12624   -4921.4515 
13502000    260.05198   -6360.9283   -5691.9605   -6360.9283            0     3062.272    23.272648    21.509864    21.990114    11008.064    3925.4069    3427.0356    1834.3735     45.21681     260.6843   -191.73411   -5200.3393 
13503000    252.30105    -6334.708    -5685.679    -6334.708            0    4036.6406    23.374127    21.528829    21.814456    10977.418    4817.9696    3158.6307    4133.3215   -1909.2755   -680.38801   -37.556447   -5039.4355 
13504000    243.49918   -6349.3239   -5722.9371   -6349.3239            0    2728.3503    23.363131    21.692979    21.705797    11000.843    2350.2626    2169.2025    3665.5859   -178.73499   -583.54588    1444.9709   -5285.2115 
13505000     256.8625   -6352.6603   -5691.8971   -6352.6603            0    3415.4533    23.301245    21.532337    21.953197    11014.583    4042.3919    3567.1896    2636.7786    263.95498   -794.30076     727.7325    -5143.251 
13506000    252.70456   -6322.0729   -5672.0058   -6322.0729            0     4884.043    23.345265    21.557618    21.788012    10965.216    4763.5108    5560.2541    4328.3642    -1053.843   -285.67955   -43.916236   -4890.9671 
13507000    239.72851   -6314.5455   -5697.8585   -6314.5455            0    5337.9203    23.501986    21.575708    21.573792    10939.466    4659.8903    5179.8254    6174.0452    28.340066   -69.000499   -902.39793    -4846.242 
13508000    256.19258   -6333.7196   -5674.6798   -6333.7196            0    4800.2778    23.402615     21.43156    21.790742    10929.245     4837.278    4983.1738    4580.3816    351.79439    405.33047   -238.55716   -4909.5548 
13509000    258.36185   -6305.0859   -5640.4658   -6305.0859            0    5459.4566    23.102375    21.527102    21.986269    10934.369    7370.1746    4152.6297    4855.5656     434.0163    652.16258    437.70065    -4769.865 
13510000    250.49001   -6307.8473   -5663.4771   -6307.8473            0    5034.9765    23.543227    21.322361    21.726613    10906.699    3732.2783    6244.0669    5128.5844   -536.86878    380.21863     -630.856   -4862.5985 
13511000    244.75716   -6317.1403   -5687.5174   -6317.1403            0    3346.0093    23.377203    21.714697    21.664033    10997.289    3351.4164     3130.413    3556.1984   -356.81349    -625.0811   -336.98842   -5150.8705 
13512000    253.04378   -6295.5909   -5644.6512   -6295.5909            0    3490.6122    23.447304    21.434672    21.941225    11027.337    3079.3661    4017.2271    3375.2434    482.13578   -226.32058    -1100.103   -5083.2826 
13513000    240.51385   -6277.9565   -5659.2493   -6277.9565            0    4455.4617    23.497249    21.521203     21.69093    10968.866    4318.7039     4042.831    5004.8502    612.47115   -881.20815   -459.91367   -4946.5105 
13514000    243.47992   -6347.4557   -5721.1184   -6347.4557            0    3884.1274    23.422561    21.550281     21.76763    10987.489    3802.2381    3166.4431     4683.701    1042.0648     509.1172    620.50502    -5098.721 
13515000    247.14219   -6315.7396   -5679.9813   -6315.7396            0    5137.3528    23.362613    21.458027    21.820454    10938.934    5712.6847    4381.5093    5317.8644    816.17709   -1170.2034    885.75644   -4860.4034 
13516000    247.12662   -6331.0466   -5695.3284   -6331.0466            0    4095.5614     23.39557    21.472803    21.921171    11012.505    4295.4186    5202.9221    2788.3434    600.94201   -302.40247   -821.05682   -5037.5563 
13517000    254.36355   -6339.1744   -5684.8397   -6339.1744            0    4614.3603    23.418376    21.601649    21.659951    10957.239    5124.4474    3269.6609    5448.9727   -107.41545   -80.203952   -378.08969   -4947.4644 
13518000     242.1973    -6345.382   -5722.3442    -6345.382            0    3481.4221    23.548306    21.446425    21.763558    10991.184    2612.0232    4009.9498    3822.2932     729.5056   -312.59567     907.0313   -5164.2891 
13519000    240.93904   -6310.8345   -5691.0335   -6310.8345            0    4219.4352    23.271951     21.64057    21.820922    10989.415    4652.0288    3763.4859     4242.791   -58.343174   -273.82553    563.04986   -5014.7874 
13520000     249.9834   -6341.0585   -5697.9914   -6341.0585            0    4181.0332    23.492504    21.471176    21.777859    10985.007    3459.7666    4330.1766    4753.1564    135.99592   -157.70379   -147.13881   -5028.1688 
13521000    249.74463   -6361.5546   -5719.1018   -6361.5546            0    3124.9206     23.56811    21.629183    21.574919    10998.009    3176.2193    1784.6926    4413.8498    110.34655   -1338.5808    55.847483   -5217.8812 
13522000    247.24345   -6319.5693   -5683.5506   -6319.5693            0    2991.1542    23.321761    21.621232    21.848262    11016.881    2636.1629    3032.2522    3305.0476   -814.99804    255.05378    61.077254   -5202.9621 
13523000    251.97236     -6355.59   -5707.4064     -6355.59            0    3282.9088    23.514898    21.446921    21.789338    10988.846    2336.6839    4449.6774    3062.3651    671.37452   -2.0113575   -232.51353    -5181.284 
13524000    264.62768   -6298.9659   -5618.2274   -6298.9659            0     4579.603    23.348584    21.674303    21.673017     10967.94     5209.472    3626.7479    4902.5891    120.23456    -55.34642    417.99669   -4885.6917 
13525000    252.09491   -6297.4089   -5648.9101   -6297.4089            0    3796.1033    23.602517    21.332175    21.891023    11021.977    2733.5496    5624.7257    3030.0346   -334.59952    1243.7246   -226.25596   -5038.7084 
13526000    253.47441   -6310.5036   -5658.4561   -6310.5036            0    5524.3063    23.318607    21.502871    21.879594      10970.8    5750.3053    6035.3237    4787.2899    793.10711    97.852449   -473.90131   -4774.5788 
13527000    254.79463   -6323.6138   -5668.1702   -6323.6138            0    4979.6821    23.454189    21.519943    21.687861    10946.575    4307.6161    5087.4323    5543.9978    1057.2761    134.82871     439.5057   -4873.1909 
13528000    244.15357   -6341.5172    -5713.447   -6341.5172            0    3901.1581    23.695527    21.422728    21.598582    10963.933    3086.9498    4662.6939    3953.8306    754.77445    571.26798    473.63736   -5089.6608 
13529000    232.70988   -6311.3431   -5712.7111   -6311.3431            0    3306.2403    23.216604     21.71132    21.861188    11019.419    3456.2923    3170.5499    3291.8788    135.28693   -346.34273   -394.78821   -5181.3754 
13530000    259.60202   -6310.9168   -5643.1065   -6310.9168            0    3852.5024    23.511546    21.483894    21.804786    11014.024    3343.2302    3661.7547    4552.5222     946.2173   -1096.8995    535.64965   -5024.2858 
13531000    251.45291   -6306.2293    -5659.382   -6306.2293            0    4057.3217    23.434441    21.560469    21.782376     11005.71    2847.1166     5206.143    4118.7054    693.07066   -340.49594   -19.291863   -5008.1535 
13532000    257.31464   -6324.0984   -5662.1721   -6324.0984            0    3644.0597    23.333603    21.497239    21.971189    11020.925    4536.8405    3710.7396    2684.5992   -307.81293   -349.84036   -693.89269   -5076.4665 
13533000    250.69618    -6328.981   -5684.0804    -6328.981            0    4334.8017    23.481287    21.358085     21.85649    10961.365    3561.6709    5994.3186    3448.4156    623.34435   -484.93093   -1049.1655   -4991.1178 
13534000    253.63783   -6355.1693   -5702.7015   -6355.1693            0     4292.203     23.34794    21.596607    21.692923    10938.359    3987.0582     3881.996    5007.5548     283.3563    262.27354    592.95762   -5017.9889 
13535000    251.97469    -6362.181   -5713.9915    -6362.181            0    4813.9906    23.522106    21.361601     21.75483    10931.146    3618.0117    6903.3483    3920.6116    148.55625   -616.61131   -2818.3416   -4946.5473 
13536000    240.01983    -6330.361   -5712.9246    -6330.361            0    5125.4769     23.32288    21.523946    21.821601    10954.452    5926.6737    3936.3168    5513.4402   -30.431455    65.973087   -650.02722   -4894.0812 
13537000    251.67966   -6323.5111   -5676.0805   -6323.5111            0    6404.8403    23.293949    21.438119    21.768088    10870.514    6835.3947    6782.0404    5597.0857   -575.86764    825.35928    349.59609   -4660.6873 
13538000    249.15271   -6322.5395   -5681.6093   -6322.5395            0    4297.0599    23.545869     21.36049    21.744846    10936.598    3038.0533     5595.891    4257.2354    1257.3548    384.37263    675.54599   -4996.2323 
13539000    241.33042   -6306.6657   -5685.8579   -6306.6657            0    3448.9851     23.17386    21.701346    21.994772    11061.258    5470.5237    2580.3591    2296.0726   -506.18253   -344.95977   -414.56663   -5129.4776 
13540000    258.45653   -6365.6155   -5700.7518   -6365.6155            0    3899.0088    23.530305    21.339916    21.873481    10983.434    3729.3935    4101.4364    3866.1964    257.23081   -899.25143     -867.692   -5076.2003 
13541000    239.79121    -6323.218   -5706.3698    -6323.218            0    3191.0488    23.463782     21.63543    21.678305     11004.97    3533.0566    2330.1082    3709.9815   -405.44263   -627.14541    112.27173   -5194.2186 
13542000     241.6618   -6318.3795   -5696.7192   -6318.3795            0    3552.5272    23.200086    21.726877    21.861236    11019.493    5193.3019    3386.9132    2077.3665   -253.25931   -1414.0549   -274.64015   -5125.7997 
13543000    253.66525   -6327.8884     -5675.35   -6327.8884            0    5011.0569    23.501531     21.36286     21.77686    10933.288    5092.8607    5204.3319    4735.9781   -309.76575   -805.96209    255.09157    -4876.333 
13544000    260.72294    -6349.123   -5678.4292    -6349.123            0    5660.0507    23.285963    21.502507    21.735814    10883.265     6367.195    6374.9258    4238.0312    1241.8296   -1521.7715   -642.89295   -4780.0588 
13545000    240.46134   -6366.1312    -5747.559   -6366.1312            0    5109.0332    23.376335    21.393563    21.769489    10886.989    4051.2527    5550.9285    5724.9184    1393.1928   -562.09405    560.03673   -4936.3694 
13546000    248.45599   -6313.0804   -5673.9425   -6313.0804            0    4984.9656    23.349119    21.545241    21.745771     10939.48    5578.0931    4929.7685     4447.035    967.32139   -97.182492   -872.17734   -4878.6356 
13547000    249.10781   -6349.5974   -5708.7827   -6349.5974            0     4878.708    23.535404    21.483935    21.593676    10918.477    4574.0372    4201.9506    5860.1362    978.96431   -1215.9908   -300.28495   -4931.9226 
13548000    249.77768    -6313.492   -5670.9541    -6313.492            0    5104.0309    23.359427    21.571793      21.7742    10972.122    6505.0002    4716.6241    4090.4683   -1642.4054    71.207352    65.843076   -4854.2217 
13549000    256.08804    -6322.975   -5664.2042    -6322.975            0    5963.3616    23.340421    21.460941    21.794222    10916.887    5464.6024    7526.5691    4898.9132    394.98918   -961.92286   -737.92985   -4714.7678 
13550000    256.60682   -6331.4723   -5671.3669   -6331.4723            0    6596.7574    23.397641    21.498342    21.604676    10867.379    6458.0299    6154.7134     7177.529   -46.544953   -1346.0529    120.83679   -4625.8496 
13551000    258.60457    -6320.924   -5655.6796    -6320.924            0    3745.9038    23.326296     21.56495    21.883859    11008.247    4454.4152    3512.7008    3270.5953   -237.75111    478.15849   -409.33723   -5054.2972 
13552000    240.68055   -6340.5619   -5721.4258   -6340.5619            0     3143.888    23.448347    21.405005    21.910409    10997.097    4187.1536    2481.9893    2762.5212   -689.42524   -732.17053    210.18794   -5217.2047 
13553000    248.78754   -6352.3057   -5712.3149   -6352.3057            0    3997.5698    23.294331    21.585702    21.815469    10969.352    3192.1108    3787.0917    5013.5068    283.69933    1287.1597   -1038.8354   -5072.7967 
13554000    250.83674   -6320.5256   -5675.2633   -6320.5256            0    5072.6246    23.417628     21.53205    21.741516    10962.714    5042.3932    4129.5716    6045.9092   -148.77714   -421.28947     611.7049   -4864.2524 
13555000    249.00873   -6320.5031   -5679.9433   -6320.5031            0    4356.0356    23.430989     21.43211    21.873078    10984.124    3601.6103    5829.5451    3636.9514   -1577.3872    906.27538   -553.97812   -4982.1405 
13556000    251.00568   -6288.1749    -5642.478   -6288.1749            0    5127.1078    23.284142    21.725786    21.576722    10914.936    5720.5271    4231.6507    5429.1455   -1087.4603   -175.57661    607.46914   -4826.3289 
13557000    253.35984   -6337.1144   -5685.3616   -6337.1144            0    4743.6922    23.464133    21.416746    21.752754    10931.311    4074.7758    6247.9877     3908.313    649.18995    818.67198   -192.24178   -4929.1129 
13558000    248.52693   -6332.0289   -5692.7085   -6332.0289            0    4962.6377    23.142291    21.576371    21.925802    10948.137    6436.8527    4717.7924    3733.2679    382.29443    620.47619    519.47293   -4900.3373 
13559000     251.5819   -6317.8807   -5670.7016   -6317.8807            0    5090.7245    23.506903     21.34003    21.779351     10925.35    4744.2307    5436.2181    5091.7247    565.85795   -178.65113    201.93251   -4859.5708 
13560000    237.17309   -6326.0568   -5715.9435   -6326.0568            0    4615.6715    23.439118    21.594932    21.636984    10951.909    4251.8403    4984.5508    4610.6233    1543.3204   -25.975361   -554.21337   -4978.7176 
13561000     247.6909   -6330.6857   -5693.5159   -6330.6857            0    3037.2133     23.37452    21.597736    21.863253    11037.372    2088.8995    3000.8087    4021.9317    -134.3668   -33.918801   -1331.5712   -5204.6195 
13562000    245.83498   -6301.5774   -5669.1819   -6301.5774            0    3436.0784    23.447382    21.396807    21.953527    11014.065    3450.8605    4322.6323    2534.7424    694.65136   -145.59497   -214.38978   -5117.2486 
13563000    258.42592   -6307.4989    -5642.714   -6307.4989            0    3547.7871    23.516104    21.710665    21.567174    11011.126    3554.2111    1674.6495    5414.5008   -1767.6887    426.29407    105.40151   -5072.9891 
13564000     252.3385   -6339.9104    -5690.785   -6339.9104            0    4560.5201    23.603742     21.51262    21.569491     10952.52    2373.2062    5908.4743    5399.8799   -279.51161   -499.22118   -123.37476   -4962.3273 
13565000    233.62597   -6333.6081   -5732.6195   -6333.6081            0    5561.2346    23.263819    21.431606    21.904471    10921.153    6037.9141    5912.5688    4733.2208    32.230624   -673.55471   -456.27927   -4846.8605 
13566000    256.44634   -6319.2075   -5659.5149   -6319.2075            0    4147.8699    23.354156    21.544603    21.861933    10999.963    5662.7738    2353.7603    4427.0758   -604.06406   -211.26673   -172.00636   -4994.1004 
13567000    238.97891   -6342.1936   -5727.4349   -6342.1936            0    4960.2316    23.515179    21.543359    21.542937    10913.565    4353.3814    3344.7919    7182.5214    1033.5755     723.7482    1032.4188   -4937.9488 
13568000    247.82166   -6347.1501    -5709.644   -6347.1501            0    5051.8648     23.46473    21.412376    21.775906    10940.991    3050.1672    6469.8397    5635.5875    396.87334    754.26858   -209.22763   -4903.5526 
13569000     239.5548   -6359.7094   -5743.4693   -6359.7094            0    4456.7989    23.309501    21.518971    21.812996    10941.322    4094.9981    5808.3781    3467.0205   -163.58918   -190.84075   -1179.9648    -5032.307 
13570000    244.28207   -6319.9386   -5691.5378   -6319.9386            0    4399.2252    23.621293    21.403034    21.693416    10967.482    2853.7976    4735.0071    5608.8709   -486.79574    835.08671    -136.7966    -4987.884 
13571000    244.76282   -6312.0436   -5682.4062   -6312.0436            0    3909.3212    23.407021    21.663449    21.726172    11016.837     3814.695     4230.021    3683.2478   -327.21652    201.09894   -221.32022   -5054.2984 
13572000    258.65745   -6291.7162   -5626.3356   -6291.7162            0    3858.2584    23.478389    21.421787    21.869515    10999.251    2405.3071    5087.5649    4081.9031   -15.206594   -235.80122    1358.4384   -5007.4216 
13573000    241.88535   -6346.9847   -5724.7494   -6346.9847            0    5042.2802    23.392865     21.52276    21.720093    10935.611    4884.7438      4481.37    5760.7269   -325.21402    843.92397     929.8685   -4920.5829 
13574000    252.62555   -6340.6485   -5690.7846   -6340.6485            0    5761.9131    23.325002    21.424686    21.794616    10891.442    6041.6896    7562.8312    3681.2184    832.27421    199.91826   -388.06641   -4775.5595 
13575000    259.04559   -6349.2306   -5682.8516   -6349.2306            0    4625.7317    23.421455    21.345055    21.887854    10942.444    5103.7889    6092.3149    2681.0911   -534.66236   -399.04398   -1080.2373   -4944.6574 
13576000    249.57399   -6332.8942   -5690.8803   -6332.8942            0    5316.4802    23.320015    21.602045    21.674241    10918.616    5942.9551    4483.8702    5522.6153    133.93752    491.01784   -1027.3721   -4844.3009 
13577000    237.52582   -6318.4564   -5707.4357   -6318.4564            0    4783.6517    23.562544     21.39796    21.748731    10965.501    3972.3353    5710.8573    4667.7625    455.21215   -984.27492    155.80336   -4942.4314 
13578000    256.32195   -6310.1608   -5650.7882   -6310.1608            0    4344.8813    23.278641    21.587278    21.859043    10984.661    4564.2164    4243.8957    4226.5319    1041.5815   -257.73046    1486.8777   -4954.7382 
13579000    245.08863   -6343.5307   -5713.0551   -6343.5307            0     4508.123    23.382524    21.449696    21.789949    10928.706    3623.9494    5561.8021    4338.6176    211.48637   -131.24507    151.37479   -4994.5326 
13580000    258.73568   -6313.8544   -5648.2726   -6313.8544            0    4564.7656    23.472826    21.472538    21.747608    10961.255    4495.1885    5544.5211    3654.5871    -510.2561    235.70867    382.86466   -4918.5553 
13581000    244.15684   -6333.3744   -5705.2959   -6333.3744            0    4878.3297    23.267428    21.706496    21.647242    10933.034    5254.7163    4048.7594    5331.5134    458.96306    530.36915   -208.00539   -4927.4604 
13582000    243.47458   -6326.8642   -5700.5407   -6326.8642            0     4409.164    23.596935    21.256758    21.882098    10975.936    3932.1663    5024.1372    4271.1885   -258.90891    324.36529   -275.01076   -4994.7536 
13583000    250.76231   -6327.7522   -5682.6814   -6327.7522            0    5801.2422    23.162453    21.563853    21.811232    10894.094    5824.9689     6032.929    5545.8288    1033.8188    874.19985    188.96658   -4760.9848 
13584000    260.44479   -6300.1281   -5630.1497   -6300.1281            0    4940.3393    23.562167    21.352364    21.797128    10966.309    4197.3808    5395.2925    5228.3446   -516.24979    718.45788    1099.0702   -4840.0296 
13585000     251.6717   -6345.9405   -5698.5304   -6345.9405            0    4372.6157    23.409247    21.549176     21.74134    10967.419    4986.5422    3533.3265    4597.9784    -212.7291    617.00938   -816.55203   -4999.1369 
13586000    245.33946    -6340.786   -5709.6651    -6340.786            0    3130.4898    23.452283    21.551605    21.805549    11021.274    4108.1647    2902.7465     2380.558    363.08448    -1569.639   -884.54371   -5206.4891 
13587000    239.39678   -6332.7303   -5716.8967   -6332.7303            0    5260.1547    23.329985    21.537897    21.657574    10882.472    6161.5813    5769.2678    3849.6149     -1060.91     -1585.45    35.948414   -4882.0592 
13588000    251.03849   -6322.2147   -5676.4335   -6322.2147            0    4515.2397    23.423354    21.493127    21.784812     10967.37    3487.0025    4960.3501    5098.3665   -738.06135   -526.89228    1624.1901   -4954.2306 
13589000    242.09672   -6354.6116   -5731.8326   -6354.6116            0    4711.8257    23.282811     21.49898    21.834279    10929.294     5139.933    4560.4356    4435.1085    250.22911    941.24445   -9.3682694   -4980.8027 
13590000    249.48015   -6352.9423   -5711.1698   -6352.9423            0    3518.6578    23.521437    21.358856    21.854217    10979.361    3112.0913    4671.9363    2771.9457    114.43014     636.0785    139.02395   -5147.7528 
13591000    242.21995   -6340.4037   -5717.3077   -6340.4037            0    4197.8176     23.24809     21.62637    21.816335    10968.638    5265.3618    2430.2569     4897.834     1468.206    922.73441   -820.46239   -5045.7982 
13592000    248.32723    -6332.829   -5694.0223    -6332.829            0    4441.6092    23.520384    21.376328    21.782393    10951.739    3213.5256    4403.3609     5707.941     599.5192    1499.5316    665.25159    -4984.609 
13593000    241.89592   -6316.1125     -5693.85   -6316.1125            0    3975.1531    23.389864     21.44204    21.879546     10973.17    4160.0941    4491.5079    3273.8572    275.68108   -262.73447   -286.62868   -5057.6966 
13594000    247.39732   -6321.0931   -5684.6786   -6321.0931            0    4933.9507    23.212136    21.479672    21.989819    10963.884    5202.4568    5722.0275    3877.3678   -310.77948   -1559.1839   -256.38911   -4895.7547 
13595000    244.30336   -6361.5492   -5733.0937   -6361.5492            0    6245.1134    23.431978    21.353248    21.697578    10856.358    5139.2731    7513.7303    6082.3367    561.43657   -283.41873    107.05085   -4744.3121 
13596000    254.16897   -6318.0741   -5664.2399   -6318.0741            0    4849.7781    23.460216    21.630469    21.607827     10965.01    5125.4454    4162.8302    5261.0589    481.90503   -71.528852   -697.14048   -4888.6953 
13597000    242.57481    -6314.386   -5690.3771    -6314.386            0    5129.8026     23.32809    21.580832    21.726752    10938.107    5057.0359    4823.5646    5508.8074   -911.96189    841.32396   -633.52993   -4872.0654 
13598000    240.72139   -6344.5739   -5725.3328   -6344.5739            0    3705.7236    23.480892    21.221453    22.006295    10965.707    4017.2563    4097.6033     3002.311    1170.8335    1355.1702   -234.83716   -5132.7002 
13599000    240.99841   -6306.1678   -5686.2141   -6306.1678            0    2949.8392     23.40334    21.640564    21.793488    11037.562    3341.0482     2397.616    3110.8535    789.45723   -182.75907    380.94514    -5211.374 
13600000    256.97652   -6377.0456   -5715.9892   -6377.0456            0    5390.3812    23.343673    21.393267    21.810007    10891.862    5006.5987    6222.6135    4941.9315     971.1829    692.87759    311.07437   -4859.7453 
13601000    248.37515   -6356.0808   -5717.1509   -6356.0808            0    5561.9053    23.261992      21.4764    21.783806    10882.837    3719.3588    7585.7699    5380.5871   -278.78159    288.38978    145.01464    -4834.393 
13602000    249.71218   -6338.6815   -5696.3121   -6338.6815            0    3517.5906    23.463029    21.585139    21.685281     10982.57    3555.5843    2860.9695    4136.2181   -661.90724   -217.86999    -575.2304   -5132.9013 
13603000    253.99551   -6308.9677   -5655.5797   -6308.9677            0    2708.8321    23.552459    21.534024    21.784638    11048.716    1802.2987    2351.6752    3972.5225   -543.01116   -181.88794    250.65993   -5219.0943 
13604000    249.09605   -6323.6879   -5682.9035   -6323.6879            0    4124.4339    23.405673    21.433714    21.873825    10973.453    3330.4648    4027.2301    5015.6069   -225.33211    263.10002    1439.1455   -5022.8433 
13605000    256.64832   -6337.0811   -5676.8689   -6337.0811            0    3865.4706    23.381992    21.437532    21.890896     10972.86    4238.0875    3734.6354    3623.6889    371.56944    1082.9712    263.24776   -5058.2857 
13606000    249.95887   -6353.8855   -5710.8815   -6353.8855            0    4006.2554    23.409669    21.505884    21.724155    10936.931    2335.7606    5150.5154    4532.4903    924.33976    976.03837   -982.21078   -5071.8681 
13607000    242.67732    -6328.866   -5704.5933    -6328.866            0    3861.8046    23.471589    21.539175    21.743232    10992.479    2997.6536    4417.6452     4170.115    1472.6892    -806.6867   -1190.7507   -5085.4919 
13608000    254.99346   -6353.0381    -5697.083   -6353.0381            0    3532.0927    23.399464    21.600758    21.729629    10983.157    3509.1214    2750.0562    4337.1006    595.86668   -142.00241    718.54552   -5131.3192 
13609000    237.27072   -6323.7633   -5713.3989   -6323.7633            0    4170.0822    23.549381    21.395338    21.866997     11017.62    4473.6098    4693.3417    3343.2951   -410.36313    706.66564    668.23831   -5043.3472 
13610000    244.59071   -6336.1086   -5706.9139   -6336.1086            0    4368.3635    23.332722    21.555664    21.827817    10978.351    5609.3868    4588.8986     2906.805   -469.91859    29.003369    12.555526    -5007.504 
13611000    250.67553   -6329.1801   -5684.3326   -6329.1801            0    3251.0043    23.377016    21.626631    21.755468    10998.827    3498.2624    2588.5834    3666.1672    225.47646   -1211.1626    101.68424     -5162.85 
13612000    247.34669   -6321.9548   -5685.6705   -6321.9548            0    4403.3907    23.551497    21.470397    21.675545    10960.455    4503.1108    5038.3699    3668.6915    989.21263   -1056.6412   -595.77295   -4981.8017 
13613000    248.17142   -6324.8375   -5686.4316   -6324.8375            0    5623.9065    23.403022    21.468422    21.740486    10922.984    5996.0524    5279.4986    5596.1685    324.02017    115.85063    445.37176   -4790.5404 
13614000    247.04564    -6302.173   -5666.6632    -6302.173            0    6168.8753    23.347926    21.505969    21.682445    10887.184    5028.1152    6214.9169    7263.5936    1531.8903    196.37653    850.08644    -4687.179 
13615000    246.53779   -6308.7899   -5674.5865   -6308.7899            0    4158.3345    23.491094     21.38348    21.887277    10994.446    3342.5125    5333.3729    3799.1182    378.98235    317.54343     1077.026   -5007.8278 
13616000    245.50558   -6366.2229   -5734.6747   -6366.2229            0    2596.2158    23.311356     21.68533    21.754378    10997.152     2616.165    2340.6488    2831.8336    312.01049    290.44248   -514.49232   -5318.2879 
13617000    235.93043   -6365.2502   -5758.3336   -6365.2502            0    3745.9719    23.564383    21.380884    21.769799     10968.22    3354.8524    3439.0169    4444.0463     638.3334   -737.08639    299.80365    -5159.127 
13618000    242.72829   -6353.5125   -5729.1087   -6353.5125            0    4557.3606    23.203614    21.403675    22.037806    10944.914     5241.221    4079.2843    4351.5764    307.39388    1239.3394    756.01952   -5001.6612 
13619000    250.08534   -6350.1993     -5706.87   -6350.1993            0    4453.4558    23.280894    21.450494    21.874273    10923.721    4133.2728    5363.3422    3863.7526    63.532005    651.07708    -233.2586   -4997.3844 
13620000     244.3401   -6326.6756   -5698.1256   -6326.6756            0     4693.296    23.537317    21.421444    21.765711    10974.344    2886.9639    5696.8187    5496.1055    176.65064    830.91948    400.71938   -4946.9657 
13621000    236.68011   -6311.3422   -5702.4971   -6311.3422            0    3301.0541    23.398403     21.67225    21.768558     11038.75    1946.4075    4355.4842    3601.2706   -597.36376    701.36249    -2184.461   -5171.0642 
13622000    252.51292   -6309.4066   -5659.8325   -6309.4066            0     2667.332    23.516092     21.59903    21.785905    11065.601    1428.5381    2891.5338     3681.924   -674.69707    1233.4227    898.04506   -5229.3773 
13623000    249.97853   -6355.1839   -5712.1294   -6355.1839            0    4091.0683    23.364414     21.47962    21.829995    10955.574    5080.0177    3644.3649    3548.8222    703.83612    27.399056    709.85575   -5058.4756 
13624000    251.96829   -6329.0399   -5680.8669   -6329.0399            0    5001.2647      23.2495    21.510499    21.788956    10896.839    4393.6059    5304.5825    5305.6058     556.7282   -279.92247    390.96164   -4886.0698 
13625000    254.51796   -6311.1745   -5656.4426   -6311.1745            0    6032.0996    23.350015    21.353218    21.816605    10877.715    5714.0661    6475.3229    5906.9099     1574.866   -639.00212    331.95748   -4699.5084 
13626000    248.26173   -6327.1651   -5688.5269   -6327.1651            0    4896.2511    23.422599    21.506908    21.654208    10908.258    3331.4946    5692.9927     5664.266    345.90701    571.81841    450.48707   -4909.6031 
13627000    253.89464   -6355.1341   -5702.0056   -6355.1341            0     3810.727    23.363096    21.531999    21.826775     10980.05    5165.7356    2918.6974     3347.748   -766.39934   -276.43479    605.47818   -5091.7833 
13628000    251.71665   -6343.8836   -5696.3579   -6343.8836            0    4241.4957    23.410434    21.428767    21.853779    10963.095    4116.3225    4407.3193    4200.8452    619.65978    263.12602   -311.84255   -5018.2042 
13629000    255.69635   -6304.9842   -5647.2209   -6304.9842            0    4081.7638    23.347255    21.502528    21.883767    10986.199    3701.0983    5407.1535    3137.0398    624.84984    796.78535    528.52771   -4993.2307 
13630000     239.3671    -6362.602   -5746.8447    -6362.602            0    3666.0961    23.350311    21.645664    21.682264    10958.931    3862.9371    2524.3662    4610.9849   -820.79894   -248.86398    348.51254   -5160.9117 
13631000    242.39104   -6352.3059   -5728.7697   -6352.3059            0    5192.2221    23.448208    21.407717    21.727813    10906.766    5180.0872    4468.7579    5927.8213   -972.19325    22.479843   -172.23464   -4902.8741 
13632000    255.97553   -6320.1178   -5661.6363   -6320.1178            0    4463.8432    23.261438    21.610735    21.853035     10985.45     6569.441      3135.74    3686.3486   -1919.8086   -1149.6393    294.14904   -4946.4772 
13633000    254.93857   -6334.3844   -5678.5705   -6334.3844            0    4222.1345    23.265006    21.448969    21.964575    10960.551     5060.667     4211.451    3394.2855   -1111.0743    514.76064    904.82115   -5003.6691 
13634000    242.72529   -6360.2288   -5735.8327   -6360.2288            0     3771.367    23.464621    21.410031    21.799474    10951.582    3326.9627    3985.5076    4001.6308    -645.3067    1072.7473    156.94223   -5133.4791 
13635000    239.83572   -6352.1109   -5735.1481   -6352.1109            0    2711.4893    23.302039    21.643573    21.739123    10963.896    3027.0707    2724.5811     2382.816    446.36982   -249.17244    93.708762   -5301.5886 
13636000    253.65633   -6323.7809   -5671.2655   -6323.7809            0    4647.9876    23.593424    21.453778    21.699094    10983.388    3869.8243    5215.1026     4859.036   -148.31267   -616.46731   -1256.9539    -4926.744 
13637000    252.14478   -6341.4678   -5692.8407   -6341.4678            0     5288.621    23.372421    21.566543    21.613777    10894.691    6078.4437    4183.8871    5603.5321   -482.33274    281.07172    305.00514   -4852.5429 
13638000    247.24545   -6362.2811   -5726.2573   -6362.2811            0    5020.2536     23.35539    21.504922    21.743022     10920.56    4511.5004    5021.2611    5527.9993    402.78984   -221.26776    -220.9954   -4926.7058 
13639000    247.58895   -6347.9618   -5711.0543   -6347.9618            0    5842.0928    23.329228    21.420266    21.796835    10892.277    6068.4135    6585.2723    4872.5927    238.10853   -331.75081    768.44108   -4783.0222 
13640000    249.57511   -6330.0798    -5688.063   -6330.0798            0    4991.0234    23.417881    21.485848    21.793681    10965.556    4823.1582    5250.1426    4899.7695    485.24446   -562.67023     249.4466   -4889.8916 
13641000    246.81451   -6352.8569   -5717.9416   -6352.8569            0    2932.9034    23.539466     21.59143    21.708939    11033.584    2589.0233    3003.5102    3206.1766    11.900256   -178.56666    227.21809   -5245.9978 
13642000    247.51914   -6329.5989    -5692.871   -6329.5989            0    4052.8122     23.45455    21.581713    21.663796    10965.983    3307.2942    3530.0692    5321.0733    507.87232    652.80648   -540.34531   -5044.7144 
13643000    256.43424   -6350.6109   -5690.9494   -6350.6109            0    4509.3904    23.407222    21.385086     21.93322    10979.012    4373.1543    5482.6378    3672.3791    438.37504    -1014.368    277.62511   -4968.9165 
13644000    246.38506   -6329.9008   -5696.0902   -6329.9008            0    5036.4766    23.297314    21.619635    21.677865    10918.694    5295.7252    4649.9439    5163.7606    285.59482     163.0862   -66.894319    -4894.092 
13645000    252.05602   -6303.1849   -5654.7861   -6303.1849            0    3979.6678    23.564743    21.505856    21.691983    10993.062    3271.2493    4603.8871    4063.8669    781.80839    -364.2287    756.85194   -5016.7557 
13646000    241.01271    -6327.304   -5707.3134    -6327.304            0    5742.6224    23.244195    21.541998    21.827905    10929.809    6159.5861    5437.7352     5630.546    -647.4129    1000.1561    1061.2434   -4791.9391 
13647000    243.41779   -6345.4572   -5719.2797   -6345.4572            0    6180.7249    23.237886     21.45368    21.869062    10902.562    6813.7165    7097.1414     4631.317    655.64848   -391.38648   -1227.2623   -4736.5278 
13648000    242.88329   -6343.4357   -5718.6332   -6343.4357            0    5880.5995    23.535614     21.36323    21.670014    10895.613    5909.3058    5678.5463    6053.9465   -466.66326     467.6082   -3.2410475    -4784.198 
13649000    255.86783   -6322.1034    -5663.899   -6322.1034            0      3495.46    23.406679     21.67955    21.724021    11023.774     3677.036    3812.0385    2997.3055   -604.49303    -125.1889    191.81656   -5101.9324 
13650000    243.81514   -6336.9622   -5709.7626   -6336.9622            0     3033.537    23.347938    21.395062     22.08434    11031.803    4240.3871    3928.9554    931.26857    1295.6412   -425.28023   -413.79708   -5221.7043 
13651000    248.80106    -6307.928   -5667.9024    -6307.928            0    3394.4764    23.310983    21.661484    21.863465    11039.967    4178.8539    2763.1233    3241.4521     1206.692   -784.76581    85.301419   -5121.3693 
13652000    240.84346   -6343.1179   -5723.5628   -6343.1179            0    4702.2106    23.639786    21.392529    21.673613    10960.667     3096.487    5440.8111    5569.3338   -311.78125    560.14299   -518.38961    -4971.914 
13653000      259.705   -6332.5713    -5664.496   -6332.5713            0    3839.3361    23.338567    21.519018    21.859004    10978.096    5288.5495    1914.8406    4314.6181    182.80433   -1094.9233   -302.90404    -5049.802 
13654000     243.8875   -6320.9309   -5693.5452   -6320.9309            0    5501.9408     23.39218    21.525987    21.667046     10910.22    5626.4145    4767.3577    6112.0502    645.76768   -2122.8313   -15.202596   -4818.1074 
13655000    242.63294   -6349.0341   -5724.8756   -6349.0341            0    4661.1431    23.478924    21.398974    21.712382    10908.841    4576.1994    5176.8109     4230.419   -1131.3503   -669.26433   -447.48434   -4983.3145 
13656000    243.14604    -6370.292   -5744.8136    -6370.292            0    3029.2177    23.205761    21.580254    22.029371    11032.005    4542.0872    2606.5757    1938.9902    38.734951   -1551.9393    268.13028   -5257.4413 
13657000    241.68065   -6342.5706   -5720.8618   -6342.5706            0    3075.4376    23.503251    21.519608    21.766018    11008.833    2374.1191    2124.8927    4727.3009   -48.845698   -88.010042    975.37749   -5227.0925 
13658000    241.77882   -6343.2461   -5721.2849   -6343.2461            0    3763.3352    23.482497    21.491713    21.766407     10985.05    2515.9196    4218.1938    4555.8921    21.032289    851.24916   -629.66983   -5118.3771 
13659000    262.76773   -6370.8039   -5694.8499   -6370.8039            0    3709.4494    23.498104     21.35014    21.900546    10987.237    3338.9426    3530.7096    4258.6958   -415.22874    1135.8723     170.7551   -5100.4567 
13660000     236.9467   -6319.5064   -5709.9754   -6319.5064            0    4799.7935    23.157588    21.656375    21.858354     10962.17    5180.3455    4645.4696    4573.5652   -672.95245   -480.15876   -226.17804   -4942.6228 
13661000    241.61186   -6344.8016   -5723.2698   -6344.8016            0    5020.8407    23.558802    21.426278    21.659916    10933.437    3715.1832    5218.3393    6128.9996   -355.06195   -341.55929   -193.59109   -4922.6819 
13662000    260.27703    -6354.732   -5685.1852    -6354.732            0    2828.3394    23.497766    21.521811    21.819309    11034.341    2635.5826    2664.2473    3185.1881   -743.21554    1367.1688    278.75914    -5230.036 
13663000    249.01981   -6345.0133    -5704.425   -6345.0133            0    4249.0931    23.295353    21.576274    21.837675    10976.203    3629.0409    4448.1223    4670.1162    385.17947    71.536428     151.2119   -5024.2443 
13664000    242.28374   -6336.5432    -5713.283   -6336.5432            0     5080.956    23.467679    21.396668    21.791394    10942.115    3630.7741    6060.6985    5551.3952   -717.09278   -430.88696    851.55453   -4902.4665 
13665000    251.85839   -6334.8486   -5686.9582   -6334.8486            0    4799.3946    23.244906    21.758706    21.609351    10929.557     4945.174    4364.8272    5088.1828   -920.95737    409.88743    651.97329    -4921.952 
13666000    259.47709   -6327.9551   -5660.4661   -6327.9551            0    4880.8623    23.322147    21.381523    21.951231    10946.267     5887.019    5149.4216    3606.1464   -1204.8914    420.82497   -569.58062   -4881.2849 
13667000    238.21578   -6320.6217   -5707.8261   -6320.6217            0    4512.4667     23.37165    21.490458    21.833597    10966.305    5020.7851    4076.5357    4440.0794   -1033.8958    274.05697    -854.4252   -4986.1368 
13668000    258.51982   -6329.1091   -5664.0827   -6329.1091            0    3169.4981      23.6169    21.640933    21.564646    11021.513    2543.1976     2840.641    4124.6557    989.57689    15.838601   -893.78749   -5154.6256 
13669000    257.81271   -6302.4114   -5639.2039   -6302.4114            0    4648.0365     23.39961    21.478544    21.822162    10967.591    6221.4182    3210.1661    4512.5253    897.51063   -1505.7096   -606.84475   -4895.7455 
13670000    250.79404    -6338.981   -5693.8286    -6338.981            0    4434.4107    23.353924    21.479107    21.771755    10921.179    4217.3434     5007.766    4078.1226    329.37499    659.16664    223.66631   -4987.5414 
13671000    249.74533   -6331.1185   -5688.6638   -6331.1185            0     4532.521    23.416682      21.4714    21.750477    10935.899    3792.7726     4300.801    5503.9895    1923.6068   -723.63857    6.8664547   -4965.7772 
13672000     251.6016   -6337.8155   -5690.5857   -6337.8155            0    3947.7581    23.499014    21.478736    21.723514     10964.49    2877.2929    4274.4439    4691.5375    344.22371   -1309.3919   -569.99591   -5059.3162 
13673000    247.44163   -6341.6566   -5705.1281   -6341.6566            0    5509.0379    23.172943    21.484822    21.932088    10919.253    6283.1363    6356.5754    3887.4019   -111.50135    704.80661   -609.58687   -4827.8353 
13674000    244.53292   -6347.8818   -5718.8357   -6347.8818            0     4373.593    23.516964    21.451949    21.737449    10966.211     4001.418    4580.6091    4538.7519    -353.0314   -126.73743     512.6902   -5019.3629 
13675000    248.48109   -6322.7655   -5683.5631   -6322.7655            0    5823.1923    23.443872    21.600838    21.462343    10868.687    5801.1936    4888.7661     6779.617   -805.16271   -348.47926    481.55613   -4760.5368 
13676000    252.75705   -6370.4159   -5720.2138   -6370.4159            0    5229.3016    23.277159     21.49423    21.774599    10894.368    6500.3995    5421.9539    3765.5513   -1057.7412   -349.77857   -724.87779   -4889.3657 
13677000     252.3309   -6295.8185   -5646.7126   -6295.8185            0    5718.6084    23.235397     21.41976    22.006147    10952.385    7298.8254    5841.1981    4015.8018   -893.68763   -299.27521    16.994623   -4733.2833 
13678000    251.58719   -6325.7263   -5678.5336   -6325.7263            0      4580.11    23.510759    21.463593    21.702088    10951.424    4067.0628    4625.2533    5048.0138   -770.59501    593.66362    178.11633     -4947.02 
13679000    247.06329   -6324.2324   -5688.6771   -6324.2324            0    4680.3211    23.383653    21.649737    21.646279    10958.427    4392.5074    5329.5989    4318.8569   -1042.3337    703.27266   -445.74892   -4940.6803 
13680000    248.80544   -6321.0948    -5681.058   -6321.0948            0    4437.2901    23.336486    21.438386    21.982544    10997.792    5330.0605    4084.2923    3897.5174    317.53846   -110.31175   -358.53274   -4969.3543 
13681000    253.00954     -6344.26   -5693.4084     -6344.26            0    5223.6629    23.375199    21.473669    21.728067    10906.432    4560.7306    5285.1079    5825.1502    270.74657    1302.8802    794.97023   -4862.5372 
13682000    257.30817   -6328.5793   -5666.6697   -6328.5793            0    5476.3175    23.336338    21.515403    21.778278    10934.671    5818.7917     5380.976    5229.1848    -1301.688    1067.6842    225.90441   -4793.3561 
13683000    248.11367   -6350.5238   -5712.2665   -6350.5238            0    4227.9394    23.372232    21.473559    21.855578    10968.987    4023.2525    4657.9906    4002.5752   -481.75985   -286.86285    845.28714   -5035.9171 
13684000    244.00618   -6342.5406   -5714.8496   -6342.5406            0    3272.5951    23.429837    21.597138    21.755229    11008.525    2466.3956    3361.9418     3989.448   -1120.1128    921.70807   -39.791019   -5189.4409 
13685000    242.29789   -6299.7015   -5676.4049   -6299.7015            0    4307.3649    23.456004    21.486982    21.849362    11012.051    4442.8474    4110.2294     4369.018   -37.119083   -272.04356    275.83293   -4984.6444 
13686000    250.91651     -6319.94   -5674.4726     -6319.94            0    2816.7462    23.358888    21.614663    21.844416    11029.125    2598.0307    2194.9917    3657.2163    253.93157    697.67464   -389.15889   -5221.4033 
13687000    239.37575   -6342.9355   -5727.1559   -6342.9355            0    4394.9666    23.425399    21.397843    21.863533    10959.162    6311.5734    4196.0411    2677.2853   -1000.5149    587.89214     148.5839   -5024.7166 
13688000    247.86609   -6302.3485   -5664.7281   -6302.3485            0    4712.9374    23.465509     21.56107    21.650383    10953.827    3661.6511    4513.4123    5963.7489   -359.20062    1509.5123    281.30935   -4911.8348 
13689000    242.60391   -6365.8721   -5741.7883   -6365.8721            0     4182.032    23.417769    21.571371    21.616739    10919.769     3736.992    4296.8719    4512.2322   -507.52982   -118.07359    81.564988   -5075.7845 
13690000    260.85117   -6301.2819   -5630.2581   -6301.2819            0    4492.8264     23.34478    21.397839    21.930434    10954.863    3874.0155    4255.7667    5348.6969    395.71273    675.07072    666.06061   -4912.4597 
13691000    259.74997   -6327.9402   -5659.7493   -6327.9402            0    6192.7849    23.195927    21.621406     21.69921    10882.774    7402.0094    4299.4211    6876.9242   -579.86178   -736.33006    785.94015    -4676.867 
13692000    252.88321   -6324.5064   -5673.9797   -6324.5064            0    4759.4098    23.635042     21.29563    21.711387    10927.843    4076.3668    5152.2853    5049.5771   -1075.2866    553.50499   -615.05744    -4915.466 
13693000    247.13804   -6334.3076   -5698.5601   -6334.3076            0    4406.5842    23.340842    21.614926    21.713866    10954.875    4626.2332    4420.6206     4172.899   -792.98483   -668.70057   -1396.0987   -4994.5394 
13694000    250.51374   -6329.5364    -5685.105   -6329.5364            0    2885.9608    23.438538    21.455506    21.895657    11011.012    2558.5596    3873.6463    2225.6766     755.2798    384.53086   -295.11023    -5221.665 
13695000    246.75686   -6309.2521   -5674.4851   -6309.2521            0    4041.5339     23.50448     21.43274     21.82813    10996.257    2807.5211    5177.2122    4139.8685    765.05854    1088.4786    348.02131   -5026.3479 
13696000    243.71393   -6320.3782    -5693.439   -6320.3782            0    4834.8532    23.394744    21.701031    21.532206    10931.687    5047.2168    3872.1005    5585.2423   -517.28813    61.689518    102.71731   -4922.6307 
13697000    245.77331   -6325.7013   -5693.4644   -6325.7013            0    3719.1667    23.512193    21.534139    21.778098    11026.574    3038.2242     2615.731     5503.545    691.83085   -16.132303    951.13022   -5095.3805 
13698000    256.19495   -6332.5374   -5673.4915   -6332.5374            0    4268.8322    23.296691    21.449904    21.989226    10988.276    4115.1159    4561.6725    4129.7081    860.93572    -1682.473    -438.0579   -4989.3995 
13699000    254.07336   -6329.9466   -5676.3584   -6329.9466            0    4583.4008    23.509097    21.508413     21.70223    10973.588    4282.3636    4671.6346    4796.2042   -685.52301    325.87588    391.54529   -4942.8376 
13700000    241.12908   -6322.2885   -5701.9986   -6322.2885            0    5760.8778    23.377908    21.477181    21.648269    10869.413    4836.5007    6055.8837    6390.2489     1273.198    506.81517    554.19831   -4788.7887 
13701000    251.24959   -6328.5838   -5682.2595   -6328.5838            0     5012.996     23.30353    21.465595     21.88498    10947.395    4876.6046    5499.6757    4662.7076    420.49382   -614.98738   -1173.7343    -4881.902 
13702000     247.6879   -6329.3683   -5692.2063   -6329.3683            0    4467.1665    23.459678    21.342005    21.826906     10928.22    4280.8003    4865.1432    4255.5559    992.46833     261.4286   -252.26045   -4980.2432 
13703000    243.79549   -6368.6604   -5741.5114   -6368.6604            0    4028.9464    23.302915    21.678834     21.70201    10963.422    4343.4977    4264.8142    3478.5272    698.85318   -101.84579   -621.04162   -5097.3221 
13704000    239.24188   -6315.2962   -5699.8611   -6315.2962            0    4260.7132    23.443526     21.44941    21.826675    10975.539    5056.1316    4574.9318    3151.0761   -539.22347   -809.02939   -29.352121   -5017.8616 
13705000    253.92667   -6374.2004   -5720.9895   -6374.2004            0    3538.5933     23.45436     21.65648    21.641296    10992.456    2487.8648    2303.1626    5824.7526   -145.02513   -957.68859    1446.6744   -5153.7045 
13706000    249.00476   -6375.3938   -5734.8442   -6375.3938            0    4614.5856    23.432421    21.477283    21.794754    10968.531    3779.4739    4202.2457    5862.0373   -292.90564    389.85482    309.20643   -4996.6731 
13707000    246.67251   -6354.7835   -5720.2335   -6354.7835            0    5580.5675    23.322612    21.367197    21.832459    10879.962    5849.2385    5274.7168    5617.7473   -439.70753   -111.25047    671.09178   -4834.7476 
13708000    244.18967   -6312.7992   -5684.6362   -6312.7992            0    4022.1954    23.398361    21.515891    21.775333    10962.499    4011.6211    4488.0947    3566.8704    336.41447    -435.1534    162.47406   -5041.5804 
13709000    259.30999   -6348.1319   -5681.0728   -6348.1319            0     4536.765     23.47529    21.498186    21.683705    10943.249    3531.5103    4449.8689    5628.9158      2421.08    421.00549   -439.79229   -4957.0229 
13710000    250.13008   -6346.0134    -5702.569   -6346.0134            0    4504.9241    23.371288    21.410679    21.921754    10969.539    4538.5019    5484.1683     3492.102     459.7505   -946.90079   -835.03912   -4981.8736 
13711000    245.31016   -6309.6502   -5678.6047   -6309.6502            0    4696.9167    23.317607    21.616702    21.717649    10946.776    5944.9187    2749.3895    5396.4418   -405.35511    467.69429    103.35696   -4928.7537 
13712000    245.79827   -6342.6473   -5710.3462   -6342.6473            0    4436.5728    23.601302     21.32885    21.682157    10914.551    3679.6058    5489.2664    4140.8461   -904.36879    594.82989    238.54932   -5004.1435 
13713000     253.2521   -6352.9499   -5701.4743   -6352.9499            0    3867.3157    23.228488    21.659071    21.784736    10960.063    3208.4038    4294.3161    4099.2271   -132.53546    290.95489    119.53121   -5083.3177 
13714000    251.19004   -6334.8479   -5688.6769   -6334.8479            0    5581.8848    23.321212    21.407025    21.883163    10924.901    5503.3711    7926.2599    3316.0233    198.09849   -798.00648   -198.59343   -4799.3237 
13715000    238.08596    -6346.369   -5733.9074    -6346.369            0    4539.8291    23.408592    21.488974    21.731146    10931.345    3837.7477    4711.4669    5070.2727   -143.76071     530.2963    -1028.025   -5010.1567 
13716000    243.48731   -6325.7455   -5699.3892   -6325.7455            0    4850.5323    23.311459    21.644682    21.706762    10952.562    4236.9274    3891.1969    6423.4725    494.37822   -309.77931   -267.63958   -4924.6046 
13717000    246.21735    -6334.251   -5700.8719    -6334.251            0    4033.9016    23.667276    21.463625    21.623784    10984.569    3661.9822    4573.0011    3866.7214   -748.12364   -32.578334   -87.290758   -5054.6462 
13718000    254.41348   -6331.1153   -5676.6521   -6331.1153            0    3190.3308    23.337374    21.546991    21.874174    10999.433    3347.5668    2773.4646    3449.9609    472.35517   -281.84423    665.27232   -5164.8738 
13719000     245.9402   -6338.1741   -5705.5079   -6338.1741            0    3697.9735    23.337281    21.469822    21.904198    10975.039    5014.4658    3824.2301    2255.2245   -958.47965   -220.32673    884.07796   -5113.6114 
13720000    239.87558   -6360.3446   -5743.2793   -6360.3446            0    3227.8787    23.447786    21.412109    21.889385    10989.928    3953.2907    3779.5358    1950.8095    709.66337    186.11825   -987.51878   -5225.9252 
13721000    250.36775   -6354.0124   -5709.9566   -6354.0124            0    4977.9429    23.478445     21.55313    21.538686    10899.307    4098.8996    5306.1888    5528.7404   -317.55359    -237.7327   -665.54299   -4918.6866 
13722000     253.6841   -6362.3056   -5709.7187   -6362.3056            0    3723.0771     23.30005    21.498262    21.946597    10993.282    4664.1957    3159.5472    3345.4885    290.11388   -490.93797    265.66084   -5112.8136 
13723000    235.36922   -6323.2654   -5717.7924   -6323.2654            0    3620.9133     23.41589    21.559085    21.815383    11012.954     4112.333    4590.9678    2159.4393    1151.3238   -2259.4608     347.5388    -5136.228 
13724000    264.90067    -6334.175   -5652.7342    -6334.175            0    6075.5484    23.329831    21.520364    21.652389    10870.938     6952.999    5938.2753    5335.3708     337.4785   -615.62992    188.56716   -4689.5077 
13725000    246.62812   -6339.3329    -5704.897   -6339.3329            0    4329.9276    23.424086    21.476886    21.792886    10963.487    6181.4614      4034.27    2774.0512   -1477.2923   -732.00114    180.95877   -5012.5797 
13726000    238.67859   -6313.4397   -5699.4535   -6313.4397            0    3742.6134    23.321373    21.608224     21.83632    11004.052    5630.1318    3602.9078    1994.8007   -1479.6323   -241.07111   -403.13766   -5098.8284 
13727000    265.25021   -6319.1269   -5636.7869   -6319.1269            0    4430.8688    23.615912    21.335506    21.728889    10948.262    2778.5565    6176.2103    4337.8395    689.09818    386.22435    512.50903   -4929.3138 
13728000    260.48891    -6322.185   -5652.0932    -6322.185            0    3487.6453     23.30818    21.573925    21.910425    11017.634    3284.7588    2576.9332    4601.2438    1491.5723   -2.2347712    791.56241   -5091.6952 
13729000     249.2746   -6322.1542   -5680.9105   -6322.1542            0    4330.8203    23.444676    21.430577    21.836791    10971.523    4408.4645    5524.4836    3059.5129   -641.33837   -85.583311   -2161.9985   -4987.9428 
13730000    263.61451   -6330.0552   -5651.9229   -6330.0552            0    2937.3887     23.43258    21.614964    21.772218    11027.506    3568.5461    1379.0487    3864.5713   -811.50584   -114.24904    1545.3031   -5179.5178 
13731000    248.91232   -6302.4088    -5662.097   -6302.4088            0    3877.0698    23.341122    21.572968    21.801539    10977.888    3167.3409     3885.439    4578.4296   -887.39914    127.11125    674.85944   -5041.3734 
13732000    248.65575   -6322.8248    -5683.173   -6322.8248            0    5285.1153    23.374565    21.273344    21.941674    10910.611    5223.9144    6134.7632    4496.6683    199.06737   -1061.4443    753.51311   -4842.2051 
13733000      249.729   -6346.1837   -5703.7711   -6346.1837            0    5368.5666     23.34189    21.592788    21.599506    10886.507    4309.9338    5365.9494    6429.8167   -325.12878    1412.3161   -200.71565   -4851.4116 
13734000    243.06819   -6320.5243   -5695.2462   -6320.5243            0    4397.1754    23.327296    21.527461    21.850104     10972.63    4945.6384    4032.6058    4213.2822   -325.53137    209.02191   -967.00422   -4991.5902 
13735000    241.95535   -6323.6641   -5701.2487   -6323.6641            0    5080.4289    23.327571      21.3651    21.974513    10952.007    4315.0575     7318.637    3607.5922    1084.0966    398.57294   -207.80518   -4889.7833 
13736000    255.01285   -6353.0901    -5697.085   -6353.0901            0    4562.9556    23.407776    21.579983    21.649756    10936.145    4651.8737    3715.2125    5321.7807    572.34389    570.63637    613.44956    -4969.328 
13737000    240.20779   -6330.0259    -5712.106   -6330.0259            0    3240.4306    23.383861    21.576133    21.803567    11000.625    3036.4632    3491.7213    3193.1075    617.77531   -959.65448    777.38342   -5192.2345 
13738000    246.91991   -6296.2445   -5661.0581   -6296.2445            0     3229.562    23.437928    21.510432    21.950984    11066.807    3321.0017    4227.4518    2140.2326   -1448.9305   -632.20775     921.9884   -5139.8131 
13739000    244.02574   -6337.4881   -5709.7467   -6337.4881            0    2918.7037    23.424606    21.662549    21.708997    11015.941     1912.336    2784.8062    4058.9689   -762.91554    542.26795   -1197.8512   -5240.8388 
13740000    256.93424   -6341.9971   -5681.0494   -6341.9971            0    4856.9657    23.459946    21.482529    21.718763      10945.8    4961.6024     4225.369    5383.9256    148.08727    520.25198    889.91421   -4905.7161 
13741000    252.56555   -6346.5488   -5696.8393   -6346.5488            0    6406.0472    23.200118    21.426495    21.844997    10859.087    6928.4426    6087.2577    6202.4413    5.3440974   -781.41052   -350.14193   -4682.3223 
13742000    244.41876   -6326.8369   -5698.0845   -6326.8369            0    4393.2215    23.375593    21.480183     21.78296    10937.486    4387.1072    4199.8752     4592.682    1027.5432   -211.03929    345.61106   -4997.3129 
13743000    250.82929   -6318.8374   -5673.5943   -6318.8374            0    3035.9043    23.541233    21.465438    21.868189    11050.496    3937.8426    3413.9669    1755.9034   -644.18273     172.5379    67.979322   -5184.3275 
13744000    242.03298   -6318.6792   -5696.0641   -6318.6792            0    4316.3053    23.184986    21.795793    21.793615     11013.08    4530.1911    2553.0773    5865.6476    532.07734   -285.67626    953.70116    -5002.803 
13745000    252.64033   -6296.4448   -5646.5429   -6296.4448            0    5136.1721    23.591781    21.493668    21.561297    10933.171    4644.2877    4833.1314    5931.0972   -723.07125   -641.00568    834.41625   -4827.5849 
13746000    247.77771   -6346.0615   -5708.6684   -6346.0615            0    3858.0669     23.23471    21.650606    21.799933    10966.359    4114.8388    3715.9957    3743.3662   -71.965219   -82.492216   -38.117078   -5091.6358 
13747000    244.59185   -6316.7643   -5687.5667   -6316.7643            0    5436.9495    23.435014    21.372394    21.787582    10912.579    5143.1437    5498.6533    5669.0517    170.03662   -421.90601   -429.96745   -4822.2828 
13748000    249.72963   -6320.6807   -5678.2665   -6320.6807            0    4302.6353    23.375867    21.502648    21.859274    10987.412     4778.197    5075.3707    3054.3383    179.85829   -108.00267   -554.92285   -4988.8116 
13749000    253.85132   -6360.7878   -5707.7707   -6360.7878            0    3890.4257    23.372608    21.598653    21.755225    10982.404    2894.6346    4231.8019    4544.8407   -215.14746    380.47432    795.71462   -5084.6526 
13750000      259.827   -6312.1029   -5643.7138   -6312.1029            0    2979.7368    23.626908    21.466879    21.775479    11044.436    2722.2844    3500.5038    2716.4223   -338.42158    -579.4948   -169.03967   -5163.7623 
Loop time of 593.563 on 64 procs for 250000 steps with 1296 atoms

Performance: 72.781 ns/day, 0.330 hours/ns, 421.185 timesteps/s
99.2% CPU use with 64 MPI tasks x 1 OpenMP threads

MPI task timing breakdown:
Section |  min time  |  avg time  |  max time  |%varavg| %total
---------------------------------------------------------------
Pair    | 29.316     | 38.36      | 46.814     |  94.9 |  6.46
Bond    | 0.26912    | 0.27546    | 0.28322    |   0.6 |  0.05
Kspace  | 300.53     | 314.9      | 330.81     |  42.1 | 53.05
Neigh   | 4.4316     | 5.063      | 5.8519     |  17.7 |  0.85
Comm    | 99.281     | 108.41     | 117.7      |  47.8 | 18.26
Output  | 1.2295     | 1.2402     | 1.2533     |   0.7 |  0.21
Modify  | 116.34     | 118.64     | 120.67     |   9.3 | 19.99
Other   |            | 6.671      |            |       |  1.12

Nlocal:        20.2500 ave          28 max          14 min
Histogram: 8 2 11 9 5 8 9 8 2 2
Nghost:        2548.58 ave        2576 max        2519 min
Histogram: 6 5 3 7 7 9 10 5 9 3
Neighs:        6318.66 ave        8763 max        4323 min
Histogram: 8 3 9 10 8 5 9 8 2 2

Total # of neighbors = 404394
Ave neighs/atom = 312.03241
Ave special neighs/atom = 2.0000000
Neighbor list builds = 9284
Dangerous builds = 0

unfix		3
unfix		2
unfix		1

write_data	data.final.${pid}
write_data	data.final.0
System init for write_data ...
PPPM initialization ...
  extracting TIP4P info from pair style
  using 12-bit tables for long-range coulomb (../kspace.cpp:340)
  G vector (1/distance) = 0.37675039
  grid = 30 40 36
  stencil order = 5
  estimated absolute RMS force accuracy = 0.00269389
  estimated relative force accuracy = 8.1125697e-06
  using double precision FFTW3
  3d grid and FFT values/proc = 5472 750
Last active /omp style is kspace_style pppm/tip4p/omp
WARNING: Not all mixed pair coeffs generated from mixing. Use write_data with 'pair ij' option to store all pair coeffs. (../write_data.cpp:312)

write_restart   restart.lmp.${pid}
write_restart   restart.lmp.0
System init for write_restart ...
PPPM initialization ...
  extracting TIP4P info from pair style
  using 12-bit tables for long-range coulomb (../kspace.cpp:340)
  G vector (1/distance) = 0.37675039
  grid = 30 40 36
  stencil order = 5
  estimated absolute RMS force accuracy = 0.00269389
  estimated relative force accuracy = 8.1125697e-06
  using double precision FFTW3
  3d grid and FFT values/proc = 5472 750
Last active /omp style is kspace_style pppm/tip4p/omp
Total wall time: 0:09:55
