LAMMPS (30 Jul 2021)
Processor partition = 0
  using 2 OpenMP thread(s) per MPI task
using multi-threaded neighbor list subroutines
variable        pid world 0 1
variable        phase world IceVI IceV

shell cd ${phase}
shell cd IceVI
include Restart.lmp
echo both
log log.lammps
#include		in.partitions
include		in.temp
variable        temperature equal 273.27
variable	tempDamp equal 100.0
include		in.pressure
variable        pressure equal 8401.3
variable        pressureDamp equal 1000.0 # This is 1 ps
include		in.seed
variable        seed equal 745823

units		real
atom_style	full
read_restart	restart.lmp.${pid}
read_restart	restart.lmp.0
Reading restart file ...
  restart file = 30 Jul 2021, LAMMPS = 30 Jul 2021
  restoring atom style full from restart
  orthogonal box = (-0.094801841 -0.15309023 -0.15559073) to (24.824803 24.883091 22.965591)
  4 by 4 by 2 MPI processor grid
  restoring pair style lj/cut/tip4p/long/omp from restart
  restoring bond style harmonic/omp from restart
  restoring angle style harmonic/omp from restart
  1920 atoms
  1280 bonds
  640 angles
Finding 1-2 1-3 1-4 neighbors ...
  special bond factors lj:    0        0        0       
  special bond factors coul:  0        0        0       
     2 = max # of 1-2 neighbors
     1 = max # of 1-3 neighbors
     1 = max # of 1-4 neighbors
     2 = max # of special neighbors
  special bonds CPU = 0.002 seconds
  read_restart CPU = 0.008 seconds
include 	in.setup
variable	out_freq equal 1000
variable	out_freq2 equal 10000
variable	out_freq3 equal 1000

timestep	2.0

neigh_modify    delay 7 every 1

include		in.tip4p
# This is TIP4P/Ice

# create groups ###
group ox type 2
640 atoms in group ox
group hy type 1
1280 atoms in group hy

# set charges - beside manually ###
set group ox charge -1.1794
Setting atom values ...
  640 settings made for charge
set group hy charge 0.5897
Setting atom values ...
  1280 settings made for charge

# ### TIP3P Potential Parameters ###
pair_style lj/cut/tip4p/long/omp 2 1 1 1 0.1577 8.5
pair_coeff 1 1*2 0.000 0.000
pair_coeff 2 2 0.21084 3.1668
bond_style  harmonic
bond_coeff  1 450 0.9572
angle_style harmonic
angle_coeff 1 55 104.52
kspace_style pppm/tip4p/omp 1.0e-5
pair_modify tail yes

thermo          ${out_freq}
thermo          1000
thermo_style    custom step temp pe etotal epair emol press lx ly lz vol pxx pyy pzz pxy pxz pyz enthalpy

restart 	${out_freq3} restart.lmp.${pid} restart2.lmp.${pid}
restart 	1000 restart.lmp.${pid} restart2.lmp.${pid}
restart 	1000 restart.lmp.0 restart2.lmp.${pid}
restart 	1000 restart.lmp.0 restart2.lmp.0


include         in.dump
dump            myDump all atom ${out_freq2} dump.water.${pid}
dump            myDump all atom 10000 dump.water.${pid}
dump            myDump all atom 10000 dump.water.0
dump            myDump2 all dcd ${out_freq2} dump.dcd
dump            myDump2 all dcd 10000 dump.dcd
dump_modify     myDump append yes
dump_modify     myDump2 append yes


variable natoms 	equal  "count(all)"                        # NUMBER ATOMS
variable H      	equal  "enthalpy/v_natoms"                 # ENTHALPY-per-atom
variable Vol      	equal  "vol/v_natoms"                 # volume-per-atom
fix AVG all 		ave/time ${out_freq} 1 ${out_freq} v_Vol v_H file vol_enthalpy.dat
fix AVG all 		ave/time 1000 1 ${out_freq} v_Vol v_H file vol_enthalpy.dat
fix AVG all 		ave/time 1000 1 1000 v_Vol v_H file vol_enthalpy.dat




fix 		1 all shake 1e-6 200 0 b 1 a 1
Finding SHAKE clusters ...
       0 = # of size 2 clusters
       0 = # of size 3 clusters
       0 = # of size 4 clusters
     640 = # of frozen angles
  find clusters CPU = 0.001 seconds
fix             2 all nph aniso ${pressure} ${pressure} ${pressureDamp}
fix             2 all nph aniso 8401.3 ${pressure} ${pressureDamp}
fix             2 all nph aniso 8401.3 8401.3 ${pressureDamp}
fix             2 all nph aniso 8401.3 8401.3 1000
fix             3 all temp/csvr ${temperature} ${temperature} ${tempDamp} ${seed}
fix             3 all temp/csvr 273.27 ${temperature} ${tempDamp} ${seed}
fix             3 all temp/csvr 273.27 273.27 ${tempDamp} ${seed}
fix             3 all temp/csvr 273.27 273.27 100 ${seed}
fix             3 all temp/csvr 273.27 273.27 100 745823


run             250000
PPPM initialization ...
  extracting TIP4P info from pair style
  using 12-bit tables for long-range coulomb (../kspace.cpp:340)
  G vector (1/distance) = 0.37422768
  grid = 30 30 30
  stencil order = 5
  estimated absolute RMS force accuracy = 0.0032959983
  estimated relative force accuracy = 9.925801e-06
  using double precision FFTW3
  3d grid and FFT values/proc = 5400 960
Last active /omp style is kspace_style pppm/tip4p/omp
Neighbor list info ...
  update every 1 steps, delay 7 steps, check yes
  max neighbors/atom: 2000, page size: 100000
  master list distance cutoff = 10.8154
  ghost atom cutoff = 10.8154
  binsize = 5.4077, bins = 5 5 5
  1 neighbor lists, perpetual/occasional/extra = 1 0 0
  (1) pair lj/cut/tip4p/long/omp, perpetual
      attributes: half, newton on, omp
      pair build: half/bin/newton/omp
      stencil: half/bin/3d
      bin: standard
Setting up Verlet run ...
  Unit style    : real
  Current step  : 2250000
  Time step     : 2
Per MPI rank memory allocation (min/avg/max) = 10.54 | 10.55 | 10.55 Mbytes
Step Temp PotEng TotEng E_pair E_mol Press Lx Ly Lz Volume Pxx Pyy Pzz Pxy Pxz Pyz Enthalpy 
 2250000     280.3261   -9048.9737   -7980.2428   -9048.9737            0     7987.349    24.919605    25.036181    23.121181    14425.114    8442.4483    7776.1186    7743.4802     961.6916    56.552954    627.58199   -6299.9003 
 2251000    282.44079   -9090.5523   -8013.7592   -9090.5523            0    7616.8008    24.898826    25.117798    23.025327    14400.125    8974.2444    6200.1231     7676.035    -953.8096    314.79839    568.18823   -6414.1468 
 2252000    271.70417   -9040.7905   -8004.9303   -9040.7905            0    7850.7231    25.026212    25.023726    23.011967    14411.222    7584.1405    7497.1286    8470.9003   -400.42584   -95.091396     1283.944   -6354.9211 
 2253000    276.86077   -9043.6539   -7988.1344   -9043.6539            0    9763.0164    24.792101    25.022999    23.090705    14324.843    11391.459    9312.2555    8585.3342    891.14775   -925.74552   -23.102606    -5948.512 
 2254000    270.93421   -9078.8971   -8045.9723   -9078.8971            0    7423.2142    24.913704    25.098569    23.046132    14410.707    7525.5046     7747.448    6996.6901   -746.99032    1185.4844    1190.6109   -6485.8697 
 2255000    268.77774   -9018.2918   -7993.5884   -9018.2918            0    7513.7319    25.041232    25.168405    22.973175    14478.795    8998.9826    6055.7972    7486.4158   -252.46722    545.08949    112.60935   -6407.0011 
 2256000    276.20847    -9021.316   -7968.2833    -9021.316            0    5892.4867    25.042831     25.05604    23.184965    14547.967    5156.8534    6684.2026    5836.4042    275.23719   -496.92852    1137.1701   -6718.0911 
 2257000    268.93351   -9054.2585   -8028.9613   -9054.2585            0    8516.7405    25.022699    25.005946    22.974365    14375.434    8791.2865    7243.7164    9515.2188    473.43046    496.85925    864.10082   -6243.4185 
 2258000    278.15409   -9085.3288   -8024.8785   -9085.3288            0    8164.6605    24.871996    24.900572    23.207494    14373.025    8783.4477    8591.6159    7118.9179   -812.81909    577.18258    -159.6877   -6313.4364 
 2259000    281.75016    -9023.795   -7949.6349    -9023.795            0    8945.1201    25.037932    25.050222    22.899558    14362.734    8589.8486     8595.972    9649.5397    -26.46202    663.27635    214.86756   -6075.9386 
 2260000    280.69061   -9053.7029   -7983.5823   -9053.7029            0    8887.2034    25.030012    24.953152    23.003049    14367.192    8110.2502    9009.9389    9541.4212   -921.87427   -341.96935   -194.88609   -6121.4399 
 2261000    275.21705   -9069.1155   -8019.8626   -9069.1155            0    7040.7293    25.089886    24.948976    23.062209    14436.181    6042.6756    8065.3052     7014.207    -258.5216    690.56553   -147.86182   -6537.5293 
 2262000    275.83409   -9014.8803   -7963.2749   -9014.8803            0     6639.313    25.099673    24.948907      23.1234     14480.09    6730.3863    6413.8604    6773.6921   -598.38065    -1099.154    648.57415    -6561.203 
 2263000    279.82062   -9045.6803   -7978.8765   -9045.6803            0    7802.6269    25.004276    24.936934    23.127484     14420.68    9031.0461    8110.4852    6266.3494   -840.70562    1139.1501   -184.66896   -6337.8996 
 2264000     260.1931   -9042.1244   -8050.1497   -9042.1244            0    10016.215    25.035132    24.956757    22.912205    14315.448    8793.4725     11235.82    10019.352    256.59229   -918.99456    690.06725   -5959.0032 
 2265000    280.05166   -9077.0538   -8009.3692   -9077.0538            0     8111.431    25.053005    24.946771    23.019794    14387.178    7469.4464    8527.6612    8337.1854    112.04137    407.96861   -145.31773   -6307.4106 
 2266000    279.15734   -9060.9652   -7996.6901   -9060.9652            0    8580.7915    24.983517    24.891875     23.05435    14337.191    8218.6915    9871.0103    7652.6726    91.943554   -85.529651    1486.6172   -6202.5047 
 2267000    276.42504   -9030.8546   -7976.9963   -9030.8546            0    9444.7323    24.952037    24.949574    23.017811     14329.57    9582.4005    9569.4469    9182.3497   -874.59221    193.47762    49.627197   -6003.2165 
 2268000    274.36323   -9091.6287    -8045.631   -9091.6287            0    7671.0813    25.027982    24.960079    23.079196    14417.583    8231.1024    7591.5147    7190.6268   -647.07092   -151.24885   -954.51857    -6432.666 
 2269000    269.08279   -9039.1361   -8013.2698   -9039.1361            0    8094.3411    24.949913    25.033678    23.096227    14425.628    8133.4831    8300.1678    7849.3724    317.43875   -1194.1962   -62.168333   -6310.3581 
 2270000    272.82089   -9063.7173   -8023.5996   -9063.7173            0    7534.9264    24.901378    25.169684    22.986808    14407.207    8715.0609    7654.7358    6234.9823    20.015304    1129.5057    419.45726   -6440.4035 
 2271000    267.27916   -9045.1596   -8026.1696   -9045.1596            0    8136.3896    24.922226    25.029955    23.076319    14395.059    8588.0197    7679.8805    8141.2685    687.32562    323.83622   -291.38141    -6318.039 
 2272000    272.69269   -9020.2964   -7980.6675   -9020.2964            0    8157.1481    25.136139    25.025214    22.909115    14410.687    7422.4191    8279.1282    8769.8971    360.14173     794.2181    358.89292   -6266.3198 
 2273000    270.74909   -9074.4095   -8042.1905   -9074.4095            0    9092.6082    24.998871    24.904097    23.026148    14335.488     9511.085    8652.5452    9114.1943    511.05072    12.513715    362.07879   -6141.2135 
 2274000    277.12191     -8984.37   -7927.8549     -8984.37            0    7239.1849    25.145369    24.980546    23.043934    14474.933     6767.485    7906.5954    7043.4741    392.69929    370.09135    -551.0134   -6399.6481 
 2275000    273.71186   -9045.7864   -8002.2719   -9045.7864            0     7280.787    25.062842     24.97526    23.111584    14466.719     6999.185    7416.5489     7426.627   -899.01047   -33.600229    1249.0964   -6466.1551 
 2276000    269.16936    -9002.396   -7976.1996    -9002.396            0    7940.4161    25.016627    24.965118    23.138247    14450.832    8433.8067    7148.7201    8238.7214    794.14671   -736.72289    531.19622   -6302.7525 
 2277000    270.28907   -9024.8545   -7994.3893   -9024.8545            0    8743.9359    24.979759    24.981375    23.053379    14385.971     8205.183    10352.381    7674.2441   -319.02697    6.5802668    247.06952    -6159.871 
 2278000    276.65647   -9075.2952   -8020.5546   -9075.2952            0    9888.4601    25.031666    25.033303    22.800981    14287.672    9115.4489    9484.1087    11065.823    920.06498    215.14984   -909.43327   -5960.0859 
 2279000    268.54265   -9055.9916   -8032.1846   -9055.9916            0    8106.5238    24.966978    25.038208    23.018792      14389.7     7269.545    9186.7829    7863.2436   -1353.4031   -106.23969    306.03255   -6330.9574 
 2280000    279.02971   -9038.3659   -7974.5774   -9038.3659            0    7643.4188    24.989316    24.922299    23.186669    14440.453    7958.9686    8410.5818     6560.706    -1089.496    459.97513     -599.018   -6364.8796 
 2281000    271.12879   -8978.2333   -7944.5666   -8978.2333            0    8163.7561    25.117232    25.066918    22.902681    14419.793     8106.446      7079.95    9304.8722     218.4237     427.3082    576.56358   -6227.7459 
 2282000    275.58514   -9019.5465   -7968.8902   -9019.5465            0    8431.6924    25.058113    25.051639    22.944156    14403.121    7344.1493    7663.0812    10287.847   -285.85677    1363.1895    308.85007   -6197.7732 
 2283000    276.80354   -9036.6711   -7981.3698   -9036.6711            0    8464.4432    24.880208    25.014852    23.148228    14406.872    7659.9675    9720.6159    8012.7463   -73.365776   -420.59023    845.99002   -6202.9103 
 2284000    261.51486   -9047.2232   -8050.2093   -9047.2232            0    7352.6002    24.805292    25.171166    23.145981    14451.845    8226.1628    5873.0216    7958.6161    463.85246     424.3732    1175.9586   -6500.5361 
 2285000    257.51432   -9048.0091   -8066.2471   -9048.0091            0    8210.5036    24.930528    25.027219    23.021802    14364.264    9938.0036     6438.005     8255.502    561.70199    50.144978   -1194.5673   -6346.2447 
 2286000     268.1755   -9039.6079   -8017.2006   -9039.6079            0    8311.0426    25.059624    25.047669    22.957254    14409.928    8354.2318    8268.4081    8310.4879    214.35612   -696.86188    50.793425   -6270.6016 
 2287000    267.08937   -9027.7476   -8009.4811   -9027.7476            0     8686.689    24.901971     25.05241    23.091326    14405.625    9595.2852    8680.4115    7784.3704   -96.074164   -192.66943    1018.5941   -6184.4835 
 2288000    277.87696   -9021.9807    -7962.587   -9021.9807            0    10292.535    24.956633    25.095324    22.842867    14306.368    9177.4675    10012.932    11687.206   -411.12852   -1432.4953    -570.1099   -5815.1144 
 2289000     273.7291   -9068.6712    -8025.091   -9068.6712            0    7968.5421    24.969682    24.885923    23.138518    14378.126    7200.3376      9022.82    7682.4689    476.59558    -491.6723    96.009001   -6354.1657 
 2290000    271.70518   -9056.0279   -8020.1639   -9056.0279            0    8596.9999    25.027433    24.960675     23.01567    14377.926    8992.1246    8085.9645    8712.9106    941.13617   -238.43668    3.7138349   -6217.4821 
 2291000     260.5601   -9048.2411   -8054.8671   -9048.2411            0     8928.362    24.845001    25.113011     23.07835    14399.339     9515.168    8055.8319    9214.0862    92.801165   -37.203187    2003.7281   -6179.9147 
 2292000    271.65651   -9047.2649   -8011.5864   -9047.2649            0     8099.702     24.90528    25.084803    23.033398    14389.979    8971.1156    7713.8751    7614.1154   -396.55806   -716.83085    1558.8007    -6311.758 
 2293000    276.91308   -9039.9107   -7984.1917   -9039.9107            0    8172.9325    24.864106    25.154454    23.021079    14398.373    9788.2109    6892.6352    7837.9515    20.242964     -372.465   -153.90199   -6267.9944 
 2294000    269.01535    -9038.242   -8012.6328    -9038.242            0    8994.8542    24.919459    25.015543    23.047437    14367.169    9200.2538    9314.4828     8469.826    140.27392   -395.32325   -6.9196959   -6127.9372 
 2295000     271.2305   -9099.4381   -8065.3837   -9099.4381            0    7961.3981    24.963933    24.969396    23.078732    14385.766     6319.386    8720.4118    8844.3964   -436.35529   -866.68851    141.69512   -6395.0694 
 2296000    281.04258   -9025.3574   -7953.8949   -9025.3574            0    8995.1331    25.105337    25.061609    22.792458    14340.562    8428.3994    7992.5464    10564.453   -170.27206   -593.37369    79.957116   -6072.6313 
 2297000     269.6521   -9045.6784   -8017.6416   -9045.6784            0    9390.9205    24.930278    24.965381    23.025735    14331.077    9737.0731     8949.335    9486.3532    487.80807   -1485.8242   -7.0951551   -6054.9012 
 2298000    273.63056   -9061.7806   -8018.5761   -9061.7806            0    7709.1414    24.994259    24.912966    23.135916    14406.299    7758.0908    8347.9823    7021.3512    390.56437   -779.46222    690.34369    -6398.877 
 2299000    273.15302   -9021.1456   -7979.7617   -9021.1456            0    8701.3555    25.096834     24.94779     22.97868    14387.193    8488.1606    8777.8391     8838.067    656.53068   -132.16906   -90.424501   -6154.0219 
 2300000    277.28444   -9019.2257    -7962.091   -9019.2257            0    10079.339    24.951582    24.848158    23.130828    14341.133    9564.8941    11395.408    9277.7151    880.68257    555.21532   -858.33273     -5853.99 
 2301000     273.4741   -9033.8473   -7991.2393   -9033.8473            0    8698.4366    24.986347    25.042257    22.986142    14382.763    7543.8669    8396.6891    10154.754    684.78606   -863.80552   -488.80477   -6166.6741 
 2302000    268.82902   -9023.0614   -7998.1626   -9023.0614            0    9806.1363      24.9876      24.9423    22.978543    14321.336    9610.4005    9677.0976    10130.911    35.379097   -819.10769    376.79355   -5950.0334 
 2303000    275.59049   -9058.0755   -8007.3989   -9058.0755            0    9565.6117    24.894066    24.837637    23.162577    14321.648    9419.7448    10651.161    8625.9296    929.34081   -648.92257   -1368.3845   -6009.4627 
 2304000    276.18658   -9039.2272    -7986.278   -9039.2272            0    8107.8098    25.080155    25.058948    22.899434    14391.889    8007.9326    6705.0289    9610.4679   -885.26691   -556.51856    183.77208   -6284.5222 
 2305000    283.01484    -9050.871   -7971.8893    -9050.871            0    9191.2984    24.928155    24.911658    23.182366    14396.288    8242.4733    10010.714    9320.7074    67.452839   -824.65047   -422.31649   -6042.1294 
 2306000    274.60282   -9004.4658   -7957.5546   -9004.4658            0     8285.395      24.9366    25.090716    23.033743    14411.686    8932.7751    7947.0781    7976.3318   -167.03711   -542.27323    948.75094   -6216.1331 
 2307000    277.29497   -9050.9697   -7993.7949   -9050.9697            0    8602.5556    24.857488    25.121645    23.030582      14381.7    9343.9421    8108.7416    8354.9832    650.41737    40.244789    1076.6418   -6189.4746 
 2308000    269.72459   -9052.9345   -8024.6214   -9052.9345            0    8225.1655    24.866835    25.231231    22.919584    14380.225    8909.1555    6885.6091    8880.7319    687.36182   -257.13508    706.50434   -6299.6328 
 2309000    278.84642   -9063.1768    -8000.087   -9063.1768            0    9474.0682    24.830849    25.019699      23.0321    14308.931    9627.8142    9855.0255    8939.3648    281.02735     259.1192   -172.71486   -6023.0282 
 2310000    270.98197   -9077.3316   -8044.2248   -9077.3316            0    9785.3222    24.770801     24.94478    23.134218    14294.684    9734.2838    10038.756    9582.9264   -826.91285    398.02606   -219.01517   -6004.2464 
 2311000    276.75204   -9085.6611   -8030.5561   -9085.6611            0     8452.072    24.942838    25.067004    23.045623    14409.096    8309.7596     9250.911    7795.5456   -931.62615   -591.67627    456.73431   -6254.4217 
 2312000    268.49122   -9015.9687   -7992.3577   -9015.9687            0    8014.0087    24.945962    25.212488    22.917459    14413.931     8463.827    6738.5838    8839.6153   -132.50022   -348.22788    338.70449   -6307.7137 
 2313000    279.98445   -9012.0722   -7944.6438   -9012.0722            0    8481.0655      24.9572    24.999239    23.107502    14417.025    9490.9232    7725.9146    8226.3586    72.307198    215.07244   -88.612798    -6161.436 
 2314000    284.07649   -9066.2478   -7983.2187   -9066.2478            0    8528.5097    25.056654    24.982623    22.980927    14385.622    6827.5451    9843.3076    8914.6765   -52.828773    105.15525   -1617.2892   -6193.9412 
 2315000    259.20494   -9062.4222   -8074.2147   -9062.4222            0     6359.916    25.002893    25.024154    23.179968    14503.155    5929.7657     6871.127    6278.8552   -383.11242    1226.8398    565.08643   -6729.0057 
 2316000    283.43753   -9011.5619   -7930.9687   -9011.5619            0    7700.3028    25.036271     25.05573    23.002945    14429.794    6932.0336    8448.4727     7720.402    711.98349    1106.2877    725.72119   -6310.4881 
 2317000    263.80792   -9045.5761     -8039.82   -9045.5761            0    8912.6238    24.874538     25.07154    22.992402     14339.05    8620.7595    8938.3462    9178.7657    1512.8196   -520.71364    1061.4468   -6176.0092 
 2318000    259.75044   -9025.7194   -8035.4322   -9025.7194            0    8630.0436    24.914703    25.053948    23.048698    14387.266    8717.1424    9034.3014    8138.6871   -975.50317    -952.9316    1711.0288   -6224.6461 
 2319000    265.99717   -9056.8075    -8042.705   -9056.8075            0    8009.0551    24.824161    25.199119    23.045933    14416.314    8277.9522    6504.1634    9245.0497   -322.45392   -687.04896    1269.2869    -6358.824 
 2320000    265.84066   -9054.5357   -8041.0299   -9054.5357            0    8014.8718    24.927384    25.119337    23.045973    14430.452    8741.6896    7383.5132    7919.4126    55.907884   -253.94662    989.81292   -6354.2733 
 2321000     275.9657   -9056.1564   -8004.0493   -9056.1564            0    6816.2891    24.903919    25.190899     23.11466    14501.031    7912.0437    6578.0695    5958.7541   -434.51868    242.08804   -876.00265   -6562.5224 
 2322000    283.77554   -9043.8162   -7961.9345   -9043.8162            0    9729.4614    24.956033    24.924277    23.059908    14343.518    9943.6405    10607.604      8637.14    1689.1962   -1182.7838    -290.2849   -5926.6722 
 2323000    267.37465   -9096.0287   -8076.6746   -9096.0287            0    9445.8789    24.952487     25.04993    22.896818     14311.84    10854.358    8305.2741    9178.0043    180.62845   -782.24007   -128.08015   -6105.0976 
 2324000    271.75881   -9010.3543   -7974.2858   -9010.3543            0    8429.3964    24.898618    25.034539    23.111844      14406.2     8134.245    9535.3372    7618.6068   -938.87898   -503.41667   -275.69935   -6203.2725 
 2325000    276.69905   -9009.4033   -7954.5004   -9009.4033            0    9062.6085     24.97597    24.926699    23.102256    14382.736    9178.5624    8986.2378    9023.0252    855.43511   -540.96954   -501.17903   -6053.5507 
 2326000    270.87534   -9025.7088   -7993.0085   -9025.7088            0    11100.038    25.009823    24.951695    22.851928    14260.459    11991.845    10400.189     10908.08   -97.782553   -123.31443   -262.25597   -5684.4872 
 2327000    273.20385   -9086.1982   -8044.6205   -9086.1982            0    9107.5139    24.894446    24.992822    22.983019    14299.632    8859.3097    9782.5545    8680.6774      219.935   -955.72893    439.36861   -6145.2899 
 2328000    281.55186   -9036.6566   -7963.2525   -9036.6566            0     8549.055    24.943117    25.013628    23.101669    14413.544    8495.2249    8733.6644    8418.2758   -406.00767    470.94827   -435.86551   -6166.1834 
 2329000     268.2416   -9043.5175   -8020.8581   -9043.5175            0    9161.5524    25.055207    25.020118    22.830052      14311.8    9481.9413     9176.337    8826.3791    800.37109    227.10556   -603.91461   -6108.6322 
 2330000    271.57259   -9036.4481   -8001.0895   -9036.4481            0    8037.5301    24.978579    24.920699    23.131533    14399.001    8451.6532    8639.3984    7021.5387    483.45056    1287.8906    1724.5586   -6313.2511 
 2331000    280.66593   -9034.7961   -7964.7696   -9034.7961            0    8469.9192    25.027614    24.898142    23.087454    14386.741    7883.0864    9387.4395    8139.2316     112.3204    77.647733    -824.9279   -6187.6462 
 2332000    264.96375   -9020.4176    -8010.255   -9020.4176            0    9241.5685    25.046451    24.960039    22.994208    14375.068    7803.6822    9361.7473    10559.276    1420.1048   -530.46487    817.80194   -6072.8006 
 2333000    260.18731    -9059.966   -8068.0134    -9059.966            0    8387.4757     25.07882     24.86846    23.082657    14395.998    7053.5627     10025.35    8083.5146   -378.32634   -921.40017    195.07983   -6307.0555 
 2334000    270.86424   -8988.6029   -7955.9449   -8988.6029            0    8449.7029    25.165142    24.949194    22.962002    14416.693     6990.973    9423.9359    8934.1999   -651.02065    349.39489    -153.2962   -6179.3722 
 2335000    271.08523   -9067.7439   -8034.2433   -9067.7439            0    7598.4873    24.919731    24.964096    23.161381    14408.662    7366.4868    8025.9919    7402.9831    51.618023    709.22015   -573.69276    -6437.531 
 2336000    274.88391   -9043.2112   -7995.2283   -9043.2112            0    7666.7514    25.015005    25.079621    22.989621    14422.925    7550.2489    7732.0948    7717.9105    221.67566   -74.771356    -179.4197   -6382.5765 
 2337000    280.64854   -9070.2307   -8000.2704   -9070.2307            0     8871.369    24.847439    25.130123    23.003761     14363.99    10171.968    7771.6256    8670.5132    172.18855    306.42317   -327.82429     -6141.86 
 2338000    282.04032   -9037.0213    -7961.755   -9037.0213            0    7910.0853     24.90228    25.080601    23.077687    14413.496     8261.549      8609.29     6859.417   -294.37348    -277.6307   -102.59144   -6299.0071 
 2339000    267.56377   -9076.8654   -8056.7903   -9076.8654            0    10247.711    24.795755    25.088805    22.943367    14272.974    10541.608    8847.7013    11353.825    554.53979   -150.55363   -447.55616   -5923.6608 
 2340000    274.11378   -9033.8012   -7988.7545   -9033.8012            0    8709.2687    24.882992    24.991953    23.098507    14364.374     9921.647    8297.1136    7909.0456    149.80402   -306.20895    173.52746   -6164.2528 
 2341000    268.88738    -9057.746   -8032.6247    -9057.746            0    10172.596    25.047574    25.024901     22.82465    14306.789    9289.5878    9048.5624    12179.637   -418.30568    191.03293    304.39406   -5910.1142 
 2342000    279.43296   -9065.7925   -8000.4666   -9065.7925            0    8315.4912    24.876487    24.932158    23.173263    14372.625    9275.2913    8814.1837    6856.9988   -48.436812   -1415.8172   -207.20387   -6257.4565 
 2343000    273.84983   -9027.7714    -7983.731   -9027.7714            0    8051.4855    24.963374    25.144498     22.95853    14410.875    7532.9021    7647.3428    8974.2116    204.80621      681.484   -527.40097   -6291.5678 
 2344000    274.08974    -9059.059   -8014.1039    -9059.059            0    8897.3578     25.02998    24.992769    22.951913    14357.994    7818.4436    9455.9299    9417.6998   -556.70608     1014.195   -606.62722   -6151.0273 
 2345000    262.90091   -9068.2232   -8065.9251   -9068.2232            0    9611.0318    24.913117    24.824232    23.125718    14302.077    9389.6285    11313.236    8130.2313   -492.39467   -1512.4926    435.63981   -6061.2452 
 2346000    278.39281   -9062.1921   -8000.8318   -9062.1921            0    8799.6013    25.023696    24.906014     23.04225    14360.863    7965.7258    9630.3968    8802.6813    290.57969    1076.9276   -1772.2001   -6157.8568 
 2347000    273.30835   -9022.4436   -7980.4676   -9022.4436            0    9005.2427    25.072087    24.964658    22.922159    14347.347     8966.201    8389.6722    9659.8548   -911.58361    553.81565    91.154389   -6096.1985 
 2348000    270.56057    -9092.216   -8060.7157    -9092.216            0    9453.8425    25.017843     24.83776    23.049541    14322.689    9434.6394    10424.928    8501.9605   -205.81404    116.59301    -656.8395   -6085.9807 
 2349000    281.64973   -9062.6049   -7988.8277   -9062.6049            0     6542.981    25.059282     25.03028    23.078353    14475.686    5962.2196    7595.7418    6070.9816     751.5957   -468.70801    376.52183   -6607.5191 
 2350000    262.72616   -9057.1325   -8055.5006   -9057.1325            0    7855.8377     25.01773    25.052529    23.009969    14421.668    6615.8017    9126.5986    7825.1129   -294.06745   -1035.5188    267.81832   -6403.2196 
 2351000    272.95988   -9061.4613   -8020.8137   -9061.4613            0    8498.7079    24.894559    24.986505     23.07158    14351.169    8509.5415    8246.5232    8740.0591    370.79002     513.5941    1187.3593   -6242.0589 
 2352000    273.31996   -9021.5671   -7979.5467   -9021.5671            0    7607.7628    25.084913    25.028817    23.031884    14460.469    8541.5648    6449.4164    7832.3073    251.88121   -651.14197     308.7064   -6375.1372 
 2353000    278.01561   -9059.2104   -7999.2881   -9059.2104            0    7325.9792    24.934034    25.085663    23.053313    14419.542    6606.1115    7160.0604    8211.7656   -1645.3676     -246.082    541.44077   -6458.6769 
 2354000    266.90919   -9040.5953   -8023.0157   -9040.5953            0    6282.4117    24.959974    25.193217     23.00141    14463.793    7128.2719    5307.1204    6411.8429    315.92702    517.11188    622.15581   -6697.8064 
 2355000    276.04182   -9047.4464   -7995.0491   -9047.4464            0    7646.5843     24.96701    25.098334    23.036163    14435.159    7912.3786    7188.0172     7839.357    -367.3901   -83.858989   -1256.6479    -6385.275 
 2356000    274.47787   -9075.9539   -8029.5191   -9075.9539            0    9055.3352    24.944692    24.966183    22.997572    14322.285    8532.1949    9109.7618    9524.0489   -371.63433    -668.7477   -452.96481   -6138.0785 
 2357000    275.27993   -9049.8759   -8000.3832   -9049.8759            0    8545.0394    24.941635    24.902636    23.140311    14372.735    8526.6434    8569.2787    8539.1961    -268.8918   -136.76783    446.70319   -6209.2438 
 2358000    279.03834   -9051.7054    -7987.884   -9051.7054            0     8642.952     24.97664    24.998727    23.026411    14377.327    8244.0597    9126.5823    8558.2141   -634.52535   -515.77378   -42.089105   -6175.6422 
 2359000    268.05221   -9047.8678   -8025.9306   -9047.8678            0    7060.4626    25.120665    25.038795    22.999288     14466.35    6629.6564     7168.001    7383.7302    541.38456   -791.27595   -1130.2801   -6536.3363 
 2360000     268.2091   -9063.6748   -8041.1394   -9063.6748            0    6640.9181    25.062408    24.915928    23.193817    14483.453    5088.8583    7924.4678    6909.4281    329.09851    457.77022    154.71769   -6638.4028 
 2361000    280.76001   -9080.4279   -8010.0427   -9080.4279            0    6756.3423    25.027914    25.027392    23.028701    14424.796    7823.5184    5089.4891    7356.0194    228.65593    827.47807    125.56131   -6588.7052 
 2362000    266.30479    -9012.206   -7996.9307    -9012.206            0    8306.8602    24.960289    25.018822    23.069312    14406.255    7839.5755    8415.8173    8665.1879    194.13827    52.049679   -2.7003082   -6251.6556 
 2363000    280.03317    -9078.212   -8010.5978    -9078.212            0    7731.3835    24.960909    25.008738    23.041044     14383.16    7349.3002    7578.1976    8266.6527   -723.14151   -327.94077    795.37183   -6388.8347 
 2364000    285.52817   -9028.1239   -7939.5603   -9028.1239            0    9273.2258    24.905261    25.049451    22.997311    14347.174    10488.547    9083.8936    8247.2369    485.24613    1034.2289      1293.67   -5999.2415 
 2365000    278.77976   -9011.0505   -7948.2149   -9011.0505            0    8661.4823    24.958143     24.90249    23.207273    14423.782     8079.512    9612.1991    8292.7359    51.701899   -44.435712    591.55799   -6126.2195 
 2366000    263.16915   -9025.7434   -8022.4226   -9025.7434            0    8450.9724    25.065959    25.060045    22.901256    14385.516    8361.4059    8337.0375    8654.4737    949.15813    72.141348    -194.1777   -6249.4255 
 2367000    261.44094   -9077.1371    -8080.405   -9077.1371            0    7619.3487    25.112697    24.849701    23.113421    14423.769     6093.554    8186.4823    8578.0098   -46.738935     387.0224   -12.647627   -6477.6302 
 2368000    268.29578   -9092.1434   -8069.2775   -9092.1434            0    8588.4483    24.989312    24.943633    23.036253    14359.054    8517.5339    7733.1687    9514.6424    102.63516   -1231.6458   -887.29494   -6270.7527 
 2369000    281.40579   -9074.7992    -8001.952   -9074.7992            0    9492.8412     24.82681     25.01062    23.052039    14313.793     10521.55    9146.5978     8810.376   -619.35078    582.47188    875.23895   -6020.3026 
 2370000    266.29704    -9038.636   -8023.3903    -9038.636            0    7950.6898    24.972235    25.110972    23.022898    14437.132     7419.399    7941.4917    8491.1788    408.46445   -119.76287   -572.85467   -6349.3665 
 2371000    266.92229   -9047.9658   -8030.3363   -9047.9658            0    7461.5808    24.941175    25.102825    23.054057    14434.005    7840.4068    7274.5441    7269.7915   -367.25546   -111.41846    1253.9935    -6459.635 
 2372000    270.13338     -9014.67   -7984.7983     -9014.67            0    7755.0654    24.959891    25.104673     23.06343    14451.774    7550.1827    8035.4554    7679.5579   -756.29968    1141.2013    705.38394   -6350.3074 
 2373000    273.63233   -9084.1868   -8040.9756   -9084.1868            0    7695.0387    25.024259    24.956441    23.097685    14424.884    7583.6108    7528.3302    7973.1751    579.76698   -1440.7657    586.74304   -6422.1538 
 2374000    273.43405    -9008.343   -7965.8877    -9008.343            0    8217.1362    25.092581    24.940164     23.02627    14410.141    6285.8488    10166.292    8199.2681    -394.0397    818.95865    566.35095    -6238.998 
 2375000    273.20408   -8997.8443   -7956.2658   -8997.8443            0    8457.6193    25.059658    24.947917    23.089384    14435.166    7358.2004    9414.6063    8600.0511   -427.48121   -102.52885    1375.9826   -6175.7501 
 2376000    266.78945   -9024.3178   -8007.1947   -9024.3178            0    9580.6971    25.122995    24.945651    22.887302    14343.689    8245.5432    10107.019    10389.529   -385.52012   -512.02695   -0.8382295    -6003.028 
 2377000    267.94654   -9013.3042   -7991.7698   -9013.3042            0    9084.2069    25.049786    24.925543    23.045027    14388.842    7190.7376    10701.078    9360.8054   -674.04891    803.36636   -162.91175   -6085.4807 
 2378000     279.2341   -9079.5464   -8014.9786   -9079.5464            0    8959.0887    24.974751    25.025531     22.96171    14351.216    8829.6983    9036.7818    9010.7861    387.37857   -1473.8605   -3.4186891   -6139.8614 
 2379000    270.87606   -9014.9285   -7982.2255   -9014.9285            0    9487.6363    24.874494     25.10524    23.017334    14373.868    10004.697    8685.8921    9772.3202   -1262.6232    45.915523    674.14061   -5993.3501 
 2380000    270.18963    -9074.001   -8043.9149    -9074.001            0    8455.3287    24.858109    25.050097    23.070368    14365.873    8670.1403    9237.8021    7458.0437    722.62126     379.6336   -856.85557   -6272.4261 
 2381000    266.53459   -9066.6833   -8050.5319   -9066.6833            0    8413.8456    24.913228    25.062769    23.017643    14372.089     8810.059    7461.3953    8970.0825     577.3745     71.50263   -424.56076   -6286.9716 
 2382000    276.02012   -9067.6656    -8015.351   -9067.6656            0    7063.0786    25.116681     24.90494    23.116815    14460.248    5775.2006    7504.2203    7909.8149    399.26883   -382.47077    999.52931   -6525.8333 
 2383000    264.24116   -9033.7494   -8026.3416   -9033.7494            0    7028.7914    25.035008    25.043265    23.077574    14468.677    7547.3966    6976.6477    6562.3299    1439.5189   -295.61679    849.66395   -6543.1906 
 2384000    268.10986   -9087.0186   -8064.8616   -9087.0186            0    6184.0209    25.030347    25.062899    23.081605    14479.854    6454.1719    6702.5281    5395.3628   -509.79122   -144.80013   -308.38745   -6758.9583 
 2385000    265.18746    -9087.724   -8076.7084    -9087.724            0    7428.6532    24.992855    24.986556    23.091105    14420.057    7164.2371    8109.4594    7012.2632    593.74527   -805.17871     583.0645   -6514.4497 
 2386000    275.30613   -9064.5456   -8014.9531   -9064.5456            0    7036.8299    24.983154    24.999661     23.15509    14461.983    7002.5726    7852.0386    6255.8784    82.735473   -1341.2005    203.35722   -6530.7929 
 2387000    264.07134   -9046.3274    -8039.567   -9046.3274            0    7897.0123    25.022028    25.043748    22.990812    14407.085    7961.4278    7336.4535    8393.1558   -149.51367    465.71656    909.91506   -6380.3055 
 2388000    268.69842   -9029.2113   -8004.8104   -9029.2113            0    8604.0076    25.091894    24.920353    23.032714    14402.329    7549.5245    9688.2879    8574.2103   -107.31092   -99.938873    809.35699   -6197.5971 
 2389000     270.6188   -9082.6768   -8050.9546   -9082.6768            0    8979.1592    24.960718    24.904482    23.067223    14339.365    9476.6644    9401.4647    8059.3486   -596.18383    706.05261    351.56177   -6173.1885 
 2390000     275.7277   -9048.6099   -7997.4101   -9048.6099            0    8972.3126    24.953551    25.022349    23.012565    14368.964    9546.8429    7337.9036    10032.191   -63.052472    579.67162    346.14927   -6117.2028 
 2391000    276.96933   -9098.1991   -8042.2657   -9098.1991            0    7374.8003     24.94116    25.122326    22.992419    14406.589    7221.2408    7071.5316    7831.6286    180.96388    66.679128    605.84356   -6492.7809 
 2392000    275.61151   -9094.0585   -8043.3017   -9094.0585            0    9012.2135    24.840168    25.058436    23.066382    14357.803    9481.4694    8287.0727    9268.0986   -1225.6736    165.58746   -222.18594   -6156.1998 
 2393000     274.1287   -9048.9505   -8003.8469   -9048.9505            0    8170.5615    24.867999    25.027822    23.139067    14401.566    8304.1295    8303.7488    7903.8062   -640.72374    638.41499    999.38655   -6287.7669 
 2394000    271.70132   -9051.5692   -8015.7199   -9051.5692            0    8412.7709    25.030961    25.053347    22.963396    14400.561    7654.8019    8754.2585    8829.2524   -53.664505     378.5242    412.16806   -6248.8915 
 2395000    289.42899   -9047.1452   -7943.7099   -9047.1452            0    8117.2051    24.971499    24.891989    23.157135     14394.25    7688.4888    8955.4395    7707.6869   -29.825518    196.88297   -1108.2786   -6239.7026 
 2396000    269.50984   -9052.8942   -8025.3998   -9052.8942            0    7673.1218    25.134118    24.954485    23.033965    14447.109    6170.7471    8966.0947    7882.5236    1068.1029   -311.78084    -667.0146   -6408.7016 
 2397000    266.61598   -9041.0146   -8024.5529   -9041.0146            0    8938.4755    25.084992    24.899883    22.983653    14355.897    8213.1615    9438.8025    9163.4626    89.702015    322.40617    557.43421   -6153.1397 
 2398000    271.58534   -9096.3932    -8060.986   -9096.3932            0    8076.2545    24.978015    24.850814    23.168125    14381.011    7040.5164    8901.9944    8286.2527     281.1616    733.09646   -15.919495   -6367.1346 
 2399000    270.62273   -9032.4478   -8000.7106   -9032.4478            0    8202.8877    25.051103    25.023511    22.978653    14404.549    7706.6729    8322.5231    8579.4671   -667.33834    24.167203   -1269.0942   -6277.4842 
 2400000    269.91568   -9064.1382   -8035.0965   -9064.1382            0    7873.9153    24.990205    25.127831    22.898679    14379.218    8084.6649    6625.8079    8911.2729    49.940519   -422.26344    197.62455   -6383.8881 
 2401000    275.83794    -9048.662    -7997.042    -9048.662            0    7369.1531    24.822613    25.091477    23.182468    14438.876    8440.4311    8096.8978    5570.1305    185.40219     641.0055    1133.3429   -6445.2737 
 2402000    274.02821   -9078.5529   -8033.8324   -9078.5529            0    8406.2198    24.863727    25.084156    23.061104    14382.879    8632.3858    7828.3362    8757.9372   -1023.7122    -396.5824   -711.68842   -6270.5477 
 2403000    275.17121   -9049.9298   -8000.8517   -9049.9298            0    7519.7324    24.892011    25.176461    23.050968    14445.874    8105.9811    6644.7214    7808.4945     182.9073   -215.19049    1629.2001   -6416.6076 
 2404000    277.15212   -9106.4775   -8049.8472   -9106.4775            0    7129.7692    24.874162    25.127967    23.005831    14379.498    8430.0412    6225.6143    6733.6521    276.26834   -572.00497    769.03162   -6554.6617 
 2405000    270.11915   -9045.1796   -8015.3622   -9045.1796            0    8219.5424    24.937548    25.092193    22.989098    14385.147    8929.9185    7633.7738    8094.9348   -881.80406   -192.02111    489.20422   -6290.9629 
 2406000    252.28954   -9061.4516   -8099.6088   -9061.4516            0    8773.6816    24.831914    24.978639    23.092357    14323.437    9298.5073    10028.638    6993.8998   -214.65148    86.628633    -20.47885   -6266.8514 
 2407000    268.22028    -9038.372    -8015.794    -9038.372            0    8522.4939    24.995037    25.056387    22.975464    14389.196    8140.3631    7783.8624    9643.2563    356.55199   -1253.2135     194.2637   -6227.3345 
 2408000    272.59466   -9045.1838   -8005.9286   -9045.1838            0      7983.44    25.014685    24.954027    23.108679    14424.833     7885.915    8926.8754    7137.5295   -30.215592    265.37652    419.04403   -6326.4412 
 2409000    270.67351   -9015.0612   -7983.1304   -9015.0612            0     8865.865    24.962948    24.938967    23.103473     14383.07    9048.0528    8785.5818    8763.9604     1068.649   -817.56646    670.68363   -6123.4059 
 2410000    274.33589    -9055.607   -8009.7135    -9055.607            0    9490.7952    25.100636    24.974046    22.856425     14327.88    8649.0142    10035.375    9787.9959   -716.37069   -218.28241   -552.21025   -6026.5413 
 2411000    272.22865   -9098.8614   -8061.0017   -9098.8614            0    9043.9394    24.896156    24.938888    23.029979     14298.91    9566.4802    8705.8102     8859.528    -27.13864   -1217.8833   -466.13821   -6175.0243 
 2412000    273.55912   -9053.6913   -8010.7592   -9053.6913            0     8404.053    24.948162    25.033271    23.007069    14368.699    8394.5236    8082.9815    8734.6538   -38.812039   -1588.9766   -451.09499   -6249.6669 
 2413000    273.58742   -9047.0652   -8004.0252   -9047.0652            0    7839.4409    24.895749    25.166674    22.989096    14403.662    9230.0774    6306.9246    7981.3209    214.27425   -42.321438    726.65927   -6357.2515 
 2414000    275.01925   -9085.7738    -8037.275   -9085.7738            0    8809.5155    24.878078    24.998953    23.051764     14336.49     8396.251    8107.6096    9924.6859   -741.30905   -139.37631    727.47812   -6195.3551 
 2415000    269.07267   -9034.0854   -8008.2577   -9034.0854            0    8985.2373    25.046231    25.110111    22.807933     14344.22    8681.1001    8497.0642    9777.5477    1166.3108    -45.04073    740.58793   -6128.5844 
 2416000    275.68193   -9032.1312    -7981.106   -9032.1312            0     7887.265    24.949412      25.0053    23.137609    14434.803    8477.8734    8485.3722    6698.5493    -430.9569   -941.34618    780.35665   -6320.7042 
 2417000    262.51893    -9082.919   -8082.0771    -9082.919            0    7124.7507    24.992147    25.076239    23.008184    14419.437    6280.6293    7259.3964    7834.2265    62.248592   -641.28601   -403.58073   -6583.7941 
 2418000    283.62804   -9043.3917   -7962.0723   -9043.3917            0    7881.1022    24.883534    24.906266    23.249992     14409.32    7972.0247    8395.9255    7275.3565   -74.955758    424.70716   -903.23215   -6305.8969 
 2419000     269.8138   -9039.1168   -8010.4635   -9039.1168            0    7547.4858    24.935467    25.088497    23.055007     14423.06    7917.5876    6603.2688    8121.6011   -615.22143   -79.701859    876.57674   -6422.8836 
 2420000    267.69691   -9032.3289   -8011.7462   -9032.3289            0    9818.3679    24.864107    25.108539    22.891001    14290.884    12024.686     7684.866    9745.5512   -205.19231   -836.88814     546.4462   -5965.4228 
 2421000    272.20743   -9063.1657   -8025.3868   -9063.1657            0    8447.8128    24.824234    25.067391    23.068676    14355.148    8831.9206    7714.2853    8797.2324    601.14858   -1768.8867    44.934336   -6256.7941 
 2422000    274.42275   -9067.0889   -8020.8642   -9067.0889            0    8090.4419    24.793669    25.198517    23.049824    14400.693    9838.7547    5901.3937    8531.1774   -815.44657   -543.79899   -1035.9118    -6321.715 
 2423000    267.73316   -9034.9443   -8014.2235   -9034.9443            0    9502.8894    24.881893    25.026882    23.044479     14350.17    9144.6454    9895.6935    9468.3294     449.7336     349.2783   -710.85608   -6025.4349 
 2424000    273.13978    -9068.419   -8027.0856    -9068.419            0    8773.7152    24.875132    25.134955    22.906647    14322.045    9104.3839    8186.2765    9030.4851   -168.35305   -504.86935    717.50216   -6194.4992 
 2425000    273.39797   -9060.7714   -8018.4536   -9060.7714            0    7518.9199    24.915844    25.072725    23.040899    14393.836    7531.6256    7577.8685    7447.2657   -391.40821    585.74085    888.50805    -6440.087 
 2426000    271.10761   -9057.0674   -8023.4815   -9057.0674            0    9659.6267    24.765389     24.94556    23.133395    14291.499    11281.429    9599.7361    8097.7148   -728.25165     316.9817   -199.10346   -6010.1559 
 2427000    271.74556   -9034.8059   -7998.7879   -9034.8059            0    8539.3524    24.979071    25.178334    22.897775    14401.129    7486.8739    8002.2029     10128.98     817.2468    179.59197      775.072   -6205.3045 
 2428000    278.19775   -9088.8008   -8028.1842   -9088.8008            0     7062.339    24.962535    24.965392    23.215923    14468.151    6587.5004    7081.4595    7518.0571   -381.84647   -85.284677    486.11487   -6538.0084 
 2429000    273.05621   -9071.1442   -8030.1294   -9071.1442            0    7309.9121    24.997049    25.052062    23.024771    14418.747    6428.6221    7875.4375    7625.6768    804.83426    748.79364   -414.66221   -6492.9819 
 2430000     261.4249   -9052.6367   -8055.9658   -9052.6367            0    7081.5237    25.012119    25.164902    22.978117    14463.059    7426.4066     6052.255    7765.9096   -168.22264    999.68018   -921.25061   -6562.2679 
 2431000    272.80854    -9061.999   -8021.9284    -9061.999            0    8307.3405    24.904256    24.939573     23.15172    14379.568    9048.9265    8238.8885    7634.2066    678.29907   -387.19513    260.95457   -6279.7856 
 2432000     273.8879   -9018.4008   -7974.2152   -9018.4008            0    9112.0557    24.838609    25.189148    22.982913    14379.568    11159.752    7653.6842     8522.731   -808.33361   -157.81124   -434.12932   -6063.3146 
 2433000    280.36889    -9070.499   -8001.6049    -9070.499            0    9420.5812     24.94761    25.002515    22.962131    14322.697     8812.191    10575.871     8873.681    477.12517   -1409.3223    1047.9427   -6033.8165 
 2434000     276.1447   -9050.1247   -7997.3352   -9050.1247            0    9909.7816    24.979548    24.968306    23.009442    14350.919    9447.9426    9666.8989    10614.503   -125.10296   -142.50329     1303.405   -5923.2829 
 2435000    274.98025   -8991.7303   -7943.3802   -8991.7303            0    10116.236     24.90192    25.074815     22.97002    14342.734    9627.7724    9339.2617    11381.674    216.75989    432.78719    1475.1818    -5827.326 
 2436000    278.29098   -9026.1365   -7965.1644   -9026.1365            0    8545.0748     24.84421    25.053354    23.154397     14412.01    8902.6533    9493.1076    7239.4633    784.41502    471.95079    285.74694   -6169.1231 
 2437000     268.0999    -9082.222   -8060.1029    -9082.222            0    7882.0968     24.95104    25.126451    22.970798    14401.107      8333.28    6547.5267    8765.4836   -17.406924   -506.57856    575.80801   -6404.6626 
 2438000    278.92809    -9036.447   -7973.0459    -9036.447            0    8207.5733    24.862396    25.161841    22.978255    14374.821    9042.7724    7187.9627    8391.9848   -720.95628    615.19218    304.58484   -6252.3936 
 2439000    264.93577   -9076.1058   -8066.0498   -9076.1058            0    8747.2657    24.813232    24.964377    23.168707    14351.783    9185.6761    9599.0289    7457.0922    232.59312    955.01141   -118.59726   -6235.1943 
 2440000     283.6141   -9033.6092   -7952.3429   -9033.6092            0    8148.8686    25.059486    25.034618    22.964064    14406.612    7477.1736    8312.4156    8657.0167   -445.81949    446.28351   -65.111089   -6240.2194 
 2441000    272.68843   -9053.8526   -8014.2399   -9053.8526            0    6926.5978     24.99438    25.028504     23.13938    14475.347    6065.9183    8182.8024    6531.0725     106.1423   -425.87828   -779.11892   -6551.9791 
 2442000    278.03645   -9038.8109   -7978.8092   -9038.8109            0    9007.0824    25.052652    24.944597    22.991022     14367.74    7914.7456    10313.696    8792.8055   -1051.8318   -1392.3672    342.78113   -6091.4763 
 2443000    274.19568   -9043.0603   -7997.7013   -9043.0603            0    8887.2433    25.044666    24.878108    23.011294    14337.507    8041.8132     9910.389    8709.5278   -266.61446     32.30588    70.165587   -6139.3981 
 2444000    270.32554   -9060.9313   -8030.3271   -9060.9313            0    7659.4948     25.10479    24.904463    23.088205    14435.238    6588.7708    8884.7608    7504.9529   -58.638818   -1470.1053   -530.93245   -6417.8262 
 2445000    277.36216   -9076.3912   -8018.9602   -9076.3912            0    7131.7267    25.103396    25.014538    22.994197    14439.202    6565.5425    7596.3776      7233.26    -449.8225   -65.788803    -349.7034   -6517.1544 
 2446000    280.22317   -9053.4615    -7985.123   -9053.4615            0    8166.8626    25.044843    24.862476    23.147248    14413.254    7796.6491    9965.8179     6738.121    249.30948   -128.24914    248.69602   -6268.4278 
 2447000    276.99968   -9079.6175   -8023.5684   -9079.6175            0    7454.8339    25.090831    25.018246    22.979312    14424.771    5696.4844    8388.7912    8279.2261   -207.24334    258.25508   -755.61193   -6455.2913 
 2448000    276.35007   -9047.1723   -7993.5998   -9047.1723            0     8084.415    25.101391    24.924426    23.015512    14399.374     7029.666    8117.8835    9105.6955    16.023993   -224.93756    644.65808   -6295.8718 
 2449000    276.12381   -9014.4448   -7961.7349   -9014.4448            0    9173.5131    24.975853    24.901243    23.061063    14342.362    8469.1758    8613.6233     10437.74   -496.19398   -1135.3977    1097.0295   -6042.9237 
 2450000    270.08143   -9034.4361   -8004.7625   -9034.4361            0    9924.2371    25.018987    24.924338    22.959921    14317.387    7948.5438    10973.929    10850.238   -345.14546    664.70442   -552.03883   -5932.5381 
 2451000    282.93043   -9039.8658   -7961.2059   -9039.8658            0     9842.341    24.907863    24.855147    23.141294    14326.511    9394.1349    11575.308    8557.5805   -641.56883    1534.3474    147.44677   -5904.7722 
 2452000    268.42738   -9035.4379   -8012.0703   -9035.4379            0    10019.539    25.124263    24.877018    22.905087    14316.063    8093.2277    11127.748    10837.643    270.75207    1200.1502   -1517.5082   -5920.1398 
 2453000    267.01999   -9078.5547   -8060.5527   -9078.5547            0    7831.1343    25.022947    25.001794    22.956749    14362.169    7573.6096    7738.3409    8181.4523   -1006.0598    1764.7258    759.82705   -6420.2629 
 2454000    276.35256   -9047.4036   -7993.8216   -9047.4036            0    6891.0022    24.969601    25.033449    23.125406    14455.119    8068.6191    6096.2728    6508.1147    729.14275   -860.10458   -1058.5051   -6541.1082 
 2455000    263.08435   -9049.4971   -8046.4995   -9049.4971            0    8014.4055    24.926894     25.01951    23.052562    14376.931    6943.5461    9330.5138    7769.1566    560.60488   -402.27981    161.63733   -6366.0968 
 2456000    260.01921    -9097.705   -8106.3932    -9097.705            0    7702.4677    24.879593    25.142599    22.996554     14385.21    8376.7458    5899.4598    8831.1976    502.55188    364.08831   -924.71909   -6490.4653 
 2457000    271.94521    -9039.948   -8003.1688    -9039.948            0    9075.4632    24.863052    25.046842     23.06959    14366.378    10165.394     8220.792    8840.2038   -403.92094   -225.98556    854.55921   -6101.6878 
 2458000    271.88069   -9047.3386   -8010.8054   -9047.3386            0    8611.7368      24.8698    24.994285    23.138235    14382.793    9904.2358    8649.7227     7281.252   -586.75662   -477.21046    111.29388   -6204.4223 
 2459000    273.97373    -9026.096   -7981.5832    -9026.096            0    8463.0042    25.000707    25.115378    22.901656    14380.001    8442.8437    7272.7515    9673.4174   -641.03964    277.80531   -548.55829   -6206.7426 
 2460000     274.7996    -9040.813   -7993.1516    -9040.813            0    9693.3431    24.909021    24.849645    23.161311    14336.396    10226.257    10798.747    8055.0248    201.29577    -140.5003    386.78958   -5966.4516 
 2461000    277.08462   -9045.0777   -7988.7048   -9045.0777            0    8111.6855    25.017697     25.00591    23.020683    14401.515    8415.1456    7813.4359     8106.475   -555.47224   -1143.5931   -67.473094   -6284.9967 
 2462000    276.30523   -9080.9511   -8027.5496   -9080.9511            0    8591.8856    25.094217    24.932584    22.942709     14354.42    8205.5432    9092.7202    8477.3934   -204.15258    29.799467     -954.042   -6228.8857 
 2463000    270.38484   -9069.4468   -8038.6165   -9069.4468            0    8152.9764    24.967175    24.932688    23.100815     14380.23    7987.5045    9512.1522    6959.2725   -871.84718   -68.310725    1173.3065    -6328.767 
 2464000    280.37897    -9049.221   -7980.2885    -9049.221            0    10112.617    24.994125    24.888987    22.945906    14274.154    10098.635     10316.64    9922.5745    253.35727   -596.58806    557.51543   -5875.1057 
 2465000    277.28041   -9086.5414    -8029.422   -9086.5414            0    9622.5534    24.932772    25.015496    22.954429    14316.807    9080.5517    9622.7044    10164.404    903.63033    288.27983   -63.967218   -6020.2718 
 2466000     265.9118   -9054.5012   -8040.7242   -9054.5012            0    8628.2553    24.918463    24.970722    23.038828    14335.496    8011.4691    8683.9427    9189.3541   -391.76258    378.72068   -40.697225   -6236.8277 
 2467000    269.96907    -9004.203   -7974.9578    -9004.203            0    9833.5917    24.745819     24.99026    23.196972    14345.111    11459.561    9472.8149    8568.3997   -1571.6284    89.267943   -62.998498   -5917.6846 
 2468000     279.5267   -9070.9713    -8005.288   -9070.9713            0    8500.3583    25.043273    25.051608    22.937569    14390.441    7428.2613    8693.5747    9379.2391   -667.56015    830.22489   -471.53281   -6221.3194 
 2469000     262.9587   -9054.7614   -8052.2429   -9054.7614            0    8127.4242    24.928486    24.924971    23.158147    14389.125     9183.879    7637.5113    7560.8825    -585.9053   -296.26601    458.81677   -6346.6979 
 2470000    276.48714   -9077.1087   -8023.0136   -9077.1087            0     7816.186    25.028492     24.96135    23.086922    14423.438     6701.774     8303.387    8443.3971   -443.82061   -488.99825    593.12503   -6378.8707 
 2471000    277.13989   -9073.4545   -8016.8708   -9073.4545            0    8549.8317    25.132158    25.069058    22.794777     14361.61    7807.3595    7867.3702    9974.7653   -187.78697   -299.28917    -502.1572   -6226.1141 
 2472000    270.79209   -9066.1061   -8033.7232   -9066.1061            0    9668.3852    24.920539    24.942483    22.998428    14295.366     7765.364     11878.51    9361.2817   -255.17776   -730.02574    216.06977   -6018.0268 
 2473000    275.62604   -9064.5508   -8013.7386   -9064.5508            0    8717.9786    25.011954    24.835194    23.138726    14373.238    7970.8889    9858.4106    8324.6362    1092.3122   -255.84055    834.55008   -6186.2852 
 2474000    281.82543   -9006.2198   -7931.7727   -9006.2198            0    9662.2896    25.070897    24.979759     22.92968    14360.055     8169.503    10253.909    10563.457    104.02618    1075.9498    423.45196   -5908.2315 
 2475000    269.59693   -9059.4927   -8031.6663   -9059.4927            0    8658.5107    24.891447    24.917403    23.191083     14383.81    7978.0447    10169.714    7827.7729   -58.092807     555.3842    791.25903   -6215.3435 
 2476000     272.6855   -9049.1623   -8009.5608   -9049.1623            0    9759.0188    24.993193    24.943674    22.987267     14330.77     9350.258     9543.752    10383.046    212.12564   -68.288683    -1.132251     -5969.93 
 2477000    270.88014   -9008.8073   -7976.0886   -9008.8073            0    7418.5008    25.143154    25.126157    22.901852    14468.264    5781.7167    7120.8005    9352.9852    515.52393   -202.52411    98.587272   -6410.7494 
 2478000    275.69199   -9032.0561   -7980.9925   -9032.0561            0     7869.975    25.038686    24.970574    23.078672    14429.486    7683.1889    8381.5009    7545.2351    1080.9452    285.70254    842.12667   -6324.8408 
 2479000    268.10474   -9052.9657   -8030.8282   -9052.9657            0    7643.4666    25.011499    24.885284    23.162436    14416.723    7952.5987    7981.1992    6996.6018    279.96973   -258.02099    941.84151   -6423.7656 
 2480000    274.45002   -9036.8498   -7990.5212   -9036.8498            0    7415.6545    25.000124    25.146126    22.948637    14426.805    8030.1955    6560.3025    7656.4655   -1.8586548    112.94512    826.20017   -6430.2664 
 2481000     279.4117   -9044.1022   -7978.8573   -9044.1022            0    7672.6889     24.83832     25.07916    23.173087    14435.077    9714.8556    6767.0956    6536.1156   -968.34531    132.11186    426.83844   -6363.5968 
 2482000    272.24698   -9033.3352   -7995.4055   -9033.3352            0    8994.7256      24.9471    25.029985    23.027452     14378.93    10414.303    8382.2657    8187.6076   -1370.4489   -847.43898    263.58635   -6109.1941 
 2483000    279.44612   -9043.2724   -7977.8963   -9043.2724            0    8173.4928    25.021955    25.027226    22.975673    14388.059    8015.9866    8182.4907    8322.0012   -298.30466     134.2169    328.69753   -6262.8108 
 2484000    278.07242   -9058.8418   -7998.7029   -9058.8418            0    7777.2363    24.901461    25.062667     23.09596     14414.12    8740.1435    7115.9836    7475.5818   -1509.9619     1069.813    236.75925     -6363.81 
 2485000     271.9633   -9078.0486   -8041.2005   -9078.0486            0    8545.4285    24.893306    25.084692    22.991749    14356.989    8464.7193    8625.2485    8546.3177    1022.0356    -143.0791    -703.6546    -6251.942 
 2486000    285.90127   -9073.0562   -7983.0702   -9073.0562            0    10298.574    24.832206    24.987507    23.027373    14288.367     9734.807    10796.336    10364.579    102.68921   -256.84168    612.70163   -5837.0411 
 2487000    277.53654    -9075.711   -8017.6152    -9075.711            0    10373.884     24.78565    25.133629    22.909046    14271.266    11918.203    8400.5122    10802.935   -2082.8375    154.25688   -1401.4656   -5858.4803 
 2488000    288.02168    -9040.314    -7942.244    -9040.314            0    8263.9151    24.959829    25.046849    23.035471    14400.972     9500.169    7493.0107    7798.5657   -294.69751   -396.59107    477.00759   -6206.6284 
 2489000     272.6434   -9029.1037   -7989.6627   -9029.1037            0    8908.1045    25.001398    24.843139    23.168286    14390.128     8592.744    10228.074    7903.4953   -272.64776   -428.74481   -431.51388    -6120.161 
 2490000     283.1025    -9047.778   -7968.4621    -9047.778            0    8767.1185    25.006177    24.989361    23.053266    14405.718    8049.9384    9207.2638    9044.1534    528.97955   -457.63958   -1084.7336   -6126.5552 
 2491000    273.92522   -9033.1534   -7988.8255   -9033.1534            0    8306.7084    25.145761    24.900513    22.987911    14393.704    6630.1601    9049.3862    9240.5789    385.26396   -185.12053    1506.8816   -6245.1029 
 2492000     284.6573   -9061.4334   -7976.1899   -9061.4334            0    8159.6393    25.068543    24.965016     23.02598    14410.501      7444.29    8681.7496    8352.8782     456.6287    -1189.691   -405.30009   -6261.3408 
 2493000    278.46821   -9068.6874   -8007.0396   -9068.6874            0    8923.7992    25.016066    24.850417    23.068103     14340.51    8631.6515    9369.6377    8770.1084   -866.88508    296.53322   -113.55002   -6140.7017 
 2494000    267.54214   -9057.9259   -8037.9332   -9057.9259            0    6818.6024    25.139692    24.983714    22.976413    14431.092    5388.4946    7741.6955     7325.617    605.55324   -413.18418    312.84876   -6602.8719 
 2495000    278.75077   -9059.9135   -7997.1885   -9059.9135            0    8850.6379    24.983114    24.843596    23.171195    14381.675    9190.0564    8840.5435    8521.3138   -310.51128    769.78119    301.00343   -6140.8382 
 2496000     270.1852   -9055.3635   -8025.2943   -9055.3635            0    8052.3046    25.024909    25.025011    22.979733    14391.026    7916.0562     7675.926    8564.9315   -134.45795   -243.26905    162.97245   -6335.2899 
 2497000    286.19177   -9051.4457   -7960.3522   -9051.4457            0    8145.2921    24.968373    25.032237    23.046907    14404.645    8034.5034    8176.7278     8224.645    937.16919   -256.51267   -437.34621   -6249.2139 
 2498000    265.21915   -9074.7707   -8063.6343   -9074.7707            0    7403.3809    24.903189    25.079187    23.095556    14424.369    7610.4985    7356.1641    7243.4801   -692.07996    477.31693    330.48011   -6506.2249 
 2499000    267.59375   -9105.4501   -8085.2607   -9105.4501            0    7975.9251    24.892027    25.125509    23.002342    14386.237    8340.0035    6707.2332    8880.5384   -1011.9287   -627.50762    36.094418   -6411.8438 
 2500000    275.62133   -9021.8204   -7971.0262   -9021.8204            0    8688.4374    24.896499    25.244306    22.895316    14389.588    8888.1933     7250.918    9926.2008   -152.54002    641.69199   -1147.0999   -6147.6934 
Loop time of 580.54 on 64 procs for 250000 steps with 1920 atoms

Performance: 74.413 ns/day, 0.323 hours/ns, 430.633 timesteps/s
193.5% CPU use with 32 MPI tasks x 2 OpenMP threads

MPI task timing breakdown:
Section |  min time  |  avg time  |  max time  |%varavg| %total
---------------------------------------------------------------
Pair    | 71.957     | 74.925     | 77.286     |  14.4 | 12.91
Bond    | 0.79978    | 0.95832    | 1.0931     |   6.0 |  0.17
Kspace  | 271.52     | 278.59     | 285.58     |  18.3 | 47.99
Neigh   | 6.2484     | 6.9226     | 7.5445     |  12.4 |  1.19
Comm    | 93.646     | 98.893     | 105.6      |  29.7 | 17.03
Output  | 1.182      | 1.1866     | 1.1896     |   0.2 |  0.20
Modify  | 96.354     | 101.94     | 106.37     |  28.6 | 17.56
Other   |            | 17.12      |            |       |  2.95

Nlocal:        60.0000 ave          65 max          56 min
Histogram: 1 4 7 4 4 2 4 2 2 2
Nghost:        3350.31 ave        3373 max        3327 min
Histogram: 2 2 6 1 5 3 6 2 3 2
Neighs:        21107.1 ave       22878 max       19513 min
Histogram: 2 2 6 6 3 2 2 3 3 3

Total # of neighbors = 675426
Ave neighs/atom = 351.78438
Ave special neighs/atom = 2.0000000
Neighbor list builds = 12784
Dangerous builds = 4

unfix		3
unfix		2
unfix		1

write_data	data.final.${pid}
write_data	data.final.0
System init for write_data ...
PPPM initialization ...
  extracting TIP4P info from pair style
  using 12-bit tables for long-range coulomb (../kspace.cpp:340)
  G vector (1/distance) = 0.37416741
  grid = 30 30 30
  stencil order = 5
  estimated absolute RMS force accuracy = 0.0033108975
  estimated relative force accuracy = 9.9706694e-06
  using double precision FFTW3
  3d grid and FFT values/proc = 5400 960
Last active /omp style is kspace_style pppm/tip4p/omp
WARNING: Not all mixed pair coeffs generated from mixing. Use write_data with 'pair ij' option to store all pair coeffs. (../write_data.cpp:312)

write_restart   restart.lmp.${pid}
write_restart   restart.lmp.0
System init for write_restart ...
PPPM initialization ...
  extracting TIP4P info from pair style
  using 12-bit tables for long-range coulomb (../kspace.cpp:340)
  G vector (1/distance) = 0.37416741
  grid = 30 30 30
  stencil order = 5
  estimated absolute RMS force accuracy = 0.0033108975
  estimated relative force accuracy = 9.9706694e-06
  using double precision FFTW3
  3d grid and FFT values/proc = 5400 960
Last active /omp style is kspace_style pppm/tip4p/omp
Total wall time: 0:09:40
