#include		in.partitions
include		in.temp
variable        temperature equal 217.60
variable	tempDamp equal 100.0
include		in.pressure
variable        pressure equal 2120.5
variable        pressureDamp equal 1000.0 # This is 1 ps
include		in.seed
variable        seed equal 745823

units		real
atom_style	full
box tilt large
read_restart	restart.lmp.${pid}
read_restart	restart.lmp.0
Reading restart file ...
  restart file = 30 Jul 2021, LAMMPS = 30 Jul 2021
  restoring atom style full from restart
  triclinic box = (-10.712622 -9.3691376 0.0059008409) to (12.692622 12.359136 21.854098) with tilt (-9.0867602 2.0244200 2.7579897)
  2 by 4 by 4 MPI processor grid
  restoring pair style lj/cut/tip4p/long/omp from restart
  restoring bond style harmonic/omp from restart
  restoring angle style harmonic/omp from restart
  1296 atoms
  864 bonds
  432 angles
Finding 1-2 1-3 1-4 neighbors ...
  special bond factors lj:    0        0        0       
  special bond factors coul:  0        0        0       
     2 = max # of 1-2 neighbors
     1 = max # of 1-3 neighbors
     1 = max # of 1-4 neighbors
     2 = max # of special neighbors
  special bonds CPU = 0.002 seconds
  read_restart CPU = 0.008 seconds
include 	in.setup
variable	out_freq equal 1000
variable	out_freq2 equal 10000
variable	out_freq3 equal 1000

timestep	2.0

neigh_modify    delay 7 every 1

include		in.tip4p
# This is TIP4P/Ice

# create groups ###
group ox type 2
432 atoms in group ox
group hy type 1
864 atoms in group hy

# set charges - beside manually ###
set group ox charge -1.1794
Setting atom values ...
  432 settings made for charge
set group hy charge 0.5897
Setting atom values ...
  864 settings made for charge

# ### TIP3P Potential Parameters ###
pair_style lj/cut/tip4p/long/omp 2 1 1 1 0.1577 8.5
pair_coeff 1 1*2 0.000 0.000
pair_coeff 2 2 0.21084 3.1668
bond_style  harmonic
bond_coeff  1 450 0.9572
angle_style harmonic
angle_coeff 1 55 104.52
kspace_style pppm/tip4p/omp 1.0e-5
pair_modify tail yes

thermo          ${out_freq}
thermo          1000
thermo_style    custom step temp pe etotal epair emol press lx ly lz vol pxx pyy pzz pxy pxz pyz enthalpy

restart 	${out_freq3} restart.lmp.${pid} restart2.lmp.${pid}
restart 	1000 restart.lmp.${pid} restart2.lmp.${pid}
restart 	1000 restart.lmp.0 restart2.lmp.${pid}
restart 	1000 restart.lmp.0 restart2.lmp.0


include         in.dump
dump            myDump all atom ${out_freq2} dump.water.${pid}
dump            myDump all atom 10000 dump.water.${pid}
dump            myDump all atom 10000 dump.water.0
dump            myDump2 all dcd ${out_freq2} dump.dcd
dump            myDump2 all dcd 10000 dump.dcd
dump_modify     myDump append yes
dump_modify     myDump2 append yes


variable natoms 	equal  "count(all)"                        # NUMBER ATOMS
variable H      	equal  "enthalpy/v_natoms"                 # ENTHALPY-per-atom
variable Vol      	equal  "vol/v_natoms"                 # volume-per-atom
fix AVG all 		ave/time ${out_freq} 1 ${out_freq} v_Vol v_H file vol_enthalpy.dat
fix AVG all 		ave/time 1000 1 ${out_freq} v_Vol v_H file vol_enthalpy.dat
fix AVG all 		ave/time 1000 1 1000 v_Vol v_H file vol_enthalpy.dat


timer           timeout 10:00:00 every 1000
New timer settings: style=normal  mode=nosync  timeout=10:00:00

fix 		1 all shake 1e-6 200 0 b 1 a 1
       0 = # of size 2 clusters
       0 = # of size 3 clusters
       0 = # of size 4 clusters
     432 = # of frozen angles
  find clusters CPU = 0.000 seconds
fix             2 all nph tri ${pressure} ${pressure} ${pressureDamp}
fix             2 all nph tri 2120.5 ${pressure} ${pressureDamp}
fix             2 all nph tri 2120.5 2120.5 ${pressureDamp}
fix             2 all nph tri 2120.5 2120.5 1000
fix             3 all temp/csvr ${temperature} ${temperature} ${tempDamp} ${seed}
fix             3 all temp/csvr 217.6 ${temperature} ${tempDamp} ${seed}
fix             3 all temp/csvr 217.6 217.6 ${tempDamp} ${seed}
fix             3 all temp/csvr 217.6 217.6 100 ${seed}
fix             3 all temp/csvr 217.6 217.6 100 745823


run             250000
PPPM initialization ...
  extracting TIP4P info from pair style
  using 12-bit tables for long-range coulomb (../kspace.cpp:340)
  G vector (1/distance) = 0.36764446
  grid = 27 40 32
  stencil order = 5
  estimated absolute RMS force accuracy = 0.0043880283
  estimated relative force accuracy = 1.3214417e-05
  using double precision FFTW3
  3d grid and FFT values/proc = 6783 1120
Last active /omp style is kspace_style pppm/tip4p/omp
Neighbor list info ...
  update every 1 steps, delay 7 steps, check yes
  max neighbors/atom: 2000, page size: 100000
  master list distance cutoff = 10.8154
  ghost atom cutoff = 10.8154
  binsize = 5.4077, bins = 7 5 5
  1 neighbor lists, perpetual/occasional/extra = 1 0 0
  (1) pair lj/cut/tip4p/long/omp, perpetual
      attributes: half, newton on, omp
      pair build: half/bin/newton/tri/omp
      stencil: half/bin/3d/tri
      bin: standard
Per MPI rank memory allocation (min/avg/max) = 10.58 | 10.59 | 10.60 Mbytes
Step Temp PotEng TotEng E_pair E_mol Press Lx Ly Lz Volume Pxx Pyy Pzz Pxy Pxz Pyz Enthalpy 
 4500000    229.44811   -6383.4857   -5793.2444   -6383.4857            0    1185.3126    23.405243    21.728273    21.848197    11111.021    1144.7779    713.65052    1697.5095     -950.312    164.12674    441.81152   -5601.1729 
 4501000    220.23812   -6419.8236   -5853.2745   -6419.8236            0    1198.3606       23.657    21.271562    21.953837    11047.639    426.40221    2646.7492    521.93037   -439.56115    486.84059   -327.08454   -5660.1965 
 4502000    220.13613   -6412.7021   -5846.4153   -6412.7021            0    954.12247    23.210842    21.811041    21.910952    11092.477    1304.1547    -50.77175    1608.9845    399.23628    444.37447    136.45833   -5692.0646 
 4503000    221.63207   -6422.7296   -5852.5946   -6422.7296            0    1764.8741    23.611547    21.330117    21.988532    11074.239    836.92158    1821.1283    2636.5724    241.26935     484.6562    528.37379   -5567.5561 
 4504000    217.72658    -6443.292   -5883.2037    -6443.292            0    782.83804    23.331172    21.779201    21.770493    11062.334    514.26432   -143.41962    1977.6694    325.55618    86.763637    605.38923   -5756.9062 
 4505000    213.90228   -6407.4867   -5857.2361   -6407.4867            0    802.66299    23.532642    21.554125    21.827312    11071.369   -383.97697    1236.7551    1555.2108    182.11753    256.91473    456.60073   -5727.6344 
 4506000     214.5761   -6392.4157   -5840.4317   -6392.4157            0    410.86603    23.526935    21.539472     21.95972    11128.258     120.9583    432.55678    679.08302   -289.58246    468.85062   -1240.5085   -5773.7506 
 4507000    213.97513   -6419.5984   -5869.1604   -6419.5984            0    1273.3122    23.416628     21.63706    21.841752    11066.495    678.04729    481.46258    2660.4266    957.46559   -27.933134    129.72519   -5663.6561 
 4508000    220.55724   -6416.7189   -5849.3489   -6416.7189            0    1638.2115    23.518472    21.468612    21.875036    11044.902    1604.5221    1494.6239    1815.4886   -391.39418    501.52856    250.15496   -5585.4681 
 4509000    222.48282   -6386.7558   -5814.4323   -6386.7558            0    1694.8065    23.334509    21.801894    21.750959    11065.506    2726.0645   -320.98339    2679.3383   -459.25135   -866.72506    1013.8265    -5540.926 
 4510000    225.38719   -6412.2471   -5832.4523   -6412.2471            0    1974.4727    23.706549    21.373843    21.758629    11025.098     1084.245    2236.2914    2602.8819   -213.52845   -109.96997   -668.88065   -5514.9773 
 4511000    220.03854   -6414.0451   -5848.0094   -6414.0451            0    1546.2171    23.254731    21.720469    21.857961    11040.536    1264.5574    393.30529    2980.7887    1183.7944    -750.2625     279.3145   -5599.0454 
 4512000    217.65196   -6369.7013   -5809.8049   -6369.7013            0    1534.5891     23.51746    21.361413    22.022506    11063.362    1189.3101    2957.2257    457.23147   -433.26054     -1138.34   -636.98247   -5562.2023 
 4513000    223.13356    -6403.477   -5829.4795    -6403.477            0    2631.9366    23.217816    21.781373    21.832234    11040.908    3307.4733     1972.782    2615.5543    615.97889   -1272.1251    699.35921   -5405.6842 
 4514000    214.56607   -6429.5077   -5877.5496   -6429.5077            0    1675.2235    23.667379     21.46364    21.715577    11031.255   -295.52955    2784.0283    2537.1717   -91.280995    377.11436   -749.24467   -5608.0404 
 4515000    218.39367   -6410.7965   -5848.9921   -6410.7965            0    2020.0665    23.329554    21.634874    21.875498    11041.263    2579.2124    1350.4724    2130.5146     146.6942    278.62794    103.57796   -5523.7099 
 4516000    217.67047   -6417.4473   -5857.5032   -6417.4473            0    2294.4758    23.552357    21.375178    21.871329    11010.811    1077.1194    3023.3564    2782.9517   -111.00612    1393.0623    -398.9589   -5489.0532 
 4517000     215.6298   -6409.6076   -5854.9131   -6409.6076            0    2380.5335    23.315471    21.592103    21.886463    11018.303     3159.971    1766.4219    2215.2076    84.335407   -471.83384    164.79921   -5472.3836 
 4518000    212.28166   -6423.0892   -5877.0076   -6423.0892            0    528.21816    23.513561    21.647174    21.822783    11107.843    59.485034    183.60153    1341.5679    174.43651    19.801177    320.74098   -5791.4381 
 4519000     225.4889   -6439.6605   -5859.6041   -6439.6605            0    1482.7163    23.546981    21.484372      21.8134    11035.226    1183.0818    1986.5023    1278.5647   -511.28968   -570.31121    93.939347   -5620.9795 
 4520000    213.94145   -6417.7247   -5867.3733   -6417.7247            0    2963.5489    23.328039    21.536783    21.864973    10985.201    3742.6511    2345.1359    2802.8596   -117.87387    229.14131   -16.872267   -5392.5894 
 4521000    218.17151   -6444.5038   -5883.2709   -6444.5038            0    1184.2077    23.413271    21.442368    22.015129    11052.387    1758.0405    1784.9121    9.6704846   -401.04135    398.21676   -268.13099   -5692.3911 
 4522000    221.30126   -6411.7774   -5842.4934   -6411.7774            0    1936.5424    23.243718    21.689855    21.950286      11066.3    3756.4581    788.23763    1264.9314   -756.51274    116.29074    40.986259   -5529.9536 
 4523000    217.57524   -6418.4033   -5858.7043   -6418.4033            0    2317.0013    23.517106    21.429747    21.817254    10995.147    1800.2294    2946.6791    2204.0953   -502.54245    579.42182   -176.00637   -5487.1663 
 4524000    223.85755   -6358.9714   -5783.1115   -6358.9714            0     1973.197    23.371482    21.748741    21.712639    11036.541    1591.0996     2012.911    2315.5805   -1000.9137    137.88841   -519.57826   -5465.5124 
 4525000    233.17858   -6418.1602   -5818.3225   -6418.1602            0    1465.3654    23.503505    21.440968    21.980569    11076.842    383.52038    2816.6926    1195.8832    -15.59221    360.86416   -1267.7109   -5581.6009 
 4526000    224.19396   -6402.5695   -5825.8442   -6402.5695            0    1374.3267    23.392066    21.610484    21.921653      11081.7    1215.8635    1262.0461    1645.0704   -818.46841    1395.4693    58.492324   -5603.7321 
 4527000    211.95573   -6375.8633   -5830.6201   -6375.8633            0    2287.6163    23.598496    21.470285    21.740375    11015.118    988.30239    2394.9785    3479.5679    1268.6491   -74.766258    77.186496   -5463.1278 
 4528000    210.35119   -6416.3692   -5875.2535   -6416.3692            0    2019.1452    23.415059    21.689139    21.683699     11012.12    2348.9461    1830.9786    1877.5108    553.02771   -1581.4049   -333.41407   -5550.9779 
 4529000    218.49425   -6434.8987   -5872.8355   -6434.8987            0    66.984315    23.609908    21.503321    21.817889    11076.755   -148.16817    504.84905   -155.72793    945.30417   -883.18695   -487.52285   -5862.0147 
 4530000    221.06992   -6387.1993   -5818.5104   -6387.1993            0     1741.237    23.356421    21.578908    21.985305    11080.727    2280.3756    2546.6084    396.72701    9.1617547   -448.77943   -101.88459   -5537.1247 
 4531000    214.79646   -6378.9618   -5826.4111   -6378.9618            0    1601.0621    23.440213     21.46183    22.018416    11076.801    1454.6432    2453.6682    894.87484   -1170.4069   -76.922063    -950.7956   -5567.7694 
 4532000    221.00586   -6406.1269   -5837.6028   -6406.1269            0    1784.5444    23.417027    21.608058    21.863813    11063.012    1666.9483    1431.5391    2255.1459   -1261.5798    1088.3782   -451.99869   -5549.6796 
 4533000    215.90485   -6410.2092   -5854.8071   -6410.2092            0    1809.9935    23.493608    21.568102    21.757733    11024.916    991.12728    1272.9226    3165.9306    280.76808    1067.3722    679.92097   -5563.7835 
 4534000    218.84059   -6431.9278   -5868.9738   -6431.9278            0    2113.4563    23.412795    21.570657     21.80596     11012.65    2230.1745    2190.0829    1920.1113    324.33358    385.36535   -634.27889   -5529.5354 
 4535000    215.11442   -6436.7883   -5883.4195   -6436.7883            0    1724.0871    23.431054    21.523737    21.891346    11040.328    574.72112    2360.1419    2237.3981     365.8707   -777.48633    818.40935   -5605.8211 
 4536000    211.81685   -6418.4059     -5873.52   -6418.4059            0    1357.3101    23.396443    21.576273    21.900805    11055.703    880.72853    1339.8939     1851.308    1553.5495   -923.83919    1064.2364   -5654.6726 
 4537000    213.06834   -6397.7662   -5849.6609   -6397.7662            0     2015.619       23.442    21.590936    21.786317    11026.812     2201.541     1879.657    1965.6589    587.66223    3.0082257    669.61594   -5525.5196 
 4538000    211.71326   -6399.1259   -5854.5064   -6399.1259            0    1966.7503    23.613506    21.434562     21.78375    11025.739     1277.921    2009.1482    2613.1816    662.50151    728.74883   -476.58508   -5538.2548 
 4539000    219.79964   -6418.4428   -5853.0216   -6418.4428            0    1596.6939    23.370749    21.664945    21.845442    11060.915    1713.1272    1105.0225    1971.9321   -532.63896   -443.80691    346.99475   -5595.4555 
 4540000      212.922   -6409.2122   -5861.4833   -6409.2122            0    2180.6872    23.598842    21.433607    21.768458    11010.667    2691.9479     1734.488    2115.6256   -1457.3337    411.97042    244.45628   -5511.3101 
 4541000    212.52559   -6413.2998   -5866.5906   -6413.2998            0     2182.749    23.273677    21.675341     21.77754    10986.005    2820.3802    1839.4109    1888.4559    -369.7236   -213.82192   -46.815816   -5516.8714 
 4542000    210.47115    -6395.703   -5854.2788    -6395.703            0    2852.6614    23.459366    21.413115    21.923123     11012.82    2892.0379    3130.3274     2535.619    215.63794    851.12498   -519.73013   -5396.1109 
 4543000    221.02325   -6401.7935   -5833.2247   -6401.7935            0    1890.8988    23.232727    21.684977    21.938977    11052.882    2029.8699     2656.959    985.86749   -514.28351    770.72293   -1310.7186   -5528.4213 
 4544000     214.6483    -6397.545   -5845.3753    -6397.545            0    2756.9343    23.500045     21.40402    21.924832    11028.091    2641.0068    2543.8595    3085.9367   -206.67197   -432.68163    463.03154   -5401.9682 
 4545000    206.73331   -6444.3005   -5912.4917   -6444.3005            0    1517.8167    23.358438    21.613302    21.803826    11007.726    1627.5478    1195.3305    1730.5717   -157.83689   -345.92659    647.14447   -5668.8269 
 4546000    220.04434   -6414.0659   -5848.0152   -6414.0659            0     2349.993    23.535322    21.506087    21.762178    11014.985    1151.6488    2047.5605    3850.7699    839.89759    -31.67053   -414.19267    -5470.507 
 4547000    220.24206   -6442.0912    -5875.532   -6442.0912            0    1332.4926    23.352577    21.674083    21.794325    11031.103     1427.061    593.52656    1976.8901   -1474.4716     364.6633   -327.87865   -5661.1641 
 4548000    220.87876   -6410.4154   -5842.2182   -6410.4154            0    49.576916    23.483664     21.49535    22.040629     11125.88    696.84467   -481.73477   -66.379147   -97.550277   -19.827906    620.60145   -5834.1739 
 4549000    223.71519    -6410.822   -5835.3284    -6410.822            0    808.75022    23.411286    21.601157    21.895713      11072.9    755.51532    51.069058    1619.6663    395.18291    471.64377    1053.3235   -5704.7258 
 4550000    220.77648   -6418.5879   -5850.6538   -6418.5879            0    2809.7587    23.471274    21.516056    21.756711     10987.34     3378.415     2248.162    2802.6989   -351.29536    -664.2777    1003.7397   -5400.4207 
 4551000    222.84471   -6399.3161   -5826.0617   -6399.3161            0    2738.6579    23.345531    21.571639    21.906291    11032.038    3696.0576    2243.3858    2276.5302   -766.07672   -628.58521   -48.385765   -5385.4364 
 4552000     215.1221   -6434.8381   -5881.4496   -6434.8381            0    2153.7261    23.315485    21.545502    21.946658    11024.768    3811.0599    1790.7345    859.38408    1980.5817   -737.71334    521.85562   -5535.1628 
 4553000    221.37625   -6444.5989   -5875.1219   -6444.5989            0    2396.0787    23.462153    21.515165    21.770848    10989.752    2483.1733    2458.8931    2246.1696   -632.23798   -344.16871   -377.88814   -5491.0922 
 4554000    216.56396    -6395.966   -5838.8684    -6395.966            0    2397.8256    23.550528    21.598307    21.725249    11050.581    1886.1548    1761.8754    3545.4465    814.50024   -584.19658    159.75648   -5452.4314 
 4555000    215.48675   -6394.4018   -5840.0753   -6394.4018            0    2370.9956    23.478474    21.621645     21.63426    10982.486    1666.5791    2131.3978      3315.01    624.02895   -3.8047002    161.15275    -5460.317 
 4556000    233.21682     -6416.02   -5816.0839     -6416.02            0    3109.5231    23.363701    21.483527    21.901229    10992.987    2966.3538     3448.992    2913.2237    469.32124    914.41447     469.7611   -5317.5607 
 4557000    219.89571   -6415.3162   -5849.6479   -6415.3162            0    3114.8713     23.34924     21.45035     21.93181    10984.533    3482.5412    3127.9402    2734.1326   -317.48267    -206.3617   -162.86996   -5350.6513 
 4558000    219.69423    -6418.317    -5853.167    -6418.317            0    2105.6277    23.339086    21.556763     21.85962    10997.905     2185.563    2992.6527    1138.6673   -35.971185    203.00957   -675.97275   -5515.4387 
 4559000     218.5382   -6409.2762      -5847.1   -6409.2762            0    3294.4996    23.401453    21.332716    21.929811    10947.725    3112.2102    3695.7416    3075.5471   -625.15352   -127.17097   -60.859923   -5321.0958 
 4560000    216.72686   -6438.2776    -5880.761   -6438.2776            0    2695.9207    23.169234    21.630607    21.908248    10979.639    3432.1606    2927.5382    1728.0632   -599.50792    400.01614   -1383.5881   -5449.0719 
 4561000    214.51806   -6402.8312   -5850.9965   -6402.8312            0    1559.1218    23.573736    21.359237    21.959507    11056.985    790.35356    2820.6646    1066.3472   -677.68577    78.848427   -605.96781   -5599.5807 
 4562000    220.71179   -6402.2499   -5834.4822   -6402.2499            0      821.781    23.399736    21.713484    21.787809    11070.163    755.33641    860.04983    849.95677    615.42245    542.44132   -217.40307   -5701.8082 
 4563000    224.15635    -6382.648   -5806.0195    -6382.648            0    2120.0238    23.573296    21.489751    21.786157    11036.524     576.4121    2227.8563    3555.8029    1067.9425   -459.10808   -87.606125   -5464.7881 
 4564000    218.72349   -6417.9193   -5855.2664   -6417.9193            0    1434.5637    23.421562    21.738533    21.739213    11068.529    1220.4591    946.11084    2137.1212    661.88561    137.80457    563.79835   -5623.6946 
 4565000    212.09599   -6440.8426   -5895.2386   -6440.8426            0    828.45313    23.578215     21.40548    21.921609    11063.902    309.45019    707.16033    1468.7489    357.08594    681.74318     995.1064    -5761.563 
 4566000    221.69266   -6397.3732   -5827.0824   -6397.3732            0    1200.4356    23.328803    21.667498    21.870455    11055.007    1369.2457    315.35181    1916.7093   -477.00333    889.16406    413.65645    -5633.541 
 4567000    206.17407    -6416.663   -5886.2928    -6416.663            0    2288.5118    23.477959     21.50287     21.77298    10991.947    1337.3664    3529.4428     1998.726   -925.09083    510.52148   -112.41851     -5519.43 
 4568000    220.73737    -6444.893   -5877.0595    -6444.893            0    1948.8664    23.371037    21.673263    21.784108     11034.23    1989.9989    1506.0889    2350.5113   -123.26754   -558.42495    84.084897   -5563.4422 
 4569000    208.64945   -6427.2662   -5890.5282   -6427.2662            0    2003.8048    23.508278    21.285648    22.011929    11014.526    1666.8967    3253.1078      1091.41    598.09872    57.705151   -550.68439   -5568.6459 
 4570000    212.79567   -6397.0346   -5849.6307   -6397.0346            0    2490.4355    23.202935     21.64469    21.909649    11003.472    3110.3978     2458.538    1902.3708    2143.2941   -127.28137   -234.63932   -5449.9797 
 4571000    219.21741   -6414.1875    -5850.264   -6414.1875            0   -23.480079     23.58068    21.533731    21.908341    11124.618   -167.49048    774.86016   -677.80991   -254.37946   -637.42391   -162.72257   -5854.0735 
 4572000    222.71545   -6368.1406   -5795.2186   -6368.1406            0    2088.0723    23.315518    21.787077    21.836923    11092.654    2593.4594    1163.1031    2507.6543   -699.53942   -45.927297   -73.765052   -5457.4208 
 4573000    211.38369   -6420.3792   -5876.6075   -6420.3792            0    2744.7244    23.428387    21.414777    21.926934    11001.043    3352.3204    2627.0298    2254.8229   -173.55133   -1117.8187    496.84262   -5436.2469 
 4574000    221.95086   -6428.6513   -5857.6962   -6428.6513            0    2981.3097    23.232936    21.621913    21.828225    10965.202    3322.4008    2764.9709    2856.5574   -483.79984   -287.71053   -433.13028   -5380.9364 
 4575000    221.03819   -6415.3987   -5846.7914   -6415.3987            0    3615.5096    23.764408    21.306726    21.628046    10951.182    1438.5724    4614.4076    4793.5489    198.44905    335.05171   -276.66339    -5269.352 
 4576000    223.28288   -6427.8084   -5853.4268   -6427.8084            0    3279.8682    23.277176    21.739553    21.696716    10979.307    4314.9789    2125.0421    3399.5835   -1419.2292    421.23141    117.68384    -5328.248 
 4577000    211.58721   -6416.7098   -5872.4146   -6416.7098            0    2582.8546    23.503496        21.32    22.017995    11033.097    2752.0205    4248.7122    747.83099   -1045.1601    -236.6191   -1321.1187   -5456.8168 
 4578000     226.2131   -6399.7372   -5817.8178   -6399.7372            0    3281.7076    23.221353    21.512568    22.042901    11011.552    3056.2509    4863.3213    1925.5505   -548.42483    269.81203    -589.9544   -5290.8012 
 4579000    218.61386   -6442.6799   -5880.3091   -6442.6799            0    1800.9034    23.379289    21.535327    21.889131    11020.754    1540.3453     3300.251    562.11374    297.51409   -343.35305   -543.81153   -5590.8564 
 4580000    226.48164   -6400.7698   -5818.1596   -6400.7698            0    2304.8371    23.474011    21.522506    21.829534    11028.708     1923.921     2468.559    2522.0312    369.98627    706.36849   -236.61212   -5447.4441 
 4581000    210.12364   -6412.4414   -5871.9112   -6412.4414            0    3070.2409    23.431581    21.531747    21.779107    10988.058    1947.1545    3581.9998    3681.5684   -794.65539    1058.5015   -512.95688   -5379.9064 
 4582000    219.25345   -6434.6802    -5870.664   -6434.6802            0    1904.5295    23.573419    21.487621    21.775449    11030.064    1819.1187    2095.3527    1799.1169    417.10104   -1907.4293    731.71508   -5564.2973 
 4583000    217.11785   -6414.4168   -5855.8943   -6414.4168            0    2163.1767     23.36417    21.691834    21.735212     11015.66    2427.8695    1053.6883    3007.9723   -754.15239   -731.99197     558.4475   -5508.3755 
 4584000    226.25471    -6393.358   -5811.3316    -6393.358            0    1980.9321    23.581505     21.38392    21.919188     11053.08    848.41664    3130.7835    1963.5963    277.37446    371.74146    848.34043   -5492.0096 
 4585000    210.20174   -6410.8099   -5870.0788   -6410.8099            0    1643.8952     23.29538     21.69007    21.871798    11051.348    1689.1026    1446.5599     1796.023   -186.98333    1582.9876   -1122.9737    -5605.128 
 4586000    219.85135   -6435.8159   -5870.2617   -6435.8159            0      1199.41     23.68521    21.512528    21.693412    11053.417    916.24417    755.52427    1926.4615   -234.95225    210.61442   -233.83721   -5676.9136 
 4587000    217.66123   -6442.4419   -5882.5216   -6442.4419            0    1858.6563    23.397507    21.530326    21.832291    10998.147    2049.0018    1882.0134    1644.9537   -227.75329   -148.87222    1023.7024   -5584.3993 
 4588000    221.79584   -6414.2577   -5843.7014   -6414.2577            0    2731.4721    23.294693     21.48278     21.94001    10979.544    4107.8365    2657.1673    1429.4126   -626.82462   -195.22881    275.59882   -5406.3233 
 4589000    211.36927   -6441.8285   -5898.0939   -6441.8285            0    4237.3679    23.362312    21.436398    21.795122    10915.081    4167.2792     3490.059    5054.7656    11.717642    434.34159    100.90732   -5223.5674 
 4590000    220.04975   -6434.1191   -5868.0546   -6434.1191            0    3097.4988    23.288724    21.502724    21.916278    10975.037     3654.207    2737.3628    2900.9265    490.38166    -315.5888   -581.19356     -5372.27 
 4591000    216.23119   -6435.7821   -5879.5406   -6435.7821            0    2863.4704    23.434445    21.402931    21.866374    10967.426    1855.9896    3043.1767     3691.245   -56.535537     460.6918    1114.7955   -5421.5323 
 4592000    225.47796   -6430.5062   -5850.4779   -6430.5062            0    2590.9942    23.273289    21.518646    21.959615    10997.588    2380.7267    2707.7573    2684.4987   -7.9685643      8.96228    1724.5106   -5434.9122 
 4593000    220.30503   -6417.8472   -5851.1259   -6417.8472            0    3157.2146     23.38182    21.549857    21.824162    10996.647    3255.6801    1772.0034    4443.9603    663.07043   -288.57995    644.26406   -5344.7882 
 4594000    222.87867   -6418.4932   -5845.1514   -6418.4932            0    1784.3554     23.50212     21.49694    21.782852    11005.212    1353.8465    2016.8839    1982.3358    270.01544      254.856    65.600736   -5558.7628 
 4595000    207.52708   -6425.4406   -5891.5899   -6425.4406            0    2108.5984    23.311247    21.565027    21.895297    11006.934    3010.6613    1719.6555    1595.4784    400.26445    426.61021   -315.83541   -5553.1074 
 4596000    220.04467   -6397.8607   -5831.8091   -6397.8607            0    2155.0675    23.413435    21.508083    21.906702    11031.735    2104.6559    1716.1513    2644.3952    496.82472   -609.48773    402.08173   -5485.0878 
 4597000    218.72965   -6426.8053   -5864.1366   -6426.8053            0    2249.7755    23.287488     21.56164    21.955842    11024.389     1770.928    3096.1575    1882.2408   -9.2954728   -524.59533    460.87719    -5502.419 
 4598000    211.64127   -6436.2376   -5891.8033   -6436.2376            0    1290.3668    23.648816    21.467957    21.725389    11029.801     26.43238     1029.217     2815.451   -542.31023     444.9487   -380.22673   -5684.2371 
 4599000    217.53718   -6409.7815   -5850.1804   -6409.7815            0    1374.8621    23.429317    21.700461    21.803351    11085.412    1919.4039    307.60094    1897.5816    587.03947    -136.1624   -243.25004   -5627.9073 
 4600000    210.38501   -6418.0678   -5876.8651   -6418.0678            0    1863.8349    23.537543    21.350472     21.96382    11037.646    1682.4065    2015.8954    1893.2026   -200.29442    297.02321    227.86616   -5576.8385 
 4601000    209.83802   -6417.7553   -5877.9598   -6417.7553            0    1274.6108    23.219273     21.64595    22.052054    11083.433    1134.6188     1562.565    1126.6485    808.88891    418.36441    735.12362    -5671.931 
 4602000    216.21703   -6411.3571    -5855.152   -6411.3571            0   -147.06521    23.614416    21.404561    22.028458    11134.421    86.927073    1077.9912   -1606.1139   -11.868785   -1260.4431   -1173.4589   -5879.0331 
 4603000    225.12504   -6408.3421   -5829.2217   -6408.3421            0    1009.3374    23.464366    21.689544    21.804719    11097.106    1315.5036   -112.12702    1824.6358   -570.68175    360.75472    521.27984   -5665.8706 
 4604000      219.685   -6419.3221   -5854.1958   -6419.3221            0    649.28489    23.652904    21.505464    21.810401    11094.224    613.90364    1317.1731    16.777912    38.304008    206.93417   -494.98067   -5749.1429 
 4605000    217.41911   -6400.0311   -5840.7337   -6400.0311            0    1277.4783    23.287105     21.70357    22.012771    11125.548     1464.248    1665.4882    702.69858    902.00086    205.89739    -838.0816   -5633.4568 
 4606000    211.03744   -6414.3599    -5871.479   -6414.3599            0    3163.7911    23.477306    21.206583    22.103619    11004.805    3390.3278    4445.5009    1655.5445   -33.530637   -180.68154   -43.324748   -5363.7101 
 4607000    215.87575   -6420.8712    -5865.544   -6420.8712            0    3794.2024    23.183798    21.569171    21.868773    10935.596    4252.1054    3535.7388    3594.7629   -295.87437   -248.21572    668.76759   -5260.4277 
 4608000    210.71136    -6398.373   -5856.3309    -6398.373            0    3640.9009    23.488183    21.406143    21.834589    10978.244    3940.7348    3905.3934    3076.5746    626.97566   -1066.8877    -161.7857   -5273.3993 
 4609000    208.11255   -6409.3721   -5874.0152   -6409.3721            0    1855.5893    23.406446    21.760724    21.671969    11038.427    987.11488    595.61431    3984.0387    1028.6269    938.16933    905.34286   -5575.2948 
 4610000     212.6571   -6415.8448   -5868.7973   -6415.8448            0    727.57685    23.734935    21.440817    21.755958    11071.528      381.574    878.29599    922.86054    990.34144    743.85068   -264.05629   -5751.3178 
 4611000    215.92359   -6407.1448   -5851.6945   -6407.1448            0    1937.0345    23.381425    21.592905    21.853823    11033.402    2587.1404    1795.8151    1428.1479   -333.49122    330.39981    279.82812   -5540.0046 
 4612000    212.71674   -6400.8558   -5853.6549   -6400.8558            0    1262.4727     23.47075    21.441305    22.045414    11094.211    1205.2429    2303.2377    278.93756    11.597966   -522.11052    209.05809   -5649.3897 
 4613000    221.64482   -6423.5833   -5853.4155   -6423.5833            0    2032.1724    23.285813    21.599032    21.960336    11044.974     2141.757    2646.8401    1307.9202    673.65605   -112.63812   -1532.2409    -5526.074 
 4614000    216.76182   -6398.7813   -5841.1747   -6398.7813            0    2293.4302    23.445749    21.393119    21.970443    11019.884    1951.9046    2957.2429    1971.1432   -70.731305    1171.7873   -274.72323    -5472.589 
 4615000    216.43923    -6397.722   -5840.9453    -6397.722            0    2848.7433    23.260971    21.552599     21.87847    10968.429    3814.2623    1716.0432    3015.9245   -450.23563    823.79614    1059.9369   -5385.2509 
 4616000    212.29457   -6432.1474   -5886.0326   -6432.1474            0    2812.1124    23.586165    21.430877    21.792834    11015.672    3298.2946    2764.1938    2373.8488   -1548.3724    616.94196   -625.44046   -5434.2603 
 4617000    204.93592   -6437.2272   -5910.0421   -6437.2272            0    1909.6756    23.453922    21.690348    21.698099    11038.338    2401.3754    228.68457    3098.9669   -1282.4148   -362.33595    19.630224   -5602.6171 
 4618000    208.69474   -6417.6756   -5880.8211   -6417.6756            0    1653.2113    23.470508    21.508075    21.860456    11035.277    1732.7203     2165.163    1061.7506    1458.2761   -1426.4378    400.58207   -5614.7563 
 4619000    223.97044   -6442.5407   -5866.3904   -6442.5407            0    1045.1386    23.303036    21.569137    22.003591    11059.585    2600.3736    322.66795    212.37429    884.11565   -113.08735    571.78413   -5697.8172 
 4620000    210.08334   -6397.7064   -5857.2798   -6397.7064            0      1464.65    23.392788    21.534284    22.025128    11095.091    1503.4609    2379.9065     510.5827    57.072075   -271.70449   -1221.7887    -5620.284 
 4621000    215.22749   -6418.9858   -5865.3262   -6418.9858            0    1828.3793    23.512907    21.531096    21.775085    11023.825    2392.4765    1307.6897    1784.9715   -205.28005   -81.282982    335.25559   -5571.3755 
 4622000    218.51737   -6378.2861   -5816.1635   -6378.2861            0    2280.7635    23.480437    21.625688    21.739539    11038.916    2679.0657     737.9179     3425.307    202.02609   -441.12968    1272.6524   -5448.9805 
 4623000    211.34823   -6407.3715    -5863.691   -6407.3715            0    1295.3458     23.76186    21.477788    21.646106    11047.138   -72.266026    1533.8134      2424.49    453.73501   -812.73387      16.0279   -5654.9964 
 4624000     225.1571   -6429.9297   -5850.7267   -6429.9297            0    978.49482    23.319621     21.78077    21.795336    11070.272    1448.4778   -456.48715    1943.4938    362.62252  -0.74632124    24.920313   -5692.7502 
 4625000    223.24356   -6403.3569   -5829.0764   -6403.3569            0    1913.4024     23.42558    21.396933    22.031298     11042.87    3277.3515    3183.5171   -720.66137    514.83981   -917.81111   -1083.9441    -5520.925 
 4626000    213.59205   -6407.7096   -5858.2571   -6407.7096            0    2545.6211    23.278367    21.611122    21.877454    11005.926    3525.9815    1728.3888     2382.493   -13.923509    158.35868    188.19053   -5449.6591 
 4627000     220.8608   -6429.3846   -5861.2336   -6429.3846            0    2271.6048    23.569433    21.420937    21.747308    10979.767     1200.436    2898.0071    2716.3714   -586.75545    436.48438    1198.2421   -5497.4846 
 4628000    222.71154   -6422.0436   -5849.1317   -6422.0436            0    1807.0037    23.435273    21.649349     21.78868     11054.67    1242.8597    942.71819    3235.4333   -571.34911    187.37763    -96.07329   -5557.8047 
 4629000    221.59009   -6386.6188   -5816.5918   -6386.6188            0     1941.703    23.466447    21.584917    21.815809    11050.172    1166.5953    1091.8683    3566.6455   -71.906459   -305.16071    617.56112   -5503.6759 
 4630000    208.48572   -6438.0348    -5901.718   -6438.0348            0    1558.0651    23.361234    21.531142     21.98647    11059.063    3287.9886    1108.5122    277.69465    168.71093   -706.43033   -571.64497   -5650.4253 
 4631000    208.22807   -6427.9187   -5892.2646   -6427.9187            0    2356.3004    23.278409    21.436736    22.031421    10993.967    3333.5939     2887.949    847.35836    944.98067   -577.66005   -244.94783   -5514.4655 
 4632000    217.85356   -6385.4494   -5825.0343   -6385.4494            0     845.2187    23.540975    21.510477    21.908699    11094.074    697.99413    807.94822    1029.7138   -2124.9304    399.01209    625.04984   -5688.2816 
 4633000    217.40553   -6399.1534   -5839.8909   -6399.1534            0     946.5282    23.481907    21.675159    21.769175    11079.945    1303.4736     373.2782    1162.8328   -887.07229   -90.901696   -254.31265   -5686.9418 
 4634000    209.78709   -6430.7521   -5891.0876   -6430.7521            0    823.82689    23.670831    21.485611    21.744356    11058.794   -403.46318    777.96392    2096.9799    41.607068    361.29189   -137.69224   -5758.2198 
 4635000    214.89534   -6441.5786   -5888.7734   -6441.5786            0    1665.3174     23.24582    21.809312    21.694594    10998.624    1120.7777    835.15275    3040.0218    998.73078    853.37489   -336.62542   -5621.6504 
 4636000    225.97801   -6417.8065   -5836.4919   -6417.8065            0    2415.2052    23.558715    21.319911    21.904028     11001.73    1324.5052    4358.9194    1562.1911   -221.73395    456.63925   -210.74131   -5448.9747 
 4637000    217.53246   -6426.3606   -5866.7716   -6426.3606            0    2935.1074     23.26521    21.603086    21.841688     10977.64    3380.3704    2352.5201    3072.4317   -1220.5467   -376.26384   -963.24837   -5396.8679 
 4638000    213.76009   -6438.8142   -5888.9294   -6438.8142            0    2023.9333    23.473827     21.41296    21.893836    11004.808    1347.1962    2935.2967    1789.3069   -120.01566   -847.49898    163.16919   -5564.1006 
 4639000    217.51698   -6428.2326   -5868.6834   -6428.2326            0    2184.8151    23.501912    21.559234    21.690844    10990.386    2181.0766    97.428844    4275.9397   -103.35083    364.85265    1460.6417   -5518.4936 
 4640000    222.67798   -6438.2304   -5865.4049   -6438.2304            0    1892.8391    23.417195    21.564218    21.843299    11030.287    2301.9878    1380.7419    1995.7875    196.61728   -444.16436   -329.46111   -5560.9125 
 4641000    214.23677   -6427.4374   -5876.3264   -6427.4374            0    1285.9073    23.432709    21.564002    21.911431    11071.911    1059.0108    1782.3265    1016.3845    485.98215   -980.42383   -593.08255   -5668.6877 
 4642000    210.21132   -6399.4793   -5858.7235   -6399.4793            0    1427.8181    23.378164    21.536888    21.961201    11057.308    1549.3004    1568.9437    1165.2101    178.22642    268.69483   -735.25107   -5628.4743 
 4643000    210.59127   -6397.0991   -5855.3659   -6397.0991            0    1368.6382    23.491481     21.62332    21.832744    11090.244    918.35587    669.15147    2518.4074    1015.3793    833.21031    1266.8899   -5634.0026 
 4644000    219.31571   -6432.4569   -5868.2806   -6432.4569            0    2509.5551    23.424442    21.548755    21.843405    11025.842     2259.391    1368.0996    3901.1747    50.845209    91.860866    732.13113   -5464.7426 
 4645000    221.40752   -6392.3396   -5822.7823   -6392.3396            0    2073.0346    23.476413    21.529284    21.872848    11055.201    1853.4047    2087.8301    2277.8689   -281.51271   -796.15652    572.86153   -5488.5495 
 4646000     220.6845   -6436.4027   -5868.7053   -6436.4027            0    1632.3467    23.382371    21.556556    21.842642     11009.64     1729.223    2298.9129    868.90428    1590.9875   -1004.5433   -67.048528   -5606.6087 
 4647000    215.01229   -6431.0427   -5877.9367   -6431.0427            0    988.89696    23.604338    21.538354    21.787845     11076.91   -467.64817    1184.6131     2249.726    1722.7302    266.68694   -26.842863    -5718.185 
 4648000    212.00998   -6428.7875   -5883.4047   -6428.7875            0    529.00775     23.40902    21.653159    21.856759    11078.737    522.25223    469.77426    594.99676   -246.77425    31.972736    64.501149   -5797.9319 
 4649000    215.99018   -6382.9714   -5827.3498   -6382.9714            0    1469.3502    23.470294    21.515414    22.051488    11135.408    1816.9425    2098.5347    492.57348    67.814496   -308.05697   -811.32214   -5588.7295 
 4650000    212.38256   -6418.0885   -5871.7473   -6418.0885            0    1287.6054    23.341138    21.607207    21.981942    11086.302    982.42492    2568.7098    311.68159    90.705902    -246.4492    196.69918   -5663.5643 
 4651000    217.00827    -6386.332   -5828.0914    -6386.332            0    2088.2801    23.485692    21.510392    21.853069    11039.874    1374.5221    2158.1394    2732.1788    257.57801    928.14269     12.59635   -5491.8674 
 4652000    211.63882   -6426.0861   -5881.6581   -6426.0861            0    935.40778     23.51437    21.640689    21.735021    11060.239    777.77399    1083.7767    944.67261   -186.19246    635.95703    46.818501   -5730.7748 
 4653000    225.31207   -6407.7978   -5828.1962   -6407.7978            0    915.20947    23.517388    21.433858    21.972224    11075.503     1346.424    2045.2619   -646.05756   -1017.5588   -1029.4285    2.7021171   -5680.3671 
 4654000    207.30807   -6393.8908   -5860.6034   -6393.8908            0    2927.4095    23.155697    21.680006     21.93445    11011.437    3222.6895    3550.0588    2009.4804    791.77541   -147.60532    620.16408   -5390.4892 
 4655000    202.50333   -6408.5066   -5887.5791   -6408.5066            0    1967.4516    23.575419    21.424555     21.79875    11010.393    439.00058    1665.6706    3797.6836    221.66316    863.90139    1184.4501    -5571.655 
 4656000    208.56938    -6440.113    -5903.581    -6440.113            0    1917.2899    23.344952    21.659499    21.747124    10996.215    2586.1467    734.83386     2430.889    658.95149   -489.51575    92.669422   -5596.1081 
 4657000    213.81957   -6420.8305   -5870.7927   -6420.8305            0    1949.9182     23.59328    21.444059    21.860446     11059.98    415.82273    2640.0188    2793.9131    -165.5428   -593.85228    38.612759   -5556.2739 
 4658000     212.1006   -6422.4578   -5876.8419   -6422.4578            0    2113.7835    23.252728    21.663326    21.941629    11052.687    2952.9103    767.09109    2621.3491   -262.63917    -61.10717    661.74882   -5536.1167 
 4659000    216.07775   -6412.2152   -5856.3683   -6412.2152            0     2576.813    23.463695    21.433853    21.875872    11001.756    2015.7894    3408.5667    2306.0828   -512.98708   -615.53256    141.09655   -5442.9204 
 4660000    217.01713   -6423.1268   -5864.8634   -6423.1268            0    1651.2243    23.383563    21.616064    21.816032    11027.144    2682.1892    53.107318    2218.3763   -1243.8442    279.16087    933.35186   -5599.3142 
 4661000     213.4787   -6435.8618   -5886.7009   -6435.8618            0    2004.2458    23.518398    21.503663    21.724621    10986.829    1520.2539    2957.8416    1534.6419   -378.23131   -186.98293   -950.18337   -5565.5573 
 4662000    223.08415   -6425.7746   -5851.9042   -6425.7746            0    2065.1599    23.552806    21.596296     21.71206    11043.913    1629.3463    1821.1353    2744.9979    431.60402   -458.46181    769.28003    -5519.281 
 4663000    213.87807   -6411.0894   -5860.9011   -6411.0894            0     2481.491    23.390107    21.548311    21.880101    11027.949    2137.0015     3359.914    1947.5575    1067.1991   -1281.6402   -580.15525   -5461.7996 
 4664000    220.77793   -6449.4944   -5881.5566   -6449.4944            0    1670.5844    23.361415    21.518398     21.94552    11032.018    1505.6523    2031.7798    1474.3211    1754.5981   -218.04598    210.29729   -5612.7752 
 4665000    222.16571   -6430.5669   -5859.0591   -6430.5669            0    1982.1611    23.371953     21.53624    21.903592    11025.041    1571.7319    3045.8053     1328.946    219.30634    964.79083   -200.61856   -5540.3496 
 4666000    227.35452   -6418.4484   -5833.5928   -6418.4484            0    1101.4898    23.487609    21.452529    21.909203     11039.36   -602.50256    2018.9269     1888.045    344.51788    1066.8186   -776.24036   -5656.2554 
 4667000    208.39525    -6406.658   -5870.5739    -6406.658            0    1340.7597     23.40311    21.582132    21.845591    11033.968      759.719    1854.3547    1408.2054   -33.511268    193.55798    1264.7032     -5654.82 
 4668000    220.42474   -6403.6451   -5836.6159   -6403.6451            0    1258.4996    23.552664    21.512132    21.866754    11079.185    602.85865    1388.7215    1783.9186   -543.50646    114.08255   -116.41593   -5633.2694 
 4669000    222.36867   -6386.9219    -5814.892   -6386.9219            0    1042.5323    23.416845    21.645849    21.942856     11122.34    2471.8474    257.67608    398.07348    281.60032    135.79207   -1273.2478    -5645.785 
 4670000    217.59424   -6423.2849    -5863.537   -6423.2849            0    1213.0335    23.530454    21.431354    21.899666    11043.771    868.25318    1980.6665    790.18093   -4.6361426    1264.8659   -193.13568   -5668.1633 
 4671000    208.49172   -6397.5115   -5861.1793   -6397.5115            0    1817.8815    23.317293    21.644696    21.861255    11033.282    1951.8084    2329.2471     1172.589    538.46281    326.47677   -290.90419   -5568.6656 
 4672000    221.42531   -6428.3724   -5858.7692   -6428.3724            0     2381.485    23.472036    21.500904    21.831288    11017.596    1920.3218    1832.8733    3391.2599    623.20396   -594.71065    14.743472   -5476.1114 
 4673000     215.3633   -6428.4537   -5874.4448   -6428.4537            0    2899.1733    23.415023    21.559327    21.722739    10965.902    3002.5756     2517.248    3177.6963    998.13893    143.66503    497.81343   -5410.7903 
 4674000     217.5653   -6436.4347   -5876.7612   -6436.4347            0    2321.2011    23.551149    21.479338    21.729222    10992.012      2094.17    1485.5866    3383.8466    934.08281    39.375635    1378.7647   -5504.6559 
 4675000    219.47944   -6419.9183   -5855.3208   -6419.9183            0    2714.4074    23.321468    21.576678    21.901386    11020.773    3739.6013     2308.367    2095.2539   -277.13583   -780.37274   -661.72396   -5419.0432 
 4676000     210.9936   -6421.3381   -5878.5699   -6421.3381            0    2813.2719    23.335719    21.465903    21.936763    10988.613    3473.3864    3008.4777    1957.9515    1014.4345    -914.4891   -318.04657   -5427.7216 
 4677000    224.20356   -6402.2711   -5825.5211   -6402.2711            0     2380.713    23.379976    21.609125    21.774985    11001.176    2166.8757    1409.5662    3565.6973    270.22192   -147.65703    472.91206   -5443.5574 
 4678000    216.91905   -6407.3331    -5849.322   -6407.3331            0    2219.1232     23.52895    21.528243     21.78011    11032.431    1895.4902    1768.6164     2993.263     106.4528    148.81849    172.37685   -5492.2725 
 4679000    219.18357   -6422.5623   -5858.7259   -6422.5623            0     1275.752    23.381334     21.60004    21.887517    11054.022    2027.9958     608.9893    1190.2708   -573.89893     430.5211   -590.21255   -5653.0599 
 4680000    216.71545   -6409.4891   -5852.0018   -6409.4891            0    1563.4802    23.429015    21.468443    21.977484    11054.333    1576.7006    1738.6038    1375.1363   -659.93926    552.41856    329.92395   -5599.9436 
 4681000    215.88889   -6426.4738   -5871.1128   -6426.4738            0    2363.9916    23.375618    21.537169    21.873479    11012.086     3092.645    2455.3903    1543.9394   -37.907598    191.63766   -77.085953   -5491.4558 
 4682000    214.04527   -6391.0145   -5840.3961   -6391.0145            0     2809.344    23.396713    21.617805    21.745758    10998.691    3389.5862    1861.7096    3176.7362   -813.83451   -187.22336    269.08322   -5389.7643 
 4683000    209.64686   -6414.7216   -5875.4178   -6414.7216            0    2481.0989     23.57435    21.433572    21.759927    10994.911    1875.8774    1820.8613    3746.5581    78.054942   -661.97607    146.92622   -5477.5749 
 4684000    207.64233   -6409.8452    -5875.698   -6409.8452            0    1773.9539    23.353503    21.658558    21.833959    11043.687    1847.4233    1810.1139    1664.3245     618.7924    -856.5116   -655.21296   -5589.9835 
 4685000    227.49268   -6420.4545   -5835.2435   -6420.4545            0    1944.7679    23.510994    21.402509    21.929438    11034.767    2553.1272    936.24071    2344.9357    -1209.505   -426.24829    1331.6506   -5522.2705 
 4686000    216.67964   -6393.0707   -5835.6756   -6393.0707            0    1080.0684    23.333102    21.671982    21.920591    11084.685   -220.12227    1763.2676    1697.0598    219.04479    834.97534    1327.7136    -5661.073 
 4687000    214.85647   -6444.8011    -5892.096   -6444.8011            0    1307.2703    23.468967    21.521131    21.895364    11058.882    1259.0819    1353.3141    1309.4147   -198.96498    607.36018   -230.68185   -5681.2562 
 4688000    219.65473   -6398.7941   -5833.7457   -6398.7941            0    2352.3958    23.359472    21.542419    21.872644    11006.742    3811.1004    1393.8474    1852.2396   -755.22649    196.30094   -468.01665   -5456.1343 
 4689000    209.10552   -6439.2747   -5901.3635   -6439.2747            0    1869.4431    23.330033    21.513687    22.000323    11042.293    2950.1089    1950.3579    707.86263   -689.98225   -548.48122   -363.84608   -5600.3074 
 4690000     227.6864   -6388.5125   -5802.8031   -6388.5125            0    1946.7914    23.496329    21.547938    21.814381    11044.565    1904.4062    707.13522    3228.8327    -452.9048   -546.27042     1152.211   -5489.2263 
 4691000    220.49888   -6402.3312   -5835.1113   -6402.3312            0    1503.1944     23.47199    21.649441    21.717512    11035.873    1304.7211    832.01534    2372.8467    492.72573   -425.00484    556.52176   -5593.1768 
 4692000    211.78678   -6392.3174   -5847.5088   -6392.3174            0    1992.6674    23.547864    21.494846    21.795297    11031.858    2272.6261     1703.258     2002.118    1002.3669   -858.24778   -774.41081   -5526.9119 
 4693000    211.93204   -6413.9158   -5868.7335   -6413.9158            0    2067.2327    23.270547    21.539134    22.009404    11031.717    2957.6658    2246.7255    997.30693     1259.732   -73.786912   -42.745651   -5536.1441 
 4694000    210.06485   -6394.9162   -5854.5372   -6394.9162            0    1577.3734    23.421706    21.462284    22.026365    11072.286    1889.2221      1280.38    1562.5181    -8.853305    -437.0632    1023.7529   -5599.8262 
 4695000    215.76994   -6396.5518   -5841.4968   -6396.5518            0    1270.6805    23.420808    21.617317    21.807018    11040.784    926.39748    1587.6071    1298.0371   -107.68081   -1722.7446   -481.15398   -5636.8937 
 4696000    215.03367   -6417.0421   -5863.8811   -6417.0421            0     2574.273    23.586749    21.465321    21.646484    10959.553    502.52164     4052.479    3167.8184    217.30427    533.36113   -380.72082   -5452.4251 
 4697000    212.16062   -6399.4911   -5853.7209   -6399.4911            0    1873.2796    23.436932    21.568802    21.848597    11044.609    1917.8509    2235.5931    1466.3949    867.54405   -312.75167    31.174757   -5551.9837 
 4698000    219.24933   -6404.1377   -5840.1321   -6404.1377            0    2505.8814    23.334778    21.550698    21.920409    11023.352    2424.5107     2374.122    2719.0115    637.26567    229.45558   -175.19626   -5437.2759 
 4699000    218.77269   -6399.4889   -5836.7095   -6399.4889            0    1450.8263    23.474899    21.408023    22.037707    11075.076    1508.1006    2191.1948    653.18344    -348.1766   -172.48702    25.231869    -5602.374 
 4700000    208.86926   -6409.2275    -5871.924   -6409.2275            0    2125.3861    23.321304    21.700951    21.778296    11021.875    1980.1921    1800.5761    2595.3901   -254.58749   -345.44357       205.25   -5530.2837 
 4701000    225.58258   -6422.5816   -5842.2842   -6422.5816            0    2920.3235    23.521789    21.418802    21.793073    10979.536    1823.7443    4067.3457    2869.8806   -301.72315    357.73941     397.1582   -5374.6666 
 4702000    220.52718   -6422.5384   -5855.2457   -6422.5384            0    3138.6081    23.387106     21.59758    21.685763    10953.585    1903.5919    3559.2307    3953.0017    752.85168   -764.96014    14.367203   -5353.8631 
 4703000    207.79537   -6435.8232   -5901.2823   -6435.8232            0    1938.2109    23.546269    21.427875    21.793995    10996.084    1130.7459    1971.9904    2711.8964    -468.1227    605.69876    229.83868    -5590.458 
 4704000    218.76396   -6429.2437   -5866.4868   -6429.2437            0    2468.5414    23.322491    21.634494    21.822322    11010.895    3757.1787     1729.913    1918.5325    41.042858   -370.02155   -1499.7858   -5470.0819 
 4705000    215.77682   -6431.4118   -5876.3391   -6431.4118            0    2730.3272    23.519938    21.291358    21.921492    10977.657    1879.4281    3120.6521    3190.9015    257.25251   -449.18721    812.44039   -5439.2195 
 4706000    206.98755   -6421.2069   -5888.7441   -6421.2069            0    1608.3659    23.237189    21.811596    21.803243     11050.76    2153.2434   -127.72363    2799.5778   -675.81486   -584.90279    660.89107   -5629.5334 
 4707000    214.94508   -6431.7554   -5878.8223   -6431.7554            0    3171.3234    23.625205    21.298832    21.785625    10962.293    2316.9724    3595.0957    3601.9022    618.70813   -491.09852    292.52191   -5371.8108 
 4708000    217.10222   -6411.9139   -5853.4316   -6411.9139            0    1837.4353    23.282651    21.644088    21.841024    11006.386    2234.5541    1745.2161    1532.5358    233.96795    546.85524   -53.850258   -5558.4923 
 4709000    234.63777   -6450.0647   -5846.4733   -6450.0647            0    2090.5912    23.521054     21.29619    21.967751     11003.84    1256.9722     3705.882    1308.9193   -298.81219    81.706024   -703.81811   -5510.9758 
 4710000    209.49699   -6401.4805   -5862.5623   -6401.4805            0    1428.6301    23.094476    21.854108    21.882273    11044.184    2762.4103    -297.9691    1821.4492     -231.631   -35.634261    1043.5424   -5632.4556 
 4711000    209.91378   -6383.6614    -5843.671   -6383.6614            0    1890.6185    23.574084    21.431731    21.833992    11031.262     2113.235    2057.3621    1501.2583   -39.123037   -772.05347   -792.03504    -5539.509 
 4712000    214.51437   -6431.8885   -5880.0633   -6431.8885            0    2439.1734    23.412338    21.577309    21.743243    10984.148    1609.0134    2549.0728    3159.4339    363.68821   -301.71743    -338.7657    -5489.326 
 4713000    213.93458   -6414.9902   -5864.6566   -6414.9902            0    2476.1105    23.400067     21.48598    21.800726    10960.825    1364.7602    3322.5947    2740.9766   -429.77544    163.78265     198.7413   -5468.8444 
 4714000    219.17676    -6419.304   -5855.4851    -6419.304            0    2862.2255    23.357532    21.477757    21.876912    10974.933    2342.8139    4055.8067    2188.0558   -310.36795    850.60221    295.75841   -5397.3626 
 4715000    208.93612   -6429.8169   -5892.3415   -6429.8169            0    2759.6375    23.287671    21.520074    21.914856    10982.682    3909.9404    2227.2501    2141.7219   -3.7054296   -35.933441   -1023.3887   -5450.3271 
 4716000    206.30328   -6390.7637   -5860.0611   -6390.7637            0    4062.7715    23.356953    21.386113    21.877934    10928.344    3378.4193    4816.9896    3992.9056   -375.83891    8.8580319   -1158.5228   -5212.5419 
 4717000    221.86827   -6428.9799   -5858.2373   -6428.9799            0    3304.4819    23.368498     21.44218    21.821785    10934.276    1817.0136    5113.8308    2982.6014    253.41512    1721.9682   -339.04169   -5331.2875 
 4718000    217.61125   -6392.6948   -5832.9031   -6392.6948            0    2812.5942    23.415088     21.51655    21.814916    10990.615    3994.3707    2290.0067    2153.4054   -944.59379    192.16559    491.65369   -5382.0813 
 4719000    216.98929   -6419.3633   -5861.1715   -6419.3633            0    2809.9744    23.415699    21.584109    21.734846    10984.943    1967.8544    3497.7253    2964.3434   -262.79887   -821.16669   -936.09706    -5411.002 
 4720000    213.16808   -6448.4691   -5900.1072   -6448.4691            0    1773.1536    23.521909    21.336446    21.957056    11019.674    867.53157    3017.0276    1434.9016     358.8774    176.02772    296.10131   -5615.1426 
 4721000    207.35185   -6407.3536   -5873.9536   -6407.3536            0    2587.0136    23.351343    21.591178    21.820428    11001.489    3138.2416    1663.0913    2959.7079   -280.81303    172.49553   -763.87096   -5458.8791 
 4722000    208.90915   -6414.2345   -5876.8284   -6414.2345            0    2305.0456    23.528486    21.479811    21.765726    11000.124    928.83875    3095.2582    2891.0398    239.92546   -583.15326   -771.98096   -5507.0403 
 4723000    217.39012   -6436.3287   -5877.1059   -6436.3287            0    2497.6426    23.419802    21.636062    21.708526    10999.977    1964.2103      2686.08    2842.6376   -664.31762   -149.22744   -181.60381   -5476.4256 
 4724000    229.42197   -6419.6949   -5829.5208   -6419.6949            0    2191.5997     23.38996    21.395454    21.979807    10999.548    2419.4937    2255.4492    1899.8563    926.81935   -422.38389    987.64199   -5477.9507 
 4725000      214.118   -6425.0187   -5874.2132   -6425.0187            0    2424.6239    23.229089    21.532695    22.014578     11011.36    3363.7806    2102.3863    1807.7047    405.24023    125.96769   -18.387726   -5484.8443 
 4726000     214.8629    -6414.378   -5861.6563    -6414.378            0    2711.3933    23.498467    21.403504    21.871309    11000.165    3202.0129    3323.9056    1608.2613   -794.21131   -585.83424   -2047.2707    -5426.678 
 4727000    218.70106   -6374.8738   -5812.2787   -6374.8738            0    1940.1027    23.365746    21.563389    21.912335    11040.413    2264.9757     1876.765    1678.5674    338.21536    522.07257    333.21254   -5499.8967 
 4728000    214.84213   -6373.4884   -5820.8202   -6373.4884            0    2969.6661    23.506668    21.510115    21.777309    11011.285      2266.61     2694.295    3948.0933   -453.06284   -484.82436    798.15973   -5343.9265 
 4729000    221.96924   -6418.4228   -5847.4205   -6418.4228            0    2375.4399    23.468151    21.540143     21.77518    11007.514    2786.9315    2393.1695    1946.2186   -1645.8116    195.82911    357.53112   -5466.0833 
 4730000    223.12222   -6398.7609   -5824.7926   -6398.7609            0    1794.3997    23.393058    21.607548    21.855338    11047.144    1174.1596    1158.4284    3050.6112    79.344753    645.02003    1012.8248   -5535.6946 
 4731000    215.14835   -6385.3952   -5831.9392   -6385.3952            0    1650.9976    23.402335    21.400282    22.078778    11057.418    3540.9552    1066.1767    345.86099   -485.50729   -748.68609    315.57933   -5565.6975 
 4732000    218.54649   -6411.2183   -5849.0208   -6411.2183            0    2272.5077    23.339117    21.540421    21.908517    11014.165     2753.525    1913.1585    2150.8395    1108.6115   -402.09503    491.92708   -5483.9872 
 4733000    218.35192   -6437.8871   -5876.1901   -6437.8871            0    3230.9066    23.461766    21.485336    21.724502    10950.972    2610.3162       3199.4    3883.0036    215.48538   -627.05284   -786.31312   -5360.1862 
 4734000     212.5606   -6402.5838   -5855.7847   -6402.5838            0    4466.5059    23.409422     21.54343    21.665507    10926.332    4005.8653    3029.3524    6364.3001    147.05198   -932.37227    366.16704   -5144.0498 
 4735000    220.73828   -6431.6095   -5863.7738   -6431.6095            0     4273.564    23.241683    21.458493    21.923424    10933.902    4303.5423    4105.4147    4411.7349    -733.0216   -626.73043    996.53964   -5182.3123 
 4736000    217.90855   -6422.1856   -5861.6292   -6422.1856            0    2454.9399    23.329213     21.53567    21.898536    11002.049    2265.8282    2532.6914    2566.3001   -386.82772    393.18485   -479.10045   -5467.7252 
 4737000    215.84003   -6427.6419   -5872.4066   -6427.6419            0    1862.2131    23.339233    21.515906    21.946611    11020.814    1344.9008    2086.7605    2154.9779   -489.14461    302.34715   -509.13918   -5573.0981 
 4738000    230.22894   -6418.6517   -5826.4018   -6418.6517            0      2756.12    23.404177    21.485868    21.802444    10963.557    2398.9804    3174.3074    2695.0722   -232.81297    141.93168    824.89644   -5385.7196 
 4739000    210.97167   -6410.5649   -5867.8531   -6410.5649            0    1536.1781    23.463674    21.525271    21.840784    11030.949    1774.0265    1680.8777    1153.6302   -634.44888    323.89315     275.5649   -5620.7203 
 4740000     225.8445   -6423.6015   -5842.6303   -6423.6015            0    1019.1345    23.402341    21.636546    21.892099    11084.973    1609.2246    528.68102    919.49772   -1237.8116    1028.7339   -549.19203    -5677.874 
 4741000    217.82886   -6436.6073   -5876.2559   -6436.6073            0    2774.8478     23.35837    21.409553    21.950362    10977.206    3053.3001    3773.6755    1497.5679   -225.51531   -754.82913   -877.01616   -5432.0269 
 4742000    214.82032   -6420.4235   -5867.8113   -6420.4235            0    2536.4174    23.333415    21.582921    21.816019    10986.618    2715.8044    2469.8075    2423.6401    1124.6474   -1397.4007    1004.7873   -5461.4048 
 4743000    214.16309   -6397.8111   -5846.8896   -6397.8111            0     3031.216    23.469887    21.449918    21.828584    10989.102    1662.4592    3413.9882    4017.2006    698.00538    329.35989    1557.5037   -5361.0925 
 4744000    212.57594   -6410.5433   -5863.7046   -6410.5433            0    2552.9645    23.438511    21.624924    21.735576    11016.808    1555.0416    2865.9172    3237.9349    1140.0875    475.58304   -701.15259   -5453.5228 
 4745000      220.688   -6380.3798   -5812.6734   -6380.3798            0    2568.0816    23.509197    21.613645    21.729221    11041.039    1879.7423    1532.1376     4292.365    860.68734    147.26038    105.53911   -5399.1552 
 4746000    217.32037   -6434.3883   -5875.3449   -6434.3883            0    1732.1128     23.51633    21.524321    21.833595    11051.577    1349.7946    2439.8728    1406.6712   -1012.0196   -202.36818   -1110.6378     -5596.17 
 4747000    213.44984   -6406.2043   -5857.1176   -6406.2043            0    1781.1991     23.32905    21.592708    21.966841    11065.519    1607.1303    2145.0344    1591.4325    497.47819    56.396113    1343.5494   -5569.6691 
 4748000    217.36308   -6409.5806   -5850.4273   -6409.5806            0    1609.4263    23.495444     21.49156     21.91283    11064.965    1974.9346    2103.4382    749.90605    20.022011    95.910038    82.826228   -5590.7123 
 4749000    209.94039   -6407.0229   -5866.9641   -6407.0229            0     2008.918    23.367679    21.657797    21.807035    11036.376    1646.6332    3045.4563    1334.6646    343.30704    905.06664   -1108.5257   -5543.6202 
 4750000     229.2792   -6396.2574   -5806.4506   -6396.2574            0    1383.4292    23.602971    21.424996    21.932833    11091.293    2268.7922    1079.4864    802.00891    -887.1539    -378.2039   -116.45296   -5582.6739 
Loop time of 473.8 on 64 procs for 250000 steps with 1296 atoms

Performance: 91.178 ns/day, 0.263 hours/ns, 527.649 timesteps/s
196.4% CPU use with 32 MPI tasks x 2 OpenMP threads

MPI task timing breakdown:
Section |  min time  |  avg time  |  max time  |%varavg| %total
---------------------------------------------------------------
Pair    | 36.93      | 46.513     | 56.179     |  77.3 |  9.82
Bond    | 0.6302     | 0.93091    | 1.0662     |  11.1 |  0.20
Kspace  | 235.15     | 245.94     | 255.67     |  33.2 | 51.91
Neigh   | 2.8142     | 2.9963     | 3.2722     |   7.6 |  0.63
Comm    | 65.142     | 69.833     | 73.493     |  28.1 | 14.74
Output  | 0.56193    | 0.56227    | 0.56381    |   0.0 |  0.12
Modify  | 92.812     | 95.791     | 97.358     |   9.3 | 20.22
Other   |            | 11.23      |            |       |  2.37

Nlocal:        40.5000 ave          50 max          31 min
Histogram: 1 3 2 5 7 2 4 5 1 2
Nghost:        3008.28 ave        3041 max        2963 min
Histogram: 1 2 0 3 5 7 1 6 5 2
Neighs:        12586.8 ave       15556 max        9564 min
Histogram: 1 3 2 5 7 2 4 5 1 2

Total # of neighbors = 402779
Ave neighs/atom = 310.78627
Ave special neighs/atom = 2.0000000
Neighbor list builds = 7098
Dangerous builds = 0

unfix		3
unfix		2
unfix		1

write_data	data.final.${pid}
write_data	data.final.0
System init for write_data ...
PPPM initialization ...
  extracting TIP4P info from pair style
  using 12-bit tables for long-range coulomb (../kspace.cpp:340)
  G vector (1/distance) = 0.36676484
  grid = 30 40 32
  stencil order = 5
  estimated absolute RMS force accuracy = 0.0046059798
  estimated relative force accuracy = 1.3870771e-05
  using double precision FFTW3
  3d grid and FFT values/proc = 7752 1200
Last active /omp style is kspace_style pppm/tip4p/omp
WARNING: Not all mixed pair coeffs generated from mixing. Use write_data with 'pair ij' option to store all pair coeffs. (../write_data.cpp:312)

write_restart   restart.lmp.${pid}
write_restart   restart.lmp.0
System init for write_restart ...
PPPM initialization ...
  extracting TIP4P info from pair style
  using 12-bit tables for long-range coulomb (../kspace.cpp:340)
  G vector (1/distance) = 0.36676484
  grid = 30 40 32
  stencil order = 5
  estimated absolute RMS force accuracy = 0.0046059798
  estimated relative force accuracy = 1.3870771e-05
  using double precision FFTW3
  3d grid and FFT values/proc = 7752 1200
Last active /omp style is kspace_style pppm/tip4p/omp
Total wall time: 0:07:53
