LAMMPS (30 Jul 2021)
Processor partition = 1
  using 2 OpenMP thread(s) per MPI task
using multi-threaded neighbor list subroutines
variable        pid world 0 1
variable        phase world IceIII Liquid

shell cd ${phase}
shell cd Liquid
include Restart.lmp
echo both
log log.lammps
#include		in.partitions
include		in.temp
variable        temperature equal 257.61
variable	tempDamp equal 100.0
include		in.pressure
variable        pressure equal 9500.0
variable        pressureDamp equal 1000.0 # This is 1 ps
include		in.seed
variable        seed equal 745823

units		real
atom_style	full
read_restart	restart.lmp.${pid}
read_restart	restart.lmp.1
Reading restart file ...
  restart file = 30 Jul 2021, LAMMPS = 30 Jul 2021
  restoring atom style full from restart
  orthogonal box = (0.62413797 1.8266834 0.76144686) to (17.583434 21.802494 21.451749)
  2 by 4 by 4 MPI processor grid
  restoring pair style lj/cut/tip4p/long/omp from restart
  restoring bond style harmonic/omp from restart
  restoring angle style harmonic/omp from restart
  864 atoms
  576 bonds
  288 angles
Finding 1-2 1-3 1-4 neighbors ...
  special bond factors lj:    0        0        0       
  special bond factors coul:  0        0        0       
     2 = max # of 1-2 neighbors
     1 = max # of 1-3 neighbors
     1 = max # of 1-4 neighbors
     2 = max # of special neighbors
  special bonds CPU = 0.002 seconds
  read_restart CPU = 0.008 seconds
include 	in.setup
variable	out_freq equal 1000
variable	out_freq2 equal 10000
variable	out_freq3 equal 1000

timestep	2.0

neigh_modify    delay 7 every 1

include		in.tip4p
# This is TIP4P/Ice

# create groups ###
group ox type 2
288 atoms in group ox
group hy type 1
576 atoms in group hy

# set charges - beside manually ###
set group ox charge -1.1794
Setting atom values ...
  288 settings made for charge
set group hy charge 0.5897
Setting atom values ...
  576 settings made for charge

# ### TIP3P Potential Parameters ###
pair_style lj/cut/tip4p/long/omp 2 1 1 1 0.1577 8.5
pair_coeff 1 1*2 0.000 0.000
pair_coeff 2 2 0.21084 3.1668
bond_style  harmonic
bond_coeff  1 450 0.9572
angle_style harmonic
angle_coeff 1 55 104.52
kspace_style pppm/tip4p/omp 1.0e-5
pair_modify tail yes

thermo          ${out_freq}
thermo          1000
thermo_style    custom step temp pe etotal epair emol press lx ly lz vol pxx pyy pzz pxy pxz pyz enthalpy

restart 	${out_freq3} restart.lmp.${pid} restart2.lmp.${pid}
restart 	1000 restart.lmp.${pid} restart2.lmp.${pid}
restart 	1000 restart.lmp.1 restart2.lmp.${pid}
restart 	1000 restart.lmp.1 restart2.lmp.1


include         in.dump
dump            myDump all atom ${out_freq2} dump.water.${pid}
dump            myDump all atom 10000 dump.water.${pid}
dump            myDump all atom 10000 dump.water.1
dump            myDump2 all dcd ${out_freq2} dump.dcd
dump            myDump2 all dcd 10000 dump.dcd
dump_modify     myDump append yes
dump_modify     myDump2 append yes


variable natoms 	equal  "count(all)"                        # NUMBER ATOMS
variable H      	equal  "enthalpy/v_natoms"                 # ENTHALPY-per-atom
variable Vol      	equal  "vol/v_natoms"                 # volume-per-atom
fix AVG all 		ave/time ${out_freq} 1 ${out_freq} v_Vol v_H file vol_enthalpy.dat
fix AVG all 		ave/time 1000 1 ${out_freq} v_Vol v_H file vol_enthalpy.dat
fix AVG all 		ave/time 1000 1 1000 v_Vol v_H file vol_enthalpy.dat


timer           timeout 23:50:00 every 1000
New timer settings: style=normal  mode=nosync  timeout=23:50:00

fix 		1 all shake 1e-6 200 0 b 1 a 1
Finding SHAKE clusters ...
       0 = # of size 2 clusters
       0 = # of size 3 clusters
       0 = # of size 4 clusters
     288 = # of frozen angles
  find clusters CPU = 0.001 seconds
fix             2 all nph iso ${pressure} ${pressure} ${pressureDamp}
fix             2 all nph iso 9500 ${pressure} ${pressureDamp}
fix             2 all nph iso 9500 9500 ${pressureDamp}
fix             2 all nph iso 9500 9500 1000
fix             3 all temp/csvr ${temperature} ${temperature} ${tempDamp} ${seed}
fix             3 all temp/csvr 257.61 ${temperature} ${tempDamp} ${seed}
fix             3 all temp/csvr 257.61 257.61 ${tempDamp} ${seed}
fix             3 all temp/csvr 257.61 257.61 100 ${seed}
fix             3 all temp/csvr 257.61 257.61 100 745823

run             250000
PPPM initialization ...
  extracting TIP4P info from pair style
  using 12-bit tables for long-range coulomb (../kspace.cpp:340)
  G vector (1/distance) = 0.37433784
  grid = 24 24 24
  stencil order = 5
  estimated absolute RMS force accuracy = 0.003152315
  estimated relative force accuracy = 9.4931031e-06
  using double precision FFTW3
  3d grid and FFT values/proc = 3549 432
Last active /omp style is kspace_style pppm/tip4p/omp
Neighbor list info ...
  update every 1 steps, delay 7 steps, check yes
  max neighbors/atom: 2000, page size: 100000
  master list distance cutoff = 10.8154
  ghost atom cutoff = 10.8154
  binsize = 5.4077, bins = 4 4 4
  1 neighbor lists, perpetual/occasional/extra = 1 0 0
  (1) pair lj/cut/tip4p/long/omp, perpetual
      attributes: half, newton on, omp
      pair build: half/bin/newton/omp
      stencil: half/bin/3d
      bin: standard
Setting up Verlet run ...
  Unit style    : real
  Current step  : 30000000
  Time step     : 2
  Walltime left : 23:49:59.94
Per MPI rank memory allocation (min/avg/max) = 10.20 | 10.20 | 10.20 Mbytes
Step Temp PotEng TotEng E_pair E_mol Press Lx Ly Lz Volume Pxx Pyy Pzz Pxy Pxz Pyz Enthalpy 
30000000    271.08368   -3879.9503   -3415.3222   -3879.9503            0    7692.9969    16.959296    19.975811    20.690302    7009.3716    7092.8398    8639.5085    7346.6424   -217.01514    451.03611    306.83557   -2628.9095 
30001000    275.95498   -3920.7144    -3447.737   -3920.7144            0    10744.867    16.882952    19.885888    20.597162    6915.1365    9720.8387    11074.065    11439.697    198.51197    2123.3218     -1606.05   -2364.1153 
30002000    250.43218   -3879.8019   -3450.5697   -3879.8019            0    6543.3963    16.981394    20.001839    20.717261    7036.8062    7189.0881    6525.8565    5915.2443   -322.56244   -104.12268   -146.52009   -2779.0563 
30003000    258.67674   -3901.3452   -3457.9821   -3901.3452            0    8789.2882    16.901598     19.90785     20.61991    6938.0733    7824.9071    9730.4802    8812.4774   -479.45882   -1126.1141   -661.87318   -2568.6408 
30004000    244.58108   -3904.7046    -3485.501   -3904.7046            0    7895.4194    16.872242    19.873273    20.584096    6901.9846    8179.5505    8165.0422    7341.6655    241.26349    248.15084     376.1022    -2690.761 
30005000    254.96196   -3862.8317   -3425.8357   -3862.8317            0     9450.345    16.924213    19.934487      20.6475    6965.9604     10539.11    9242.6558    8569.2696   -1514.9204   -415.40354    1725.4901    -2465.762 
30006000     268.2865   -3874.3367   -3414.5028   -3874.3367            0    10449.863    16.842165    19.837846    20.547402    6865.1395    11538.872     8481.244    11329.473    341.10119   -1151.9858   -280.39983   -2368.2519 
30007000    264.01561   -3884.2144   -3431.7006   -3884.2144            0    11134.831    16.892846    19.897541    20.609232    6927.3006    11880.432    10480.606    11043.456   -1026.5754    1853.4138    813.19529   -2306.7757 
30008000    270.41476   -3913.4186    -3449.937   -3913.4186            0    9045.9728     16.92291    19.932953    20.645911    6964.3528    8233.7239    8901.6883    10002.506   -678.15674    314.98437   -518.17798   -2531.1561 
30009000    279.02908    -3894.007   -3415.7607    -3894.007            0    11040.457    16.920732    19.930387    20.643254    6961.6637    10830.495    12455.888     9834.987   -425.97717     112.8174    -1504.121   -2294.8372 
30010000    254.35316   -3859.2039   -3423.2513   -3859.2039            0    8446.2473    16.921289    19.931044    20.643933    6962.3515    8674.4822    7879.7406    8784.5189   -1065.7037    797.58272   -721.29256   -2565.6299 
30011000    263.74405   -3883.6342    -3431.586   -3883.6342            0    9822.4184    16.894719    19.899748    20.611518    6929.6058     10117.75    9824.5456    9524.9597   -1389.1111    1530.9783   -403.34942   -2438.9206 
30012000    257.96217    -3860.548   -3418.4097    -3860.548            0    7942.9653    16.984439    20.005425    20.720976    7040.5923    7031.2524    7048.6672    9748.9762   -373.05885    822.53128   -181.04954   -2602.8275 
30013000    263.12268   -3879.9996   -3429.0163   -3879.9996            0    10400.417    16.931368    19.942916     20.65623    6974.8001    8522.2938    9991.5744    12687.383   -741.60443   -377.66672    385.70637   -2371.0827 
30014000    251.23222   -3887.4188   -3456.8154   -3887.4188            0    10945.753    16.913494    19.921862    20.634423    6952.7337    10311.762    12626.645    9898.8524    -799.3717   -1095.7486   -386.88268   -2346.9325 
30015000    255.68899   -3880.5894   -3442.3472   -3880.5894            0    9611.9025    16.929347    19.940535    20.653764    6972.3025    10068.447    9949.9583    8817.3026    144.33811   -992.95017    379.50873   -2464.9717 
30016000    245.40535   -3861.2105   -3440.5941   -3861.2105            0    8631.9799     16.97037    19.988854    20.703811    7023.1103    9378.9103    9385.0428    7131.9866   -1601.4307    340.87596    52.992246   -2556.4648 
30017000    257.60184   -3858.2323   -3416.7116   -3858.2323            0    8808.2145     16.91542     19.92413    20.636773    6955.1089     9009.452    8818.9451    8596.2463   -1170.2956   -559.64347   -596.68652   -2523.2668 
30018000    250.39151   -3893.0454   -3463.8829   -3893.0454            0    9174.1471    16.876508    19.878297      20.5893    6907.2209    9546.3249    9229.9742    8746.1422    1066.3034    1380.0688   -939.41051   -2539.7277 
30019000    250.77636   -3856.1901    -3426.368   -3856.1901            0    9034.7117    16.908085     19.91549    20.627824    6946.0648    9478.7978    9089.7971    8535.5402    1269.3267   -334.86361    291.55065   -2511.1406 
30020000    251.49585   -3906.2398   -3475.1845   -3906.2398            0    9784.7992    16.901818    19.908109    20.620179    6938.3448    8329.9691    11657.747     9366.681    46.121618   -787.37702    2537.5119    -2485.074 
30021000    249.14524    -3892.477   -3465.4506    -3892.477            0    8710.2746    16.931697    19.943303    20.656631    6975.2067    7663.6891    9194.4635    9272.6713    559.12076    1402.4292   -646.14991   -2579.3871 
30022000    262.82119    -3855.628   -3405.1615    -3855.628            0    8745.3962    16.854417    19.852277     20.56235    6880.1329    9613.5429     8312.724    8309.9216    1177.8851   -626.49456   -166.10595   -2527.6512 
30023000    240.83513   -3876.0778   -3463.2947   -3876.0778            0    11462.017      16.8066    19.795955    20.504013    6821.7405     11994.43    11138.534    11253.086   -1905.7983    220.90654   -1334.9062   -2322.9605 
30024000    275.64629   -3857.7321   -3385.2838   -3857.7321            0    8209.7013    16.876694    19.878516    20.589527    6907.4493    8058.2884    9139.8999    7430.9157   -1261.0386   -879.54619   -172.84656   -2558.2544 
30025000    261.36585   -3872.3596   -3424.3875   -3872.3596            0    7127.4251    16.964584    19.982039    20.696752    7015.9293    8138.8354     7146.305    6097.1348   -24.295371    147.53439    13.070338   -2695.1084 
30026000    264.74038   -3859.8911   -3406.1351   -3859.8911            0    8131.9368    16.980898    20.001254    20.716655    7036.1893    7222.0022    9179.9064    7993.9017    522.99042    2060.3127     1243.402   -2571.6715 
30027000    260.07666    -3862.273   -3416.5105    -3862.273            0    9453.5738    16.972757    19.991666    20.706724    7026.0754    9823.2442    11109.566    7427.9117    1118.4041   -1005.3615   -1034.9366   -2447.8207 
30028000    258.58346    -3914.454   -3471.2508    -3914.454            0    7574.9665     16.98922    20.011057    20.726809    7046.5401    7547.5642    6961.6298    8215.7054   -322.13962   -913.84779    1585.1627   -2692.7975 
30029000     256.2636   -3898.8401   -3459.6131   -3898.8401            0    11824.012    16.887107    19.890782    20.602231    6920.2436    12763.638    12780.239    9928.1586   -739.78656    1356.8776   -27.028162   -2266.2788 
30030000    265.77918   -3860.7786   -3405.2422   -3860.7786            0     10965.29    16.924415    19.934725    20.647747    6966.2104    10232.945    12834.988    9827.9378    1310.1796   -553.23085    191.81115   -2291.2232 
30031000    267.62374   -3847.6783   -3388.9804   -3847.6783            0    8930.4188    16.917682    19.926795    20.639532    6957.8994    8383.6354    8106.5131    10301.108   -56.423345    24.717912   -20.894214   -2482.7766 
30032000    262.21243   -3870.7687   -3421.3456   -3870.7687            0    10156.891    16.899782    19.905711    20.617694    6935.8372    9606.7848     9198.924    11664.964   -1011.0972    -219.6652    558.93804    -2393.955 
30033000    252.16494   -3861.3708   -3429.1687   -3861.3708            0    9284.7618    16.897372    19.902872    20.614754    6932.8702    8607.5049    9849.2973    9397.4832   -1259.8788    2451.8408     2054.818   -2490.3976 
30034000     256.9599   -3916.8923   -3476.4718   -3916.8923            0    9273.2812    16.910306    19.918106    20.630533    6948.8024    10353.509     9536.819    7929.5152   -220.62943   -1156.4895    518.82902   -2536.7068 
30035000    252.74264   -3907.6965   -3474.5042   -3907.6965            0    10096.389    16.860078    19.858945    20.569256    6887.0676    10620.719    8953.1966    10715.252   -414.56069    126.70861   -215.52225   -2460.4147 
30036000    249.50738   -3912.1284   -3484.4813   -3912.1284            0    8246.2516    16.926034    19.936632    20.649722    6968.2095    6613.3391    9733.3322    8392.0836    76.436013   -745.82221   -95.512368   -2646.4626 
30037000    264.22189   -3883.0629   -3430.1956   -3883.0629            0    9190.9146    16.881566    19.884254    20.595471    6913.4329    9466.6909    9914.4619    8191.5911    1506.6595   -1476.0831    1595.0031   -2503.5186 
30038000    262.49873   -3886.7393   -3436.8254   -3886.7393            0    9236.0661    16.889589    19.893705    20.605259    6923.2946    8093.0638    9916.6553    9698.4791   -873.99281    551.87724   -696.35646   -2504.2677 
30039000    268.52734   -3889.7581   -3429.5114   -3889.7581            0    9016.4716    16.894066    19.898978    20.610721    6928.8015    9503.0863    10751.745    6794.5833    39.915721    1743.4287    216.81126   -2518.4018 
30040000     255.0478   -3905.6209   -3468.4777   -3905.6209            0    9490.6215     16.90877    19.916297    20.628659    6946.9091    8518.4668    11940.763    8012.6351    724.13683    1898.9834   -1997.6725   -2506.9492 
30041000    253.72589   -3909.9443   -3475.0668   -3909.9443            0    9894.0108    16.960859    19.977651    20.692208    7011.3091    9808.2482    9487.2007    10386.584   -403.77699    366.97778   -1042.8581    -2463.377 
30042000    260.82283   -3927.4579   -3480.4165   -3927.4579            0    10025.524    16.915343     19.92404    20.636679    6955.0141    12497.624    9843.5947    7735.3523    143.77894    1412.8974   -181.58951   -2463.5101 
30043000    260.82776   -3890.8723   -3443.8224   -3890.8723            0    8325.8801    16.925316    19.935787    20.648846    6967.3231    8592.0851    7777.9864    8607.5689    603.43914    1288.8919    2858.0965   -2597.8192 
30044000    270.36085   -3897.3146   -3433.9253   -3897.3146            0    9546.5102    16.905939    19.912963    20.625206     6943.421    10714.219    9002.1658    8923.1461    680.53242   -705.66822   -612.63476   -2467.2202 
30045000     244.8146   -3903.3758    -3483.772   -3903.3758            0    9340.6208    16.900922    19.907054    20.619086    6937.2415    8756.9615    9881.3071    9383.5939   -181.89847    -1067.544   -600.18211   -2538.7575 
30046000    277.16975   -3896.6593   -3421.5998   -3896.6593            0    8944.7387    16.926372    19.937031    20.650135    6968.6277    9283.8779    7740.8416    9809.4965    1779.1118   -985.57379    1826.3422   -2512.5435 
30047000    250.55001   -3882.8095   -3453.3753   -3882.8095            0    8010.0318    16.934758    19.946908    20.660365    6978.9896    8616.5512    7471.4845    7942.0596   -2242.6324   -865.02082   -457.27613    -2638.103 
30048000    252.53327   -3858.0198   -3425.1865   -3858.0198            0    9303.5503    16.909424    19.917068    20.629458    6947.7154    9691.1693    9870.3886     8349.093    655.92714    1423.7076    155.55396   -2482.5014 
30049000    259.77228   -3857.3945   -3412.1537   -3857.3945            0     9075.322    16.905358    19.912279    20.624497    6942.7048    10337.678    7230.2444    9658.0438    364.11443   -618.12374   -40.980655   -2493.2571 
30050000    259.20351   -3861.9673   -3417.7013   -3861.9673            0    9265.6695    16.816778    19.807943    20.516429     6834.141    9377.9882    8465.2541    9953.7662   -486.37743   -290.98471   -148.65224   -2494.2019 
30051000    260.55184   -3853.1415   -3406.5645   -3853.1415            0    9479.2907    16.850322    19.847453    20.557353    6875.1185    9389.4783    9719.0182    9329.3755    72.970796    307.20444    336.82965   -2456.1087 
30052000    262.22049   -3890.8385   -3441.4016   -3890.8385            0    8107.2777    16.883249    19.886237    20.597525    6915.5015    6817.7125    10260.041    7244.0795    866.11544    313.25549   -631.20766   -2623.7381 
30053000    253.66616   -3885.5431    -3450.768   -3885.5431            0    10096.692    16.877809     19.87983    20.590888    6908.8187    10943.766    9647.5343     9698.775   -163.82196   -1074.8358   -82.125786   -2433.4452 
30054000    258.62585   -3860.9006   -3417.6247   -3860.9006            0    8253.2441    16.868836    19.869261    20.579941    6897.8057    9680.6019    7436.1408    7642.9897     1872.529   -1074.1259   -20.200926   -2587.3697 
30055000    257.72905    -3886.413   -3444.6743    -3886.413            0    9344.7583    16.868922    19.869362    20.580045    6897.9109    10460.921    9301.8937    8271.4604    473.09758    132.36474   -557.32325   -2504.6013 
30056000    262.76616   -3865.4971   -3415.1249   -3865.4971            0    10478.763     16.88623    19.889748    20.601161    6919.1648    11104.394    8336.7793    11995.114    748.98671    367.99265    557.99287   -2357.7243 
30057000     258.4112   -3889.5331   -3446.6252   -3889.5331            0    9231.5832    16.961867    19.978839    20.693438    7012.5593    9640.7872    6887.9058    11166.056   -44.862637    191.95265   -1987.5137   -2502.5021 
30058000    263.77147   -3893.3042   -3441.2089   -3893.3042            0    7315.0783    16.943206    19.956859    20.670672    6989.4401    6225.3041    8062.3306    7657.6001   -1026.2963   -102.88502   -1681.1103   -2695.5551 
30059000    270.34166   -3877.7431   -3414.3867   -3877.7431            0    9704.9633    16.857121    19.855462    20.565648    6883.4445    8956.8937     10306.76    9851.2363    628.44443   -814.07201   -389.02635   -2440.1251 
30060000    248.41083   -3901.9326   -3476.1649   -3901.9326            0    7231.4781    16.878083    19.880152    20.591221    6909.1546    5960.1039    6892.5103    8841.8201    783.10294   -1448.0538    -881.4739      -2747.5 
30061000    245.95865    -3877.182   -3455.6173    -3877.182            0    7330.5546     16.94005    19.953141    20.666821    6985.5347    5728.5781    9652.1443    6610.9415    196.24808    1295.7597    773.43984   -2708.8034 
30062000    262.49393    -3884.336   -3434.4304    -3884.336            0    9280.3542    16.925599     19.93612    20.649191    6967.6724    8783.9271    9935.2259    9121.9097    1557.9989    678.83184   -353.30204   -2491.3947 
30063000    268.64474   -3878.5397   -3418.0918   -3878.5397            0    9604.5952    16.898146    19.903784    20.615699    6933.8234    9525.5613    11192.853    8095.3708   -393.12655    373.83131   -567.62856   -2446.8492 
30064000     251.5082   -3894.0571   -3462.9807   -3894.0571            0    8439.3767    16.925339    19.935814    20.648874    6967.3517    7517.6804    9414.5409    8385.9088   -1164.4657   -1895.8864   -1712.0585   -2605.4415 
30065000    244.99394   -3892.3262    -3472.415   -3892.3262            0    10886.802    16.842166    19.837847    20.547403    6865.1403    9486.5621    12905.283    10268.561   -1042.8033   -1093.0346    1938.2295   -2382.4172 
30066000    259.43964   -3866.1116   -3421.4409   -3866.1116            0    9082.2667     16.94341    19.957099    20.670921    6989.6923    7514.9808    8047.0151    11684.804   -601.96292    627.41275   -2164.3275   -2495.6174 
30067000    244.38501   -3889.2671   -3470.3996   -3889.2671            0     11184.19    16.907057     19.91428    20.626571    6944.7989    12375.116    9565.5931    11611.859   -761.09277   -154.07796   -921.22789   -2337.6339 
30068000    260.83683    -3888.626   -3441.5606    -3888.626            0    8522.9813    16.941146    19.954433    20.668159    6986.8911    6665.7218    8090.2526     10812.97   -698.97359    488.68946    -1330.839   -2573.0974 
30069000    247.13023   -3893.3773   -3469.8045   -3893.3773            0    9429.6253    16.859862    19.858691    20.568993    6886.8029    9419.5831    8923.4547    9945.8382   -424.36683    27.523567    456.32636   -2522.7217 
30070000    252.83275    -3878.037   -3444.6903    -3878.037            0    8095.1658    16.935074     19.94728    20.660751    6979.3805    7845.2325    6957.1992    9483.0657   -1637.7398    293.12368   -73.829941   -2620.7068 
30071000    255.90802   -3881.0522   -3442.4347   -3881.0522            0    10449.957     16.91219    19.920325    20.632832    6951.1251    10380.485    10976.957    9992.4293   -1091.7321    1578.9298   -134.89662     -2383.07 
30072000    289.47381   -3871.3018   -3375.1536   -3871.3018            0     9692.511    16.895615    19.900803    20.612611    6930.7079     8953.147      9864.57    10259.816    1415.1023    1596.9718    204.46655    -2395.461 
30073000    251.12543   -3883.3386   -3452.9182   -3883.3386            0    12642.901    16.827908    19.821053    20.530008    6847.7194    14881.435    10702.621    12344.647   -1152.9201    477.16486   -946.36687   -2190.3101 
30074000    256.11096   -3879.7732   -3440.8078   -3879.7732            0    10484.728    16.868665    19.869059    20.579731    6897.5951    9876.9805     10259.48    11317.725   -1883.6244    1030.8883   -1706.6133   -2386.1034 
30075000    254.53165   -3866.1873   -3429.9288   -3866.1873            0    10823.641    16.795593     19.78299    20.490584    6808.3461    12721.119    8676.8762    11072.928   -222.64391   -1678.3958   -881.93313   -2355.2198 
30076000    247.78323   -3846.5303   -3421.8384   -3846.5303            0    11201.737    16.780554    19.765276    20.472236     6790.073    9765.4152    10762.505    13077.292   -390.64216    399.48206   -182.84185   -2312.5723 
30077000    249.81376   -3883.9368   -3455.7646   -3883.9368            0    9900.4587    16.809243    19.799067    20.507237    6824.9587    8770.8276      9982.32    10948.229   -2190.1449     1285.242    579.01624   -2470.3222 
30078000    269.86339   -3857.8372   -3395.3006   -3857.8372            0    9896.4348    16.866298    19.866271    20.576844     6894.692    7711.1537    10113.308    11864.843    162.13989   -2566.6765    486.01192   -2400.1941 
30079000    260.65214   -3879.3124   -3432.5635   -3879.3124            0    11702.341    16.792111    19.778889    20.486336    6804.1124    10416.998    12157.795    12532.229    137.39269   -692.80183    991.35326   -2271.3286 
30080000    252.81359   -3841.0448    -3407.731   -3841.0448            0    9377.4662    16.877201    19.879114    20.590146    6908.0725    8624.1645    9941.4722    9566.7619    1152.3874   -456.35665   -1012.7021    -2462.978 
30081000    251.60487   -3871.2609   -3440.0188   -3871.2609            0    9021.4714    16.873462    19.874709    20.585584    6903.4815    8277.5155    8357.5453    10429.353    -868.0053    365.53367    1142.1831   -2531.7353 
30082000    259.08037   -3907.2231   -3463.1682   -3907.2231            0    9633.3791    16.832429    19.826378    20.535525    6853.2409    9776.4104    10837.875    8285.8517   -2166.0548   -1009.0944    1866.4626   -2500.3361 
30083000    232.10786   -3855.7094   -3457.8845   -3855.7094            0    9804.2589    16.878691    19.880869    20.591964    6909.9019    10354.864    9132.9174    9924.9956   -1163.6942    808.54224    609.44757   -2469.8718 
30084000    265.85231   -3850.4111   -3394.7494   -3850.4111            0    8371.3042    16.880221    19.882671     20.59383     6911.781    8021.1817     7225.419    9867.3119    610.30143   -83.833086    1432.1223   -2550.9116 
30085000    263.32421   -3888.4272   -3437.0985   -3888.4272            0    8802.5726    16.880143    19.882578    20.593735    6911.6849    8071.6241    9685.0909    8651.0029    1195.0143   -1312.5864   -488.90825   -2549.8006 
30086000    254.92234   -3880.9298   -3444.0016   -3880.9298            0    6903.6897    16.952857    19.968227    20.682446    7001.3907    7922.3615    6182.2339    6606.4736   -1120.5673    190.99777   -129.17912   -2739.0789 
30087000    261.14678   -3881.5247    -3433.928   -3881.5247            0    9446.1667    16.867831    19.868076    20.578714    6896.5721    10996.394    9208.2079    8133.8984    330.66342    1160.5185    750.02803    -2483.838 
30088000    251.19789   -3838.4083   -3407.8637   -3838.4083            0    8260.0089    16.958121    19.974427    20.688868    7007.9142    9560.8669    8623.6612    6595.4986   -488.73039   -534.50495    814.01231    -2563.664 
30089000    238.89115   -3850.0982   -3440.6469   -3850.0982            0    9769.8985    16.873067    19.874244    20.585102    6902.9967    10074.756    11922.944    7311.9957   -22.081746   -56.083181   -153.03136   -2457.0807 
30090000    251.25232   -3854.0139    -3423.376   -3854.0139            0    9477.4428    16.891207    19.895611    20.607233    6925.2848    10585.247    8460.2522    9386.8289    990.28131   -349.79427   -1379.6785   -2466.1716 
30091000    243.92769   -3892.4558   -3474.3721   -3892.4558            0    8499.1274    16.909693    19.917385    20.629786    6948.0475    8861.1111    8558.1525    8078.1186   -711.40365     458.3163   -1793.0346   -2613.1542 
30092000    265.42239   -3865.8995   -3410.9746   -3865.8995            0    11028.898    16.830979     19.82467    20.533755    6851.4695    9457.4409    10220.198    13409.054    809.04483   -410.67472   -985.70061   -2308.9489 
30093000    261.91274   -3903.6005    -3454.691   -3903.6005            0    11280.272    16.873474    19.874723    20.585598    6903.4959    11449.504    12931.786    9459.5267   -177.74974    134.92376   -12.897637   -2318.9886 
30094000    253.75196   -3893.9336   -3459.0114   -3893.9336            0    11022.321    16.852583    19.850117    20.560112    6877.8872    9541.1361     11530.14    11995.685   -591.77057   -161.87464    781.20657   -2353.3963 
30095000    250.71307    -3916.289   -3486.5753    -3916.289            0    11062.007    16.835061    19.829478    20.538735    6856.4561    8303.0708    12271.774    12611.176   -459.41622    600.12395   -847.10905   -2380.4368 
30096000    271.23829   -3902.5129   -3437.6197   -3902.5129            0    11989.861    16.818879    19.810418    20.518994    6836.7038    12471.418    12689.141    10809.023   -1349.9947    1122.3752   -1342.2755   -2242.1549 
30097000    270.43511   -3918.1571   -3454.6406   -3918.1571            0    11058.519     16.85371    19.851444    20.561487    6879.2666    11779.123    10151.349    11245.086    393.77093   -1678.1842   -606.56528    -2345.172 
30098000    250.38472   -3934.9719   -3505.8211   -3934.9719            0    9702.7518    16.848812    19.845675    20.555511    6873.2701    11233.308    11143.401    6731.5466    1124.2099    207.55943    773.29858   -2533.2212 
30099000    264.24664   -3914.5232   -3461.6135   -3914.5232            0    9923.5619    16.880334    19.882804    20.593968    6911.9198    10007.694     8761.767    11001.225    189.61102    1776.7002   -1190.4442   -2461.2861 
30100000    245.18754   -3934.8752   -3514.6322   -3934.8752            0    6878.1271    16.984232    20.005181    20.720723    7040.3347     6413.223    7189.2599    7031.8983    755.97741    -1318.401    468.99092   -2808.4132 
30101000    253.93322   -3957.2959   -3522.0631   -3957.2959            0    8595.0979    16.876889    19.878746    20.589765    6907.6893    9009.6405    10305.486    6470.1676   -166.66216   -470.90307   -770.80297   -2656.1795 
30102000    261.95266   -3911.6775   -3462.6996   -3911.6775            0    9388.5346    16.900662    19.906747    20.618768    6936.9208    10640.876    10504.347    7020.3806    1274.9708    65.917897    1342.1675   -2512.8815 
30103000    258.35062   -3883.9219   -3441.1178   -3883.9219            0    9054.8879    16.882148     19.88494    20.596181    6914.1486    9440.1005    8103.2452    9621.3179    565.37516    72.416069   -1224.2044   -2528.0613 
30104000    248.78775   -3895.1341   -3468.7204   -3895.1341            0    9770.3017    16.866064    19.865996    20.576559    6894.4057    10707.946    7868.3352    10734.624   -540.78227    1019.2185   -316.91941   -2486.3377 
30105000    265.65326    -3899.956   -3444.6354    -3899.956            0    8914.7094    16.893632    19.898466    20.610191    6928.2674    8567.1441    9534.0028    8642.9813    1349.8372   -795.88057     743.8051   -2543.8783 
30106000    255.43207   -3934.5429   -3496.7411   -3934.5429            0    8497.7212    16.883848    19.886943    20.598256    6916.2378    6541.2671    8275.8563     10676.04    594.21862   -157.97668    752.04513    -2639.608 
30107000    254.69887   -3936.8883   -3500.3432   -3936.8883            0    9997.6822    16.857975    19.856467     20.56669    6884.4899     11051.06    10415.326    8526.6607   -848.09213   -486.25077    1259.1202   -2496.5437 
30108000    249.09519   -3893.0292   -3466.0886   -3893.0292            0     8738.922    16.925475    19.935974     20.64904    6967.5193    9747.7146    6664.9112    9804.1403    236.13558    1803.1932    -543.0429   -2578.0907 
30109000     252.0016   -3890.5606   -3458.6384   -3890.5606            0    9219.3288    16.885613    19.889022    20.600409    6918.4069    8965.0176     9690.147     9002.822    351.97753     118.4687    -164.1203   -2528.4278 
30110000    251.77138   -3899.1652   -3467.6377   -3899.1652            0    7522.9982    16.948239    19.962787    20.676812    6995.6701    9431.9374    7195.1133    5941.9439   -2004.5682    987.35023   -698.96607   -2700.1063 
30111000    258.79151    -3892.789   -3449.2292    -3892.789            0    6269.9566    16.942603    19.956148    20.669936    6988.6932      5854.55     6888.255     6067.065   -388.11346    300.97402   -656.34308   -2810.1769 
30112000    258.08403   -3894.5973   -3452.2501   -3894.5973            0    9059.7637    16.883035    19.885985    20.597263    6915.2382    11584.966    8769.3904    6824.9348   -1027.5775   -1267.1609   -2009.9771    -2538.558 
30113000    257.78215   -3908.3256   -3466.4958   -3908.3256            0    11182.883    16.829362    19.822766    20.531782     6849.495    9780.1965    12121.722     11646.73    581.13104   -323.98429   -1533.1511   -2349.4057 
30114000    272.87182   -3892.4456   -3424.7526   -3892.4456            0    8839.5431    16.935831    19.948172    20.661674    6980.3168    7907.0911    10154.617    8456.9216    168.19291    1354.7961   -59.056326   -2524.8804 
30115000     262.2644   -3895.2142    -3445.702   -3895.2142            0        10085    16.940263    19.953392    20.667081    6985.7981    11427.584    11532.999    7294.4172   -100.29884   -41.347604   -750.24606   -2418.2351 
30116000    252.09913   -3872.3123    -3440.223   -3872.3123            0     11172.64    16.844803    19.840953    20.550621    6868.3661    11144.189    11408.516    10965.214    589.28559    1427.8819   -1807.3882   -2321.0812 
30117000    260.13525   -3919.0524   -3473.1895   -3919.0524            0     8951.639    16.943178    19.956826    20.670638    6989.4052    8554.8993     9627.803    8672.2147    -209.4234    -3.745999     334.8627   -2560.7194 
30118000    263.32307   -3918.5814   -3467.2547   -3918.5814            0     9872.222    16.895677    19.900876    20.612686    6930.7843    9940.9364    9540.0104    10135.719    1292.1713    164.84772   -291.20774   -2469.3864 
30119000    255.65038   -3863.0342   -3424.8582   -3863.0342            0      10452.1    16.890782    19.895111    20.606715    6924.7626    10789.901    10255.334    10311.067   -711.54936    807.39872   -284.25149   -2369.2947 
30120000    259.60715   -3885.3878     -3440.43   -3885.3878            0    9412.6428    16.878403    19.880529    20.591612    6909.5477    8501.2771    9508.9252    10227.726   -529.83324    -931.8603    325.33855   -2491.9306 
30121000    241.02774   -3853.4936   -3440.3803   -3853.4936            0    9124.5352    16.915867    19.924657    20.637319    6955.6609    6986.9745    9958.7421    10427.889    570.72817    -177.1644    840.28235   -2514.7767 
30122000    268.49685   -3855.5193   -3395.3249   -3855.5193            0    10134.106    16.897358    19.902856    20.614737    6932.8531    11815.329    10089.503    8497.4867    1525.1537    1260.9294    1416.3793   -2370.6801 
30123000    246.34659     -3861.12   -3438.8903     -3861.12            0    10661.632    16.869754    19.870342    20.581061    6898.9316    12986.902    11224.295    7773.6997   -1078.4192    -522.3678    1395.7417   -2366.1826 
30124000     258.5355   -3866.9766   -3423.8556   -3866.9766            0    10799.446    16.896998    19.902432    20.614298    6932.4104    10741.297    11741.688    9915.3518   -770.58181   -110.33616    74.679592    -2332.009 
30125000    267.11041   -3862.2489   -3404.4308   -3862.2489            0    8733.6406    16.955307    19.971112    20.685435    7004.4261    8202.5163    8998.1635    9000.2421   -951.73645   -1103.6429    619.79793   -2512.2687 
30126000    251.87298    -3838.641   -3406.9393    -3838.641            0    10480.989    16.878998    19.881231    20.592339    6910.2794    10997.624    9207.6291    11237.713   -103.92662    -915.5176   -382.11517   -2350.6722 
30127000    267.72547   -3858.8897   -3400.0174   -3858.8897            0    11443.688    16.828078    19.821253    20.530216    6847.9274    13507.876    9932.1806    10891.006   -740.71913    400.29264   -1204.9903   -2257.1363 
30128000    256.57997    -3879.812   -3440.0427    -3879.812            0    9647.5346    16.846092    19.842471    20.552193    6869.9424    12097.757    8013.2963    8831.5504   -1006.2908   -409.33039    252.32875    -2473.446 
30129000    262.05273   -3850.7306   -3401.5812   -3850.7306            0     10178.38    16.854946      19.8529    20.562994    6880.7799    12880.664    8496.2944    9158.1806   -374.97584   -391.36789    47.053331   -2380.1897 
30130000    255.64757   -3907.2505   -3469.0793   -3907.2505            0    9261.3987    16.881728    19.884445    20.595668     6913.632    9106.0183    8265.7668    10412.411   -1474.8682    41.311368    363.85966   -2535.2689 
30131000    253.73605   -3918.5413   -3483.6463   -3918.5413            0    8441.0921    16.905503     19.91245    20.624675    6942.8841    9104.8774    10499.091    5719.3079   -552.20483   -931.86314   -1686.0632   -2628.9449 
30132000     265.1129   -3872.2935    -3417.899   -3872.2935            0    8211.1185    16.904249    19.910972    20.623144    6941.3384    10295.455    7834.3771    6503.5234    22.381241   -201.74001     -3.84189   -2586.6686 
30133000    254.50722   -3893.7743   -3457.5576   -3893.7743            0    8716.7699    16.873456    19.874702    20.585577    6903.4745    8492.6606     7980.959    9676.6902    1155.5582   -1713.5658   -568.06711   -2579.9524 
30134000    247.87481   -3888.6054   -3463.7564   -3888.6054            0    7550.2428    16.869256    19.869755    20.580453    6898.3208    6007.8849    8768.6557    7874.1878    30.837322   -160.05064   -198.52791   -2704.1647 
30135000    254.86324   -3909.2842   -3472.4573   -3909.2842            0     8556.249    16.889073    19.893097    20.604629    6922.6598    9158.5562    8862.5998     7647.591    378.74155    1738.0156    86.466962   -2608.6193 
30136000    247.33361   -3865.3163    -3441.395   -3865.3163            0    8702.2975    16.859737    19.858543     20.56884    6886.6497    10179.997    8071.5751    7855.3204    745.06471    -167.9369   -36.372324   -2567.3821 
30137000    258.54903   -3928.5936   -3485.4494   -3928.5936            0    8176.8557    16.917906    19.927058    20.639805    6958.1755     9482.489    8498.8021    6549.2761   -931.22776    1810.8103   -278.76296   -2655.6796 
30138000    259.50056   -3891.8876   -3447.1125   -3891.8876            0    10525.513    16.843776    19.839744    20.549368    6867.1098    8704.2769    11679.605    11192.656   -159.63192    605.15583     2237.393    -2392.985 
30139000    246.50614   -3944.7599   -3522.2568   -3944.7599            0     9328.056    16.929635    19.940874    20.654115    6972.6583    10952.244    8272.2464    8759.6772    188.98067   -738.81946    -570.7159   -2573.6955 
30140000    265.84348   -3903.4313   -3447.7847   -3903.4313            0    10762.402    16.921003    19.930706    20.643584    6961.9978    12696.657    10012.405    9578.1432    169.61349    764.81708    -960.2654   -2355.0394 
30141000    243.12861    -3909.175   -3492.4609    -3909.175            0    11311.538    16.948527    19.963126    20.677164    6996.0271    9754.2038    12190.437    11989.974    2004.7277    1743.4967    18.929226    -2338.346 
30142000    254.34263   -3913.7715   -3477.8369   -3913.7715            0    8373.1249    16.961954    19.978941    20.693544    7012.6667    8738.4402    6911.5856    9469.3488    871.68006    635.55191    1023.0199   -2621.4961 
30143000    255.05944   -3891.4692    -3454.306   -3891.4692            0     10066.88    16.942856    19.956446    20.670244     6989.006    9676.0523    10167.145    10357.443    760.06805   -728.61356    1019.7296   -2428.2143 
30144000    250.90402   -3879.4397   -3449.3988   -3879.4397            0    8846.0541    16.862136    19.861369    20.571767    6889.5898    10179.511    9049.7119    7308.9396    610.53535    296.67708    780.21352   -2560.5685 
30145000     266.8969   -3877.2334   -3419.7812   -3877.2334            0    9713.0253    16.900777    19.906883    20.618909    6937.0628    7999.2169    9676.0667    11463.792   -316.03683    881.70129    855.36432    -2437.115 
30146000    241.85999   -3875.9087   -3461.3689   -3875.9087            0    8933.6105    16.904305    19.911039    20.623213    6941.4083    10188.915    8104.2109    8507.7053   -542.12451   -196.88159   -1133.5239   -2556.9899 
30147000    252.35246   -3880.7647   -3448.2413   -3880.7647            0    9907.3574    16.872082    19.873084    20.583901    6901.7883    11518.828    9017.3264    9185.9183   -624.74692    544.27172    867.09717   -2451.0112 
30148000     243.8526   -3869.1853   -3451.2303   -3869.1853            0    9463.7252    16.904772    19.911589    20.623782    6941.9831    10069.129    8638.2103    9683.8367   -1493.8425    1281.4145   -492.42511   -2493.1067 
30149000    265.85738     -3869.86   -3414.1895     -3869.86            0    8335.8987    16.934763    19.946914    20.660371    6978.9958      9069.83    7410.3422    8527.5238   -1306.3089    461.58361     577.0466   -2565.7493 
30150000    251.52673   -3872.6827   -3441.5745   -3872.6827            0    9032.1662    16.863304    19.862744    20.573191    6891.0208    9518.1739    9758.0555    7820.2692    96.074081    1713.2198   -1132.5357   -2533.8556 
30151000    250.07248    -3825.768   -3397.1523    -3825.768            0    10055.666    16.883199    19.886178    20.597463    6915.4393    12095.055    9292.4881    8779.4534    135.03953   -264.65439    -989.4794   -2382.9923 
30152000    255.35973   -3893.4016   -3455.7237   -3893.4016            0    7925.3382    16.929282    19.940457    20.653684    6972.2214    9554.7756    7083.1883    7138.0507   -624.86538   -103.37366   -741.62646   -2649.8539 
30153000     256.5003    -3861.237   -3421.6042    -3861.237            0    9758.0465    16.938916    19.951806    20.665438    6984.1323    10659.869    10759.834    7854.4361    895.86247    1938.4581   -563.44876   -2427.6847 
30154000    248.02204   -3882.0672   -3456.9659   -3882.0672            0    8129.1045    16.946073    19.960235    20.674169    6992.9879    9499.9187    8781.6356     6105.759    1206.7689   -1603.9457     1089.775   -2627.9147 
30155000    259.56235   -3872.8877   -3428.0067   -3872.8877            0    8792.5479    16.859328    19.858061     20.56834    6886.1478    8011.1084    10730.418    7636.1174    1397.0776    2153.7178   -547.20257    -2544.994 
30156000    249.22743   -3895.5581   -3468.3908   -3895.5581            0    9111.5605    16.913269    19.921596    20.634148    6952.4556    9574.6222    9772.7716    7987.2877    1043.4357    906.16745   -175.52158   -2544.5293 
30157000    249.25329   -3884.1381   -3456.9265   -3884.1381            0     7884.426    16.968898    19.987121    20.702016    7021.2837    8559.9245    7249.1627    7844.1907    1436.7919    890.34637   -602.37966   -2649.5753 
30158000    256.63836    -3865.435   -3425.5656    -3865.435            0    8302.8008    16.879611    19.881952    20.593086     6911.032    9703.2805    7887.5428    7317.5793    1370.4972   -1526.9445   -126.82698   -2588.7237 
30159000    248.26614   -3831.4381   -3405.9184   -3831.4381            0    10341.052    16.915973    19.924782    20.637447    6955.7911    9024.0579    12620.468     9378.631   -228.65491    613.95099   -193.32104   -2356.8902 
30160000    265.09275    -3869.316   -3414.9561    -3869.316            0    8167.3805    17.017749     20.04466    20.761614    7082.0979    8568.4441    9539.3229    6394.3744   -425.05694   -410.25596    238.32829   -2571.3871 
30161000    259.79385    -3898.479   -3453.2012    -3898.479            0     8884.455    16.881278    19.883916     20.59512    6913.0798    8391.1049    8789.5434    9472.7167    442.23381   -928.40692   -28.627153   -2557.4689 
30162000    248.27055   -3868.9189   -3443.3916   -3868.9189            0    9114.7569    16.941278    19.954588    20.668319    6987.0538    6812.7796    10368.004    10163.487   -11.136072    57.954928    136.41772   -2514.6069 
30163000    259.81705   -3867.3614   -3422.0439   -3867.3614            0    8663.3546    16.951246    19.966328     20.68048     6999.394    7673.5037     7931.246    10385.314    991.04643   -892.85912   -2661.1732   -2537.6974 
30164000    254.99485   -3865.0411   -3427.9887   -3865.0411            0    10817.577    16.887523    19.891271    20.602738    6920.7545    10724.333    11127.385    10601.013   -481.55863   -894.69894     -2.45223   -2336.1479 
30165000    264.41669   -3863.5895   -3410.3884   -3863.5895            0     11373.38    16.855964    19.854099    20.564237     6882.027    11549.164    10332.854    12238.122   -1079.6852    50.160693    770.84585   -2268.8728 
30166000    265.61764   -3872.8784   -3417.6188   -3872.8784            0    11072.198    16.892913    19.897621    20.609315    6927.3838    11603.763    8845.5283    12767.304   -225.79257     251.7235    188.96469   -2299.0081 
30167000    246.26322   -3906.1682   -3484.0815   -3906.1682            0    6892.0079     16.90464    19.911433    20.623621    6941.8201    8228.4534    5410.5589    7037.0114   -1638.6841    154.51344   -614.73424   -2786.3392 
30168000    259.58792    -3845.636   -3400.7112    -3845.636            0    10070.778    16.873859    19.875177    20.586068    6903.9689    9715.3942    10159.382    10337.556   -454.31794    -1291.341   -171.06029   -2386.7117 
30169000    255.89636   -3848.7424   -3410.1448   -3848.7424            0    11672.597    16.844676    19.840803    20.550465    6868.2096    11851.162     12297.87     10868.76   -391.18013   -1408.9713    -389.0642   -2240.9498 
30170000    261.32644    -3879.078   -3431.1734    -3879.078            0     9214.153    16.897135    19.902593    20.614465     6932.579    10654.811    8473.3833    8514.2648    198.63248    1106.2527   -975.14256   -2499.5806 
30171000    255.43491   -3892.2001   -3454.3934   -3892.2001            0    9522.6739     16.87453    19.875967    20.586887    6904.7923     9881.148    9315.1839    9371.6899    185.21363    957.58947    149.84594   -2495.4667 
30172000    257.98982   -3921.2399   -3479.0542   -3921.2399            0    9445.1295    16.908277    19.915717    20.628058    6946.3015    9308.9288    9807.5146    9218.9452    504.56453      3.39455   -414.75156   -2522.2184 
30173000    249.28171   -3882.6789   -3455.4186   -3882.6789            0    8674.1906    16.865894    19.865795    20.576351     6894.197    9837.8968    9524.5705    6660.1045    1085.2068   -561.51408    927.12026   -2583.2739 
30174000    253.73569   -3903.5763    -3468.682   -3903.5763            0     7836.979    16.889811    19.893966     20.60553    6923.5678    7444.9216    7618.6544     8447.361    1156.0989   -129.29697   -352.68862   -2677.3577 
30175000    258.07013   -3896.1995   -3453.8761   -3896.1995            0    9659.9876    16.849289    19.846236    20.556093    6873.8539    10526.441    10065.011    8388.5103   -265.29606   -77.760892    1166.5927   -2485.4806 
30176000    258.63101    -3905.385   -3462.1003    -3905.385            0    11644.865    16.800405    19.788658    20.496455    6814.1998    10762.378    12608.674    11563.543   -1383.3915    721.02908    1560.3678   -2304.8556 
30177000    269.26477    -3900.928   -3439.4174    -3900.928            0    8346.4185    16.854392    19.852247    20.562319    6880.1015    7438.8676    8357.3738    9243.0142   -90.071067    431.86244    215.27003   -2601.9443 
30178000    259.79237   -3865.8292    -3420.554   -3865.8292            0    10712.319     16.80404     19.79294     20.50089    6818.6238    12276.317    11039.353    8821.2872   -327.02522   -922.90188    -420.7708   -2355.2928 
30179000    246.72209   -3890.2104   -3467.3372   -3890.2104            0    8738.9988    16.914541    19.923095      20.6357    6954.0244    8612.3067    9479.7667    8124.9229   -1673.7853    1223.0241    514.95064   -2581.0514 
30180000    259.50956   -3922.9275    -3478.137   -3922.9275            0    9193.3782    16.887986    19.891816    20.603303    6921.3234    9537.2017    9962.0028    8080.9301   -596.78415   -239.59916     377.4204   -2550.1537 
30181000    260.66288   -3874.3237   -3427.5564   -3874.3237            0    9831.3269    16.847246    19.843831    20.553601    6871.3547    8976.3592    10564.022    9953.5991    -632.2201    1014.7384   -932.13787   -2442.3428 
30182000    275.61783   -3887.5633   -3415.1637   -3887.5633            0    9578.0252     16.89819    19.903835    20.615752    6933.8769    8186.2674    10567.295    9980.5137   -1773.4747   -289.85155    245.75113   -2446.6005 
30183000    256.46135   -3905.2175   -3465.6515   -3905.2175            0    10881.434    16.878291    19.880397    20.591475    6909.4102    9092.0774    10400.021    13152.205    1370.1531    2254.8187   -1341.7099   -2369.1657 
30184000     258.4957    -3918.853   -3475.8002    -3918.853            0    11031.621    16.868999    19.869452    20.580139    6898.0048    10547.177     11642.69    10904.997   -1318.2089     -986.462   -1347.0506   -2366.0156 
30185000     262.1129     -3874.41   -3425.1575     -3874.41            0    9804.2434    16.866379    19.866366    20.576943    6894.7913    8645.4654     8213.472    12553.793     801.2155   -1381.4022   -185.82839   -2439.3069 
30186000    270.82798    -3885.369   -3421.1791    -3885.369            0    10127.119    16.866832      19.8669    20.577496    6895.3474    10489.977    9147.2737    10744.107    1383.2158    495.48672    1671.0869   -2402.7801 
30187000    276.51851   -3949.1078   -3475.1646   -3949.1078            0     9737.667    16.895748    19.900959    20.612773    6930.8714    9370.0706    9458.0054    10384.925   -396.36176   -497.56297   -1723.1152   -2490.8846 
30188000     259.1732   -3869.2452   -3425.0312   -3869.2452            0    9845.3941    16.889715    19.893853    20.605413    6923.4498      9091.75    10865.825    9578.6074   -1513.7824   -291.15332    1011.4934   -2430.9278 
30189000    245.47084   -3917.4545   -3496.7259   -3917.4545            0    7546.5107    16.995601    20.018573    20.734593    7054.4823     7229.541    8834.0252    6575.9659   -927.07488    917.10947   -439.90827   -2720.3228 
30190000    276.66301   -3880.4472   -3406.2563   -3880.4472            0    12869.357    16.863943    19.863497    20.573971     6891.805    11793.776    13901.934    12912.361   -1997.1962     35.53583    156.17524   -2112.7584 
30191000    257.40197   -3890.5519   -3449.3737   -3890.5519            0    9006.4571    16.963314    19.980544    20.695204    7014.3547    6655.0498    10855.896    9508.4252    688.02567    2124.1709    903.65431   -2528.0387 
30192000    263.14837   -3876.3244   -3425.2971   -3876.3244            0    10157.616    16.937258    19.949853    20.663416    6982.0818    11213.171    8975.0659    10284.612   -1870.6247    431.56147   -1096.6046   -2390.9826 
30193000    261.24544   -3858.9314   -3411.1656   -3858.9314            0    8565.1249    16.998535    20.022029    20.738173     7058.137    8557.9244    7735.5399    9401.9105   -195.01979   -803.47867   -1289.8314   -2529.5086 
30194000     266.0713   -3847.4892   -3391.4521   -3847.4892            0    9882.6055    16.929067    19.940205    20.653422    6971.9565    8764.3549    10467.101    10416.361    632.13678   -295.51488    40.118054   -2386.6003 
30195000    247.13228   -3878.9394   -3455.3631   -3878.9394            0    8403.8598    16.979874    20.000049    20.715407    7034.9172    8018.9673     8644.156     8548.456   -77.150184   -103.85478   -1788.9388   -2593.1519 
30196000    251.89973   -3880.9363   -3449.1888   -3880.9363            0    9292.4082    16.897778     19.90335    20.615249    6933.3696    8287.1779    9968.0089    9622.0378    1309.9562   -2645.9897    121.06467   -2509.5769 
30197000     248.0778   -3856.0898   -3430.8929   -3856.0898            0    9915.5484    16.909112      19.9167    20.629077    6947.3307    9119.5937    10552.655    10074.397    295.90174   -932.86607   -1517.9146   -2426.2526 
30198000    262.06682   -3875.5029   -3426.3294   -3875.5029            0    7940.9341    17.012581    20.038573    20.755309     7075.648     8517.247    7720.8812    7584.6742    172.03335     13.60884    930.89725   -2606.8959 
30199000     266.4251   -3874.2722   -3417.6287   -3874.2722            0    10275.529    16.957842    19.974098    20.688528    7007.5686    9586.4572    10909.263    10330.865   -574.27725   -367.27924   -334.21493   -2367.4882 
30200000    245.16631   -3880.2546    -3460.048   -3880.2546            0    8210.5296      16.9581    19.974402    20.688843    7007.8884    7076.0717    9300.7806    8254.7366   -226.73291    793.85144      24.0656   -2620.9083 
30201000    262.10105   -3902.5005   -3453.2683   -3902.5005            0    9657.4245    16.933535    19.945467    20.658873    6977.4777    9293.8078    8115.5327    11562.933   -1581.2855   -766.99974   -310.15967    -2470.535 
30202000    254.21346   -3882.5489   -3446.8357   -3882.5489            0    8952.8126    16.950888    19.965907    20.680044    6998.9509    8937.4437    8387.8884    9533.1058   -1290.7828    232.32652    640.06503   -2532.9996 
30203000    251.89752   -3910.4234   -3478.6797   -3910.4234            0     10683.64    16.867856    19.868106    20.578744    6896.6027    7364.4007    12570.086    12116.435    -452.3349   -1236.5196    95.554524   -2404.1204 
30204000    252.86568   -3923.2221   -3489.8189   -3923.2221            0    8674.6619    16.886453    19.890011    20.601433    6919.4388    8219.3989    8650.8343    9153.7526    -257.8692    2234.4277    1427.3597   -2614.4335 
30205000     245.3932   -3907.7231   -3487.1275   -3907.7231            0    8560.2188     16.87579    19.877452    20.588424    6906.3396    9999.6137    6912.6575    8768.3852    1253.9312   -24.606593    899.49034   -2624.9262 
30206000    238.84787   -3904.8501    -3495.473   -3904.8501            0    6379.0034    16.963959    19.981302     20.69599    7015.1539     6746.062     5310.556     7080.392    776.92904   -262.93465   -186.05026   -2842.8447 
30207000    250.28469   -3899.0957   -3470.1163   -3899.0957            0    8312.8553    16.859431    19.858183    20.568466    6886.2743    7764.1946    8716.1979    8458.1733    223.45703   -1016.2324   -1002.0499   -2635.2625 
30208000    252.96743    -3877.979   -3444.4015    -3877.979            0    7431.3844     16.91445    19.922988     20.63559    6953.9131    7117.8659    6956.6691    8219.6182    1904.0358    199.43743    1202.0453   -2690.7425 
30209000    255.01307   -3897.4399   -3460.3562   -3897.4399            0    8809.2848    16.868539    19.868911    20.579578    6897.4413     8850.391    10109.875    7467.5888   -675.95948   -734.28377   -1766.6352   -2574.2117 
30210000    274.65909   -3910.7394   -3439.9831   -3910.7394            0    9441.2572    16.899405    19.905267    20.617235     6935.373    9898.2221    8322.6291     10102.92    567.39126   -432.85163   -1093.5454   -2485.0443 
30211000    262.19675   -3926.8301   -3477.4338   -3926.8301            0    10607.932    16.813596    19.804195    20.512548    6830.2629    9347.7289    8702.9503    13773.116    118.98234   -409.07739   -391.41196   -2420.7525 
30212000    262.76251   -3900.6494   -3450.2835   -3900.6494            0    10333.322    16.890272    19.894509    20.606092    6924.1345    11218.658    9662.0405    10119.268   -614.41536    745.05188     466.9481   -2406.8102 
30213000    267.78273   -3909.6306   -3450.6602   -3909.6306            0    8880.2804    16.952124    19.967363    20.681552    7000.4821    8960.7765    7791.8135    9888.2513   -209.01399    314.61021    -1781.999   -2544.0293 
30214000    246.04525   -3902.5349   -3480.8218   -3902.5349            0    6421.6025     16.99626    20.019349    20.735398    7055.3034    7938.8157    6175.9004    5150.0914   -817.69106    290.07699    -472.4169   -2820.0751 
30215000    257.15467   -3952.6654   -3511.9111   -3952.6654            0    8691.5651    16.892344     19.89695     20.60862    6926.6834    8311.9537    9010.8281    8751.9136   -1690.6692    -163.4292    1004.9331   -2633.9016 
30216000    254.55233     -3886.73    -3450.436     -3886.73            0    8193.2028    16.926194    19.936821    20.649918    6968.4079    9349.1015    9026.7954    6203.7117    1628.1384   -588.17537   -648.18658   -2617.7847 
30217000     260.3032   -3883.0308     -3436.88   -3883.0308            0    9818.3025    16.860356    19.859273    20.569595    6887.4084    11813.757    10606.158    7034.9925    102.75142   -415.37946   -451.35561   -2450.6729 
30218000    271.43667   -3920.5035   -3455.2703   -3920.5035            0     7313.794    16.963026    19.980204    20.694852    7013.9972    8147.2594    6627.2504    7166.8722    642.47772    456.10846   -508.13155    -2707.128 
30219000     259.2008   -3882.9298   -3438.6685   -3882.9298            0    9555.0235    16.918672    19.927961     20.64074    6959.1211    10017.938    9190.9925    9456.1403    436.88577     586.2743   -760.34616   -2468.9135 
30220000    252.00441    -3900.631    -3468.704    -3900.631            0    11164.404    16.838623    19.833674    20.543081    6860.8092    11618.511    11973.831    9900.8689    406.85426   -802.26986     409.8049   -2351.6176 
30221000    251.30644   -3882.4323   -3451.7017   -3882.4323            0    7573.4875     16.92745      19.9383     20.65145    6969.9591    8646.7074    5706.6225    8367.1327   -202.90607    382.14634   -19.363978   -2681.8589 
30222000    257.20648   -3896.7379   -3455.8948   -3896.7379            0    8304.8895    16.913605    19.921992    20.634558    6952.8699    7108.7265    8151.8507    9654.0913   -783.40848   -1101.5092   -158.56608    -2613.775 
30223000    255.23968    -3888.291    -3450.819    -3888.291            0    9688.6795     16.89916    19.904979    20.616936    6935.0721    8822.7181    8360.4858    11882.834    1362.9947    327.02046    67.528905   -2470.8971 
30224000    255.72764   -3883.9152   -3445.6068   -3883.9152            0     8499.143    16.908143    19.915559    20.627895    6946.1367    7791.1036    7609.7804    10096.545   -738.86963   -737.16651    226.03604   -2584.6242 
30225000    247.79944   -3893.0353   -3468.3155   -3893.0353            0     10663.49    16.874219      19.8756    20.586507    6904.4104    12899.076    10470.002    8621.3919   -1002.5211    3.6924762     211.4435   -2394.5688 
30226000    244.61794    -3844.615   -3425.3482    -3844.615            0    9680.9114    16.887154    19.890837    20.602289    6920.3013    10948.851    7527.7742    10566.109    616.05257      23.2218   -642.27004   -2448.2974 
30227000    277.65294   -3857.5264   -3381.6387   -3857.5264            0    10765.009    16.923981    19.934214    20.647217    6965.6739    12193.554    11217.132    8884.3394   -403.79953   -1436.4285   -2012.9857   -2288.0515 
30228000    260.71345   -3860.9737   -3414.1197   -3860.9737            0    8338.1538     16.97777     19.99757    20.712839    7032.3018    5812.2918    9879.9727    9322.1969    374.19476   -107.10531   -560.21533   -2558.9678 
30229000     259.9265   -3851.6522   -3406.1471   -3851.6522            0    9063.9871    16.895777    19.900994    20.612809    6930.9078    8211.3816     10304.87    8675.7103   -596.56515   -719.25771   -1541.9224   -2489.9576 
30230000    259.60372   -3837.7748   -3392.8229   -3837.7748            0    11239.537    16.917073    19.926077    20.638789    6957.1477    12069.578    9964.9732    11684.059    1188.5459    842.81721    1054.8713   -2252.4274 
30231000    279.17448   -3916.6456   -3438.1501   -3916.6456            0    8644.3902    16.955441     19.97127    20.685598    7004.5923    7735.0058    8724.1798    9473.9849   -718.01134    192.66838    508.82162   -2555.0842 
30232000     255.3143   -3877.8753   -3440.2753   -3877.8753            0     9917.878    16.860841    19.859843    20.570186    6888.0018    11926.603    8894.1316    8932.8996    1331.4704    48.128558   -113.55608   -2443.9805 
30233000    250.24647   -3888.9968   -3460.0829   -3888.9968            0    9134.6705     16.85961    19.858393    20.568684    6886.4934    9465.1335     9287.813     8651.065   -737.50367   -997.82637    1194.2763   -2542.6656 
30234000    266.21215   -3897.1513   -3440.8728   -3897.1513            0     8064.488     16.93946    19.952446    20.666102    6984.8048    8742.7015    7412.1591    8038.6034   -353.25752    -62.12856   -1387.1847    -2619.374 
30235000    258.24157   -3913.1098   -3470.4926   -3913.1098            0    10806.098    16.813354    19.803911    20.512253    6829.9682    11929.529    9760.0629    10728.701     1231.958    1362.6008    479.87414    -2394.118 
30236000    250.45216   -3879.9534   -3450.6869   -3879.9534            0    6833.8652    16.944399    19.958263    20.672127    6990.9158    6198.4332    8289.7889    6013.3733   -1069.7491     2131.195     976.6006   -2753.9379 
30237000    254.81574   -3879.2414   -3442.4959   -3879.2414            0    8197.1987     16.97903    19.999054    20.714377    7033.8677    7280.7713    7424.2533    9886.5716    790.92707   -976.29994   -973.23929    -2601.613 
30238000    266.59005   -3897.8904   -3440.9642   -3897.8904            0    10774.051    16.858615    19.857222    20.567471     6885.275    12043.613    11531.001    8747.5397    5.9631228    -1499.226    589.11376   -2359.0913 
30239000    242.26947    -3875.719   -3460.4774    -3875.719            0    9164.0071    16.900483    19.906537     20.61855    6936.7006    8312.0367    9322.6217    9857.3628    45.835902    501.84912   -82.765006   -2533.4037 
30240000    264.77228   -3914.5565   -3460.7459   -3914.5565            0    7824.4665    16.919372    19.928786    20.641595    6959.9856    9334.1549    6948.4637     7190.781    221.61705   -868.85786   -351.24249   -2666.5293 
30241000    257.00111   -3937.0631    -3496.572   -3937.0631            0    9010.4271     16.88737    19.891091    20.602552    6920.5667    9467.0166    9026.5716    8537.6931    683.73616    353.90647   -2071.0621   -2587.1553 
30242000    263.33742    -3929.085   -3477.7336    -3929.085            0    10440.556     16.86933    19.869842    20.580543    6898.4113    11166.691    10183.194    9971.7824    -205.7065   -703.92387    1708.2952   -2427.3484 
30243000    267.38061   -3901.2979   -3443.0167   -3901.2979            0    10446.857     16.87709    19.878983     20.59001    6907.9358    8512.6927    12109.109    10718.769    -317.5689    2003.8104   -1302.7009   -2390.5465 
30244000    275.79701   -3941.1568   -3468.4501   -3941.1568            0    8608.2137    16.866465    19.866468    20.577048    6894.8969    8837.2243     9197.089    7790.3277    27.692924    386.97246   -521.37211   -2602.8512 
30245000    263.18383   -3898.6479   -3447.5599   -3898.6479            0    9427.9987    16.878133    19.880211    20.591283    6909.2165    10340.224    8247.1922    9696.5794   -102.76015   -1524.1472    653.50308   -2497.5585 
30246000    254.06785   -3915.3531   -3479.8895   -3915.3531            0    9458.1936    16.877115    19.879013    20.590041    6907.9668    9924.4365    8583.4044      9866.74   -847.99756     825.9986   -1333.9821    -2527.018 
30247000    259.25367   -3910.9322   -3466.5803   -3910.9322            0    9510.9232    16.879046    19.881287    20.592397    6910.3383    7953.6763    10478.212    10100.881   -933.51764   -1281.6387    1187.7027   -2508.0676 
30248000    260.68442   -3887.2192    -3440.415   -3887.2192            0    7554.7225    16.964404    19.981827    20.696533    7015.7065    5926.2992    8934.9366    7802.9317    -180.6516    387.80706   -1694.3858   -2667.4394 
30249000    259.39488   -3916.1251   -3471.5311   -3916.1251            0     11969.65    16.842207    19.837896    20.547454    6865.1911    11180.382    13076.121    11652.449   -845.75512     2552.825    369.53407   -2273.1085 
30250000    254.00874   -3852.0999   -3416.7376   -3852.0999            0    11422.646    16.885506    19.888895    20.600278    6918.2747    9946.8044    11514.533    12806.601    1536.6793    1153.1456   -301.57248    -2264.239 
Loop time of 384.371 on 64 procs for 250000 steps with 864 atoms

Performance: 112.391 ns/day, 0.214 hours/ns, 650.412 timesteps/s
191.4% CPU use with 32 MPI tasks x 2 OpenMP threads

MPI task timing breakdown:
Section |  min time  |  avg time  |  max time  |%varavg| %total
---------------------------------------------------------------
Pair    | 26.783     | 33.567     | 40.756     |  56.3 |  8.73
Bond    | 0.86223    | 1.0988     | 1.5433     |  12.5 |  0.29
Kspace  | 163.6      | 175.83     | 184.21     |  31.5 | 45.74
Neigh   | 3.6656     | 4.2772     | 4.5647     |  13.0 |  1.11
Comm    | 75.504     | 81.034     | 87.304     |  33.3 | 21.08
Output  | 0.45246    | 0.45294    | 0.45923    |   0.2 |  0.12
Modify  | 72.112     | 74.557     | 77.463     |  16.8 | 19.40
Other   |            | 13.56      |            |       |  3.53

Nlocal:        27.0000 ave          34 max          22 min
Histogram: 1 6 3 5 5 6 2 1 2 1
Nghost:        2659.81 ave        2715 max        2624 min
Histogram: 3 2 7 8 3 3 2 1 2 1
Neighs:        8910.44 ave       10700 max        7044 min
Histogram: 4 2 2 3 3 7 4 1 1 5

Total # of neighbors = 285134
Ave neighs/atom = 330.01620
Ave special neighs/atom = 2.0000000
Neighbor list builds = 13483
Dangerous builds = 0

unfix		3
unfix		2
unfix		1

write_data	data.final.${pid}
write_data	data.final.1
System init for write_data ...
PPPM initialization ...
  extracting TIP4P info from pair style
  using 12-bit tables for long-range coulomb (../kspace.cpp:340)
  G vector (1/distance) = 0.37469703
  grid = 24 24 24
  stencil order = 5
  estimated absolute RMS force accuracy = 0.0031116766
  estimated relative force accuracy = 9.3707217e-06
  using double precision FFTW3
  3d grid and FFT values/proc = 3549 432
Last active /omp style is kspace_style pppm/tip4p/omp
WARNING: Not all mixed pair coeffs generated from mixing. Use write_data with 'pair ij' option to store all pair coeffs. (../write_data.cpp:312)

write_restart   restart.lmp.${pid}
write_restart   restart.lmp.1
System init for write_restart ...
PPPM initialization ...
  extracting TIP4P info from pair style
  using 12-bit tables for long-range coulomb (../kspace.cpp:340)
  G vector (1/distance) = 0.37469703
  grid = 24 24 24
  stencil order = 5
  estimated absolute RMS force accuracy = 0.0031116766
  estimated relative force accuracy = 9.3707217e-06
  using double precision FFTW3
  3d grid and FFT values/proc = 3549 432
Last active /omp style is kspace_style pppm/tip4p/omp
Total wall time: 0:06:24
