#include		in.partitions
include		in.temp
variable        temperature equal 262.45
variable	tempDamp equal 100.0
include		in.pressure
variable        pressure equal 3625.0
variable        pressureDamp equal 1000.0 # This is 1 ps
include		in.seed
variable        seed equal 745823

units		real
atom_style	full
read_restart	restart.lmp.${pid}
read_restart	restart.lmp.1
Reading restart file ...
  restart file = 30 Jul 2021, LAMMPS = 30 Jul 2021
  restoring atom style full from restart
  orthogonal box = (0.36565047 1.5222192 0.44609272) to (17.841922 22.106959 21.767103)
  2 by 4 by 4 MPI processor grid
  restoring pair style lj/cut/tip4p/long/omp from restart
  restoring bond style harmonic/omp from restart
  restoring angle style harmonic/omp from restart
  864 atoms
  576 bonds
  288 angles
Finding 1-2 1-3 1-4 neighbors ...
  special bond factors lj:    0        0        0       
  special bond factors coul:  0        0        0       
     2 = max # of 1-2 neighbors
     1 = max # of 1-3 neighbors
     1 = max # of 1-4 neighbors
     2 = max # of special neighbors
  special bonds CPU = 0.002 seconds
  read_restart CPU = 0.007 seconds
include 	in.setup
variable	out_freq equal 1000
variable	out_freq2 equal 10000
variable	out_freq3 equal 1000

timestep	2.0

neigh_modify    delay 7 every 1

include		in.tip4p
# This is TIP4P/Ice

# create groups ###
group ox type 2
288 atoms in group ox
group hy type 1
576 atoms in group hy

# set charges - beside manually ###
set group ox charge -1.1794
Setting atom values ...
  288 settings made for charge
set group hy charge 0.5897
Setting atom values ...
  576 settings made for charge

# ### TIP3P Potential Parameters ###
pair_style lj/cut/tip4p/long/omp 2 1 1 1 0.1577 8.5
pair_coeff 1 1*2 0.000 0.000
pair_coeff 2 2 0.21084 3.1668
bond_style  harmonic
bond_coeff  1 450 0.9572
angle_style harmonic
angle_coeff 1 55 104.52
kspace_style pppm/tip4p/omp 1.0e-5
pair_modify tail yes

thermo          ${out_freq}
thermo          1000
thermo_style    custom step temp pe etotal epair emol press lx ly lz vol pxx pyy pzz pxy pxz pyz enthalpy

restart 	${out_freq3} restart.lmp.${pid} restart2.lmp.${pid}
restart 	1000 restart.lmp.${pid} restart2.lmp.${pid}
restart 	1000 restart.lmp.1 restart2.lmp.${pid}
restart 	1000 restart.lmp.1 restart2.lmp.1


include         in.dump
dump            myDump all atom ${out_freq2} dump.water.${pid}
dump            myDump all atom 10000 dump.water.${pid}
dump            myDump all atom 10000 dump.water.1
dump            myDump2 all dcd ${out_freq2} dump.dcd
dump            myDump2 all dcd 10000 dump.dcd
dump_modify     myDump append yes
dump_modify     myDump2 append yes


variable natoms 	equal  "count(all)"                        # NUMBER ATOMS
variable H      	equal  "enthalpy/v_natoms"                 # ENTHALPY-per-atom
variable Vol      	equal  "vol/v_natoms"                 # volume-per-atom
fix AVG all 		ave/time ${out_freq} 1 ${out_freq} v_Vol v_H file vol_enthalpy.dat
fix AVG all 		ave/time 1000 1 ${out_freq} v_Vol v_H file vol_enthalpy.dat
fix AVG all 		ave/time 1000 1 1000 v_Vol v_H file vol_enthalpy.dat


timer           timeout 23:50:00 every 1000
New timer settings: style=normal  mode=nosync  timeout=23:50:00

fix 		1 all shake 1e-6 200 0 b 1 a 1
       0 = # of size 2 clusters
       0 = # of size 3 clusters
       0 = # of size 4 clusters
     288 = # of frozen angles
  find clusters CPU = 0.001 seconds
fix             2 all nph iso ${pressure} ${pressure} ${pressureDamp}
fix             2 all nph iso 3625 ${pressure} ${pressureDamp}
fix             2 all nph iso 3625 3625 ${pressureDamp}
fix             2 all nph iso 3625 3625 1000
fix             3 all temp/csvr ${temperature} ${temperature} ${tempDamp} ${seed}
fix             3 all temp/csvr 262.45 ${temperature} ${tempDamp} ${seed}
fix             3 all temp/csvr 262.45 262.45 ${tempDamp} ${seed}
fix             3 all temp/csvr 262.45 262.45 100 ${seed}
fix             3 all temp/csvr 262.45 262.45 100 745823

run             250000
PPPM initialization ...
  extracting TIP4P info from pair style
  using 12-bit tables for long-range coulomb (../kspace.cpp:340)
  G vector (1/distance) = 0.37342381
  grid = 24 24 25
  stencil order = 5
  estimated absolute RMS force accuracy = 0.0031660784
  estimated relative force accuracy = 9.5345512e-06
  using double precision FFTW3
  3d grid and FFT values/proc = 3822 576
Last active /omp style is kspace_style pppm/tip4p/omp
Neighbor list info ...
  update every 1 steps, delay 7 steps, check yes
  max neighbors/atom: 2000, page size: 100000
  master list distance cutoff = 10.8154
  ghost atom cutoff = 10.8154
  binsize = 5.4077, bins = 4 4 4
  1 neighbor lists, perpetual/occasional/extra = 1 0 0
  (1) pair lj/cut/tip4p/long/omp, perpetual
      attributes: half, newton on, omp
      pair build: half/bin/newton/omp
      stencil: half/bin/3d
      bin: standard
Per MPI rank memory allocation (min/avg/max) = 10.20 | 10.20 | 10.22 Mbytes
Step Temp PotEng TotEng E_pair E_mol Press Lx Ly Lz Volume Pxx Pyy Pzz Pxy Pxz Pyz Enthalpy 
 6500000    271.36322   -3846.3307   -3381.2234   -3846.3307            0    3593.0926    17.476271    20.584739     21.32101    7670.1161    4532.0535    4097.5245    2149.6999   -236.17764    501.37072   -227.03081   -2979.2973 
 6501000    270.64186   -3879.0122   -3415.1413   -3879.0122            0    2022.2957    17.489673    20.600524     21.33736    7687.7744    2107.8183    2759.6596    1199.4092   -500.26615    93.090263   -216.84206   -3188.4049 
 6502000     248.3221   -3837.4882   -3411.8726   -3837.4882            0    3820.2629    17.511166    20.625841    21.363582    7716.1523    1710.7847    4359.3998    5390.6042   -1075.2825     1077.729   -124.82037   -2981.9702 
 6503000    259.89838   -3857.7831   -3412.3262   -3857.7831            0    2571.0399     17.49206    20.603336    21.340272    7690.9228    1007.9986      3473.86    3231.2612    790.16557   -31.003272    588.47407   -3123.9475 
 6504000    252.13501   -3903.3946   -3471.2438   -3903.3946            0    3383.4706     17.37143     20.46125    21.193104    7532.9022    2410.4701    3567.4384    4172.5034   -65.969852    1569.7005   -370.28243   -3099.5369 
 6505000    267.19835     -3888.54   -3430.5712     -3888.54            0    4098.8553    17.412637    20.509786    21.243376    7586.6356    4521.8266    4860.7245    2914.0148   -212.62923    1228.8617   -898.01479   -2977.0603 
 6506000    267.95438   -3880.2445   -3420.9798   -3880.2445            0    2740.3453    17.474003    20.582067    21.318242    7667.1291    2492.9396    4234.5759    1493.5205    411.38069    967.61263   -1107.8793   -3114.5621 
 6507000    263.09233   -3885.2304   -3434.2992   -3885.2304            0    4665.0224    17.466506    20.573237    21.309097    7657.2655    3164.7523    5406.6611    5423.6537    1105.4763    233.59435    572.45005   -2913.3405 
 6508000    270.56315   -3873.6929   -3409.9569   -3873.6929            0    4049.6621    17.439306    20.541198    21.275912    7621.5473    4683.9235    3524.7242    3940.3387    1171.2451    611.11882   -397.38197    -2959.827 
 6509000    278.16274   -3880.5703   -3403.8089   -3880.5703            0    4067.0119    17.395983     20.49017    21.223058    7564.8877    3746.2419     5714.163     2740.631     565.0136    196.53836    1093.5748   -2955.1112 
 6510000    258.99059   -3844.5262   -3400.6252   -3844.5262            0    3816.1354     17.51221     20.62707    21.364855     7717.532    3093.1082    4736.3884    3618.9097   -750.42173    1184.4367    1323.2601   -2971.1104 
 6511000     265.8981   -3861.8134   -3406.0731   -3861.8134            0    3607.5018    17.432472    20.533149    21.267575    7612.5909    2649.3234    4168.3275    4004.8543   -434.93822   -362.87556   -1754.6816   -3005.5617 
 6512000    275.86085   -3843.9925   -3371.1764   -3843.9925            0    2354.4617    17.436155    20.537487    21.272068    7617.4171    2585.5134    1046.8128     3431.059    224.66339   -865.88948   -509.85866    -3109.614 
 6513000    270.29483   -3850.1299   -3386.8539   -3850.1299            0    2697.2975    17.448245    20.551728    21.286819    7633.2744    2032.0685    3466.4289     2593.395    145.22984    -245.0611   -35.090087   -3086.5813 
 6514000    266.62134     -3902.02   -3445.0402     -3902.02            0    2830.6227    17.414281    20.511722    21.245382    7588.7842    2085.9934    3329.2634    3076.6113    -11.04989   -72.020449    1804.4048   -3131.7621 
 6515000    260.71409   -3873.1575   -3426.3025   -3873.1575            0    4397.6159    17.395925    20.490102    21.222988    7564.8125    1840.2567    5901.4993    5451.0919   -1205.8906      202.864   -61.847503   -2941.1354 
 6516000    274.28237    -3890.358   -3420.2474    -3890.358            0    3585.7788    17.479307    20.588315    21.324714    7674.1135    1520.5334    4076.4304    5160.3726    -2225.559   -1991.9971    173.16593   -3018.9304 
 6517000    261.23035   -3862.6579    -3414.918   -3862.6579            0    3257.8352     17.47454      20.5827    21.318898    7667.8368    4148.3137    1573.1347    4052.0572    749.31682    112.78569   -92.105334   -3050.6024 
 6518000    258.41468   -3907.2869    -3464.373   -3907.2869            0    1133.1425    17.506481    20.620322    21.357866    7709.9609    -178.8813    1703.0343    1875.2746    1336.0278    901.20432   -69.171593   -3336.9603 
 6519000    257.28574   -3839.5776   -3398.5986   -3839.5776            0    2597.8378    17.483683     20.59347    21.330053    7679.8792    1454.4681    3057.5645    3281.4807    150.66958   -1347.2462    872.87565   -3107.6326 
 6520000    248.91609   -3858.3845   -3431.7508   -3858.3845            0    6069.5556    17.371127    20.460894    21.192735    7532.5082    5132.9779    7133.6412    5942.0478   -1059.2598   -165.48853   -1114.6637   -2764.9865 
 6521000    262.69373   -3898.5646   -3448.3166   -3898.5646            0    2522.4311    17.513145    20.628172    21.365997    7718.7691    3157.6811    3082.8053    1326.8068   -1395.9209   -420.27556   -674.42634   -3164.3657 
 6522000    269.70238   -3872.9827    -3410.722   -3872.9827            0    4449.6473    17.453145    20.557499    21.292796    7639.7061    4902.4381    4727.2409    3719.2627    -357.4134   -711.07789   -486.14939   -2914.9544 
 6523000    257.10603   -3886.9368   -3446.2659   -3886.9368            0    3277.9349    17.483903    20.593728    21.330321    7680.1686    5249.4576    2514.8315    2069.5157   -649.94324   -433.48799   -31.171697    -3079.113 
 6524000    272.68978   -3807.2963   -3339.9154   -3807.2963            0    3755.1919     17.40258     20.49794    21.231107    7573.4976    4863.0919    3541.8608    2860.6228   -198.23569    2225.9744     1782.815   -2925.1481 
 6525000     258.2927   -3853.2675   -3410.5626   -3853.2675            0    1352.6918    17.542866    20.663179    21.402256    7758.1336    144.78717    191.20377    3722.0843    1059.5198       -274.4   -108.77737   -3257.5131 
 6526000    283.31907   -3868.4502    -3382.851   -3868.4502            0    1889.3789    17.461662    20.567531    21.303187    7650.8964    2199.4377    1099.2016    2369.4974   -838.60195   -274.00639     83.07374   -3172.0332 
 6527000    269.82419   -3843.2237   -3380.7543   -3843.2237            0    2892.5277    17.397135    20.491527    21.224464    7566.3908    1452.4953     4568.227    2656.8608   -116.45579    8.7873927   -1631.1642   -3061.5695 
 6528000    252.76097   -3868.0201   -3434.7964   -3868.0201            0    4231.6796    17.389065    20.482022    21.214619    7555.8667    4564.5522    3930.6014    4199.8853   -1663.5493    530.46702   -1446.7921   -2968.4883 
 6529000    249.56508   -3882.0565   -3454.3105   -3882.0565            0    2527.4227    17.519859     20.63608    21.374188      7727.65    2506.0107     3262.329    1813.9283   -829.56986   -193.60307     -26.9507   -3169.4704 
 6530000    268.58064   -3853.2257   -3392.8877   -3853.2257            0    2634.1766    17.425127    20.524498    21.258614    7602.9728    2930.3467    2845.8119    2126.3712   -430.90702   -1610.3556     1309.416   -3100.8061 
 6531000    262.49888   -3831.5773   -3381.6632   -3831.5773            0    2040.1348    17.373187     20.46332    21.195248     7535.188    1543.8678    2996.1578    1580.3789   -2062.8611    1428.0176   -427.02853   -3157.4667 
 6532000    268.40214   -3846.8781    -3386.846   -3846.8781            0    2812.6932    17.387391     20.48005    21.212576    7553.6844    3837.7493    1937.3395    2662.9907    728.93427   -984.09859    126.70599    -3076.992 
 6533000    266.67079    -3841.737   -3384.6724    -3841.737            0     3673.353    17.486285    20.596534    21.333227    7683.3086    4038.3736    4690.2529    2291.4324    760.39874   -1954.3333   -109.69334   -2973.0616 
 6534000    250.13697   -3857.5138   -3428.7876   -3857.5138            0    3995.1867    17.520369     20.63668    21.374809    7728.3239    3790.8072    4608.4506    3586.3024     277.4835    668.95468     328.3641   -2978.4914 
 6535000    256.98877   -3890.8462   -3450.3762   -3890.8462            0    6286.9215    17.340473    20.424786    21.155336    7492.7006    5869.1214    6205.1568    6786.4865    879.37493   -1394.0899   -139.16633   -2763.3832 
 6536000    259.69535   -3870.9655   -3425.8566   -3870.9655            0    3492.9824    17.389173    20.482149     21.21475    7556.0071    3091.3517    4744.4791    2643.1164    699.02349    994.26059    1.6588826   -3040.9417 
 6537000    274.06265   -3873.8683   -3404.1343   -3873.8683            0    5226.8819     17.38764    20.480344    21.212881    7554.0096    5406.8586    5332.0634    4941.7239    663.43893    582.44131    418.20396   -2828.3019 
 6538000     262.9649    -3852.017   -3401.3041    -3852.017            0    5281.0783    17.317287    20.397477     21.12705    7462.6861    5663.9416      4181.33    5997.9632   -737.05015   -1035.2278   -1208.1947   -2826.5347 
 6539000    266.04803   -3885.8455   -3429.8483   -3885.8455            0    4346.8218    17.441764    20.544094    21.278912    7624.7713    4969.3825    5356.0416    2715.0413   -545.69926    1103.3368    1432.3417    -2946.484 
 6540000    259.97623   -3884.0617   -3438.4713   -3884.0617            0    1500.1516    17.509443    20.623812     21.36148    7713.8753    402.48437    2315.8965    1782.0738    670.41194    268.49918   -36.177344   -3269.7059 
 6541000    266.23678   -3878.4072   -3422.0864   -3878.4072            0    2004.6311    17.556985    20.679809     21.41948    7776.8799    4083.8955   -146.80659    2076.8043   -722.96993   -526.81143   -45.520567   -3194.7256 
 6542000    257.42354   -3849.8288   -3408.6137   -3849.8288            0    3943.3921    17.336583    20.420205    21.150591    7487.6598     3429.786    4429.3296    3971.0608    671.63425   -562.88527   -15.489795   -2977.9959 
 6543000    265.89489   -3855.8282   -3400.0935   -3855.8282            0    3058.7116    17.468679    20.575796    21.311747    7660.1235    3456.2884    2357.5256    3362.3206   -37.633192    -207.1173    362.17649   -3058.3894 
 6544000     259.4252   -3846.3726   -3401.7266   -3846.3726            0    5104.9258    17.366145    20.455025    21.186656    7526.0282    5333.6809    5161.3067    4819.7899   -324.80722    759.80542   -1162.9283    -2841.413 
 6545000    252.89006   -3900.2948   -3466.8499   -3900.2948            0    3119.1135    17.430058    20.530306     21.26463    7609.4294    3733.4776    3277.2811    2346.5819    750.81936    992.49498    1148.1659    -3120.704 
 6546000    268.54346   -3858.5632   -3398.2889   -3858.5632            0    4335.5179    17.356322    20.443455    21.174673    7513.2649    4388.3453    2793.6736    5824.5348    278.61025    1421.1107    693.36796   -2923.2321 
 6547000    257.28338   -3873.7268   -3432.7519   -3873.7268            0    4898.4581    17.326047    20.407794    21.137737    7474.0161    5742.1967    3939.0989    5014.0787    -1426.999   -1086.4538   -100.85945   -2898.8157 
 6548000    262.06136   -3875.7682    -3426.604   -3875.7682            0    1970.1765    17.429341    20.529462    21.263756    7608.4907      2026.01    1702.7872    2181.7325    207.86729   -515.42154    844.09021   -3207.9892 
 6549000    268.59052   -3864.6175   -3404.2625   -3864.6175            0    3164.3808    17.427698    20.527526    21.261751    7606.3386    2045.8218    2299.3275    5147.9931    825.68626     205.1811   -383.16157   -3053.2357 
 6550000    258.19785   -3888.2699   -3445.7277   -3888.2699            0    3647.2441    17.348538    20.434286    21.165175      7503.16    2529.7975    3460.4829    4951.4519   -362.92201   -251.75625   -1244.7782   -3046.6247 
 6551000    260.42801    -3857.113   -3410.7483    -3857.113            0    2107.9353    17.476423    20.584918    21.321196    7670.3161    2284.3555    2910.0352    1129.4151    132.84999    413.11359     956.7931   -3174.9468 
 6552000     262.8662   -3901.8412   -3451.2975   -3901.8412            0    3892.7625    17.379398    20.470635    21.202825    7543.2719    3094.8804    4770.9518    3812.4552   -95.635669    1193.3453    213.66567   -3023.0513 
 6553000    250.74712   -3880.5733   -3450.8013   -3880.5733            0    2983.4022    17.422749    20.521697    21.255713    7599.8605    3105.1584    4315.9646    1529.0835   -512.87432    -371.8235   -732.21947   -3120.1325 
 6554000    279.12688    -3863.012    -3384.598    -3863.012            0    4393.7533    17.366458    20.455393    21.187038     7526.435    4617.9035    5543.7051    3019.6513    478.01953    990.20686    330.12692   -2902.3162 
 6555000    259.65853    -3851.545   -3406.4991    -3851.545            0     3497.644    17.428488    20.528457    21.262715    7607.3734    3781.9388    3222.8872     3488.106    61.891574    -1625.546    1125.9415   -3018.4504 
 6556000    268.21981   -3828.0599   -3368.3403   -3828.0599            0    2972.9222    17.474733    20.582927    21.319133    7668.0906    3056.6183     2610.174    3251.9745    273.75011    529.32632  -0.74272921   -3035.8747 
 6557000    262.53467   -3861.9564    -3411.981   -3861.9564            0    3157.7526     17.47534    20.583642    21.319874    7668.8893    3011.9153    2593.0583    3868.2842    615.12365   -672.19512   -145.50833   -3058.8088 
 6558000    260.28939   -3851.7391    -3405.612   -3851.7391            0     3403.894     17.52482    20.641924     21.38024    7734.2163    2642.8358    4537.9927    3030.8536   -57.542495     358.2563    542.11245   -3021.6677 
 6559000    257.65004    -3854.372   -3412.7687    -3854.372            0     4436.737     17.59129    20.720216    21.461333    7822.5555    4965.5911    3284.8713    5059.7485   -31.153173   -615.24381   -129.12107   -2906.6082 
 6560000    244.53198   -3876.2659   -3457.1465   -3876.2659            0    4411.2834    17.439626    20.541575    21.276302    7621.9669    5598.6991    4314.7359    3320.4152    1506.9135   -225.44845   -660.51419   -2966.7945 
 6561000    258.07883   -3868.1288   -3425.7905   -3868.1288            0    3384.0164    17.467151    20.573997    21.309883    7658.1138    3262.4748    2539.5711    4350.0034   -545.91336   -903.37013    607.35944   -3047.8441 
 6562000    262.00486   -3834.2064   -3385.1391   -3834.2064            0    5551.6105    17.381443    20.473044     21.20532    7545.9356    4616.3406    6573.9581    5464.5329   -1119.9007    1257.2168    2148.3204   -2774.1858 
 6563000    266.05855   -3805.9043   -3349.8891   -3805.9043            0    3573.6485    17.437066     20.53856    21.273179     7618.611    4003.2664    2055.8973    4661.7818    376.93081    548.52741   -847.51948   -2952.8223 
 6564000    268.56896   -3860.4564   -3400.1384   -3860.4564            0    3075.3811    17.383328    20.475264     21.20762    7548.3906    2065.5709    3862.8013    3297.7711     472.7665   -225.55122    340.50778   -3061.5834 
 6565000    264.07502   -3872.2947   -3419.6791   -3872.2947            0    3710.9063    17.443281    20.545881    21.280762     7626.761     3986.086    2841.4749    4305.1579   -680.72707    27.557751   -590.38807   -3006.9206 
 6566000    272.56533   -3852.9533   -3385.7856   -3852.9533            0    3297.8784    17.443029    20.545585    21.280455    7626.4308    2276.3045    5195.6297    2421.7011    1251.8111   -343.30135   -716.01419   -3018.9835 
 6567000    249.19256   -3875.2335   -3448.1259   -3875.2335            0    3078.0139    17.411054    20.507922    21.241445    7584.5664    4137.1645    2434.2561    2662.6213   -836.03187    1502.5892   -121.08698   -3107.6572 
 6568000    264.80802   -3884.3135   -3430.4417   -3884.3135            0    3962.1528    17.386904    20.479476    21.211982    7553.0501    4846.3323    3534.7218    3505.4044   -186.40603   -696.15393   -402.74704   -2993.9967 
 6569000    245.62622   -3871.6205   -3450.6256   -3871.6205            0    2404.1889    17.474115    20.582199    21.318379    7667.2766    2434.7825    1612.7312    3165.0528   -470.31866    1240.8648    486.51819   -3181.7907 
 6570000    267.60515   -3889.4347   -3430.7686   -3889.4347            0    2708.6571    17.478411    20.587259    21.323621    7672.9334    2922.3958    1980.0002    3223.5753   -65.294835   -237.36101    1162.9674   -3127.6648 
 6571000    273.85822   -3892.0812   -3422.6976   -3892.0812            0    3904.3099     17.45177     20.55588    21.291119    7637.9016    4152.9606    4999.1961    2560.7729    330.49517       -73.27     22.53988   -2987.7928 
 6572000    271.24939   -3811.7769   -3346.8647   -3811.7769            0    1934.0548    17.406086     20.50207    21.235384    7578.0761    2116.4826    1626.2392    2059.4426    479.41599    232.44635   -879.79112    -3133.116 
 6573000    248.74479   -3867.1293   -3440.7892   -3867.1293            0    3633.3979    17.389359    20.482368    21.214977    7556.2499    2739.7159    5052.9049    3107.5727    2132.9389    639.84919   -334.35478   -3040.3882 
 6574000    266.07974   -3865.4858   -3409.4342   -3865.4858            0    3280.0373    17.503367    20.616654    21.354066    7705.8465    3948.3543    2232.2724    3659.4853   -1051.8589   -400.34897    170.49032   -3040.8175 
 6575000    258.68913   -3830.9994   -3387.6151   -3830.9994            0     4319.601     17.51196    20.626775     21.36455    7717.2015    3591.3935     4939.372    4428.0374   -644.18756    349.85549    747.76349    -2901.455 
 6576000    256.44004   -3877.0774    -3437.548   -3877.0774            0    2327.8137    17.533911    20.652631     21.39133    7746.2582    3761.3562    2119.8885    1102.1964   -269.96546   -397.15428    1135.1224    -3174.572 
 6577000    252.07599   -3884.4987   -3452.4491   -3884.4987            0    4200.2192    17.490273    20.601231    21.338092    7688.5661    4558.3803    3551.9499    4490.3274    614.05914    677.88635    1049.0628   -2981.4792 
 6578000    285.54519   -3860.3462   -3370.9315   -3860.3462            0    3233.0129    17.546867    20.667891    21.407137    7763.4423    4249.6617    958.76157    4490.6155   -596.04497    51.644958   -228.05193   -3004.8838 
 6579000    256.08951   -3871.5561   -3432.6275   -3871.5561            0    5139.5606    17.461915    20.567829    21.303495    7651.2285    3830.2244    6641.9324    4946.5249   -1007.6519     -406.008   -1.2315731    -2859.128 
 6580000    271.99833    -3839.097   -3372.9012    -3839.097            0    2163.7724    17.501869     20.61489    21.352239    7703.8689    3113.1148     2177.742    1200.4604    -1310.466    1393.6938   -669.92071   -3129.7948 
 6581000    258.57779   -3848.2322   -3405.0387   -3848.2322            0    3800.3021      17.4562    20.561098    21.296523    7643.7191    4470.1603    3275.4988    3655.2472    638.66092    538.57869    1240.6682    -2981.397 
 6582000      264.555   -3881.9778   -3428.5396   -3881.9778            0    4985.0574    17.411362    20.508285    21.241821    7584.9695    6229.9723    6331.5988    2393.6011    2978.0238     309.2003   -1178.5863   -2877.0975 
 6583000    251.75105   -3858.6979   -3427.2052   -3858.6979            0    3228.8014    17.519821    20.636036    21.374141    7727.5997    3090.9583    4686.4927    1908.9532    345.67855   -275.70253    127.44925   -3063.3221 
 6584000    275.75564   -3835.4315   -3362.7958   -3835.4315            0    2593.3237    17.562065    20.685793    21.425678    7783.6328    3099.0519    2252.4193    2428.4999    891.45124   -322.01798    1654.3127   -3068.4113 
 6585000    274.47563   -3886.2466   -3415.8047   -3886.2466            0    4352.5974    17.404621    20.500344    21.233597    7576.1626     4002.973    4656.3688    4398.4504    195.57966    1277.6614    12.217498   -2934.8838 
 6586000    269.62789   -3868.8932   -3406.7602   -3868.8932            0    4384.1483     17.49432    20.605999     21.34303     7693.905    3222.5455    4445.8319    5484.0675    7.9926511      -186.49     -502.856   -2914.8249 
 6587000    265.67172   -3890.7252    -3435.373   -3890.7252            0    3530.8087    17.539022    20.658652    21.397566    7753.0349    3049.7328    4058.6601    3484.0333   -59.086177    162.87862   -1388.2577   -3036.1442 
 6588000    272.20427   -3853.4402   -3386.8914   -3853.4402            0    3271.7778    17.610905     20.74332    21.485263    7848.7526    3430.0278     2492.725    3892.5806   -552.72019    1218.2325   -507.35508   -3012.3841 
 6589000    254.55671   -3897.1303   -3460.8288   -3897.1303            0    4504.3822    17.511482    20.626213    21.363967      7716.57    4730.5692    3944.0391    4838.5383   -1384.8836    600.48531    277.30721   -2953.9134 
 6590000    261.17041   -3876.1414   -3428.5042   -3876.1414            0    4120.5945    17.529586    20.647537    21.386054    7740.5275    4598.9183    3669.3805    4093.4849   -1059.5032   -1149.1821   -486.51121     -2963.34 
 6591000    252.70921   -3883.2957   -3450.1607   -3883.2957            0    3379.6621    17.482621    20.592219    21.328757    7678.4796    4172.4621    186.76244    5779.7617   -454.54329    846.70722    670.94032   -3071.6969 
 6592000    259.28711   -3829.8055   -3385.3962   -3829.8055            0    5182.0253    17.451527    20.555594    21.290822     7637.582    5125.3126    4903.1058    5517.6576    1777.8877    1889.5966    35.963493   -2808.1896 
 6593000    259.25221   -3876.8559   -3432.5064   -3876.8559            0    2821.6995    17.561859     20.68555    21.425427    7783.3589    2481.9739    2782.1136    3201.0112    425.16384     571.4487    901.20604   -3112.2088 
 6594000    251.61436   -3848.3976   -3417.1392   -3848.3976            0    3547.9882    17.420675    20.519253    21.253182    7597.1463    2432.9225    4556.5702    3654.4719    -920.2724    970.06248   0.99422871   -3024.0342 
 6595000    255.33302    -3864.808   -3427.1759    -3864.808            0    3368.5505    17.404105    20.499736    21.232967    7575.4885    2610.9278    5286.5593    2208.1643    489.80187    765.35271    344.00198    -3055.016 
 6596000    272.08828   -3813.5142   -3347.1642   -3813.5142            0    4934.4448    17.337991    20.421863    21.152308     7489.484    5905.4889    3270.4526    5627.3929     442.7925    64.784126    1747.5091   -2808.1923 
 6597000    260.57335   -3834.1696   -3387.5558   -3834.1696            0     2772.964    17.452008     20.55616    21.291409    7638.2135    3671.3224     2804.172    1843.3975    1506.4117    495.73062    654.30256     -3078.66 
 6598000    242.91155   -3855.1403   -3438.7982   -3855.1403            0    2714.4572    17.432743    20.533468    21.267905    7612.9459    2494.2277    2464.7305    3184.4133   -353.68099    1770.5151    317.45659   -3137.4202 
 6599000    269.12357   -3879.2196    -3417.951   -3879.2196            0    3381.2081    17.430631    20.530981    21.265329    7610.1796    2120.0754     5124.006    2899.5428    776.51376    164.72982      75.7039    -3042.682 
 6600000    250.32627   -3858.0054   -3428.9548   -3858.0054            0    3304.3528    17.425963    20.525482    21.259634    7604.0671    3545.7329    2487.1736     3880.152    769.22845   -408.54129   -577.62185   -3062.5102 
 6601000    256.12608   -3885.6565   -3446.6652   -3885.6565            0    5997.3372    17.393549    20.487303    21.220089    7561.7134    6801.5089    6736.5646    4453.9382   -253.12583   -148.96051   -323.98482   -2785.2798 
 6602000    269.60468   -3876.9136   -3414.8204   -3876.9136            0    3138.5307    17.478033    20.586814     21.32316    7672.4358     2523.422    4500.4179    2391.7521    388.72164   -1087.9623    320.76176   -3063.6358 
 6603000    265.88305   -3868.6818   -3412.9674   -3868.6818            0    3672.3044    17.565721    20.690099    21.430138    7788.4946    2940.9524    5173.3504    2902.6105    105.61641   -406.87341   -960.31822   -2995.8406 
 6604000    270.85608   -3866.4022   -3402.1641   -3866.4022            0    4340.7696    17.384119    20.476196    21.208585    7549.4211    2987.5145    5793.1725    4241.6217    952.78321    -693.4313    411.22213    -2924.243 
 6605000    276.27018   -3861.6929   -3388.1753   -3861.6929            0    2833.2968    17.562553    20.686367    21.426273    7784.2811     2760.595    1991.8144     3747.481    -424.8007   -736.85248    236.04191   -3066.5231 
 6606000    249.10206   -3884.6399   -3457.6875   -3884.6399            0    3135.0436    17.509337    20.623687    21.361351     7713.735    3521.9405    2998.7354    2884.4548    -1497.268   -318.41182   -875.68845   -3105.0048 
 6607000     266.2357   -3914.7025   -3458.3836   -3914.7025            0    3256.5828    17.465095    20.571575    21.307375    7655.4097    2988.5849    3958.9483     2822.215    230.92729    -756.3425   -497.49396   -3094.7982 
 6608000    248.46979   -3862.4675   -3436.5988   -3862.4675            0    1940.8589    17.463808    20.570058    21.305804     7653.717    4123.3363   -24.148117    1723.3884    702.52009    68.810087   -492.50072    -3219.957 
 6609000    261.11621   -3887.0117   -3439.4675   -3887.0117            0    3422.3953    17.405888    20.501837    21.235143    7577.8179     3601.765    2995.0439    3670.3771   -380.58595   -1218.2572   -4.9503985   -3061.2425 
 6610000    256.76564   -3865.4187   -3425.3312   -3865.4187            0    3414.6548    17.417987    20.516088    21.249903    7593.6304    3660.7058     2378.469    4204.7895   -209.94864   -280.72786    417.72207   -3047.1742 
 6611000    261.46443   -3855.9994   -3407.8583   -3855.9994            0    3501.4901    17.431626    20.532153    21.266543    7611.4836      3487.22    5465.9575     1551.293     -111.684    156.42237   -313.10199    -3019.173 
 6612000    262.78179   -3869.4294   -3419.0304   -3869.4294            0    3139.3362    17.416136    20.513907    21.247645    7591.2097     3110.845    3089.6165    3217.5471   -1131.9019    103.95633    629.47451   -3071.4745 
 6613000    259.90084   -3874.2979   -3428.8368   -3874.2979            0    3157.9565    17.424518    20.523781    21.257871    7602.1759    2405.2604    3127.9727    3940.6363   -1009.3351    485.24218    313.42457   -3078.7143 
 6614000    270.30907   -3847.5265    -3384.226   -3847.5265            0    3406.1275    17.435767    20.537031    21.271595     7616.909    4289.3482    3548.8053     2380.229   -69.465798    -577.5391    640.41099    -3005.857 
 6615000    269.26584   -3840.6217   -3379.1093   -3840.6217            0    3453.5567     17.44298    20.545527    21.280395     7626.366    2757.9171    3144.7956    4457.9574   -1893.1117    474.57143    190.22506   -2994.9953 
 6616000    249.39399   -3855.6621   -3428.2093   -3855.6621            0    2684.3633     17.48633    20.596587    21.333281     7683.367    1704.2449    2546.0592    3802.7857    302.25995   -237.92384   -1105.5666   -3127.4156 
 6617000    248.38556   -3873.9003    -3448.176   -3873.9003            0     3910.417    17.417219    20.515183    21.248967    7592.6264    2471.0444    4300.4405    4959.7661     241.5365   -165.94851    645.19497   -3015.1729 
 6618000    255.06062   -3897.5083   -3460.3431   -3897.5083            0     2016.841    17.474896     20.58312    21.319333    7668.3058   -536.15608    3591.4837    2995.1954    1216.6658   -181.26912    -1513.226    -3234.791 
 6619000    267.45755   -3875.3144   -3416.9013   -3875.3144            0    6122.7005    17.352092    20.438472    21.169511    7507.7721    7893.2013     6637.985    3836.9152   -1027.0022   -191.96258   -1102.1846   -2746.5075 
 6620000    259.20693   -3873.1781   -3428.9063   -3873.1781            0    4227.0519    17.407576    20.503825    21.237202    7580.0219    4818.7082    4207.9698    3654.4776   -1127.5048    68.077132    249.88083    -2961.619 
 6621000    260.77198   -3890.6649   -3443.7107   -3890.6649            0    2206.1524    17.477341    20.585999    21.322315    7671.5244    3011.5107    1725.7344     1881.212   -953.06016    -116.8515    679.37986   -3196.8835 
 6622000    279.34007   -3871.4772   -3392.6979   -3871.4772            0    4429.0713    17.430605    20.530951    21.265298    7610.1462    5912.0799     3637.008    3738.1261   -1447.8264   -46.206721    228.87221   -2901.1322 
 6623000    246.72677   -3855.1191   -3432.2378   -3855.1191            0    3830.4556    17.574529    20.700474    21.440884    7800.2168    3878.4213    4599.3427    3013.6028    371.07534   -65.748213   -1410.0173   -2996.4923 
 6624000    276.15721    -3846.819    -3373.495    -3846.819            0    4154.2514    17.462811    20.568885    21.304589    7652.4071    5263.3414    3427.1932    3772.2196     1344.439     724.1813   -302.01038   -2909.8702 
 6625000    266.62102   -3801.7314   -3344.7521   -3801.7314            0    4070.7333    17.515698    20.631179    21.369111    7722.1451    4150.8352    3564.3726    4496.9922    448.07188    399.51634    1527.9116   -2886.3078 
 6626000     260.6608   -3837.4113   -3390.6476   -3837.4113            0     5110.112    17.388222    20.481028     21.21359    7554.7674    2850.2266    5858.7275    6621.3821    138.60588    935.73266   -794.26297   -2827.6229 
 6627000    263.76519   -3849.6099   -3397.5254   -3849.6099            0    4143.1257    17.437697    20.539304     21.27395    7619.4391    2842.0153    5508.1838    4079.1779    390.92995    82.989778   -272.68359   -2937.1342 
 6628000     261.1631   -3861.4774   -3413.8528   -3861.4774            0    3280.3241     17.49798     20.61031    21.347495    7698.7349    450.28757    4748.4781    4642.2067   -1775.2728    89.266901    648.48046   -3045.5441 
 6629000    268.90187   -3858.0804   -3397.1918   -3858.0804            0    2489.4349    17.511893    20.626697    21.364469    7717.1133    3511.6467    2470.8802     1485.778    1369.7204    791.26004   -1576.5427   -3117.0154 
 6630000    258.54437   -3888.9191   -3445.7829   -3888.9191            0    3883.0998    17.431123     20.53156    21.265929    7610.8243    4771.9728    2855.9632    4021.3635    427.37183    1342.2825    2.6501261   -3014.7741 
 6631000    260.88392   -3879.2731    -3432.127   -3879.2731            0    3910.5663    17.365817    20.454639    21.186257    7525.6024    2959.8123    5706.0226     3065.864    457.34933    -279.8704    1022.9617   -3002.9298 
 6632000    259.29878   -3854.7741   -3410.3448   -3854.7741            0    3731.1678    17.453121    20.557472    21.292767    7639.6757    3723.3521     4101.556    3368.5953    1621.6017    22.856182    410.14945   -2994.6299 
 6633000    266.77607   -3899.6298   -3442.3847   -3899.6298            0    4459.8597    17.397078     20.49146    21.224395    7566.3173    5526.5836    2794.2109    5058.7846   -880.85286    244.81372    -211.6347   -2950.2527 
 6634000    258.06005    -3906.593   -3464.2869    -3906.593            0    5508.5308    17.401626    20.496816    21.229943    7572.2518    5113.0911    5428.8444    5983.6569   -1115.7458    853.77916    1636.1527   -2855.9604 
 6635000     253.9599   -3922.4106   -3487.1321   -3922.4106            0    4174.7782    17.435429    20.536633    21.271183    7616.4662    4205.9441    3380.1645    4938.2261   -1956.0433   -240.45205    27.738338   -3023.4046 
 6636000    258.96311   -3872.1067   -3428.2528   -3872.1067            0    3632.7376     17.44246    20.544914     21.27976    7625.6836     3609.685     4342.886    2945.6419    54.530746   -365.27373    1054.6208    -3024.246 
 6637000    251.85755   -3857.6337   -3425.9585   -3857.6337            0     3888.831    17.422838    20.521802    21.255822    7599.9773    3694.4576    4119.4964    3852.5389    786.48674   -551.14975    461.32571   -2994.9287 
 6638000    268.88442    -3872.223   -3411.3644    -3872.223            0    3470.6745    17.393383    20.487107    21.219886    7561.4965      2212.91    4931.6088    3267.5047   -851.35005   -557.35583    -217.6324   -3028.6299 
 6639000    237.08933   -3896.3363   -3489.9733   -3896.3363            0    3973.6413    17.433805    20.534719    21.269201    7614.3377    4603.3427    3006.0036    4311.5776   -1351.2432    845.39878   -484.98488   -3048.7112 
 6640000    261.04366   -3875.8454   -3428.4255   -3875.8454            0    3154.1738    17.421288    20.519976     21.25393    7597.9485    3704.1161    3072.5414    2685.8638    845.34029     43.58819    127.29854   -3078.9169 
 6641000    251.49785   -3888.5436   -3457.4849   -3888.5436            0    3052.6132    17.434126    20.535097    21.269593    7614.7582    6248.8618    2386.2738    522.70388   -517.14449   -627.27079    307.92814   -3118.4817 
 6642000    257.53359   -3882.1116   -3440.7078   -3882.1116            0     5286.531    17.381089    20.472627    21.204888    7545.4746    5576.6797    4388.0164    5894.8968    311.78041    -1348.519    -158.8393   -2858.9621 
 6643000    259.29437   -3881.5117   -3437.0901   -3881.5117            0    5031.7613    17.386387    20.478868    21.211352    7552.3765    4197.8311     5215.236    5682.2166    197.39126    965.20904    79.521064   -2882.8734 
 6644000     259.0991   -3872.5121   -3428.4251   -3872.5121            0    3932.2728    17.357277    20.444579    21.175837    7514.5043      5526.56    1929.2069    4341.0514   -1389.7349    1229.3779   -179.58357   -2997.4821 
 6645000      266.643   -3848.3263   -3391.3093   -3848.3263            0    3328.7716    17.486763    20.597097     21.33381    7683.9382    4321.4713     2712.159    2952.6846    447.82983    1195.2534    1250.3435   -3018.2793 
 6646000    261.38454   -3893.3516   -3445.3474   -3893.3516            0    3988.2709    17.472756    20.580598    21.316721    7665.4881    4957.7908    2551.3728     4455.649   -250.85644   -1291.2206    313.57378   -2999.4856 
 6647000    257.95855   -3901.2658   -3459.1337   -3901.2658            0    3349.7883    17.403907    20.499503    21.232726    7575.2302    3630.7367    3542.8333     2875.795    887.14304   -374.10111    986.51429   -3089.0592 
 6648000    256.95842   -3899.6641   -3459.2462   -3899.6641            0    3852.4887    17.333958    20.417112    21.147388    7484.2584    3879.6896    4790.6916     2887.085    472.90542   -293.51094   -410.78808   -3038.7461 
 6649000    263.94949    -3811.103   -3358.7026    -3811.103            0    3924.2151    17.483053    20.592727    21.329284    7679.0484    3564.5718    4535.4418    3672.6318   -1159.7816   -641.88424   -154.10262   -2919.2256 
 6650000    257.59267   -3859.9047   -3418.3997   -3859.9047            0    3572.1822    17.459824    20.565367    21.300945    7648.4809     4072.633    3037.0325    3606.8811   -2511.0433   -642.17283    979.08635   -3019.9398 
 6651000    258.56855   -3843.3909   -3400.2133   -3843.3909            0    2788.1102    17.498373    20.610772    21.347974    7699.2525    3179.3547    2232.2462    2952.7298   -1797.9699   -73.457631   -58.848459   -3087.1484 
 6652000    259.68972   -3897.8077   -3452.7084   -3897.8077            0    1335.6709    17.570359    20.695562    21.435797    7794.6658    799.24642    1568.0141    1639.7522   -234.18853    440.76055   -969.68147    -3300.873 
 6653000    255.41331   -3856.5739   -3418.8043   -3856.5739            0    2313.3712     17.46478    20.571204    21.306991    7654.9957    1494.6775    3320.9467    2124.4894    535.60506    889.74849   -334.81094   -3160.5389 
 6654000    256.73667   -3900.0752   -3460.0374   -3900.0752            0    3347.3086    17.448819    20.552404    21.287518     7634.027    2761.6891     3983.295    3296.9418   -374.62743    161.25896   -633.30493   -3087.3666 
 6655000    256.22753   -3887.2275   -3448.0623   -3887.2275            0     2844.602    17.489411    20.600216    21.337041    7687.4299    1888.9017    4869.3422     1775.562    902.06957   -122.30647    441.35945   -3129.1446 
 6656000    247.00272   -3924.6815   -3501.3273   -3924.6815            0    3761.9209    17.448146    20.551612    21.286698    7633.1443    3960.7627    4285.3931    3039.6069   -1364.9331   -566.40825   -415.49463   -3082.5443 
 6657000    258.95801   -3911.8301    -3467.985   -3911.8301            0    2253.3837    17.424682    20.523974    21.258071    7602.3902    2572.7138    2225.4288    1962.0086    1120.3835   -125.15915   -1271.0744   -3218.1454 
 6658000    264.63319   -3898.8547   -3445.2824   -3898.8547            0    5908.2471    17.277826    20.350997    21.078908    7411.7863    6288.3851     4525.121    6911.2353    364.46939   -1483.9331   -189.67042   -2806.6405 
 6659000    265.96083   -3899.8359   -3443.9882   -3899.8359            0    2066.2064    17.499161      20.6117    21.348935    7700.2931    1632.3403    2869.9395    1696.3395    964.70602    853.74635   -2034.8639   -3211.9514 
 6660000    270.00083   -3870.7599   -3407.9877   -3870.7599            0      3086.54    17.376553    20.467284    21.199354    7539.5682    3692.8198    3324.6095    2242.1907    1674.0717   -615.56787   -1864.2789   -3068.6015 
 6661000    257.70437   -3912.5277   -3470.8312   -3912.5277            0    4208.4042    17.356588    20.443768    21.174997    7513.6105     3717.234     4199.074    4708.9047    325.71636    413.26357   -886.66591   -3009.6814 
 6662000    255.76108   -3895.1479   -3456.7822   -3895.1479            0    3857.0374    17.418273    20.516425    21.250253    7594.0054    2366.1502    5968.6703    3236.2918   -32.116342   -631.01008   -906.86014   -3029.6123 
 6663000    262.19597   -3891.6889    -3442.294   -3891.6889            0    4402.0827    17.400566    20.495568    21.228649    7570.8681    4787.1406    4859.7584    3559.3493    69.837871   -535.47292    1456.3304   -2956.2453 
 6664000    276.09337   -3915.4453   -3442.2308   -3915.4453            0    2317.2559    17.487002    20.597378    21.334101    7684.2528    2571.6423    2359.0834    2021.0422   -203.81178   -202.32671   -484.91847    -3182.543 
 6665000    265.16188   -3905.0727   -3450.5943   -3905.0727            0    3050.5411    17.531678    20.650001    21.388606    7743.2994     4903.709    3577.8289    670.08535   -57.274164   -498.37605     2178.446   -3106.1026 
 6666000    268.24944   -3879.6974   -3419.9271   -3879.6974            0    5705.8885    17.432303     20.53295    21.267369    7612.3702    6171.2254    4529.5364    6416.9038   -830.00201    418.99694    388.62691   -2786.4673 
 6667000    246.95796   -3899.9867   -3476.7092   -3899.9867            0    2811.7968    17.499747     20.61239     21.34965    7701.0665    3261.8757    3160.9563    2012.5584    1649.9618   -1800.1396   -553.18756   -3160.9102 
 6668000    261.42868   -3849.2472   -3401.1674   -3849.2472            0    5209.3836    17.499102    20.611631    21.348863    7700.2153    4955.8708    5955.1209    4717.1591   -1236.9088    300.92248    332.48765    -2816.155 
 6669000    273.05845   -3863.4608    -3395.448   -3863.4608            0    4703.7099    17.438278    20.539988    21.274659    7620.2005    5107.1869    5841.3816    3162.5613   -484.11882   -287.96896   -118.17934   -2872.7115 
 6670000    269.71477   -3880.8563   -3418.5744   -3880.8563            0    2567.3524    17.539422    20.659122    21.398053    7753.5643    2517.2293     1548.412    3636.4158   -1451.8475    -394.3926   -460.40964   -3128.2639 
 6671000    257.21546   -3859.3733   -3418.5148   -3859.3733            0    2080.1086    17.510637    20.625218    21.362936    7715.4531    2391.0336    1312.8659    2536.4263   -586.48152     14.13693   -271.56019   -3184.4568 
 6672000    271.43171   -3888.7035   -3423.4788   -3888.7035            0    4014.9257    17.423369    20.522427    21.256469    7600.6715    4311.3261     3760.988    3972.4631    493.77717    453.23083   -440.78956   -2978.4324 
 6673000    263.39299   -3875.3588   -3423.9122   -3875.3588            0    4630.6741    17.306397    20.384649    21.113764    7448.6156    6645.3573    3845.6756    3400.9895   -824.80163   -752.69788    440.41203   -2920.8801 
 6674000    253.94711   -3878.4393   -3443.1826   -3878.4393            0     1421.912    17.512371     20.62726    21.365052    7717.7452    2593.4832    928.38422    743.86853    867.49798   -456.16805    763.29792   -3283.1387 
 6675000    263.57569    -3851.251   -3399.4913    -3851.251            0    4396.1132    17.419517     20.51789     21.25177    7595.6317    4107.4194    4291.5739    4789.3464    1790.1997    -796.5806   -211.32869   -2912.5141 
 6676000    264.25728   -3871.6806   -3418.7526   -3871.6806            0    3922.9593    17.466995    20.573813    21.309693     7657.909    3937.4935    5105.1673    2726.2171    429.85378    823.34877   -185.40329   -2980.6258 
 6677000    273.87101   -3855.6633   -3386.2578   -3855.6633            0    4980.7131    17.551124    20.672906     21.41233    7769.0943    5442.0554    4869.9596    4630.1242    181.64673   -1097.8366    266.83766   -2821.9217 
 6678000    263.43905   -3852.0054   -3400.4799   -3852.0054            0    3907.5122    17.615478    20.748706    21.490842    7854.8679     3866.221     3501.352    4354.9635    332.08373    1146.3251    1135.2506   -2952.8541 
 6679000    253.65381   -3860.2451   -3425.4911   -3860.2451            0    4332.7116    17.422305    20.521173    21.255171    7599.2791    3281.4975    3441.9032     6274.734    1004.5541    -306.2231   -453.78962   -2945.3067 
 6680000     257.4635   -3860.6051   -3419.3215   -3860.6051            0    2379.2035    17.482417    20.591978    21.328508    7678.2101    1397.3543    4432.6454    1307.6108   -1147.4265    279.72489    166.72012   -3152.9011 
 6681000    270.80048   -3855.6015   -3391.4588   -3855.6015            0    4408.5039    17.461029    20.566786    21.302415    7650.0649    3347.0282    5708.6791    4169.8043   -1530.9314    -421.6423    284.38421   -2899.6092 
 6682000    275.86516   -3840.6763   -3367.8529   -3840.6763            0    3366.3199    17.516223    20.631797    21.369751    7722.8395    3978.0083    4563.1562    1557.7951   -1301.4906    116.11157   -48.562196   -2988.7053 
 6683000    257.04137   -3870.6386   -3430.0785   -3870.6386            0    4357.4517    17.492259     20.60357    21.340515    7691.1853    3289.3947    5305.8472    4477.1132   -689.01763   -25.146411     47.86012   -2941.3116 
 6684000    256.89003   -3880.1765   -3439.8758   -3880.1765            0      5336.95    17.401067    20.496159    21.229261    7571.5229    3487.1169    4709.3131      7814.42   -41.565697    1107.2811    1201.7345   -2850.5543 
 6685000    272.30723   -3865.3711   -3398.6458   -3865.3711            0    5515.1474    17.471569      20.5792    21.315273    7663.9258    6645.2281    5913.8727    3986.3415     695.8581   -188.47354   -769.93632   -2782.2151 
 6686000    267.75669    -3832.562   -3373.6362    -3832.562            0    4931.5054    17.448267    20.551754    21.286845    7633.3029    3390.9536    4008.9002    7394.6623   -928.18314    -943.6897   -1558.6384   -2824.6418 
 6687000    251.74155   -3856.2865   -3424.8101   -3856.2865            0    3412.6707    17.376125     20.46678    21.198832    7539.0114    3861.6019    1674.4452    4701.9651    1132.1719   -1029.5083   -565.31972   -3049.5912 
 6688000    270.22728   -3851.2314   -3388.0711   -3851.2314            0    3802.5134     17.43464    20.535703    21.270221    7615.4325     5984.569    3283.0829    2139.8882    1239.2258    567.52935   -1406.5798   -2965.7516 
 6689000    257.70501   -3876.5492   -3434.8516   -3876.5492            0    3246.2849    17.397034    20.491408     21.22434    7566.2588    3267.5505    3571.6754    2899.6286    973.80526    630.10187    755.71676   -3076.6367 
 6690000    269.39571   -3833.9924   -3372.2574   -3833.9924            0    5622.2212    17.376547    20.467278    21.199347     7539.561    6135.0523    7009.0945    3722.5168    2467.1442    1560.3955   -211.23179   -2754.0562 
 6691000    257.59626   -3836.5613   -3395.0502   -3836.5613            0    4180.0655    17.475585    20.583931    21.320173    7669.2124    4641.0798    2789.5042    5109.6124    313.19636    1275.2668   -207.92326   -2927.5199 
 6692000    262.98527   -3861.0348   -3410.2871   -3861.0348            0    2889.4678    17.553148     20.67529      21.4148    7771.7828    4080.0009    1507.7597     3080.643    209.94361   -180.70511    349.90496   -3082.7847 
 6693000    262.24572   -3857.1624   -3407.6822   -3857.1624            0    3504.0778    17.413968    20.511354       21.245     7588.375    2217.0469    4072.6738    4222.5128   -272.12385    608.80439    -539.1208   -3019.8905 
 6694000    276.84429   -3863.2763   -3388.7746   -3863.2763            0    3675.9259    17.407934    20.504246    21.237638    7580.4896    5076.7982    2259.9617    3691.0177   -356.89239   -32.401877   -938.41815   -2982.3875 
 6695000    259.52653   -3864.8748   -3420.0552   -3864.8748            0    2598.9459     17.44419    20.546952    21.281871    7627.9535    2635.8558    2818.4602    2342.5217   -80.340742   -666.98726     489.8625   -3130.9332 
 6696000    263.11815   -3857.1008   -3406.1253   -3857.1008            0    3510.4781    17.421299    20.519989    21.253944    7597.9629     4454.398    2429.0072    3648.0291    480.87869   -1476.8747   -236.07068   -3017.1345 
 6697000    276.17532   -3870.2757   -3396.9206   -3870.2757            0    4053.6746    17.363161     20.45151    21.183016    7522.1497    3958.0906    4471.2152     3731.718   -727.02086    245.78039   -85.292301    -2952.221 
 6698000    263.21599   -3856.6904   -3405.5472   -3856.6904            0    3796.4575    17.482797    20.592425    21.328971     7678.711    3951.3277    3752.0737    3685.9712    121.21121    506.82505   -630.42622   -2980.3966 
 6699000    276.11053   -3856.9104   -3383.6664   -3856.9104            0     4136.957    17.475888    20.584288    21.320543    7669.6115    4539.2757    2304.4895    5567.1059    -1027.654   -369.75839   -280.53231   -2920.9337 
 6700000    262.29164   -3849.9467   -3400.3878   -3849.9467            0    2860.9298    17.448953    20.552562    21.287682    7634.2037    2546.9752    939.71592    5096.0983    100.60115    993.60494   -262.22329   -3081.8604 
 6701000    255.07522   -3844.3129   -3407.1227   -3844.3129            0    1971.5676    17.568097    20.692898    21.433037    7791.6554    303.97907     1913.834    3696.8898   -301.96606    -779.8907    1314.1709    -3183.087 
 6702000    254.72675   -3821.5425   -3384.9495   -3821.5425            0    4426.5304    17.468873    20.576025    21.311984    7660.3791    3004.9655    4858.6095    5416.0163    974.59544    190.51525    861.97417    -2890.423 
 6703000    262.61774   -3901.8017   -3451.6839   -3901.8017            0    3886.9108    17.386901    20.479473    21.211979    7553.0465    3841.8957    5874.2928    1944.5438   -98.339998   -470.32602    1113.1903   -3023.5273 
 6704000    252.85329   -3868.8096   -3435.4278   -3868.8096            0    2187.6106    17.460408    20.566055    21.301657    7649.2485    3313.0443    2088.0326     1161.755    1431.2884   -260.27623    396.87542   -3191.3857 
 6705000    256.21248   -3892.5801   -3453.4407   -3892.5801            0    3380.5478    17.451099     20.55509      21.2903    7637.0206    2920.3397     3126.472    4094.8318   -146.72095    864.02421    640.34763   -3076.9217 
 6706000    253.99401   -3872.2597   -3436.9226   -3872.2597            0    3415.2729    17.446235     20.54936    21.284366    7630.6362     2245.185    3844.0861    4156.5475   -98.329617    607.16991    488.81438    -3056.854 
 6707000    269.12363   -3858.3133   -3397.0446   -3858.3133            0    4100.5774    17.402847    20.498255    21.231432    7573.8461     4428.305    4889.6468    2983.7805     -1218.38    164.28412     853.3535    -2944.108 
 6708000    264.22891   -3861.9444    -3409.065   -3861.9444            0    2509.0583    17.514566    20.629845    21.367729    7720.6472    1466.0572    2638.7247    3422.3931     1562.402    -508.8528   -259.12466   -3126.5508 
 6709000    252.82642    -3851.565   -3418.2291    -3851.565            0    5011.4292    17.475374    20.583682    21.319915    7668.9343    4977.8706    4552.0521    5504.3647   -218.23627   -1599.2199    533.60578   -2857.7332 
 6710000    279.97682   -3864.6778   -3384.8071   -3864.6778            0    4083.8996    17.540739    20.660674    21.399661    7755.3116    4922.0677     3221.178    4108.4529    786.40864   -1170.7498     1021.421   -2922.9047 
 6711000    268.00565   -3883.8127   -3424.4602   -3883.8127            0    3638.2916     17.47806    20.586847    21.323193    7672.4719    2796.3899    3998.0029    4120.4819   -493.70595   -905.82197    417.72292    -3017.353 
 6712000    262.71116   -3864.2934   -3414.0155   -3864.2934            0    2748.7887    17.461994    20.567922    21.303592    7651.3327    2025.4502    3413.2352    2807.6808   -100.73694   -747.67749   -969.67613   -3107.2868 
 6713000    276.93571   -3862.1036   -3387.4452   -3862.1036            0    6090.2629    17.323765    20.405107    21.134953    7471.0634    4937.0562    6488.0838    6845.6488    451.69361   -678.78352    -1006.056   -2723.8636 
 6714000    255.53677   -3883.8803    -3445.899   -3883.8803            0    3265.8692    17.487267    20.597691    21.334425    7684.6026    2538.8311    5212.8374     2045.939    1227.5931   -243.85368   -442.56233   -3079.8863 
 6715000    241.60139   -3896.1949   -3482.0984   -3896.1949            0    5255.4178    17.363803    20.452267    21.183799    7522.9843    3662.8758    6649.0807    5454.2968    -875.5339    1326.6786    1802.1659   -2905.5002 
 6716000     259.2458   -3885.5976   -3441.2591   -3885.5976            0    1971.1705    17.476647    20.585182    21.321469    7670.6106    2094.6465    1215.3482    2603.5166   -1690.2335    426.26355    395.97587   -3220.7483 
 6717000    255.12563   -3881.0527   -3443.7761   -3881.0527            0    3613.4927    17.474945    20.583177    21.319392      7668.37    3464.8086    1693.7959    5681.8735    587.04673   -11.526753    1184.1982     -3039.66 
 6718000    257.55135   -3868.7065   -3427.2723   -3868.7065            0     4041.094    17.496325     20.60836    21.345476      7696.55    2558.9787    5068.4569    4495.8463    -1141.597   -271.20922    126.47205   -2973.6745 
 6719000    261.07261   -3843.6281   -3396.1586   -3843.6281            0     3496.803    17.561769    20.685444    21.425317    7783.2389    3653.0849    1814.4402    5022.8839   -409.10514   -94.469036    -636.8491   -2999.2345 
 6720000    254.03028   -3891.1493   -3455.7501   -3891.1493            0    3441.2096    17.509821    20.624257    21.361941    7714.3749    3136.2569    3613.6252    3573.7467   -609.30972   -587.57781   -596.38787   -3068.5925 
 6721000    258.86716    -3879.876   -3436.1865    -3879.876            0    5380.6736    17.478517    20.587385     21.32375    7673.0733    5874.5629      6337.52    3929.9379   -77.373794    97.985318   -515.37512   -2834.0681 
 6722000    256.47293   -3870.6544   -3431.0686   -3870.6544            0    3808.4906    17.477964    20.586733    21.323075    7672.3447    3727.9673    4662.0616    3035.4429   -1144.7741   -717.17398    -18.22758   -3004.9241 
 6723000    260.08168   -3890.5274   -3444.7563   -3890.5274            0    1980.5034     17.66047    20.801701    21.545733    7915.2092    1585.6823    1716.0815    2639.7464    1205.1224    273.14194   -615.04188   -3216.1365 
 6724000    271.14722   -3847.0093   -3382.2723   -3847.0093            0    4702.9553      17.4789    20.587835    21.324217    7673.5771    6159.6648    5472.0988    2477.1023   -516.57257   -237.17456    488.89683   -2855.9586 
 6725000    254.27379   -3866.8368   -3431.0202   -3866.8368            0    4447.5213    17.516533    20.632162    21.370129    7723.2492    3181.1011    5024.6785    5136.7843   -1778.7795   -247.88216    635.13228   -2930.0706 
 6726000    251.96198   -3852.6159   -3420.7617   -3852.6159            0    2124.5449    17.549559    20.671062    21.410421     7767.016    2818.8967    3174.8625    379.87553   -35.191104   -285.12064    346.37103   -3180.1061 
 6727000    271.71507   -3819.7326   -3354.0222   -3819.7326            0    5162.6721    17.562576    20.686395    21.426302    7784.3124    6115.4666    4375.2168     4997.333    587.74238     928.6514   -489.25608   -2767.9236 
 6728000    264.85731   -3850.8981   -3396.9417   -3850.8981            0     4029.773    17.523985     20.64094    21.379221    7733.1109    3979.8389    3824.6921    4284.7881   -356.21604   -264.96279    380.94169    -2942.466 
 6729000    266.88317    -3881.163   -3423.7344    -3881.163            0     3049.204    17.592152    20.721231    21.462384    7823.7052    1043.4273    3491.8731    4612.3116    424.72768    892.85122    105.43074    -3075.818 
 6730000    273.29277    -3877.788   -3409.3736    -3877.788            0    3690.2051    17.529054     20.64691    21.385405    7739.8227    3638.0863    4733.4818    2699.0473    1043.5954    267.52206    878.42847   -2992.8329 
 6731000    267.84327    -3879.328   -3420.2538    -3879.328            0    2566.4861    17.466107    20.572767     21.30861    7656.7411    4230.0962    1900.8359    1568.5263   -1353.8971    405.36492    -997.6453   -3133.6653 
 6732000    267.31935   -3885.0366   -3426.8604   -3885.0366            0    2949.6872    17.439734    20.541703    21.276435     7622.109      3386.78    1118.0311    4344.2506   -1482.5608    355.02389    334.29822   -3098.9713 
 6733000    248.61103   -3874.5715   -3448.4607   -3874.5715            0    2623.3549    17.437209    20.538729    21.273354    7618.7988    3267.9061    1828.9725    2773.1862   -388.99457   -658.89911     10.68703   -3156.9735 
 6734000      264.242   -3859.8769   -3406.9751   -3859.8769            0    5354.3292    17.418298    20.516454    21.250283    7594.0374    3000.7337    7112.0094    5950.2446    -155.4289   -454.80296   -546.42924   -2813.9765 
 6735000    266.54123    -3898.609   -3441.7665    -3898.609            0    3584.9033    17.429994     20.53023    21.264552    7609.3451    3849.3496    3030.3007    3875.0596    -103.0006   -388.94778    647.00983   -3043.9337 
 6736000    249.64112   -3859.3041   -3431.4277   -3859.3041            0    4827.1944    17.444299     20.54708    21.282005    7628.0966    5052.1727    4374.2861    5055.1243    474.62866    437.67669    881.56742   -2894.4122 
 6737000    261.78346   -3872.6028   -3423.9149   -3872.6028            0    5089.6427    17.464994    20.571456    21.307252    7655.2771    3673.3206    5762.9654    5832.6422    -1090.617   -1000.7477    352.37212    -2855.685 
 6738000    266.80418   -3864.3866   -3407.0933   -3864.3866            0    3063.0522    17.479552    20.588604    21.325013    7674.4367    1506.1689    2763.8698    4919.1179    426.20989    707.27216    1197.5901   -3064.2649 
 6739000    260.56563   -3863.1015   -3416.5009   -3863.1015            0    4165.3149    17.433686    20.534579    21.269056    7614.1817    2896.6415    3398.7367    6200.5664    844.51098   -201.13622    1419.0517   -2953.9634 
 6740000    264.59675   -3847.8092   -3394.2995   -3847.8092            0     3199.978    17.383213    20.475129    21.207479    7548.2406      4152.25    2089.6251     3358.059   -295.47911   -449.22472    1304.4179   -3042.0352 
 6741000    250.52185   -3840.5824   -3411.1966   -3840.5824            0    4922.9517    17.362045    20.450196    21.181655    7520.6997    5748.8347    5248.7275     3771.293    1240.9335    558.04481   -298.89388   -2871.2389 
 6742000    249.42582   -3821.0272   -3393.5199   -3821.0272            0    1635.9846    17.438929    20.540755    21.275453     7621.054    557.78634    2699.4967    1650.6709    830.57858   -25.154963   -823.98378    -3211.688 
 6743000      280.707   -3846.9134   -3365.7912   -3846.9134            0    3673.4409    17.412705    20.509867     21.24346    7586.7248    5899.0325    2375.0528    2746.2375   -401.81732    942.37944    668.30408   -2959.3448 
 6744000    252.22205   -3833.8948   -3401.5948   -3833.8948            0    3769.2032      17.3876    20.480297    21.212832    7553.9576    3035.7422    4624.5994     3647.268    1415.1962    196.83061   -1605.7836   -2986.3541 
 6745000    274.13473   -3852.1676   -3382.3101   -3852.1676            0    2669.0413    17.469889    20.577221    21.313223    7661.7153    2814.6703    2556.6616    2635.7919     126.8669    1695.3372    909.11414   -3084.0761 
 6746000    263.30894   -3869.3363   -3418.0337   -3869.3363            0    2374.0358    17.438986    20.540823    21.275523     7621.129    2763.4541     3312.362    1046.2913  -0.47962218    59.459462   -1454.7992   -3154.1683 
 6747000    256.89977   -3875.9199   -3435.6025   -3875.9199            0    1929.8957    17.489904    20.600797    21.337642    7688.0797     1519.727    2461.4136    1808.5464   -1054.9405    229.17396   -1743.7041   -3219.2173 
 6748000    271.38032   -3837.7671   -3372.6305   -3837.7671            0    3403.7358    17.455309    20.560048    21.295436    7642.5483     3744.124    2282.9511    4184.1322   -292.08599   -304.95873   -1292.1252   -2993.2544 
 6749000    249.21424   -3866.6816   -3439.5369   -3866.6816            0     3035.609    17.429308    20.529423    21.263716    7608.4477    1895.3183    3930.5806    3280.9282    900.47506    520.50404    646.41203   -3102.7015 
 6750000    263.09701   -3822.7267   -3371.7874   -3822.7267            0    3048.6264    17.393189    20.486879     21.21965    7561.2436    1960.3224    2915.3381    4270.2188    487.42897    472.58914    912.48492   -3035.6063 
Loop time of 405.639 on 64 procs for 250000 steps with 864 atoms

Performance: 106.499 ns/day, 0.225 hours/ns, 616.311 timesteps/s
192.6% CPU use with 32 MPI tasks x 2 OpenMP threads

MPI task timing breakdown:
Section |  min time  |  avg time  |  max time  |%varavg| %total
---------------------------------------------------------------
Pair    | 25.255     | 30.996     | 34.766     |  39.2 |  7.64
Bond    | 0.89131    | 1.1533     | 1.6056     |  17.3 |  0.28
Kspace  | 186.98     | 193.99     | 203.72     |  28.0 | 47.82
Neigh   | 3.7812     | 4.5588     | 5.1886     |  20.1 |  1.12
Comm    | 74.862     | 82.61      | 88.76      |  42.4 | 20.37
Output  | 0.58288    | 0.58317    | 0.58514    |   0.0 |  0.14
Modify  | 74.722     | 77.478     | 81.905     |  18.1 | 19.10
Other   |            | 14.27      |            |       |  3.52

Nlocal:        27.0000 ave          38 max          21 min
Histogram: 2 4 10 3 8 3 0 1 0 1
Nghost:        2475.59 ave        2523 max        2427 min
Histogram: 1 0 7 1 6 7 4 2 3 1
Neighs:        8171.91 ave       11430 max        5634 min
Histogram: 1 5 4 4 4 5 6 2 0 1

Total # of neighbors = 261501
Ave neighs/atom = 302.66319
Ave special neighs/atom = 2.0000000
Neighbor list builds = 14055
Dangerous builds = 2

unfix		3
unfix		2
unfix		1

write_data	data.final.${pid}
write_data	data.final.1
System init for write_data ...
PPPM initialization ...
  extracting TIP4P info from pair style
  using 12-bit tables for long-range coulomb (../kspace.cpp:340)
  G vector (1/distance) = 0.37381712
  grid = 24 24 25
  stencil order = 5
  estimated absolute RMS force accuracy = 0.0031215355
  estimated relative force accuracy = 9.4004113e-06
  using double precision FFTW3
  3d grid and FFT values/proc = 3822 576
Last active /omp style is kspace_style pppm/tip4p/omp
WARNING: Not all mixed pair coeffs generated from mixing. Use write_data with 'pair ij' option to store all pair coeffs. (../write_data.cpp:312)

write_restart   restart.lmp.${pid}
write_restart   restart.lmp.1
System init for write_restart ...
PPPM initialization ...
  extracting TIP4P info from pair style
  using 12-bit tables for long-range coulomb (../kspace.cpp:340)
  G vector (1/distance) = 0.37381712
  grid = 24 24 25
  stencil order = 5
  estimated absolute RMS force accuracy = 0.0031215355
  estimated relative force accuracy = 9.4004113e-06
  using double precision FFTW3
  3d grid and FFT values/proc = 3822 576
Last active /omp style is kspace_style pppm/tip4p/omp
Total wall time: 0:06:45
