LAMMPS (30 Jul 2021)
Processor partition = 0
  using 1 OpenMP thread(s) per MPI task
using multi-threaded neighbor list subroutines
variable        pid world 0 1
variable        phase world IceII IceIII

shell cd ${phase}
shell cd IceII
include Restart.lmp
echo both
log log.lammps
#include		in.partitions
include		in.temp
variable        temperature equal 133.65
variable	tempDamp equal 100.0
include		in.pressure
variable        pressure equal 7668.8
variable        pressureDamp equal 1000.0 # This is 1 ps
include		in.seed
variable        seed equal 745823

units		real
atom_style	full
box tilt large
read_restart	restart.lmp.${pid}
read_restart	restart.lmp.0
Reading restart file ...
  restart file = 30 Jul 2021, LAMMPS = 30 Jul 2021
  restoring atom style full from restart
  triclinic box = (-10.671451 -9.1099074 0.24113632) to (12.651451 12.099905 21.618863) with tilt (-9.3724029 1.7460094 2.7525956)
  4 by 4 by 4 MPI processor grid
  restoring pair style lj/cut/tip4p/long/omp from restart
  restoring bond style harmonic/omp from restart
  restoring angle style harmonic/omp from restart
  1296 atoms
  864 bonds
  432 angles
Finding 1-2 1-3 1-4 neighbors ...
  special bond factors lj:    0        0        0       
  special bond factors coul:  0        0        0       
     2 = max # of 1-2 neighbors
     1 = max # of 1-3 neighbors
     1 = max # of 1-4 neighbors
     2 = max # of special neighbors
  special bonds CPU = 0.011 seconds
  read_restart CPU = 0.022 seconds
include 	in.setup
variable	out_freq equal 1000
variable	out_freq2 equal 10000
variable	out_freq3 equal 1000

timestep	2.0

neigh_modify    delay 7 every 1

include		in.tip4p
# This is TIP4P/Ice

# create groups ###
group ox type 2
432 atoms in group ox
group hy type 1
864 atoms in group hy

# set charges - beside manually ###
set group ox charge -1.1794
Setting atom values ...
  432 settings made for charge
set group hy charge 0.5897
Setting atom values ...
  864 settings made for charge

# ### TIP3P Potential Parameters ###
pair_style lj/cut/tip4p/long/omp 2 1 1 1 0.1577 8.5
pair_coeff 1 1*2 0.000 0.000
pair_coeff 2 2 0.21084 3.1668
bond_style  harmonic
bond_coeff  1 450 0.9572
angle_style harmonic
angle_coeff 1 55 104.52
kspace_style pppm/tip4p/omp 1.0e-5
pair_modify tail yes

thermo          ${out_freq}
thermo          1000
thermo_style    custom step temp pe etotal epair emol press lx ly lz vol pxx pyy pzz pxy pxz pyz enthalpy

restart 	${out_freq3} restart.lmp.${pid} restart2.lmp.${pid}
restart 	1000 restart.lmp.${pid} restart2.lmp.${pid}
restart 	1000 restart.lmp.0 restart2.lmp.${pid}
restart 	1000 restart.lmp.0 restart2.lmp.0


include         in.dump
dump            myDump all atom ${out_freq2} dump.water.${pid}
dump            myDump all atom 10000 dump.water.${pid}
dump            myDump all atom 10000 dump.water.0
dump            myDump2 all dcd ${out_freq2} dump.dcd
dump            myDump2 all dcd 10000 dump.dcd
dump_modify     myDump append yes
dump_modify     myDump2 append yes


variable natoms 	equal  "count(all)"                        # NUMBER ATOMS
variable H      	equal  "enthalpy/v_natoms"                 # ENTHALPY-per-atom
variable Vol      	equal  "vol/v_natoms"                 # volume-per-atom
fix AVG all 		ave/time ${out_freq} 1 ${out_freq} v_Vol v_H file vol_enthalpy.dat
fix AVG all 		ave/time 1000 1 ${out_freq} v_Vol v_H file vol_enthalpy.dat
fix AVG all 		ave/time 1000 1 1000 v_Vol v_H file vol_enthalpy.dat


timer           timeout 10:00:00 every 1000
New timer settings: style=normal  mode=nosync  timeout=10:00:00

fix 		1 all shake 1e-6 200 0 b 1 a 1
Finding SHAKE clusters ...
       0 = # of size 2 clusters
       0 = # of size 3 clusters
       0 = # of size 4 clusters
     432 = # of frozen angles
  find clusters CPU = 0.002 seconds
fix             2 all nph tri ${pressure} ${pressure} ${pressureDamp}
fix             2 all nph tri 7668.8 ${pressure} ${pressureDamp}
fix             2 all nph tri 7668.8 7668.8 ${pressureDamp}
fix             2 all nph tri 7668.8 7668.8 1000
fix             3 all temp/csvr ${temperature} ${temperature} ${tempDamp} ${seed}
fix             3 all temp/csvr 133.65 ${temperature} ${tempDamp} ${seed}
fix             3 all temp/csvr 133.65 133.65 ${tempDamp} ${seed}
fix             3 all temp/csvr 133.65 133.65 100 ${seed}
fix             3 all temp/csvr 133.65 133.65 100 745823


run             250000
PPPM initialization ...
  extracting TIP4P info from pair style
  using 12-bit tables for long-range coulomb (../kspace.cpp:340)
  G vector (1/distance) = 0.36973925
  grid = 30 40 32
  stencil order = 5
  estimated absolute RMS force accuracy = 0.0040269152
  estimated relative force accuracy = 1.2126936e-05
  using double precision FFTW3
  3d grid and FFT values/proc = 5168 640
Last active /omp style is kspace_style pppm/tip4p/omp
Neighbor list info ...
  update every 1 steps, delay 7 steps, check yes
  max neighbors/atom: 2000, page size: 100000
  master list distance cutoff = 10.8154
  ghost atom cutoff = 10.8154
  binsize = 5.4077, bins = 7 5 4
  1 neighbor lists, perpetual/occasional/extra = 1 0 0
  (1) pair lj/cut/tip4p/long/omp, perpetual
      attributes: half, newton on, omp
      pair build: half/bin/newton/tri/omp
      stencil: half/bin/3d/tri
      bin: standard
Setting up Verlet run ...
  Unit style    : real
  Current step  : 22500000
  Time step     : 2
  Walltime left : 9:59:59.90
Per MPI rank memory allocation (min/avg/max) = 9.445 | 9.451 | 9.455 Mbytes
Step Temp PotEng TotEng E_pair E_mol Press Lx Ly Lz Volume Pxx Pyy Pzz Pxy Pxz Pyz Enthalpy 
22500000    135.74231   -6646.7185   -6297.5297   -6646.7185            0     7221.504    23.322903    21.209813    21.377726    10575.014    6751.1148    6863.5586    8049.8387    930.62404   -539.85839     15.58943   -5183.7879 
22501000    133.81078   -6670.4895   -6326.2694   -6670.4895            0     6799.274    23.084819    21.281969    21.577194    10600.668    6506.8062    6686.1877    7204.8282   -643.34994    269.63217     836.6476   -5275.1026 
22502000    127.55183   -6648.1445   -6320.0252   -6648.1445            0    7841.9172    23.188304    21.254039    21.424505    10558.963    6948.6332    8244.2001    8332.9183    1038.3529    84.764799   -870.86517   -5112.4355 
22503000    137.66481   -6671.7429   -6317.6085   -6671.7429            0    8695.8245    23.110913    21.264635     21.38554     10509.82    9394.5687    8381.7938    8311.1111   -408.71091    642.99828    -470.2666   -4984.7566 
22504000    125.29066   -6660.3283   -6338.0257   -6660.3283            0    7785.0044    23.019728    21.226015    21.616789    10562.333    8055.1361    7884.1987    7415.6785    1551.8595   -321.32859    283.76194   -5138.8175 
22505000    134.08196   -6664.9849   -6320.0672   -6664.9849            0    7325.5035    23.048218    21.446417    21.354317    10555.475    7980.9982    6633.6299    7361.8823   -261.27578   -424.73388    671.54029   -5192.3735 
22506000    144.48551   -6685.4994   -6313.8193   -6685.4994            0    7026.0793    23.160669    21.258805    21.483404    10577.744    6515.5715    7430.9931    7131.6734    1161.3547    168.51355    981.22233   -5229.9373 
22507000    132.32038   -6669.8823   -6329.4962   -6669.8823            0     7114.531    23.129527    21.261234    21.485034    10565.529    6710.8624    7777.6921    6855.0385    179.58857   -578.60845    785.80713   -5233.2366 
22508000    135.93377   -6667.1117   -6317.4303   -6667.1117            0    7379.4631    23.220951    21.095208    21.547295     10554.96    6942.9638    8212.2433    6983.1823   -380.97417    1041.8349    146.87791   -5181.4855 
22509000    139.89107   -6657.3428   -6297.4815   -6657.3428            0    8432.4669    23.233731    21.173722    21.441394    10547.977    7020.9214    8786.6708    9489.8084   -240.27949    404.34328    1013.3281   -5000.3031 
22510000    136.55034   -6665.6839   -6314.4165   -6665.6839            0    7367.1214     23.23759    21.153242    21.519886    10578.107    7506.2368    7989.4024     6605.725    391.25621   -1449.7093   -38.771869   -5177.8845 
22511000    135.53263   -6666.1427   -6317.4933   -6666.1427            0    7601.0103    23.256708    21.161559    21.407471    10535.648     6522.089    8449.2676    7831.6743   -648.81529    350.27383    1170.3594   -5149.5857 
22512000    139.96016    -6659.947    -6299.908    -6659.947            0    7940.3983    23.183953    21.173414    21.507809    10557.827    7971.1018    9219.5351    6630.5579    756.99944   -1049.6632   -406.13111   -5077.2846 
22513000    137.91666   -6666.9685   -6312.1863   -6666.9685            0    7089.0519    23.100096    21.278506    21.572563    10603.681    6930.0953    7724.0647    6612.9957   -210.84879    21.130594   -1088.3141   -5215.9082 
22514000    126.22737    -6661.518   -6336.8058    -6661.518            0    7468.1542      23.1246    21.340758    21.372597    10547.302    7553.3321    6731.1145    8120.0159    201.05557    42.561652   -70.442661   -5188.0426 
22515000    136.95538   -6672.5624    -6320.253   -6672.5624            0    7355.1865    23.011999    21.383327    21.472318    10565.949    6817.9776    7911.1846    7336.3974    389.10567    32.164356   -51.190533   -5186.8663 
22516000    131.85694   -6660.2208   -6321.0268   -6660.2208            0    7691.0567    23.053373    21.383709    21.401388     10550.17    7935.4642    7398.0388    7739.6671   -918.28406   -119.38036    271.89041   -5137.6547 
22517000    132.26321   -6657.7723   -6317.5333   -6657.7723            0    8238.1998     22.95495    21.240193     21.58692    10525.082    8593.3454    7990.7861     8130.468    550.15761   -179.18991    205.25847   -5052.9899 
22518000    131.22866    -6673.944   -6336.3662    -6673.944            0    8510.8559    23.103593    21.298485    21.390003    10525.411    8345.5933    8947.0872    8239.8872     1055.332   -736.62425   -193.81677     -5029.93 
22519000    133.14152   -6671.5353   -6329.0369   -6671.5353            0    7417.5457    23.148168     21.22713    21.505713    10567.244    8104.7403    6944.0479    7203.8488   -734.88747   -558.93863    171.03468    -5185.901 
22520000    134.46138   -6680.0433   -6334.1496   -6680.0433            0    6792.1604    23.210724    21.201323    21.542419    10600.982    6951.8634    7072.5197    6352.0981   -733.61422    260.71627    521.17618   -5284.0513 
22521000    127.70528   -6671.0276   -6342.5135   -6671.0276            0    7077.0224    23.275632    21.155961     21.49152    10582.819    6790.1039    7865.9144    6575.0488   -106.67416   -111.30854   -557.37722    -5250.249 
22522000    137.38849   -6671.2766    -6317.853   -6671.2766            0     7733.115    23.208916    21.183852    21.504867    10572.959    6947.3694    8109.9729    8142.0028   -301.54412       139.46    85.473322   -5125.4395 
22523000     134.5769   -6674.6635   -6328.4726   -6674.6635            0    7187.4019    23.220682    21.168759    21.522125    10579.266    8215.0255    6764.1088    6583.0714   -531.67095    627.06261    23.295096   -5219.5446 
22524000    146.89927   -6657.0953   -6279.2059   -6657.0953            0     8400.595    23.161849    21.210971    21.438414    10532.378    7283.3404    10082.812    7835.6328   -663.35934   -51.377659   -1259.4006   -4988.8416 
22525000    138.74374    -6655.976   -6299.0662    -6655.976            0    7861.1936    23.240722    21.148946    21.452794    10544.408    7759.1584    7709.6561    8114.7663   -245.67663   -227.58654    355.90724   -5090.1767 
22526000    137.45566   -6659.4434   -6305.8471   -6659.4434            0    7632.2466    23.253777    21.183964    21.423667    10553.452    7203.5038    7405.5225    8287.7134    615.07631   -591.11825    373.37667   -5131.1584 
22527000    139.79203   -6669.1538   -6309.5473   -6669.1538            0    8219.4665    23.150618    21.214067    21.460522    10539.665     8890.391    7384.6106     8383.398    143.35145    -226.8418   -259.34885   -5046.1314 
22528000    127.90823   -6670.7012    -6341.665   -6670.7012            0    6496.3318     23.17806    21.277127    21.508162     10607.02    5696.8572    6437.3737    7354.7645   -216.26972    163.99873    -180.5444   -5336.7312 
22529000    136.36792   -6685.0437   -6334.2455   -6685.0437            0    7337.5273    23.038985    21.341126     21.47835     10560.43    8201.4836    6508.3046    7302.7938   -715.16843    563.79667    931.37136   -5204.1707 
22530000    137.64503   -6656.0753   -6301.9919   -6656.0753            0    8275.3617    23.064813    21.272275    21.496855    10547.239     9373.504    8258.6876    7193.8935   -115.37469    132.84858   -728.81582   -5029.0702 
22531000     138.9765   -6662.3368   -6304.8283   -6662.3368            0    8468.8461    23.093409    21.294969    21.404903    10526.362     9702.303    7649.2162    8055.0192    73.990417   -275.57739    53.811857   -5004.7232 
22532000    141.31959   -6671.4837   -6307.9476   -6671.4837            0    7925.9529    23.031769    21.279021     21.52631    10549.905    9053.2129    7592.8827    7131.7631    427.03526   -576.26841   -776.86533   -5088.4641 
22533000    135.28758   -6669.3901   -6321.3711   -6669.3901            0    7818.2942    23.074545    21.388811     21.37038    10547.075    7649.7922    7527.7084    8277.3819   -157.72546   -319.79078    110.20399   -5118.7746 
22534000    138.08341   -6685.6182   -6330.4071   -6685.6182            0    7841.8096    23.116907    21.187484    21.539971    10550.042    8072.6127    8592.8485    6859.9677    640.70141   -489.59231    -262.2331   -5123.8541 
22535000    135.89461   -6684.3451   -6334.7645   -6684.3451            0    7356.2452    23.140619    21.280982    21.409581    10543.257    6794.0243    8508.9641    6765.7471   -117.73374   -1059.2758    365.59238   -5203.6492 
22536000    132.11749   -6670.0682    -6330.204   -6670.0682            0    8017.2478    23.186041    21.138775    21.515866    10545.453    7555.1684    9154.1895    7342.3854    571.90677    485.36852    29.669216   -5097.1945 
22537000    135.74561   -6665.0157   -6315.8184   -6665.0157            0    8386.1395     23.09856    21.258084    21.453975     10534.57    8425.2017    8643.0311    8090.1856   -216.58274   -353.43987    13.001863   -5027.4064 
22538000    135.97613   -6675.9104     -6326.12   -6675.9104            0    7113.3524    23.267648    21.154867     21.49225    10579.001    6566.6412    7451.6964    7321.7197    875.77855    56.597871    469.27843   -5228.6445 
22539000    135.02752   -6670.9533   -6323.6032   -6670.9533            0    7207.5617    23.101188    21.271876    21.533054    10581.463    6356.4618    7838.0227    7428.2006   -490.31831    260.19445    96.335321   -5211.3338 
22540000    135.13549   -6679.2286   -6331.6008   -6679.2286            0    7465.2225    23.252657    21.259071    21.345254    10551.597    7914.7027    6665.6804    7815.2844   -656.80565   -391.62642    362.67761   -5182.8209 
22541000    134.91661   -6679.5374   -6332.4726   -6679.5374            0    7391.3485    23.081747    21.324122    21.430884    10548.238    7050.2488    6891.2843    8232.5123   -520.01842    -232.4956    563.99568   -5195.4228 
22542000    132.23059   -6661.2821    -6321.127   -6661.2821            0    8517.8297    22.977191    21.289578    21.519961     10527.02    9931.4066    7791.6783    7830.4041    355.23217   -293.07076    433.44953   -5013.4205 
22543000    142.58072   -6679.6283   -6312.8481   -6679.6283            0    7624.3251    23.080433    21.422997    21.313153    10538.332    7682.4943    7287.0899    7903.3911    86.378378   -218.80184   -150.44618   -5141.0597 
22544000    134.39209   -6669.1009   -6323.3855   -6669.1009            0    6258.6033    23.034272    21.365832    21.588972    10624.934    7149.9473    5983.5658    5642.2968    563.99476    213.75541   -1158.9289   -5353.5913 
22545000    130.18354   -6687.1469   -6352.2576   -6687.1469            0    8766.1818    23.072193    21.307993    21.353799    10498.001    8564.0626    9212.4736    8522.0091    203.29313    430.65661   -294.12951   -5010.1327 
22546000    132.35777   -6664.5332   -6324.0509   -6664.5332            0    6965.5103    23.175347    21.212079     21.55434    10596.055     6946.669    7105.4802    6844.3817    411.56473    -26.26334    -967.8201   -5247.6525 
22547000    130.42845   -6671.9295   -6336.4102   -6671.9295            0     7476.812    23.139767    21.235727    21.473216    10551.719    7338.5224    7800.7179    7291.1955   -1092.5665    630.62599    91.840216   -5185.8336 
22548000    137.97849   -6664.3056   -6309.3643   -6664.3056            0    8570.1346    23.161248    21.190174    21.454527    10529.686    9052.9383    7939.3675     8718.098    640.21569   -77.920333   -363.59343   -4993.2944 
22549000    132.68671   -6657.6544   -6316.3259   -6657.6544            0    6773.7096    23.153754    21.308908    21.520853    10617.985     5734.607    7651.6946    6934.8271     449.5529    427.67414    529.64088   -5267.4006 
22550000    137.98643   -6677.3417     -6322.38   -6677.3417            0    7056.4117    23.146532    21.283039    21.453699    10568.705    7970.9909    5735.7321    7462.5122   -872.44983   -94.557496    797.41294   -5234.7491 
22551000    137.32141   -6670.5554   -6317.3045   -6670.5554            0    6086.3603    23.136397    21.313294    21.553564    10628.339    6206.7633      5868.52    6183.7975   -213.98189    387.54851   -539.67276   -5373.8978 
22552000    128.43948    -6667.422   -6337.0192    -6667.422            0    7236.3753     23.14949    21.335692    21.394097    10566.767    7058.1203    6755.7825    7895.2232    38.328574    58.027372    141.35971   -5221.8543 
22553000    136.25363   -6674.6316   -6324.1274   -6674.6316            0     9328.113    22.951087    21.245474    21.523503    10495.005    9613.9458    9444.6563    8925.7369   -65.747163   -320.47681    343.81001   -4896.3769 
22554000    138.86926   -6672.9504   -6315.7177   -6672.9504            0    7361.9279    23.148023    21.387142    21.338269    10563.938    7550.5713    7050.4935     7484.719    486.37751    184.74787   -134.52313   -5181.5082 
22555000       134.16   -6660.1963   -6315.0778   -6660.1963            0    7525.2525    22.883701    21.309263    21.708677    10585.906    8260.5215    7427.8856    6887.3503   -907.44248   -716.08775    95.587179   -5153.2948 
22556000    136.54775   -6651.5822   -6300.3215   -6651.5822            0    8750.3543    23.150675    21.227368    21.412449    10522.675    8457.7749    7880.1688    9913.1192    469.33313    430.90482   -5.1024596   -4957.4709 
22557000    134.76811   -6663.8588   -6317.1761   -6663.8588            0    8299.3865    23.106895    21.195949    21.497874    10529.069    8690.5932    9053.4877    7154.0787   -33.170735   -1285.5592   -410.55889   -5042.7582 
22558000    132.75928   -6667.5399   -6326.0248   -6667.5399            0    7564.6907    23.327427    21.139413    21.412011    10558.865    7494.5298    8425.7558    6773.7866    464.41747    41.669144   -961.44563   -5161.1365 
22559000     137.2091   -6679.8722   -6326.9101   -6679.8722            0    6445.8302    23.119582    21.228381    21.624384    10613.059    7909.7251    5513.3532    5914.4124    -466.5254   -1215.9041    998.97445   -5329.2208 
22560000    130.46624   -6675.9088   -6340.2924   -6675.9088            0    8158.4601    23.171299    21.186856    21.460447    10535.512    8019.7439    7422.9251    9032.7112    -275.4375    313.66679    223.77242   -5086.7479 
22561000    132.64222   -6669.4709   -6328.2569   -6669.4709            0    7044.6548    23.152199    21.342337    21.414657    10581.454    7222.6512    6629.2161     7282.097   -1047.6352    36.330608    49.535396   -5241.1282 
22562000    134.85561   -6661.2594   -6314.3516   -6661.2594            0    7368.7741    23.075539    21.231332    21.598146    10581.459    8116.6728    7437.1926     6552.457    82.338564   -409.42965   -391.82166   -5177.2043 
22563000    138.68081   -6648.8567   -6292.1088   -6648.8567            0    8822.2041    23.072144    21.390026    21.278482    10501.223    8318.8434    9038.4821    9109.2867    1150.8236    -872.2971     384.7491    -4940.992 
22564000    128.50074   -6662.4337   -6331.8734   -6662.4337            0    7381.8273    23.074742    21.294679    21.540525    10584.351    6680.8788    8210.6346    7253.9684    42.520561     820.5687   -470.35073   -5192.4005 
22565000    125.09295   -6667.5376   -6345.7436   -6667.5376            0    7645.0057     23.04469    21.357293    21.439654    10552.002    7648.5954    7846.5444    7439.8771    -1045.305    777.88113    501.81968   -5169.2527 
22566000    138.89817   -6661.9007   -6304.5936   -6661.9007            0    7628.2174      23.1964    21.263137    21.392087    10551.181    7005.1867    7957.5236     7921.942    499.09977     338.7784   -50.810217   -5130.7776 
22567000    129.00891   -6671.0709   -6339.2033   -6671.0709            0    7952.0238    23.045833    21.192889    21.581282    10540.466    8537.7071    7715.2046    7603.1597    46.587774   -1078.0098   -608.88392   -5116.8032 
22568000    132.64608   -6680.7884   -6339.5644   -6680.7884            0    5975.8093    23.370283    21.194458     21.39716    10598.452    5591.7694    5738.6989    6596.9597    377.77491    577.84805   -642.90718   -5415.8982 
22569000    130.13997   -6678.1139   -6343.3368   -6678.1139            0    8764.0622    23.142807    21.171857    21.444129    10507.113    7809.8233    9623.3421    8859.0211      481.466   -224.14693    118.71513   -5000.3716 
22570000    132.43757   -6663.2553   -6322.5677   -6663.2553            0    8534.1494    23.167756    21.038445    21.572525    10514.741    8027.8326    9025.5554    8549.0603   -196.40329    1460.0804   -438.58994   -5013.8839 
22571000    128.62421   -6646.4295   -6315.5515   -6646.4295            0    7584.7964    23.140341    21.337942    21.385957    10559.685    7265.6364    6851.6983    8637.0545   -355.46703    374.68241    455.85313   -5147.4764 
22572000    138.97321   -6645.3112   -6287.8111   -6645.3112            0    7809.5389    23.089235    21.277846    21.469052    10547.513    7379.6819    7802.6327    8246.3019     977.3926     257.9719    521.58881   -5086.5115 
22573000    132.20408   -6680.4076   -6340.3207   -6680.4076            0    7304.2245    22.935504    21.381313    21.559261    10572.471    8688.5691    6575.9943      6648.11    583.39054   -925.23003    346.49218   -5214.0922 
22574000    136.07649   -6674.1084   -6324.0599   -6674.1084            0    8002.8651    23.112001    21.332836    21.385675     10544.09    7452.3473    8610.2219     7946.026    1532.4187    706.16324   -257.12986   -5093.4215 
22575000    134.20239   -6669.2137   -6323.9862   -6669.2137            0    7538.2382    23.050061    21.318597      21.5094    10569.611     8107.751    7577.2219    6929.7419   -297.11604   -103.40169   -463.02161   -5161.9899 
22576000     135.3054   -6677.4862   -6329.4213   -6677.4862            0    6961.4488    23.283073    21.202023    21.432244     10579.99     6252.995    7284.7498    7346.6015    444.53318    543.64247    230.00373   -5255.2816 
22577000    131.95159   -6671.6206   -6332.1832   -6671.6206            0    7986.7456     23.06716    21.256043    21.486314    10535.095    8406.4571    8688.1816    6865.5981    145.81744   -399.15528   -267.88696   -5105.0711 
22578000    136.09316   -6657.1982   -6307.1068   -6657.1982            0    6686.5627    23.272781    21.162188    21.513309    10595.369    5599.0312    7994.4801    6466.1767    344.95329    59.373089   -453.50288   -5273.8819 
22579000    130.23532   -6671.6593   -6336.6369   -6671.6593            0     7695.918    23.090306    21.300106    21.472359    10560.663    7296.8281    8445.2256    7345.7004   -271.21596   -468.91495    251.16763   -5151.3389 
22580000    133.47672   -6648.7856   -6305.4249   -6648.7856            0     7528.467    23.198833    21.241609    21.474343    10582.138    8243.4938    7752.5544    6589.3527   -367.56723    705.68861   -1234.8721   -5143.5594 
22581000    128.35814   -6655.0326   -6324.8391   -6655.0326            0     9022.253    23.035765    21.283971    21.433343    10508.608    9381.9041    8605.1511    9079.7039    579.00699   -768.25396    96.486655   -4942.1133 
22582000    131.08616   -6664.4166   -6327.2054   -6664.4166            0    7913.0614    23.130724    21.237221     21.45907    10541.388    7678.0774    8020.5984    8040.5084    955.08409    489.13683    443.20073   -5110.6882 
22583000    128.76266   -6659.3433   -6328.1092   -6659.3433            0    6729.4617    23.056845    21.343479    21.549526    10604.809    7844.8591    5395.1375    6948.3885   -221.02469   -530.92799    941.38116    -5287.329 
22584000    138.61613   -6650.6985   -6294.1169   -6650.6985            0    8162.0409    23.178399    21.261509    21.410802    10551.409    8121.3567    7667.2569    8697.5091    1174.5277   -515.52712    -402.6919   -5038.1301 
22585000    134.28515   -6675.4567   -6330.0163   -6675.4567            0     7598.085    22.965036    21.328217    21.574209    10567.119    8173.5722    7804.5036    6816.1791    398.54553       -309.6      1413.67    -5159.071 
22586000    133.04601   -6676.4173   -6334.1645   -6676.4173            0    7092.6881    23.140805    21.305183    21.456493    10578.461    7166.0481    6732.7169    7379.2993    984.07522    330.40759    436.80722    -5239.933 
22587000    128.55038   -6668.8096   -6338.1216   -6668.8096            0    8038.0934    23.070053    21.287584    21.447091    10532.789    7579.8684    8391.6253    8142.7866   -1207.0565    256.43668   -1024.1217   -5103.3907 
22588000    133.44585     -6665.39   -6322.1086     -6665.39            0    7750.3349    23.180192    21.217027      21.4601    10554.394    7565.1461    7558.8196    8127.0389   -271.46135    647.17565     312.7469   -5129.1383 
22589000    127.38419   -6678.5097   -6350.8216   -6678.5097            0    7469.0985    23.128969    21.246934    21.531632    10581.068    7478.3733    8071.6534    6857.2687   -805.08233    511.48682   -73.889741    -5198.235 
22590000    133.61443   -6673.3637   -6329.6487   -6673.3637            0    7516.4986    23.168122    21.216487    21.489597    10563.129    8084.6729    7738.4917    6726.3312    192.62318     328.1055   -527.22833    -5171.714 
22591000    127.03279   -6665.9579   -6339.1738   -6665.9579            0    7998.7348    23.357771     21.19013     21.29921    10542.133    6393.1904    8229.2795    9373.7344    208.25159   -102.85586    970.25842   -5109.3987 
22592000     135.4296   -6670.4813   -6322.0969   -6670.4813            0     7510.696    23.195932    21.116447    21.573544     10567.06    6799.0542    8442.1591    7290.8747    -224.0404    483.49016   -272.55835   -5164.6256 
22593000     133.9543   -6669.8174   -6325.2282   -6669.8174            0      7981.94    23.219721    21.208737    21.403558    10540.417    6484.9039    8593.9759    8866.9402    208.32822   -277.10567   -527.86483    -5098.235 
22594000    127.49402   -6646.2506     -6318.28   -6646.2506            0    8100.6654    23.195465    21.247832     21.39629    10545.233    6747.1157    8482.4616    9072.4188   -440.00129    1647.8874    517.71421   -5072.4672 
22595000    128.98367   -6679.9629   -6348.1603   -6679.9629            0    6559.1986     23.08754    21.274179    21.570897    10594.944    7797.5167    5611.8152    6268.2639   -811.95569      672.271    103.19504   -5334.6566 
22596000    138.84053   -6664.0902   -6306.9314   -6664.0902            0    7629.2825    23.156964    21.391424    21.310614    10556.435    7913.9079    6838.3542    8135.5855    275.58363   -94.448555    147.11919   -5132.3669 
22597000     130.8741   -6658.4235   -6321.7579   -6658.4235            0    8655.2339    22.939078    21.304755    21.542621    10528.125    10506.997    7944.9212    7513.7836   -851.32799   -886.13435     583.8033   -4992.8167 
22598000    129.37884   -6678.7422    -6345.923   -6678.7422            0    6607.5073    23.077144     21.43422    21.402808    10586.697    6728.1858    5873.8048    7220.5312   -579.40443    860.10297    987.05557   -5325.7495 
22599000    129.95839   -6653.0343   -6318.7242   -6653.0343            0    7571.2843    22.997479    21.432843    21.420719    10558.302     8429.115    5969.9778      8314.76    254.69403    -648.4565    219.18407   -5152.8827 
22600000    129.57086   -6669.5791    -6336.266   -6669.5791            0    7448.9871    23.059804    21.347352    21.453039    10560.597    6840.8681    6845.7847    8660.3086   -153.76927    58.927599    315.55518   -5189.0067 
22601000    132.15171   -6675.9979   -6336.0457   -6675.9979            0    8996.3443    23.099809    21.267213    21.346483    10486.856    8454.3698    8588.7286    9945.9344    327.32737    726.06444    217.20966   -4960.1445 
22602000    133.84438   -6679.7977   -6335.4912   -6679.7977            0    6161.7364    23.169358    21.281761    21.541876    10621.971    6437.2995    6393.1444    5654.7652    27.491965   -199.67698   -697.99379   -5380.9733 
22603000    138.84739   -6666.9759   -6309.7995   -6666.9759            0    7303.2184    23.271552    21.183465    21.441265    10569.945    6057.4997    7987.3168    7864.8386    1548.3711    6.8298453   -542.36642   -5183.9952 
22604000    131.62016    -6650.143   -6311.5582    -6650.143            0    9098.9473    23.109236     21.12387    21.526477    10508.289    10303.842    9284.1025    7708.8977    579.56555   -602.41844    289.70038   -4917.1206 
22605000    138.26873    -6676.236   -6320.5482    -6676.236            0    6352.1883    23.253364    21.222389    21.527735    10623.763    5757.0055    7176.6814    6122.8781   -480.99785    813.71902    -706.9699   -5336.3611 
22606000    137.49038   -6688.4689   -6334.7832   -6688.4689            0    7272.4942    23.124072     21.25079    21.465697    10548.347    6137.1156    8541.2126    7139.1544    418.85079    1096.5944   -485.09233   -5216.0059 
22607000    132.89222   -6667.4741   -6325.6169   -6667.4741            0    8240.9378    23.014777    21.209753    21.555718     10522.16    8882.4562    8624.7326    7215.6245    960.80939    534.25925   -400.49476   -5061.0046 
22608000    134.66636   -6673.5275   -6327.1065   -6673.5275            0    8233.1349    23.048151    21.407708    21.339834    10529.246    8282.1854    8465.9052    7951.3142    476.90457   -686.68802    -368.1807   -5062.8406 
22609000    133.84087   -6679.8184    -6335.521   -6679.8184            0    7241.6694    23.071465    21.324809    21.475684     10565.92    7620.1846    6700.5039    7404.3196   -55.730099   -19.943548   -600.00148   -5219.6296 
22610000    134.32453   -6675.3852   -6329.8435   -6675.3852            0    8978.7341    23.000966    21.277417    21.459213    10502.164    9824.7102    8668.3142    8443.1777   -248.97794   -165.95934    661.24225   -4954.6311 
22611000    133.66515   -6666.2333   -6322.3878   -6666.2333            0    7696.9967    23.181132    21.236412    21.465496    10567.122    7984.5528    7582.8151    7523.6222    82.005056   -54.956401   -212.11599   -5136.1988 
22612000    132.88105   -6667.0111   -6325.1827   -6667.0111            0    7124.0985    23.177477    21.212851    21.548755    10594.669    7516.6007    6894.0979    6961.5968   -490.59158    149.15459    800.73592   -5224.4213 
22613000    134.77026   -6670.6755   -6323.9872   -6670.6755            0    7122.1997    23.269306    21.243959    21.399526    10578.474    7485.0417    6377.1268    7504.4307    713.43009    -588.1758    1123.6552   -5225.2013 
22614000    138.76825   -6668.5831   -6311.6102   -6668.5831            0    8740.2961    23.156041    21.201953    21.427489    10519.896     9284.719    8664.7999    8271.3694    206.51579   -1383.8768   -12.337183   -4970.6574 
22615000    132.10601   -6652.1662   -6312.3315   -6652.1662            0    8827.9143    23.074127    21.256658    21.467085    10529.151    8299.7469    9765.9864    8418.0095     726.3493   -543.02954   -260.19789   -4956.7447 
22616000    127.97567   -6678.9499   -6349.7403   -6678.9499            0    6562.4542     23.22003    21.277469    21.402717    10574.301    7153.1027    6003.1845    6531.0754   -605.94496    702.08002    448.55202   -5337.7093 
22617000     126.3666   -6681.9133   -6356.8429   -6681.9133            0    7545.3577    23.077421    21.246925     21.51728    10550.444    7657.3712     7918.824    7059.8778   -1400.8922    498.88898   -275.80919   -5195.8583 
22618000    128.78586   -6674.6129   -6343.3192   -6674.6129            0    7221.3378    23.154003    21.308458    21.377414    10547.105    6385.0641     7164.766    8114.1832    320.42805    410.72323    135.58658   -5232.5423 
22619000    134.49984   -6677.1121   -6331.1194   -6677.1121            0    7623.9086    23.004159    21.302501    21.546059    10558.563    8106.2006    7682.8953    7082.6298     443.0736   -446.05078    863.59433   -5157.1457 
22620000    129.02862   -6662.8122   -6330.8939   -6662.8122            0    7628.4418    23.079351    21.292397    21.490361    10560.679    7965.0897     8670.209    6250.0267      219.493    397.15158   -861.88081   -5155.9867 
22621000    133.56902   -6676.6741   -6333.0759   -6676.6741            0    7255.0802    23.028977     21.40383    21.449209    10572.493     7172.256    7153.1289    7439.8556   -191.50469    296.51942   -521.95733   -5214.4226 
22622000    137.33475   -6655.6386   -6302.3533   -6655.6386            0    8188.8512    23.033936    21.295258    21.474767    10533.666    8945.7243    7618.3672    8002.4622    399.70053     234.8047   -304.36492   -5044.3598 
22623000    133.00623   -6669.9457   -6327.7953   -6669.9457            0    7970.1876    23.162212    21.267843    21.408144    10545.872    7226.3827    7627.6158    9056.5642    840.83494    201.37257    1014.0014   -5101.9747 
22624000    134.63367   -6671.1089    -6324.772   -6671.1089            0    7342.3524    23.186174    21.215971    21.505709    10579.028    7347.7752    8010.2884    6668.9934   -273.64636    43.243948   -1169.4677   -5191.9625 
22625000    136.43845   -6658.6554   -6307.6758   -6658.6554            0    8385.4086    23.254914    21.130168    21.431149    10530.843    7971.3184    8855.4847    8329.4227    62.089902   -307.39669    12.891172   -5019.8318 
22626000     136.4062   -6677.6656    -6326.769   -6677.6656            0    7222.8045    23.187767    21.177649    21.504745    10560.171    8391.8522     6165.409    7111.1523   -418.45509   -499.38844    673.50977   -5214.3902 
22627000    135.74877    -6682.781   -6333.5756    -6682.781            0    6622.7221    23.275002    21.209865    21.477996     10602.82    6010.8932    6772.4903    7084.7828   -345.09974   -189.96449    205.95071   -5309.4958 
22628000    130.13163   -6654.5055   -6319.7499   -6654.5055            0    8587.7825    23.239258    21.139113    21.450428    10537.679    7789.9001    9772.2853    8201.1621   -68.932752    208.52616   -700.23372   -4999.9688 
22629000     138.3772   -6661.5887   -6305.6218   -6661.5887            0    7689.3479    23.138054    21.169325    21.557674    10559.315    7368.1999    7532.9048     8166.939    3.9136623    513.66944    1031.6672    -5121.487 
22630000    125.27178   -6676.3038   -6354.0498   -6676.3038            0    6849.2478    23.233446    21.278272    21.393724    10576.364    6455.3689      6638.15    7454.2245    155.60875   -356.87908     552.4446   -5297.5847 
22631000    125.68528   -6669.2767   -6345.9589   -6669.2767            0    7947.9793    23.088139    21.219436    21.541455    10553.531    8129.3292    9021.6174    6692.9913    616.11043    57.137217   -425.95655   -5122.6661 
22632000     138.2161    -6657.384   -6301.8315    -6657.384            0    7704.2334    23.086221    21.312283    21.416734    10537.463    7553.3031    7325.5708    8233.8263   -431.62076    1063.9967   -122.63728   -5117.8596 
22633000    134.62891   -6661.9871   -6315.6624   -6661.9871            0    7328.1302    23.111414    21.363912    21.382073    10557.403    7400.2073    6911.7012    7672.4819    1185.0385   -547.89344    445.99791   -5187.3584 
22634000    132.61902   -6679.4191   -6338.2648   -6679.4191            0    8322.2419    23.052614    21.224266    21.485797     10512.46    7812.8833    9453.2976    7700.5448    120.18126    46.847056   -143.91936   -5062.3532 
22635000    127.86304   -6676.6498   -6347.7299   -6676.6498            0    6709.1051    23.201343    21.345684    21.364804    10580.888    6133.4667    6500.3178    7493.5308    143.78561     60.51598    429.89621   -5312.4385 
22636000    136.31759   -6664.5345   -6313.8658   -6664.5345            0    7743.8959    23.134315    21.194091    21.551662    10567.012    8168.3522    8549.6333    6513.7021    501.19609   -241.22397   -272.53513   -5120.4614 
22637000    135.04134   -6684.4131   -6337.0274   -6684.4131            0    6167.5608    23.194335     21.24422     21.52718    10607.422    6256.9525    5979.5725    6266.1576   -86.270755    -185.1174    844.23062   -5382.9158 
22638000     131.5784   -6677.7927   -6339.3153   -6677.7927            0    7057.4756     23.27386    21.145518    21.443102    10552.962    6510.5977     7946.846     6714.983    875.59391    483.41796    176.29293   -5253.1407 
22639000    133.92617   -6680.2683   -6335.7514   -6680.2683            0    7604.7479    23.140114     21.18929    21.545906    10564.444    7655.7506    7553.5363    7604.9569    39.507314   -719.92946    40.792768   -5164.0758 
22640000    132.16469   -6662.6446    -6322.659   -6662.6446            0    8356.4843    23.174786    21.232337     21.42302    10541.302    7558.3463    8424.9596     9086.147    403.89231    407.61329    566.21161   -5037.9827 
22641000    133.46357   -6678.2295   -6334.9026   -6678.2295            0    7958.8191    23.032809    21.220724    21.577368    10546.433     8362.719    8374.2807    7139.4577    178.30721   -346.81747   -188.62268   -5110.7653 
22642000    130.55257   -6660.7612   -6324.9227   -6660.7612            0    7581.2334    23.256244    21.255006    21.339868    10548.544    6796.6083    8344.6147    7602.4771    159.43756   -87.295173     485.6418   -5158.6281 
22643000    132.00089   -6662.8107   -6323.2464   -6662.8107            0    7683.7598    23.156109    21.182913     21.49929    10545.699     7899.343    7961.2478    7190.6887    18.724064   -1420.4226    969.59928    -5141.498 
22644000    126.74483   -6657.0994   -6331.0561   -6657.0994            0    7039.8098    23.242148    21.181576    21.528642    10598.665    6452.1397    6774.4887    7892.8011   -404.61454    626.90716    514.55705    -5242.908 
22645000    140.17508   -6664.4483   -6303.8564   -6664.4483            0    7734.8177    23.201614    21.319224    21.350986     10561.06    6958.6732    7348.6005    8897.1793   -102.66134   -527.80789   -73.695586   -5112.5226 
22646000    130.52069   -6671.0448   -6335.2883   -6671.0448            0    7192.6159    23.121305    21.287249    21.469694    10567.147    8103.7359    6658.7455    6815.3664   -1088.8642    471.98995   -1.3179189    -5226.827 
22647000    136.13642   -6687.5984   -6337.3957   -6687.5984            0    7783.5438    23.032211    21.396978    21.396352    10544.544    7772.7459    8453.8702    7124.0153   -380.62656   -352.57514   -884.58215   -5140.4317 
22648000    127.00896   -6661.9601   -6335.2373   -6661.9601            0    8052.2034    23.028931     21.37732    21.353685    10512.352    9184.2845    6900.9541    8071.3717    1014.7884   -1235.9816    1329.0906   -5100.7389 
22649000    134.33911   -6654.8057   -6309.2265   -6654.8057            0     8202.048    22.996324    21.315267    21.523955    10550.457    9089.9558    8131.7015    7384.4866    61.270275   -216.74693    688.98851   -5047.1971 
22650000    133.70092   -6675.4639   -6331.5265   -6675.4639            0    7801.3951    23.096935    21.310182    21.440838    10553.178    8369.5113    7915.8246    7118.8493     1053.153   -564.70531   -697.58515    -5130.835 
22651000     134.4273   -6662.2162   -6316.4101   -6662.2162            0    6701.2706    23.057073    21.359278    21.513345    10594.945     7691.249    6506.8349    5905.7279    525.64129   -1065.3068   -174.14925   -5280.9539 
22652000    131.72287   -6682.1863   -6343.3372   -6682.1863            0    7030.7956    23.219298    21.230861    21.467079    10582.533     6162.065    6815.0811    8115.2409   -189.03351    674.71521    104.84546   -5258.2366 
22653000    138.08729   -6663.8178   -6308.5966   -6663.8178            0    7552.1903    23.218197      21.1321    21.533434    10565.364     7706.352    7624.4096    7325.8094    148.13253   -526.62389    44.214648   -5144.9174 
22654000    129.77597   -6658.5344   -6324.6937   -6658.5344            0    7809.6565    23.316012    21.066105    21.508904    10564.691    7230.2825    9479.4398    6719.2472   -57.113828   -493.78567   -293.27831   -5121.4194 
22655000    128.18595   -6677.5492   -6347.7987   -6677.5492            0    6260.8353    23.373403    21.162229    21.462013    10615.827    5886.9331    6480.2047    6415.3683   -674.71808    -859.1864   -24.156033   -5378.4902 
22656000    131.11645   -6687.4703   -6350.1812   -6687.4703            0    8148.7202    23.265697    21.050115    21.531456    10544.936    8057.3169     8424.142    7964.7017   -168.64447   -349.28858    696.40518   -5097.0134 
22657000    127.44994   -6661.5851   -6333.7279   -6661.5851            0    7701.0687    23.286357    21.124614    21.446705    10549.962    7314.8542    8607.0619    7181.2899    93.882905    225.85514   -306.54708   -5148.8385 
22658000    134.54181   -6682.5794   -6336.4788   -6682.5794            0    7714.8278    23.124629    21.206221    21.511713    10549.043    7391.5122    8425.8573    7327.1138   -21.138088   -227.07993   -146.84866   -5149.5759 
22659000    131.78553   -6660.9688   -6321.9586   -6660.9688            0    8212.3042    23.155442    21.236628     21.44438    10545.135    6996.5866     8643.639    8996.6871   -232.46167    1577.5599    323.59504   -5058.9885 
22660000    133.19059   -6674.6505   -6332.0258   -6674.6505            0     7035.492    23.041876    21.319765    21.511462    10567.449     7259.059    6765.9632    7081.4537   -218.02058   -695.55084   -102.95986   -5247.7481 
22661000    127.82363   -6678.2886   -6349.4701   -6678.2886            0     6673.017    23.080217     21.35336    21.464181    10578.411      6193.66    6602.1413    7223.2497    1048.0244    533.82057    544.35695   -5319.9885 
22662000    132.69729   -6667.7191   -6326.3634   -6667.7191            0    7648.9871    22.974083    21.428094    21.452738    10560.986    7888.5803    7306.9084    7751.4724    -627.5097    155.94155   -657.57889   -5148.2577 
22663000    131.64471   -6658.8214   -6320.1733   -6658.8214            0    9077.5461     22.90447     21.37687    21.450327    10502.635    9769.2084    8298.6924    9164.7374   -297.10789    1312.1383    167.04242   -4929.7641 
22664000     127.3844    -6663.205   -6335.5164    -6663.205            0    7739.2563    22.908466    21.476136    21.442473    10549.382     9894.732    6872.8285    6450.2083   -736.73959     200.4373    223.12851    -5144.817 
22665000    130.13435   -6655.5017    -6320.739   -6655.5017            0    8556.6733    23.006173    21.352319    21.438596    10531.392    9694.1612    7650.3905    8325.4681   -114.21636   -499.33997    179.43162   -5006.5234 
22666000    139.88677   -6670.3817   -6310.5315   -6670.3817            0    6906.9734    23.128389    21.295281    21.510194     10594.32     7038.229    6775.4706    6907.2207    237.93242    251.25578   -554.48356   -5243.3538 
22667000    133.20664   -6677.6054   -6334.9394   -6677.6054            0    6959.9131     23.19676    21.224329    21.500521    10585.473    6565.6011    6805.2475    7508.8906    389.31236    95.131653    1262.2347   -5260.4801 
22668000     134.9123   -6659.9948   -6312.9411   -6659.9948            0    7613.5888    23.228158    21.126692    21.522318    10561.737    6494.4467    8619.4867    7726.8329    257.80605    373.33364    310.18671   -5140.2041 
22669000    139.77113   -6656.9011   -6297.3484   -6656.9011            0    8204.0026    23.300856    21.153127    21.384152    10539.949    6697.9314     8987.141    8926.9355    254.08973   -83.126751   -581.57844   -5036.2756 
22670000    134.09193   -6673.4772   -6328.5339   -6673.4772            0    7328.5161    23.237446    21.139796    21.535971     10579.22    7094.0279     7370.306    7521.2146   -369.71642   -350.06614    660.27827   -5197.8386 
22671000    134.91555   -6677.4385   -6330.3764   -6677.4385            0    6658.8968     23.19937    21.226865    21.484736    10580.156    6244.3411    7545.0126    6187.3367    1054.6607   -456.52124     266.6008   -5302.9038 
22672000     131.2268   -6662.5813   -6325.0083   -6662.5813            0    8149.7882    23.264257    21.179256    21.441727    10564.761    9305.1662    7471.4648    7672.7336   -387.61954    -1050.639   -927.17576   -5069.3199 
22673000    133.57893   -6672.5125   -6328.8888   -6672.5125            0    9082.7945    23.207596    21.104975    21.435497    10499.015    9274.9515    9860.0737    8113.3584   -954.94306   -119.33357   -652.00124   -4938.1553 
22674000    134.34328   -6680.3035   -6334.7136   -6680.3035            0    8358.4677    23.125843     21.15713    21.521404    10529.916    8738.7985     8770.235    7566.3696    263.48491   -487.81949   -12.812748   -5051.1202 
22675000    132.11123   -6665.8012   -6325.9531   -6665.8012            0    6677.9485    23.197398    21.229956    21.513365    10594.897    6065.7566    7113.4669    6854.6221    164.67822    48.317216   -763.69929   -5294.1052 
22676000    126.99673   -6667.5693    -6340.878   -6667.5693            0    7482.1511    23.236959    21.267275     21.34665    10549.232    5868.9128    7690.7743    8886.7662    189.51301    302.17732    273.25609    -5189.751 
22677000    141.35798   -6669.5395   -6305.9047   -6669.5395            0    6951.0116     23.01325    21.266424    21.629242    10585.557    7603.3964    6528.1124     6721.526    709.06629   -396.23477    138.06876   -5232.8111 
22678000    130.32849    -6652.604   -6317.3419    -6652.604            0    7688.6575    23.044891    21.512852    21.346603     10582.82    7744.2176    6281.3236    9040.4314    534.47623   -251.82325   -377.07246   -5130.6778 
22679000    134.43866   -6668.4062    -6322.571   -6668.4062            0    7198.9357    23.093627     21.31437    21.442486    10554.551    6647.7316    6954.2086    7994.8668   -887.74278    484.16681    446.62445   -5214.4582 
22680000    138.52943   -6676.6027   -6320.2442   -6676.6027            0    8270.9169    23.040797    21.177329    21.576589    10528.136    8892.2629    8056.5339     7863.954   -273.48263    -814.0218    749.17314   -5050.3106 
22681000    132.36893   -6671.1131   -6330.6021   -6671.1131            0    8053.1049    23.237955    21.312294    21.287951    10542.945    7421.6859    7485.6038    9252.0251   -801.52778   -96.467818    217.86387   -5092.3725 
22682000    136.51936   -6666.6017   -6315.4139   -6666.6017            0    8086.5599    23.141566    21.174431    21.570556    10569.777    7621.0736    9280.8589    7357.7473   -130.08174  -0.57047858   -386.69065   -5068.8759 
22683000    128.15879   -6664.4377   -6334.7571   -6664.4377            0    8161.7397    23.141996    21.219432     21.45351    10534.961    8413.6251    8323.4748    7748.1193    166.87166   -719.14599     452.2983   -5080.7743 
22684000     128.5187   -6671.5555    -6340.949   -6671.5555            0    6579.0277    23.192782    21.260317    21.507631     10605.11    6968.2132    6963.3581     5805.512    370.48463    219.31401   -131.32258    -5323.406 
22685000      132.336   -6651.6605   -6311.2342   -6651.6605            0    8447.6945    23.082912    21.339215    21.398719    10540.393    8761.2098    7911.1574    8670.7163   -300.57774   -316.23036   -278.45789   -5012.6476 
22686000    132.42741   -6652.5165   -6311.8551   -6652.5165            0    7632.4532    23.111341    21.258556    21.486346    10556.537    7925.1783    7835.4065    7136.7748    167.69994    604.59753   -26.726833   -5136.7911 
22687000    131.46596   -6683.7737   -6345.5856   -6683.7737            0    7977.1053    23.062359    21.288072    21.504153    10557.532    7625.9928    8471.0056    7834.3174    236.20198    944.06223    443.69554   -5117.3445 
22688000    136.63466   -6658.8967   -6307.4124   -6658.8967            0    8127.2171    23.071314     21.31505    21.447197    10547.007    8195.0932     8228.506    7958.0523     680.6286   -322.03853    175.56924    -5057.306 
22689000    129.03814   -6669.8151   -6337.8723   -6669.8151            0    9754.2704    22.920062    21.346635    21.381589    10461.289     10416.97    9655.3759    9190.4647    753.41744    95.477578     922.6372   -4849.6909 
22690000    138.76435    -6653.205   -6296.2422    -6653.205            0    7671.2967    23.047641    21.269567     21.57173     10574.75    7696.7041    7775.3471    7541.8388    588.24993    926.27288   -149.69103   -5113.1604 
22691000    132.37012     -6654.95   -6314.4359     -6654.95            0    6628.9486    23.125551    21.465268    21.394402    10620.099      7337.68    5645.1838    6903.9819   -715.46962   -682.52235   -347.54937   -5287.7228 
22692000     129.1143   -6649.9605   -6317.8218   -6649.9605            0    8003.7046    23.151987    21.247391    21.460042    10556.609    7647.1454    8183.1367    8180.8317    476.42188   -40.862016   -1043.2245   -5085.5929 
22693000    129.31402   -6672.2285    -6339.576   -6672.2285            0    6373.7912    23.153603    21.300375    21.495731    10601.274    6443.6607    6108.9768     6568.736   -856.10811    316.73133    85.288706   -5354.1324 
22694000    132.71538   -6662.2693    -6320.867   -6662.2693            0    7993.3813    23.267663    21.145384    21.473099    10564.844    7213.1667    8650.0284    8116.9487     270.3837    241.78827   -774.83447   -5089.2676 
22695000    136.53659   -6663.0391    -6311.807   -6663.0391            0    8082.0371    23.137517    21.189425    21.532712    10556.857    6942.8044    8936.5371    8366.7697    1271.8876   -518.16465    434.78975   -5067.4891 
22696000    130.40242   -6658.6325   -6323.1803   -6658.6325            0    9484.3435    23.151602    21.152989    21.416619    10488.266    9832.6422    9521.5576    9098.8309   -262.26473    581.06475   -259.45145   -4872.4493 
22697000    134.50889   -6673.6264   -6327.6105   -6673.6264            0     7144.938    23.158975     21.32333    21.442952    10589.097    6605.9213     7705.657    7123.2357   -496.60998    799.64134    199.45392   -5224.2097 
22698000     136.5098   -6669.4307   -6318.2676   -6669.4307            0    7319.4336     23.19016    21.169001    21.515613    10562.284    7295.6444    7746.3726    6916.2837     680.4903    1019.7218   -439.74126   -5190.7815 
22699000    133.57364   -6653.9484   -6310.3384   -6653.9484            0     7879.702    23.043379    21.320394    21.492489    10559.129    8246.9884    6945.6795     8446.438   -365.72225   -532.16555    366.27997    -5096.911 
22700000    132.59248   -6668.9229   -6327.8368   -6668.9229            0    7630.5964      23.1975    21.228238    21.408587    10542.489    6850.7501    7781.5463    8259.4928    311.42273    1238.4649   -901.62927   -5154.6221 
22701000    134.27553   -6669.5005   -6324.0849   -6669.5005            0    7177.3905    23.140414    21.310008    21.454049    10579.472    7064.4594    7160.7773    7306.9349    -1238.863    358.65792     417.3237   -5216.6799 
22702000    132.46627   -6670.6027   -6329.8413   -6670.6027            0    7942.1351    23.145892    21.212364    21.493269    10552.745    7752.9396    8363.4641    7710.0016    771.86475     474.9719    65.326245    -5107.539 
22703000     132.6107   -6698.1789    -6357.046   -6698.1789            0    6913.2325    23.104588    21.342461    21.448528    10576.457    7368.1756    6060.5547    7310.9673   -1271.1161   -250.51912   -7.4318493   -5290.7021 
22704000    137.04035   -6681.9164   -6329.3884   -6681.9164            0    7852.1991    23.163684    21.215265    21.473738    10552.704    8061.8948    8074.8908    7419.8118    947.93545   -494.29784   -353.92352   -5120.9321 
22705000    132.27529   -6676.6193   -6336.3492   -6676.6193            0    7326.8727    23.124954    21.313947    21.424537    10559.813    8232.7701    7026.2851    6721.5628     -951.341   -741.01702   -212.32847   -5207.9812 
22706000    132.33011   -6683.0775   -6342.6663   -6683.0775            0     8313.879    23.102433    21.186518     21.53767    10541.831    9074.7132    8058.4129    7808.5109   -77.524819    748.53887    253.18569   -5064.4757 
22707000    133.10099    -6682.292   -6339.8979    -6682.292            0    7902.1904    23.225621    21.177332    21.428094    10539.551    6509.5495    9055.4901    8141.5314    917.26133   -342.52447     1008.384   -5125.2637 
22708000    139.09477   -6678.7016   -6320.8887   -6678.7016            0    7836.2933    23.154998    21.224753    21.420996    10527.544    8443.5016    8182.8531    6882.5252    16.897924   -612.02994    478.26556   -5117.7557 
22709000    135.74659    -6667.519   -6318.3192    -6667.519            0    8255.3018     23.09734    21.230739    21.519289    10552.491    7904.1653    9421.5891    7440.1511   -1064.8022   -367.76533   -1127.0536   -5047.8509 
22710000    132.62289   -6672.8304   -6331.6661   -6672.8304            0    7614.8267    23.335188    21.164308    21.371954    10555.033     7160.012    7792.6155    7891.8526    -622.2978   -286.38829     237.3974   -5159.4828 
22711000    132.61509   -6658.2548   -6317.1106   -6658.2548            0    8110.0485    23.135736    21.076347    21.659877     10561.72    7794.9368    9441.7538    7093.4549   -814.08169    75.752948    16.300003   -5067.9048 
22712000    133.24625   -6675.0848    -6332.317   -6675.0848            0    7775.0425    23.147483    21.301071    21.377066    10540.308    7267.1881    8358.7538    7699.1857    62.460172    25.422438   -702.54681   -5137.1407 
22713000    129.70773   -6669.9742   -6336.3089   -6669.9742            0    6939.2567    23.148971    21.283614    21.490179    10588.077     6998.031    6905.3438    6914.3954    558.18551    930.11383    109.15243    -5264.775 
22714000    135.45904   -6671.6286   -6323.1684   -6671.6286            0    7984.8163    23.021341    21.313686    21.508699    10553.666    8817.8449    8020.5369    7116.0671   -176.63165   -657.85099   -137.89324   -5094.1903 
22715000    131.80672   -6688.7302   -6349.6654   -6688.7302            0    6878.1667    23.184417    21.363351    21.361992    10580.527    6611.4722    6176.6361    7846.3917   -705.76797    841.34726   -516.75457   -5288.3221 
22716000    128.84578   -6661.8838   -6330.4359   -6661.8838            0    8124.5693    23.025987     21.26075    21.583968    10566.427    8868.4792    7685.4307    7819.7979   -274.31447   -376.55164     1620.142   -5078.4358 
22717000    132.88037   -6664.5359   -6322.7093   -6664.5359            0    8225.3267     23.17146    21.303973    21.310597    10519.852    7623.9124    7478.2537     9573.814    76.434075    378.39013    949.90723   -5060.7694 
22718000     131.2843   -6653.5831   -6315.8622   -6653.5831            0    8164.3648    23.178852    21.250667    21.440107    10560.669    8381.6509    7714.6547    8396.7888   -18.611891    549.59503    145.74746   -5058.4151 
22719000    131.95758   -6672.4656   -6333.0128   -6672.4656            0    7290.6997     23.16879    21.188929    21.523016    10566.119     7585.546    6978.0338    7308.5193    -264.8149    149.53727    515.08975   -5209.5451 
22720000    131.19639   -6686.0034   -6348.5087   -6686.0034            0    8198.1964      23.2944    21.101505    21.451921    10544.625    7328.1659    7962.5401    9303.8832    109.67675    1132.0641    1121.3039   -5087.7692 
22721000    130.50549   -6673.4774     -6337.76   -6673.4774            0    7054.0849    23.253274    21.110862    21.607161    10606.883     7250.742    7565.9692    6345.5435    40.142877   -691.26563   -672.15824     -5246.56 
22722000    135.03283   -6684.2819   -6336.9181   -6684.2819            0    7538.1534    23.281242    21.158572    21.429982    10556.363    6590.9124    8220.7418    7802.8059   -650.95463   -351.47799   -436.57136   -5176.3913 
22723000    131.34987   -6677.4027   -6339.5132   -6677.4027            0    7252.1219    23.260879    21.114316    21.545284    10581.698    6248.1399      7531.34    7976.8857    62.365993     343.6578    238.70947   -5220.3425 
22724000    137.91835   -6672.5552   -6317.7686   -6672.5552            0    6529.8952    23.242189    21.215693    21.531537    10617.183    6356.7933    7071.6462     6161.246   -266.54662    271.40795    -1038.603    -5306.675 
22725000    131.57528   -6673.2804    -6334.811   -6673.2804            0    7918.4721     23.24621    21.237953    21.366774    10548.817    7710.9761    7592.8068    8451.6332   -869.49485   -674.44658    489.52222   -5116.6041 
22726000    135.15816   -6669.5321    -6321.846   -6669.5321            0    9163.8711    22.959776    21.219394    21.544137    10496.143    10636.667    9384.0422    7470.9037   -665.12016   -958.74784   -12.684097    -4919.082 
22727000    139.29248   -6657.4843   -6299.1628   -6657.4843            0    7172.0641    23.133769    21.318181    21.451717    10579.341    7339.8222    7264.5321     6911.838    554.59012   -938.68925    197.49855   -5192.5935 
22728000    132.41855   -6646.4591   -6305.8204   -6646.4591            0    7082.8595    23.068497    21.398425     21.44071    10583.767    6908.1981    7145.8465     7194.534    -290.9278      419.558    611.97304   -5212.5571 
22729000      135.184   -6663.9089   -6316.1563   -6663.9089            0    8609.5215    23.043127    21.254424    21.530917    10545.163    8952.5814    8560.2571     8315.726    305.50096   -270.96694   -1018.7835   -4992.0947 
22730000    139.01854    -6668.754   -6311.1373    -6668.754            0    7385.7528    23.122001    21.339371    21.406821    10562.317    6865.4973    7111.4962    8180.2648   -685.83988     867.4593    633.27581   -5173.4318 
22731000    133.39356   -6654.7323   -6311.5855   -6654.7323            0    7839.2761    23.134244    21.239674    21.491809    10560.297    7518.3611    7238.4832    8760.9839   -26.998888    37.268966    1331.3747     -5104.25 
22732000    133.55082   -6661.9926   -6318.4412   -6661.9926            0    7892.2662    23.163253    21.228778     21.49037    10567.407     7031.441    8281.1738    8364.1839   -485.72744    162.85613   -422.33872   -5102.1262 
22733000    132.88887   -6681.2042   -6339.3556   -6681.2042            0    7427.7624    23.243227    21.229225    21.435115    10576.851    6276.5889    7179.3004    8827.3981    343.84891   -178.08518   -295.16144   -5193.6045 
22734000    138.15097   -6678.4013   -6323.0164   -6678.4013            0    7844.5874    23.120928    21.188172    21.532722    10548.669    7502.3764    8341.4855    7689.9002    67.658521   -441.06467    402.75677   -5116.1931 
22735000    129.85222   -6657.1704   -6323.1335   -6657.1704            0    9109.7061    23.111438    21.207476     21.42343    10500.379    10058.435    8492.8176     8777.866   -1309.1226   -450.87466   -248.44596   -4928.0981 
22736000    130.51628   -6670.3117   -6334.5665   -6670.3117            0    7440.4487    23.150683    21.364443     21.33968    10554.637    7280.5316    7699.1811    7341.6335   -445.25875   -474.83454   -1053.0633    -5189.269 
22737000    132.17994   -6683.2299   -6343.2051   -6683.2299            0    6503.5772    23.049518    21.278378    21.617557    10602.468    7416.6424    6052.8781    6041.2113    390.29068   -1261.4745    879.02487   -5337.5821 
22738000    135.99236   -6661.7767   -6311.9447   -6661.7767            0    6991.0932    23.187311    21.331588    21.396563    10583.214    7346.8748    6257.8126    7368.5922   -111.18508   -552.04371    198.69172   -5232.9021 
22739000    127.19984   -6663.1793   -6335.9654   -6663.1793            0    7309.5436    23.112918    21.301595    21.550346    10610.141    7468.1485    6398.4583     8062.024   -528.09756   -221.90347   -282.14553   -5204.9011 
22740000    132.97267   -6664.4516   -6322.3875   -6664.4516            0    6607.6312    23.055879    21.398039    21.458953    10586.787    7286.3949    5728.5225    6807.9764     126.4524    915.30997    968.89668   -5302.1862 
22741000    132.84483   -6679.0739   -6337.3387   -6679.0739            0    6833.9977    23.024597    21.350584    21.536204    10586.952     6652.279     6756.691    7093.0231    1199.7017    240.17517    146.04925   -5282.1706 
22742000    131.19483   -6667.4011   -6329.9104   -6667.4011            0    7938.5205    23.152544    21.311759    21.365752     10542.32    8165.8012    6951.6874    8698.0729   -365.81916   -254.60055   -310.20615   -5109.3714 
22743000    132.83245   -6661.4726   -6319.7692   -6661.4726            0    7534.4009    23.145837    21.182603    21.548383    10564.937    8772.0462    6764.0352    7067.1212     530.3409    -403.2944    947.71276    -5158.878 
22744000    134.44773   -6676.1028   -6330.2442   -6676.1028            0     6782.046    23.224351    21.192592    21.507857    10585.827     5973.323      5932.58    8440.2351   -41.650649    82.749219    1282.3607   -5283.2087 
22745000    140.33465   -6660.9746   -6299.9723   -6660.9746            0     8107.733    23.282852    21.174456    21.396458     10548.49    7216.3342    8180.0538    8926.8111    234.62326    195.63596    57.441532   -5052.6875 
22746000    132.44848   -6675.2518   -6334.5361   -6675.2518            0    7244.6688    23.142854     21.17591    21.597464    10584.291    6904.5131    8189.7789    6639.7145    525.25504   -400.95436    3.0139673   -5216.2416 
22747000    133.74649   -6662.1829   -6318.1282   -6662.1829            0    8199.8584    23.259421    21.231191     21.27651    10506.877    7647.5826    8632.9566    8319.0362   -82.009091   -105.65425   -697.14734   -5061.6473 
22748000    129.81292   -6649.2385   -6315.3027   -6649.2385            0    8486.9716    23.038019    21.282243    21.459732    10521.722    8964.4277    8398.9062     8097.581     555.6288   -912.78503    227.77167   -5012.9894 
22749000    131.95884   -6674.7827   -6335.3266   -6674.7827            0    7544.3973    23.012527     21.34024    21.513054    10564.907    8095.1478    7573.7346    6964.3096   -352.82803    59.694935   -195.89012   -5172.8984 
22750000    138.55859   -6652.9693   -6296.5357   -6652.9693            0    7779.3082    22.988616    21.484635    21.409794    10574.341    8069.7783    7741.3471    7526.7992   -302.95691    217.24826   -883.34116   -5096.8426 
Loop time of 539.399 on 64 procs for 250000 steps with 1296 atoms

Performance: 80.089 ns/day, 0.300 hours/ns, 463.479 timesteps/s
99.1% CPU use with 64 MPI tasks x 1 OpenMP threads

MPI task timing breakdown:
Section |  min time  |  avg time  |  max time  |%varavg| %total
---------------------------------------------------------------
Pair    | 30.312     | 41.73      | 53.047     | 110.4 |  7.74
Bond    | 0.27957    | 0.28861    | 0.2987     |   0.8 |  0.05
Kspace  | 272.45     | 283.45     | 294.79     |  42.4 | 52.55
Neigh   | 1.9026     | 1.9267     | 1.9511     |   0.9 |  0.36
Comm    | 91.761     | 93.288     | 95.586     |  10.9 | 17.29
Output  | 0.57596    | 0.57775    | 0.57961    |   0.0 |  0.11
Modify  | 105.64     | 107.72     | 110.58     |  10.6 | 19.97
Other   |            | 10.42      |            |       |  1.93

Nlocal:        20.2500 ave          26 max          14 min
Histogram: 6 5 11 4 5 7 3 6 6 11
Nghost:        2641.70 ave        2670 max        2602 min
Histogram: 2 2 0 8 10 11 8 16 2 5
Neighs:        6605.53 ave        8519 max        4535 min
Histogram: 6 5 11 4 5 6 4 6 6 11

Total # of neighbors = 422754
Ave neighs/atom = 326.19907
Ave special neighs/atom = 2.0000000
Neighbor list builds = 3514
Dangerous builds = 0

unfix		3
unfix		2
unfix		1

write_data	data.final.${pid}
write_data	data.final.0
System init for write_data ...
PPPM initialization ...
  extracting TIP4P info from pair style
  using 12-bit tables for long-range coulomb (../kspace.cpp:340)
  G vector (1/distance) = 0.36985679
  grid = 30 40 32
  stencil order = 5
  estimated absolute RMS force accuracy = 0.0040018254
  estimated relative force accuracy = 1.2051378e-05
  using double precision FFTW3
  3d grid and FFT values/proc = 5168 640
Last active /omp style is kspace_style pppm/tip4p/omp
WARNING: Not all mixed pair coeffs generated from mixing. Use write_data with 'pair ij' option to store all pair coeffs. (../write_data.cpp:312)

write_restart   restart.lmp.${pid}
write_restart   restart.lmp.0
System init for write_restart ...
PPPM initialization ...
  extracting TIP4P info from pair style
  using 12-bit tables for long-range coulomb (../kspace.cpp:340)
  G vector (1/distance) = 0.36985679
  grid = 30 40 32
  stencil order = 5
  estimated absolute RMS force accuracy = 0.0040018254
  estimated relative force accuracy = 1.2051378e-05
  using double precision FFTW3
  3d grid and FFT values/proc = 5168 640
Last active /omp style is kspace_style pppm/tip4p/omp
Total wall time: 0:08:59
