LAMMPS (30 Jul 2021)
  using 1 OpenMP thread(s) per MPI task
package omp 0
using multi-threaded neighbor list subroutines
echo both

include		in.partitions
variable        pid world 0
include		in.temp
variable        temperature equal 262.90
variable	tempDamp equal 100.0
include		in.pressure
variable        pressure equal 4000.0
variable        pressureDamp equal 1000.0 # This is 1 ps
include		in.seed
variable        seed world 745823

units		real
atom_style	full
read_restart	restart.lmp.${pid}
read_restart	restart.lmp.0
Reading restart file ...
  restart file = 30 Jul 2021, LAMMPS = 30 Jul 2021
  restoring atom style full from restart
  orthogonal box = (0.35386857 1.5083417 0.43171883) to (17.853704 22.120836 21.781477)
  4 by 4 by 4 MPI processor grid
  restoring pair style lj/cut/tip4p/long/omp from restart
  restoring bond style harmonic/omp from restart
  restoring angle style harmonic/omp from restart
  864 atoms
  576 bonds
  288 angles
Finding 1-2 1-3 1-4 neighbors ...
  special bond factors lj:    0        0        0       
  special bond factors coul:  0        0        0       
     2 = max # of 1-2 neighbors
     1 = max # of 1-3 neighbors
     1 = max # of 1-4 neighbors
     2 = max # of special neighbors
  special bonds CPU = 1.617 seconds
  read_restart CPU = 1.979 seconds
include 	in.setup
variable	out_freq equal 1000
variable	out_freq2 equal 10000
variable	out_freq3 equal 1000

timestep	2.0

neigh_modify    delay 7 every 1

include		in.tip4p
# This is TIP4P/Ice

# create groups ###
group ox type 2
288 atoms in group ox
group hy type 1
576 atoms in group hy

# set charges - beside manually ###
set group ox charge -1.1794
Setting atom values ...
  288 settings made for charge
set group hy charge 0.5897
Setting atom values ...
  576 settings made for charge

# ### TIP3P Potential Parameters ###
pair_style lj/cut/tip4p/long/omp 2 1 1 1 0.1577 8.5
pair_coeff 1 1*2 0.000 0.000
pair_coeff 2 2 0.21084 3.1668
bond_style  harmonic
bond_coeff  1 450 0.9572
angle_style harmonic
angle_coeff 1 55 104.52
kspace_style pppm/tip4p/omp 1.0e-5
pair_modify tail yes

thermo          ${out_freq}
thermo          1000
thermo_style    custom step temp pe etotal epair emol press lx ly lz vol pxx pyy pzz pxy pxz pyz enthalpy

restart 	${out_freq3} restart.lmp.${pid} restart2.lmp.${pid}
restart 	1000 restart.lmp.${pid} restart2.lmp.${pid}
restart 	1000 restart.lmp.0 restart2.lmp.${pid}
restart 	1000 restart.lmp.0 restart2.lmp.0


include         in.dump
dump            myDump all atom ${out_freq2} dump.water.${pid}
dump            myDump all atom 10000 dump.water.${pid}
dump            myDump all atom 10000 dump.water.0
dump            myDump2 all dcd ${out_freq2} dump.dcd
dump            myDump2 all dcd 10000 dump.dcd
dump_modify     myDump append yes
dump_modify     myDump2 append yes


variable natoms 	equal  "count(all)"                        # NUMBER ATOMS
variable H      	equal  "enthalpy/v_natoms"                 # ENTHALPY-per-atom
variable Vol      	equal  "vol/v_natoms"                 # volume-per-atom
fix AVG all 		ave/time ${out_freq} 1 ${out_freq} v_Vol v_H file vol_enthalpy.dat
fix AVG all 		ave/time 1000 1 ${out_freq} v_Vol v_H file vol_enthalpy.dat
fix AVG all 		ave/time 1000 1 1000 v_Vol v_H file vol_enthalpy.dat


timer           timeout 23:50:00 every 1000
New timer settings: style=normal  mode=nosync  timeout=23:50:00

fix 		1 all shake 1e-6 200 0 b 1 a 1
       0 = # of size 2 clusters
       0 = # of size 3 clusters
       0 = # of size 4 clusters
     288 = # of frozen angles
  find clusters CPU = 0.856 seconds
fix             2 all nph iso ${pressure} ${pressure} ${pressureDamp}
fix             2 all nph iso 4000 ${pressure} ${pressureDamp}
fix             2 all nph iso 4000 4000 ${pressureDamp}
fix             2 all nph iso 4000 4000 1000
fix             3 all temp/csvr ${temperature} ${temperature} ${tempDamp} ${seed}
fix             3 all temp/csvr 262.9 ${temperature} ${tempDamp} ${seed}
fix             3 all temp/csvr 262.9 262.9 ${tempDamp} ${seed}
fix             3 all temp/csvr 262.9 262.9 100 ${seed}
fix             3 all temp/csvr 262.9 262.9 100 745823

run             250000
PPPM initialization ...
  extracting TIP4P info from pair style
  using 12-bit tables for long-range coulomb (../kspace.cpp:340)
  G vector (1/distance) = 0.37331246
  grid = 24 24 25
  stencil order = 5
  estimated absolute RMS force accuracy = 0.0031787933
  estimated relative force accuracy = 9.5728417e-06
  using double precision FFTW3
  3d grid and FFT values/proc = 2730 288
Last active /omp style is kspace_style pppm/tip4p/omp
Neighbor list info ...
  update every 1 steps, delay 7 steps, check yes
  max neighbors/atom: 2000, page size: 100000
  master list distance cutoff = 10.8154
  ghost atom cutoff = 10.8154
  binsize = 5.4077, bins = 4 4 4
  1 neighbor lists, perpetual/occasional/extra = 1 0 0
  (1) pair lj/cut/tip4p/long/omp, perpetual
      attributes: half, newton on, omp
      pair build: half/bin/newton/omp
      stencil: half/bin/3d
      bin: standard
Per MPI rank memory allocation (min/avg/max) = 9.238 | 9.241 | 9.248 Mbytes
Step Temp PotEng TotEng E_pair E_mol Press Lx Ly Lz Volume Pxx Pyy Pzz Pxy Pxz Pyz Enthalpy 
  250000    265.13276   -3833.9302   -3379.5018   -3833.9302            0    2701.9408    17.499835    20.612494    21.349758    7701.1835    1491.1309    2915.1174    3699.5742    222.60324   -304.71369    281.65841   -3076.0364 
  251000     254.7003   -3841.6934   -3405.1458   -3841.6934            0     3984.811    17.338058    20.421943    21.152391    7489.5715    4513.7317    4602.5069    2838.1946    202.65096    586.95817    68.372225    -2969.894 
  252000    261.67834   -3856.2393   -3407.7316   -3856.2393            0    2432.2177    17.424457    20.523709    21.257797    7602.0958    2104.3171    2198.6252    2993.7109    193.09352    573.73799    987.35808   -3138.0746 
  253000    277.25673    -3896.799   -3421.5904    -3896.799            0    3640.5661    17.506377    20.620199    21.357739    7709.8229    3203.5212    2610.9501    5107.2272   -392.40711     1525.656   -19.010077   -3012.2457 
  254000    258.36351   -3893.7235   -3450.8973   -3893.7235            0    4683.7765    17.355336    20.442293    21.173469    7511.9843    6789.2877    3237.7083    4024.3334   -2172.5725    1571.1227   -1532.9714   -2937.7681 
  255000    267.59258   -3836.4096   -3377.7651   -3836.4096            0      5123.67    17.436615    20.538029    21.272629    7618.0202    5447.7912    5264.4688    4658.7498     764.2339   -428.03492     482.6771   -2808.5202 
  256000    276.78282   -3865.1285   -3390.7322   -3865.1285            0    4691.8096    17.357743    20.445128    21.176406      7515.11     6316.029    3289.7113    4469.6885   -257.49718    581.27211   -403.97026   -2876.5091 
  257000    264.83408    -3854.132   -3400.2155    -3854.132            0    2863.1755    17.485857     20.59603    21.332704    7682.7435     2592.888    3593.7225    2402.9161   -1641.1009   -154.49336    -1297.482   -3079.4111 
  258000    283.07572    -3871.044   -3385.8619    -3871.044            0    5123.8088    17.344649    20.429705    21.160431    7498.1157    3433.6681    6039.1083    5898.6499    -561.9975   -1317.4689    -455.6035   -2825.5615 
  259000    262.42209   -3842.9559   -3393.1734   -3842.9559            0     5514.256    17.434058    20.535017     21.26951    7614.6693    6076.1508    6656.1934    3810.4238   -800.69142    651.06995   -949.05418   -2780.8035 
  260000    267.07807   -3861.4914   -3403.7287   -3861.4914            0    3958.3412    17.419664    20.518064     21.25195    7595.8249    2863.2999    5672.0562    3339.6675    597.58425   -743.02663    -1323.377   -2965.2343 
  261000    266.42246   -3858.1414   -3401.5024   -3858.1414            0    4699.3086    17.358338    20.445829    21.177131    7515.8826     3764.696    5463.4456    4869.7843    411.93015   -1828.7574    628.99206   -2886.4044 
  262000     280.1924   -3862.0602     -3381.82   -3862.0602            0    3687.4239    17.425007    20.524357    21.258468    7602.8158    3337.6257     4423.261    3301.3849    61.092325   -560.47708   -1475.9331   -2972.9611 
  263000    271.09099   -3825.7284   -3361.0877   -3825.7284            0    3665.4174    17.373163    20.463291    21.195218    7535.1563    1143.9597    4639.3817    5212.9108    1786.0349   -451.48493    277.40939   -2958.2857 
  264000    261.04868   -3881.8277   -3434.3992   -3881.8277            0    4195.0462    17.410863    20.507697    21.241213    7584.3177    3469.8853    4207.3629    4907.8905    201.33821   -174.86873   -891.24221   -2970.3873 
  265000    266.02289   -3872.9818   -3417.0277   -3872.9818            0    3500.9167    17.467675    20.574614    21.310523    7658.8032    2375.5774    4530.0993    3597.0736   -493.38297      501.208    536.62059     -3025.99 
  266000    264.06419   -3874.1536   -3421.5566   -3874.1536            0    4711.8768    17.363185    20.451539    21.183045    7522.1809    2128.6086    7419.4805    4587.5413    1768.0149    937.63985   -234.68022   -2904.6482 
  267000    272.93846    -3873.146   -3405.3389    -3873.146            0    6407.7966    17.346989    20.432462    21.163286    7501.1507    6862.3555    5755.4091    6605.6253   -318.20984    157.60349    173.03502   -2704.3478 
  268000    253.03401   -3873.1596    -3439.468   -3873.1596            0    2912.1515     17.51565    20.631122    21.369052    7722.0807    2975.0613    3622.7054    2138.6877     -1491.68   -990.82761   -534.39334   -3111.5055 
  269000    260.61339   -3867.7438   -3421.0614   -3867.7438            0    5302.3201    17.441323    20.543575    21.278373    7624.1929    5041.4912     5846.852    5018.6169     420.6386   -1052.5264     -889.882    -2831.491 
  270000    252.63064   -3874.1139   -3441.1137   -3874.1139            0    3615.5761    17.410292    20.507025    21.240516    7583.5716    2892.9742    3278.3899    4675.3642    359.48403    363.03621   -652.88154    -3041.236 
  271000    256.84842   -3881.8766   -3441.6472   -3881.8766            0    4277.0833     17.47954    20.588589    21.324998    7674.4205    3802.2144    4019.2255    5009.8099     486.3828   -302.85425    60.896536   -2962.9408 
  272000    264.90087   -3871.2603   -3417.2293   -3871.2603            0    2931.7859    17.550873     20.67261    21.412024    7768.7608    1999.4789    2219.3138     4576.565   -251.17368    660.77969    573.41635   -3085.0597 
  273000    256.33888   -3891.2848   -3451.9287   -3891.2848            0    2741.5381    17.392407    20.485958    21.218696    7560.2235    3139.6266    1472.9146    3612.0731    101.38351   -160.53955   -137.24206   -3149.6519 
  274000    273.14176   -3827.6997   -3359.5441   -3827.6997            0    4437.8152      17.4324    20.533065    21.267488    7612.4976    4927.8836    5052.8316    3332.7304    709.87379    708.29111     1266.864   -2866.8558 
  275000    262.36932   -3835.1793   -3385.4873   -3835.1793            0    3432.0065    17.392978    20.486631    21.219393    7560.9691    3000.4021    4656.2744    2639.3429    1.6557696    -1536.916    2358.7223   -3007.0434 
  276000    269.48181   -3822.9055   -3361.0229   -3822.9055            0    3202.8161    17.405043    20.500842    21.234112     7576.714    3358.3582    2693.5099    3556.5803    -1213.008   -1227.7796    -11.67397   -3007.1162 
  277000    262.46047   -3816.8901   -3367.0418   -3816.8901            0    3634.9519     17.41058    20.507363    21.240867    7583.9471    3561.2615    3828.5808    3515.0133    936.57293   -1661.4626   -14.032432   -2965.0013 
  278000    252.73754   -3842.8212   -3409.6377   -3842.8212            0     3651.646    17.407343     20.50355    21.236917    7579.7175    3654.2703    5643.2204    1657.4474   -513.63385    -449.2094   -1359.0027    -3005.976 
  279000    249.44182   -3870.2418    -3442.707   -3870.2418            0    3728.9969    17.396452    20.490722     21.22363    7565.4996    2285.9967    4263.5056    4637.4885    1200.0348   -126.73635     824.8214   -3031.2679 
  280000    278.67333   -3859.2609   -3381.6243   -3859.2609            0    3594.7957    17.388207    20.481011    21.213572    7554.7487    3300.4617    3984.2282    3499.6973    460.39588   -1476.5874   -777.50842    -2985.556 
  281000    274.57058   -3869.3831   -3398.7785   -3869.3831            0     3378.617    17.473736    20.581752    21.317917    7666.7776    2726.8356    3675.0818    3733.9337    127.04994   -105.72254    922.57398   -3021.0083 
  282000    253.23117   -3835.2674   -3401.2378   -3835.2674            0    3731.2637    17.569647    20.694723    21.434928     7793.718    4484.2232    3507.9622    3201.6056   -206.20131   -90.909849   -772.20238   -2977.1298 
  283000    265.11737   -3846.7389   -3392.3368   -3846.7389            0    5187.0765     17.33046    20.412993    21.143121    7479.7294     4346.832    5578.4541    5635.9433   -66.613572   -616.60539    489.06347   -2826.5088 
  284000    247.48121   -3868.2015   -3444.0271   -3868.2015            0    3764.7525    17.386344    20.478817    21.211299    7552.3206    3463.7224    3756.6337    4073.9016   -751.20342   -394.51707   -332.21024   -3029.3666 
  285000    259.31467   -3915.3752   -3470.9187   -3915.3752            0    5186.0624     17.42946    20.529602    21.263901    7608.6464      5649.56    5493.5308    4415.0963    1755.3309   -540.50762   -722.55351   -2895.4509 
  286000    261.13667    -3900.298   -3452.7187    -3900.298            0    2885.6245     17.33473    20.418022     21.14833    7485.2591    2105.0605    2416.6653    4135.1477    258.34757    307.45687   -466.18597     -3137.71 
  287000    275.05102   -3882.4389   -3411.0109   -3882.4389            0    3333.6154    17.417989    20.516091    21.249906    7593.6337     4269.176    2173.7155    3557.9548   -574.29591   -316.32011   -119.16443   -3041.8284 
  288000    274.57773   -3888.4012   -3417.7843   -3888.4012            0    3576.9322    17.426929     20.52662    21.260812    7605.3315    3316.5215    1492.1792    5922.0959    198.90502   -1558.7282    1639.5261   -3021.0455 
  289000    258.32705   -3870.6725   -3427.9088   -3870.6725            0     4247.557    17.463684    20.569913    21.305653    7653.5543    3052.1269    4378.4281    5312.1158   -118.32831    -685.2606    488.58917   -2953.7997 
  290000    254.52438   -3887.7789   -3451.5328   -3887.7789            0    3254.7975    17.518225    20.634155    21.372194    7725.4875     3674.383      3748.44    2341.5693   -1042.1162    622.14702   -1385.5233   -3084.8203 
  291000    262.52128   -3906.8168   -3456.8644   -3906.8168            0    2363.3985    17.432085    20.532694    21.267103    7612.0847    1471.6103     3335.214    2283.3713    1470.1168    20.489273   -856.45637    -3194.493 
  292000    256.59184   -3885.6984   -3445.9088   -3885.6984            0    3468.4324    17.455525    20.560303      21.2957    7642.8329    2539.5634    4388.8778    3476.8561    334.93695    127.73888   -1496.9028   -3059.3073 
  293000    268.35827   -3874.0713   -3414.1144   -3874.0713            0    2770.5013    17.411818    20.508822    21.242377    7585.5653    2173.2763    3421.6148    2716.6127   -208.78064    667.81175    609.27296   -3107.6202 
  294000    263.49289    -3878.362   -3426.7442    -3878.362            0    4637.0389    17.400868    20.495925    21.229019    7571.2635     3434.071    5094.5715    5382.4743   -1360.5614   -442.50865    1446.6795   -2914.7264 
  295000    254.98917   -3919.5434   -3482.5007   -3919.5434            0    5001.8031    17.378642    20.469745    21.201903    7542.2877    5203.7946    5740.2806     4061.334   -715.09824    258.72303    977.68819   -2932.3198 
  296000    287.97176   -3904.1334   -3410.5597   -3904.1334            0    3620.0751     17.43519    20.536351    21.270891    7616.1531    3936.9841     3281.171    3642.0702    44.701077    1192.4057    899.17723   -3008.4642 
  297000    260.82029   -3863.9396   -3416.9026   -3863.9396            0    3981.5455    17.382923    20.474787    21.207126    7547.8631    2256.8161    6004.3585    3683.4618    1309.5078    97.401674    474.07402   -2978.6226 
  298000    264.69223   -3861.9904   -3408.3169   -3861.9904            0    3038.0419    17.459334    20.564789    21.300347    7647.8366    3045.7938    4327.6449     1740.687    -1392.384   -123.93103    211.42493   -3069.4664 
  299000     272.9464    -3872.279   -3404.4583    -3872.279            0    4398.0791    17.425172     20.52455    21.258669    7603.0312    3681.7565    4882.9755    4629.5051   -489.53644    1337.7255   -474.01459   -2916.7886 
  300000    262.75742    -3858.015   -3407.6578    -3858.015            0    4606.2893    17.322048    20.403085    21.132858    7468.8429    5257.0624      3875.04    4686.7655    1140.6392   -442.06065    997.74935   -2905.9158 
  301000    265.66166   -3834.9044   -3379.5694   -3834.9044            0     2815.979    17.499928    20.612604    21.349871    7701.3059    2602.5319    4693.3062    1152.0988    1110.3082   -15.542614   -640.83818   -3063.2909 
  302000    255.52234    -3863.539   -3425.5824    -3863.539            0    4143.1183     17.41424    20.511674    21.245332    7588.7305    5272.8023    5638.9332    1517.6194    339.67445    769.68558    1389.7733   -2967.0476 
  303000    258.11221    -3864.191   -3421.7955    -3864.191            0    3778.5072    17.474111    20.582195    21.318375    7667.2722    5075.4432    3372.3682    2887.7101    435.90024   -978.65035   -1640.7708   -2999.2855 
  304000    266.28265    -3856.873   -3400.4736    -3856.873            0    4401.9578    17.416009    20.513758     21.24749    7591.0434    4035.7108     5756.532    3413.6307   -585.98904   -847.38841     310.0533   -2913.1435 
  305000    265.80599   -3876.5534    -3420.971   -3876.5534            0    4217.5197    17.398735    20.493412    21.226417    7568.4795    6020.2645      2916.29    3716.0047    976.06775   -69.918557     595.9556   -2955.4475 
  306000    270.21286   -3852.5978   -3389.4622   -3852.5978            0    3550.2608    17.444179    20.546939    21.281858     7627.939    5292.2204    2814.1109    2544.4513   -316.01067    -1263.557   -233.96491   -2994.5111 
  307000    276.53361   -3877.8498   -3403.8807   -3877.8498            0    3131.8554    17.362749    20.451025    21.182513    7521.6142    2640.7959    2413.5619    4341.2084    683.14431    379.79529   -239.80121   -3060.3317 
  308000    261.24845     -3859.31   -3411.5391     -3859.31            0    4423.8252    17.352783    20.439287    21.170355    7508.6699     5974.758    3745.2885    3551.4292    245.20058   -1699.2862   -180.45862   -2927.1026 
  309000    271.26859   -3866.9902   -3402.0451   -3866.9902            0     4159.164     17.40322    20.498694    21.231888    7574.3336    1409.1722    4642.1758    6426.1441   -84.828485    563.06534   -1119.1901   -2942.6077 
  310000    247.75258   -3877.4761   -3452.8366   -3877.4761            0    3442.5951    17.358663    20.446212    21.177528    7516.3046    3594.5312    4309.2789    2423.9752    123.65337    399.36235    296.34028   -3075.4676 
  311000    263.47545   -3887.1461   -3435.5582   -3887.1461            0    2314.5407    17.403528    20.499057    21.232264    7574.7357    1856.8901    3314.8794    1771.8527    530.59358    25.629988   -938.30713   -3179.8714 
  312000    257.12328      -3834.8   -3394.0995      -3834.8            0    3528.1704    17.368323    20.457591    21.189314    7528.8608    4194.3848    3841.9733    2548.1532     1101.915    262.05793   -24.520909   -3006.7039 
  313000    284.67066   -3858.5171   -3370.6014   -3858.5171            0    2925.7345    17.425606    20.525062    21.259198    7603.5998    3955.8796    3813.2008    1008.1232    659.95896    275.72099    186.24942   -3046.1646 
  314000    257.03256   -3851.8485   -3411.3034   -3851.8485            0    5027.7402    17.361703    20.449793    21.181237    7520.2545    6157.1496     2977.948    5948.1231    -243.4077    464.98655    838.85488    -2859.885 
  315000     261.7426    -3912.478   -3463.8601    -3912.478            0    3156.2618    17.410684    20.507487    21.240994    7584.0838    1298.6008    3564.7897    4605.3947    630.18787   -469.41065    43.797488   -3114.7584 
  316000     275.1412    -3844.948   -3373.3654    -3844.948            0    3261.1069     17.44614    20.549249     21.28425    7630.5119    2895.9864    3634.1719    3253.1625    1369.1269   -677.56687   -29.510804    -3010.459 
  317000    252.93174   -3887.0731   -3453.5567   -3887.0731            0    5620.4417    17.343523     20.42838    21.159058    7496.6559    6976.2935    4095.7191    5789.3124   -1712.3236    1410.9659    870.89169    -2839.068 
  318000      267.648   -3893.1253   -3434.3858   -3893.1253            0    2262.6824    17.432311     20.53296    21.267379    7612.3808     2227.159    2678.4102    1882.4781    934.87854    1575.1709   -2057.8783   -3183.1856 
  319000    245.39117   -3891.4437   -3470.8516   -3891.4437            0    4811.2221    17.342627    20.427324    21.157965    7495.4938    5139.3211    4264.6215    5029.7236    1660.0467    1472.3995   -2065.9368   -2944.9173 
  320000    249.43041   -3857.3142    -3429.799   -3857.3142            0     1741.745    17.500526    20.613308    21.350601    7702.0954    2288.7942    1908.2293    1028.2115    297.42264    365.69465   -186.19757   -3234.1537 
  321000    254.80412   -3890.1201   -3453.3946   -3890.1201            0    3668.4993    17.428967    20.529021    21.263299    7608.0008    2121.9654    5065.6302    3817.9022   -1852.1371    875.07708    581.15839   -3046.3566 
  322000    272.56659   -3804.5909    -3337.421   -3804.5909            0    5385.2113    17.312096    20.391362    21.120716    7455.9765    4961.2192    5771.5816     5422.833    1302.2649   -209.20292   -1384.5599   -2751.8452 
  323000    248.79243   -3861.2452   -3434.8235   -3861.2452            0    3044.6936    17.454525    20.559124    21.294479    7641.5184    2264.0083    3505.5485    3364.5241   -193.28058   -919.51669    1358.5458   -3095.5116 
  324000    257.70684    -3847.429   -3405.7283    -3847.429            0    4387.9228    17.337097     20.42081    21.151218    7488.3258    5659.9888     3652.268    3851.5116    171.66756   -2256.6961    1530.8187   -2926.5252 
  325000    250.49031    -3818.852   -3389.5202    -3818.852            0    5138.2147    17.321593    20.402548    21.132303    7468.2536    3636.9117    5182.9784     6594.754    1199.0715    1362.4796    81.755732   -2829.8822 
  326000    255.91833   -3874.0556   -3435.4204   -3874.0556            0    3861.6469    17.458871    20.564244    21.299782     7647.228    4539.6768    4946.3056    2098.9583    498.91354   -1173.3546    1486.4445   -3004.7426 
  327000    251.01618   -3869.0486   -3438.8154   -3869.0486            0    2966.8837    17.396319    20.490565    21.223468     7565.326    3635.1398    686.08986    4579.4213   -941.31194    474.18373    651.99082   -3111.4717 
  328000    268.60444    -3812.404   -3352.0252    -3812.404            0    3396.1109    17.404551    20.500262    21.233511    7576.0713    5527.2149    2129.9437    2531.1742    338.53657   -863.54437    1975.6236   -2976.7915 
  329000    255.77126   -3849.9237   -3411.5405   -3849.9237            0    5059.3372    17.319705    20.400324    21.129999    7465.8117    4293.2225    6271.9326    4612.8563    183.98644   -1423.2045    53.146595   -2860.6738 
  330000    259.09191   -3801.6484   -3357.5737   -3801.6484            0    4763.6918    17.396341    20.490592    21.223496    7565.3554    5320.5775     3149.646    5820.8519    310.07417   -369.62495    438.36533   -2831.9815 
  331000    266.41975   -3856.9014   -3400.2671   -3856.9014            0    5109.0251    17.356662    20.443855    21.175086    7513.7055    3647.2358    7124.0996      4555.74   -37.742818   -266.03712   -85.431054   -2840.4217 
  332000    261.83727    -3877.296   -3428.5159    -3877.296            0     2740.464    17.393763    20.487556    21.220351    7561.9928    2652.1267    2690.5495    2878.7159   -458.36423    71.700702    1629.6585   -3126.2868 
  333000    263.92869   -3875.8182   -3423.4535   -3875.8182            0    3618.8034    17.406823    20.502938    21.236283    7579.0383    4464.5102    3445.1364    2946.7636   -975.04868    732.68468     144.0804   -3023.4581 
  334000    282.14503    -3870.791   -3387.2041    -3870.791            0    3097.5012     17.52162    20.638154    21.376336    7729.9804    3441.3986    3016.3811    2834.7238    215.91604     662.4174   -1001.3413   -3038.0109 
  335000    269.38475   -3856.8579   -3395.1417   -3856.8579            0    3119.8169    17.406941    20.503077    21.236427    7579.1924    3735.5783    1646.5898    3977.2825   -1077.4184    379.26064   -1134.1636   -3050.2935 
  336000    261.25499   -3850.6803   -3402.8982   -3850.6803            0    4953.1755    17.320812    20.401629    21.131351    7467.2443    3808.3093    4431.9948    6619.2224    1290.0431   -243.45541    12.513076    -2863.487 
  337000    254.89542   -3893.6473   -3456.7653   -3893.6473            0    4562.7431    17.441982    20.544351    21.279178    7625.0572    4786.5581     4314.158    4587.5133   -788.56848    361.77538   -531.73092   -2949.3717 
  338000    266.10073   -3848.7612   -3392.6736   -3848.7612            0     3817.084    17.369845    20.459383     21.19117    7530.8394      7210.13    1499.0402    2742.0819    1800.2267    438.27039    509.51748   -2973.4449 
  339000      249.958   -3890.5795     -3462.16   -3890.5795            0    3275.5562     17.45032    20.554172     21.28935    7635.9974    2761.4038    3809.7105    3255.5542   -145.10004   -744.10378   -99.829045   -3097.3837 
  340000    255.55481   -3864.6024   -3426.5902   -3864.6024            0     3157.184    17.517784    20.633636    21.371656    7724.9045     4287.723     387.6645    4796.1644   -388.77693    312.84304   -589.37083   -3070.9024 
  341000     251.5968   -3887.9442   -3456.7159   -3887.9442            0    3516.2629    17.453914    20.558405    21.293734    7640.7161    3324.9809    3991.6744    3232.1334   -733.09977   -69.540407    1036.7504   -3064.8917 
  342000    265.14914   -3871.9214   -3417.4649   -3871.9214            0    4738.8187    17.415917    20.513649    21.247378    7590.9232     5665.535    4059.5274    4491.3936   -989.83265   -829.01295   -919.89742     -2892.85 
  343000    258.38085   -3880.6391   -3437.7832   -3880.6391            0     4066.546    17.377271     20.46813     21.20023    7540.5033    3407.7722    5182.4891    3609.3768    346.18356   -1135.2371    337.88416   -2990.5831 
  344000    258.58481   -3861.7384   -3418.5329   -3861.7384            0    3311.9187    17.429979    20.530213    21.264534    7609.3259    2512.6286    3760.4689    3662.6587    182.58019     253.4935    939.32465   -3050.9953 
  345000    262.49683    -3893.671   -3443.7604    -3893.671            0    5201.5828    17.365664    20.454458    21.186069    7525.4026    6044.6879    4967.2648    4592.7956    395.38105   -443.00213    29.274659   -2872.8852 
  346000    269.27238   -3856.6768   -3395.1532   -3856.6768            0    5392.8652    17.261921    20.332262    21.059503    7391.3359    6682.2663    5275.8588    4220.4703   -1015.0441    476.42275   -162.98835    -2813.829 
  347000    269.32057   -3871.5176   -3409.9113   -3871.5176            0    3168.0826    17.325499    20.407149    21.137068    7473.3074     3814.133    4167.5717     1522.543   -679.93464   -1338.1761   -888.25262   -3064.6203 
  348000    250.77921   -3891.8148   -3461.9878   -3891.8148            0    1719.7522     17.42667    20.526316    21.260497    7604.9933    2232.9564    1380.7028    1545.5973    893.91376    1235.1616     -401.281   -3271.2483 
  349000    268.73152    -3884.184   -3423.5874    -3884.184            0    4316.8646    17.405155    20.500974    21.234249    7576.8604    3544.5462    5502.6229    3903.4246    922.63733   -289.22808   -1006.2906   -2946.5707 
  350000    264.06882   -3880.0537   -3427.4488   -3880.0537            0    4819.0974    17.350965    20.437145    21.168136    7506.3096    4348.2094     7090.249    3018.8339     1396.369   -615.06732   -242.31729   -2899.8934 
  351000     250.0157    -3853.804   -3425.2857    -3853.804            0    3526.2797    17.379739    20.471037    21.203241    7543.7159    4671.5073    3820.8521    2086.4798   -678.31356    153.14758    -1668.623   -3037.3337 
  352000    276.61696   -3848.6758   -3374.5638   -3848.6758            0    5318.0513    17.462368    20.568363    21.304049    7651.8251     4572.889     4886.958    6494.3068    673.43289   -1377.7019    1669.5884   -2781.1011 
  353000    267.94958   -3835.1965   -3375.9401   -3835.1965            0    3011.2961    17.442061    20.544444    21.279274    7625.1606     4377.027    733.92566    3922.9358   -883.80931   -1978.3787     1273.908   -3041.0685 
  354000    259.14915   -3860.9327   -3416.7599   -3860.9327            0    3831.7288    17.381499     20.47311    21.205389    7546.0086    3983.5194    2518.5604    4993.1067    1800.8778    625.44539    -640.2097   -2995.0751 
  355000    269.41572    -3854.715   -3392.9456    -3854.715            0    3016.6506     17.41795    20.516044    21.249858    7593.5824    2096.7798    3530.1319    3423.0402   -200.64526    450.24765   -841.77085   -3058.8678 
  356000    260.23753   -3903.4254   -3457.3871   -3903.4254            0    4498.3834    17.361039     20.44901    21.180427    7519.3916    4399.3149    2871.5451    6224.2903    976.71083    -732.6104    717.97443   -2964.0827 
  357000    267.10786    -3896.256   -3438.4423    -3896.256            0    3973.4206     17.39471     20.48867    21.221505     7563.227    5768.9837    2791.4168    3359.8613    61.910128   -482.70511   -872.68111   -3000.1664 
  358000    252.92026   -3826.0051   -3392.5085   -3826.0051            0     6530.678     17.38614    20.478576     21.21105    7552.0539    7496.4098    6246.1581     5849.466    713.03243    85.680361    1894.0986   -2673.2264 
  359000    262.21976     -3859.52   -3410.0843     -3859.52            0    4921.9342    17.372654    20.462691    21.194597    7534.4936    5225.1061    4820.6358    4720.0607    399.53781   -374.15039    903.09153   -2869.2481 
  360000    259.80335   -3875.6244   -3430.3304   -3875.6244            0    3079.2629     17.44464    20.547482     21.28242    7628.5438    3362.7874    2696.4552     3178.546   -815.89452    -1429.864    394.65133   -3087.7485 
  361000    268.48345   -3865.4713   -3405.2998   -3865.4713            0    2860.2929    17.463303    20.569465    21.305189    7653.0541    2338.8079    2960.1042    3281.9667     586.9313   -1051.4327    860.39758    -3086.057 
  362000    265.77868   -3886.4766   -3430.9411   -3886.4766            0    2078.2622    17.498467    20.610883    21.348089    7699.3776    1720.1764    1252.3372    3262.2729    393.34878    488.44787   -806.37929   -3197.5781 
  363000    252.28486   -3876.1583   -3443.7507   -3876.1583            0    4886.5364    17.411497    20.508443    21.241985    7585.1452    5593.9732    5038.9208    4026.7153   -656.25332    67.706176    543.75137   -2903.1944 
  364000    273.53301   -3865.5724   -3396.7462   -3865.5724            0    2558.0671    17.479033    20.587992     21.32438    7673.7528    2822.7239    2518.8633    2332.6142    342.56684   -347.91455   -41.304666   -3110.4632 
  365000    267.46846   -3860.5683   -3402.1366   -3860.5683            0    4380.5155    17.349493    20.435412    21.166341    7504.4002    2850.2349     6877.136    3414.1755   -900.40625   -1381.1187   -655.02133   -2922.7155 
  366000    257.45432    -3862.351   -3421.0831    -3862.351            0    3852.7486     17.32336     20.40463    21.134459    7470.5403    5097.3012    3852.0441    2608.9005   -649.80282   -1274.7067    -373.6874   -3001.3255 
  367000    267.18327   -3923.8836   -3465.9407   -3923.8836            0    3948.4436     17.26546    20.336431     21.06382    7395.8829    4806.1698    2889.3365    4149.8245   -867.90824   -1030.9138    1225.5972   -3040.0561 
  368000    251.41822   -3881.1496   -3450.2273   -3881.1496            0    2808.2941    17.318797    20.399256    21.128892    7464.6386    1978.7682    2884.5639    3561.5503    369.95902   -1211.3284    493.57224   -3144.5049 
  369000    260.46902   -3840.3411   -3393.9061   -3840.3411            0    3715.8042     17.43549    20.536705    21.271258    7616.5464    2309.3074    5090.0698    3748.0355    862.30157    434.79418    273.55154   -2981.1563 
  370000    262.84319   -3879.2177   -3428.7134   -3879.2177            0    3908.1002    17.460383    20.566025    21.301627    7649.2158    2850.8595    4271.1556    4602.2855   -150.20306   -94.480745    361.22662   -2992.7415 
  371000    276.12382   -3907.9615   -3434.6948   -3907.9615            0    6297.7378    17.305544    20.383645    21.112724     7447.515    6270.9631    6009.1175    6613.1329    942.62016    83.649345   -125.25763     -2750.67 
  372000    266.54025   -3835.2983   -3378.4575   -3835.2983            0    2539.6498    17.445267     20.54822    21.283185     7629.366    1938.8043    1369.8896    4310.2554   -1045.2636    27.627412    63.133967   -3095.8796 
  373000    254.58104   -3852.3124   -3415.9692   -3852.3124            0    4678.0889     17.39932      20.4941    21.227129    7569.2421    4285.6308    5534.0439     4214.592    8.9356191     169.7715   -1585.7583   -2899.5567 
  374000    275.13253   -3837.6826   -3366.1148   -3837.6826            0    5373.1155    17.392956    20.486605    21.219366    7560.9399    7028.1367    4262.8311    4828.3787    1121.4566    39.409879   -670.58903   -2773.6291 
  375000    279.99605   -3829.9999   -3350.0962   -3829.9999            0    5963.4909    17.432967    20.533733    21.268179    7613.2402    6929.1627    6188.0486    4773.2614    457.42375    221.93236    159.06953   -2687.9621 
  376000    264.89165   -3842.7284   -3388.7132   -3842.7284            0    3135.7886    17.377951    20.468931     21.20106    7541.3882    2916.1095    3098.1857    3393.0705    1051.4308    979.52932    167.13473   -3043.8285 
  377000    260.37586   -3850.2465   -3403.9712   -3850.2465            0    5334.6699    17.347641     20.43323    21.164081    7501.9965    5472.9415    5771.3254    4759.7428   -647.79843   -996.13356    363.89149   -2820.3107 
  378000    273.03012     -3852.09   -3384.1257     -3852.09            0     5386.637    17.352409    20.438846    21.169898     7508.184    4549.9408    5050.1967    6559.7736   -10.800561   -70.420042   -383.09448   -2794.2935 
  379000    266.91635   -3835.8345    -3378.349   -3835.8345            0    3328.4755    17.426869     20.52655    21.260739    7605.2532    2726.6772    3615.8826    3642.8667     47.48621    1344.5194   -712.48644   -3009.1717 
  380000    260.87985   -3887.8829   -3440.7438   -3887.8829            0    4544.8217    17.348112    20.433784    21.164656    7502.6073    2145.9889    5707.4695    5781.0067    153.53329    83.763077   -158.20112   -2943.4593 
  381000    257.15793   -3871.1589    -3430.399   -3871.1589            0    4040.1155    17.379401    20.470639    21.202829    7543.2767    3936.9764     5392.643     2790.727   -606.52942    769.99505    813.21666    -2985.942 
  382000    267.35918   -3823.6703   -3365.4258   -3823.6703            0     2926.272     17.43938    20.541286    21.276002    7621.6445    3508.4766    973.63159    4296.7078     1059.183    324.60719    1.4896144   -3040.1593 
  383000    253.13802   -3857.8798   -3424.0099   -3857.8798            0    4221.8104    17.422912    20.521889    21.255912     7600.074    3909.2996    4055.4822    4700.6495    591.37002   -242.04705    1661.9804   -2956.0674 
  384000    257.92331   -3887.6308   -3445.5591   -3887.6308            0    4156.9519    17.394685    20.488641    21.221475     7563.195    4178.8636    3065.0972    5226.8949   -1271.1369   -735.32088    786.37159   -2987.0413 
  385000    245.60345   -3879.9707   -3459.0148   -3879.9707            0    4077.8342    17.384199     20.47629    21.208682    7549.5251    3384.4985    3094.5527    5754.4514   -1637.4192    379.80884   -192.06511   -3010.0368 
  386000    263.34935   -3869.7716   -3418.3998   -3869.7716            0    6578.9912    17.313553    20.393079    21.122495    7457.8598    6696.0146    5449.6828    7591.2763   -570.71787      125.646   -473.86053   -2702.8343 
  387000    248.56613    -3870.074   -3444.0401    -3870.074            0    6718.7827    17.372687    20.462731    21.194638    7534.5375    6417.0742    7006.6123    6732.6615    221.82666   -858.22893     637.9711   -2705.7568 
  388000    272.69793   -3902.7958   -3435.4008   -3902.7958            0    4818.7309    17.371578    20.461425    21.193285    7533.0947    5645.5535    6051.5126    2759.1265   -774.69621   -362.52398    1252.1342   -2906.0032 
  389000    258.54507   -3924.8523   -3481.7149   -3924.8523            0    4199.6418    17.361056    20.449031    21.180448    7519.4141    4154.7929    3482.7611    4961.3713   -595.75296   -116.52505   -346.93797   -3021.1698 
  390000    257.97957   -3890.4626   -3448.2944   -3890.4626            0    4358.4787    17.404297    20.499963    21.233202    7575.7402    4663.5557    4165.2748    4246.6056    133.34299    2611.8628    1103.6234   -2966.7505 
  391000    262.20416   -3889.4971   -3440.0881   -3889.4971            0    2902.6694    17.317989    20.398303    21.127906    7463.5927    1632.1955    2508.2372    4567.5756    156.31085   -1091.7952   -267.90634   -3124.1359 
  392000    246.43736   -3905.8863   -3483.5011   -3905.8863            0    880.55459    17.521978    20.638575    21.376772    7730.4532    2283.2921    634.48856   -276.11692    869.45163      710.601   -183.33821   -3384.2267 
  393000    249.69815   -3913.4473   -3485.4732   -3913.4473            0    4208.0142    17.499485    20.612082    21.349331    7700.7212    4435.8905    4122.3902    4065.7618    1858.2128   -401.23265    328.79564   -3012.8833 
  394000     248.2205   -3909.9195    -3484.478   -3909.9195            0    2933.9906    17.511569    20.626315    21.364073    7716.6843    3390.4974    2462.4118    2949.0628    383.00929    256.15673    1386.5158   -3154.2869 
  395000    281.01557   -3912.1481    -3430.497   -3912.1481            0    3128.4286    17.446736    20.549951    21.284977    7631.2937    4397.5413    2933.6357    2054.1089    574.55093   -300.38708    -239.3767   -3082.3198 
  396000    263.81321   -3928.9029   -3476.7361   -3928.9029            0    2596.8643    17.478545    20.587417    21.323784    7673.1094    3749.9987       1837.2    2203.3941    -92.14329    1195.1507     82.94306   -3186.1355 
  397000    240.86518   -3875.6775   -3462.8428   -3875.6775            0     3386.498    17.381252    20.472819    21.205087    7545.6865    2019.8875    5575.6732    2563.9333    638.76147    337.75485    469.58752   -3090.1719 
  398000    252.54489   -3921.4088   -3488.5555   -3921.4088            0    3114.5095    17.434732    20.535812    21.270333     7615.553    3479.2629     4055.903    1808.3626    245.07366    1508.7837   -319.99689   -3142.6424 
  399000    275.84798   -3870.0355   -3397.2416   -3870.0355            0    4553.0679    17.357567    20.444921    21.176191    7514.8811      4104.47    4464.1202    5090.6134   -645.26726    830.97009   -362.98836   -2898.2397 
  400000    256.40738   -3883.8133   -3444.3398   -3883.8133            0    4451.3493    17.384375    20.476497    21.208897    7549.7543    5992.7848    3456.9107    3904.3523    605.87442   -415.41063   -544.37983   -2954.2221 
  401000    259.25553   -3845.8707   -3401.5156   -3845.8707            0    3323.9093    17.481427    20.590811      21.3273    7676.9056    6109.3871    3463.1202    399.22052    648.97265    161.90843   -2679.1198   -3029.3715 
  402000    248.27939   -3878.5169   -3452.9745   -3878.5169            0    4165.7297    17.468696    20.575817    21.311769    7660.1466    3167.9794    4585.4192    4743.7904    325.00763    1028.8876    480.88787   -2987.5984 
  403000    264.96187   -3883.2056     -3429.07   -3883.2056            0    3594.9565    17.356357    20.443496    21.174715    7513.3103     3590.578    3309.7127    3884.5788    114.65259    730.01854   -661.29265   -3035.1566 
  404000    246.45379   -3878.0107   -3455.5973   -3878.0107            0    4371.9316    17.301426    20.378794    21.107699    7442.1987     5341.458    5020.4088     2753.928   -255.65785    1145.5679   -87.681117   -2981.0817 
  405000    254.68768   -3863.9142   -3427.3882   -3863.9142            0    3122.4125    17.457644    20.562799    21.298285    7645.6162    2548.3127    4154.1673    2664.7574     -1086.09   -1296.7536    113.50821   -3079.2284 
  406000    250.91349   -3911.7685   -3481.7114   -3911.7685            0    3413.6957    17.390971    20.484266    21.216944     7558.351    2743.4868    3755.1983     3742.402   -861.35784    192.53734    584.71398    -3105.417 
  407000    245.46366   -3864.6114   -3443.8951   -3864.6114            0    3215.9247    17.430112    20.530369    21.264696    7609.4996    4310.5914    3753.5429    1583.6397    43.323214   -155.21391    1620.1693   -3087.0023 
  408000    264.58614   -3898.1585   -3444.6669   -3898.1585            0     3250.836    17.460334    20.565968    21.301567    7649.1516    3740.2812    3043.0179    2969.2088    310.20101    635.34417    528.65582   -3082.0198 
  409000    259.06792   -3888.2832   -3444.2496   -3888.2832            0    4228.7002    17.406576    20.502647    21.235982    7578.7158    3840.6783    4439.9327    4405.4895    1158.4738    1688.3675    217.54449   -2976.8607 
  410000    279.36085   -3878.2836   -3399.4687   -3878.2836            0    5953.8124    17.389425    20.482445    21.215057    7556.3355    8228.8053    4065.4518    5567.1803    78.554651    913.59859    1182.6788   -2743.3502 
  411000    246.42904   -3881.9505   -3459.5795   -3881.9505            0    3861.6642    17.448415    20.551928    21.287026    7633.4973    3469.4729    3283.2349    4832.2848   -1427.8613    1401.7995   -737.27088   -3029.6731 
  412000    267.71064   -3894.9763   -3436.1294   -3894.9763            0    4160.9771    17.481178    20.590519    21.326997    7676.5786    2900.0374    5016.9696    4565.9244   -753.90458     122.9108   -609.57638   -2970.2871 
  413000    262.74693    -3883.273   -3432.9338    -3883.273            0    3228.0182    17.411816     20.50882    21.242375     7585.563    3288.0619    2992.4292    3403.5636    1153.9474   -818.80079    646.21137   -3075.8257 
  414000    277.81961   -3911.6421   -3435.4688   -3911.6421            0    3731.8736    17.444554     20.54738    21.282315    7628.4301    3095.9758    5765.9311    2333.7137   -720.36299   -402.88373    415.43267   -3020.2873 
  415000    248.00966   -3829.5947   -3404.5147   -3829.5947            0    5259.9424    17.393409    20.487138    21.219918    7561.5308     5672.638    4576.0651    5531.1241    563.46412    290.53897   -829.30967   -2824.4631 
  416000    263.70412   -3826.7261   -3374.7463   -3826.7261            0    3778.8394    17.432462    20.533138    21.267563    7612.5785    3040.9857    3212.5106    5083.0218    -730.5005    -158.8997   -262.81021   -2955.2133 
  417000    246.08758   -3864.2242   -3442.4385   -3864.2242            0    2928.8225    17.365462     20.45422    21.185823    7525.1403    3668.8957      2293.61    2823.9617   -1664.7109    899.25186   -118.11687   -3121.0106 
  418000    278.54689   -3851.5571   -3374.1373   -3851.5571            0    3944.6715    17.402823    20.498226    21.231403    7573.8147    5183.9902     3382.522    3267.5023    439.16838   -1185.5383   -710.10573   -2938.4234 
  419000    273.22727   -3845.7657   -3377.4635   -3845.7657            0    4620.3783    17.307756     20.38625    21.115422    7450.3705    5916.5182    3740.6743    4203.9424    -17.49568   -60.432376   -544.72779   -2875.4316 
  420000    265.20839   -3848.2161    -3393.658   -3848.2161            0    4014.0524    17.313745    20.393304    21.122728    7458.1072    3968.4723    4872.1166    3201.5684   -122.68243   -448.64081    840.40467   -2957.0542 
  421000    254.48738   -3852.4843   -3416.3017   -3852.4843            0    3693.5176    17.378662    20.469768    21.201927    7542.3139    3102.1953    5488.4036    2489.9538   -861.61042    24.441948   -383.45606   -3010.0261 
  422000    261.69752    -3880.597   -3432.0564    -3880.597            0    4959.8007    17.395816    20.489973    21.222854    7564.6697     4492.266     5518.003    4869.1332    280.30519   -521.00336   -319.19539   -2884.8766 
  423000    251.08342   -3846.6854   -3416.3371   -3846.6854            0    5213.6723    17.358013    20.445446    21.176735    7515.4604    5510.4159    4327.5583    5803.0427   -1145.6107   -653.70362    823.02949    -2844.891 
  424000     264.7638   -3897.0466   -3443.2505   -3897.0466            0    3939.5262     17.35109    20.437292    21.168289    7506.4717    3063.5187    6044.4552    2710.6049   -404.20434    767.55877    172.25657    -3011.974 
  425000     262.8808   -3872.0713   -3421.5026   -3872.0713            0    1985.6998    17.468892    20.576047    21.312008    7660.4041    1773.2529    3221.6315    962.21485   -584.13193   -877.32152    107.56604   -3199.6619 
  426000    260.13922   -3891.5932   -3445.7235   -3891.5932            0    4979.8792    17.411763    20.508757     21.24231    7585.4933    5106.4032    6034.2877    3798.9467   -621.68445    1671.5496   -946.97635   -2894.8162 
  427000    267.61796   -3848.1399   -3389.4519   -3848.1399            0    4954.5624    17.372162    20.462112    21.193997    7533.8535    5804.3392    4432.4659    4626.8822   -1098.4249    581.67208     -533.147   -2845.0767 
  428000     271.3925    -3868.596   -3403.4386    -3868.596            0    2628.3423     17.35721      20.4445    21.175755    7514.4177    3878.9256    2258.6105    1747.4908   -1155.4979    6.1783601   -517.37071   -3115.3983 
  429000    258.13919   -3887.3198   -3444.8781   -3887.3198            0    2438.7772    17.456196    20.561093    21.296518    7643.7136    2747.5623    3007.8457    1560.9237    286.76993    406.32229    1061.5675   -3173.0136 
  430000    250.66978   -3871.4766   -3441.8372   -3871.4766            0    4093.1877    17.461089    20.566857    21.302488    7650.1435    4178.9091    3543.0259    4557.6279      1928.09     109.5113    772.58835   -2985.1623 
  431000    279.63938   -3893.7296   -3414.4373   -3893.7296            0    4988.2171    17.466542    20.573279     21.30914    7657.3125    3597.2349     4742.978    6624.4383      332.531    692.49025   -956.77477   -2857.3829 
  432000    268.85345   -3849.1324   -3388.3268   -3849.1324            0    3010.0248    17.433806     20.53472    21.269202    7614.3386    2783.7299    3883.5146    2362.8299   -1225.7024    1302.3332   -920.89487   -3054.0716 
  433000    253.64366   -3877.4398   -3442.7033   -3877.4398            0    6395.4242     17.36607    20.454937    21.186565    7525.9314    6843.0516    7080.9002     5262.321    954.17481   -1975.2587    1138.6085   -2740.7544 
  434000    258.54056   -3895.7795   -3452.6498   -3895.7795            0    2257.1336    17.526986    20.644475    21.382882    7737.0842    3384.2399    2593.3549    793.80614    1302.1637   -52.597415   -510.37978   -3197.9607 
  435000    260.10966   -3840.8456   -3395.0266   -3840.8456            0    2919.6674    17.406004    20.501974    21.235285    7577.9695    3220.1126    1254.0661    4284.8235    304.85046   -280.88273     1417.698   -3072.3539 
  436000    264.62104   -3837.0323   -3383.4809   -3837.0323            0    4617.3629    17.455893    20.560736    21.296148    7643.3153    5568.2071    3161.2227     5122.659   -671.27591   -280.10776   -663.60464   -2868.7839 
  437000    254.30665   -3876.5043   -3440.6314   -3876.5043            0    3791.0794    17.488313    20.598923    21.335701    7685.9817    4813.8809     2593.806    3965.5515    78.041733     44.44504    51.646316   -3015.6811 
  438000    265.78919   -3846.4598   -3390.9062   -3846.4598            0    3014.5693    17.477227    20.585865    21.322176    7671.3744    3010.3917    1583.7357    4449.5803   -411.32276    -1716.043   -349.18054   -3053.6389 
  439000    256.71686   -3903.1136   -3463.1097   -3903.1136            0    3439.2522    17.466434    20.573153    21.309009    7657.1712    2503.4919    4391.4133    3422.8514    1668.0463    840.17775      2297.99   -3079.0415 
  440000    270.09252   -3844.4942   -3381.5648   -3844.4942            0    2645.3053    17.521755    20.638313      21.3765    7730.1588    2175.7311    2149.6515    3610.5334    340.99351   -886.41711    161.58718   -3083.3425 
  441000    273.37731   -3868.7742   -3400.2149   -3868.7742            0    3698.5299    17.470649    20.578116     21.31415     7662.715    1586.0408    4861.3343    4648.2146   -608.03384   -513.05407   -842.07629   -2986.8937 
  442000    271.37785   -3849.7246   -3384.5922   -3849.7246            0    3623.1557    17.415624    20.513305    21.247021    7590.5412    3920.5936    4087.1392    2861.7345    518.71532   -196.49469    1285.0206   -2983.5079 
  443000    271.63395   -3855.8262   -3390.2549   -3855.8262            0    4354.2316     17.35583    20.442875    21.174072    7512.6255    4841.2258    3496.1854    4725.2835   -291.69681    1653.1701    1524.0572   -2913.1882 
  444000    278.64873   -3861.8947   -3384.3003   -3861.8947            0    3383.9568    17.439863    20.541855    21.276592    7622.2781    3009.8153    4813.1949    2328.8601   -352.79906     1298.785     340.0331   -3008.1291 
  445000    257.01994   -3854.5997   -3414.0763   -3854.5997            0    2808.2583    17.451756    20.555863    21.291102    7637.8828    3801.4354     2833.295    1790.0444   -54.269216    930.87385     917.8456   -3101.2625 
  446000    251.45555   -3814.2452    -3383.259   -3814.2452            0    3533.2949    17.445506    20.548502    21.283477    7629.6802    4495.1118     2840.516    3264.2568    1200.2961    -1182.742    1188.0443   -2990.1055 
  447000    265.85297   -3861.6314   -3405.9685   -3861.6314            0      3218.05    17.414215    20.511646    21.245302     7588.699     2250.312    4159.3476    3244.4904    46.268536    735.14208   -468.40615    -3049.816 
  448000    267.96679   -3843.6503   -3384.3644   -3843.6503            0    3752.1378    17.441117    20.543332    21.278122    7623.9227    4062.7315    5360.6426    1833.0393    57.633787   -90.264263    677.07456   -2967.1751 
  449000    268.30852   -3854.3724   -3394.5008   -3854.3724            0    2679.2298    17.494924    20.606709    21.343766    7694.7008    2492.6095    3375.4352    2169.6447   -1195.6123   -142.78173   -682.36083   -3093.8394 
  450000    258.91249   -3858.6648   -3414.8977   -3858.6648            0    4134.2047    17.409904    20.506567    21.240042    7583.0637     5879.334    4063.4105    2459.8696   -2070.0832   -13.920861   -217.99272    -2957.691 
  451000    263.98116   -3870.7687    -3418.314   -3870.7687            0    3802.4149    17.409412    20.505988    21.239443    7582.4217    4072.3363    2170.4134    5164.4949    755.97443   -49.292467    20.152709    -2997.836 
  452000    264.68573   -3851.5082   -3397.8459   -3851.5082            0    3981.5311    17.413697    20.511035     21.24467    7588.0217    3967.0499    4973.6095    3003.9338    706.81581   -69.711392    341.15807   -2957.2357 
  453000    252.56433   -3868.4864   -3435.5998   -3868.4864            0     4414.349    17.288828    20.363955    21.092329    7425.9536    4834.8512     5219.984    3188.2117    1756.4587      255.189    1443.2464   -2957.5262 
  454000    261.14395   -3872.3149   -3424.7231   -3872.3149            0    3976.2959    17.311477    20.390633    21.119961    7455.1765    3779.5841    5419.4369    2729.8667   -1575.5822    101.22862   -806.85932    -2992.396 
  455000    250.45371   -3881.4151    -3452.146   -3881.4151            0    4462.5888    17.342124    20.426731    21.157351    7494.8414    4521.0615     3783.487     5083.218    72.253682   -50.464951   -425.67857   -2964.3646 
  456000    259.55579   -3896.1625   -3451.2927   -3896.1625            0    3794.0685     17.44638    20.549532    21.284543    7630.8269     3932.284    3692.2829    3757.6385   -44.952977   -323.17716    -165.3866   -3029.0592 
  457000    262.03373   -3871.1138   -3421.9969   -3871.1138            0    2356.1552    17.359206    20.446851     21.17819      7517.01    2722.5355    2040.5139    2305.4163   -1489.5747    1219.2795   -160.86039   -3163.6966 
  458000    258.03165   -3813.0003   -3370.7429   -3813.0003            0    3805.0989     17.36458    20.453182    21.184747    7523.9941    5549.5334    3007.1747    2858.5886   -672.04181    1048.0208   -1894.1443   -2953.2104 
  459000    264.68226   -3855.2359   -3401.5796   -3855.2359            0    4557.6086    17.341374    20.425848    21.156436     7493.869    3074.2261    5881.6034    4716.9964   -366.97467   -1604.0991    -1673.254   -2903.4767 
  460000    265.94052   -3824.4799    -3368.667   -3824.4799            0    4730.2889     17.37239    20.462381    21.194276     7534.151    4764.6625    4804.0069    4622.1974    -311.9148   -864.41954    78.829303   -2848.9129 
  461000    263.01215   -3874.8623   -3424.0685   -3874.8623            0     2845.997    17.393698    20.487478    21.220271    7561.9072    2566.2585    3614.3728    2357.3599    116.66428   -1338.0453    1184.3153   -3110.2044 
  462000    262.17081   -3858.0477    -3408.696   -3858.0477            0    4811.7926    17.374829    20.465254    21.197251    7537.3248    4061.7345    5075.5401    5298.1031   -1761.2583    1546.2196   -927.89329   -2879.7637 
  463000    260.56682   -3821.0175   -3374.4149   -3821.0175            0    4308.1175    17.332472    20.415363    21.145576    7482.3349    6230.5419    2496.9935    4196.8171   -296.46515   -290.14238    399.91149   -2904.3037 
  464000    253.44931   -3854.6402   -3420.2368   -3854.6402            0    4490.3462    17.485334    20.595414    21.332067    7682.0546    4934.3931    3618.4994     4918.146   -2503.4448    -1056.776    489.74952   -2917.1614 
  465000     251.4014   -3919.3215   -3488.4281   -3919.3215            0    4406.5997    17.361692     20.44978    21.181224    7520.2405    3120.2383    4199.1315    5900.4292   -1489.3414    151.95115   -43.634743   -3005.1343 
  466000    261.50549   -3867.4717   -3419.2603   -3867.4717            0    2040.3712    17.460144    20.565743    21.301335    7648.9014    2088.0405     1184.801    2848.2721    150.96761    792.41622   -66.872181   -3191.6541 
  467000    255.00792   -3886.8669   -3449.7921   -3886.8669            0    3988.1931    17.375585    20.466144    21.198174    7538.3088    3544.3828    4035.7914    4384.4052   -60.725092   -25.033599    560.48692   -3011.3361 
  468000    270.44506   -3876.1304   -3412.5968   -3876.1304            0    3718.8829    17.431647    20.532177    21.266568    7611.5103    3585.6964    3625.4115    3945.5407    1276.6719   -400.70828   -103.99607   -2999.7782 
  469000     258.4475   -3847.0279   -3404.0578   -3847.0279            0    5338.0991     17.34162    20.426137    21.156736    7494.1877    4898.7358    6237.6369    4877.9246   -687.51496     252.9068   -48.770274     -2820.63 
  470000    249.47053   -3886.0023   -3458.4184   -3886.0023            0    5899.6826    17.397308    20.491731    21.224676    7566.6174    8125.5411    2414.2003    7159.3063   -234.56572   -1937.7269   -34.239512   -2807.3804 
  471000    260.73172   -3867.7606   -3420.8753   -3867.7606            0    4853.1094    17.528425    20.646169    21.384637    7738.9891    4600.4171    3319.4689    6639.4421   -1578.5217    417.62694    308.50622   -2873.1281 
  472000    255.33659    -3890.523   -3452.8849    -3890.523            0    2274.1339    17.498338    20.610731    21.347932    7699.2073    2100.9499    1357.0462    3364.4056    82.319538     65.49687   -2079.6078   -3197.5336 
  473000    264.10959   -3906.2011   -3453.5263   -3906.2011            0    4457.1316    17.435839    20.537116    21.271683    7617.0036    4702.3175      5320.54    3348.5373   -790.74268   -724.00226   -1682.4457   -2958.4006 
  474000    274.17129   -3876.6576   -3406.7374   -3876.6576            0    2999.2866    17.386398    20.478881    21.211365    7552.3909    2982.4307    3240.7553    2774.6738    435.68422   -1550.4657   -1907.4229   -3076.3843 
  475000    253.25433   -3853.7677   -3419.6985   -3853.7677            0     3635.167    17.403908    20.499505    21.232727    7575.2317    1519.3047    4828.5785    4557.6178   -337.37377    795.09624   -1586.7327   -3018.0962 
  476000    272.48113   -3862.5722   -3395.5489   -3862.5722            0    2049.5967    17.447913    20.551336    21.286413    7632.8376    2522.1309     2031.418    1595.2411    764.09679    591.92362   -60.747425   -3167.3937 
  477000    262.03884    -3782.143   -3333.0174    -3782.143            0    2791.0598    17.446564    20.549748    21.284768    7631.0684    1729.3836    2635.3901    4008.4057    167.72028   -342.07662   -1287.0022   -3022.3967 
  478000     279.6914   -3840.2839   -3360.9024   -3840.2839            0    4073.4054    17.401487    20.496654    21.229774    7572.0716    4165.2005    3703.7194    4351.2963   -1195.8017   -1044.1174   -905.94535   -2911.0726 
  479000    275.08508   -3864.1135    -3392.627   -3864.1135            0    3564.9876    17.530191    20.648249    21.386792     7741.329    2951.8925     4018.903    3724.1673    881.96278    1602.8117   -161.92257   -2990.1423 
  480000    271.32963   -3834.6418   -3369.5921   -3834.6418            0    3555.8972    17.489729    20.600591    21.337429    7687.8491    3455.2163    4298.5144    2913.9611    802.81762    -929.5909    200.68428   -2970.9071 
  481000      262.172   -3832.4427   -3383.0889   -3832.4427            0    4739.9527    17.367208    20.456277    21.187953    7527.4103    3620.0625    5413.6964    5186.0992    278.61755   -1314.4371    22.132574    -2862.739 
  482000    262.55415   -3838.7324   -3388.7236   -3838.7324            0    3591.5782    17.351239    20.437468    21.168471    7506.6655    3423.4408    4146.2411    3205.0526    2.0263325   -837.46343   -1437.6086   -2995.5283 
  483000    249.16781   -3827.0989   -3400.0338   -3827.0989            0    4526.5896    17.412749    20.509918    21.243513    7586.7821    3678.5815    4484.1714    5417.0161    179.76693   -874.25007   -263.01622   -2899.1873 
  484000    278.42551     -3853.45   -3376.2382     -3853.45            0    2069.5597    17.505998    20.619753    21.357276    7709.3219    2148.7747     1264.272    2795.6323   -1198.4132   -768.64046      76.4328   -3143.5523 
  485000    249.23672   -3846.5413   -3419.3581   -3846.5413            0    3344.0446    17.389424    20.482445    21.215057    7556.3347    5995.9464    3445.7097    590.47766   -1199.6302   -1181.5187    984.59331   -3050.8398 
  486000    261.63673   -3851.6301   -3403.1937   -3851.6301            0    2766.2673    17.451465    20.555521    21.290747    7637.5011    2438.7709    1935.0497    3924.9813   -240.09859   -1059.8202   -126.27454   -3095.0726 
  487000    277.98835    -3885.157   -3408.6945    -3885.157            0    4187.8089    17.305601    20.383712    21.112793    7447.5885    4420.0261    4661.6715    3481.7289   -602.43656   -860.93898   -1850.6147   -2953.8338 
  488000    262.57734   -3830.7848   -3380.7363   -3830.7848            0     4208.724    17.404988    20.500777    21.234044    7576.6417    1263.0648    6287.6356    5075.4715    688.61871    284.66979    1076.0232   -2915.6826 
  489000    265.69318   -3867.9236   -3412.5346   -3867.9236            0    2652.8103    17.452746    20.557029    21.292309    7639.1825    2226.8844     3699.095    2032.4517   -315.68531   -167.00298    74.355359   -3116.9859 
  490000    252.98644   -3848.2462   -3414.6361   -3848.2462            0    4435.7183    17.340986    20.425391    21.155963    7493.3663    5075.6198    3033.4008    5198.1342   -761.97491    309.36419    183.09867   -2929.8872 
  491000    247.53795   -3864.5387   -3440.2671   -3864.5387            0    4832.5937    17.333359    20.416407    21.146657    7483.4828    4967.4393    3608.7006    5921.6413    686.43662   -819.62842    1141.0903    -2912.843 
  492000    266.05002    -3862.233   -3406.2324    -3862.233            0    2599.5611    17.447848     20.55126    21.286334    7632.7526    2203.8463    3185.5939     2409.243   -2300.1136   -120.26894    172.37029     -3116.86 
  493000    264.00866   -3847.6847   -3395.1829   -3847.6847            0    3987.2866    17.425187    20.524568    21.258687    7603.0512    4076.8271    3934.9435    3950.0892   -781.63357     275.6723   -880.47887   -2953.0618 
  494000    278.29243   -3902.1129   -3425.1292   -3902.1129            0    5785.1753    17.415296    20.512918     21.24662    7590.1116     3675.953    7224.6944    6454.8785   -51.536556   -1299.7662    46.253712   -2784.7451 
  495000    275.59278   -3890.1714   -3417.8148   -3890.1714            0    3232.2289    17.525769    20.643041    21.381397    7735.4723     5381.873    2414.5844    1900.2292     101.2772   -372.70079     726.0926   -3053.1744 
  496000    257.74482   -3878.0799   -3436.3141   -3878.0799            0    2765.8601    17.400114    20.495036    21.228099    7570.2791    5191.9623    1310.9765    1794.6414   -701.62545    -620.9669   -455.92753     -3130.95 
  497000    262.56423   -3877.8933   -3427.8672   -3877.8933            0    3891.3254      17.3772    20.468046    21.200144    7540.4107    2821.4785    5849.3941    3003.1036    572.68954    472.96343   -959.71429   -2999.9414 
  498000    282.66068   -3875.4577    -3390.987   -3875.4577            0    2951.1436     17.40471    20.500449    21.233705    7576.2786    3367.4112    2215.8852    3270.1344   -251.14766    405.15177   -694.28187   -3064.9085 
  499000    255.00058   -3884.2271   -3447.1648   -3884.2271            0    4700.2088    17.349327    20.435216    21.166139    7504.1847    3727.6922    6268.3655    4104.5687    377.05616   -331.66196    639.83992   -2932.7701 
  500000    269.86774   -3847.9447   -3385.4007   -3847.9447            0    1895.4919     17.45998     20.56555    21.301134    7648.6853    1305.5171    2166.3932    2214.5655   -593.36969   -864.51695    -246.8336   -3173.9619 
Loop time of 429.807 on 64 procs for 250000 steps with 864 atoms

Performance: 100.510 ns/day, 0.239 hours/ns, 581.657 timesteps/s
99.0% CPU use with 64 MPI tasks x 1 OpenMP threads

MPI task timing breakdown:
Section |  min time  |  avg time  |  max time  |%varavg| %total
---------------------------------------------------------------
Pair    | 19.48      | 24.819     | 29.83      |  45.9 |  5.77
Bond    | 0.27044    | 0.27812    | 0.28717    |   0.7 |  0.06
Kspace  | 194.01     | 200.7      | 207.24     |  20.2 | 46.70
Neigh   | 5.3475     | 5.8239     | 6.2346     |  10.7 |  1.36
Comm    | 89.553     | 93.677     | 97.716     |  20.5 | 21.80
Output  | 1.2302     | 1.2317     | 1.2415     |   0.2 |  0.29
Modify  | 94.63      | 96.838     | 100.4      |  12.6 | 22.53
Other   |            | 6.436      |            |       |  1.50

Nlocal:        13.5000 ave          18 max           7 min
Histogram: 2 0 2 9 10 11 7 8 8 7
Nghost:        2104.23 ave        2158 max        2048 min
Histogram: 1 2 8 8 11 13 10 7 1 3
Neighs:        4039.73 ave        5869 max        2074 min
Histogram: 1 3 6 7 16 11 8 5 2 5

Total # of neighbors = 258543
Ave neighs/atom = 299.23958
Ave special neighs/atom = 2.0000000
Neighbor list builds = 14247
Dangerous builds = 0

unfix		3
unfix		2
unfix		1

write_data	data.final.${pid}
write_data	data.final.0
System init for write_data ...
PPPM initialization ...
  extracting TIP4P info from pair style
  using 12-bit tables for long-range coulomb (../kspace.cpp:340)
  G vector (1/distance) = 0.37350084
  grid = 24 24 25
  stencil order = 5
  estimated absolute RMS force accuracy = 0.0031573086
  estimated relative force accuracy = 9.5081411e-06
  using double precision FFTW3
  3d grid and FFT values/proc = 2730 288
Last active /omp style is kspace_style pppm/tip4p/omp
WARNING: Not all mixed pair coeffs generated from mixing. Use write_data with 'pair ij' option to store all pair coeffs. (../write_data.cpp:312)

write_restart   restart.lmp.${pid}
write_restart   restart.lmp.0
System init for write_restart ...
PPPM initialization ...
  extracting TIP4P info from pair style
  using 12-bit tables for long-range coulomb (../kspace.cpp:340)
  G vector (1/distance) = 0.37350084
  grid = 24 24 25
  stencil order = 5
  estimated absolute RMS force accuracy = 0.0031573086
  estimated relative force accuracy = 9.5081411e-06
  using double precision FFTW3
  3d grid and FFT values/proc = 2730 288
Last active /omp style is kspace_style pppm/tip4p/omp
Total wall time: 0:07:13
