#include		in.partitions
include		in.temp
variable        temperature equal 276.47
variable	tempDamp equal 100.0
include		in.pressure
variable        pressure equal 7871.7
variable        pressureDamp equal 1000.0 # This is 1 ps
include		in.seed
variable        seed equal 745823

units		real
atom_style	full
read_restart    restart.lmp.${pid}
read_restart    restart.lmp.0
Reading restart file ...
  restart file = 30 Jul 2021, LAMMPS = 30 Jul 2021
  restoring atom style full from restart
  triclinic box = (-3.0552334 -0.39351729 0.032277118) to (14.665232 22.973516 19.197721) with tilt (-0.084917457 -6.3661415 0.25715784)
  2 by 4 by 4 MPI processor grid
  restoring pair style lj/cut/tip4p/long/omp from restart
  restoring bond style harmonic/omp from restart
  restoring angle style harmonic/omp from restart
  1008 atoms
  672 bonds
  336 angles
Finding 1-2 1-3 1-4 neighbors ...
  special bond factors lj:    0        0        0       
  special bond factors coul:  0        0        0       
     2 = max # of 1-2 neighbors
     1 = max # of 1-3 neighbors
     1 = max # of 1-4 neighbors
     2 = max # of special neighbors
  special bonds CPU = 0.002 seconds
  read_restart CPU = 0.009 seconds

include 	in.setup
variable	out_freq equal 1000
variable	out_freq2 equal 10000
variable	out_freq3 equal 1000

timestep	2.0

neigh_modify    delay 7 every 1

include		in.tip4p
# This is TIP4P/Ice

# create groups ###
group ox type 2
336 atoms in group ox
group hy type 1
672 atoms in group hy

# set charges - beside manually ###
set group ox charge -1.1794
Setting atom values ...
  336 settings made for charge
set group hy charge 0.5897
Setting atom values ...
  672 settings made for charge

# ### TIP3P Potential Parameters ###
pair_style lj/cut/tip4p/long/omp 2 1 1 1 0.1577 8.5
pair_coeff 1 1*2 0.000 0.000
pair_coeff 2 2 0.21084 3.1668
bond_style  harmonic
bond_coeff  1 450 0.9572
angle_style harmonic
angle_coeff 1 55 104.52
kspace_style pppm/tip4p/omp 1.0e-5
pair_modify tail yes

thermo          ${out_freq}
thermo          1000
thermo_style    custom step temp pe etotal epair emol press lx ly lz vol pxx pyy pzz pxy pxz pyz enthalpy

restart 	${out_freq3} restart.lmp.${pid} restart2.lmp.${pid}
restart 	1000 restart.lmp.${pid} restart2.lmp.${pid}
restart 	1000 restart.lmp.0 restart2.lmp.${pid}
restart 	1000 restart.lmp.0 restart2.lmp.0


include         in.dump
dump            myDump all atom ${out_freq2} dump.water.${pid}
dump            myDump all atom 10000 dump.water.${pid}
dump            myDump all atom 10000 dump.water.0
dump            myDump2 all dcd ${out_freq2} dump.dcd
dump            myDump2 all dcd 10000 dump.dcd
dump_modify     myDump append yes
dump_modify     myDump2 append yes


variable natoms 	equal  "count(all)"                        # NUMBER ATOMS
variable H      	equal  "enthalpy/v_natoms"                 # ENTHALPY-per-atom
variable Vol      	equal  "vol/v_natoms"                 # volume-per-atom
fix AVG all 		ave/time ${out_freq} 1 ${out_freq} v_Vol v_H file vol_enthalpy.dat
fix AVG all 		ave/time 1000 1 ${out_freq} v_Vol v_H file vol_enthalpy.dat
fix AVG all 		ave/time 1000 1 1000 v_Vol v_H file vol_enthalpy.dat



fix 		1 all shake 1e-6 200 0 b 1 a 1
       0 = # of size 2 clusters
       0 = # of size 3 clusters
       0 = # of size 4 clusters
     336 = # of frozen angles
  find clusters CPU = 0.000 seconds
fix             2 all nph tri ${pressure} ${pressure} ${pressureDamp}
fix             2 all nph tri 7871.7 ${pressure} ${pressureDamp}
fix             2 all nph tri 7871.7 7871.7 ${pressureDamp}
fix             2 all nph tri 7871.7 7871.7 1000
fix             3 all temp/csvr ${temperature} ${temperature} ${tempDamp} ${seed}
fix             3 all temp/csvr 276.47 ${temperature} ${tempDamp} ${seed}
fix             3 all temp/csvr 276.47 276.47 ${tempDamp} ${seed}
fix             3 all temp/csvr 276.47 276.47 100 ${seed}
fix             3 all temp/csvr 276.47 276.47 100 745823


run             250000
PPPM initialization ...
  extracting TIP4P info from pair style
  using 12-bit tables for long-range coulomb (../kspace.cpp:340)
  G vector (1/distance) = 0.38341955
  grid = 24 30 32
  stencil order = 5
  estimated absolute RMS force accuracy = 0.0019476711
  estimated relative force accuracy = 5.8653536e-06
  using double precision FFTW3
  3d grid and FFT values/proc = 5355 768
Last active /omp style is kspace_style pppm/tip4p/omp
Neighbor list info ...
  update every 1 steps, delay 7 steps, check yes
  max neighbors/atom: 2000, page size: 100000
  master list distance cutoff = 10.8154
  ghost atom cutoff = 10.8154
  binsize = 5.4077, bins = 5 5 4
  1 neighbor lists, perpetual/occasional/extra = 1 0 0
  (1) pair lj/cut/tip4p/long/omp, perpetual
      attributes: half, newton on, omp
      pair build: half/bin/newton/tri/omp
      stencil: half/bin/3d/tri
      bin: standard
Per MPI rank memory allocation (min/avg/max) = 10.33 | 10.34 | 10.34 Mbytes
Step Temp PotEng TotEng E_pair E_mol Press Lx Ly Lz Volume Pxx Pyy Pzz Pxy Pxz Pyz Enthalpy 
 3500000    276.41423    -4745.379   -4192.5164    -4745.379            0    9386.4696    17.720466    23.367034    19.165444    7935.9257    9778.4252    7333.6061    11047.377   -570.29302    71.944677    522.50817   -3106.1514 
 3501000    287.53535   -4810.2106   -4235.1043   -4810.2106            0    6665.2274    17.938981    23.197885    19.265298    8017.1849    6864.8294    6260.9352    6869.9175   -1073.5833    1258.7338     570.9432   -3455.7898 
 3502000    273.51154   -4769.7674   -4222.7105   -4769.7674            0     8142.046    17.937946     22.99128    19.344698    7978.0697    7413.1413    9422.4296    7590.5671   -182.44223    358.33993   -1675.1549   -3275.3675 
 3503000    263.03722   -4758.5249   -4232.4179   -4758.5249            0    8451.2658    17.961315    23.195796     19.15844    7981.9235    7692.7586    7640.7084     10020.33    1328.7153    194.21738   -985.84806   -3248.6216 
 3504000    255.34041   -4786.6411   -4275.9288   -4786.6411            0    6310.2353    18.045096    22.952183    19.374185    8024.2901    6534.5541    6266.1222    6130.0296    227.11545    785.01808   -830.37321   -3537.4669 
 3505000    266.74141   -4760.3532   -4226.8374   -4760.3532            0    8057.5632    18.056914     22.97843    19.208682    7970.0578    10115.154    6556.2809    7501.2544   -302.24528   -2506.0378   -3465.1645   -3290.2656 
 3506000    278.79418   -4774.1483   -4216.5255   -4774.1483            0    6510.3395    18.155093    22.679964    19.535326    8043.8045    6176.6221    6456.8223    6897.5741    1157.2095    435.36558    304.70733   -3452.7934 
 3507000     274.4697   -4776.5308   -4227.5575   -4776.5308            0    7602.7268    18.169666    22.705678       19.328    7973.8551    8139.5327    7446.9148    7221.7329   -915.15029   -649.99185   -1885.8641   -3343.4326 
 3508000    279.86781   -4782.2589   -4222.4887   -4782.2589            0    8035.3813    18.093567    22.599619    19.463639     7958.832    8048.1068     9031.009     7027.028    115.72902    501.70287   -1711.6649   -3289.8107 
 3509000    292.64008    -4777.274   -4191.9577    -4777.274            0    8723.4795    18.029777    22.746171    19.425847    7966.7029    8185.7999    10716.177    7268.4611    1048.7375    849.29676   -92.468663   -3178.4098 
 3510000     290.7083   -4789.0856    -4207.633   -4789.0856            0    4873.0327    18.000543    23.029417    19.454491    8064.7038    6673.7057    3552.3398    4393.0525    844.96777   -1444.5163    461.10304   -3634.4892 
 3511000    278.22823   -4788.3041   -4231.8132   -4788.3041            0    7814.4021    17.893141    23.004481    19.333525    7958.1127    9212.8203     7030.152    7200.2339   -809.75733   -737.00194   -127.19424   -3324.8666 
 3512000    291.86746   -4754.9124   -4171.1414   -4754.9124            0    8716.7535    18.049691     22.94581    19.316235    8000.1042    7178.6731    9333.4185    9638.1689    165.21966    780.58374    117.93612   -3154.1289 
 3513000    291.39174   -4770.3022   -4187.4827   -4770.3022            0    7626.5698    17.963171    23.060539     19.29081    7991.0329    8210.7482    8121.1444    6547.8169   -549.51715   -1314.2529   -890.28286   -3298.6745 
 3514000    280.02544   -4787.4239   -4227.3384   -4787.4239            0    7715.4067    17.780348    23.243242    19.274812    7965.7583    8074.6515    7218.2219    7853.3465    209.85704   -634.33651   -479.14361    -3331.021 
 3515000    268.67821    -4765.729   -4228.3394    -4765.729            0    6881.3316    17.848569    23.245862    19.340479    8024.4686    9523.4025    4694.7229    6425.8694   -1005.4094   -461.78151   -503.22749   -3423.0265 
 3516000     272.5138   -4760.7658   -4215.7045   -4760.7658            0    9089.3675     17.86423    23.165691    19.228245    7957.3636    11993.532    7659.6276    7614.9434   -2025.0892   -472.34773   -226.15856   -3160.8835 
 3517000    277.75434   -4783.2036   -4227.6607   -4783.2036            0    6206.0356    18.016623    23.157138    19.247925    8030.4925    5556.8029    5395.9544    7665.3494   -653.35043   -710.73291   -643.80136   -3500.8315 
 3518000    275.81019   -4805.5115   -4253.8571   -4805.5115            0    6355.8733    17.853422    23.082753    19.355416    7976.4854    5144.5655    6588.3715    7334.6828    -1161.689   -89.387985     298.5586   -3514.4856 
 3519000     267.0208   -4766.2177   -4232.1431   -4766.2177            0    8656.8905    17.897743    23.017826    19.326539    7961.8991    10266.758    8818.7165     6885.197    49.762875   -44.891134    745.51889   -3226.9385 
 3520000    288.64613   -4805.8352   -4228.5073   -4805.8352            0    7378.1819    17.994266    23.063687    19.240047    7984.8912    7600.9529    7744.3315    6789.2612   -463.92308    170.67466    419.39275   -3369.3073 
 3521000    269.85442   -4805.4214   -4265.6792   -4805.4214            0    7326.2554    18.013777    22.894032    19.435075    8015.1799    8955.0509    5829.4902    7194.2251   -982.10513   -531.42587   -1299.7413   -3409.2899 
 3522000    268.59257   -4761.5417   -4224.3234   -4761.5417            0    10016.614    18.111692    22.815357     19.22137    7942.7451    8894.4759    10117.559    11037.807   -1209.8158   -410.54755    1482.4635    -3064.031 
 3523000    275.65846    -4811.593    -4260.242    -4811.593            0     7939.648    17.896183    22.855329    19.501545    7976.5832     8629.613    8783.2172    6406.1139    96.487659   -1215.3425   -274.21821   -3336.6205 
 3524000     293.2884   -4760.4225   -4173.8095   -4760.4225            0    9377.5502    18.025722    22.896051     19.26027    7949.0573    10514.271     9063.562    8554.8173   -1877.9015    68.569941   -897.97322   -3086.6809 
 3525000    278.75301   -4762.5106   -4204.9702   -4762.5106            0    7869.0805    18.045501    22.751767    19.614262    8052.9695     9844.358    8198.1419    5564.7416    -457.9892    -757.4652    1527.4834   -3280.7915 
 3526000    279.25784   -4771.1395   -4212.5893   -4771.1395            0    7477.6978    18.210968    22.688379    19.446475    8034.8424    7520.0983    7176.4914    7736.5036    -198.2878   -213.75326   -2531.0729   -3336.3531 
 3527000     297.8837   -4795.5066   -4199.7024   -4795.5066            0    8341.7753    18.032153    22.802689    19.445332    7995.5621    8466.8556    8605.9555    7952.5147    239.36037   -1266.8642   -708.61012   -3226.9924 
 3528000    271.65601    -4787.325   -4243.9795    -4787.325            0    6038.8038    18.178801    22.710992    19.496572    8049.3275    6223.8018    6270.8935    5621.7162   -1076.2704    337.91713    855.26208   -3535.0771 
 3529000    284.34667   -4795.6794   -4226.9509   -4795.6794            0    6860.1777    17.944276    22.897522    19.483367    8005.3152    7895.6985    6790.6924    5894.1422     1107.758   -169.27968    595.82185   -3426.0299 
 3530000    286.44146   -4779.5433   -4206.6249   -4779.5433            0    7685.8757    18.292654    22.916253     19.14978    8027.5703    6677.7828    8628.8162     7751.028    129.70208    531.56744   -454.11063   -3306.8097 
 3531000    279.16574   -4749.5358   -4191.1698   -4749.5358            0    6949.0686    17.856181    23.067355    19.513903    8037.6761     7779.711    6681.5991    6385.8957    1220.0498    567.39641    840.20916   -3376.5912 
 3532000    273.76609   -4755.6979   -4208.1319   -4755.6979            0    7823.0435    18.129211    22.857066    19.279735    7989.1475    8202.0274    7345.7945    7921.3087    -522.5363   -929.98021    25.094279   -3296.6415 
 3533000    282.08565   -4786.4206   -4222.2145   -4786.4206            0    7628.5801     18.03713    22.668277    19.540217    7989.4216    8448.7405    7229.4808    7207.5189    280.11899   -560.58965   -1500.2584   -3333.3513 
 3534000    271.50809   -4798.3969   -4255.3471   -4798.3969            0    7594.0807    18.119772    22.593962      19.5244    7993.2391    8218.7196     7781.799    6781.7236    670.77008   -202.48161    2699.1366   -3370.0809 
 3535000    267.63996   -4792.9442   -4257.6313   -4792.9442            0    9200.0227    18.088924    22.622299    19.409569    7942.6488    9309.7095    9713.7991    8576.5594   -2290.3761   -188.98593    97.556539   -3191.9431 
 3536000    263.93542   -4777.1493   -4249.2458   -4777.1493            0    8338.5855    17.997238    22.656755    19.458129    7934.2274    9006.1286    9276.4384    6733.1895   -356.39837   -376.57566    1255.6033   -3284.3667 
 3537000    276.18089   -4765.3647   -4212.9688   -4765.3647            0    8447.7574    18.157733    22.638121    19.398469    7973.8757    7453.5626    8986.1027    8903.6068    1145.7322   -494.12817    1257.0874   -3230.5724 
 3538000    271.69351   -4775.0618   -4231.6412   -4775.0618            0    7197.4667     18.01716    22.734923    19.531546    8000.4872    4820.5228     8262.274    8509.6035   -284.93386    1026.1924   -1772.3669   -3391.8487 
 3539000    264.14872   -4777.5995   -4249.2694   -4777.5995            0    6688.4742    18.126899    23.010964     19.26717    8036.6719    4841.6191     6852.783    8371.0206   -1120.9631    618.11039   -1456.9667    -3465.336 
 3540000    274.24132   -4772.7817   -4224.2652   -4772.7817            0    7224.3636     17.97236    22.968352      19.4125    8013.3921    7440.2228     6963.639     7269.229    -179.3003   -347.62104   -946.45689   -3379.9748 
 3541000    273.94029   -4769.8258   -4221.9113   -4769.8258            0    8410.5687    17.922384    22.982422    19.411741    7995.6923    8736.5725    8484.6136    8010.5201    540.46777    620.84409    370.51094   -3241.1636 
 3542000    285.20152    -4793.713   -4223.2748    -4793.713            0    8021.0864    18.062622    22.878784    19.312489    7980.9017    7094.4807    7703.9437    9264.8347    473.64554    158.28919   -1739.6878   -3289.6743 
 3543000    287.99863   -4779.7082   -4203.6754   -4779.7082            0      8690.67    18.019065    23.061622    19.227435    7989.9391     7724.346    10452.642    7895.0223    756.14905    1374.1251    1215.3225   -3190.9945 
 3544000    270.83238   -4794.8458   -4253.1476   -4794.8458            0    9297.9133    17.817452    23.070088    19.277706    7924.1047    9111.5039    9161.3283    9620.9078    633.08379    176.16565   -1188.5688   -3178.6348 
 3545000    269.87046   -4801.8978   -4262.1235   -4801.8978            0    6129.6241    17.936622    23.182586    19.262389    8009.6341    5908.6036    5660.5127    6819.7559    31.998673   -2073.5933    -442.1118    -3546.108 
 3546000    264.93413   -4785.4636   -4255.5626   -4785.4636            0    7991.0876    17.832687    22.954485    19.518995    7989.9083    9566.9681    6647.4952    7758.7995   -24.446193   -756.24842    195.49887   -3324.4042 
 3547000     275.5199   -4771.2656   -4220.1917   -4771.2656            0    10256.431    17.936403    22.983778     19.19302    7912.2519     11130.48    9016.1643    10622.648    506.10241     41.48147    1791.9534   -3036.6809 
 3548000    276.81376   -4804.3803   -4250.7185   -4804.3803            0    8984.5015    18.016044    22.731636    19.453573    7966.9026    10663.778    7328.1896    8961.5364   -583.88627    686.83316   -2661.9981   -3206.8174 
 3549000    284.72942   -4776.6194   -4207.1254   -4776.6194            0    6729.0703    18.052699    22.953868    19.476713    8070.7459    8222.8274    5893.1536    6071.2299    1493.3538   -794.09342   -998.07043   -3415.0899 
 3550000    276.71858   -4805.6668   -4252.1954   -4805.6668            0    8850.3698    18.016235     22.79048    19.281147     7916.813    9129.9148     8718.366    8702.8285   -808.01903    45.895535   -2692.2095   -3230.3442 
 3551000    289.74633   -4746.8924   -4167.3639   -4746.8924            0    6534.1001     18.01983    23.022688    19.480537    8081.7914    7088.0791    5803.6136    6710.6075    1272.7714    817.69694   -1459.1861   -3397.2246 
 3552000    268.81935   -4784.9203   -4247.2484   -4784.9203            0    8098.4922    18.153555    22.930381    19.190365    7988.3335    6515.1103    8559.4236    9220.9427     1390.824    638.95259    2727.5348   -3303.7607 
 3553000    275.65324   -4817.9485    -4266.608   -4817.9485            0    8187.5795    18.201733    22.514889    19.467218    7977.8605    8095.4822    9091.8443     7375.412    520.78416    361.99638    -722.3223    -3313.992 
 3554000    295.65549   -4784.8882   -4193.5406   -4784.8882            0    7740.6216    17.999434    22.573033    19.668329    7991.2777    5997.5586    9141.5902    8082.7161    641.07771   -377.95923    882.14932   -3291.4131 
 3555000     283.4629   -4772.0475   -4205.0867   -4772.0475            0    8337.8786    18.156663    22.765754    19.282676    7970.4965    8771.1849     8087.331    8155.1197    888.76045   -482.98355    295.39345   -3235.8791 
 3556000    287.24398   -4747.1099   -4172.5864   -4747.1099            0    9408.7662    18.003107    22.500487    19.713408    7985.4813    9617.0524    9967.3093    8641.9369   -357.66895    1254.7388   -2128.8012    -3076.841 
 3557000    272.36378   -4804.4476   -4259.6864   -4804.4476            0    9390.7156    18.115885    22.741674    19.207289    7913.1255    9670.1807    9438.5993    9063.3669   -732.45861    843.56588   -1872.1084   -3175.9526 
 3558000    275.40058   -4787.2666   -4236.4314   -4787.2666            0    5292.7297    18.000203    22.998837    19.428719    8043.1735    6071.5658      4282.94    5523.6835    1008.9661   -1467.2426    1397.5804   -3615.5866 
 3559000    269.91332   -4782.0742   -4242.2142   -4782.0742            0    6802.3676    18.138286    22.806668    19.467935    8053.3759    6783.5455    7130.3163    6493.2409    -611.0179   -304.93261    -2123.636   -3443.2746 
 3560000    284.44911   -4786.1094   -4217.1761   -4786.1094            0    9325.7159    18.104362    22.810059    19.209359    7932.7269    9012.0752    9792.6896    9172.3829    370.86553    -291.8552    2331.5204   -3138.2776 
 3561000       281.08   -4762.8525   -4200.6578   -4762.8525            0    8553.6633    17.927964    22.913058    19.409527    7973.1325    9954.9767    7484.9561    8221.0571    560.21945   -758.01057   -4012.5814   -3206.0382 
 3562000    287.91138   -4744.1786   -4168.3203   -4744.1786            0    7408.3999     17.98078    23.194065    19.170094    7994.8377    7214.0782    7532.6202    7478.5012     1532.991   -607.52344   -285.47138   -3304.5267 
 3563000    290.64692   -4778.2277   -4196.8979   -4778.2277            0    7022.2599    17.964785    23.159212    19.246689    8007.5901    8744.5803     5979.174    6343.0256   -520.32833   -721.64541   -669.99811   -3376.8209 
 3564000     264.2899   -4759.6506   -4231.0381   -4759.6506            0    8340.2742    17.821895    23.128739    19.352673    7977.1325    11575.463    8064.7812    5380.5787    976.26043   -1006.5565    839.88423   -3260.7448 
 3565000    268.77744   -4795.0647   -4257.4766   -4795.0647            0    7996.9045    17.938331    23.140243    19.219227    7977.8505    6661.4736    7124.4106    10204.829   -2241.6602    177.74353    514.43055   -3327.0466 
 3566000    290.15439   -4773.4802   -4193.1356   -4773.4802            0    6234.4515    18.008151    23.184061     19.27152    8045.8994    8618.8753    4959.5188    5124.9605      508.102     212.0641   -948.17345   -3461.5776 
 3567000    273.33507   -4795.0854   -4248.3815   -4795.0854            0    6799.3605    18.035474    23.099361    19.271507    8028.6625     5171.226    7449.4891    7777.3663   -313.34693    246.90756     1454.011   -3452.2457 
 3568000     280.0134   -4776.1743   -4216.1129   -4776.1743            0    8266.9398    17.901545    23.025515    19.295782    7953.5728    9094.3134    8343.6383    7362.8676   -817.20198    199.68573   -1069.8104   -3257.1917 
 3569000    275.69093   -4814.9035   -4263.4876   -4814.9035            0    6802.0092    17.887935    22.952609    19.374275    7954.5884    6952.7688    6583.9581    6869.3007   -143.03644   -107.56236    -318.0949   -3474.3898 
 3570000    272.03624   -4760.9707   -4216.8646   -4760.9707            0    7323.0358    18.138199    22.956409    19.350451    8057.2938    7954.2991    8082.0125    5932.7958   -508.93875    1183.8653    -365.5128    -3356.354 
 3571000    278.39932   -4778.5802   -4221.7471   -4778.5802            0     8525.713    17.963546    22.829999    19.424938    7966.3172     10471.37    8484.0559    6621.7134    276.16015    1335.5653     1306.096    -3231.225 
 3572000    290.35975   -4757.1983    -4176.443   -4757.1983            0    7799.3907    18.066117    22.895971     19.38009     8016.405    8923.1925    6204.4934    8270.4862    481.90058    -1835.116   -194.53663   -3264.6081 
 3573000    266.38675    -4797.423   -4264.6166    -4797.423            0    8614.5501    17.957529    22.789339     19.43908    7955.2528    8462.6776      10413.5    6967.4725   -1050.4223    15.682163    1557.7123   -3265.1634 
 3574000    264.13911   -4805.4083   -4277.0974   -4805.4083            0    5070.0343    18.041958    22.917554    19.482623    8055.6274    4583.0947    4414.7282    6212.2799   -105.55618      -1469.5    1460.3899   -3681.4543 
 3575000     270.6366   -4785.1951   -4243.8885   -4785.1951            0    7155.3511    18.075142    22.841031    19.372928     7998.208     5882.975    7258.4002     8324.678   -946.42663    260.54702    60.539878   -3409.2478 
 3576000    280.57829   -4781.0892    -4219.898   -4781.0892            0    8668.8595    18.095245     22.84502    19.342187    7995.7941    8823.4146    8659.6569    8523.5071    854.72098    981.25636    1899.7527   -3209.0183 
 3577000    258.81088   -4798.0882   -4280.4344   -4798.0882            0    6412.8755    17.985886    23.033477    19.420733    8045.5725     8622.371    5093.0233    5523.2321   -631.29862    837.74294    -1699.433   -3527.9706 
 3578000    292.22889   -4751.6177   -4167.1239   -4751.6177            0    10142.129    18.068959    22.878793    19.151672     7917.224    9830.1445    9572.6577    11023.584    1399.5837   -550.96554    2946.2796   -2996.0671 
 3579000    268.27492   -4790.1181   -4253.5351   -4790.1181            0    8006.8372    17.880416    23.041531    19.419144    8000.5348    7525.2119    7479.7084    9015.5914    -452.9765   -481.99931   -2287.1795   -3319.3006 
 3580000    279.11429   -4755.0046   -4196.7416   -4755.0046            0    8631.9333    18.094366    23.097515    19.117452    7989.8502    7752.4515    9410.6743     8732.674   -373.95656   -301.34878    2079.1431   -3190.9162 
 3581000    280.92292   -4778.9313   -4217.0507   -4778.9313            0    7297.7362    17.810617    23.140029    19.397987    7994.6514    7259.8782    8254.2804    6379.0499    918.90329    1310.6109   -695.52483     -3366.18 
 3582000    279.74954   -4813.1643   -4253.6307   -4813.1643            0    8226.8476    18.172771    22.907364    19.192688    7989.7294    8171.5223    7703.4584    8805.5621    377.24137   -596.04857   -1952.7994   -3295.0219 
 3583000    279.12329   -4757.2626   -4198.9815   -4757.2626            0    7831.4082     17.72734    23.187055    19.428623    7986.0345    8077.1232     7398.067    8019.0343    1399.7872   -1119.6439   -960.94867   -3286.8721 
 3584000    277.11529   -4746.6544   -4192.3896   -4746.6544            0    7443.4499    18.053177    23.072635    19.258586    8021.8629    7597.1733    6369.7333     8363.443   -144.36034    627.48039   -2320.0116   -3321.5756 
 3585000    271.61811   -4788.8397   -4245.5699   -4788.8397            0    7966.6995    17.997444     22.91579    19.375675    7991.0252    8462.5934    8084.7254    7352.7797    1120.3954    625.31524   -127.83529   -3317.1236 
 3586000    277.53249   -4794.2755   -4239.1763   -4794.2755            0    7238.2896    18.033674    23.077388    19.197748    7989.5287    6928.8496    7589.5583    7196.4608   -1513.7756      81.1317   -1226.5403   -3395.7774 
 3587000    280.14413   -4797.3951   -4237.0722   -4797.3951            0    9581.8909     17.92023    22.862615    19.394632     7946.045    9229.1592    9910.4797    9606.0338   -39.007225    690.49409    960.69935   -3126.6756 
 3588000      285.373   -4798.4646   -4227.6834   -4798.4646            0    7095.8082    18.233268    22.653152    19.318724     7979.425     6078.817    7727.4579    7481.1497    229.96973   -687.86626    1119.5481   -3401.9319 
 3589000      255.765   -4804.5066    -4292.945   -4804.5066            0    7662.6721    18.061258    22.708886    19.529739    8010.1428    8045.4919    7937.7356     7004.789   -1027.2027   -15.150282    607.12303   -3397.7938 
 3590000    276.11756   -4789.8401   -4237.5709   -4789.8401            0    9331.6493    17.965848    22.753692    19.403557    7931.9674      8832.43    10484.366     8678.152   -1009.5062   -792.06908    502.33029   -3158.0893 
 3591000    279.98183   -4795.7306   -4235.7324   -4795.7306            0    7471.1925    17.938969    22.936003     19.41005    7986.2308    6702.5908    8501.1869       7209.8     893.0074   -835.93089    21.484901   -3365.5552 
 3592000    262.69747   -4760.0403   -4234.6129   -4760.0403            0    8994.6061    17.898116     22.84714    19.485528    7968.0368    9719.2907    8354.0313    8910.4963   -1509.7694   -1684.4516   -216.66082   -3189.3889 
 3593000     286.5134   -4780.9662    -4207.904   -4780.9662            0    7871.7588    18.062816    23.061996     19.21725    8005.2255    6896.8036    7588.7584    9129.7143   -855.93984   -210.08921    479.70219   -3288.8919 
 3594000    267.96817   -4767.2501   -4231.2806   -4767.2501            0    10218.342    17.827128    23.067164    19.289054    7932.0698    8504.9961    10639.748    11510.281    246.66881    2039.0504    995.15778   -3049.2116 
 3595000    270.66847   -4816.5668   -4275.1964   -4816.5668            0    8051.2633    17.819246    23.148838    19.279904     7952.861    9473.6174    7632.2259    7047.9465    811.97742    -18.74137   -255.78278   -3341.3761 
 3596000    277.52584   -4761.4254   -4206.3394   -4761.4254            0    7442.1207    18.010845    23.132669    19.175704     7989.344    8243.9371    6120.9586    7961.4664    1155.3451   -1506.0969    2385.4432   -3339.2104 
 3597000    262.59828   -4757.2805   -4232.0515   -4757.2805            0    7655.0834    17.814159    23.163814    19.374817    7994.8997    6340.4782     7412.931     9211.841   -1147.3244   -460.50397   -94.738803   -3339.4886 
 3598000    284.80642   -4806.7359   -4237.0879   -4806.7359            0     5809.888    18.023849    23.159522    19.227791    8026.1363    6122.4402    4698.7176     6608.506    1165.1881   -205.84086    1084.0628   -3557.0233 
 3599000    269.88755   -4784.0763   -4244.2679   -4784.0763            0    7283.4432    17.829262    23.104417    19.439201    8007.6816    7450.0708    7102.6305    7297.6284     578.3969    220.73301    999.64659   -3393.6796 
 3600000    275.74799   -4766.9395   -4215.4094   -4766.9395            0    8018.9564     17.97347    22.944053    19.288624    7954.3246    6080.6305    8200.5768     9775.662    279.93649   -305.12127    443.14647   -3285.1651 
 3601000    272.66023   -4818.8754   -4273.5213   -4818.8754            0    7536.3872    17.945727    22.906475     19.38606    7969.0931       7889.5    7104.2052    7615.4565   -226.19055   -791.61228   -2104.1054   -3397.6344 
 3602000    284.17322   -4796.6935   -4228.3119   -4796.6935            0    7085.7798    18.144248    22.797397    19.420933    8033.3059    7177.4146    7178.6786    6901.2463    1725.9957   -962.81523    580.98627   -3398.1595 
 3603000     285.5844   -4774.2763   -4203.0722   -4774.2763            0     8148.995    17.762005    22.880508      19.5977    7964.5777    10904.571    7616.1288    5926.2852    2.5980898   -308.09688   -2678.7311   -3256.5241 
 3604000    279.74187   -4773.5116   -4213.9933   -4773.5116            0    7997.6606    18.157669    22.902666    19.207756    7987.7189    8137.2167    6734.3549    9121.4101   -841.45862   -2413.5914   -827.38856   -3282.3244 
 3605000    286.37954   -4748.2618   -4175.4673   -4748.2618            0    9726.3087    18.020852     22.68268    19.489091    7966.3846    10681.472    9744.7259    8752.7283    1081.0747    248.25244    1809.7228   -3045.4497 
 3606000     268.7357   -4806.9835   -4269.4789   -4806.9835            0    5113.9867    18.298923    22.724707    19.424474     8077.428    5215.8495    5710.5629    4415.5476    1515.6825    346.56424    521.64117   -3667.0461 
 3607000    289.84645     -4783.59   -4203.8613     -4783.59            0    10159.667    17.995685    22.753469    19.365158    7929.3403    11318.366    9492.0606    9668.5751    161.91766     474.0416    -120.0945   -3028.9843 
 3608000    275.17885   -4754.4296   -4204.0379   -4754.4296            0    8136.0059    18.138984    22.624708    19.518667    8010.2504    8109.0294    8875.4781    7423.5103    467.90452   -580.64286     1326.935   -3253.5793 
 3609000    263.49639   -4768.4329   -4241.4076   -4768.4329            0    5774.6034    18.145149    22.742535    19.433221    8019.4428    6750.0424    6335.1622    4238.6057   -1426.1701    473.14504     1756.785   -3566.0368 
 3610000    289.14339   -4788.0339   -4209.7114   -4788.0339            0    8469.1016    17.855772    22.758187    19.602229    7965.6596    9133.6224    8648.5594    7625.1229    59.449766    -650.6619   -193.20357   -3225.8476 
 3611000     295.7637   -4780.3912   -4188.8273   -4780.3912            0    7684.9566     18.05497     23.10327    19.184838    8002.5493    6640.9818    7400.7066    9013.1814   -260.95862    284.19925   -731.73918   -3291.9239 
 3612000     280.3428   -4779.3963   -4218.6761   -4779.3963            0    7951.0588    17.922118    23.068559    19.349482    7999.8005    7258.0642    8909.6168    7685.4954    684.37454    819.73133    384.94809    -3291.035 
 3613000    281.36708   -4802.1495   -4239.3806   -4802.1495            0    7939.7669    18.058262    22.904985    19.212497    7946.7539     6355.192    9014.5114    8449.5974    550.23021    874.39525    1248.4691   -3319.1993 
 3614000    273.46694   -4763.4014   -4216.4337   -4763.4014            0    5816.8713    18.170932    22.662258    19.549033    8050.1812    6684.3499    6627.4605    4138.8034   -664.29342    168.71506    -2958.929   -3533.5119 
 3615000    274.95363    -4785.985   -4236.0438    -4785.985            0    6791.7335    18.209811    22.741321    19.381362    8026.1154    6474.1882     7342.275    6558.7375    487.36573    1142.0116    1412.4934   -3441.0533 
 3616000    266.70424   -4785.3575   -4251.9161   -4785.3575            0    7343.9626    18.103567    22.767637    19.383831    7989.5395     7427.936    7334.8702    7269.0815   -1254.2141    847.30793   -1412.5767   -3396.2032 
 3617000    266.42439   -4800.5845   -4267.7028   -4800.5845            0    6909.8166    17.928527     22.90108    19.512784    8011.6102    6469.4797    7661.5721     6598.398    1335.6434   -520.97078   -1003.7856   -3460.3522 
 3618000    288.47309   -4835.5532   -4258.5714   -4835.5532            0    7273.7172    18.120023     22.77379    19.263836    7949.4452    5420.8156    8013.1703    8387.1657    14.015205    171.03871    207.95435   -3415.2966 
 3619000    269.97283   -4803.2482   -4263.2692   -4803.2482            0    7888.2281    17.975845    22.990369    19.374373    8006.8726    8086.6011    7384.6039    8193.4794    1195.5029    392.69551     1077.684   -3342.1449 
 3620000    276.64182   -4786.3051   -4232.9873   -4786.3051            0    8630.8545    18.010187    22.869955    19.346089    7968.5029    11203.557    6870.1617     7818.845    1757.1118   -1122.0875     565.0289   -3229.9747 
 3621000    277.04076   -4811.2959   -4257.1801   -4811.2959            0    6940.4304    17.971783    22.865356    19.436718    7987.1545    5892.9587    8248.9793    6679.3532     568.4168   -131.76705   -1047.0375   -3448.7279 
 3622000    281.71306   -4758.2839    -4194.823   -4758.2839            0    8265.6738    18.186432    22.955221    19.150583    7994.8622    5241.2041    9073.5269     10482.29   -687.80117   -951.22128    647.86043   -3231.0714 
 3623000    266.07059   -4755.6652   -4223.4912   -4755.6652            0    9052.8572    17.666197    22.949166    19.632323    7959.4247    10557.754    9492.8367    7107.9812    958.87922    1669.1449   -172.20951   -3172.6351 
 3624000    284.04725   -4789.8254   -4221.6959   -4789.8254            0    7877.9752    18.237259    22.902504    19.160261    8002.8364    7894.8272    8120.1092    7618.9893   -616.10396     204.6243    178.91058   -3302.2325 
 3625000    293.69323   -4788.6165   -4201.1937   -4788.6165            0    7931.8008    17.969919    22.882164     19.41953    7985.1289    7812.9551    8061.3864    7921.0611     211.2945   -262.92931     1860.597   -3277.4965 
 3626000    274.47424   -4785.7518   -4236.7695   -4785.7518            0    8256.4625    18.004939     22.81768    19.445849    7988.9565    9055.4429    9263.8477    6450.0968   -1052.3895    -1775.848   -2064.3765   -3274.8029 
 3627000    275.07585   -4799.5449   -4249.3592   -4799.5449            0     8081.308    18.112269    22.615189    19.485991    7981.7031    9086.0966    7861.3026    7296.5248   -1575.6457    190.87185   -897.44187   -3308.6549 
 3628000    266.73851   -4784.9391   -4251.4292   -4784.9391            0     6901.948    18.098784    22.740613    19.456465    8007.8422     7533.262    7118.3184    6054.2636    825.17287   -864.81645    3256.5847   -3445.3772 
 3629000    300.68331   -4777.7635   -4176.3597   -4777.7635            0    6293.8702    18.206854     22.73842    19.428572    8043.3336    5490.8048    7133.5269    6257.2791    512.03678    494.83741   -850.37443    -3438.065 
 3630000     275.7354   -4823.8009    -4272.296   -4823.8009            0    7504.0982    18.039823    22.801089    19.401379    7980.3229    7153.3106    7597.2117    7761.7724    289.81824    -699.1939   -172.63549   -3398.9329 
 3631000    255.32888   -4783.8435   -4273.1542   -4783.8435            0    7461.2527    18.152777    22.624265    19.451548    7988.6196    7621.1369    7403.1058    7359.5154    584.55571   -1540.3115   -2777.8056   -3403.8748 
 3632000    286.41004   -4767.5665   -4194.7111   -4767.5665            0    7804.9272    18.017762     22.79648    19.512854    8014.7402    8136.0441    7506.6785     7772.059    1036.3376    834.77167   -1711.9407   -3282.4184 
 3633000    275.49538   -4763.7058    -4212.681   -4763.7058            0    6183.5461    18.208909    22.993497    19.252341    8060.6951    5959.6717    4968.1621    7622.8045    125.68749    189.44258   -2643.9795   -3485.7621 
 3634000    273.49261   -4813.3306   -4266.3115   -4813.3306            0    6257.2371    17.975304    22.912215    19.439668    8006.3054    7763.1771    6084.9409    4923.5931    1708.4773     354.5357   -821.01435   -3535.6931 
 3635000    264.51232   -4770.4526   -4241.3953   -4770.4526            0    8813.8114    18.121399    22.774772    19.252193    7945.5864    8614.4889    8185.0314    9641.9138    643.27385   -1989.3675     1144.715   -3220.0665 
 3636000     293.1148    -4783.638   -4197.3722    -4783.638            0    10233.915    17.808087    23.031102    19.397202    7955.5657     11643.94     9708.837    9348.9691   -1313.0366   -1420.9259    1168.5899   -3009.9948 
 3637000    272.56365   -4793.3552   -4248.1942   -4793.3552            0    7221.6601    18.119021    23.005748    19.237841    8019.1333    6784.3029    6909.6297    7971.0476   -368.16634    1502.9156   -1088.7653    -3403.615 
 3638000     276.2335   -4781.7637   -4229.2626   -4781.7637            0    8503.4335    18.022067    22.814968    19.383214    7969.8524    5790.1067     9071.756    10648.438    1139.8931    385.30698    1007.5982   -3240.8905 
 3639000    264.80351   -4802.3437   -4272.7039   -4802.3437            0    6979.1145    17.960001    22.787944    19.620698    8030.1926    6653.2611    8378.2814     5905.801   -658.50919   -941.02892    2360.2439    -3455.365 
 3640000    278.81393   -4770.5722   -4212.9099   -4770.5722            0    8445.5377    18.090454    22.896269    19.236977    7968.0309    9058.6294    8100.4516    8177.5321    299.55708    897.35595   -256.01029   -3231.4915 
 3641000     271.4963   -4780.5722   -4237.5461   -4780.5722            0    8506.0759    17.861791    22.887625    19.485076    7965.7713    7156.7634    9810.7824    8550.6818   -713.59708   -586.07765    633.35973   -3249.3731 
 3642000    280.69315   -4787.9253   -4226.5044   -4787.9253            0    8376.8601    18.119602    22.813661    19.337909    7993.7974    6250.2359    7911.0401    10969.304    -1341.572    850.47291   -1024.7062   -3249.9188 
 3643000    277.48404   -4808.0067   -4253.0044   -4808.0067            0    7722.8839    18.039391    22.800669    19.493624    8017.9262    9213.8933     7776.391    6178.3674   -1483.5917   -119.24803    1364.4642   -3349.9426 
 3644000    280.30624   -4784.2636   -4223.6165   -4784.2636            0    7681.8204    18.116747     22.89509    19.232634    7977.3996    5559.3972    7826.3524    9659.7116    1458.5696   -259.86802    79.191435   -3329.8967 
 3645000    277.99694   -4783.9439   -4227.9157   -4783.9439            0    7097.1176    17.964899    23.055281     19.32464     8003.991    6473.0427    6742.8241    8075.4859    1103.2109   -504.02002   -126.46739   -3399.4691 
 3646000     279.0347    -4807.756   -4249.6521    -4807.756            0    8478.9526    17.961194    23.031469     19.29568    7982.0956    8807.1754    8664.7792    7964.9033    1520.3562    547.27222    344.47715   -3262.6115 
 3647000    278.02845   -4818.2878   -4262.1966   -4818.2878            0    8201.6112    17.983299    23.034122     19.27149    7982.8197    9533.8185    8471.3159    6599.6991    1020.4607     1235.994    684.16257   -3307.3549 
 3648000    263.71623   -4763.6464   -4236.1814   -4763.6464            0    9533.4932    17.941953    22.970359    19.275754    7944.1764    6862.2491    10318.682    11419.548   -1161.2425    1759.5957   -455.46024   -3131.6531 
 3649000    285.26057   -4771.7904   -4201.2341   -4771.7904            0    7669.9984    17.887608    23.152007    19.327465     8004.161     6379.275    7376.1647    9254.5556   -106.42566    -1223.147   -498.97139   -3305.8962 
 3650000    256.75592    -4756.809   -4243.2654    -4756.809            0    8250.3505    17.824104    23.170929    19.248569    7949.6793    8298.6621    7358.4952    9093.8941   -229.61326   -544.55225    161.70613    -3286.737 
 3651000    290.23259   -4753.4852   -4172.9842   -4753.4852            0    7065.3165    17.968615    23.296368    19.179514    8028.6111    6011.0298    7192.6924    7992.2273    439.84789    468.29079    513.53378    -3345.713 
 3652000    276.88444   -4771.9291    -4218.126   -4771.9291            0    9682.0785    17.878477    22.921309    19.356169    7932.1213    9316.9674    8938.5889    10790.679   -1420.2117   -816.32788   -38.825525   -3098.0853 
 3653000    272.47983   -4759.3101   -4214.3168   -4759.3101            0    8561.3045    18.165336    22.792275    19.277017    7981.2507    7789.9525     9386.763    8507.1979    -755.4933    89.702004   -557.57145   -3217.7951 
 3654000    266.93334   -4775.9634   -4242.0638   -4775.9634            0    6834.6858    18.003089    22.925452    19.421367    8015.7603     5076.251    6479.0762    8948.7302      669.406    239.51359   -770.55119   -3443.0778 
 3655000    278.41064   -4808.0246    -4251.169   -4808.0246            0    7771.9105    18.050278    22.769959    19.404909    7975.4968    5778.3314     8376.368    9161.0322   -468.90304    1593.3371    562.01161   -3347.1835 
 3656000    263.70465   -4799.7084   -4272.2665   -4799.7084            0    5817.6947    18.280739    22.734161      19.3828    8055.4389    4509.2855    6742.0712    6201.7274    992.43879   -671.04482   -757.51443   -3588.8019 
 3657000    280.65885   -4802.5002   -4241.1478   -4802.5002            0    9383.7595    17.942456    22.799163    19.391865     7932.688    9085.6924    10530.889    8534.6975    1710.9664    284.42099   -2068.2285   -3155.5396 
 3658000    268.74729   -4787.6454   -4250.1176   -4787.6454            0    9246.3085    17.970671    22.855635    19.252921    7907.7735      7366.76    10232.824    10139.341   -35.865165   -656.93518    678.48223   -3183.7708 
 3659000    280.01649   -4833.5584   -4273.4909   -4833.5584            0    3248.6882    18.155317    23.132468    19.329359    8117.8917    2726.8635    3184.2842    3834.9168    672.62862   -876.68917    635.24768    -3888.875 
 3660000    276.21707   -4770.9851   -4218.5168   -4770.9851            0    8763.7055    17.792816     22.98644    19.428803    7946.2542    10945.117    8728.7888    6617.2105   -1104.9198   -85.801604   -2537.2553   -3202.9088 
 3661000    266.80237   -4798.1822   -4264.5445   -4798.1822            0    6166.1133    17.974018    23.039355    19.404284    8035.5036     6427.729    6327.8507    5742.7603    240.18282   -436.83535    7.0522727   -3541.9403 
 3662000    277.98091   -4781.8258   -4225.8296   -4781.8258            0    6503.9327    17.979041    22.972266    19.408497    8016.0844    6593.7053    6988.7345    5929.3582    1404.1556   -173.77876   -526.44869   -3465.4785 
 3663000    283.61962   -4798.2842     -4231.01   -4798.2842            0    8440.6868     18.09572    22.796321    19.268131    7948.4093    9181.7113     7722.102    8418.2473    53.043528    607.56597   -644.17903   -3252.5706 
 3664000    265.59004   -4778.6367   -4247.4238   -4778.6367            0    6074.3693    17.946681    22.893339    19.544051    8029.8581    5227.6723    6805.5356    6189.9001    406.45328    141.04243   -35.600295   -3536.0712 
 3665000     277.9751   -4787.7067   -4231.7222   -4787.7067            0    9459.0644    18.089595    22.878608    19.089283    7900.3811    7521.7372    9176.2297    11679.226    188.14637   -1297.4532   -437.96831   -3141.8587 
 3666000    282.76696    -4749.726   -4184.1571    -4749.726            0    8230.7757    17.968613    22.875978    19.514145    8021.2815    10010.415    8680.6747    6001.2375    368.36797    616.92226    369.89786   -3221.3032 
 3667000    272.34775   -4777.1012    -4232.372   -4777.1012            0    10068.956    18.095029    22.730393    19.407928    7982.6188    9808.7459     10251.48    10146.642    1936.3169    481.45176     864.6211   -3060.1612 
 3668000    270.73781   -4742.1246   -4200.6155   -4742.1246            0    7671.3742    18.228883    22.741883    19.315982    8007.6167    6001.6004    8860.8185    8151.7038   -2162.2773    1013.0017   -1588.7791   -3304.7304 
 3669000     294.5932   -4781.5708    -4192.348   -4781.5708            0    6427.8317    18.111783    22.867024    19.421243    8043.5518    6079.1462    7496.0947    5708.2544    12.948751    893.55561    1094.0814   -3438.3186 
 3670000    283.33463   -4787.2961   -4220.5919   -4787.2961            0    8212.0439    17.776865    23.292024     19.32541     8001.863    9981.4412    6624.8825    8029.8081   -2040.5932   -1141.7087    131.67329   -3262.2548 
 3671000    272.39885   -4746.1608   -4201.3294   -4746.1608            0    8785.5962     17.80034    23.397783    19.052472    7935.1355    8882.2223    8233.4294    9241.1369   -346.32903   -873.97495    326.11045   -3184.6092 
 3672000     260.8664   -4773.8793   -4252.1143   -4773.8793            0    6798.3186    17.803351    23.279825    19.316333    8005.8259      7581.39    6982.5297     5831.036   -905.00964    764.02944   -1353.2625   -3458.3647 
 3673000    270.47073    -4790.488   -4249.5131    -4790.488            0    8021.4792    17.996866    23.146111    19.148941    7976.6344     8578.943    7257.9873    8227.5072    151.74772   -681.40587    734.65663   -3316.3662 
 3674000    268.32635   -4783.1049    -4246.419   -4783.1049            0    7216.0735    17.840356    23.033283    19.499086     8012.603    8007.7895    7838.9077    5801.5232   -1710.2561    301.85213   -2057.8814   -3403.1805 
 3675000    276.21637   -4793.7727   -4241.3059   -4793.7727            0    10606.067    17.899757    23.212617    19.087073    7930.6828    11566.285    8725.5644    11526.351   -906.90951    144.23021   -247.13109   -3014.5989 
 3676000    279.89603   -4794.0559   -4234.2293   -4794.0559            0     10099.02     17.87334     23.07852    19.215709    7926.2923    12711.522    8887.0016     8698.535   -2046.3797    180.93975   -47.927295   -3066.8145 
 3677000    277.45618   -4765.1131   -4210.1664   -4765.1131            0    7928.5789    17.951904    23.131753     19.24297    7990.8165    8242.1237    6547.2682    8996.3447    -884.3802   -51.398238    39.294012   -3286.1868 
 3678000    281.86511   -4779.8295   -4216.0644   -4779.8295            0    7318.3701    18.015557    22.781168    19.443779    7980.0272    8596.5845    6714.9628     6643.563    616.46212    493.79607   -729.36409   -3364.3488 
 3679000     269.4493    -4750.866   -4211.9341    -4750.866            0     7263.974    18.165349    22.793961    19.380444    8024.6718     7317.706    7296.8866    7177.3293    814.74195   -182.61858    988.79144   -3361.8195 
 3680000    273.69889   -4779.8015   -4232.3699   -4779.8015            0    7450.6544    18.087058    22.799591    19.397759    7999.1997    7056.7438    8099.2581    7195.9611    201.85709     890.1805    404.98402   -3363.1756 
 3681000    283.28551   -4818.0935   -4251.4875   -4818.0935            0     9653.575     18.00432    22.636789    19.468426    7934.5513    8941.2901      10545.3    9474.1349     631.4927    99.091711   -272.53867   -3134.4019 
 3682000    281.81683   -4791.4678   -4227.7994   -4791.4678            0    5420.2671    18.071542    22.851551    19.506021    8055.2606    6580.7109    5004.7726    4675.3179   -1208.2539   -1343.7841   -1542.3482   -3591.0388 
 3683000    257.13658   -4761.6902   -4247.3853   -4761.6902            0     9869.941     17.87542    22.813391    19.403708    7912.8115    9385.6833    10962.646    9261.4942    390.37155   -525.07671   -23.188205   -3108.3917 
 3684000     265.2239   -4790.6896   -4260.2091   -4790.6896            0    6439.1839    18.142659    22.814846    19.355195    8011.5405      5643.06    6200.3932    7474.0984   -2101.4385    -1144.162   -447.40694   -3507.8542 
 3685000    280.52455   -4759.4517   -4198.3679   -4759.4517            0    10575.329    18.311207    22.547831    19.299454      7968.32    9886.2364    11575.911     10263.84   -267.67125    671.25432    64.901384   -2969.4113 
 3686000    290.98866    -4793.497   -4211.4838    -4793.497            0    8654.7032    18.131049    22.676212    19.342255    7952.4425    7889.6264    9391.2703    8683.2128   -709.99747     304.7932   -289.20603   -3207.7267 
 3687000     281.7989   -4799.4139   -4235.7813   -4799.4139            0    7097.6499    18.010442     22.85497    19.417044     7992.601    5994.7682     8206.897    7091.2846    -641.7679   -372.80362   -459.33435   -3408.4516 
 3688000    275.19905    -4748.494   -4198.0619    -4748.494            0     10594.44    17.897012    22.882308    19.367065    7931.2964    11660.625    10952.709    9169.9872   -1971.2825    1063.0586    46.967792   -2972.6049 
 3689000    263.06026   -4793.0097   -4266.8567   -4793.0097            0    8168.9346    17.905691    22.929249    19.424147    7974.8569    7720.0414    9316.4568    7470.3055   -64.477897    1562.4625    909.71619   -3316.7679 
 3690000     290.1084   -4756.3542   -4176.1015   -4756.3542            0    8961.8383    17.950991    23.061876    19.250381    7969.3406    6352.8754    11146.949      9385.69    867.13085    1842.2475    747.78639   -3134.5149 
 3691000    285.67185   -4789.8774   -4218.4984   -4789.8774            0    7205.3516    17.964464    23.130655    19.263253    8004.4562    6483.0496     7532.269    7600.7362   -47.895106    83.286543    408.39063   -3377.3689 
 3692000    272.54308   -4757.5087   -4212.3888   -4757.5087            0    8593.6306    17.772913    23.125171    19.428841    7985.2858    11369.508    7892.9186     6518.465    1089.6936   -761.77677    1483.5044   -3211.5986 
 3693000     276.5364   -4777.6852   -4224.5783   -4777.6852            0    9759.7073    17.925164    22.970982    19.272539    7935.6338    11474.893     8241.248     9562.981    797.64555   -128.51934   -1936.6105   -3095.0573 
 3694000    282.68748   -4783.8857   -4218.4759   -4783.8857            0    7753.3472    17.922972    23.076406    19.294216    7980.0448    8834.5568    6828.5454    7596.9394     1170.079   -34.503957    78.128602   -3316.1354 
 3695000    265.97681    -4736.512   -4204.5255    -4736.512            0    8481.9254    17.988988    22.795434    19.462036    7980.7345    8676.5727    8730.7662    8038.4374   -885.90266   -929.35207    621.69865   -3217.3072 
 3696000    266.03465   -4775.4892    -4243.387   -4775.4892            0    7593.7817    18.096345    22.822685    19.338716    7987.0284    7600.4631    7441.8086    7739.0734    156.97851   -2036.1411   -928.62299   -3358.8434 
 3697000    278.73115   -4784.2184   -4226.7216   -4784.2184            0    6128.9686    18.119777    22.648476    19.553448    8024.4483    5472.3681    7259.8289    5654.7088   -555.59862   -719.98702    900.60661   -3509.4586 
 3698000     275.0372   -4765.8441   -4215.7357   -4765.8441            0    9264.2259    18.160281     22.79953    19.278939    7982.3656    8815.9258    9929.6335    9047.1183   -317.80124    769.12443    822.89585   -3137.2445 
 3699000     279.6005   -4751.8991   -4192.6635   -4751.8991            0     8991.354    18.097021    22.584087    19.546711    7988.8327    10695.485    8240.9621     8037.615    338.85009   -592.18659    477.44788   -3145.0905 
 3700000    272.57144   -4771.8775   -4226.7009   -4771.8775            0     8416.639    18.091033    22.762053    19.378683    7979.9295    8483.7925      9464.63    7301.4946    1619.6256   -122.05582      896.448   -3247.1802 
 3701000    280.90392    -4793.906   -4232.0635    -4793.906            0    7156.4053    18.164587    22.735896    19.452613    8033.6988    5896.2123    7788.2637    7784.7398   -504.72292    167.05878   -896.87893   -3393.5957 
 3702000    273.80667   -4762.8952    -4215.248   -4762.8952            0    8536.3194    17.873547    23.022543    19.223359    7910.3068    8861.2401    8580.0824    8167.6356   -1228.3121   -807.29993    1761.2495   -3230.4666 
 3703000    264.32104   -4789.9241   -4261.2494   -4789.9241            0    8114.5534    18.016825    22.856183    19.289592    7943.3738    8019.3712    8188.7571    8135.5319   -2121.3382   -80.916707   -1598.9132   -3321.2111 
 3704000     271.3741    -4810.062   -4267.2803    -4810.062            0     7559.133    17.935405    23.005418    19.375551     7994.575    6472.7196    7804.5487    8400.1306      978.273    222.48278    268.43603   -3385.9408 
 3705000    273.41688    -4809.187   -4262.3195    -4809.187            0    6847.0119    17.769633     23.33295    19.192386    7957.5078     8394.043    5803.3763    6343.6163   -631.72007   -265.66747   -682.16888   -3467.7094 
 3706000    279.33009   -4801.4653   -4242.7706   -4801.4653            0    9285.6002    17.785691    23.204179    19.138804    7898.6293    11065.351    7727.7421    9063.7075   -427.30173   -1032.5673    897.38573   -3173.1307 
 3707000    274.26237   -4789.3461   -4240.7875   -4789.3461            0    7729.7934    17.840187    23.105317     19.40942    8000.6247    7401.9941    7834.1613    7953.2247    723.93159     399.1655    900.02357   -3338.8682 
 3708000    289.58878   -4787.4528   -4208.2394   -4787.4528            0    7453.8649    18.020057    23.033218    19.185406    7963.0925     9180.405    6239.4345    6941.7554   -848.31377   -754.50334   -220.55994   -3342.5957 
 3709000    276.34996   -4795.0937   -4242.3597   -4795.0937            0    6227.7432    18.029589    22.891572    19.433793    8020.8247    6184.3022     7695.758    4803.1693    1995.8762    -621.2094    1147.0095   -3513.8663 
 3710000    286.52893   -4772.8337   -4199.7404   -4772.8337            0     9423.508    17.917816    22.986775    19.282336    7941.8698    10471.235    9282.0786    8517.2099     62.30084   -10.746277   -1721.8858   -3108.2718 
 3711000    282.62028   -4787.5641   -4222.2887   -4787.5641            0    8121.6156    18.052984    22.991154    19.287205    8005.3268    7716.7424    7643.5887    9004.5156    190.58988     419.5337    252.33283   -3274.0943 
 3712000     278.1307   -4788.7888    -4232.493   -4788.7888            0    8143.8651     17.89971    22.943333    19.387448    7962.0178    8281.7212    7895.9545    8253.9196    1094.6881    98.315787    -480.0048   -3286.8448 
 3713000    271.38533   -4769.2249   -4226.4207   -4769.2249            0    8835.1949     18.03263    23.028124    19.167626    7959.5034    10096.256    7506.7207    8902.6078    685.65812   -842.21766    484.80454   -3200.8207 
 3714000     277.6424   -4791.6125   -4236.2934   -4791.6125            0    6739.4944    17.845412    23.141958    19.385221    8005.6653    6789.0585    7605.8978    5823.5269   -43.462374   -912.48886   -736.58359   -3449.4277 
 3715000     266.3703   -4818.2654   -4285.4919   -4818.2654            0    6763.2437    17.977325    23.366257    19.064954    8008.4779    6439.2449     5981.067    7869.4194   -527.02259    546.64563    62.828169   -3495.5759 
 3716000     283.1248   -4798.3938   -4232.1093   -4798.3938            0    9839.1643    17.816491    23.064122    19.289525     7926.485    10801.866    8725.5391    9990.0874   -1454.8134    1023.5175    942.57634   -3094.7053 
 3717000    259.89174   -4801.0663   -4281.2507   -4801.0663            0    4267.8912     18.13523    23.152894    19.271892    8091.9412    1615.6131    5351.6234    5836.4372   -44.382775    1059.3589     1058.442   -3777.5855 
 3718000    281.60913   -4769.8623   -4206.6092   -4769.8623            0    10124.361    17.935334    22.943194    19.219266    7908.6099    9357.8172    10075.979    10939.287    937.64333   -121.46781    570.61457   -3038.8759 
 3719000    273.75972   -4788.4432   -4240.8899   -4788.4432            0    4516.5367    17.938636    23.038401    19.513744    8064.5912    6251.1718     4060.922    3237.5163   -357.51736   -79.743021    50.211654   -3709.6829 
 3720000    270.82045   -4817.4626   -4275.7882   -4817.4626            0    9020.5137    18.027254    22.862546    19.227909     7924.762    9210.2152    8481.8819    9369.4441    -197.6712    420.88148   -1475.6996   -3233.2467 
 3721000    281.37925   -4801.4467   -4238.6534   -4801.4467            0    7556.1398    18.010553    22.893173    19.323421    7967.4077    6942.6546    8035.5138    7690.2512   -81.215155    142.26457   -330.79259   -3360.6566 
 3722000    272.47077   -4812.4021   -4267.4269   -4812.4021            0    7639.6721    17.904337    23.109282    19.259201    7968.6171    8412.6109    7140.2972    7366.1084    1473.6262   -655.94686    484.55576   -3379.5892 
 3723000    265.23872   -4797.4232    -4266.913   -4797.4232            0     6196.361    17.892733    23.186978    19.369388    8035.9406    5506.0666    6569.6712    6513.3452    -684.5798   -1553.1429   -277.77575   -3540.7246 
 3724000    275.82708   -4770.9086   -4219.2203   -4770.9086            0    7878.4917    17.912495    23.093551    19.265992    7969.6303    7518.2099    8547.1232     7570.142    926.63603    1130.6223    316.75684    -3303.512 
 3725000    270.22613   -4784.6712   -4244.1855   -4784.6712            0    9712.2959    17.933127    22.996176    19.186508    7912.3881    8504.8532    9999.9817    10632.053    468.55712    780.79077    1562.9439   -3123.4442 
 3726000    268.60402   -4768.4426   -4231.2014   -4768.4426            0     6286.148    17.959946    23.064883    19.308234     7998.321    8185.9889    5447.4835    5224.9717    966.23544   -1563.1942   -1491.9493   -3497.9391 
 3727000    300.33143   -4766.4518   -4165.7518   -4766.4518            0    8721.3424    17.805941    23.221441    19.282078    7972.7459    10879.447    8088.4947     7196.086    1767.5875   -194.90306      1562.88   -3151.6836 
 3728000    299.84865   -4804.3902   -4204.6559   -4804.3902            0    9042.4717    17.770811    23.160299    19.275264    7933.2615    10374.018    8042.7412     8710.656    427.49821   -475.17786    301.61884   -3158.4557 
 3729000    283.24497   -4780.6484   -4214.1234   -4780.6484            0    6589.0149    18.021226     23.22665     19.17122    8024.5493     6409.676    5648.4546    7708.9142    582.14031   -737.61625    957.62856   -3443.0122 
 3730000    281.06616   -4755.9299   -4193.7629   -4755.9299            0    7391.3856    17.780221    23.395061    19.239996    8003.2488    9402.4714    6710.7716    6060.9137   -593.04918    1134.9276   -2223.6749   -3331.0465 
 3731000    276.20589    -4756.185   -4203.7391    -4756.185            0    7879.1613     17.96582    23.093872    19.232463     7979.556    8929.4615    6747.0365    7960.9859   -55.296252   -775.00342   -234.83912   -3286.8124 
 3732000    279.14471   -4784.7642   -4226.4403   -4784.7642            0    7400.4396    17.882762    23.131564    19.343713    8001.6483    7176.5563    7245.1167     7779.646    302.39735    460.83401    477.03886   -3362.8398 
 3733000    271.41878   -4798.1859   -4255.3148   -4798.1859            0    8032.4415    17.858667    23.183968    19.292492    7987.7624    8800.0066    7064.3353    8232.9826    678.58254    678.78437    987.30104    -3319.589 
 3734000    290.73271   -4791.1211   -4209.6198   -4791.1211            0    7735.5508    18.065641     22.98488    19.230436    7985.1807    6192.0509    8885.6993     8128.902    968.91216    820.61536   -330.56471    -3308.771 
 3735000    269.52033   -4794.5092   -4255.4353   -4794.5092            0    8857.1918    17.878274     22.97503    19.393611    7966.0008    8748.7808    8459.2052    9363.5895   -10.355827     403.9904   -1206.0412   -3226.4426 
 3736000    278.66662   -4809.4069   -4252.0392   -4809.4069            0    5021.5141    18.048217    23.112466    19.330569    8063.5301    3015.1348    5743.5262    6305.8812    144.96674    128.94135    2777.8795   -3661.5176 
 3737000    280.29351   -4797.5502   -4236.9286   -4797.5502            0    8111.6972    17.785703     22.98877      19.3796    7923.7652    7305.6968    7869.0575    9160.3373   -681.62107    231.83411   -1529.3758   -3299.5409 
 3738000    278.76074   -4770.0685   -4212.5125   -4770.0685            0    6338.3686    18.038101    23.221797    19.150114    8021.5449    6432.2557    5948.6765    6634.1735   -2.0130954   -236.47491    999.53204   -3471.0121 
 3739000    281.71077   -4807.7114    -4244.255   -4807.7114            0    7892.4922    17.868505    23.188471    19.235262    7970.0024    9644.5903    6094.0177    7938.8686   -23.860433    200.17833    266.42838   -3326.8766 
 3740000    292.92419     -4794.31   -4208.4254     -4794.31            0    9150.6791    17.954926    23.125053    19.110286    7934.7555    7003.1158    8934.0297    11514.892    305.89231    356.01438    580.77516   -3149.5063 
 3741000    282.47227   -4819.0342   -4254.0548   -4819.0342            0    6727.8802    17.852876    23.046876    19.395663     7980.404    7026.4527    7315.9144    5841.2736    121.04902    437.07933   -1310.2714   -3471.0237 
 3742000    267.73648   -4770.6916   -4235.1856   -4770.6916            0    7668.4574    17.977046    22.939102    19.304661    7960.8039    6246.3008    8277.9264     8481.145   -54.456598   -1249.7074   -1337.6958   -3344.8764 
 3743000    274.28673   -4745.3396   -4196.7323   -4745.3396            0    7669.5682    17.973213    22.955506    19.449551    8024.5775    7068.5596    7445.0096    8495.1354    449.38415   -408.95744   -1022.3426   -3299.1609 
 3744000    274.83384   -4756.4239   -4206.7223   -4756.4239            0    7700.7884    18.060391     22.81848    19.387279    7989.7044    7155.3492    8798.1614    7148.8547   -63.255812    1176.4975    605.59905   -3309.4137 
 3745000    298.68124   -4792.9783   -4195.5789   -4792.9783            0    6387.9956    18.013262    22.824676    19.507472    8020.4359     7197.776    6069.1108    5897.1001   -1556.9505    360.24016   -849.42259   -3448.3762 
 3746000    273.72189   -4782.2206    -4234.743   -4782.2206            0    7360.0054    18.167153    22.915572    19.276858    8025.1622    7074.2887    7768.0289    7237.6986    912.75621     300.7527    2188.7813   -3373.3371 
 3747000    275.94245   -4788.2872   -4236.3682   -4788.2872            0     8508.422    17.907356    23.003037    19.349008    7970.3123    7582.8228    9823.6916    8118.7517    567.35852    667.40732   -143.11304   -3247.3592 
 3748000    283.99274    -4773.527   -4205.5064    -4773.527            0    7593.5575    17.959735    23.175429    19.223418    8001.2585     7412.511    6650.7924    8717.3692    92.315192   -883.70224    202.87356    -3319.413 
 3749000    280.22074   -4813.7695   -4253.2934   -4813.7695            0    5686.8894    17.891308    23.128538    19.380592    8019.6849    6358.3779    5839.5722     4862.718   -691.84044   -400.93915    1818.8678   -3588.1612 
 3750000     283.0173   -4761.8396   -4195.7701   -4761.8396            0     7608.717    18.129583    22.979917    19.259938    8024.0042    5285.5573    9123.3585    8417.2353    1646.9649    947.44564   -89.561113   -3305.3838 
Loop time of 485.475 on 64 procs for 250000 steps with 1008 atoms

Performance: 88.985 ns/day, 0.270 hours/ns, 514.959 timesteps/s
196.5% CPU use with 32 MPI tasks x 2 OpenMP threads

MPI task timing breakdown:
Section |  min time  |  avg time  |  max time  |%varavg| %total
---------------------------------------------------------------
Pair    | 36.654     | 40.387     | 46.573     |  34.6 |  8.32
Bond    | 0.87687    | 1.2221     | 1.7292     |  15.0 |  0.25
Kspace  | 235.38     | 246.01     | 256.77     |  29.8 | 50.67
Neigh   | 4.4627     | 4.8836     | 5.7307     |  17.7 |  1.01
Comm    | 76.626     | 87.295     | 92.714     |  48.7 | 17.98
Output  | 0.52565    | 0.52659    | 0.52875    |   0.1 |  0.11
Modify  | 93.804     | 95.921     | 97.703     |   9.1 | 19.76
Other   |            | 9.231      |            |       |  1.90

Nlocal:        31.5000 ave          35 max          27 min
Histogram: 1 2 2 6 0 4 8 1 6 2
Nghost:        2883.19 ave        2924 max        2854 min
Histogram: 2 4 6 5 4 3 3 3 0 2
Neighs:        10429.7 ave       11705 max        8941 min
Histogram: 1 2 2 6 4 6 3 0 6 2

Total # of neighbors = 333751
Ave neighs/atom = 331.10218
Ave special neighs/atom = 2.0000000
Neighbor list builds = 11204
Dangerous builds = 1

unfix		3
unfix		2
unfix		1

write_data	data.final.${pid}
write_data	data.final.0
System init for write_data ...
PPPM initialization ...
  extracting TIP4P info from pair style
  using 12-bit tables for long-range coulomb (../kspace.cpp:340)
  G vector (1/distance) = 0.38367053
  grid = 24 30 32
  stencil order = 5
  estimated absolute RMS force accuracy = 0.0019101798
  estimated relative force accuracy = 5.7524496e-06
  using double precision FFTW3
  3d grid and FFT values/proc = 5712 768
Last active /omp style is kspace_style pppm/tip4p/omp
WARNING: Not all mixed pair coeffs generated from mixing. Use write_data with 'pair ij' option to store all pair coeffs. (../write_data.cpp:312)

write_restart   restart.lmp.${pid}
write_restart   restart.lmp.0
System init for write_restart ...
PPPM initialization ...
  extracting TIP4P info from pair style
  using 12-bit tables for long-range coulomb (../kspace.cpp:340)
  G vector (1/distance) = 0.38367053
  grid = 24 30 32
  stencil order = 5
  estimated absolute RMS force accuracy = 0.0019101798
  estimated relative force accuracy = 5.7524496e-06
  using double precision FFTW3
  3d grid and FFT values/proc = 5712 768
Last active /omp style is kspace_style pppm/tip4p/omp
Total wall time: 0:08:05
