LAMMPS (30 Jul 2021)
  using 1 OpenMP thread(s) per MPI task
package omp 0
using multi-threaded neighbor list subroutines
echo both

include		in.partitions
variable        pid world 0
include		in.temp
variable        temperature equal 237.75
variable	tempDamp equal 100.0
include		in.pressure
variable        pressure equal 3625.0
variable        pressureDamp equal 1000.0 # This is 1 ps
include		in.seed
variable        seed world 745823

units		real
atom_style	full
read_restart	restart.lmp.${pid}
read_restart	restart.lmp.0
Reading restart file ...
  restart file = 30 Jul 2021, LAMMPS = 30 Jul 2021
  restoring atom style full from restart
  orthogonal box = (0.45660172 1.6293478 0.55705303) to (17.750971 21.999830 21.656143)
  4 by 4 by 4 MPI processor grid
  restoring pair style lj/cut/tip4p/long/omp from restart
  restoring bond style harmonic/omp from restart
  restoring angle style harmonic/omp from restart
  864 atoms
  576 bonds
  288 angles
Finding 1-2 1-3 1-4 neighbors ...
  special bond factors lj:    0        0        0       
  special bond factors coul:  0        0        0       
     2 = max # of 1-2 neighbors
     1 = max # of 1-3 neighbors
     1 = max # of 1-4 neighbors
     2 = max # of special neighbors
  special bonds CPU = 2.065 seconds
  read_restart CPU = 2.539 seconds
include 	in.setup
variable	out_freq equal 1000
variable	out_freq2 equal 10000
variable	out_freq3 equal 1000

timestep	2.0

neigh_modify    delay 7 every 1

include		in.tip4p
# This is TIP4P/Ice

# create groups ###
group ox type 2
288 atoms in group ox
group hy type 1
576 atoms in group hy

# set charges - beside manually ###
set group ox charge -1.1794
Setting atom values ...
  288 settings made for charge
set group hy charge 0.5897
Setting atom values ...
  576 settings made for charge

# ### TIP3P Potential Parameters ###
pair_style lj/cut/tip4p/long/omp 2 1 1 1 0.1577 8.5
pair_coeff 1 1*2 0.000 0.000
pair_coeff 2 2 0.21084 3.1668
bond_style  harmonic
bond_coeff  1 450 0.9572
angle_style harmonic
angle_coeff 1 55 104.52
kspace_style pppm/tip4p/omp 1.0e-5
pair_modify tail yes

thermo          ${out_freq}
thermo          1000
thermo_style    custom step temp pe etotal epair emol press lx ly lz vol pxx pyy pzz pxy pxz pyz enthalpy

restart 	${out_freq3} restart.lmp.${pid} restart2.lmp.${pid}
restart 	1000 restart.lmp.${pid} restart2.lmp.${pid}
restart 	1000 restart.lmp.0 restart2.lmp.${pid}
restart 	1000 restart.lmp.0 restart2.lmp.0


include         in.dump
dump            myDump all atom ${out_freq2} dump.water.${pid}
dump            myDump all atom 10000 dump.water.${pid}
dump            myDump all atom 10000 dump.water.0
dump            myDump2 all dcd ${out_freq2} dump.dcd
dump            myDump2 all dcd 10000 dump.dcd
dump_modify     myDump append yes
dump_modify     myDump2 append yes


variable natoms 	equal  "count(all)"                        # NUMBER ATOMS
variable H      	equal  "enthalpy/v_natoms"                 # ENTHALPY-per-atom
variable Vol      	equal  "vol/v_natoms"                 # volume-per-atom
fix AVG all 		ave/time ${out_freq} 1 ${out_freq} v_Vol v_H file vol_enthalpy.dat
fix AVG all 		ave/time 1000 1 ${out_freq} v_Vol v_H file vol_enthalpy.dat
fix AVG all 		ave/time 1000 1 1000 v_Vol v_H file vol_enthalpy.dat


timer           timeout 23:50:00 every 1000
New timer settings: style=normal  mode=nosync  timeout=23:50:00

fix 		1 all shake 1e-6 200 0 b 1 a 1
       0 = # of size 2 clusters
       0 = # of size 3 clusters
       0 = # of size 4 clusters
     288 = # of frozen angles
  find clusters CPU = 0.205 seconds
fix             2 all nph iso ${pressure} ${pressure} ${pressureDamp}
fix             2 all nph iso 3625 ${pressure} ${pressureDamp}
fix             2 all nph iso 3625 3625 ${pressureDamp}
fix             2 all nph iso 3625 3625 1000
fix             3 all temp/csvr ${temperature} ${temperature} ${tempDamp} ${seed}
fix             3 all temp/csvr 237.75 ${temperature} ${tempDamp} ${seed}
fix             3 all temp/csvr 237.75 237.75 ${tempDamp} ${seed}
fix             3 all temp/csvr 237.75 237.75 100 ${seed}
fix             3 all temp/csvr 237.75 237.75 100 745823

run             250000
PPPM initialization ...
  extracting TIP4P info from pair style
  using 12-bit tables for long-range coulomb (../kspace.cpp:340)
  G vector (1/distance) = 0.37428637
  grid = 24 24 25
  stencil order = 5
  estimated absolute RMS force accuracy = 0.0030691377
  estimated relative force accuracy = 9.2426169e-06
  using double precision FFTW3
  3d grid and FFT values/proc = 2730 288
Last active /omp style is kspace_style pppm/tip4p/omp
Neighbor list info ...
  update every 1 steps, delay 7 steps, check yes
  max neighbors/atom: 2000, page size: 100000
  master list distance cutoff = 10.8154
  ghost atom cutoff = 10.8154
  binsize = 5.4077, bins = 4 4 4
  1 neighbor lists, perpetual/occasional/extra = 1 0 0
  (1) pair lj/cut/tip4p/long/omp, perpetual
      attributes: half, newton on, omp
      pair build: half/bin/newton/omp
      stencil: half/bin/3d
      bin: standard
Per MPI rank memory allocation (min/avg/max) = 9.239 | 9.243 | 9.250 Mbytes
Step Temp PotEng TotEng E_pair E_mol Press Lx Ly Lz Volume Pxx Pyy Pzz Pxy Pxz Pyz Enthalpy 
 1500000     248.7732   -3930.6743   -3504.2855   -3930.6743            0    4483.0638    17.294369    20.370482     21.09909    7433.0961    3812.3516    5327.4086     4309.431   -1819.4262   -183.00427    1177.7298   -3018.3031 
 1501000    246.81465   -3980.6416   -3557.6097   -3980.6416            0    4083.2648     17.34008    20.424323    21.154857    7492.1912    5431.2145    3399.5979    3418.9822    133.14056   -1116.0452   -561.37643    -3111.448 
 1502000    241.56217   -3955.6567   -3541.6274   -3955.6567            0    2166.5373    17.390371     20.48356    21.216212    7557.5695    3050.1445    2930.9618     518.5056   -352.58114   -430.63524    110.80876    -3302.833 
 1503000    237.81485   -3961.5089   -3553.9024   -3961.5089            0    4257.0425    17.381909    20.473593    21.205889    7546.5428    4702.2565    5186.9503    2881.9207     948.1894    61.989969    1020.2365   -3085.3783 
 1504000    229.98437   -3992.0787   -3597.8933   -3992.0787            0    4415.3082    17.350406    20.436487    21.167455    7505.5845    3698.1615    5580.1368    3967.6263   -421.08711   -940.22731   -494.30124   -3114.5882 
 1505000    241.79085   -3962.2597   -3547.8384   -3962.2597            0    2350.6604    17.383922    20.475964    21.208344    7549.1642    922.07697    3172.1831    2957.7211    1000.0333   -392.56516    589.88074   -3289.0382 
 1506000    241.79352   -3940.3267   -3525.9009   -3940.3267            0    3178.2958    17.367466    20.456581    21.188269    7527.7467    2169.8514     4591.037    2773.9989    262.36163    831.78122    91.229037   -3176.9734 
 1507000    239.79874   -3942.9076   -3531.9007   -3942.9076            0    3612.6042    17.397764    20.492268    21.225231    7567.2115    2412.8606    4999.3927    3425.5592   -878.70263    308.94127    46.051475   -3133.2137 
 1508000    238.11766   -3950.8958   -3542.7702   -3950.8958            0    4569.5491    17.396711    20.491027    21.223946    7565.8376    3606.8658    4878.2821    5223.4993   -1275.2313   -1145.0845    -830.3759   -3038.5663 
 1509000    233.91342   -3919.8719   -3518.9523   -3919.8719            0    3732.0358    17.465229    20.571733    21.307539    7655.5863    3355.9511    2991.7574     4848.399   -1137.0339    1091.0355   -962.99573   -3102.2747 
 1510000     237.8959   -3940.6703   -3532.9249   -3940.6703            0    2800.4224    17.361997    20.450139    21.181595    7520.6364    1249.5579    2852.6766    4299.0326   -651.71029   -843.85848    150.92789   -3225.7724 
 1511000    239.72412   -3962.6527   -3551.7738   -3962.6527            0    4373.3841    17.355843    20.442891    21.174088     7512.643    3370.3674    4702.0126    5047.7724    320.23522   -164.45974    342.63327   -3072.6075 
 1512000     244.1858   -3938.4901    -3519.964   -3938.4901            0    3168.1787    17.433455    20.534308    21.268775    7613.8798    3278.1945    3549.9513    2676.3903    -359.9167    200.38323    1177.1739   -3168.1675 
 1513000    239.97435   -3945.5225   -3534.2146   -3945.5225            0    2681.1449    17.403073    20.498522    21.231709    7574.1421    3790.0562    2214.7463    2038.6323   -103.33683    260.84503   -1258.5378   -3238.0524 
 1514000    225.87039   -3948.5528   -3561.4187   -3948.5528            0    4249.0186    17.329794    20.412209    21.142308     7478.867    3117.7741    4246.8378    5382.4438    394.02834    702.39146    632.09774   -3097.9714 
 1515000    228.49603   -3927.9442   -3536.3098   -3927.9442            0    4225.5225    17.323338    20.404604    21.134432    7470.5114     3308.607    4724.5784    4643.3821   -1039.7717    260.41264    -803.8645   -3075.9402 
 1516000    237.76852   -3956.3261    -3548.799   -3956.3261            0    3800.8536    17.416713    20.514588     21.24835    7591.9651    4049.7062    2668.6618    4684.1927   -1666.3584   -1043.8392    1144.1133   -3127.9646 
 1517000    238.63227   -3941.7837   -3532.7762   -3941.7837            0    4749.0426    17.294121     20.37019    21.098787    7432.7764    2664.7687    5248.8646    6333.4945    593.15782   -158.00235    764.83726   -3017.9827 
 1518000    230.27518   -3981.5072   -3586.8235   -3981.5072            0    1544.0802    17.453579     20.55801    21.293325    7640.2761    1588.5092    2231.4466    812.28486   -674.67775   -305.26766   -80.915067   -3414.7734 
 1519000    237.20699   -3939.9633   -3533.3986   -3939.9633            0    5084.0301    17.395376    20.489455    21.222318    7564.0959    7994.8985    3180.6211    4076.5707    -82.45429    739.52617   -411.26242    -2972.556 
 1520000    237.53993   -3977.7898   -3570.6544   -3977.7898            0    3858.1813    17.444438    20.547243    21.282173    7628.2781    2874.5369    5558.4599    3141.5473   -618.01161   -373.29052    1162.7102   -3141.4294 
 1521000    223.07767   -3948.7657   -3566.4182   -3948.7657            0    4113.8848    17.367208    20.456277    21.187953    7527.4107     3877.139    3363.4576    5101.0577    502.87969    13.950081    -302.8433   -3114.7977 
 1522000    247.38007   -3953.2043   -3529.2034   -3953.2043            0     3281.575    17.384651    20.476822    21.209233    7550.1137    3111.1765    2728.8915     4004.657   -459.05575    410.06224   -878.35363    -3167.867 
 1523000    235.33486   -3970.0713   -3566.7154   -3970.0713            0    4773.9621    17.408236    20.504603    21.238008    7580.8849    4990.1489    5208.0253    4123.7121    150.11574    419.42219    1074.6833   -3038.9089 
 1524000    244.04882   -3926.8153    -3508.524   -3926.8153            0    2259.4362     17.46348    20.569672    21.305404    7653.2857    1250.9009    3432.3395     2095.068    2292.3189    43.313507    888.98515   -3256.3363 
 1525000    245.12551   -3953.9696   -3533.8329   -3953.9696            0    3780.9954    17.372291    20.462264    21.194154    7534.0216    3695.1093    2580.6153    5067.2616    1272.0274   -1175.7653   -268.87497   -3118.3923 
 1526000    247.26105   -3954.3429    -3530.546   -3954.3429            0    3179.4985    17.362318    20.450517    21.181987    7521.0536      3962.82    3843.1701    1732.5053    2119.7792   -1901.1384   -1082.2575   -3181.7968 
 1527000    246.70829    -3965.318   -3542.4684    -3965.318            0    5136.7805    17.328069    20.410176    21.140204    7476.6334    5912.8429    4678.5649    4818.9338     82.08302   -1368.7426    522.74269   -2982.3588 
 1528000    234.97803   -3987.8973    -3585.153   -3987.8973            0    5047.5098     17.36215    20.450319    21.181782    7520.8355    5561.3294    4607.2446    4973.9555   -374.19818   -1431.7469    192.37657   -3031.5236 
 1529000    227.08773   -3994.6286    -3605.408   -3994.6286            0    2969.6759    17.393081    20.486752    21.219518    7561.1031      4016.48    1971.9819    2920.5658    1789.5657   -709.62236   -526.04371   -3277.9391 
 1530000    247.00977   -3969.7429   -3546.3766   -3969.7429            0    4132.4145    17.435217    20.536382    21.270924    7616.1879    4436.6659    4913.1225    3047.4551    2311.7348   -1012.8336   -450.92791   -3087.3716 
 1531000    243.03275   -3952.0572   -3535.5073   -3952.0572            0    3142.8165    17.443295    20.545898     21.28078    7626.7797    3698.9472    3018.8367    2710.6655    183.79737     -539.358   -631.26836   -3185.9358 
 1532000    232.52262    -3931.925   -3533.3892    -3931.925            0     3947.012    17.367758    20.456925    21.188625    7528.1262    4227.1628    4873.5225    2740.3506   -1344.3507   -158.25663    848.76362   -3100.0468 
 1533000    228.77327   -3945.4337   -3553.3241   -3945.4337            0    4421.0457    17.342553    20.427236    21.157874    7495.3975    2636.3033    5795.4358    4831.3978   -27.592876    720.90234    883.77371   -3070.0477 
 1534000    222.75473   -3970.3254   -3588.5314   -3970.3254            0    2775.2772    17.338352    20.422288    21.152749    7489.9519    2803.0375    2589.5809    2933.2133    333.79547    245.05835   -682.64853   -3285.3788 
 1535000    241.37549    -4010.938   -3597.2287    -4010.938            0    5100.9815    17.334119    20.417302    21.147584    7484.4674    6257.5711    4559.6924    4485.6809    863.58757    294.95339    1012.7633   -3040.4398 
 1536000    229.70476   -3988.5215   -3594.8155   -3988.5215            0    3270.4608    17.333265    20.416297    21.146543    7483.3617    4483.3244     2710.326    2617.7321    -1207.367   -200.05621    643.04075   -3237.8867 
 1537000    244.86981   -3959.0294   -3539.3309   -3959.0294            0    5695.3951    17.312507    20.391847    21.121218     7456.508    6560.3828    5593.7739    4932.0285   -979.67624      346.041    449.08525   -2919.9822 
 1538000     234.3439   -3957.8463   -3556.1889   -3957.8463            0    2799.2593    17.422885    20.521857    21.255879    7600.0389    4598.1752    1778.0396     2021.563    -369.2229    1032.6496    468.39692   -3245.9224 
 1539000    247.78673   -3973.1899   -3548.4919   -3973.1899            0    2767.9897    17.343505    20.428358    21.159035     7496.632    3926.9107    1455.1695    2921.8889   -233.67443    275.37362    1141.3573   -3245.8657 
 1540000    227.24838   -3958.9052   -3569.4092   -3958.9052            0    3991.7262    17.337894    20.421749    21.152191     7489.359    3549.1982    5203.0067    3222.9737    316.00874   -67.840736   -585.54443   -3133.4145 
 1541000    228.93882   -3959.8164   -3567.4231   -3959.8164            0    2904.7347    17.364348    20.452909    21.184464    7523.6928      3966.85    2068.5976    2678.7565   -281.59317    184.76943   -1027.8452   -3248.7001 
 1542000    232.36809   -3966.4489   -3568.1779   -3966.4489            0    3017.7601    17.383189    20.475101     21.20745    7548.2099    2226.1225    1950.1344    4877.0233   -1852.4071    100.09104   -130.81841   -3235.9741 
 1543000    242.27388   -3963.6736   -3548.4245   -3963.6736            0    4220.5583    17.347217     20.43273    21.163564     7501.446    4465.2566    3861.3311    4335.0872    865.44381   -572.36365     1431.534   -3086.6916 
 1544000    242.24909   -3966.9272   -3551.7205   -3966.9272            0    5870.4885    17.331182    20.413843    21.144002     7480.664    6356.5238    6983.1907     4271.751    681.34769   -686.28882   -459.87712   -2911.2631 
 1545000    233.14204   -3993.6271   -3594.0296   -3993.6271            0    5838.5506    17.300479    20.377679    21.106544    7440.9768    5172.0619     5284.999    7058.5909    523.63786   -38.784304   -752.69292   -2960.4359 
 1546000    241.49026   -3958.0519   -3544.1459   -3958.0519            0    3391.3309    17.417927    20.516018    21.249831    7593.5526    2229.3743    4407.6248    3536.9936    1763.8575     56.94911   -875.03964   -3168.5757 
 1547000    236.27559   -3965.2039   -3560.2356   -3965.2039            0    3255.0321     17.39947    20.494277    21.227312    7569.4376     3439.245     2496.173    3829.6782    428.11104    843.05372    65.497913   -3200.9045 
 1548000    247.95881     -3967.33   -3542.3371     -3967.33            0    3045.0639    17.399814    20.494682    21.227732    7569.8866    4015.4451   -3.8383865    5123.5851    593.25582    779.61004    772.82102    -3206.165 
 1549000     242.0822   -3942.6058   -3527.6852   -3942.6058            0    3484.2994    17.392852    20.486482    21.219238    7560.8037    4211.3598    1228.7257    5012.8126    235.49727    266.96931    1703.2212   -3143.4835 
 1550000     243.8223   -3984.7494   -3566.8463   -3984.7494            0     4085.626     17.38177    20.473429    21.205718    7546.3608    4172.8775      3454.11    4629.8905    184.83453    673.41268   -1124.7211    -3117.199 
 1551000    240.80465     -3927.38    -3514.649     -3927.38            0    1367.9425    17.483368    20.593098    21.329668    7679.4635    1621.1573    1102.7939    1379.8763   -271.96656    846.78092    39.698416   -3361.4434 
 1552000    229.27445   -3958.9152   -3565.9467   -3958.9152            0    2959.4039     17.39113    20.484454    21.217138     7558.559    2897.9553     2395.968    3584.2885    794.12757   -991.91452   -572.40827   -3239.7203 
 1553000    242.07061   -3971.1811   -3556.2804   -3971.1811            0     2592.255    17.377368    20.468244    21.200348    7540.6287    1607.1688    3096.2652     3073.331    1627.8998   -225.85367   -1860.4425   -3271.2041 
 1554000    259.76595   -3963.3454   -3518.1154   -3963.3454            0    3418.1054    17.410812    20.507637     21.24115    7584.2509    3973.8907    3296.2891    2984.1364    70.144612    682.26554    -1825.821   -3140.0438 
 1555000    231.36839    -3932.889   -3536.3315    -3932.889            0    4910.6275    17.336923    20.420605    21.151005    7488.0997    4065.4719    6502.4308    4163.9797    87.064692    1405.1808   -313.54751   -3000.0603 
 1556000    245.59784   -3915.8277   -3494.8814   -3915.8277            0    3269.4228      17.3637    20.452146    21.183674    7522.8508    2071.4732    4674.0006    3062.7946   -509.50134    616.91634    584.32559    -3136.183 
 1557000    238.86974   -3931.9985   -3522.5839   -3931.9985            0    3678.8467    17.391724    20.485153    21.217862    7559.3327    4004.2363     2745.278    4287.0257    394.43812    389.21259    605.23246    -3117.009 
 1558000    234.33691   -3916.9742   -3515.3287   -3916.9742            0    3119.8043    17.421472    20.520193    21.254156    7598.1901    1902.8025    4241.5119    3215.0984   -1068.9376    998.12155   -113.40185   -3169.6176 
 1559000     240.7297   -3933.6687   -3521.0662   -3933.6687            0    3965.4286    17.397091    20.491475     21.22441    7566.3336    3865.6535    5123.4448    2907.1876    381.61126    1163.1949    -836.9313   -3083.4922 
 1560000    229.66465   -3948.2151   -3554.5777   -3948.2151            0    3249.5351    17.445533    20.548533    21.283509     7629.715    2961.4394     5050.359     1736.807   -188.51321   -757.30744   -99.461946   -3192.9969 
 1561000    236.78277   -3947.7459   -3541.9083   -3947.7459            0    2436.1905    17.485014    20.595036    21.331676    7681.6323    4548.8266    1877.3269    882.41798    429.84566    1273.9961     350.1565    -3268.985 
 1562000    246.60502   -3943.6737   -3521.0012   -3943.6737            0    2664.7038    17.479551    20.588602    21.325011    7674.4348    3133.7027    2974.9519    1885.4567     996.2217    40.598137   -1119.8679   -3222.7575 
 1563000    245.30148   -3927.1254   -3506.6871   -3927.1254            0    3742.6058    17.456109     20.56099    21.296412    7643.5992    3455.0878    3479.4899    4293.2399   -907.76398    143.26454   -850.71974   -3089.4836 
 1564000    233.96321   -3940.8184   -3539.8135   -3940.8184            0     5264.502    17.401424    20.496579    21.229697    7571.9893    4749.7025    4363.7663    6680.0371   -966.80007    220.42013    38.137557   -2958.4561 
 1565000    234.89977   -3958.4092    -3555.799   -3958.4092            0    5891.1261    17.340586     20.42492    21.155475     7492.848    5389.1406    6206.2975    6077.9403     1346.513    35.516501    298.36244   -2912.0432 
 1566000    246.98211   -3922.7132   -3499.3943   -3922.7132            0    4040.1893    17.408384    20.504777    21.238188    7581.0778    5048.3505    1837.7275    5234.4899   -373.00293    1464.0831    560.12531   -3052.7019 
 1567000    238.55614   -3981.4913   -3572.6142   -3981.4913            0    3266.7757    17.386975    20.479559    21.212068    7553.1419    4166.5835    3128.8811    2504.8626    742.43924   -19.533949   -626.44975   -3212.7631 
 1568000    241.39158   -3963.2735   -3549.5365   -3963.2735            0     2418.632    17.400379    20.495348    21.228422    7570.6247    3410.4498    738.16037     3107.286    857.11923   -1236.4384   -85.612869   -3282.4959 
 1569000    215.50626   -3960.0821   -3590.7118   -3960.0821            0    2780.9699    17.406515    20.502575    21.235907    7578.6362    2559.0604    2523.7323    3260.1172     133.9528   -952.12517   -957.07983   -3283.3405 
 1570000    235.28606   -3963.8441   -3560.5719   -3963.8441            0    3137.0708     17.43964    20.541593    21.276321    7621.9863    2488.9047    3293.3848    3628.9229     119.3888    15.862106   -1610.0618   -3211.8587 
 1571000    240.08619   -3982.8838   -3571.3843   -3982.8838            0    1730.0728    17.485121    20.595163    21.331806    7681.7734    1451.2877    693.02697    3045.9037    711.67608   -147.49763   -574.30231   -3377.5629 
 1572000    255.96117   -3941.1284   -3502.4197   -3941.1284            0    3028.2203    17.396796    20.491128     21.22405    7565.9487    4002.0472    2731.4121    2351.2015   -314.34127   -344.16658    74.936031    -3168.281 
 1573000    219.03207   -3944.5887   -3569.1752   -3944.5887            0    3347.9037    17.382694    20.474517    21.206846    7547.5642    4392.5814    3674.5431    1976.5864   -272.82817   -718.65492   -1627.4436   -3200.6598 
 1574000    236.50537   -3951.9592   -3546.5971   -3951.9592            0    4178.7962    17.368514    20.457815    21.189546    7529.1086    5527.7426    4278.1596    2730.4865   -830.02901    446.00208   -439.77773   -3087.7472 
 1575000    245.93063   -3967.5209   -3546.0042   -3967.5209            0    4141.6039    17.291759    20.367408    21.095906    7429.7317    4087.0642     4626.441    3711.3066   -1590.9925   -50.679835   -393.97706   -3097.2407 
 1576000    231.00771   -3945.9846   -3550.0453   -3945.9846            0    1063.5672    17.434166    20.535145    21.269642    7614.8115    1750.5174    1618.4656   -178.28147    126.50579   -1457.1349    462.55569   -3431.9317 
 1577000    226.31049   -3948.8261   -3560.9376   -3948.8261            0    3838.1835    17.330711    20.413288    21.143427    7480.0536    3820.4059    4832.3412    2861.8033   -143.23134    123.84301   -654.75256   -3142.2344 
 1578000    256.44917   -3929.6594   -3490.1143   -3929.6594            0    3682.0194    17.298889    20.375807    21.104605    7438.9262    3680.4813     3313.565    4052.0118   -1172.1048   -380.71062    2096.4542   -3090.6553 
 1579000    243.98024   -3965.1361   -3546.9623   -3965.1361            0    4409.2294    17.388616    20.481492     21.21407    7555.2809    3534.5667    5668.5808    4024.5407   -825.29625   -997.35889    -373.5853   -3061.1269 
 1580000     256.9633   -3942.5338   -3502.1075   -3942.5338            0    2696.3639    17.465618    20.572192    21.308014    7656.0982    2159.1954    2269.8739    3660.0225   -179.10938   -1458.7373    1215.0165   -3201.0413 
 1581000    241.87086   -3969.9356   -3555.3772   -3969.9356            0     4377.118    17.398103    20.492667    21.225645    7567.6541    3492.8733    4514.2119    5124.2688   -880.41456   -75.813009    822.97291   -3072.2901 
 1582000    235.39152   -3983.0429   -3579.5899   -3983.0429            0    3783.4366    17.427483    20.527273    21.261488    7606.0571    4073.3319    2826.6325    4450.3454    581.99563   -705.94874    32.699058   -3159.9064 
 1583000    222.07853   -3959.6053   -3578.9703   -3959.6053            0    2736.5389    17.352471    20.438918    21.169974    7508.2643    3706.0962    2652.3608    1851.1598   -395.60488    522.24438   -851.61729   -3279.3184 
 1584000    253.04013   -3949.0574   -3515.3553   -3949.0574            0    4744.9213    17.335748    20.419221    21.149572    7486.5779    4374.1001    5235.5425    4625.1213    220.03884     854.5088   -422.21756   -2997.2855 
 1585000    236.53238   -3986.1214    -3580.713   -3986.1214            0     4972.373    17.366655    20.455626    21.187279    7526.6921    4190.9093    7118.2581    3607.9518   -1314.4823    451.15602    55.393445   -3034.9002 
 1586000    233.05714   -3990.1518   -3590.6998   -3990.1518            0    3314.8505    17.416996     20.51492    21.248694    7592.3341    2818.3247    3376.0071    3750.2198    1731.7831    554.50834     210.0603   -3223.6583 
 1587000    232.63858   -4003.3835   -3604.6489   -4003.3835            0    2677.1844      17.3766     20.46734    21.199412    7539.6297    1604.3288    2954.2317    3472.9928   -186.66444   -460.57004    1271.8303   -3310.2717 
 1588000    237.32325   -3965.2181   -3558.4542   -3965.2181            0    4906.6251    17.393267    20.486971    21.219745    7561.3452    4952.4639    4158.6432    5608.7681   -6.5991004    270.71229   -579.03637   -3017.3787 
 1589000    235.50298   -4015.8447   -3612.2006   -4015.8447            0    3634.4792    17.390848    20.484122    21.216794    7558.1915    4254.6048    4798.5529      1850.28   -144.53547    83.480017   -73.384761   -3211.5775 
 1590000    234.75046   -3969.2626   -3566.9083   -3969.2626            0    4873.8543    17.332439    20.415324    21.145535    7482.2916    3812.2717    5571.9896    5237.3015   -673.50495    79.974839   -540.11015   -3035.0658 
 1591000    232.97314   -3990.0415   -3590.7335   -3990.0415            0    3809.9585    17.328618    20.410823    21.140874    7477.3444    3554.3811     3490.824    4384.6705   -727.90793   -1165.9057   -32.370932   -3175.2598 
 1592000    237.94975   -3951.4478   -3543.6101   -3951.4478            0    4432.7417    17.368778    20.458126    21.189868     7529.452    4841.5156     4620.838    3835.8716   -1618.9356    1268.7895   -1011.4118   -3056.8537 
 1593000    234.65037   -3980.7929   -3578.6102   -3980.7929            0    4511.4994    17.329362    20.411699    21.141781    7478.3074    4236.3842    6149.5377    3148.5762    925.45423    150.27762    929.31231   -3086.5705 
 1594000     244.8424   -3977.5887   -3557.9372   -3977.5887            0    3912.6409    17.331392    20.414091    21.144258    7480.9363    2875.4984    4265.8304     4596.594   -315.09446   -1445.4765   -244.42515   -3131.0611 
 1595000    240.08981   -3979.8392   -3568.3335   -3979.8392            0    2022.6361     17.35944    20.447127    21.178476    7517.3147    2951.1398    1270.8484    1845.9201    746.35875    2107.2876   -346.32484   -3346.5872 
 1596000    242.33357   -3962.7168   -3547.3653   -3962.7168            0    4225.1507     17.34418    20.429153    21.159859     7497.507    4754.0763    3581.7598    4339.6159    1121.8415    -878.3381   -613.79704   -3085.3728 
 1597000    238.74382   -3966.0747    -3556.876   -3966.0747            0     2266.347    17.370969    20.460707    21.192542     7532.302    2237.9148    918.68535     3642.441    437.13572     70.14384   -477.83802   -3307.9157 
 1598000    233.78891   -4001.2634   -3600.5572   -4001.2634            0    4133.4255    17.296841    20.373394    21.102105    7436.2838    2781.2287    5112.4166    4506.6312    505.32643   -104.87811   -1405.7825   -3152.2848 
 1599000    237.96493   -3966.7789   -3558.9152   -3966.7789            0    3101.6704    17.377709    20.468646    21.200764    7541.0728    3724.6675    1852.4183    3727.9255   -475.04394   -1584.4529   -702.41983   -3217.7972 
 1600000    222.24266   -3943.0228   -3562.1065   -3943.0228            0    4400.7624     17.25326    20.322062    21.048937    7380.2167    4933.3782    3706.2154    4562.6936   -766.13721   -1980.0896    3.0856161   -3088.4397 
 1601000    226.48958   -3984.5659   -3596.3706   -3984.5659            0      4524.24    17.378265    20.469301    21.201443    7541.7974    3880.5994    4868.8081    4823.3126   -624.73241   -263.69411      367.773   -3098.7522 
 1602000    242.35399   -3957.7189   -3542.3324   -3957.7189            0    2762.9339    17.443869    20.546573    21.281479    7627.5317    3101.1072    2678.6734    2509.0209    980.04065   -1784.2005   -320.16072   -3234.9844 
 1603000    238.03795   -3947.0866   -3539.0977   -3947.0866            0    2960.2869    17.427501    20.527294     21.26151    7606.0807    3986.6725    2800.6297    2093.5583   -115.90569   -459.07551    614.16173   -3210.7223 
 1604000     239.6953   -3969.8642   -3559.0346   -3969.8642            0    3718.6314    17.379608    20.470883    21.203081    7543.5455    4360.2334    5426.2007      1369.46     381.7538   -1177.7913     87.30529   -3149.9299 
 1605000    241.58413   -3951.4713   -3537.4044   -3951.4713            0    1330.1223    17.418074     20.51619    21.250009    7593.7444    1140.1292    2200.7625    649.47519   -729.17235   -568.96796   -754.33263   -3390.0974 
 1606000    238.23834   -3985.9157   -3577.5833   -3985.9157            0    3009.4541    17.366466    20.455403    21.187047    7526.4453    3264.8939     3308.408    2455.0605   -126.96058   -900.26023     1399.482   -3247.2492 
 1607000    237.13395   -3987.3413   -3580.9018   -3987.3413            0    3755.8418    17.365572     20.45435    21.185958    7525.2839    3032.4652    5239.1055    2995.9549    440.53855   -771.47926   -335.84186   -3168.7036 
 1608000    226.15291   -3934.8954    -3547.277   -3934.8954            0    2428.3171    17.387101    20.479708    21.212222    7553.3064    3428.3357     1692.281    2164.3347    288.88993    525.27741    -253.8493   -3279.7803 
 1609000    237.27669   -3966.9636   -3560.2795   -3966.9636            0    3660.7667    17.372736    20.462788    21.194697    7534.6004    5143.8088    2060.5021    3777.9892    378.01512    1485.8857    25.087965   -3158.0183 
 1610000    235.68606   -3954.7777   -3550.8198   -3954.7777            0    3046.4643    17.437181    20.538696     21.27332    7618.7619    3121.5691    3962.0608    2055.7629    403.46924    1285.7528   -454.50817   -3212.3216 
 1611000    223.47962   -3926.9165   -3543.8801   -3926.9165            0    3465.1613    17.418177    20.516312    21.250135     7593.879    2305.8755    4798.1367    3291.4717    493.55901    1066.4293   -915.63491   -3160.1172 
 1612000    236.24041    -3947.625    -3542.717    -3947.625            0    1467.0185    17.503867    20.617244    21.354677     7706.508    421.24147    2841.2234    1138.5905   -513.95094    239.66706    1514.7206   -3377.8366 
 1613000    235.37873   -3960.6962   -3557.2651   -3960.6962            0    3604.8734    17.416205    20.513989    21.247729    7591.2998    3924.4165     4165.765    2724.4386    116.68774   -33.462955    507.45172   -3158.1648 
 1614000    246.74626   -3943.6421   -3520.7275   -3943.6421            0    3171.8493     17.41881    20.517057    21.250907    7594.7066    3282.5872    1764.0106    4468.9502   -448.62878    1502.8174   -624.44527   -3169.4103 
 1615000    244.13997   -3952.5768   -3534.1292   -3952.5768            0    3392.7642    17.427007    20.526713    21.260908    7605.4343    2652.6855    3298.4498    4227.1574    599.51369   -934.45733   -172.19714   -3157.8124 
 1616000     247.8009   -4016.0938   -3591.3716   -4016.0938            0    3797.1099    17.476823    20.585389    21.321683    7670.8419    3334.9518    4367.4099    3688.9682    -740.0637    121.04259    -33.14293   -3166.5837 
 1617000    225.72272   -3995.9719   -3609.0909   -3995.9719            0    3655.1194    17.485706    20.595853    21.332521    7682.5455    5037.6589    3035.6133     2892.086    46.739384    799.84392    101.50855   -3199.5639 
 1618000    224.98417   -3978.4556   -3592.8404   -3978.4556            0    2692.4033    17.482529     20.59211    21.328645    7678.3586    2834.7504    2503.8868    2738.5727     126.9077     261.5772    514.24965   -3291.3424 
 1619000    249.54107   -3989.0743   -3561.3694   -3989.0743            0    4377.8302    17.380399    20.471814    21.204046    7544.5752    4661.0502     5713.951    2758.4894   -76.790535    181.10495    112.66404   -3079.6772 
 1620000    230.40112   -3973.5097   -3578.6101   -3973.5097            0     4098.816    17.407994    20.504317    21.237712    7580.5681    4144.0164    5034.6142    3117.8175    365.99849   -510.21793    165.12225   -3125.4662 
 1621000    233.30068    -3993.021   -3593.1516    -3993.021            0    3444.3808    17.427702    20.527531    21.261756    7606.3444    3133.6069     3467.342    3732.1936   -441.45324    61.345199    349.19078   -3211.0639 
 1622000    249.70189   -3975.2499   -3547.2694   -3975.2499            0    3211.9081    17.483147    20.592838    21.329399    7679.1726    3153.3462    2175.4453    4306.9327     825.0545    271.13851    140.53525   -3187.5587 
 1623000    226.64549   -4011.7823   -3623.3197   -4011.7823            0    2042.2275    17.450675    20.554591    21.289783     7636.464    2914.9412     437.7767    2773.9645   -77.730643   -83.695902    399.26375   -3395.8769 
 1624000    239.20507   -3971.0505   -3561.0612   -3971.0505            0    3029.9702    17.478267     20.58709    21.323445    7672.7441    3319.9869    2715.0254    3054.8983    1182.8248    918.64918   -1047.1525   -3222.0103 
 1625000    240.85508   -3950.4238   -3537.6065   -3950.4238            0    2873.9589    17.458363    20.563646    21.299162    7646.5608    3765.9274    3138.6356    1717.3138   -16.605785      -128.63   -345.21264   -3217.1105 
 1626000     240.7004   -3997.3328   -3584.7805   -3997.3328            0    3930.8868    17.455369    20.560119     21.29551    7642.6277    3441.0887    4386.7557    3964.8159   -1147.8672   -274.48744    177.71959   -3146.6444 
 1627000    244.33944   -3995.2165   -3576.4271   -3995.2165            0    3821.4426    17.440999    20.543194    21.277979    7623.7684    5437.9661    4250.1218    1776.2398   -180.30747    805.97761   -953.67223   -3151.5406 
 1628000    232.63672   -3971.8068   -3573.0755   -3971.8068            0    3840.0699     17.47892    20.587859    21.324241    7673.6036    3193.0364    4857.1911    3469.9823   -547.51363   -1094.2688   -256.16398    -3143.327 
 1629000    241.09956   -3947.7746   -3534.5382   -3947.7746            0     4670.787    17.437979    20.539636    21.274294    7619.8085    4288.5026    3878.3744    5845.4842    1613.8727    81.748725    37.093268   -3015.4873 
 1630000    235.18284   -3990.8601   -3587.7648   -3990.8601            0    3555.8213    17.425568    20.525018    21.259152    7603.5504    3752.9986    1896.1129    5018.3523    595.54795   -1057.0876    293.21272   -3193.4598 
 1631000     230.0542   -3994.9372   -3600.6322   -3994.9372            0    5112.6053    17.422563    20.521478    21.255487    7599.6178    4107.6889    5621.7282    5608.3988   -33.855417    476.01502   -363.83367   -3033.9887 
 1632000    240.55594   -3964.2775   -3551.9729   -3964.2775            0    5646.1985    17.450618    20.554523    21.289713    7636.3886    5683.4847      5044.35    6210.7608    1327.4734   -434.79851   -584.58054    -2923.162 
 1633000    236.12442   -3986.5167   -3581.8076   -3986.5167            0    4505.4613    17.404567    20.500281    21.233531    7576.0928    5201.5307    5305.3601    3009.4931   -1110.1836    1381.9221   -293.95195   -3084.0012 
 1634000    236.31159    -3992.214    -3587.184    -3992.214            0    3879.1682    17.408167    20.504521    21.237923    7580.7939    3037.6662    5099.4092    3500.4291    435.12119    1376.5011    503.47244   -3158.3105 
 1635000    235.37207   -4009.3168   -3605.8972   -4009.3168            0    3461.3333    17.391291    20.484644    21.217335    7558.7693    3071.8389    4899.5038    2412.6573    150.69436    205.65785   -1098.5194   -3224.3305 
 1636000    241.44917   -3981.7029   -3567.8673   -3981.7029            0    2600.6691    17.498229    20.610603    21.347799    7699.0632    4974.3293    1650.2009    1177.4772    391.16603    719.67971   -114.40303   -3275.8565 
 1637000    228.59598   -3996.6186   -3604.8129   -3996.6186            0    3257.9635    17.507051    20.620994    21.358561    7710.7137      4802.66    1695.5122    3275.7184    279.60394    56.581018   -533.31005   -3238.4456 
 1638000     244.6698    -4004.699   -3585.3433    -4004.699            0    3205.3522    17.536004    20.655096    21.393883    7749.0321    4232.9991    2714.7128    2668.3446     38.87261    285.41939   -1059.3088   -3223.1011 
 1639000    228.13803   -4014.1866   -3623.1658   -4014.1866            0     2722.076    17.502248    20.615336    21.352701     7704.369    1934.6338    2879.3761     3352.218     159.0594   -1431.9199   -702.77245   -3317.3125 
 1640000    238.99157   -3994.5536   -3584.9302   -3994.5536            0    2644.1225    17.474223    20.582326    21.318511    7667.4187      3325.04    2130.1179    2477.2095    438.51758    469.45131   -974.58224   -3289.2606 
 1641000    230.79662   -3996.4349   -3600.8573   -3996.4349            0    1592.5309    17.475358    20.583663    21.319895    7668.9128    2221.1695    1023.8427    1532.5805    2079.1716   -756.30592   -340.10887   -3422.7435 
 1642000    225.60028   -3977.4906   -3590.8195   -3977.4906            0     2899.266    17.459637    20.565146    21.300716    7648.2343    3279.9004     1810.435    3607.4624    381.46575    653.70935    183.95875   -3267.4305 
 1643000    237.73848    -3993.879   -3586.4034    -3993.879            0    4505.5053    17.397571    20.492041    21.224996    7566.9602    4065.9236    3703.3125    5747.2799   -121.87567   -699.42305    1069.5157   -3089.1923 
 1644000     233.4431   -3985.1197   -3585.0062   -3985.1197            0    3918.1723    17.401938    20.497184    21.230323    7572.6592    3232.2344    4438.6518    4083.6309   -1010.4696   -381.85063   -1316.2661   -3152.2853 
 1645000    244.67892   -3958.5014   -3539.1301   -3958.5014            0    5546.1361    17.406226    20.502236    21.235556    7578.2596    3376.0792     6727.187     6535.142    518.57915    -1835.182   -872.03074   -2926.1648 
 1646000    232.14127   -3981.3591   -3583.4769   -3981.3591            0    1851.6022    17.521055    20.637488    21.375646    7729.2318    953.22167    2726.5578    1875.0272    21.039385    940.05074   -551.93509   -3374.7589 
 1647000    225.74191    -3966.808   -3579.8941    -3966.808            0    3878.9014    17.345238    20.430399     21.16115    7498.8793    1404.0599     5324.193    4908.4512   -642.11064   -924.91595    402.01141    -3155.684 
 1648000    227.36482   -3984.3022   -3594.6066   -3984.3022            0    3184.1253    17.410661    20.507458    21.240965    7584.0525    2567.4851      3404.16    3580.7307    1327.9845   -309.00701    745.47921   -3242.4245 
 1649000     247.0473   -3973.5226   -3550.0919   -3973.5226            0    2442.7011    17.582969    20.710415    21.451181    7811.4604    2351.7992    2625.5119    2350.7921   -349.70284    1256.1396   -493.43708   -3271.8142 
 1650000    241.02362   -3994.3905   -3581.2843   -3994.3905            0    3396.1646    17.353121    20.439684    21.170767    7509.1081    2169.1272    4503.3955     3515.971   -856.26543    187.60725    770.87914   -3209.3613 
 1651000    234.91119   -3957.9033   -3555.2735   -3957.9033            0    2830.0326    17.462609    20.568647    21.304342    7652.1414    2446.2015    3478.2636    2565.6327   -1202.8093    319.99509   -1061.1851   -3239.4458 
 1652000    226.26356   -4004.8675   -3617.0595   -4004.8675            0    1806.8226    17.477376     20.58604    21.322358    7671.5701     1905.098    2669.5685    845.80132   -920.19166   -129.79843    873.82575   -3414.9086 
 1653000    229.76768   -3980.1491   -3586.3352   -3980.1491            0    2832.3652    17.492328    20.603651    21.340599    7691.2761    2540.9891    2951.4613    3004.6451    541.39229    1633.3746   -252.98484   -3268.6306 
 1654000    231.45135   -4013.0457    -3616.346   -4013.0457            0    2569.3364    17.482974    20.592635    21.329188     7678.945    1532.2059    3314.4593    2861.3439     270.7633   -88.318348    1150.9988   -3328.6072 
 1655000    238.50118   -3999.2083   -3590.4254   -3999.2083            0     3297.119    17.484514    20.594449    21.331067    7680.9744    2914.2017    2643.6255    4333.5298   -831.38192   -757.55707    1286.8195    -3221.085 
 1656000    229.69555   -4017.9732   -3624.2829   -4017.9732            0    4626.6569      17.4315    20.532004    21.266389    7611.3179    3024.3312    3744.3971    7111.2425    846.77853    201.43573   -424.24041   -3110.7089 
 1657000    228.93944   -4000.2637   -3607.8694   -4000.2637            0    3463.5365    17.468608    20.575713    21.311661    7660.0301    2070.5027    3114.2804    5205.8262    1793.8377   -481.42442   -594.00053    -3220.945 
 1658000    246.02063   -4006.2431   -3584.5722   -4006.2431            0     6249.193    17.358241    20.445715    21.177014    7515.7571    4153.8872    7834.2566    6759.4352    1199.9424    122.22776    177.49915   -2899.6006 
 1659000    229.11402   -3975.9788   -3583.2852   -3975.9788            0    5156.7325     17.42754     20.52734    21.261558    7606.1314    4312.5798    4363.1116     6794.506   -246.77106    172.37307   -1250.7044   -3011.2611 
 1660000    247.06505   -3980.4048   -3556.9437   -3980.4048            0    3899.8732    17.422129    20.520967    21.254957    7599.0496    4217.1894    3354.8685    4127.5617   -834.65564    988.60767   -211.73239   -3124.7429 
 1661000    224.21727   -3997.2838    -3612.983   -3997.2838            0    3504.5662    17.439333    20.541231    21.275945    7621.5831    3420.1089    4104.1495    2989.4402    642.33764   -161.37342    447.36837   -3223.4401 
 1662000    241.70071   -3991.1485   -3576.8817   -3991.1485            0    2991.3868    17.372048    20.461978    21.193858    7533.7062    2635.9715    2740.8457     3597.343   -175.08373    463.13421   -86.729708   -3248.2139 
 1663000     241.1996   -3974.0088    -3560.601   -3974.0088            0    3287.8377    17.429667    20.529846    21.264153    7608.9175     2742.707    3011.2555    4109.5504   -139.48323    -486.5029   -244.90404   -3195.7554 
 1664000    235.84647   -3983.2126   -3578.9798   -3983.2126            0    3315.2324    17.460022      20.5656    21.301186    7648.7409    1748.0101    3080.0209    5117.6661    2029.6333    941.86919    242.66181   -3209.1688 
 1665000     231.1691   -3975.9557   -3579.7398   -3975.9557            0    2562.1115    17.472794    20.580643    21.316767    7665.5378    2316.3127    2048.2164    3321.8055    487.58945   -1385.6781   -327.39687   -3293.3111 
 1666000    248.95806   -3969.7671   -3543.0615   -3969.7671            0    4154.6778    17.349196    20.435061    21.165979    7504.0144    3288.8752    2776.1385    6399.0198    550.67435    -1596.068    590.29698   -3088.3804 
 1667000    222.72639   -3992.1404    -3610.395   -3992.1404            0    4567.7248    17.334429    20.417668    21.147963    7484.8692    5067.6199     3564.458    5071.0965   -418.24341    43.691743    1186.8621   -3111.7861 
 1668000    244.33101   -3953.3122   -3534.5372   -3953.3122            0    2494.7131    17.436985    20.538465    21.273081    7618.5049    2187.1817     2867.225    2429.7326    610.98564    323.78501    123.88318   -3257.3545 
 1669000    233.01111   -3940.5919   -3541.2188   -3940.5919            0    3093.0467    17.406671    20.502759    21.236098    7578.8398    3015.3579     3645.216    2618.5663   -1034.6301    2087.8372    645.81717   -3199.3455 
 1670000    235.88165   -3985.1204   -3580.8274   -3985.1204            0    3884.2217    17.460661    20.566352    21.301966    7649.5808     3357.314    4338.6496    3956.7016     992.6273   -1075.8603    506.53885   -3147.4986 
 1671000    239.68497   -3987.7676   -3576.9557   -3987.7676            0    4582.5052    17.418933    20.517202    21.251057    7594.8678    4710.4204    5221.8626    3815.2328   -194.07867   -270.26278   -76.411196   -3069.3821 
 1672000    238.46056   -3981.4355   -3572.7222   -3981.4355            0    5425.6322    17.335289    20.418681    21.149012    7485.9831    4294.8968    5962.9383    6019.0616   -475.74982    482.97965    1484.4512   -2980.3768 
 1673000    228.84937   -3965.8598   -3573.6198   -3965.8598            0     4045.443    17.310791    20.389825    21.119124    7454.2906     3676.781    4358.5286    4101.0196   -518.12671    106.45782     753.6936   -3133.8268 
 1674000     224.7866   -3958.1287   -3572.8521   -3958.1287            0    1332.2925    17.424148    20.523345     21.25742    7601.6919    1661.5939   -255.62714    2590.9107   -482.01485   -342.12393    417.62753   -3425.1504 
 1675000    244.08543   -3963.4725   -3545.1184   -3963.4725            0    3022.4618    17.325989    20.407727    21.137666    7473.9415    2340.3781    3553.3885    3173.6188   -564.12314    1849.0883     1986.719   -3215.6707 
 1676000     228.0506   -3968.8897   -3578.0188   -3968.8897            0    5247.6176     17.28769    20.362615    21.090941    7424.4872    4772.1587     6074.313    4896.3812    365.73594   -745.88327    578.67749   -3009.8145 
 1677000    237.61992   -3942.8325   -3535.5601   -3942.8325            0    2648.9872    17.354916    20.441798    21.172957    7511.4384    3422.5589    3166.1101    1358.2926    480.96684    1095.8454    920.95273   -3245.3725 
 1678000    241.92058   -3972.8837   -3558.2401   -3972.8837            0    3731.0195    17.364926    20.453589    21.185169    7524.4436    3683.2392    4093.7317    3416.0877    225.33695   -223.45683    1197.2716   -3148.8119 
 1679000    232.18107   -3972.3136   -3574.3632   -3972.3136            0    3445.1081    17.273907    20.346381    21.074127    7406.7443     4425.063    3893.0142     2017.247    186.82195    221.42364    689.23778   -3202.2234 
 1680000    236.41676   -3981.3933    -3576.183   -3981.3933            0    3756.7757    17.362599    20.450848     21.18233    7521.4188    4577.8077    4490.4734    2202.0459    1338.1281   -459.02411    958.25473   -3164.0941 
 1681000    246.60641   -3978.9656   -3556.2906   -3978.9656            0    3472.1204    17.403053    20.498497    21.231683    7574.1148    3639.5852    3674.1552    3102.6207   -2161.0924    125.33825   -307.64061   -3172.7578 
 1682000    245.18665   -3959.1102   -3538.8687   -3959.1102            0    4410.6234    17.400902    20.495964     21.22906    7571.3074    4701.5548    4598.1529    3932.1626    457.75267    589.30337   -464.51245   -3051.8487 
 1683000    231.72039    -3967.542   -3570.3812    -3967.542            0    3466.0991    17.348349    20.434064    21.164946    7502.9159    5656.5436    2058.0278    2683.7258    218.45298   -443.32368    576.44791   -3191.1125 
 1684000    237.50648   -3980.5669    -3573.489   -3980.5669            0    2315.9086     17.39812    20.492688    21.225666    7567.6768    3428.6868    1904.5595    1614.4795   -1616.3294    2235.3765   -160.46216   -3317.8895 
 1685000    232.90394   -3922.8563   -3523.6669   -3922.8563            0    4620.2676    17.322467    20.403578     21.13337    7469.3848    3187.4021     4407.719    6265.6817   -787.64515    433.46935    -11.34048   -3020.3658 
 1686000    238.30787   -3939.4084   -3530.9569   -3939.4084            0    3602.7561    17.408114    20.504458    21.237858    7580.7247    3830.7716    5246.8765      1730.62   -2063.5439     -558.956   -141.38494   -3132.6466 
 1687000    236.43554   -3972.7251   -3567.4827   -3972.7251            0    3899.8507    17.369103    20.458509    21.190265     7529.875    4501.2929    2704.4404    4493.8189   -2367.3194    73.438886    1080.4192   -3139.2186 
 1688000    254.71133   -3956.7035    -3520.137   -3956.7035            0    4547.9928    17.330052    20.412512    21.142623    7479.2005    5073.0947    3179.0596    5391.8242   -556.42424    1428.8657    1725.2713    -3024.058 
 1689000    227.12338   -3967.0905   -3577.8088   -3967.0905            0    4377.9008    17.379975    20.471315    21.203529    7544.0232    3824.8572     4065.583     5243.262    41.489521    533.44204    626.84675   -3096.1441 
 1690000    245.84135   -3931.0417    -3509.678   -3931.0417            0    3453.6059    17.413465    20.510761    21.244386    7587.7176    4503.9568    2815.2462    3041.6149   -699.25302    1083.9666    5.1725358   -3127.5052 
 1691000    230.88685   -3930.9472    -3535.215   -3930.9472            0    5143.4021     17.41555    20.513218    21.246931    7590.4441    4985.6337    5255.5031    5189.0694   -866.57837   -249.97495     831.4632   -2965.8464 
 1692000    236.58737   -3924.1939   -3518.6913   -3924.1939            0      3407.42    17.400152    20.495081    21.228145    7570.3289    3760.6618    2303.9071    4157.6911    993.02386    470.70963    621.71658   -3142.4934 
 1693000    238.89356   -3941.0965   -3531.6411   -3941.0965            0    4442.1417     17.37197    20.461886    21.193763    7533.6047    4298.6243    4793.2687     4234.532   -1365.4945    262.29006    933.48776   -3043.5834 
 1694000    235.74658   -3923.4682   -3519.4066   -3923.4682            0    2709.9364    17.421511    20.520239    21.254202    7598.2404    2549.9593    2836.9975    2742.8525   -421.48976   -458.79118   -654.12929   -3219.1117 
 1695000    242.49049   -3956.0629   -3540.4425   -3956.0629            0     3623.867    17.367711    20.456869    21.188567    7528.0644     2728.851    2948.2519     5194.498    118.78967    1313.4958      380.325   -3142.5814 
 1696000    230.46631   -3939.7232   -3544.7118   -3939.7232            0     2253.147    17.456008    20.560871    21.296288    7643.4662    2743.9754    1561.2036    2454.2622   -280.71147   -511.21093    507.56072   -3293.5487 
 1697000    241.81323   -3966.4701   -3552.0105   -3966.4701            0    3546.4579    17.374714    20.465118    21.197111    7537.1749    2681.1169    5610.6713    2347.5856    1479.8784    537.72391     927.2981   -3162.1769 
 1698000    240.61323   -3965.4985   -3553.0956   -3965.4985            0    4230.8503     17.33229    20.415148    21.145353    7482.0988    3346.1474    5118.5121    4227.8914    -141.2436    892.44521   -32.207108   -3091.4306 
 1699000    239.42279   -3955.9799   -3545.6174   -3955.9799            0    3595.4929    17.439308    20.541201    21.275915    7621.5505    3367.1975    4187.0724    3232.2087    1291.0995    880.03519   -469.63459   -3145.9694 
 1700000    241.06214   -3973.8247   -3560.6525   -3973.8247            0     4090.383    17.375002    20.465457    21.197462    7537.5497    4304.7983    3549.0303    4417.3205      464.575   -51.271379   -861.35473   -3111.0072 
 1701000    234.74559   -3965.5567   -3563.2108   -3965.5567            0    3365.6379     17.48249    20.592064    21.328597    7678.3065     2933.352    4543.6686    2619.8933   -798.63326   -120.43023    329.41903   -3186.3259 
 1702000    230.32229   -3955.3843   -3560.6198   -3955.3843            0    4396.4688     17.42254     20.52145    21.255458    7599.5867    4377.8828    3838.7255     4972.798   -40.968511   -38.880946   -1286.9274   -3073.3496 
 1703000     228.8627   -3997.6129     -3605.35   -3997.6129            0    3705.1712    17.410541    20.507317    21.240819    7583.8957    4880.9771    2884.4334     3350.103   -2.0704586     276.3301     -709.847   -3195.5457 
 1704000    226.79117   -3998.3085   -3609.5962   -3998.3085            0    5172.5004    17.283061    20.357163    21.085295    7418.5258    6779.8565    4431.9849    4305.6598    1215.1599    546.80933    241.81782   -3049.9752 
 1705000    226.08064   -3990.9938   -3603.4994   -3990.9938            0    4337.4479    17.310958    20.390022    21.119328    7454.5061    5409.0865    3860.8134    3742.4436   -166.09759   -1470.6038   -1370.2035    -3131.948 
 1706000    231.29306   -4001.8167   -3605.3883   -4001.8167            0    2730.1006    17.429351    20.529473    21.263768    7608.5035    2057.5358    4871.1113    1261.6547    55.265935   -1563.8219   -112.21471   -3302.4503 
 1707000    241.06151   -3999.5604   -3586.3892   -3999.5604            0    2506.5732    17.406394    20.502433     21.23576    7578.4784    2113.8971     1556.361    3849.4614    834.42633   -1134.3065    750.80864   -3309.3518 
 1708000    230.79401   -3960.9874   -3565.4144   -3960.9874            0    3791.4571    17.382163    20.473892    21.206198    7546.8731     1309.821    5973.2929    4091.2574    153.56913   -658.17996    300.65525   -3148.1137 
 1709000    232.11861   -3972.6632   -3574.8199   -3972.6632            0    3485.2798    17.382206    20.473942     21.20625    7546.9285    3009.3525     2309.613    5136.8741   -1570.0027   -171.01439    334.76443   -3191.2153 
 1710000    238.15876    -3932.414   -3524.2181    -3932.414            0    3975.2248    17.346315    20.431668    21.162464    7500.2767     3813.424    4118.7512     3993.499     369.4881    1809.8729    700.64048   -3089.3927 
 1711000    243.75207   -3978.3394   -3560.5567   -3978.3394            0    3758.7207    17.284877    20.359302     21.08751    7420.8642    3276.6713    2215.7894    5783.7015   -391.32291   -108.41725    1501.6287   -3153.7666 
 1712000    238.91158   -3955.4399   -3545.9536   -3955.4399            0    2798.6485    17.271228    20.343226    21.070858    7403.2987    2850.7222    1718.4261    3826.7973   -320.70942    560.30603    404.07041   -3243.7849 
 1713000    238.35744   -3928.2871   -3519.7506   -3928.2871            0    3254.4163    17.379035    20.470208    21.202383       7542.8    2888.2443    4433.0682    2441.9365   -834.61841   -1161.4432    515.50674   -3161.7518 
 1714000    226.40033   -3936.3369   -3548.2945   -3936.3369            0    4195.5091    17.352083    20.438461      21.1695    7507.7604    4426.5495    3244.2965    4915.6812   -334.24671    1118.4059   -59.087236   -3088.9157 
 1715000    226.81721   -3995.7444   -3606.9875   -3995.7444            0    2780.4453    17.358637    20.446181    21.177496    7516.2709    5127.8547    742.61446    2470.8668    1396.0059    297.60824     248.6217   -3302.2031 
 1716000    229.53654   -3963.9591   -3570.5413   -3963.9591            0    3351.7526    17.411656    20.508631     21.24218    7585.3538    3332.3977     4151.278    2571.5822    316.54025    592.09843   -1281.7042    -3199.755 
 1717000    229.02656   -3984.2525   -3591.7088   -3984.2525            0     3180.162    17.377817    20.468773    21.200896    7541.2133     2922.969    4414.3364    2203.1805   -781.72468   -178.92367    24.178135   -3241.9518 
 1718000    236.35739    -3951.903   -3546.7945    -3951.903            0    2856.6633    17.402129    20.497409    21.230556    7572.9088    3764.4212    3084.9759    1720.5927   -377.19752   -129.08646    739.00178   -3231.2957 
 1719000    240.75211   -3947.0449    -3534.404   -3947.0449            0     4926.368    17.363198    20.451553    21.183061    7522.1972      4312.75    5228.4118    5237.9422    189.40004   -643.89661    816.80539   -2993.9641 
 1720000    233.50262   -3988.8275    -3588.612   -3988.8275            0    5583.9007    17.354277    20.441047    21.172178    7510.6098    5645.7006    6005.0866    5100.9149   -366.78957    1614.8475   -426.16453    -2976.982 
 1721000    232.17726   -3964.9717   -3567.0278   -3964.9717            0    2956.4021    17.366271    20.455173     21.18681    7526.1921    3225.3698    3495.2963    2148.5401   -283.87957    600.08587    551.62994   -3242.5279 
 1722000    232.46155   -3992.6285   -3594.1974   -3992.6285            0    3655.6612     17.44293    20.545467    21.280334    7626.3001    5034.5082     2737.132    3195.3433    1307.2224   -521.44642   -925.98882   -3187.6083 
 1723000    232.80395   -3974.5331   -3575.5151   -3974.5331            0    2279.1979    17.389616     20.48267     21.21529    7556.5843    2730.2598    810.11845    3297.2154    678.96467   -1677.5452    906.83837   -3324.3361 
 1724000    250.06334   -3998.8436   -3570.2436   -3998.8436            0    1468.5231    17.395309    20.489376    21.222236    7564.0086    1663.3161    1121.6222     1620.631   -809.46085    584.35039    331.75903    -3408.246 
 1725000    232.22908   -3981.5002   -3583.4675   -3981.5002            0    2869.2622      17.4333    20.534124    21.268585    7613.6757    2672.5786     1707.491    4227.7171    115.41905     1132.887    751.24782   -3264.8713 
 1726000    237.93394   -3977.0442   -3569.2335   -3977.0442            0    4116.9224    17.397922    20.492454    21.225424    7567.4182    5790.2785    2368.5938    4191.8949   -95.248081    162.95646   -571.21925   -3114.8775 
 1727000    259.92228   -3962.5143   -3517.0164   -3962.5143            0    4555.9287    17.339144    20.423221    21.153715    7490.9787    3065.3204    6240.3498    4362.1159   -765.63153    276.09086   -301.14807   -3019.2892 
 1728000    245.10933   -3974.1354   -3554.0264   -3974.1354            0    5257.8086    17.325132    20.406717    21.136621    7472.8326    5973.1023    4439.0221    5361.3014    495.60966    134.04192    -916.0509   -2981.0115 
 1729000    252.00925   -4004.5925   -3572.6573   -4004.5925            0    5210.4547     17.33639    20.419977    21.150355    7487.4096    5154.0876    4409.5004     6067.776   -1130.2704    460.77844    380.43856   -3003.6955 
 1730000    248.12299    -3986.712   -3561.4377    -3986.712            0    3295.7329    17.342155    20.426768    21.157388    7494.8813    1871.0083     2681.719    5334.4714    323.19171   -276.15789    1339.3597   -3201.1971 
 1731000    245.97554   -3999.7365   -3578.1429   -3999.7365            0    5263.4783    17.340553    20.424881    21.155435    7492.8054    6612.4136    4140.0692    5037.9522   -665.47001    193.32654    878.18551   -3002.9769 
 1732000    250.20211   -4023.5416   -3594.7037   -4023.5416            0    4259.0364    17.377419    20.468304    21.200411    7540.6958    3242.6791    3107.5083    6426.9219   -257.86105   -521.84167    46.395608   -3126.3234 
 1733000    241.38878   -3996.7009   -3582.9688   -3996.7009            0    2984.3181    17.365257     20.45398    21.185574    7524.8747    4051.3061    1974.1082    2927.5399    395.94999   -283.92671   -504.94818    -3255.462 
 1734000    238.49439   -3975.0091   -3566.2379   -3975.0091            0    3534.5177    17.441931    20.544291    21.279115    7624.9901    4996.9026    2297.0637    3309.5868     618.9453    1697.9357   -214.14434   -3173.1901 
 1735000    237.17857   -4009.0127   -3602.4967   -4009.0127            0    2946.4327    17.466928    20.573735    21.309612     7657.821    3170.0489    2307.6265    3361.6226    876.18107   -707.19454   -1055.5375   -3273.4348 
 1736000    245.48422    -3993.604   -3572.8524    -3993.604            0    4322.9653     17.34652    20.431909    21.162714    7500.5424    5555.8429    5378.3053    2034.7476   -183.10429   -5.8151446    319.79983   -3099.9731 
 1737000    245.52267    -4016.945   -3596.1276    -4016.945            0    3385.5693    17.370634    20.460312    21.192132    7531.8657    3191.2909    3934.1651     3031.252    1011.0182   -4.7912364   -1103.7144   -3224.2413 
 1738000      236.989    -3980.249    -3574.058    -3980.249            0     4411.243    17.393004    20.486661    21.219424    7561.0024    3602.5833    6063.8257    3567.3198   -176.91398   -42.183345   -261.29457   -3087.6326 
 1739000      235.746   -3974.3306   -3570.2701   -3974.3306            0      4231.04    17.357945    20.445367    21.176653    7515.3729    3675.5917    5500.1277    3517.4006    334.24835   -774.14389    317.24286   -3106.5311 
 1740000    237.39757   -3969.4347   -3562.5434   -3969.4347            0    3221.8609    17.329636    20.412022    21.142116    7478.6624    4057.7037    2292.6303    3315.2486    -1560.624    135.93525   -949.76138   -3211.1395 
 1741000    223.80074   -3982.5376   -3598.9507   -3982.5376            0    1385.6591    17.383059    20.474947    21.207291      7548.04    291.74004     1573.541    2291.6964    78.581384   -673.30056    863.91926   -3446.4168 
 1742000    245.80077   -3988.3946   -3567.1005   -3988.3946            0    3349.8705    17.342918    20.427667     21.15832    7495.8711    2361.7457    3554.4048    4133.4611   -969.64741   -457.62726   -799.51043    -3200.894 
 1743000    251.16872    -3978.872   -3548.3774    -3978.872            0     2111.949    17.317147    20.397312    21.126879    7462.5046    1744.4305    3685.0328    906.38353   -613.50245    163.16263   -238.69435   -3318.5277 
 1744000    227.80357   -3957.6067   -3567.1592   -3957.6067            0    2872.2645     17.35869    20.446244    21.177561    7516.3403    1234.5854    4585.7424    2796.4656   -216.14198   -244.97644   -1293.7618    -3252.307 
 1745000    243.35175    -3969.711   -3552.6145    -3969.711            0    2280.5234    17.394317    20.488207    21.221026    7562.7145   -71.806045    3789.4453     3123.931    537.64073    200.50162    616.44773   -3301.0854 
 1746000    225.22981   -3970.1151    -3584.079   -3970.1151            0    3052.5769     17.34214     20.42675     21.15737     7494.862    846.61376    3417.7567    4893.3604    -644.6833     716.5977   -259.52058   -3250.4174 
 1747000    237.10473   -3985.6274    -3579.238   -3985.6274            0    3526.4878    17.384028    20.476089    21.208474     7549.303    3647.6388    2523.1719    4408.6528    534.15949    991.81945   -330.53202   -3190.9758 
 1748000    248.91874   -3968.3634   -3541.7252   -3968.3634            0    3971.0788    17.408602    20.505034    21.238454    7581.3626    5084.7751    2209.3989    4619.0624   -563.39038    268.58272   -802.34573   -3102.6574 
 1749000    236.80306   -3981.6867   -3575.8143   -3981.6867            0    3211.3179    17.335187     20.41856    21.148887    7485.8505     2988.341    4338.9908    2306.6219    481.97708   -202.56449   -899.51805   -3225.2237 
 1750000    250.69333   -3944.1455   -3514.4658   -3944.1455            0    4686.2975    17.366794    20.455789    21.187448    7526.8723    3623.2564    6020.1393    4415.4967   -644.85684    1206.4918   -905.21644   -3000.0429 
Loop time of 511.257 on 64 procs for 250000 steps with 864 atoms

Performance: 84.498 ns/day, 0.284 hours/ns, 488.991 timesteps/s
99.0% CPU use with 64 MPI tasks x 1 OpenMP threads

MPI task timing breakdown:
Section |  min time  |  avg time  |  max time  |%varavg| %total
---------------------------------------------------------------
Pair    | 20.634     | 24.878     | 30.09      |  48.9 |  4.87
Bond    | 0.27075    | 0.28169    | 0.29398    |   1.0 |  0.06
Kspace  | 223.7      | 237.78     | 251.07     |  39.1 | 46.51
Neigh   | 4.0051     | 5.1425     | 5.9745     |  21.8 |  1.01
Comm    | 105.92     | 116.79     | 130.26     |  52.0 | 22.84
Output  | 0.99745    | 0.99935    | 1.0052     |   0.1 |  0.20
Modify  | 115.54     | 118.3      | 122.68     |  14.1 | 23.14
Other   |            | 7.087      |            |       |  1.39

Nlocal:        13.5000 ave          20 max           9 min
Histogram: 7 8 8 9 10 7 7 6 0 2
Nghost:        2149.66 ave        2209 max        2097 min
Histogram: 4 1 10 8 14 11 6 5 3 2
Neighs:        4099.58 ave        6013 max        2304 min
Histogram: 2 4 4 11 14 11 7 6 3 2

Total # of neighbors = 262373
Ave neighs/atom = 303.67245
Ave special neighs/atom = 2.0000000
Neighbor list builds = 11039
Dangerous builds = 0

unfix		3
unfix		2
unfix		1

write_data	data.final.${pid}
write_data	data.final.0
System init for write_data ...
PPPM initialization ...
  extracting TIP4P info from pair style
  using 12-bit tables for long-range coulomb (../kspace.cpp:340)
  G vector (1/distance) = 0.3739423
  grid = 24 24 25
  stencil order = 5
  estimated absolute RMS force accuracy = 0.0031074781
  estimated relative force accuracy = 9.3580781e-06
  using double precision FFTW3
  3d grid and FFT values/proc = 2730 288
Last active /omp style is kspace_style pppm/tip4p/omp
WARNING: Not all mixed pair coeffs generated from mixing. Use write_data with 'pair ij' option to store all pair coeffs. (../write_data.cpp:312)

write_restart   restart.lmp.${pid}
write_restart   restart.lmp.0
System init for write_restart ...
PPPM initialization ...
  extracting TIP4P info from pair style
  using 12-bit tables for long-range coulomb (../kspace.cpp:340)
  G vector (1/distance) = 0.3739423
  grid = 24 24 25
  stencil order = 5
  estimated absolute RMS force accuracy = 0.0031074781
  estimated relative force accuracy = 9.3580781e-06
  using double precision FFTW3
  3d grid and FFT values/proc = 2730 288
Last active /omp style is kspace_style pppm/tip4p/omp
Total wall time: 0:08:36
