#include		in.partitions
include		in.temp
variable        temperature equal 150.22
variable	tempDamp equal 100.0
include		in.pressure
variable        pressure equal 1868.7
variable        pressureDamp equal 1000.0 # This is 1 ps
include		in.seed
variable        seed equal 745823

units		real
atom_style	full
#include		in.box
read_restart	restart.lmp.${pid}
read_restart	restart.lmp.0
Reading restart file ...
  restart file = 30 Jul 2021, LAMMPS = 30 Jul 2021
  restoring atom style full from restart
  orthogonal box = (0.16254399 0.16811700 0.076283827) to (18.045028 23.461061 22.136912)
  2 by 4 by 4 MPI processor grid
  restoring pair style lj/cut/tip4p/long/omp from restart
  restoring bond style harmonic/omp from restart
  restoring angle style harmonic/omp from restart
  864 atoms
  576 bonds
  288 angles
Finding 1-2 1-3 1-4 neighbors ...
  special bond factors lj:    0        0        0       
  special bond factors coul:  0        0        0       
     2 = max # of 1-2 neighbors
     1 = max # of 1-3 neighbors
     1 = max # of 1-4 neighbors
     2 = max # of special neighbors
  special bonds CPU = 0.002 seconds
  read_restart CPU = 0.008 seconds
include 	in.setup
variable	out_freq equal 1000
variable	out_freq2 equal 10000
variable	out_freq3 equal 1000

timestep	2.0

neigh_modify    delay 7 every 1

include		in.tip4p
# This is TIP4P/Ice

# create groups ###
group ox type 2
288 atoms in group ox
group hy type 1
576 atoms in group hy

# set charges - beside manually ###
set group ox charge -1.1794
Setting atom values ...
  288 settings made for charge
set group hy charge 0.5897
Setting atom values ...
  576 settings made for charge

# ### TIP3P Potential Parameters ###
pair_style lj/cut/tip4p/long/omp 2 1 1 1 0.1577 8.5
pair_coeff 1 1*2 0.000 0.000
pair_coeff 2 2 0.21084 3.1668
bond_style  harmonic
bond_coeff  1 450 0.9572
angle_style harmonic
angle_coeff 1 55 104.52
kspace_style pppm/tip4p/omp 1.0e-5
pair_modify tail yes

thermo          ${out_freq}
thermo          1000
thermo_style    custom step temp pe etotal epair emol press lx ly lz vol pxx pyy pzz pxy pxz pyz enthalpy

restart 	${out_freq3} restart.lmp.${pid} restart2.lmp.${pid}
restart 	1000 restart.lmp.${pid} restart2.lmp.${pid}
restart 	1000 restart.lmp.0 restart2.lmp.${pid}
restart 	1000 restart.lmp.0 restart2.lmp.0


include         in.dump
dump            myDump all atom ${out_freq2} dump.water.${pid}
dump            myDump all atom 10000 dump.water.${pid}
dump            myDump all atom 10000 dump.water.0
dump            myDump2 all dcd ${out_freq2} dump.dcd
dump            myDump2 all dcd 10000 dump.dcd
dump_modify     myDump append yes
dump_modify     myDump2 append yes


variable natoms 	equal  "count(all)"                        # NUMBER ATOMS
variable H      	equal  "enthalpy/v_natoms"                 # ENTHALPY-per-atom
variable Vol      	equal  "vol/v_natoms"                 # volume-per-atom
fix AVG all 		ave/time ${out_freq} 1 ${out_freq} v_Vol v_H file vol_enthalpy.dat
fix AVG all 		ave/time 1000 1 ${out_freq} v_Vol v_H file vol_enthalpy.dat
fix AVG all 		ave/time 1000 1 1000 v_Vol v_H file vol_enthalpy.dat


timer           timeout 23:50:00 every 1000
New timer settings: style=normal  mode=nosync  timeout=23:50:00

fix 		1 all shake 1e-6 200 0 b 1 a 1
       0 = # of size 2 clusters
       0 = # of size 3 clusters
       0 = # of size 4 clusters
     288 = # of frozen angles
  find clusters CPU = 0.001 seconds
fix             2 all nph aniso ${pressure} ${pressure} ${pressureDamp}
fix             2 all nph aniso 1868.7 ${pressure} ${pressureDamp}
fix             2 all nph aniso 1868.7 1868.7 ${pressureDamp}
fix             2 all nph aniso 1868.7 1868.7 1000
fix             3 all temp/csvr ${temperature} ${temperature} ${tempDamp} ${seed}
fix             3 all temp/csvr 150.22 ${temperature} ${tempDamp} ${seed}
fix             3 all temp/csvr 150.22 150.22 ${tempDamp} ${seed}
fix             3 all temp/csvr 150.22 150.22 100 ${seed}
fix             3 all temp/csvr 150.22 150.22 100 745823


run             250000
PPPM initialization ...
  extracting TIP4P info from pair style
  using 12-bit tables for long-range coulomb (../kspace.cpp:340)
  G vector (1/distance) = 0.37185373
  grid = 24 27 25
  stencil order = 5
  estimated absolute RMS force accuracy = 0.0031476369
  estimated relative force accuracy = 9.479015e-06
  using double precision FFTW3
  3d grid and FFT values/proc = 4410 672
Last active /omp style is kspace_style pppm/tip4p/omp
Neighbor list info ...
  update every 1 steps, delay 7 steps, check yes
  max neighbors/atom: 2000, page size: 100000
  master list distance cutoff = 10.8154
  ghost atom cutoff = 10.8154
  binsize = 5.4077, bins = 4 5 5
  1 neighbor lists, perpetual/occasional/extra = 1 0 0
  (1) pair lj/cut/tip4p/long/omp, perpetual
      attributes: half, newton on, omp
      pair build: half/bin/newton/omp
      stencil: half/bin/3d
      bin: standard
Per MPI rank memory allocation (min/avg/max) = 10.21 | 10.22 | 10.23 Mbytes
Step Temp PotEng TotEng E_pair E_mol Press Lx Ly Lz Volume Pxx Pyy Pzz Pxy Pxz Pyz Enthalpy 
20500000     157.1284   -4446.5701   -4177.2574   -4446.5701            0    2759.0675    17.882484    23.292944    22.060628    9189.0393     3949.308    2658.0198    1669.8746    244.93883   -457.98275    868.21334   -3807.5073 
20501000    150.39121   -4463.4599   -4205.6945   -4463.4599            0    1566.1737    17.867159    23.312044    22.183913    9240.0432    2592.2651    2599.0637   -492.80775    97.676654    259.91411   -131.04923   -3994.6423 
20502000    151.63366   -4466.4959    -4206.601   -4466.4959            0    2782.0036    18.014812    23.339485    21.850599    9187.2249    3465.1925    2410.7271     2470.091   -405.60899    639.70433    46.831792   -3833.8508 
20503000    146.10898   -4461.2482   -4210.8225   -4461.2482            0    559.39419    18.052432    23.386952    22.002035    9289.0691    578.62648     618.3698     481.1863   -742.70348    378.65039   -649.13455   -4135.0405 
20504000    143.45177   -4476.8094    -4230.938   -4476.8094            0    2040.2698    17.963681    23.449196    21.893016      9222.08    2132.3807    3103.4778    884.95099   -896.22015   -73.084125    233.02281   -3956.5328 
20505000    150.80904   -4457.8343   -4199.3528   -4457.8343            0     981.8051    18.106321    23.282348    22.002876    9275.4807    1006.0647    640.68438    1298.6663    112.48713    488.62242     55.12214   -4066.5407 
20506000    155.94974   -4461.8679   -4194.5753   -4461.8679            0    2123.6472    17.964793    23.253362    22.078079     9222.937       2371.8     2001.145    1997.9966   -448.27678    252.83181   -255.52524   -3908.9298 
20507000    154.40721   -4471.1272   -4206.4785   -4471.1272            0    2344.1128    17.870522     23.51008    21.952758    9223.1742    2814.6489    2491.0746    1726.6149    58.598259    387.31554    50.149406   -3891.1707 
20508000    157.12115   -4466.5123    -4197.212   -4466.5123            0    1664.7557    18.265047    23.143824    21.851193    9237.0029    364.73731    2212.4329    2417.0969   -72.917245    25.604194   -184.84529   -3972.9491 
20509000    156.85618   -4463.3294   -4194.4832   -4463.3294            0    790.04351    18.003622    23.482988    22.039778     9317.952     303.1451    2612.6289   -545.64347   -222.06643   -243.86278   -189.84439    -4087.122 
20510000    151.99103   -4461.4596   -4200.9521   -4461.4596            0    2128.4298    17.918892    23.342839    22.060493    9227.4146    2444.5619    775.85112    3164.8764   -1028.2063   -126.50531   -580.65257   -3914.5243 
20511000     156.5283   -4477.6031   -4209.3189   -4477.6031            0    1626.1684    17.891838     23.47757    22.036154    9256.4376    1634.7795     2159.473    1084.2528   -1023.3115    165.44515   -573.71788   -3989.7933 
20512000    157.32729    -4448.379   -4178.7254    -4448.379            0    1423.9707    18.058038    23.440502    21.900193    9270.1211    479.92447    1803.8763    1988.1113    637.69758    122.02552    536.38689   -3986.2114 
20513000    150.93388   -4450.1583   -4191.4628   -4450.1583            0    936.56741     17.92717    23.649197    21.999232    9326.8643    1357.5158   -507.64531    1959.8317   -733.81809    698.84996    191.71931   -4064.0684 
20514000     144.7522   -4468.6124   -4220.5121   -4468.6124            0    1582.7185    18.153413    23.093429    22.015447    9229.4157    912.81473     1935.305    1900.0359    409.82796   -623.46411   -438.23142   -4007.4757 
20515000    150.06922   -4464.3539   -4207.1404   -4464.3539            0    1193.4827    17.954276    23.529403    21.967884    9280.4071    1422.7072    1715.9577    441.78332     920.8755    -719.6126    1185.8586   -4045.6082 
20516000    150.82979   -4467.2177   -4208.7006   -4467.2177            0    1025.2285    18.110847    23.321356    22.017989    9299.7271    929.82154    1026.5234    1119.3405   -4.6913516    -641.8304   -341.50426   -4069.6519 
20517000    152.90216    -4466.602   -4204.5329    -4466.602            0    2242.5898    17.885256    23.364758     22.06213    9219.4264    2053.5083    2933.9002     1740.361   -640.61043     -36.9126    414.32996   -3903.0036 
20518000    151.00988   -4483.8158   -4224.9901   -4483.8158            0    1263.0323    17.966095    23.408546    21.974246    9241.4921    629.21383    377.34024    2782.5429     -507.962    331.38762     -668.306   -4054.7615 
20519000    151.41569   -4465.1242   -4205.6029   -4465.1242            0    1868.2542    18.020883    23.256346    21.958178    9202.6699    1554.6537    2186.0798    1864.0291   -482.14313   -204.23984    654.78372   -3954.8617 
20520000    146.25242   -4465.7794   -4215.1078   -4465.7794            0    2432.9515    17.765111    23.403331    22.087075    9182.9838    4778.2151      1664.26    856.37943    250.47543   -493.13948    64.870914   -3889.2762 
20521000    149.56457   -4472.6217   -4216.2731   -4472.6217            0    2296.2627    18.054136    23.217758     21.94783    9200.0159    2316.1288    1845.3051    2727.3541    332.08335   -41.975967   -200.57217   -3908.1771 
20522000    144.84631   -4439.6985   -4191.4368   -4439.6985            0      2111.32    17.944641    23.471669    21.920038    9232.5153    2894.7903    1979.3898      1459.78   -12.018128    282.38901   -114.94814   -3907.1544 
20523000    146.51104    -4471.329   -4220.2141    -4471.329            0    845.07475    18.197633    23.222778    21.986412    9291.4492   -91.608364    1718.7422    908.09045    173.12133    140.31335   -265.07246   -4105.7012 
20524000    155.13777   -4441.2406   -4175.3397   -4441.2406            0    2062.0337    17.848482    23.427416    22.061667    9224.9498    2529.5425    2584.7671    1071.7916    -257.2017    124.56251   -135.00612   -3897.9211 
20525000    146.28844   -4452.7618   -4202.0284   -4452.7618            0    2121.8517    17.979128    23.223801    22.087953    9222.6852    1657.1228    3733.5061    974.92619    568.64787      169.177     238.9547   -3916.6322 
20526000    157.65065   -4458.4635   -4188.2557   -4458.4635            0    2861.2815    17.945065     23.42008    21.824772    9172.4035    3173.4331    2638.1565     2772.255    58.251854   -404.26102   -158.07751   -3805.5018 
20527000    151.41668   -4452.6004   -4193.0774   -4452.6004            0    1750.8286    17.905203    23.561642    21.932568    9252.8236    3300.2047    1434.7278    517.55334   -381.29231   -29.123968   -138.52237   -3956.8155 
20528000    148.71392    -4469.925   -4215.0344    -4469.925            0    1991.9844    17.995502    23.311781    21.977102    9219.5521    1209.1723    1641.9624    3124.8185   -200.21025   -234.80797   -414.02758   -3947.1967 
20529000    145.98611   -4475.4996   -4225.2844   -4475.4996            0    2956.1348    17.873274       23.383    21.927077    9164.0001    1840.6873    3803.5743    3224.1429   -526.75354   -193.37251   -371.37767   -3830.2043 
20530000    151.99186    -4453.347   -4192.8382    -4453.347            0    1727.8048    18.235703    23.222107    21.831114    9244.8534    1271.9438    1374.3974    2537.0733   0.40865117   -447.69975   -756.33891   -3959.8839 
20531000    157.96581   -4457.1378   -4186.3898   -4457.1378            0    2058.8781    17.820942    23.513352    22.016511    9225.5806    2944.8735    1252.8306    1978.9301   -505.58455   -460.98399    322.46275   -3909.3767 
20532000    149.89161   -4453.9246   -4197.0155   -4453.9246            0     1517.356    18.151787    23.160569    22.059862    9274.0922    1616.7819    1978.3638    956.92219   -530.73615   -220.11839   -157.60504   -3991.7884 
20533000    150.78747   -4459.9643   -4201.5197   -4459.9643            0    2062.2941    17.969446    23.566383    21.796032    9230.0714    1308.1011    2283.6949    2595.0862     607.0698    156.54115    686.05106    -3923.912 
20534000    149.29871   -4479.5523   -4223.6594   -4479.5523            0    1025.2593      17.9878    23.466625    21.979651    9277.8955    -44.57371    1718.8873    1401.4643    23.107905    775.37987   -118.83272    -4084.933 
20535000    145.57105   -4475.3555   -4225.8517   -4475.3555            0    1504.3965    18.028108    23.174848    22.078977    9224.5666     951.8347    3098.5831    462.77187   -166.75507   -41.269298   -148.93793   -4023.4639 
20536000    149.48603   -4474.2764   -4218.0625   -4474.2764            0    2519.0484    17.806763    23.623959    21.833953    9184.8072    3542.2811    1659.3822    2355.4818     669.3887   -455.52641   -144.74124   -3880.6334 
20537000    151.01092   -4459.6663   -4200.8387   -4459.6663            0    2604.2449     18.03709    23.195956    21.929741    9175.1305    2504.7494       3593.3    1714.6853    425.80634    751.55776   -139.86489   -3852.3651 
20538000    150.86888   -4463.3908   -4204.8067   -4463.3908            0    769.42985     17.85374    23.432545    22.131191    9258.7731     2014.375    127.86669    166.04784    193.49808   -108.88194   -274.37934   -4100.9108 
20539000     158.1522   -4474.6744    -4203.607   -4474.6744            0    2161.0914    18.018767    23.233546    21.990435    9206.0725    1171.4456    3690.4496    1621.3788    538.99964   -1118.5709    91.544272   -3913.4564 
20540000    146.04749   -4463.0781   -4212.7577   -4463.0781            0    1586.4374    18.038682    23.583026    21.672843    9219.7729    1254.2315     1298.377    2206.7037     113.8754    285.59699    675.38552   -3999.4439 
20541000    149.77171   -4466.4693   -4209.7657   -4466.4693            0     1680.683     18.06038    23.311112     21.93379    9234.2912    1135.5944    2481.7376    1424.7169   -424.72417    330.15745   -315.31862   -3983.4237 
20542000     149.2309    -4468.942   -4213.1654    -4468.942            0    2150.2844    17.987039      23.2193    22.103466    9231.4343    826.20339    2659.0367     2965.613    30.321057   -221.03874   -445.35539   -3923.6704 
20543000    155.42004   -4465.4083   -4199.0237   -4465.4083            0    2607.7652    17.790962     23.35138    22.087704    9176.1932     1858.065    2598.2213    3367.0092   -116.45186   -428.68116    101.04888   -3850.0385 
20544000    151.50116   -4463.2801   -4203.6123   -4463.2801            0    1125.8181    18.224235     23.24477    21.837403    9250.7204     430.6927    1437.4745     1509.287    498.05933   -286.94915   -102.69908   -4051.7257 
20545000    146.18335   -4486.8369   -4236.2837   -4486.8369            0    1226.4805    17.934279    23.495305    21.943589    9246.3998    793.41902   -360.46971    3246.4922    -921.3085    117.57409    156.10873   -4070.8937 
20546000    153.46568   -4457.9038   -4194.8688   -4457.9038            0    1414.5314    17.945107    23.222719     22.18172    9243.8805    1502.0536    1662.2672    1079.2732    -477.0816   -91.649594   -460.57214   -4004.1723 
20547000    145.84846   -4469.1313   -4219.1521   -4469.1313            0    1267.4834    17.958989    23.403606    22.064428    9273.7918    2818.1516    1483.2605   -498.96202    8.6299871    909.67782    20.453029   -4047.7265 
20548000    149.40726   -4460.4763   -4204.3973   -4460.4763            0    892.69636    18.074501    23.421216    21.946304    9290.4586    760.82566    1432.2013     485.0621    363.70549   -296.99905     259.0398   -4083.4443 
20549000    154.10555   -4462.5112   -4198.3795   -4462.5112            0    999.72267    18.000694    23.429467    22.012437    9283.6719    1007.0031    1683.1592    309.00576   -1096.2317   -6.0957223   -24.888671   -4063.0242 
20550000    155.31438   -4479.9459   -4213.7424   -4479.9459            0    1539.9967    17.872808    23.424653    22.111844    9257.4403    707.84201    2389.1274    1523.0207   -585.07395   -36.097389    308.10035    -4005.827 
20551000    156.52948   -4460.3666   -4192.0804   -4460.3666            0    1784.8337    18.033695    23.270542    21.934014    9204.6939    2567.8762    2077.5526    709.07219    1636.3004   -137.63464    65.371222   -3952.4825 
20552000    145.82711   -4460.9458   -4211.0031   -4460.9458            0    2542.4061    17.840056    23.593768    21.843785    9194.3583    3199.0019    1230.7873    3197.4291    -246.8421   -115.68627    539.85922   -3870.0912 
20553000    143.82581   -4462.5365    -4216.024   -4462.5365            0    2120.5619    18.003136    23.261438    21.996212    9211.5478     2837.896    1011.2831    2512.5067   -758.99986    17.355273    29.527036   -3931.1456 
20554000    150.19946   -4456.3483   -4198.9116   -4456.3483            0    2041.2695    17.887435    23.457761    21.974934    9220.6647    3272.8737     442.9619    2407.9728   -341.80858   -268.62285    652.77922   -3924.4141 
20555000    153.27516   -4468.8381   -4206.1297   -4468.8381            0    918.74517    18.037835    23.434511    21.954706    9280.4266    305.31848    1490.9785    959.93856    -690.5693    -90.61329    4.4719852   -4081.7817 
20556000    155.96046   -4456.1026   -4188.7917   -4456.1026            0    1767.4252    17.935732    23.496734    21.936663    9244.7923    2155.4171    2167.4331    979.42549    30.172574   -50.838384   -517.88107   -3950.4972 
20557000    154.16972   -4471.1143   -4206.8727   -4471.1143            0    2620.6387    17.940418    23.249825    22.008143    9179.8508    2768.3982    2204.7045    2888.8134   -173.14967   -350.82167     539.4591    -3856.025 
20558000    149.40546   -4463.5338   -4207.4579   -4463.5338            0    1937.8618    17.850918    23.562971    21.974324    9242.8545    2799.7828    1033.2601    1980.5426   -972.36242   -147.18317    275.87786   -3946.2389 
20559000    151.64339   -4460.5623   -4200.6507   -4460.5623            0    2086.4281    17.905173    23.187207    22.192286    9213.5924    1859.8967    3103.9211    1295.4665   -408.60456    689.46085   -728.59325   -3920.2957 
20560000    145.34047   -4481.6801   -4232.5715   -4481.6801            0    1175.4454    18.018792    23.288901    22.066883    9260.0993    856.55813    1379.5171     1290.261   -426.62028   -623.00517    291.50466   -4073.8288 
20561000    150.11218   -4465.9551    -4208.668   -4465.9551            0    1580.8887    17.962139    23.471065    21.879705    9224.2764    2381.7551    169.96803    2190.9429    -510.7438   -310.63795    239.30787   -3995.9964 
20562000     147.9581   -4451.0987   -4197.5036   -4451.0987            0    2563.3004     18.19325    23.181488    21.806103    9196.6498    2301.3312    2959.3996    2429.1705   -31.842919   -68.709383    305.85456   -3853.7042 
20563000    166.34937   -4467.0987   -4181.9816   -4467.0987            0    1783.2573    17.923751    23.359548    22.010457    9215.5742    2204.5907    2009.8823     1135.299   -388.48601   -548.52364   -48.690444   -3942.3124 
20564000    150.47461   -4463.2978   -4205.3895   -4463.2978            0    2900.8609    17.849271    23.249674    22.134331    9185.5204    3476.2109    1935.1748    3291.1971    300.27599   -504.38983   -141.51645   -3816.7861 
20565000    149.02526   -4480.9673   -4225.5431   -4480.9673            0    844.72237    18.011894    23.374065    21.982112    9254.7148    1037.5697    3.5679323    1493.0294    131.22407    665.84794   -437.88898   -4111.5305 
20566000    155.87476   -4452.4181   -4185.2541   -4452.4181            0    2954.8684    17.963177    23.382133     21.75319    9136.7181    3760.2455     2559.854    2544.5058   -187.58504    845.88949   -103.63021   -3791.5189 
20567000    141.56746   -4473.4275   -4230.7857   -4473.4275            0    611.26476    18.096635     23.38886    21.933019    9283.3622    408.69349    1353.9703     71.13048    716.38881   -23.564178   -674.17412   -4148.0276 
20568000    147.80047   -4462.6463   -4209.3214   -4462.6463            0    2039.3961    17.892842     23.42755    22.009921    9226.2387    2154.7128    1340.4722    2623.0032   -539.69181   -835.22836   -612.41997     -3934.91 
20569000    142.21326   -4472.9801   -4229.2314   -4472.9801            0    1784.8086    18.028577    23.188768    22.031609     9210.545    980.38554    2428.6377    1945.4027    -96.94947    322.08582     786.0545   -3989.4846 
20570000    146.81296    -4456.288   -4204.6557    -4456.288            0    2134.1763    17.959314    23.456787    21.864575    9210.8413    2983.3666    770.96609    2648.1961    576.30573    836.75093    191.54003   -3917.9703 
20571000    158.21329   -4484.4839   -4213.3118   -4484.4839            0    2204.0907    17.974188    23.371778    21.965101    9227.2913    3183.1502    1832.7891    1596.3327   -841.79318    88.636342   -214.20729    -3916.706 
20572000    159.35303   -4440.6881   -4167.5625   -4440.6881            0    3144.9221     18.01117    23.109995     22.02919    9169.3865    3339.3874    2767.6411    3327.7377    38.901232    85.475034    74.713598   -3747.0043 
20573000    148.22521   -4478.7822   -4224.7293   -4478.7822            0    1314.6475    17.864537    23.589194     21.94312    9247.0506    1528.3393     1426.373    989.23025    193.74887   -477.30752   -325.24543   -4047.4376 
20574000    145.64646   -4461.5116   -4211.8785   -4461.5116            0    2367.8984    18.070504    23.300181    21.885036    9214.6071    1869.3573    2258.1712    2976.1667   -75.228514    811.03861   -22.789055   -3893.6671 
20575000    149.72148    -4472.234   -4215.6165    -4472.234            0    1465.4688    17.911742    23.438566    22.036981    9251.6877    2686.1089    201.25526    1509.0422    69.713752   -51.200972    322.05731   -4017.8861 
20576000    139.29732   -4451.8436   -4213.0928   -4451.8436            0     1954.131    18.041361    23.081388    22.172495    9233.0627    1542.5408    2092.6878    2227.1644   -766.28226   -681.13455    90.160837   -3949.9597 
20577000    147.15038   -4470.2394   -4218.0286   -4470.2394            0    2291.2649    17.849499    23.483041    21.902119     9180.503    2869.0029    2550.1653    1454.6265    -464.6625    219.18865    189.59183   -3911.2553 
20578000    156.05207    -4449.083    -4181.615    -4449.083            0    1136.7547    18.167844     23.27846    21.960744    9287.6253    1181.5083    1348.7017    880.05401   -339.75961    99.925891    125.33179   -4027.6411 
20579000    154.18484   -4475.6377   -4211.3702   -4475.6377            0    2915.8685    17.970434    23.262789    21.924405    9165.3316    2545.9083    2463.1866    3738.5107   -737.20214   -1083.8184   -233.09193   -3821.6149 
20580000    160.52573   -4456.3042   -4181.1686   -4456.3042            0    3695.5716    17.817153    23.398033    21.936984    9145.2289    3880.5163    2658.1548    4548.0436   -487.43898     232.1412    155.08924   -3688.2763 
20581000    147.01264   -4460.4997   -4208.5251   -4460.4997            0    2522.7477    18.040471    23.242701    21.951594    9204.5073    2645.6211    3693.0906    1229.5315    207.39983   -179.42194    8.9000594   -3869.8757 
20582000    149.96107   -4479.4598   -4222.4316   -4479.4598            0    1711.4243    17.979309    23.516276    21.852928    9239.5572    929.36094    666.09428    3538.8176    125.45229    139.17527   -63.042667   -3991.8181 
20583000    143.42231   -4468.2204   -4222.3995   -4468.2204            0    1273.4579    18.148683     23.29464    21.936449    9274.0076    470.57895    2095.9263    1253.8685    460.20032    27.456351    138.67532   -4050.1619 
20584000    155.76726   -4449.5337   -4182.5539   -4449.5337            0    584.32599    17.853102    23.493711    22.128205    9281.3577    1119.3214   -611.98288    1245.6395   -94.180978    382.87061    360.29786   -4103.4601 
20585000    158.78768   -4478.0463   -4205.8897   -4478.0463            0    3279.5807     17.92221    23.262437    22.024771    9182.4416    2770.0078    3729.6551    3339.0791     433.1234    196.30394    206.57064   -3766.6997 
20586000    156.86058   -4476.2407    -4207.387   -4476.2407            0    1937.3361    17.993914    23.551198    21.737209    9211.7562    1270.2838    1050.7591    3490.9654   -36.031668    221.75919    139.43396   -3947.1175 
20587000    146.72527   -4469.0846   -4217.6025   -4469.0846            0    1587.3327    18.041073    23.358875    21.975194    9260.7677    1839.5114     1496.482    1426.0047     90.23312     66.45593    289.37899   -4003.2193 
20588000    151.09434   -4446.6472   -4187.6767   -4446.6472            0    2148.9526    17.957756    23.294611    22.043432    9221.1854    1264.7105    2077.0315    3105.1158    -257.9396     142.6477   -325.80336   -3898.6822 
20589000    141.56397    -4467.909   -4225.2732    -4467.909            0    2790.4011    17.819206    23.268845    22.185893    9198.9884    2586.2724    2569.1115    3215.8195    196.90189   -501.45607    174.39743   -3850.9191 
20590000    151.60446   -4464.5555   -4204.7107   -4464.5555            0    2935.5422    18.029796    23.308003     21.85448    9184.0945    1839.4978    3118.2036     3848.925   -38.140232    63.382704   -180.08078   -3811.5224 
20591000    148.89782   -4482.7998    -4227.594   -4482.7998            0    2179.0688    18.024644    23.380243    21.869142    9216.1061    689.02344    2445.1639    3403.0192    223.21917   -377.53786    398.73735   -3934.7109 
20592000    153.53615   -4458.6461   -4195.4904   -4458.6461            0    1941.4473    17.935272    23.452829    21.890824         9208     2289.213    2564.6089    970.51989   -1364.2768     195.6658   -100.05013   -3934.7749 
20593000    145.35271   -4472.6209   -4223.4914   -4472.6209            0    1477.2873    17.934648    23.329868    22.086671    9241.3501    1453.6825    1868.5347    1109.6446   -639.29799    340.25337     367.3733   -4024.3891 
20594000    154.75043   -4475.6465   -4210.4095   -4475.6465            0     2258.995    17.931801    23.238156    22.112826    9214.4588    1899.2123    3707.4644    1170.3084   -163.20315    457.27765    66.669684    -3906.838 
20595000    142.56015   -4459.9574   -4215.6142   -4459.9574            0    3094.3662    17.973547    23.362054    21.848517    9174.1695    2960.9738    2499.6712    3822.4536    967.31724   -760.82389   -275.98395   -3801.6008 
20596000    146.98691   -4446.9929   -4195.0623   -4446.9929            0    1789.1908    18.066234     23.20343    22.029644     9234.796   -118.91502    3589.4941    1896.9932    231.95145   -441.51463    80.295143   -3954.0941 
20597000    150.50629   -4462.5971   -4204.6344   -4462.5971            0     697.2273    17.904117    23.482075    22.104935    9293.4851     847.6459    66.553935    1177.4821   -110.02652   -14.880621     354.8704   -4110.1351 
20598000    143.43013   -4472.1034    -4226.269   -4472.1034            0    2608.5554    17.932193    23.319892    21.998542      9199.28    3401.0882    1471.0743    2953.5038    645.29704    424.49765   -303.00819   -3876.2999 
20599000     150.2412   -4459.6544   -4202.1461   -4459.6544            0    2528.1043    17.988379    23.230037    22.019055    9201.1178      2074.06    3591.6989     1918.554   -603.48473   -213.83141    8.4047715   -3862.9027 
20600000    145.82244   -4470.1053   -4220.1707   -4470.1053            0    2660.5592    17.898033    23.444338    21.881991    9181.8482     3030.067    2590.2705    2361.3402    519.18216     143.6402    970.69403   -3863.9009 
20601000     148.2357   -4484.0681   -4229.9971   -4484.0681            0    1673.8967    17.989232    23.368984    21.973741    9237.5429    2122.7412    681.68389    2217.2651    -925.1552    -21.72813   -207.99198   -4004.4896 
20602000    156.37517   -4468.4868   -4200.4651   -4468.4868            0    2164.6041    18.055462    23.428414     21.79734    9220.5111    1788.5356    1596.2429     3109.034    1060.2656   -416.09873    504.92019   -3909.3871 
20603000    152.68238   -4462.5579   -4200.8655   -4462.5579            0    1289.4535    18.117741    23.397643    21.845092    9260.4059    632.06256    1087.6496    2148.6484   -278.15018    248.63622   -535.02028   -4026.7203 
20604000    148.29074   -4465.1929   -4211.0277   -4465.1929            0    1840.1135    17.928552    23.436094    21.954967    9224.9329    1578.1966    2435.9149    1506.2292    375.15135   -612.29231    615.68016   -3963.4658 
20605000    149.85084    -4452.771   -4195.9318    -4452.771            0    2089.6249    18.139185    23.076299    22.057298    9232.8599    795.34959    2433.0231     3040.502    608.68579    137.78344    165.48455   -3914.5601 
20606000    147.89647   -4477.1409   -4223.6514   -4477.1409            0    2819.7177     17.86946    23.415224     21.94436    9181.9025    2729.1521    3760.0905    1969.9106   -98.046954    52.504734   -369.32167   -3846.0669 
20607000    148.18595   -4476.1201   -4222.1344   -4476.1201            0    1694.0447     18.04593    23.185429    22.049083    9225.3944    1082.2478    2523.1713     1476.715   -459.28957    124.30717     593.5256   -3994.2127 
20608000    148.41713   -4466.3535   -4211.9716   -4466.3535            0    1185.9452    17.899925    23.380396    22.130786     9261.896    775.08108    938.71861     1844.036   -95.695556   -407.56045   -270.87494   -4051.7798 
20609000    151.60589   -4473.1219   -4213.2746   -4473.1219            0    2056.5375    18.023076     23.37832    21.843557    9203.7661    1673.1093    1798.4004    2698.1027   -1018.2309    125.39115    111.57578   -3937.2307 
20610000    148.82897   -4469.5465   -4214.4588   -4469.5465            0    1434.0032     18.05919    23.435257      21.8545    9249.2997     2251.678      1057.19    993.14168    461.01284    262.64475   -179.98951   -4021.0238 
20611000    147.76662   -4456.1343   -4202.8674   -4456.1343            0    2801.1811    17.889302    23.316621    22.000621    9176.8567    3485.3445    3500.1456    1418.0532   -305.53312    -58.92783    68.193914   -3827.9712 
20612000    162.69772   -4488.8915   -4210.0332   -4488.8915            0    2068.0024    18.055519    23.251775    21.926381    9205.1964    1968.5917    2314.9168    1920.4986   -123.71998    -37.59566   -813.74788   -3932.4073 
20613000    150.03493    -4467.442   -4210.2872    -4467.442            0     2323.316      17.9646    23.418126    21.848815     9191.737    1757.6295    2556.6839    2655.6344   -784.17639    952.16518   -5.8557786   -3898.8419 
20614000    160.38618   -4458.8709   -4183.9744   -4458.8709            0    1121.7613    18.025897    23.155737    22.234787    9280.8649    1465.4614    1652.8745    246.94791    -281.4438   -511.84267    -47.97347   -4032.1419 
20615000    155.79846    -4461.649   -4194.6158    -4461.649            0    1795.1199     17.90503    23.400882    22.095092    9257.7002    1795.1946    1329.4624    2260.7026    557.29384    151.83876   -162.39508   -3952.2493 
20616000    151.73403   -4471.0923   -4211.0253   -4471.0923            0    2837.8331    17.983622     23.45545    21.696795    9152.0108    3679.5229    2148.7212    2685.2551   -1992.4453    459.27085    233.77417   -3832.2521 
20617000    149.19786   -4487.3787   -4231.6586   -4487.3787            0    905.36528    18.015945    23.393654    22.019028    9280.1128    1160.2256    457.09537    1098.7749   -198.72032   -310.30243   -6.0143963   -4109.1257 
20618000    149.17382   -4475.0654   -4219.3866   -4475.0654            0    1817.8473     17.81699    23.330854    22.204379    9230.0402    2720.3547    1406.2396    1326.9478    21.314928   -167.25442    680.84939   -3974.6849 
20619000    149.93691   -4457.5311   -4200.5443   -4457.5311            0    1696.0481    17.892289    23.427625    22.003863    9223.4436    1347.2402    1664.5936    2076.3105   -391.24328   -223.72918   -202.76642   -3972.4013 
20620000     154.4802   -4480.3178    -4215.544   -4480.3178            0    2083.5203    18.114332    23.349288     21.81331     9226.087    2110.7251    2468.5693    1671.2665   -115.08598   -875.24535    291.60989   -3935.2001 
20621000    150.80283    -4472.915   -4214.4441    -4472.915            0    2911.4953    18.039623    23.285536    21.852345     9179.346    2998.7006    1881.2344     3854.551   -909.05087    104.63606    656.03778   -3824.6783 
20622000    155.21675   -4459.7428   -4193.7066   -4459.7428            0    510.51983    17.824664    23.573591    22.103695    9287.7809    908.17182     914.5249   -291.13722   -880.64978    81.928895   -425.93712   -4124.5553 
20623000    141.20115   -4469.0016   -4226.9877   -4469.0016            0    2293.5089    17.983379    23.178321    22.046884    9189.6822    2195.5552    3043.7044    1641.2672    441.05146   -756.66447   -426.33571   -3919.6068 
20624000     151.3311   -4452.9114   -4193.5351   -4452.9114            0    1985.2137    17.843779    23.529858    21.926583    9206.1303    2452.2624     2034.912    1468.4667   -148.56126    92.660955   -555.34667   -3926.9964 
20625000     153.6609   -4446.2359   -4182.8664   -4446.2359            0    2360.7285    18.124427    23.231887    21.865341    9206.7217    2216.8285    2648.0001    2217.3569   -951.76841   -310.06167    266.40999     -3865.89 
20626000    154.03504   -4474.4903   -4210.4795   -4474.4903            0     1033.543    17.827709    23.596236    22.027215    9266.1184    1398.8918    503.67619    1198.0609   -114.79948   -338.73945    436.35508   -4070.8098 
20627000    152.07363   -4462.4843   -4201.8353   -4462.4843            0    1878.7065    18.062896    23.161283     22.10493    9247.8154    1299.0048    1826.3402    2510.7745    300.74453    287.72008    545.54356   -3948.4544 
20628000    148.99155    -4461.961   -4206.5946    -4461.961            0    2317.4801    17.903581     23.36166    21.981047    9193.7346    2761.1444    3055.4903    1135.8056   -429.07919   -486.26648     521.7243   -3895.8641 
20629000    153.07673   -4452.8253    -4190.457   -4452.8253            0    1214.6219      18.1729    23.345802    21.788669    9244.0808    302.36603    985.15885    2356.3409   -918.59547    180.73406    766.79041   -4026.7072 
20630000    150.42117   -4480.7239   -4222.9071   -4480.7239            0    2373.3065     17.99352    23.389018    21.916319    9223.4995    1433.4027    2431.3964    3255.1204   -872.64276       576.99   -253.45897   -3903.6611 
20631000    144.47971   -4471.9221   -4224.2888   -4471.9221            0    1474.5735    17.851711    23.322421    22.216366    9249.6751    2344.2704    373.49379    1705.9563   -409.94202     13.00345    -428.7569   -4025.3732 
20632000    151.19872    -4451.105   -4191.9556    -4451.105            0    1456.2641    18.035142    23.479117    21.920846     9282.365    1333.6713    1067.2753    1967.8458    728.84218    285.91496    349.12894   -3994.8156 
20633000    144.64261   -4464.9961   -4217.0836   -4464.9961            0    2107.9881     18.03418    23.388066    21.871698    9225.1453    1894.3133    2182.0523    2247.5988    669.74895   -388.39545   -323.02719   -3933.4764 
20634000    140.41956   -4463.6705   -4222.9962   -4463.6705            0    1555.5341     17.95553    23.554801    21.834783    9234.7801    1716.1778    731.45478    2218.9698   -769.64635    81.096647   -453.94745   -4013.4972 
20635000    139.90771   -4471.6601   -4231.8631   -4471.6601            0    1687.0312    17.938776    23.284661     22.12284    9240.6729    2320.0398    833.47751    1907.5764    560.40723    322.74923    209.63755   -4004.5091 
20636000    151.06482   -4468.1957   -4209.2758   -4468.1957            0    1295.1567    18.121771    23.132737    22.149798    9285.3315    1195.0432    2663.5227    26.904254   -109.23705   -547.73019    124.69746   -4033.8895 
20637000      143.813   -4466.2797   -4219.7891   -4466.2797            0    852.10067    17.968675    23.534878    21.924365    9271.6071    485.04956    618.53241      1452.72    626.23449   -281.24205    297.18868   -4104.5707 
20638000    144.20348   -4456.5059   -4209.3461   -4456.5059            0    2470.7677    18.129035    23.183687    21.972758    9235.1033    1549.8981    3377.5093    2484.8956   -568.57988     977.7441   -239.26298    -3876.572 
20639000    143.24024   -4483.0462   -4237.5373   -4483.0462            0    1513.5577    17.915085    23.470162    21.961493    9234.1478    1787.1924    406.84174     2346.639    759.86204    12.762564   -183.70015   -4033.7056 
20640000    148.13893   -4462.4584   -4208.5533   -4462.4584            0     1107.303    18.032521     23.35162    22.025616     9274.735    986.77416    502.82083    1832.3139   -144.89878   -444.46887   -223.66676   -4058.7768 
20641000    151.95931   -4488.8347   -4228.3816   -4488.8347            0    1543.0562    17.883445    23.423409    22.086741    9251.9425    1881.3156    1715.2245    1032.6284    103.78163   -628.10949  -0.54367227   -4020.1769 
20642000    142.08944   -4464.8385   -4221.3021   -4464.8385            0    1454.4057     17.99178    23.359629    22.097782    9287.2846    2626.6757    1259.9506    476.59092   -310.60414   -425.80973   -82.206415   -4024.3093 
20643000    142.24995   -4464.1526   -4220.3411   -4464.1526            0    3219.5393    18.063012    23.170299    21.910527    9170.1119    1927.8165    3046.0356    4684.7657    13.275095   -369.69603   -125.28574   -3789.7706 
20644000    145.88567   -4463.9889   -4213.9458   -4463.9889            0    1808.0043    17.765566    23.737126    21.868534    9222.0368    2894.1106    1205.2132    1324.6891   -78.696629   -356.22988   -378.36676   -3970.7802 
20645000    157.08181   -4461.3911   -4192.1583   -4461.3911            0    2211.0601    18.105517    23.169087    21.950848    9208.1239    1332.7667    1510.3603    3790.0532   -186.51116    94.578131    418.20456   -3895.2327 
20646000     146.4029   -4470.6581   -4219.7285   -4470.6581            0    1058.4095    17.973546    23.366424    22.014167    9245.4548    242.53314    1417.8514    1514.8441   -496.11514   -19.074509   -370.43797   -4077.0174 
20647000     145.6941   -4474.0681   -4224.3534   -4474.0681            0    2815.2635    17.938315    23.415794    21.829298    9169.1756     1427.642    2674.6102    4343.5383   -207.52843     175.3473    78.522917   -3847.8879 
20648000    141.49271   -4472.9198   -4230.4061   -4472.9198            0    1657.2875    18.189652    23.161599    21.936908    9242.0501    1844.1974    1625.9898    1501.6754    420.66514   -169.23877    505.62089   -4007.0272 
20649000    156.11097   -4455.9932   -4188.4243   -4455.9932            0    1630.5138    17.888061    23.438074    22.007892    9227.0664    1124.7049    1793.7362    1973.1002   -196.40861    156.27055   -199.37663   -3969.0105 
20650000    148.34129   -4471.6505   -4217.3986   -4471.6505            0     724.7326    18.182764    23.263846     21.93597    9278.9376    233.74708    939.67966    1000.7711    414.86763   -565.61231   -51.732104   -4119.3251 
20651000    148.62758   -4450.3953   -4195.6527   -4450.3953            0    740.25103    17.850799    23.682941    21.899713      9258.31    1842.0837   -83.243529     461.9129   -1198.5504    336.65235    411.21164   -4095.7018 
20652000    137.24515   -4464.8273   -4229.5938   -4464.8273            0    2126.0639    18.024289     23.27093    21.967643    9214.1515    1766.9954    2819.8378    1791.3585    467.25959    81.690039   -109.08636   -3943.8955 
20653000    147.00083   -4454.5058   -4202.5514   -4454.5058            0    1485.7378     17.86759    23.370646    22.061172    9212.2407    1641.6671    1738.8321     1076.714   -606.12085   -153.94269    160.17214   -4002.9409 
20654000    148.53133   -4474.8803   -4220.3027   -4474.8803            0    2243.6896    17.921164    23.265956    22.030697    9185.7657    2849.6877    1097.4833    2783.8979   -41.161066    266.47844    430.26617   -3919.7268 
20655000     144.6578   -4467.0707   -4219.1321   -4467.0707            0     1509.498    17.991731    23.437723    21.906661    9237.7147    683.32896    2216.8828    1628.2823    123.23077    758.41154    293.67522   -4015.7687 
20656000    151.05752   -4499.5984   -4240.6909   -4499.5984            0    1407.6469    18.061753    23.433991    21.870428    9256.8549    1020.3852    675.12397    2527.4314   -1252.3528    180.58233    448.38109   -4050.6562 
20657000    141.47265   -4460.5013   -4218.0221   -4460.5013            0    2381.5479    17.937398    23.300966    22.027958    9206.7769    3476.9559     2214.264    1453.4237    195.37662   -1015.8998   -54.035603   -3898.2483 
20658000    147.54299   -4470.3036     -4217.42   -4470.3036            0    2326.1171    17.821556     23.43054    22.004297     9188.305    2226.9983    1627.7291    3123.6238   -1114.2257    587.35133    552.26723   -3905.7156 
20659000    147.53112   -4463.5305   -4210.6673   -4463.5305            0    2322.9618    18.073886    23.320959    21.820078    9197.1705    2130.8764    2294.9931    2543.0158   -145.57067   -13.732971   -144.18394   -3899.0854 
20660000    154.48477   -4455.9091   -4191.1275   -4455.9091            0    2503.0031    18.027328    23.501331    21.743847    9212.1331    1765.9477    2267.2515    3475.8102   -217.11652   -268.42427    944.91589   -3854.8503 
20661000    139.39456   -4472.6675     -4233.75   -4472.6675            0    755.06322    18.067478    23.264798     22.06536    9274.8699      18.4306    1172.2258    1074.5333     249.0639    -467.4387   -276.13116   -4131.6168 
20662000    148.40971   -4471.5655   -4217.1964   -4471.5655            0    1762.9344     17.87364    23.413705    22.022388    9216.1078    1938.0828    2209.5186    1141.2018    1236.1874   -100.71786   -345.39791   -3980.2448 
20663000    145.76852    -4460.038   -4210.1957    -4460.038            0    1772.9077    18.065999    23.280015    21.926756    9221.8832    1408.2989    2336.0568    1574.3674    -267.6497   -320.43031    293.80253   -3971.7543 
20664000    148.73549   -4472.4597   -4217.5321   -4472.4597            0    2104.6918     18.03124    23.296687    21.970004    9228.8991    2434.0525    3039.0625    840.96049    64.303987    249.16299    1023.6532   -3934.2532 
20665000    151.42327   -4473.4977   -4213.9634   -4473.4977            0    1692.5669    17.898666    23.454694    22.020259    9244.2751    1019.7092    1998.9551    2059.0364   -191.84335   -597.01539   -583.32272   -3985.7744 
20666000    154.47156   -4465.7468   -4200.9878   -4465.7468            0    1508.7132    18.096199    23.092865    22.087257     9230.112    1455.4354    1725.0394    1345.6648   -315.61719   -68.284988    140.70393   -3997.8974 
20667000    153.64187   -4489.7861   -4226.4492   -4489.7861            0    1608.6015    17.811273     23.50272    22.017196    9216.6927    2491.2089    2159.0952    175.50032    292.18066    200.89375   -212.36157   -4010.2274 
20668000    159.38981   -4458.9875   -4185.7989   -4458.9875            0    1079.4594    18.136611     23.20749    21.984055    9253.2033    524.08071    703.86293    2010.4345    334.53848   -587.81304   -262.84667   -4040.1275 
20669000    155.43138   -4459.5802   -4193.1761   -4459.5802            0    1453.8774    17.792408    23.625843    21.994237    9245.5118     1445.437    1706.3773     1209.818    1856.6663    231.26445    18.589512   -3997.1407 
20670000    150.44918   -4471.6017    -4213.737   -4471.6017            0     1681.803    18.119417    23.242078    21.957901    9247.1948    2535.4984     859.5759    1650.3346   -227.34045    477.52413   -407.21924   -3986.9276 
20671000    153.01625   -4473.2181   -4210.9535   -4473.2181            0    1714.1105    17.859638    23.466945    21.982015    9212.9075     2974.261    1107.4099    1060.6605     35.49038    524.10785    686.72236   -3980.6442 
20672000     145.4174   -4462.2521   -4213.0116   -4462.2521            0    2175.1082    17.970794    23.365715    21.910492    9200.2254    2008.3498     2297.133    2219.8419   -848.33109    718.17873   -336.04916   -3921.1646 
20673000    142.87562    -4463.016   -4218.1321    -4463.016            0    1009.2808     18.16665     23.24633    21.972311    9279.0816    879.65479     159.1101    1989.0774   -21.739602   -422.80265    720.08586   -4081.5503 
20674000    146.94026   -4469.8376    -4217.987   -4469.8376            0    1407.1957    17.882128    23.503975     22.00207    9247.4937     1495.517    492.42284    2233.6473   -393.40946    209.81794   -445.88249   -4028.2053 
20675000    158.18249   -4469.7758   -4198.6565   -4469.7758            0    2669.5962    17.975424    23.256887    21.988377    9192.2937    3019.1312    3622.5574       1367.1   -361.67563   -709.81705    839.07277   -3840.7699 
20676000    154.42196   -4482.1265   -4217.4525   -4482.1265            0     962.5875    17.978888    23.577203    21.884849    9276.8096    1512.5633   -37.956401    1413.1556   -218.23459     103.1283    173.65917   -4087.2214 
20677000    158.31345   -4465.1519    -4193.808   -4465.1519            0    2915.5129    17.937704    23.341589    21.886827    9163.8945    3103.7395    2616.1163    3026.6829   -1272.3145   -3.1836816   -174.18996   -3804.1614 
20678000    153.95499   -4459.7598   -4195.8862   -4459.7598            0    1213.3932    17.963485    23.350851    21.982376    9220.7858     1117.427    1685.7968    836.95591    196.66517    201.26956      749.213   -4032.7143 
20679000    148.48932   -4464.3461   -4209.8405   -4464.3461            0    3326.6206    17.837144    23.193929    22.104663    9144.9966    2596.3648    4232.0725    3151.4245   -406.34482   -121.03375    597.60537   -3766.1678 
20680000    153.36203   -4474.2398   -4211.3825   -4474.2398            0    1594.5926    17.879374    23.441831    22.024971    9231.2218    1555.8284    799.74136     2428.208   -228.35064   -823.54552   -698.16464   -3996.7058 
20681000    151.43442   -4464.0201   -4204.4667   -4464.0201            0    2045.4795    18.199371     23.20577    21.829745    9219.3652    1820.0402    1898.3128    2418.0854    135.28027   -483.32886   -463.78451   -3929.4418 
20682000    158.25885   -4460.5619   -4189.3116   -4460.5619            0    2197.3563    17.846545    23.529974    21.905847    9198.8946    1874.0392    2285.9255    2432.1042    857.34281   -165.60325    170.04386   -3894.5221 
20683000    148.41048   -4472.3806   -4218.0101   -4472.3806            0    1890.7992    18.253415    22.958434    22.003704    9221.0884    2070.8588    2126.9824    1474.5564   -56.425104   -184.71936   -365.28427   -3963.7352 
20684000    145.72677   -4471.1184   -4221.3477   -4471.1184            0     1902.996    17.934049    23.498085    21.820626    9195.5569    2313.6434    1388.1406    2007.2042   -284.22804    1092.7138   -467.17013   -3966.1411 
20685000    162.16314   -4473.8761    -4195.934   -4473.8761            0    2783.7571     17.99586    23.156885    22.026093    9178.8909     2709.815    3968.3091    1673.1471   -105.86579   -294.99092    212.41545   -3823.2872 
20686000    149.59025   -4454.8942   -4198.5016   -4454.8942            0    1492.8659       17.965    23.303477    22.107041    9255.0453     1578.775     1581.362    1318.4607   -390.42944    440.15932    169.62903   -3997.0015 
20687000     148.8699   -4467.0437   -4211.8858   -4467.0437            0    3719.2796    17.886536    23.517407    21.690635    9124.0558    3397.1221    3563.7202    4196.9964   -793.61214    344.64454   -186.06827   -3716.9799 
20688000    155.92786   -4457.3762   -4190.1212   -4457.3762            0    2085.9457    18.084441    23.367465    21.828232    9224.3389    582.26203    2237.1795    3438.3957   -623.14999   -1051.6931    582.59455    -3909.504 
20689000    140.35337   -4462.3998    -4221.839   -4462.3998            0    3518.0937    17.754737    23.355743    21.979973    9114.5469    3823.5048    3085.0214    3645.7549   -692.12126    309.87469    762.76417   -3754.1917 
20690000    156.20578   -4455.1924   -4187.4611   -4455.1924            0    1460.1077    17.896581    23.285204    22.198583    9250.7165    1820.8148    1691.4751    868.03331    106.10016   -140.62744    271.52198   -3990.4747 
20691000    150.28151   -4463.5801   -4206.0028   -4463.5801            0    1750.4232     17.98192    23.329293    21.956385    9210.8243    1438.9705    1416.1394    2396.1598   -70.437494    358.73974    76.906775   -3970.8677 
20692000      150.486   -4456.3977   -4198.4699   -4456.3977            0    3258.0993      17.9608    23.375689    21.848242    9172.8986    2360.3494    3287.7599    4126.1885   -657.93674   -460.82669    704.16927   -3762.6101 
20693000    150.70111   -4461.1632   -4202.8666   -4461.1632            0    2223.8734    18.078671    23.389124    21.865335    9245.6314     690.0732    2043.2844    3938.2626    570.86142    431.99986    272.36346   -3903.0039 
20694000    158.49343   -4462.3931   -4190.7407   -4462.3931            0    840.66964    17.939098    23.485643     22.02989    9281.4403    1815.6668    -815.0011    1521.3432    37.056112   -386.68731    202.88196   -4076.9475 
20695000    146.36512   -4462.0976   -4211.2327   -4462.0976            0    2444.2784    17.967343    23.157518    22.135461    9210.1019    2879.7266    3023.6543    1429.4544   -780.86198    508.79708     47.48096   -3882.9175 
20696000    149.66996   -4465.7189   -4209.1897   -4465.7189            0    1658.4589    17.929888    23.430635    22.012794    9247.7653    1795.2536    1030.7777    2149.3453   -191.77219    -120.1733    29.063365   -3985.5147 
20697000    147.67631   -4462.9818   -4209.8697   -4462.9818            0    650.34299    17.968651    23.543315    21.974147    9295.9787    1117.9699    897.55019   -64.491106      -844.28     144.4766    114.40982   -4121.7012 
20698000    155.01484   -4468.0051   -4202.3149   -4468.0051            0    2331.1709    18.081548     23.16095    21.945483    9190.4569    2570.2566    2524.5288    1898.7274     292.8837   -702.15561   -89.742208   -3889.8602 
20699000    152.28409    -4459.345   -4198.3353    -4459.345            0    699.65549    17.942638    23.623085    21.846389    9259.8206    723.00337    -275.8678    1651.8309    495.67261    212.74615    446.01772   -4103.8504 
20700000    147.97599   -4463.6468    -4210.021   -4463.6468            0    2356.7618     18.11311    23.136672    21.940729    9194.8564    804.09317    3557.6671     2708.525   -487.94935   -167.54092   -102.16486    -3893.985 
20701000    146.22178   -4460.8512   -4210.2321   -4460.8512            0     1596.852    17.984122    23.460888    21.838014    9213.9707    1898.2942    693.64253    2198.6193    395.47564    196.76916   -87.435738    -3995.653 
20702000     145.3164   -4453.0898   -4204.0225   -4453.0898            0     2007.382    17.988657    23.124377    22.126419    9204.0699    2856.3521    2031.7526    1134.0413   -1157.2783    -252.6197    642.09253   -3934.5677 
20703000    148.87828   -4474.8512    -4219.679   -4474.8512            0    757.98976    17.945506    23.404733    22.051139    9261.6941    612.22985     1192.511    469.22845   -160.69852   -26.448168    266.33822   -4117.2955 
20704000    144.44475   -4469.6127   -4222.0393   -4469.6127            0    1797.5113    17.979315    23.347003     21.94148    9210.2237    2205.5257    1419.1853     1767.823   -1501.7388    494.82057   -308.35137   -3980.5946 
20705000     146.3282   -4476.0071   -4225.2055   -4476.0071            0    2497.0486    17.957692    23.190463    22.031767    9175.0671    2445.9924    2466.6805    2578.4729    627.00522    -550.8382    232.35854   -3891.0781 
20706000    151.84464   -4483.9168   -4223.6602   -4483.9168            0    2602.5844    17.889437    23.399692    21.925122    9178.0166    3442.5785      2523.98    1841.1946    541.60564   -492.16805   -675.48338   -3875.2992 
20707000    146.00347   -4463.1779    -4212.933   -4463.1779            0    2357.8684    18.070773    23.377383    21.684002    9160.3498    1738.9451    2119.5907    3215.0694    327.53894   -296.78932    498.49264   -3897.9352 
20708000    155.87722   -4468.5578   -4201.3896   -4468.5578            0    1554.6592    17.993124    23.380626    22.033657    9269.3505    1284.2668    2443.5434    936.16727   -949.52744    50.817822     53.87915   -3991.2246 
20709000     151.9774   -4471.1564   -4210.6723   -4471.1564            0    1956.9072     17.94918     23.32465    21.983162    9203.4344     2990.132    2198.7695    681.81995   -880.42188   -316.98926    572.12828    -3948.011 
20710000    151.38311   -4451.2335    -4191.768   -4451.2335            0    1610.2765    18.047806    23.412744    21.782939    9204.3518    1483.3463    788.72463    2558.7585   -767.69138    595.00887   -72.602129   -3975.6109 
20711000    151.17447   -4471.3835   -4212.2757   -4471.3835            0    2977.8371    17.864289    23.331996    21.997637    9168.8245    3050.9293    3231.3842    2651.1976    -339.0995    811.01691    31.783685   -3814.0855 
20712000    154.95612   -4473.3483   -4207.7588   -4473.3483            0    1060.4795     17.98378    23.219337    22.120193     9236.761     995.9184    1348.3324     837.1876   -665.68364    426.80951    768.30402    -4064.903 
20713000     155.0118   -4463.3998   -4197.7149   -4463.3998            0    1645.1106    17.905895     23.48271    21.947922    9228.6391    3035.8438    552.24464    1347.2434     652.7016   -236.33166    138.11426    -3976.299 
20714000     147.3927   -4464.8754   -4212.2494   -4464.8754            0    1545.7638    18.181741    22.951259    22.116371    9229.0255    522.47855    2576.2857    1538.5272   -260.10982     219.7527   -104.95202   -4004.1959 
20715000    141.73571   -4485.7242   -4242.7941   -4485.7242            0     2100.418      17.8878    23.516448    21.866089    9198.1347    1372.6857    2175.5423    2753.0261   -210.62353   -118.49125   -378.88471   -3961.0327 
20716000    148.63747   -4473.7232   -4218.9636   -4473.7232            0    1490.7882    18.189936    23.264554     21.85883    9250.2363    1250.9881     2364.457    856.91954   -696.02367    205.87219    221.06076   -4017.8485 
20717000    142.16461   -4470.9369   -4227.2716   -4470.9369            0    1333.3807    17.964082    23.346772    22.003716    9228.4316    1618.7479    1926.4555    454.93886   -715.86992   -210.25824    -311.3991   -4047.8156 
20718000    150.49856   -4468.3655   -4210.4161   -4468.3655            0    2229.5792    17.931716    23.516026    21.864868    9220.0367    1941.9193      2267.25    2479.5682   -56.543483    519.89516   -250.97993   -3910.6162 
20719000     155.8425   -4470.3233   -4203.2146   -4470.3233            0    2466.6688    18.268503    23.164241    21.800704    9225.5352    1292.2604    3949.7026    2158.0435   -945.82375     -510.222   -176.39619   -3871.3368 
20720000    140.47836   -4464.7053   -4223.9302   -4464.7053            0    2670.9332    17.814577    23.378317    22.058964    9187.0035    2544.1758    3297.1528     2171.471       535.43    310.75018    401.34968   -3866.0705 
20721000    156.15319   -4477.6426   -4210.0014   -4477.6426            0    1199.8211    18.139087    23.019205    22.175293     9259.235    1027.3783    1453.6922    1118.3928    1023.7153     304.2229    446.78614   -4047.9818 
20722000    144.38039   -4467.8457   -4220.3826   -4467.8457            0     2012.512    17.941342    23.584325    21.822152    9233.7043    2170.9027    759.13096    3107.5024   -115.38198    486.25737    326.88917   -3949.3695 
20723000    145.28663   -4466.3389   -4217.3226   -4466.3389            0      1618.21    18.110989    23.243638    21.982029    9253.6709    1118.1643    730.97686    3005.4887    61.072655   -376.00625   -34.742072   -3998.9365 
20724000    153.18166   -4475.2242   -4212.6761   -4475.2242            0    1513.9033    17.766491    23.381031    22.234281    9236.0955    1759.3042    2817.6985   -35.292824   -35.992173   -132.22401   -100.24573   -4008.7549 
20725000    148.29511   -4473.7781   -4219.6054   -4473.7781            0    2795.5514      17.9538     23.32705    21.867989    9158.5146     2884.486    3421.7363     2080.432    286.28743   -590.86423   -339.18098   -3846.2105 
20726000    149.28549   -4462.1592    -4206.289   -4462.1592            0    2483.0816    18.063058    23.361006    21.798527    9198.3509    2242.7405     1869.731    3336.7734   -375.97521    216.79349     822.3569   -3873.1873 
20727000    161.02701   -4449.1409   -4173.1462   -4449.1409            0    780.98047    18.002584    23.412918    22.004537    9274.7588     359.8986    1460.5697    522.47312    214.20459    358.55709    419.21606   -4067.5085 
20728000    154.88356   -4461.1033   -4195.6382   -4461.1033            0    2186.6564    17.878794      23.3362    22.083403    9213.7059    2072.8538    2745.9049    1741.2106   -270.56352   -310.27556    394.37369   -3901.8118 
20729000    152.37235   -4462.5844   -4201.4234   -4462.5844            0    2651.7184    17.857212     23.42303    21.991581    9198.4187    4126.2997    2534.0406    1294.8148   -248.53616   -217.76603    -103.7242   -3845.6967 
20730000    157.39672   -4461.7115   -4191.9389   -4461.7115            0     1244.429    18.089935     23.10528    22.191084    9275.2741    463.31475    2274.1461    995.82606    83.346445   -528.81769   -236.64387   -4023.6045 
20731000    161.16187   -4473.3642   -4197.1383   -4473.3642            0    2585.0509    17.864696    23.635141    21.815775    9211.3751    2657.4085    1897.9278    3199.8162   -625.99716   -329.16295   -322.76297   -3849.8665 
20732000     154.1728   -4468.4723   -4204.2254   -4468.4723            0    2300.2123    18.035151    23.277366    21.908287    9197.3359    2420.5852    1966.9528    2513.0989    84.868626    -860.9257    471.24609   -3895.6894 
20733000    149.10669   -4476.2304   -4220.6666   -4476.2304            0    1243.5429    17.965619    23.408926    21.958666    9234.8453    1105.1753     1338.808    1286.6453    240.97962    311.07255    -283.8973   -4053.1854 
20734000    151.65111   -4457.8175   -4197.8927   -4457.8175            0    2540.9869    18.128667    23.239922    21.867254    9212.8665    1886.0489    2288.1539    3448.7579   -621.90626   -40.648653   -133.73155   -3856.4851 
20735000    146.07143   -4472.8225    -4222.461   -4472.8225            0    1667.8311     17.82574     23.50691    22.061892    9244.5518    1797.1934    2191.4214    1014.8785   -175.84354   -631.21677   -87.068951   -3997.6002 
20736000    147.12641   -4470.1114   -4217.9417   -4470.1114            0    1793.3318    17.994526    23.247007    22.071258    9232.8239    1177.9087     2296.616    1905.4708     231.2764   -416.84618   -320.66128   -3976.4673 
20737000    154.65278   -4475.8429   -4210.7733   -4475.8429            0    971.27315    17.932188    23.520279    21.934048    9251.1251    1610.1026    846.82479    456.89209   -545.19978   -64.038034    319.78537   -4079.7309 
20738000    150.31955   -4459.8349   -4202.1923   -4459.8349            0    1854.1777    17.991788    23.478547    21.934024    9265.3934     2076.718    1511.8322    1973.9829   -367.46745    26.762158   -455.67177   -3951.6442 
20739000    149.07612   -4464.0409   -4208.5296   -4464.0409            0    2223.9655     17.93106    23.486757    21.866552    9208.9335    3468.7126     1235.504      1967.68   -728.84644   -18.721677   -335.25274   -3909.8447 
20740000    156.67185   -4474.1784   -4205.6482   -4474.1784            0    2246.3882    18.035285    23.261483    21.929725     9200.122    3052.8699     2891.186    795.10875   -402.22289   -232.76082    1072.3816   -3904.2405 
20741000    142.66403   -4474.2862   -4229.7649   -4474.2862            0     2004.903    17.855257    23.382995    22.041081    9202.3577    3115.1565    1484.7334    1414.8192    787.26824   -88.970927    441.95682    -3960.693 
20742000    146.87837   -4456.3702   -4204.6257   -4456.3702            0    1927.8271    17.960085     23.23409    22.054316    9202.9621    1574.5039    2416.7553     1792.222   -358.62465    24.405555    455.04673   -3945.8809 
20743000    145.58643    -4441.475   -4191.9448    -4441.475            0     2045.063    18.076274    23.292128    21.856218    9202.2306    2191.4088     1825.159    2118.6212    129.97132   -336.94631    220.08157    -3917.487 
20744000    148.26699   -4459.8789   -4205.7544   -4459.8789            0    1416.8171    17.898252    23.565346    21.991442    9275.5174    2556.7758    1135.5774     558.0982   -884.40044   -605.17179    434.87733    -4014.096 
20745000    155.89215   -4454.6908    -4187.497   -4454.6908            0    2988.7224    18.069972    23.139122    21.953384    9179.2213    2755.6897    2780.5776    3429.8998   -295.95099   -270.01577   -76.907745   -3787.3981 
20746000    148.25108   -4464.2772     -4210.18   -4464.2772            0    1363.7158    17.840949     23.63457    21.923065    9244.1486    1304.4777    969.49879    1817.1708    125.97366    126.34492     117.7163   -4026.3287 
20747000    146.96936   -4465.0483   -4213.1479   -4465.0483            0    1391.2673    18.094355    23.162435    22.038403    9236.5001    1102.6483     1951.764    1119.3896    -630.2323    157.04047    235.62165   -4025.7374 
20748000    158.32004   -4464.5428   -4193.1877   -4464.5428            0     1470.753    17.797123    23.449726    22.095455    9221.2653    2602.8678    1026.0294     783.3619    340.77189   -223.78858    32.297063   -3995.3968 
20749000    142.14261   -4467.3429   -4223.7154   -4467.3429            0    1509.9213    18.006295    23.342887    21.956226     9228.617    1862.7748    1739.6767    927.31236   -792.75213   -558.73406    375.96419   -4020.4952 
20750000    158.82449   -4458.2614   -4186.0417   -4458.2614            0    2233.8526    17.969726    23.434895    21.910964    9227.1155    3330.7177    1949.7665    1421.0736    606.04111   -419.08727     73.40282   -3885.4366 
Loop time of 347.893 on 64 procs for 250000 steps with 864 atoms

Performance: 124.176 ns/day, 0.193 hours/ns, 718.612 timesteps/s
194.6% CPU use with 32 MPI tasks x 2 OpenMP threads

MPI task timing breakdown:
Section |  min time  |  avg time  |  max time  |%varavg| %total
---------------------------------------------------------------
Pair    | 18.109     | 24.953     | 34.282     | 106.3 |  7.17
Bond    | 1.0237     | 1.1887     | 1.3893     |   8.3 |  0.34
Kspace  | 173.68     | 182.58     | 190.83     |  41.0 | 52.48
Neigh   | 0.86403    | 0.92873    | 0.9585     |   2.7 |  0.27
Comm    | 52.087     | 55.202     | 58.521     |  22.1 | 15.87
Output  | 0.55028    | 0.55066    | 0.55247    |   0.0 |  0.16
Modify  | 64.315     | 66.392     | 71.028     |  19.6 | 19.08
Other   |            | 16.1       |            |       |  4.63

Nlocal:        27.0000 ave          38 max          18 min
Histogram: 5 4 4 3 1 2 2 6 1 4
Nghost:        2131.56 ave        2230 max        2038 min
Histogram: 16 0 0 0 0 0 0 0 2 14
Neighs:        6585.75 ave        9071 max        4482 min
Histogram: 6 3 4 3 2 2 1 5 2 4

Total # of neighbors = 210744
Ave neighs/atom = 243.91667
Ave special neighs/atom = 2.0000000
Neighbor list builds = 3235
Dangerous builds = 0

unfix		3
unfix		2
unfix		1

write_data	data.final.${pid} nocoeff
write_data	data.final.0 nocoeff
System init for write_data ...
PPPM initialization ...
  extracting TIP4P info from pair style
  using 12-bit tables for long-range coulomb (../kspace.cpp:340)
  G vector (1/distance) = 0.37186888
  grid = 24 27 25
  stencil order = 5
  estimated absolute RMS force accuracy = 0.0031385241
  estimated relative force accuracy = 9.4515722e-06
  using double precision FFTW3
  3d grid and FFT values/proc = 4410 672
Last active /omp style is kspace_style pppm/tip4p/omp

write_restart   restart.lmp.${pid}
write_restart   restart.lmp.0
System init for write_restart ...
PPPM initialization ...
  extracting TIP4P info from pair style
  using 12-bit tables for long-range coulomb (../kspace.cpp:340)
  G vector (1/distance) = 0.37186888
  grid = 24 27 25
  stencil order = 5
  estimated absolute RMS force accuracy = 0.0031385241
  estimated relative force accuracy = 9.4515722e-06
  using double precision FFTW3
  3d grid and FFT values/proc = 4410 672
Last active /omp style is kspace_style pppm/tip4p/omp
Total wall time: 0:05:48
