LAMMPS (30 Jul 2021)
  using 1 OpenMP thread(s) per MPI task
package omp 0
using multi-threaded neighbor list subroutines
echo both

include		in.partitions
variable        pid world 0
include		in.temp
variable        temperature equal 248.24
variable	tempDamp equal 100.0
include		in.pressure
variable        pressure equal 6750.0
variable        pressureDamp equal 1000.0 # This is 1 ps
include		in.seed
variable        seed world 745823

units		real
atom_style	full
read_restart	restart.lmp.${pid}
read_restart	restart.lmp.0
Reading restart file ...
  restart file = 30 Jul 2021, LAMMPS = 30 Jul 2021
  restoring atom style full from restart
  orthogonal box = (-0.11886898 -0.18091843 -0.10605883) to (24.848870 24.910919 22.916059)
  4 by 4 by 4 MPI processor grid
  restoring pair style lj/cut/tip4p/long/omp from restart
  restoring bond style harmonic/omp from restart
  restoring angle style harmonic/omp from restart
  1920 atoms
  1280 bonds
  640 angles
Finding 1-2 1-3 1-4 neighbors ...
  special bond factors lj:    0        0        0       
  special bond factors coul:  0        0        0       
     2 = max # of 1-2 neighbors
     1 = max # of 1-3 neighbors
     1 = max # of 1-4 neighbors
     2 = max # of special neighbors
  special bonds CPU = 1.252 seconds
  read_restart CPU = 1.581 seconds
include 	in.setup
variable	out_freq equal 1000
variable	out_freq2 equal 10000
variable	out_freq3 equal 1000

timestep	2.0

neigh_modify    delay 7 every 1

include		in.tip4p
# This is TIP4P/Ice

# create groups ###
group ox type 2
640 atoms in group ox
group hy type 1
1280 atoms in group hy

# set charges - beside manually ###
set group ox charge -1.1794
Setting atom values ...
  640 settings made for charge
set group hy charge 0.5897
Setting atom values ...
  1280 settings made for charge

# ### TIP3P Potential Parameters ###
pair_style lj/cut/tip4p/long/omp 2 1 1 1 0.1577 8.5
pair_coeff 1 1*2 0.000 0.000
pair_coeff 2 2 0.21084 3.1668
bond_style  harmonic
bond_coeff  1 450 0.9572
angle_style harmonic
angle_coeff 1 55 104.52
kspace_style pppm/tip4p/omp 1.0e-5
pair_modify tail yes

thermo          ${out_freq}
thermo          1000
thermo_style    custom step temp pe etotal epair emol press lx ly lz vol pxx pyy pzz pxy pxz pyz enthalpy

restart 	${out_freq3} restart.lmp.${pid} restart2.lmp.${pid}
restart 	1000 restart.lmp.${pid} restart2.lmp.${pid}
restart 	1000 restart.lmp.0 restart2.lmp.${pid}
restart 	1000 restart.lmp.0 restart2.lmp.0


include         in.dump
dump            myDump all atom ${out_freq2} dump.water.${pid}
dump            myDump all atom 10000 dump.water.${pid}
dump            myDump all atom 10000 dump.water.0
dump            myDump2 all dcd ${out_freq2} dump.dcd
dump            myDump2 all dcd 10000 dump.dcd
dump_modify     myDump append yes
dump_modify     myDump2 append yes


variable natoms 	equal  "count(all)"                        # NUMBER ATOMS
variable H      	equal  "enthalpy/v_natoms"                 # ENTHALPY-per-atom
variable Vol      	equal  "vol/v_natoms"                 # volume-per-atom
fix AVG all 		ave/time ${out_freq} 1 ${out_freq} v_Vol v_H file vol_enthalpy.dat
fix AVG all 		ave/time 1000 1 ${out_freq} v_Vol v_H file vol_enthalpy.dat
fix AVG all 		ave/time 1000 1 1000 v_Vol v_H file vol_enthalpy.dat




fix 		1 all shake 1e-6 200 0 b 1 a 1
       0 = # of size 2 clusters
       0 = # of size 3 clusters
       0 = # of size 4 clusters
     640 = # of frozen angles
  find clusters CPU = 0.404 seconds
fix             2 all nph aniso ${pressure} ${pressure} ${pressureDamp}
fix             2 all nph aniso 6750 ${pressure} ${pressureDamp}
fix             2 all nph aniso 6750 6750 ${pressureDamp}
fix             2 all nph aniso 6750 6750 1000
fix             3 all temp/csvr ${temperature} ${temperature} ${tempDamp} ${seed}
fix             3 all temp/csvr 248.24 ${temperature} ${tempDamp} ${seed}
fix             3 all temp/csvr 248.24 248.24 ${tempDamp} ${seed}
fix             3 all temp/csvr 248.24 248.24 100 ${seed}
fix             3 all temp/csvr 248.24 248.24 100 745823


run             250000
PPPM initialization ...
  extracting TIP4P info from pair style
  using 12-bit tables for long-range coulomb (../kspace.cpp:340)
  G vector (1/distance) = 0.3741776
  grid = 30 30 30
  stencil order = 5
  estimated absolute RMS force accuracy = 0.0033052108
  estimated relative force accuracy = 9.9535441e-06
  using double precision FFTW3
  3d grid and FFT values/proc = 3600 512
Last active /omp style is kspace_style pppm/tip4p/omp
Neighbor list info ...
  update every 1 steps, delay 7 steps, check yes
  max neighbors/atom: 2000, page size: 100000
  master list distance cutoff = 10.8154
  ghost atom cutoff = 10.8154
  binsize = 5.4077, bins = 5 5 5
  1 neighbor lists, perpetual/occasional/extra = 1 0 0
  (1) pair lj/cut/tip4p/long/omp, perpetual
      attributes: half, newton on, omp
      pair build: half/bin/newton/omp
      stencil: half/bin/3d
      bin: standard
Per MPI rank memory allocation (min/avg/max) = 9.330 | 9.338 | 9.344 Mbytes
Step Temp PotEng TotEng E_pair E_mol Press Lx Ly Lz Volume Pxx Pyy Pzz Pxy Pxz Pyz Enthalpy 
13000000    252.45553     -9126.45   -8163.9743     -9126.45            0     6954.508    24.967739    25.091838    23.022118    14423.045    7709.5196    5711.3208    7442.6837   -1350.0053    2.0459825    59.629343   -6701.1261 
13001000    252.03358   -9178.7802   -8217.9133   -9178.7802            0     5811.067    25.053286    25.115675    22.969839    14453.316    5354.1845    5435.4901    6643.5265   -326.01683    129.04062   -200.54723   -6993.0171 
13002000    239.68695   -9116.5511   -8202.7552   -9116.5511            0    6569.6447    24.906455    25.050815    23.158582    14449.265    7596.2556    6953.1993    5159.4791    326.33809    827.93577   -930.53247    -6818.349 
13003000     252.8405   -9164.3194   -8200.3761   -9164.3194            0    6316.0291    24.948179     24.94818     23.18048    14427.801    6222.4075    6205.5306    6520.1494   -44.335208   -23.652553   -5.0285769   -6871.3909 
13004000    237.43755   -9146.1104   -8240.8902   -9146.1104            0    6290.9434    25.054296    25.091802    22.968281    14439.181    3743.3104    6904.5655    8224.9542   -1150.8026   -258.18829    560.72011   -6916.1393 
13005000    252.71949   -9152.2719   -8188.7899   -9152.2719            0    4942.7737    25.027158    25.105254    23.106348    14518.023    5101.5022     5059.304    4667.5149    429.54902   -652.20064    917.09672   -7142.2541 
13006000    249.92648     -9109.46   -8156.6263     -9109.46            0    6694.6126    24.970442    25.019179    23.097521    14429.944     6244.348    7244.5044    6594.9853   -41.957123   -197.38504   -901.05917   -6747.7723 
13007000    246.56603   -9170.0047   -8229.9825   -9170.0047            0    5704.1984    25.100725    25.063098    22.977745    14455.344    5749.3247    5071.9361    6291.3343   -269.66361   -696.02682    476.31033   -7027.4442 
13008000    252.17377   -9184.5284   -8223.1269   -9184.5284            0    5776.7744    25.051743     25.09192    22.972345    14440.332    5059.9565    5803.5708    6466.7958    12.435613    155.53895    398.47943   -7006.5531 
13009000    252.99156   -9123.0222    -8158.503   -9123.0222            0    6720.1577    24.946034    24.966083    23.176199    14434.246    6316.6777    8360.8885    5482.9068   -361.87999    357.21546    751.11536   -6743.8515 
13010000    247.72738   -9125.9826   -8181.5328   -9125.9826            0    6817.9159    24.827169    25.031722    23.163689    14395.463    8854.2811    6471.5082    5127.9584    1198.3438   -59.146529   -139.49029   -6750.1586 
13011000    251.30042   -9173.5731   -8215.5013   -9173.5731            0    6344.1467    24.867652    25.158097    23.035785    14411.713    7656.4499    4770.2562     6605.734   -322.84647    1370.9119   -45.813839   -6882.0882 
13012000    248.46193   -9108.9093   -8161.6591   -9108.9093            0    6191.1983    24.980363    25.264169     22.93614    14475.184    5772.0672    5550.6842    7250.8435     63.89313    456.85629   -298.12102   -6854.6617 
13013000    253.52665   -9148.2793   -8181.7201   -9148.2793            0    6213.0654    25.006407    25.088999    23.019879    14442.343    6828.1936    5332.3637    6478.6388   -539.95414   -676.18462   -23.391725   -6873.0823 
13014000    249.86903   -9198.3887    -8245.774   -9198.3887            0    6033.5968    24.799083      25.0292    23.231715    14419.953    7091.8579    6572.9243    4436.0081   -794.27139    1070.0358   -352.68404   -6976.9072 
13015000    249.26262   -9161.3571   -8211.0543   -9161.3571            0    6801.2482    24.839689    25.070678    23.083209    14375.018     8229.615    5652.1353    6521.9943    88.397927   -793.34707    489.67967   -6785.2073 
13016000    252.19603   -9153.3061   -8191.8198   -9153.3061            0    7402.8642    24.935456    25.126752     22.94639    14376.992    7857.3227    6211.1319    8140.1382   -1086.4257    475.84227    214.39617   -6639.6341 
13017000    241.56386    -9109.395   -8188.4434    -9109.395            0    9171.1262    24.906445     25.15328    22.873268    14329.617    9229.2944    8043.3929    10240.691    207.00128   -638.87877     1218.143   -6271.8361 
13018000    240.44348   -9155.3796   -8238.6994   -9155.3796            0    6918.4792    24.899232    25.120095    23.061509    14424.306    7612.8978    5756.3109     7386.229    79.625164   -4.6387863    1253.7957   -6783.3024 
13019000    239.97447   -9125.1898   -8210.2977   -9125.1898            0     7351.568     24.80449    25.117645    23.072911    14375.124    8839.3629    7018.3773    6196.9639     56.07481   -344.54236    1757.8414   -6669.0676 
13020000    248.42424   -9168.8044   -8221.6979   -9168.8044            0    8128.5951    24.767971    25.023161    23.114024    14325.447    10277.436    7034.0297    7074.3202   -11.552299    21.414833    119.00241    -6523.456 
13021000     251.4296   -9175.1676   -8216.6033   -9175.1676            0    6849.2239    24.909899    25.063972    23.036644    14382.722    7140.2488    6467.6523    6939.7707    66.020403    420.30742    383.53976    -6779.929 
13022000    254.31073   -9140.9584   -8171.4099   -9140.9584            0    7935.3303    25.048601     25.07571    22.838117    14344.883    6958.8602    7856.6167    8990.5139    535.69737    720.38887    328.32896    -6511.296 
13023000    253.94445   -9219.8468   -8251.6947   -9219.8468            0    6997.0948    24.995264    24.914234     23.03611    14345.458    6508.5609    7829.6616    6653.0618    49.702106    703.93683    839.92633   -6787.8061 
13024000    252.07925   -9106.8261    -8145.785   -9106.8261            0    5394.4367    25.120216    24.870303    23.220058     14506.67    4590.9854    7102.7816    4489.5431   -340.09278    499.85422   -227.37308   -7004.5115 
13025000    255.15683   -9167.2322    -8194.458   -9167.2322            0    4889.1403    25.116375    25.041753    23.055977    14501.243    3980.9927    5383.8071    5302.6212   -305.57211    951.41051   -249.58133   -7160.4745 
13026000    248.63507   -9116.0746   -8168.1643   -9116.0746            0    6569.2631    24.991542    25.022987    23.086207     14437.26     7157.521    6276.0292     6274.239    1098.7512   -58.869832     316.7855   -6784.9887 
13027000    249.92838    -9138.083   -8185.2421    -9138.083            0    6371.4735    24.900654    25.074059    23.127262    14439.748    7332.8338    4623.4644    7158.1223   -542.81398    47.217897   -342.42563   -6843.4804 
13028000    245.00971   -9148.0377    -8213.949   -9148.0377            0    7208.7553    25.010797     25.09606    22.906393    14377.711    6635.0985     6453.848    8537.3194   -522.07659    354.43154   -626.82568   -6702.3871 
13029000    237.81028   -9135.7572    -8229.116   -9135.7572            0    6091.7078    25.020687    25.042003    23.028084    14428.664    6544.1933    5371.8953    6359.0349    184.86554   -620.40227    835.97995   -6947.2546 
13030000    250.10633    -9119.364   -8165.8446    -9119.364            0    6074.7189    24.934178    25.014798    23.188901    14463.461    7186.8509    7259.6413    3777.6646     292.3001    2.7076293    156.62809   -6884.4754 
13031000    250.25707   -9118.6891   -8164.5951   -9118.6891            0    5784.4724    25.005109    25.050749    23.133604    14490.813    5841.1001    5597.2222    5915.0948    15.786001   -364.85198    9.5690761   -6942.1414 
13032000    247.78449   -9121.6032   -8176.9357   -9121.6032            0    4302.9059    25.129553    25.027366    23.151506    14560.596    3561.9581    4533.1189    4813.6407   -237.58221    201.84324   -386.63527   -7263.2078 
13033000    257.36149   -9172.9421   -8191.7628   -9172.9421            0    5781.4553    25.017172    25.127726    22.998301    14457.299    5779.7224    5237.9861    6326.6574    54.344733   -735.73435    1668.1388   -6972.7725 
13034000    242.53018   -9168.2716   -8243.6359   -9168.2716            0    5734.9857    24.860114    25.168851    23.136904    14476.773     6502.543    5865.9121    4836.5021   -572.73118   -723.28188    1084.2344   -7032.8148 
13035000    237.41541   -9176.3079   -8271.1721   -9176.3079            0    5767.5915    24.986572    25.117725    23.018814    14446.742     6482.755    5399.5513    5420.4682   -1557.2591   -27.813938    882.53763    -7055.993 
13036000    241.90921   -9142.2068   -8219.9386   -9142.2068            0    5872.6048    24.924058    25.150633    23.089383    14473.715    6190.5952    6519.9822     4907.237   -543.51331    227.62287    573.96709    -6980.324 
13037000    250.12926   -9166.1828    -8212.576   -9166.1828            0    6569.7277    24.956531    25.079209    23.056805    14431.025    6832.0475    5476.8925    7400.2431    74.445851   -173.76053    413.93362   -6829.8999 
13038000    256.83623   -9168.4176   -8189.2408   -9168.4176            0    5880.9828     25.04277    25.069979    23.057862    14476.227    6061.0149    5185.6325    6396.3011    1185.9401   -266.77402   -252.25582   -6947.6423 
13039000    242.38743   -9158.6451   -8234.5537   -9158.6451            0    5229.5074     25.03335    25.071789    23.081314    14486.545    3781.7229    5296.0476    6610.7517   -847.19087    12.422208   -492.49165   -7129.7083 
13040000    250.49044   -9158.2126   -8203.2288   -9158.2126            0    8284.6989     24.92965    25.012569    22.967474    14321.474    9461.7502    7888.5711    7503.7756    638.24396    351.33268   -12.253862   -6472.8534 
13041000    248.88208   -9196.9827   -8248.1307   -9196.9827            0    7346.6989    24.913524    25.040612    23.052858    14381.523    8483.9727    6554.9154    7001.2085    473.08932    441.47759    30.241459   -6707.2358 
13042000    248.03557   -9150.5693   -8204.9446   -9150.5693            0    7320.4526     24.86478    25.017103    23.092915    14364.827    7720.8368    6841.3897    7399.1314    384.35519   -407.50173    199.41905   -6671.3371 
13043000    249.29489   -9132.1697   -8181.7438   -9132.1697            0    5848.1645    24.904731    25.100969    23.136197    14463.198    7957.1786    5644.3135    3943.0015    565.47943   -613.30308    1385.8089   -6948.1852 
13044000    246.44687    -9148.574   -8209.0061    -9148.574            0    6075.7844    24.842152    25.154505    23.119991    14447.498    7919.3757    4577.5271    5730.4503   -372.43625    12.381343   -895.29674   -6928.8265 
13045000    240.53375   -9189.1545   -8272.1301   -9189.1545            0    6513.9628    24.975405    25.077582    23.005311     14408.75    6668.5581    6070.2664    6803.0638   -629.71365   -1265.2261    193.33921   -6903.3066 
13046000    249.56026   -9109.4396   -8158.0021   -9109.4396            0    6426.6593    24.993584    25.251761    22.897132    14451.113     6173.643    4934.8838    8171.4512   -1831.9664   -587.36402    165.94623   -6803.5537 
13047000    244.15025   -9154.4454   -8223.6333   -9154.4454            0    7265.0193    24.853613    25.113803      23.0398    14380.723    8246.4036    7261.2655    6287.3888   -117.57473   -850.01291   -970.70881   -6699.9547 
13048000    247.97042    -9164.951   -8219.5747    -9164.951            0    6071.2183    24.827544    25.002655    23.250402    14432.792     6927.669    6400.0696    4885.9162   -16.301122     380.8445    96.596087   -6941.6593 
13049000    253.17158   -9146.8509   -8181.6454   -9146.8509            0    6898.1194    24.910183    25.121435    23.026059    14409.236    7362.4724    5999.1084    7332.7773    262.75306   -607.51469   -736.63143   -6732.0474 
13050000    253.45682   -9141.9099   -8175.6169   -9141.9099            0    7748.7335    24.904865    25.075382    23.014096     14372.28    8897.8751    7460.7947    6887.5308     375.9419    160.73776    -933.8866   -6551.4439 
13051000    246.89499   -9143.2979   -8202.0216   -9143.2979            0    5565.0435     24.98404    25.104549    23.096154    14486.209    6854.2211    4534.7484     5306.161    116.78756   -777.11384    188.40083   -7026.3144 
13052000    243.77285   -9138.7585   -8209.3852   -9138.7585            0    6650.3397    24.942999    25.014485    23.131649    14432.675    5146.3885    7663.1901    7141.4404    350.40668   -572.82793    517.88453   -6809.5834 
13053000    238.06798   -9118.1893   -8210.5656   -9118.1893            0    5782.5033    24.946895    25.140872    23.079679    14475.268    6101.4986    5487.3357    5758.6756    912.66931   -1657.9893    771.53836   -6989.8391 
13054000    257.98151   -9173.0213   -8189.4782   -9173.0213            0    4887.5249      24.9786    25.129695    23.062735    14476.585    6157.4286    4134.9549    4370.1913   -1123.8558   -378.65576   -254.88049   -7157.5939 
13055000    257.86769   -9151.7665   -8168.6573   -9151.7665            0    7789.0335    24.993621    24.994039    22.990978     14362.27    7505.6212    7884.2282     7977.251    130.18503    1559.5685   -287.27754   -6537.1744 
13056000    252.61218   -9122.5828   -8159.5099   -9122.5828            0    8228.7117    24.923346    25.052337    22.998661    14360.089    8265.9669    8524.3632    7895.8049   -281.43102    1082.4643    174.51729   -6436.1941 
13057000    248.63082   -9143.1278   -8195.2337   -9143.1278            0    7798.1541    24.881766    24.924071    23.160333    14362.994    7465.8855    8325.6607    7602.9162   -10.159773    586.92169    89.292476    -6561.758 
13058000    243.04315   -9153.6841   -8227.0928   -9153.6841            0    6429.4686    25.008701    25.078895    23.033306    14446.273    7041.6982    6134.7261    6111.9815    611.09579   -317.25732    774.52072   -6872.5062 
13059000     252.5936   -9174.9982   -8211.9962   -9174.9982            0    5895.6267    25.068072    25.119608    22.938488    14444.369    6516.8031    4727.1286    6442.9484    1239.7682   -245.53015   -833.61483   -6970.0453 
13060000    246.64637   -9189.6135   -8249.2851   -9189.6135            0    7872.7926    24.891128    25.034941    23.002983    14334.262     8504.242    7583.2954    7530.8405    130.55637    1007.4779   -581.54644   -6603.4738 
13061000    244.63985   -9158.9177    -8226.239   -9158.9177            0    6584.9384    24.944155    24.990404    23.160686     14437.55    6961.3138    6203.2905     6590.211    243.88391   -732.84725    417.17415   -6839.7351 
13062000    253.25087   -9171.8691   -8206.3613   -9171.8691            0    6167.2825    25.089267    25.001115    23.039145    14451.526    5769.6406    5976.8225    6755.3845     288.5255    -349.9594   -468.24884   -6906.5407 
13063000    249.89444   -9099.7083   -8146.9967   -9099.7083            0    6903.8384    24.981674    25.036873    23.096078    14445.742    7463.8553    6366.5482    6881.1116    -549.3075   -680.22512    527.83326   -6692.5214 
13064000    250.01619   -9140.2042   -8187.0285   -9140.2042            0    7797.6941    24.967706      24.8909    23.091024    14350.348    7017.9094    9174.4471    7200.7257   -198.01002   -152.75565   -262.65285   -6555.0873 
13065000    242.35731    -9178.357   -8254.3804    -9178.357            0    6016.2562    25.087732    24.932278    23.046261    14415.305    5769.7273    6015.2576    6263.7836     179.6491   -1346.8789   -261.05466   -6989.5682 
13066000    260.81779   -9135.5069   -8141.1506   -9135.5069            0    6394.0284    25.060606    24.925027    23.121558    14442.564    5060.1828    8613.1878    5508.7146    858.06562    245.26222   -172.97237   -6794.3764 
13067000    247.02344   -9188.9194   -8247.1534   -9188.9194            0    6648.5094    25.080533    24.866785    23.080321    14394.556    5174.5257    7195.9327    7575.0699   -172.83392    356.70094   -1280.6817    -6851.433 
13068000    242.35006    -9159.816    -8235.867    -9159.816            0    7266.3297    25.055715    24.906109    23.043438    14380.035    6622.9036    8235.9474    6940.1379   -581.50188    155.87061    142.85339   -6711.9865 
13069000    245.39153   -9173.8465   -8238.3021   -9173.8465            0     6406.173    25.110812     24.90477    23.024589    14399.094     5112.382    8148.5097    5957.6272   -385.93531    -535.9769    28.933813   -6893.0313 
13070000     238.6524   -9134.8811   -8225.0293   -9134.8811            0    6694.5457    25.042264    24.939969    23.082277    14416.112    7016.7484      6490.89    6575.9987    -459.2621    267.63052    557.31576   -6817.5399 
13071000    254.23756    -9167.658   -8198.3885    -9167.658            0    6517.0702    25.074878    24.976941    22.997209    14403.008    6285.0932    6182.0252    7084.0923    558.08319   -173.15324    399.29041   -6829.4577 
13072000    253.87405   -9119.3893   -8151.5056   -9119.3893            0     7668.916    25.093906    24.862223    23.026339    14365.909    7194.2206    7588.3503    8224.1772   -194.29261    50.120496    342.76218   -6544.7754 
13073000    236.36372   -9182.8139   -8281.6876   -9182.8139            0    7769.8542    24.980725     24.92282    23.020005    14332.027    8260.6042    7328.5912    7720.3671    535.70514    551.45985   -261.79233   -6657.6489 
13074000    256.36978   -9168.2617   -8190.8632   -9168.2617            0    7345.8969    24.967072     24.94937    23.016817    14337.468    7258.6788    7082.5731    7696.4389    340.25417   -583.53006   -675.62143   -6654.8562 
13075000    253.76819   -9132.7984   -8165.3183   -9132.7984            0    7983.4675    25.033395    24.993579    22.956328    14363.181    7373.8727    8112.5789    8463.9509    348.79434   -146.47163   -1182.4133   -6493.0033 
13076000    254.22572   -9169.2309   -8200.0065   -9169.2309            0    7709.9524     24.97396    24.963054    23.030577    14357.868    7764.8116    7423.2183    7941.8273    244.98264      -154.13    341.18727   -6585.5828 
13077000    238.60537   -9163.6382   -8253.9657   -9163.6382            0    6742.0915    25.078647    24.981756    23.004864    14412.746    6453.0696    7092.3877    6680.8171   -460.06585    -77.81583    1215.7182    -6836.811 
13078000    250.53973   -9127.4603   -8172.2885   -9127.4603            0    5303.9729    25.071467    24.990661    23.115147    14482.854    4925.4041    5928.8031    5057.7115   -62.859552   -70.785968   -704.34935   -7051.9963 
13079000    243.50156   -9153.2758   -8224.9368   -9153.2758            0     6448.211    25.013506    24.754372    23.325464    14442.979    5128.2446    8591.1125    5625.2758   -256.97546     1079.816    879.93001   -6866.7112 
13080000    244.39672   -9141.6794   -8209.9276   -9141.6794            0    5575.1317    25.123981    25.024384     22.99576    14457.713    5468.9329    5550.8323    5705.6298   -288.95587    497.61792   -403.86575    -7034.406 
13081000    251.54416   -9135.4989   -8176.4978   -9135.4989            0    6112.8624    25.168775    25.101804    22.896205    14465.402     4070.362    7336.8031     6931.422    777.83979   -352.22185   -35.725281   -6886.9097 
13082000    245.07323   -9145.1733   -8210.8423   -9145.1733            0    6209.6864    24.888343     25.05204    23.142248    14429.279    6699.7895    6962.2193    4967.0504   -628.69831   -297.23855    550.06624   -6904.0993 
13083000    245.53728   -9189.7484   -8253.6483   -9189.7484            0    6181.8281    24.817533    25.168165     23.11424    14437.426    7051.7526    5052.1722    6441.5596   -350.63453   -175.21387    69.082841   -6952.0331 
13084000    252.23454   -9121.2041    -8159.571   -9121.2041            0    7116.3488     24.94015    25.136569    22.979613    14406.144    6856.9091    6488.5146    8003.6225   -904.43191    452.49133    439.28782   -6664.4344 
13085000     241.7726   -9149.6771   -8227.9297   -9149.6771            0    6580.7477    24.844239    25.072973    23.132402    14409.611    6787.5756    6967.0838    5987.5838   -707.55706    323.79836    410.70599   -6844.9895 
13086000    243.93045   -9127.9477   -8197.9736   -9127.9477            0    6590.3045    24.884764     25.03272    23.168023    14432.134    6840.2318    6219.3814    6711.3003   -349.60094   -712.79424   -331.97997   -6810.8603 
13087000    245.96858   -9144.3302   -8206.5858   -9144.3302            0     7412.225    24.883699    25.166903    22.933716    14362.139    8967.4565    5399.1522    7870.0664   -479.40605    122.25102    1043.2563   -6654.0429 
13088000    252.28972   -9125.2362   -8163.3927   -9125.2362            0    8039.3847    24.937753    25.112832    22.957009    14377.002    8794.2188    7235.4604    8088.4748   -532.17705   -25.916404    133.41534   -6477.7442 
13089000    243.74854   -9187.8928   -8258.6122   -9187.8928            0    8183.7663    24.776262    25.019566    23.128128    14336.926    9409.6861    6934.1555    8207.4574   -259.01387   -901.70034    709.07819   -6547.4738 
13090000     250.8546    -9156.663   -8200.2909    -9156.663            0    6975.3715    24.928479    25.018697    23.157039    14442.537    7695.0524     7234.531     5996.531    171.72243   -194.58272   -179.68369   -6731.0713 
13091000    239.85296   -9162.9263   -8248.4975   -9162.9263            0     6806.592    25.012562    24.968105     23.03864    14388.006    6240.1335    7275.7077    6903.9348    43.063058   -386.79791    553.79724    -6820.241 
13092000    247.38486   -9147.8673   -8204.7234   -9147.8673            0    6871.6532    25.002861    25.025026    23.023118    14405.501    5899.4082     7195.012    7520.5395   -392.76318    90.727091    74.880167   -6761.0615 
13093000    246.22604   -9132.4134   -8193.6874   -9132.4134            0    6774.3986    25.098976    24.896931    23.078605    14421.531    5340.7429    9248.5974    5733.8554   -445.62295   -602.84179    -326.0154    -6768.874 
13094000    240.02196   -9132.9683   -8217.8951   -9132.9683            0    6623.9871    25.070329     24.95711    23.078449    14439.792    6441.3393    6929.0145    6501.6074    178.55517   -390.73064   -1270.8898   -6822.9527 
13095000     240.3377    -9185.931   -8269.6541    -9185.931            0     6392.283    25.098806    24.821093     23.12924    14409.049    5312.5374       7193.8    6670.5117   -46.932049    510.01094   -487.64127   -6926.3721 
13096000    254.31374   -9167.4599      -8197.9   -9167.4599            0    5530.6651    25.143531     25.00537    22.985427    14451.473    3991.6583    6560.3026    6040.0344   -48.754859    234.20059    188.93058   -7032.2575 
13097000     252.8194   -9155.9998   -8192.1369   -9155.9998            0    6331.6424    25.078886    25.015305     23.01237    14436.948      5468.47    6787.7727    6738.6843    568.40412    -1086.906   -844.27498   -6859.0217 
13098000    239.22097   -9170.3326   -8258.3132   -9170.3326            0    6697.1625    24.967938    24.917599    23.158321    14407.742    6684.2808    6720.1777     6687.029   -7.1439917   -177.72311   -249.87551    -6851.091 
13099000    254.83701   -9155.9231   -8184.3682   -9155.9231            0     5969.506    24.883051    25.043045    23.226244    14473.373    7358.0927    4694.1653    5856.2599   -457.64636    687.11447   -289.38466   -6924.3291 
13100000    248.25419   -9195.4744   -8249.0162   -9195.4744            0    6074.3731    25.005494    25.054576    23.040234    14434.754      6382.07    5943.1968    5897.8526    442.97635    715.15166   -1006.5559   -6970.2629 
13101000    244.39943   -9144.9043   -8213.1423   -9144.9043            0    7570.2337    24.984668    25.024593    22.986256    14371.723    6755.0568     8317.103    7638.5415    454.13852   -16.295074   -543.58544   -6626.4452 
13102000    249.99097   -9128.0692   -8174.9896   -9128.0692            0    7109.6884    24.974475    24.990958    23.076494    14402.872    6264.4982    7485.8898    7578.6774   -871.71102   -401.19598    1488.3927   -6681.5916 
13103000     251.7068   -9152.2529   -8192.6318   -9152.2529            0    7283.2113    24.917056    25.046511     23.06186    14392.568     7795.621    6283.3859    7770.6272    32.243853   -782.46202    438.63458   -6663.8796 
13104000     246.7995   -9156.9051   -8215.9929   -9156.9051            0    6269.8853    24.924946    25.166713    23.018846    14439.238    5841.7018    6535.4036    6432.5503    84.204819   -200.74792    393.81927   -6895.6712 
13105000    248.23475   -9137.6987   -8191.3146   -9137.6987            0    6088.8063    24.982751    25.169666    22.994895    14459.362    5342.9576    5660.5455    7262.9158   -1175.4155    -487.2079   -18.749842   -6907.3377 
13106000    246.36278   -9179.7193    -8240.472   -9179.7193            0    7009.1327    24.868516     25.06347    23.067609     14377.84    6146.3975    6613.7103    8267.2902    207.23118   -816.91162   -601.36013   -6770.7547 
13107000    256.17766   -9180.3498   -8203.6837   -9180.3498            0    7118.8868    24.834868    25.092318    23.085886    14386.302    7323.2637    7016.9532    7016.4435    299.72718    1336.2962    -513.2404   -6710.0739 
13108000     249.1579   -9146.9785    -8197.075   -9146.9785            0    8003.3001    24.930866    25.141336    22.851756    14323.373    7693.3114    7519.6545    8796.9342   -185.49295    445.43459    410.52292    -6525.252 
13109000    237.45269   -9121.3581   -8216.0801   -9121.3581            0    6966.5307    24.891718    25.099629    23.076636    14417.657     7357.467    6589.9841    6952.1411    408.07469   -4.0683858     566.7853   -6751.2504 
13110000    251.41613   -9186.2744   -8227.7615   -9186.2744            0    6924.5748    24.924277    24.975446    23.146318    14408.466    7249.4979    6703.6516     6820.575   -739.13546   -1292.4974    1012.6634   -6772.6819 
13111000    253.57927   -9174.0641   -8207.3043   -9174.0641            0    6371.1199    25.011482    25.076048    22.997642    14423.871    5670.6625    6169.8963     7272.801   -424.04434   -1186.0779   -681.85057   -6867.0923 
13112000    246.56907   -9134.9997    -8194.966   -9134.9997            0    6369.8323    25.099681    25.116647    22.922014    14450.492    6140.0161    5947.1545    7022.3263    389.03483   -1941.3642    1313.3384   -6852.5518 
13113000    253.55713   -9184.3352   -8217.6598   -9184.3352            0    5706.4055    25.023214    25.019398    23.069498    14443.022    5146.3492    5658.4211    6314.4461   -332.50968   -917.35017   -148.47754   -7015.6816 
13114000    260.28168   -9146.0373   -8153.7249   -9146.0373            0    5657.1693    25.097671    25.042689    23.063275    14495.572    4496.4209    6134.2864    6340.8007   -240.64353   -428.91036   -802.59325    -6957.782 
13115000    256.74088   -9128.9224   -8150.1091   -9128.9224            0    6350.0427    25.034663    25.109125    22.994222    14454.133    7261.9957    5403.8219    6384.3103   -320.27327   -733.93532    510.17771   -6811.5283 
13116000    248.15646   -9183.4776    -8237.392   -9183.4776            0    6064.3573    25.105695    25.162575    22.820261    14416.105    5270.7846    5664.6014    7257.6858   -185.75743   -1239.4209     75.11264   -6962.3966 
13117000    243.70593   -9203.2758   -8274.1576   -9203.2758            0    5974.0223    24.941067    25.024262    23.094468    14413.992    6418.6257    5461.3141    6042.1271   -634.91734    -1048.679   -55.662143   -7018.3387 
13118000    241.05349   -9181.9329   -8262.9271   -9181.9329            0    6784.8723    24.933757    24.948181    23.178901    14418.479    7852.9065    6387.0146    6114.6957   -99.856289    248.38913     306.2864   -6836.2128 
13119000    252.73997   -9176.4253   -8212.8653   -9176.4253            0    6680.6467    24.920569     25.07877     22.99669    14372.407    7586.7871    6423.3882    6031.7649   -233.05201    551.81823    208.45614   -6812.5562 
13120000    249.74053   -9172.8042   -8220.6794   -9172.8042            0    6439.9399    24.937512    25.057812    23.046419    14401.235    7665.8431    5178.7839    6475.1929   -171.26969   -1057.7222   -153.88879   -6868.1165 
13121000    238.13681   -9135.7719   -8227.8858   -9135.7719            0    7457.8637    24.962971    24.992618    23.080972    14399.987    8094.5471    7377.2391     6901.805    884.85073    21.804053   -116.93528   -6661.6669 
13122000    253.84937   -9149.8557   -8182.0661   -9149.8557            0    6699.2226    25.061931    24.964749    23.046899    14419.634    4959.0683    7276.4366    7862.1628    86.733412   -526.85374    308.07995   -6773.2493 
13123000    245.00491   -9173.4125   -8239.3421   -9173.4125            0    5992.8633    25.102482    24.940186    23.052764    14432.426     5474.009    6905.2314    5599.3496   -528.20167   -710.44208    828.83037   -6977.9514 
13124000     254.0719   -9144.3495   -8175.7116   -9144.3495            0    6447.5792    25.051032    24.938841    23.129814    14450.206    5946.8916    6582.8625    6812.9836    374.53376    355.24227   -269.46054   -6816.9396 
13125000     258.7207   -9137.0897   -8150.7284   -9137.0897            0    8610.2698    24.953786    24.997082    22.943495    14311.507    8563.2434    7935.2806    9332.2853   -716.01064   -737.38321   -496.49188   -6353.6046 
13126000    244.10337   -9145.0079   -8214.3745   -9145.0079            0    6983.9053    24.956053    24.991569    23.088291    14399.957    7645.6083    6710.3294    6595.7781   -228.95373    293.14728   -148.10781   -6747.6943 
13127000    250.10416   -9145.6837   -8192.1726   -9145.6837            0    7324.9322    25.019346    25.017161    22.973482    14379.401    7503.0166    6953.2896    7518.4904   -1120.6706    -247.0786   -564.84536   -6656.0697 
13128000    245.23966      -9156.2   -8221.2346      -9156.2            0    6563.7571    25.010626    25.223632    22.834584    14405.399    5632.4118    6545.5038    7513.3556   -53.913388   -711.19994    731.77674   -6842.2682 
13129000    255.46413    -9169.445   -8195.4992    -9169.445            0    6762.6996     24.95379    25.028092    23.090095    14420.821    7919.4551    5819.2666    6549.3772    515.87831   -224.51886    376.92305   -6773.2163 
13130000    234.99489   -9143.2524   -8247.3447   -9143.2524            0    6829.8851    24.831956    25.043613    23.188957    14420.793    7207.4608    5789.5406    7492.6539   -692.04637   -81.058455     1349.514   -6810.9347 
13131000     243.5245   -9168.7434    -8240.317   -9168.7434            0    8088.1733    24.971739     25.01154    22.918211    14314.293     7428.681    8183.3715    8652.4675     264.0115   -1346.4639    1193.8759   -6551.8357 
13132000    252.00529   -9182.7708   -8222.0117   -9182.7708            0    4234.7765    25.132632    25.153856    22.966063    14518.745    3274.1455     4400.253    5029.9308   -449.02209    922.04622    1.5079948   -7325.3359 
13133000    244.49546   -9153.5885   -8221.4603   -9153.5885            0    6006.8297    25.081924    25.021545    23.071297     14479.28    5942.6789    5696.0602    6381.7501   -308.36241    500.79784    878.66803   -6953.0253 
13134000    241.50401   -9175.3205   -8254.5971   -9175.3205            0    6217.4551    25.061621    25.043928    22.983257    14425.245    5766.3812     5883.844    7002.1402   -378.55498    433.48256    317.39366   -6946.5851 
13135000    250.92751   -9210.7351    -8254.085   -9210.7351            0    7310.9509    24.966063    24.951431    22.973386    14311.019    6573.7312    7560.2851    7798.8363   -512.18568    -1053.827     1091.574   -6728.2052 
13136000    247.48239   -9143.9326   -8200.4169   -9143.9326            0    8227.6252    24.918011    24.870798    23.131485    14335.294    8239.3282    9426.6709    7016.8764   -617.77066   -398.89827   -222.70678   -6480.3038 
13137000    246.10597   -9172.5593   -8234.2911   -9172.5593            0    7864.9379     24.97175    24.941432     23.09222    14382.555    7482.2373     8405.684    7706.8923   -516.61229   -69.472427     38.22886   -6584.5825 
13138000    256.47375   -9186.0517   -8208.2568   -9186.0517            0    6566.4028    24.982949    24.896443    23.149531    14398.697    6125.0369    7494.5137    6079.6579    118.96206   -575.04317    -231.0396   -6829.3764 
13139000    240.98514    -9172.681   -8253.9358    -9172.681            0    6820.5312    25.006682    24.991252    23.030929     14393.14    6375.4186    6784.3567    7301.8181    -178.3888    37.120879    826.47401   -6822.2437 
13140000    249.78021   -9150.8714   -8198.5953   -9150.8714            0    6567.8536    25.052211    24.909075    23.128458    14432.791    6192.9111    6998.3179    6512.3319    789.85641     663.3179    918.99008   -6816.1445 
13141000    251.31775   -9200.3142   -8242.1764   -9200.3142            0    5878.8188    25.066314    24.929023    23.139281    14459.244    5684.3964    6556.9779    5395.0822    61.397409    193.00394    1029.6831   -7002.4908 
13142000    248.19512   -9191.4994   -8245.2664   -9191.4994            0    6434.9598    25.099944    25.016037    22.881019    14367.017    5534.3447    6634.3905    7136.1443   -163.19486     553.2317    779.63015   -6896.9608 
13143000    253.40659   -9164.6484   -8198.5469   -9164.6484            0    6033.3208    25.039334      24.9531    23.080281    14420.767    5416.9395    7464.1083    5218.9145   -189.06154    286.01487    891.40186   -6929.6666 
13144000    251.35722   -9171.4747   -8213.1864   -9171.4747            0    7424.6115    24.939639    24.888823    23.195664    14397.973    8089.3745    8408.4128     5776.047   -683.76642    57.540114   -1320.2001    -6654.169 
13145000    255.07714   -9125.9128   -8153.4425   -9125.9128            0    7104.4229    24.979789    25.001855    23.075217    14411.421    7603.3329    6211.7336    7498.2021    213.30673   -440.58208    24.327359   -6660.2648 
13146000    239.99283   -9147.8079   -8232.8458   -9147.8079            0    5395.3142    25.023326    25.116903    23.055271    14490.432    6608.8869      5064.04    4513.0155   -30.439207   -881.26232    1340.1858   -7092.6644 
13147000    241.04745   -9140.4394   -8221.4566   -9140.4394            0    6920.0325    24.983537    25.042229    23.014423    14398.823    7597.0106    7196.3545    5966.7325    3.8270013   -994.07643    178.93385   -6768.3047 
13148000    243.22199   -9183.0092    -8255.736   -9183.0092            0    5881.0356    24.958842    24.891444    23.204646    14416.156    4638.3781    7740.0458     5264.683   -352.85815    64.528689   -652.51383   -7019.2786 
13149000    249.66963   -9153.3489   -8201.4944   -9153.3489            0    7165.9194    25.047118    24.926126     23.06028     14397.17    7555.6956     6198.028    7744.0346    222.71373   -956.24586   -788.10976   -6696.8809 
13150000    241.22554   -9154.2549   -8234.5932   -9154.2549            0    6214.2386     25.10746    24.980858    23.000839    14426.262    5600.5663    6667.5881    6374.5615   -217.56591    43.503351   -651.79485   -6927.1657 
13151000     251.4355   -9156.0342   -8197.4474   -9156.0342            0    6343.2895    25.184938    24.933554    22.982795    14432.046    4719.1367    7044.8488    7265.8829   -476.40671    984.35215    189.97016   -6862.3335 
13152000    244.40133   -9173.4597   -8241.6904   -9173.4597            0    6345.0014     25.03289    24.953831    23.074746    14414.021    6020.5931    7174.2385    5840.1727   -417.14622    594.71447    50.125969   -6907.8841 
13153000    250.42573   -9152.7332   -8197.9961   -9152.7332            0    5303.2922    24.980995    25.066443    23.175866    14512.372    5440.0636    5045.4459     5424.367   -845.29432   -121.46221   -145.74853   -7075.5646 
13154000    245.54039   -9172.8686   -8236.7566   -9172.8686            0    5393.7716    24.940661    25.133838    23.052552    14450.597    6397.0364    3850.6215    5933.6567   -838.12751   -115.37625    1476.7467   -7100.0347 
13155000    250.32188   -9170.6095   -8216.2684   -9170.6095            0      6704.91    25.011953     25.04732    22.980928    14397.147    7163.3895    6554.6359    6396.7045    156.19187    345.87134    11.506407   -6808.4544 
13156000    241.10201     -9215.86   -8296.6692     -9215.86            0    7902.7659    24.806335    25.046957    23.008555    14295.749    9359.4277    7038.2691    7310.6008   -348.07515   -43.237974    -107.6525   -6649.0307 
13157000    246.00438   -9159.1825   -8221.3016   -9159.1825            0      7238.81    24.873054    25.023766    23.129675    14396.314    7534.8321    6760.3505    7421.2475    86.118552   -709.35852     -241.732   -6701.4738 
13158000    242.92776   -9143.1535   -8217.0021   -9143.1535            0    6103.6988    24.820782    25.149729    23.130248    14438.733     7982.196    5276.3532    5052.5471    100.78028   -303.10715    1211.4899   -6931.7212 
13159000    257.36375   -9167.1601   -8185.9721   -9167.1601            0    6708.6977    24.975676    25.044782    23.022948    14401.093    6287.5417    6423.6937    7414.8577    127.58489   -123.48403    656.86883   -6776.9768 
13160000    245.71851   -9157.0057   -8220.2147   -9157.0057            0     7380.866    24.987249    25.004177     23.02162    14383.576    6709.0661    7061.1784    8372.3535    264.26562   -50.903846    408.91166   -6671.9326 
13161000    243.19016   -9184.7721   -8257.6202   -9184.7721            0    8936.4182    24.878802    24.921476    23.042013    14286.427    9332.4172    9261.7424     8215.095    715.74139    57.593835    206.40982   -6395.6917 
13162000    250.34109   -9172.6543   -8218.2399   -9172.6543            0     7768.227    25.000389    25.042706    22.881366    14325.507    6897.8495    8002.4881    8404.3435   -1112.4107    449.40672    287.78025     -6595.28 
13163000    247.32321   -9142.4816   -8199.5728   -9142.4816            0    7684.8953    25.056354    24.881968    23.031526    14359.037    6515.1788    8576.1473    7963.3598   -220.02817   -1142.9481    414.29426   -6590.2648 
13164000    243.58587    -9169.482   -8240.8216    -9169.482            0    6885.5443     24.96941    24.988776    23.064402    14391.149    7122.5425     6334.679    7199.4113    572.07298    970.99178   -303.31056   -6795.6826 
13165000     244.4088   -9140.6383   -8208.8405   -9140.6383            0    8098.0599      24.9141    25.036762    22.988702    14339.625    9281.3579    6987.8853    8024.9364   -497.04499   -425.61617   -869.27068   -6515.3035 
13166000    249.66167   -9132.7813   -8180.9571   -9132.7813            0     6702.891    24.979534    25.083067    23.023306    14425.559    7083.3859    6600.1602     6425.127   -202.18403    179.05765    298.70932   -6770.7896 
13167000    233.95137    -9173.591   -8281.6616    -9173.591            0    4545.9252    25.045853    25.120816     23.07631    14518.974    3892.7906     4994.979    4750.0061   -382.78769   -1088.0028    172.37114   -7319.0877 
13168000     241.2652   -9079.4361   -8159.6231   -9079.4361            0    7141.8474    24.908912    25.069161     23.13254    14445.011    8184.2372    6563.3736    6677.9316   -532.94924    40.540859   -435.54025    -6655.081 
13169000    245.76613   -9145.4493   -8208.4767   -9145.4493            0    6195.4182    24.937672    25.115143    23.066936    14447.127    7011.3922    5009.2886    6565.5738   -140.06624   -713.46597     402.3182   -6903.1236 
13170000    250.82488   -9178.0149   -8221.7561   -9178.0149            0    7131.7941    25.015622    25.080105    22.914666    14376.534    6515.3857    6894.9834     7985.013   -459.43188    83.491198    313.68581   -6726.4541 
13171000    247.61201    -9166.213   -8222.2031    -9166.213            0    7833.0772    24.935499     24.96553    23.044677    14345.955    8617.4833    7526.2525    7355.4959    499.50084   -1076.6944   -690.03131   -6583.3585 
13172000    249.02929    -9165.028   -8215.6147    -9165.028            0    6329.8361    24.971194      24.9737    23.065708    14384.308    6781.0951     6830.644    5377.7693    31.149828   -654.45197   -180.12553   -6887.7393 
13173000    243.50344    -9134.516   -8206.1698    -9134.516            0    8228.6215    24.918619      24.9652     23.02729    14325.238    8633.5739    7541.3689    8510.9217   -991.71074    -377.6984    563.79401   -6487.0552 
13174000    244.65692   -9167.6499   -8234.9062   -9167.6499            0    7657.4865    24.998022    25.082649    22.846192    14324.942    6333.9794    8414.1593    8224.3207   -929.80474    1106.7154    176.62036   -6635.1456 
13175000    237.15604   -9121.7547   -8217.6077   -9121.7547            0    6894.7334    24.945585    25.050069     23.05205    14404.964    8080.0826    6156.0439    6448.0737    218.85928   -225.18512    68.716296   -6769.1509 
13176000    238.86919   -9152.6115   -8241.9332   -9152.6115            0    7278.8217    24.955306    24.950482    23.088141    14375.759    7406.9802    7042.3042    7387.1808    674.88056     1284.081    786.81349   -6715.8867 
13177000    244.07801    -9135.607   -8205.0703    -9135.607            0    6537.9846    25.070532    25.063224    22.939627    14414.077     5443.489    7419.8946    6750.5702    365.44009    161.41876    474.53952    -6830.691 
13178000    241.88503   -9149.0424   -8226.8664   -9149.0424            0    5535.0294    25.087935    25.049028    23.016451    14464.191    5299.5924    5188.1465    6117.3494    125.65658     644.0272    760.74814   -7059.2774 
13179000    240.66762   -9138.2212   -8220.6865   -9138.2212            0    6316.4929    24.976378    25.061294    23.078174     14445.56     5311.049    6017.9925    7620.4371   -120.62749   -144.96919   -108.08711   -6889.9677 
13180000    242.79744   -9160.7008   -8235.0462   -9160.7008            0      5974.94     25.01925    25.044165    23.036239     14434.19    5428.5061    6858.2411     5638.073   -335.36584   -1375.0079    545.69755   -6977.2744 
13181000    249.45227   -9160.6022   -8209.5764   -9160.6022            0    7708.5814    24.932665    24.892406    23.105865    14340.286    8772.0614     7386.423    6967.2598    644.49009    478.69537   -602.29418   -6597.4164 
13182000    251.96573   -9137.8685   -8177.2602   -9137.8685            0    7304.9545      24.9576    25.043547    23.025311    14391.437    7317.8892    6436.1914    8160.7829    770.06153    760.83585    109.01962   -6644.0646 
13183000    241.26356   -9137.6727    -8217.866   -9137.6727            0    6103.7325    24.907426    25.201144    23.031328    14456.664    7207.1964    4653.3329    6450.6683   -398.94001   -1241.3008    967.20639   -6930.9818 
13184000    247.80617   -9149.2133   -8204.4632   -9149.2133            0    6997.1677    24.980001    25.059561    22.972549    14380.537    6227.4542    7907.4949    6856.5539   -641.84881    -452.3107    231.01533   -6736.9796 
13185000    254.76078   -9122.9291   -8151.6649   -9122.9291            0    8341.2582    25.060125    24.826576    23.051322    14341.544    8246.9184      8879.11    7897.7462   -86.043231    1299.9114     58.36515   -6407.0348 
13186000    258.19113   -9160.3105   -8175.9681   -9160.3105            0    6739.6689    24.991965     24.88983    23.159509    14406.275    6757.0689     6728.728    6733.2097   -628.34883   -341.66417   -825.25678   -6759.9587 
13187000    238.92012    -9179.543   -8268.6705    -9179.543            0       5359.1    25.141484    24.954738    23.040734    14455.737     3528.258    6845.5803    5703.4619     67.74992   -381.59464    211.33422   -7138.8538 
13188000    253.24032   -9148.3378   -8182.8702   -9148.3378            0    5836.2016    25.154284     25.01879    22.945453    14440.256    5170.5922    5358.9893    6979.0234    116.97308    483.64288    1041.8032   -6953.7876 
13189000    241.10036   -9183.1307   -8263.9462   -9183.1307            0    6473.5187    25.012438    24.934595    23.112956    14414.973     6047.082    6611.5831    6761.8911   -618.13665    808.26467    -157.8569   -6903.0339 
13190000    262.83643   -9167.8249   -8165.7725   -9167.8249            0    5908.2221    25.030536    24.994629    23.138477    14476.101    5539.1075    6467.3707    5718.1881    311.07987   -451.94461    211.81888   -6918.4341 
13191000    247.37119   -9152.3335   -8209.2417   -9152.3335            0    4896.3611     25.10797    25.062966    23.076307    14521.463    5026.5903    4497.9949    5164.4983    280.69291    -709.7264    253.52346   -7172.2872 
13192000    254.62139   -9159.2265   -8188.4936   -9159.2265            0    6488.3719    25.055448    25.036508    23.004502    14430.745    6174.0164    6812.9865    6478.1129   -703.35618   -220.78319   -823.27157   -6822.9663 
13193000    247.20694   -9157.5586    -8215.093   -9157.5586            0    5439.2254    24.965506    25.158851    23.047349     14476.12    5051.8166    5112.9277    6152.9319   -591.09795    289.52177   -83.805956   -7066.7673 
13194000    249.51687    -9171.053   -8219.7809    -9171.053            0    5212.1152    25.000842    25.109754    23.067855    14481.192    5141.6627    5864.2867    4630.3961    458.42317   -674.04075   -448.74969    -7119.017 
13195000    247.27854   -9148.4432   -8205.7046   -9148.4432            0    5900.5158    24.832862    25.244668     23.08627    14472.721    6837.8554     4784.158     6079.534   -550.92814    163.43612   -21.637396   -6960.2839 
13196000    249.04126   -9142.9075   -8193.4486   -9142.9075            0    6937.7221    24.929793    25.024582    23.117345    14421.933     6662.683    7314.7455    6835.7379   -378.76758    -456.7824   -533.72713   -6734.2438 
13197000    248.56038    -9161.585   -8213.9595    -9161.585            0    6631.8103    24.973631    25.072906    23.035545    14423.971    6371.1602    5947.3327    7576.9379   -695.07465    156.29255   -19.215512   -6818.8997 
13198000    258.02457   -9171.0915   -8187.3841   -9171.0915            0    7105.2512    25.157534    24.904974    23.003697    14412.914    5183.7064    8867.8666    7264.1806    391.78691    378.27804   -539.39364   -6693.8776 
13199000     249.0526   -9122.7442   -8173.2421   -9122.7442            0    7800.0624    24.993993     24.86649    23.093383    14352.835    7121.5638    8831.1261    7447.4973   -245.09516    -249.4623   -296.81702   -6540.5223 
13200000    246.96239   -9151.2525   -8209.7192   -9151.2525            0    7261.0754    24.988939    24.954788     23.03975    14367.442    7403.7913      8064.06    6315.3748     31.28677    257.31186    432.93896    -6688.274 
13201000    251.76786   -9130.0448   -8170.1909   -9130.0448            0    8171.3078    25.027742    24.926473    22.980724    14336.601    8639.1737    7743.4993    8131.2504     308.0507   -963.32682    492.33373   -6461.6961 
13202000    247.34881   -9165.8935   -8222.8871   -9165.8935            0    7950.9286    24.912814    25.034161    23.005627    14347.952    8882.8795     6559.572    8410.3343   -330.16538    852.68631    164.61103    -6559.154 
13203000    234.39948   -9159.3542   -8265.7165   -9159.3542            0    7511.4589    24.812847    25.058217    23.074956    14347.216    8441.2333    6800.8222    7292.3213   -322.57798   -1054.3986    -490.6749   -6694.0231 
13204000    255.56695   -9170.3368    -8195.999   -9170.3368            0    5750.4341     24.97323    25.093076    23.058135      14449.5    6600.5708    4250.4671    6400.2644    612.37841    1025.4731   -239.62938   -6984.2035 
13205000     242.8686   -9171.4082   -8245.4823   -9171.4082            0    6297.4846    24.915653    25.150851    23.044933    14441.105     7141.803    5549.1922    6201.4587    -330.1668    1802.2044   -92.433681   -6919.1773 
13206000    243.67673   -9219.3809    -8290.374   -9219.3809            0    6056.1811    24.838532    25.148957    23.059231    14404.252     7239.592    4178.6669    6750.2845    274.01615   -356.49579     599.4276   -7018.1445 
13207000    241.01013   -9123.1698   -8204.3293   -9123.1698            0    7624.1615    24.799213    25.078328    23.120274    14379.025    8773.2156    6587.6873    7511.5815    -521.9399    96.356959   -645.74689   -6605.5173 
13208000    246.34138   -9148.0701   -8208.9044   -9148.0701            0    6593.8886     24.88886    25.144083      23.0035    14395.764    7109.5033    5860.5614    6811.6011   -434.03899   -717.79546   -129.96523   -6824.5343 
13209000    243.60714   -9103.9806   -8175.2391   -9103.9806            0    5356.2426    25.078281    25.189621     22.94528    14494.818    5153.1086    4497.3467    6418.2724    76.650492    776.76792   -337.29307    -7042.972 
13210000    257.35366   -9185.1512   -8204.0016   -9185.1512            0    6277.1105    24.933326    25.040763    23.114634     14431.61    7102.0697    5777.5484    5951.7134    402.76194    -899.6174    708.11355   -6882.8567 
13211000    255.10775   -9175.0144   -8202.4273   -9175.0144            0    5104.4302    24.971822    25.199489     23.05656    14508.966    5721.4473    4372.3372    5219.5061     100.2651    801.75869   -497.43558   -7122.3381 
13212000    242.64531   -9151.9927   -8226.9181   -9151.9927            0    5911.6454    24.943662    25.121255    23.118229    14486.254    7123.6695    4812.0722    5799.1944    602.86849   -1247.2319   -196.45822   -6977.9816 
13213000    239.62778   -9144.2199   -8230.6495   -9144.2199            0    5732.9103    25.002935    25.313778      22.9041    14496.434    6565.0415    4185.1575    6448.5319    181.97186   -545.89956    1445.8665   -7018.6227 
13214000     250.1082   -9149.2388   -8195.7123   -9149.2388            0    7037.5282    24.897634     25.08793    23.051887    14398.902    8079.8174    6514.2278    6518.5394    16.705614   -86.280499    -127.6175   -6717.8791 
13215000    251.81248   -9189.5493   -8229.5253   -9189.5493            0    7703.3804    24.836366    24.914836    23.200678     14356.44    8483.5903    7801.8258    6824.7252    96.759303   -756.75772   -200.66296   -6616.6381 
13216000    241.98798    -9173.555   -8250.9864    -9173.555            0     6015.206    24.964971     24.99335    23.108561    14418.777    5487.9126    7081.1106    5476.5947   -779.39728   -121.31492      512.546   -6986.0904 
13217000     255.9878   -9161.3171   -8185.3749   -9161.3171            0    6352.1881    25.061721    25.077145    22.939928    14417.203    5751.0615    6265.1106    7040.3922   -323.66419   -929.21499   -147.26816   -6849.7631 
13218000    242.88153   -9133.6118   -8207.6367   -9133.6118            0    7061.0686    25.019009    25.008457    23.021995    14404.558    6218.7692    7550.1914    7414.2452   -507.39337   -385.44297   -952.76828   -6724.2777 
13219000    241.90889   -9165.9486   -8243.6816   -9165.9486            0    7017.6945    25.099583    24.854587    23.074388    14394.721    5837.1274    8874.1984    6341.7578   -765.74429   -1836.7405    1092.9307   -6770.4412 
13220000    253.23003   -9177.5769   -8212.1485   -9177.5769            0    7215.9866    24.983576    24.951028    23.059876     14374.74     7489.607    6917.1371    7241.2157   -902.78589    -60.81233    11.130825    -6699.383 
13221000    245.86502   -9150.4461   -8213.0965   -9150.4461            0    7315.4611    25.033304    25.062274     22.93699    14390.473    6808.7765    6717.5224    8420.0843    -911.6701   -159.37335    1028.9017   -6677.7986 
13222000    253.44928   -9204.9546   -8238.6904   -9204.9546            0    7842.9079    24.895245    24.986832    23.042709    14333.794    8058.2828    7116.5083    8353.9326    -499.0576   -146.71992    98.696412   -6599.1801 
13223000    246.84894   -9150.5243   -8209.4235   -9150.5243            0    8584.5112    24.831795    25.022037     22.99394    14287.103    9718.3102     8174.301    7860.9224    448.88822    270.67507    105.04545   -6420.7312 
13224000    256.71552   -9122.0272   -8143.3105   -9122.0272            0    8575.2688    24.870165    25.058408    23.005653    14337.278    9373.8159    7960.5144     8391.476    881.51371   -387.50704    324.32276   -6350.2691 
13225000     239.1655   -9143.3231   -8231.5152   -9143.3231            0    7578.0687    24.909684    25.079618    23.008808    14374.186    8261.0121    7236.0915    7237.1025    298.46741    644.86477   -207.45054   -6642.9037 
13226000    250.48153   -9162.6694   -8207.7195   -9162.6694            0     7958.092     24.77455    25.116514    23.015637    14321.488    10101.118    5930.8504    7842.3072    32.593823    882.48075    1199.8357    -6545.559 
13227000    249.81168   -9140.9729   -8188.5768   -9140.9729            0    5915.4969    24.887184    25.158423    23.089021    14456.552    7116.4459    5651.1552    4978.8894   -489.66135    -309.9624    1018.8472   -6941.3891 
13228000    248.18869   -9130.7031   -8184.4946   -9130.7031            0    5347.2127    24.942962    25.187586    23.062665    14489.188    5672.3159    4479.0527    5890.2696   -857.17316    419.09763    1156.6784   -7054.5753 
13229000    247.99564   -9167.4939   -8222.0214   -9167.4939            0    7779.0474    24.834254    25.103484    23.013285    14347.087    8587.8001    6767.3201    7982.0219   -462.30441   -402.53013    57.965906   -6594.3526 
13230000    258.34294   -9173.6892   -8188.7681   -9173.6892            0    7622.6178    24.833736    25.064777    23.040285    14341.473    8030.6855    7437.1667    7400.0011   -292.37862   -702.91309   -363.53186   -6594.4544 
13231000    255.08942   -9148.2704   -8175.7532   -9148.2704            0    6821.0293    24.957051    25.099569    22.977473    14393.347    6622.8794    6677.4368    7162.7717   -523.68243   -265.16132    844.63865   -6743.9359 
13232000    251.38065   -9162.6136   -8204.2359   -9162.6136            0    5925.8342    24.923658    25.082742    23.084282    14431.224    5995.8728     5738.738    6042.8918     85.11498   -988.17207    1245.1592   -6957.0576 
13233000    250.75913   -9144.2631   -8188.2549   -9144.2631            0    5766.8769    25.018316    25.026432    23.094857    14460.133    5230.4012    5799.9403    6270.2891   -6.3946107   -386.69561   -1223.7887   -6972.1001 
13234000    248.95462    -9142.328   -8193.1995    -9142.328            0    6101.7573    24.996659     25.06506    23.078498    14459.666     6692.158    6476.1632    5136.9507    42.391428    872.92461    259.60247   -6906.4646 
13235000    244.78293   -9171.3088   -8238.0846   -9171.3088            0    6813.7157    24.985419    24.960723    23.106904    14410.716    6196.3462    7810.6955    6434.1055    -235.3989    80.660266   -520.09127   -6806.0766 
13236000    251.56302   -9143.9449    -8184.872   -9143.9449            0    8135.9294    25.031177    24.909906    23.009249    14346.825    7508.7287    9233.4577    7665.6018    14.056995   -1546.6928    572.41367   -6482.5612 
13237000    253.23249   -9192.4371   -8226.9993   -9192.4371            0    6439.2555    25.113207    24.995707    22.931951    14394.898    5486.4714    6474.1291     7357.166   -909.43354    604.44576   -78.285894   -6875.1753 
13238000    261.02253   -9151.6718   -8156.5348   -9151.6718            0    5677.4679    25.076096    24.970881    23.104223    14467.223    5630.9427    5920.1465    5481.3146   -420.61102   -1340.1184   -254.34442   -6958.6481 
13239000    245.41333   -9136.4906   -8200.8631   -9136.4906            0    5366.0461    24.971564    25.026376    23.232681    14519.211    6277.5667    5716.2002    4104.3712   -743.09595   -739.32645   -648.03112   -7064.6146 
13240000    255.26063   -9144.9792   -8171.8092   -9144.9792            0    5927.1866    25.032181    25.020677    23.059778    14442.849    5149.9261    5302.6282    7329.0056    1035.4106    193.21855    8.4442152   -6923.3414 
13241000    247.75826   -9134.1893   -8189.6218   -9134.1893            0    6619.0566    25.092297    25.084998    22.931267    14433.862    5677.5744    7446.9873    6732.6082   -547.16509   -341.92376    386.45872     -6796.29 
13242000    252.40891   -9141.2012   -8178.9033   -9141.2012            0    6786.7045     24.92785    25.059908    23.143501    14457.505    6261.1157    7254.3994    6844.5983    170.78144   -1028.5976   -683.33411   -6747.9411 
13243000     251.3869   -9170.6846   -8212.2831   -9170.6846            0    6727.4024    24.939133     25.18731    22.940156    14409.851    6758.4311    5917.7094    7506.0666   -427.48878   -751.44496   -105.35329      -6798.5 
13244000    245.47544   -9173.4899   -8237.6256   -9173.4899            0    6637.9711    24.907675     25.09655    23.070587    14421.348    6825.1096    6456.8372    6631.9663    279.88467   -1233.2396    35.273772   -6841.5237 
13245000    255.39189   -9164.0645   -8190.3942   -9164.0645            0    7069.9965      24.8552    25.047264    23.105812    14384.632    7531.3835    6329.5323    7349.0737   -513.92415   -1102.4319   -552.62822   -6707.2142 
13246000    247.99494   -9166.6611   -8221.1913   -9166.6611            0    7678.8862    24.894786    25.097182    22.975544    14354.867    8343.4779    6622.0012    8071.1796    16.195476   -389.52698    890.05702   -6613.6087 
13247000    254.27288   -9124.6653   -8155.2611   -9124.6653            0    7647.9007    24.925227    25.084732     23.01535    14390.178    8493.6699    6058.5853    8391.4469   -355.54057     447.4883    628.42216   -6550.2269 
13248000    241.30499   -9173.8587   -8253.8941   -9173.8587            0    4656.7796    24.992276     25.02515    23.142544    14474.168    6129.2561    4604.3505    3236.7323    82.664911    195.85205   -38.692057   -7270.8903 
13249000     234.8156   -9168.5382    -8273.314   -9168.5382            0    6736.5284     24.97153    25.093516    22.988069    14404.864     5930.606    7497.0715    6781.9077   -91.770148    534.49139    680.35513    -6858.103 
13250000    254.61649   -9142.7501   -8172.0359   -9142.7501            0    7017.9608     24.92896    25.066156    23.088783    14427.562    6866.1618    6645.9269    7541.7938   -670.50389   -497.89311    1283.8511   -6695.3784 
Loop time of 530.669 on 64 procs for 250000 steps with 1920 atoms

Performance: 81.407 ns/day, 0.295 hours/ns, 471.103 timesteps/s
99.2% CPU use with 64 MPI tasks x 1 OpenMP threads

MPI task timing breakdown:
Section |  min time  |  avg time  |  max time  |%varavg| %total
---------------------------------------------------------------
Pair    | 61.491     | 63.874     | 65.429     |  11.2 | 12.04
Bond    | 0.26851    | 0.27787    | 0.28691    |   0.7 |  0.05
Kspace  | 225        | 231.39     | 242.91     |  22.3 | 43.60
Neigh   | 4.9189     | 5.3971     | 6.128      |  11.4 |  1.02
Comm    | 97.797     | 107.7      | 114.25     |  33.8 | 20.29
Output  | 1.0951     | 1.0974     | 1.1062     |   0.1 |  0.21
Modify  | 104.89     | 112.86     | 117.19     |  28.4 | 21.27
Other   |            | 8.071      |            |       |  1.52

Nlocal:        30.0000 ave          34 max          24 min
Histogram: 1 0 1 3 9 13 8 15 8 6
Nghost:        2767.36 ave        2802 max        2727 min
Histogram: 2 2 1 7 11 13 17 7 3 1
Neighs:        10522.3 ave       11811 max        8500 min
Histogram: 1 1 2 5 12 10 8 14 7 4

Total # of neighbors = 673428
Ave neighs/atom = 350.74375
Ave special neighs/atom = 2.0000000
Neighbor list builds = 9753
Dangerous builds = 0

unfix		3
unfix		2
unfix		1

write_data	data.final.${pid}
write_data	data.final.0
System init for write_data ...
PPPM initialization ...
  extracting TIP4P info from pair style
  using 12-bit tables for long-range coulomb (../kspace.cpp:340)
  G vector (1/distance) = 0.37420445
  grid = 30 30 30
  stencil order = 5
  estimated absolute RMS force accuracy = 0.003299877
  estimated relative force accuracy = 9.9374814e-06
  using double precision FFTW3
  3d grid and FFT values/proc = 3600 512
Last active /omp style is kspace_style pppm/tip4p/omp
WARNING: Not all mixed pair coeffs generated from mixing. Use write_data with 'pair ij' option to store all pair coeffs. (../write_data.cpp:312)

write_restart   restart.lmp.${pid}
write_restart   restart.lmp.0
System init for write_restart ...
PPPM initialization ...
  extracting TIP4P info from pair style
  using 12-bit tables for long-range coulomb (../kspace.cpp:340)
  G vector (1/distance) = 0.37420445
  grid = 30 30 30
  stencil order = 5
  estimated absolute RMS force accuracy = 0.003299877
  estimated relative force accuracy = 9.9374814e-06
  using double precision FFTW3
  3d grid and FFT values/proc = 3600 512
Last active /omp style is kspace_style pppm/tip4p/omp
Total wall time: 0:08:53
