#include		in.partitions
include		in.temp
variable        temperature equal 42.60
variable	tempDamp equal 100.0
include		in.pressure
variable        pressure equal 2004.8
variable        pressureDamp equal 1000.0 # This is 1 ps
include		in.seed
variable        seed equal 745823

units		real
atom_style	full
box tilt large
read_restart	restart.lmp.${pid}
read_restart	restart.lmp.0
Reading restart file ...
  restart file = 30 Jul 2021, LAMMPS = 30 Jul 2021
  restoring atom style full from restart
  triclinic box = (-10.617998 -9.1645759 0.17003605) to (12.597998 12.154574 21.689963) with tilt (-9.1446443 1.9551240 2.8327016)
  2 by 2 by 4 MPI processor grid
  restoring pair style lj/cut/tip4p/long/omp from restart
  restoring bond style harmonic/omp from restart
  restoring angle style harmonic/omp from restart
  1296 atoms
  864 bonds
  432 angles
Finding 1-2 1-3 1-4 neighbors ...
  special bond factors lj:    0        0        0       
  special bond factors coul:  0        0        0       
     2 = max # of 1-2 neighbors
     1 = max # of 1-3 neighbors
     1 = max # of 1-4 neighbors
     2 = max # of special neighbors
  special bonds CPU = 0.001 seconds
  read_restart CPU = 0.006 seconds
include 	in.setup
variable	out_freq equal 1000
variable	out_freq2 equal 10000
variable	out_freq3 equal 1000

timestep	2.0

neigh_modify    delay 7 every 1

include		in.tip4p
# This is TIP4P/Ice

# create groups ###
group ox type 2
432 atoms in group ox
group hy type 1
864 atoms in group hy

# set charges - beside manually ###
set group ox charge -1.1794
Setting atom values ...
  432 settings made for charge
set group hy charge 0.5897
Setting atom values ...
  864 settings made for charge

# ### TIP3P Potential Parameters ###
pair_style lj/cut/tip4p/long/omp 2 1 1 1 0.1577 8.5
pair_coeff 1 1*2 0.000 0.000
pair_coeff 2 2 0.21084 3.1668
bond_style  harmonic
bond_coeff  1 450 0.9572
angle_style harmonic
angle_coeff 1 55 104.52
kspace_style pppm/tip4p/omp 1.0e-5
pair_modify tail yes

thermo          ${out_freq}
thermo          1000
thermo_style    custom step temp pe etotal epair emol press lx ly lz vol pxx pyy pzz pxy pxz pyz enthalpy

restart 	${out_freq3} restart.lmp.${pid} restart2.lmp.${pid}
restart 	1000 restart.lmp.${pid} restart2.lmp.${pid}
restart 	1000 restart.lmp.0 restart2.lmp.${pid}
restart 	1000 restart.lmp.0 restart2.lmp.0


include         in.dump
dump            myDump all atom ${out_freq2} dump.water.${pid}
dump            myDump all atom 10000 dump.water.${pid}
dump            myDump all atom 10000 dump.water.0
dump            myDump2 all dcd ${out_freq2} dump.dcd
dump            myDump2 all dcd 10000 dump.dcd
dump_modify     myDump append yes
dump_modify     myDump2 append yes


variable natoms 	equal  "count(all)"                        # NUMBER ATOMS
variable H      	equal  "enthalpy/v_natoms"                 # ENTHALPY-per-atom
variable Vol      	equal  "vol/v_natoms"                 # volume-per-atom
fix AVG all 		ave/time ${out_freq} 1 ${out_freq} v_Vol v_H file vol_enthalpy.dat
fix AVG all 		ave/time 1000 1 ${out_freq} v_Vol v_H file vol_enthalpy.dat
fix AVG all 		ave/time 1000 1 1000 v_Vol v_H file vol_enthalpy.dat


timer           timeout 10:00:00 every 1000
New timer settings: style=normal  mode=nosync  timeout=10:00:00

fix 		1 all shake 1e-6 200 0 b 1 a 1
       0 = # of size 2 clusters
       0 = # of size 3 clusters
       0 = # of size 4 clusters
     432 = # of frozen angles
  find clusters CPU = 0.000 seconds
fix             2 all nph tri ${pressure} ${pressure} ${pressureDamp}
fix             2 all nph tri 2004.8 ${pressure} ${pressureDamp}
fix             2 all nph tri 2004.8 2004.8 ${pressureDamp}
fix             2 all nph tri 2004.8 2004.8 1000
fix             3 all temp/csvr ${temperature} ${temperature} ${tempDamp} ${seed}
fix             3 all temp/csvr 42.6 ${temperature} ${tempDamp} ${seed}
fix             3 all temp/csvr 42.6 42.6 ${tempDamp} ${seed}
fix             3 all temp/csvr 42.6 42.6 100 ${seed}
fix             3 all temp/csvr 42.6 42.6 100 745823


run             250000
PPPM initialization ...
  extracting TIP4P info from pair style
  using 12-bit tables for long-range coulomb (../kspace.cpp:340)
  G vector (1/distance) = 0.36807169
  grid = 27 40 32
  stencil order = 5
  estimated absolute RMS force accuracy = 0.0043809094
  estimated relative force accuracy = 1.3192978e-05
  using double precision FFTW3
  3d grid and FFT values/proc = 10353 2240
Last active /omp style is kspace_style pppm/tip4p/omp
Neighbor list info ...
  update every 1 steps, delay 7 steps, check yes
  max neighbors/atom: 2000, page size: 100000
  master list distance cutoff = 10.8154
  ghost atom cutoff = 10.8154
  binsize = 5.4077, bins = 7 5 4
  1 neighbor lists, perpetual/occasional/extra = 1 0 0
  (1) pair lj/cut/tip4p/long/omp, perpetual
      attributes: half, newton on, omp
      pair build: half/bin/newton/tri/omp
      stencil: half/bin/3d/tri
      bin: standard
Per MPI rank memory allocation (min/avg/max) = 12.67 | 12.68 | 12.69 Mbytes
Step Temp PotEng TotEng E_pair E_mol Press Lx Ly Lz Volume Pxx Pyy Pzz Pxy Pxz Pyz Enthalpy 
39750000    46.019297   -6916.4754   -6798.0935   -6916.4754            0    2076.7586    23.215997     21.31915    21.519927    10651.187    1166.8384    2253.3258    2810.1115    416.48565   -75.172178    260.41624   -6475.4968 
39751000    41.654124   -6912.0387    -6804.886   -6912.0387            0    1784.9644    23.114802    21.317916    21.642427    10664.509    1756.2981    2398.8831    1199.7119    262.24002    229.89075    -317.8918   -6527.2688 
39752000    42.188513   -6913.1365   -6804.6091   -6913.1365            0    2265.7755    23.133845    21.232695    21.681259    10649.702    1910.4496    3271.1914    1615.6855   -156.56461    419.90095   -351.22028   -6452.7002 
39753000     42.50998   -6915.5209   -6806.1666   -6915.5209            0    2165.8908    23.162001    21.272734    21.611579    10648.437    2217.9276    2250.1704    2029.5744   -170.94169   0.12951202   -158.02318   -6469.8113 
39754000    43.611305   -6923.5869   -6811.3994   -6923.5869            0    2061.6292    23.149277    21.381343    21.495312    10639.376    2382.8981    1836.1255     1965.864    84.756206    161.46277   -111.52262    -6491.508 
39755000    42.355774   -6914.8692   -6805.9115   -6914.8692            0     2528.454    23.198363    21.279341     21.54781    10636.988    2586.2641    2625.3014    2373.7964    42.019889   -20.753261   -134.45833   -6413.6736 
39756000     43.93062   -6916.9537   -6803.9448   -6916.9537            0    2121.0512    23.205574    21.181405    21.690333    10661.376    2725.2013    2319.9853     1317.967   -379.45206   -482.24568   -150.63247   -6474.1527 
39757000    41.933893   -6915.9256   -6808.0532   -6915.9256            0    1905.1808    23.091767    21.356797    21.635011    10669.655    2601.0343    1054.7043    2059.8037   -334.44585   -211.68382    367.41374   -6511.5957 
39758000    44.588179   -6918.5872   -6803.8869   -6918.5872            0    1891.5494    23.156312    21.344826    21.558081    10655.458    1686.4702    1716.0804    2272.0975    363.63232    309.59248    304.81495   -6509.9421 
39759000    45.765831    -6915.735   -6798.0052    -6915.735            0    2098.3952    23.257837    21.263079    21.526675    10645.656    1369.0417    2476.4429    2449.7009   -210.08805    341.38032   -29.979546   -6472.2168 
39760000     45.04266   -6918.9689   -6803.0994   -6918.9689            0    2326.2682     23.15307    21.273353    21.616806    10647.216    2152.5842    2700.3697    2125.8508    85.308917    40.877582   -312.72856   -6441.8794 
39761000    42.137603   -6914.7597   -6806.3633   -6914.7597            0    1727.2887    23.057963    21.395215    21.638439    10674.893    2419.2829    1154.4316    1608.1518    66.909722    -14.47137   -232.85096   -6537.4549 
39762000    43.676707   -6910.7018   -6798.3461   -6910.7018            0     1933.714    23.183443    21.262548     21.63334    10663.918    2106.4671    2180.9559    1513.7191    365.79165   -529.90422    239.06507   -6497.6105 
39763000    43.453578   -6912.9886   -6801.2069   -6912.9886            0    2520.6633    23.219553    21.226852    21.579295     10635.96    2818.1651    2602.9766    2140.8482    -211.8939   -301.20841   -183.10471   -6410.2153 
39764000    41.667766   -6919.2335   -6812.0458   -6919.2335            0    1792.6701    23.117819    21.385388    21.573221    10665.446    2230.7008    1445.6126    1701.6969   -43.201153    204.34162   -463.37082   -6533.2056 
39765000     43.53444   -6917.0283   -6805.0386   -6917.0283            0     1652.173    23.144661    21.312505    21.649836     10679.23    1704.1575    1996.3728    1255.9886   -95.531952     295.7948   -434.39037   -6547.7199 
39766000    42.817547   -6916.1651   -6806.0196   -6916.1651            0    1953.5159    23.194159    21.259297    21.619013    10660.152    2007.8317    2037.2616    1815.4545   -345.12063    168.47187    368.64327   -6502.3115 
39767000    44.308787   -6918.3757    -6804.394   -6918.3757            0    2172.3278    23.160445     21.32455    21.549463    10642.979     2468.595    1580.4753    2467.9133    296.28186    -129.4423    522.74036   -6467.2119 
39768000    41.970216    -6917.573   -6809.6071    -6917.573            0    1977.4727    23.123174    21.367563    21.559229    10652.111    2121.6177    1929.2933    1881.5071    71.560079    92.292016   -175.01279   -6502.4065 
39769000    41.547166   -6912.7847   -6805.9071   -6912.7847            0    2164.9421    23.231144    21.158552    21.700108    10666.414    1951.8381    2760.8517    1782.1366   -205.46176   -31.653066   -361.60685   -6469.1315 
39770000    41.911216   -6915.8715   -6808.0574   -6915.8715            0    2147.5565    23.185245    21.338486    21.522411    10647.955    1772.9765    1665.4145    3004.2785    156.67467   -19.353018    78.304501   -6474.5645 
39771000    42.489573   -6920.8257   -6811.5239   -6920.8257            0    1605.7401    23.086593    21.406648    21.579995    10664.975    1539.4881    1486.4777    1791.2546    327.85639     197.2195    567.53115   -6561.7707 
39772000     42.42681   -6914.7178   -6805.5774   -6914.7178            0    1863.1682      23.2182    21.255792    21.607682     10663.85    1461.1305    1762.4643    2365.9098    12.942384   -53.102775    911.63404    -6515.815 
39773000    42.123738   -6917.7348   -6809.3741   -6917.7348            0    1808.2461    23.212467    21.253436    21.630701    10671.391    1747.5959    1683.2915     1993.851   -85.442816    385.64672    175.22784   -6527.9544 
39774000    45.908807   -6911.5084   -6793.4108   -6911.5084            0    1662.1385    23.078014    21.395422    21.610364    10670.417    1992.6554    1703.2401      1290.52    501.60222   -202.89571   -501.05262   -6534.7537 
39775000    45.004106    -6913.511   -6797.7406    -6913.511            0     1940.025    23.199875    21.288295    21.575106    10655.638    2109.4205    2118.0244    1592.6301   -648.77796   -92.628764   -494.16108   -6496.2577 
39776000    44.498718   -6914.1328   -6799.6626   -6914.1328            0    2084.7153    23.245665    21.208359    21.603918    10650.784     1939.265    2615.0698    1699.8111    -401.4034    156.21462   -18.208454   -6475.8422 
39777000    43.525918   -6914.9153   -6802.9475   -6914.9153            0    2123.8706    23.138596    21.350405    21.551527    10646.851     1790.278    1925.9918     2655.342    543.31018    463.73777    379.37954   -6473.1669 
39778000     40.72682   -6915.3651   -6810.5979   -6915.3651            0    1696.0839    23.105236    21.302413    21.674101    10667.934    1940.1589    1973.8985    1174.1942    71.942374    -62.65259    355.29652   -6546.7197 
39779000    40.533722   -6912.9219   -6808.6513   -6912.9219            0    2067.9139    23.275733    21.223528    21.557196    10649.107    1574.6608    2463.3793    2165.7014    105.75912   -204.05355    236.85876   -6487.4913 
39780000    42.946869   -6909.2383   -6798.7601   -6909.2383            0     2400.545    23.173419    21.310744    21.554298    10644.435    2464.8749    2617.5828    2119.1773    236.41164    152.79908    81.604764   -6426.1039 
39781000    43.715727     -6912.58    -6800.124     -6912.58            0    2297.5997    23.067895    21.387431    21.583562    10648.531    2285.8161    2222.2029    2384.7801    368.54195    206.80639    203.59921   -6443.3115 
39782000    44.394608    -6915.808   -6801.6056    -6915.808            0    1952.2322     23.19091    21.216015    21.680522    10667.222    1265.4847    2563.6862    2027.5256   -115.86866    576.45099    -340.3267   -6497.8959 
39783000    42.547537   -6914.7502   -6805.2993   -6914.7502            0    1943.4989    23.217166    21.245341     21.62251    10665.446    1478.1574    2739.5568    1612.7825   -376.68559   -177.66452   -317.56661   -6502.9986 
39784000    42.917505   -6917.4732   -6807.0706   -6917.4732            0    1991.7438    23.119104    21.418664    21.516096    10654.348    2284.4978     1939.871    1750.8627    91.566283   -147.88717   -161.36584    -6497.588 
39785000    40.018697   -6912.9394   -6809.9937   -6912.9394            0    2287.5063    23.166944    21.290802    21.576475    10642.441    2326.6317    2865.1746    1670.7126    92.548635   -493.62011    -105.4818    -6454.952 
39786000    42.053666   -6917.2584   -6809.0779   -6917.2584            0    2178.1726    23.236986    21.174483    21.635157    10645.172      1612.55    2581.2019    2340.7659    314.93737    25.969188    12.644131    -6470.919 
39787000    42.803456   -6914.4041   -6804.2948   -6914.4041            0    2360.2161    23.090829    21.351792    21.583587    10641.369    2582.5032    1816.6592    2681.4858   -140.45029    724.22086    123.91646   -6438.0048 
39788000    43.970509   -6919.1214   -6806.0099   -6919.1214            0    2045.2746     23.15056    21.329321    21.589252    10660.464    2144.0662    1459.5929    2532.1647    383.89705    608.13455    -96.85341   -6488.0271 
39789000    42.651664   -6915.9085   -6806.1897   -6915.9085            0    1964.0678    23.257979    21.220485    21.621059    10670.978    2059.9092     1881.682     1950.612   -228.38915   -539.51419   -373.78178   -6500.5311 
39790000    42.082364   -6916.5318   -6808.2775   -6916.5318            0    1994.9922    23.103434    21.352086    21.601411    10656.117    1737.6225    2117.0985    2130.2555    600.80309   -291.91705    24.407426   -6498.2386 
39791000    42.731349   -6920.1553   -6810.2315   -6920.1553            0    1508.8456    23.175519    21.334135    21.598894    10679.133     1675.728    1914.4857    936.32313    310.34688    276.36167   -218.93161   -6575.2375 
39792000    42.240354   -6915.9516   -6807.2909   -6915.9516            0    1679.9414    23.239683    21.237997     21.64103     10681.24    1702.4418    2440.8446    896.53776    38.388397   -267.88613   -264.40704   -6545.5981 
39793000     42.04031   -6912.2352   -6804.0891   -6912.2352            0    1812.9846    23.178989     21.31179    21.609475    10674.773    1656.5804    1375.4385    2406.9349     475.7471   -464.91427    121.78619   -6521.8425 
39794000    42.757063   -6913.7863   -6803.7964   -6913.7863            0    1809.8544    23.087851    21.399787    21.588388    10666.285    2226.4262    1356.7696    1846.3674   -419.13343    302.73745    201.80886   -6522.2612 
39795000    41.592431   -6923.9379   -6816.9439   -6923.9379            0    1644.7245     23.22706     21.21578    21.651464    10669.413    1042.7954    2166.3218    1725.0562    162.84432    208.97268    -94.58071   -6561.0208 
39796000    42.513989   -6913.2404   -6803.8757   -6913.2404            0    1914.2161    23.251542    21.232476    21.604072    10665.667     1288.371    2436.7797    2017.4975   -289.93039   -60.194739    329.09681   -6506.1236 
39797000    40.946987   -6915.4033   -6810.0697   -6915.4033            0    1469.7311    23.081867    21.485446    21.530634    10677.563    1677.9342    842.83556    1888.4236    242.87213    110.80389    79.922456   -6581.2012 
39798000    43.513407    -6914.069   -6802.1334    -6914.069            0    1778.2877    23.168246    21.308079    21.617075    10671.719    1800.9928    1897.2093    1636.6611   -43.867254    245.89221    34.138544   -6525.3677 
39799000    43.461212   -6913.2714   -6801.4701   -6913.2714            0    1948.8692    23.225372    21.204012    21.654366    10664.149    1597.1011    2600.7499    1648.7565   -254.13392   -136.59148   -185.60685   -6498.3709 
39800000    42.537914   -6915.5871   -6806.1609   -6915.5871            0    1773.8348    23.154182    21.341107     21.60215    10674.398    1604.7363    1747.2083    1969.5597    75.542822    292.54294    237.62387   -6530.0189 
39801000    43.229044   -6911.9151   -6800.7111   -6911.9151            0    2177.5244     23.13762    21.343416    21.566266    10650.195    2079.1501    1906.2416    2547.1814    212.19773    272.88794   -94.018274   -6462.4932 
39802000    40.982925   -6914.2549   -6808.8289   -6914.2549            0    2364.7432    23.238681    21.198195    21.604005    10642.524    2009.0224    3043.6714    2041.5357   -184.27164    17.562544   -402.08843   -6441.7964 
39803000    40.963717   -6913.7229   -6808.3463   -6913.7229            0    2521.6669    23.126744    21.281427    21.628986     10645.14    2421.1713    3219.3921    1924.4374   -135.49614   -152.74061   -173.74064   -6416.8614 
39804000    43.889769   -6915.8133   -6802.9095   -6915.8133            0    2470.9552    23.020305    21.377558    21.612216    10635.759    2978.8196    2064.6545    2369.3914    258.21691    129.53868   -122.30268   -6419.6356 
39805000    44.089923   -6917.0693   -6803.6506   -6917.0693            0    1840.0349     23.16195    21.262418    21.646233    10660.316    2142.9563    1468.0205    1909.1278   -153.47421   -17.812209    89.383367   -6517.5808 
39806000    43.682829   -6911.8457   -6799.4743   -6911.8457            0    1663.0798    23.281128    21.251547    21.556192    10665.141     1071.691    1836.6711    2080.8772    70.898573   -284.38602    70.090778   -6540.7987 
39807000    42.875717   -6915.4967   -6805.2015   -6915.4967            0    2218.6682    23.091088    21.380082    21.565782    10646.797    2303.5848    2111.2291    2241.1906    96.257639    499.89746     87.87221   -6460.7031 
39808000    43.165241   -6917.9639    -6806.924   -6917.9639            0    1944.5102    23.201491    21.308987    21.559916    10659.228    1397.8021    2377.1011    2058.6274    -285.6731    263.11672   -268.34799   -6504.6423 
39809000    42.190716   -6913.5267   -6804.9937   -6913.5267            0      1689.59    23.322984    21.150607    21.636792    10673.327    1256.9612    2375.2089       1436.6    15.284783   -493.44593   -152.61803   -6541.9929 
39810000    42.246546   -6920.9782   -6812.3015   -6920.9782            0    1944.0946    23.106039    21.357778    21.588145    10653.613    2347.4759    1729.9377    1754.8702    120.44868    151.67976   -138.83272   -6510.2437 
39811000    43.233638   -6917.3275   -6806.1116   -6917.3275            0    2146.1118    23.106632     21.35325    21.587979    10651.545    2226.1456    1920.3315    2291.8583    165.84978   -227.51023    33.058625   -6472.7306 
39812000    42.901151   -6913.3345   -6802.9739   -6913.3345            0    1846.5812     23.29748    21.193852    21.592247     10661.46    1309.8829    2321.7278    1908.1328     65.85297   -360.13215   -72.465461   -6515.8555 
39813000    44.735562   -6911.8562   -6796.7767   -6911.8562            0    2220.8181    23.159734    21.332816     21.56758    10655.729     2513.855    1470.1967    2678.4027   -64.717207     159.7144    425.42144   -6451.6552 
39814000    40.005326   -6910.3603   -6807.4491   -6910.3603            0    1994.7312    23.085276      21.4044    21.565369     10656.02    3022.5615    1024.9231     1936.709   -373.76582   -289.80054    27.771521   -6497.4536 
39815000    39.324004   -6915.0914   -6813.9328   -6915.0914            0    1418.5726    23.266633    21.210344    21.667437    10692.735    1024.1313    2100.1119    1131.4746    305.25585   -561.18338   -249.71747    -6592.717 
39816000    43.719945   -6912.9279    -6800.461   -6912.9279            0    2138.1031    23.198678    21.304284    21.574519    10662.801    1893.5779    2402.4793     2118.252    -440.9429     170.3712   -186.84729   -6467.9731 
39817000    40.123344    -6915.859   -6812.6441    -6915.859            0    1868.7214    23.090337     21.38565    21.589023      10660.7    2399.5396    1768.1063    1438.5184    138.29599    18.151058    56.652686    -6522.104 
39818000    42.659799   -6920.4926   -6810.7529   -6920.4926            0    2091.0961    23.180299    21.260891    21.614001     10652.11    1977.8004    2461.1028     1834.385      -181.39    300.87228    250.39971   -6485.9009 
39819000    40.692571   -6918.7248   -6814.0456   -6918.7248            0    2355.9315    23.225711    21.212846    21.610694    10647.231     2175.456    3127.8015     1764.537    93.928345    52.174039    -231.1545    -6448.219 
39820000    40.668956   -6912.2591   -6807.6407   -6912.2591            0    2025.9292    23.124292    21.366641    21.582759    10663.792    2081.6117    1904.8932    2091.2827   -359.10775    -70.97055   -762.49969   -6492.5673 
39821000    43.027014   -6915.1354   -6804.4511   -6915.1354            0     2182.896    23.110233    21.369953    21.554046     10644.78    2246.4145    1619.6233    2682.6501    228.46953    27.629992    95.666924   -6465.5713 
39822000    45.586081   -6913.1422   -6795.8747   -6913.1422            0    1911.9768    23.201514    21.200772    21.659572    10654.127     1768.375    2617.9596    1349.5957   -271.74586    16.585227    338.03441   -6498.7927 
39823000    40.110667   -6912.8017   -6809.6195   -6912.8017            0     1906.989    23.151886    21.286252    21.606374    10647.986    2100.3041     2331.612    1289.0511   -329.11051    166.64144   -493.17086   -6513.4833 
39824000    42.849201   -6916.0564   -6805.8294   -6916.0564            0    2329.0419    23.106583    21.375037    21.538848    10638.125    2480.0754     1887.642    2619.4083    89.936809       -264.9   -300.34112   -6444.4876 
39825000    42.706361   -6915.9774   -6806.1179   -6915.9774            0    2134.6922     23.20822    21.263538    21.581654    10650.306    2227.9025    1738.4772    2437.6969   -42.720998   -74.334859   -346.38134   -6474.5494 
39826000     44.78792   -6920.6976   -6805.4834   -6920.6976            0    2730.9662    23.218077    21.197679    21.580935    10621.474    2328.6766    2895.9584    2968.2637    180.82787     79.99691    741.84139   -6382.4477 
39827000    42.866685   -6919.7295   -6809.4576   -6919.7295            0    2199.6073    23.060217    21.357378    21.611198     10643.64    2436.2544    1996.4837    2166.0838    237.02475   -183.52761     644.8114   -6468.0201 
39828000    43.939752   -6913.3871   -6800.3548   -6913.3871            0    1955.7712    23.225426     21.28097    21.555616     10654.07    1723.2283    2043.6965    2100.3887     681.2781   -174.98475   -159.51624   -6496.4696 
39829000    42.192069     -6919.49   -6810.9535     -6919.49            0    1724.5734    23.238038    21.217216    21.630724    10664.952    1624.4785    2104.7093    1444.5325   -835.39983    50.109245   -370.45099   -6542.7178 
39830000    43.281945   -6911.5923   -6800.2522   -6911.5923            0    2054.1073     23.14481    21.362784    21.550494    10655.374     2180.162    1490.4763    2491.6836    36.357536   -597.49768    88.752258   -6481.0486 
39831000    41.768839   -6916.6028    -6809.155   -6916.6028            0    2035.9026    23.106585    21.337869    21.602817    10651.167    1957.4279    2025.8176    2124.4624    565.87834    293.84033    367.17314   -6492.9053 
39832000    41.009001   -6914.3763   -6808.8831   -6914.3763            0    1890.7903    23.202698    21.276663    21.578858    10652.964    1893.4341    2102.2236     1676.713   -295.57814    388.31562   -185.22573   -6515.1251 
39833000    42.667201   -6917.6711   -6807.9123   -6917.6711            0    1513.3146    23.163955    21.287962       21.653    10677.384    1793.5295    1647.4225    1098.9916    542.98385   -589.89472    186.41449    -6572.261 
39834000    45.262563   -6913.5625   -6797.1273   -6913.5625            0    1996.4476    23.104932    21.411887    21.535707    10654.149    2274.8154    1707.8224    2006.7048    381.73086   -145.87298   -324.15084   -6486.9197 
39835000    42.092627   -6915.8011   -6807.5204   -6915.8011            0    2209.5578    23.210194    21.258932    21.597014    10656.484    2254.3502     2405.494    1968.8293   -287.54156   -59.949071    4.0531343   -6464.1244 
39836000    41.287009   -6914.1872   -6807.9789   -6914.1872            0    2133.7122    23.222166    21.252905    21.590757     10655.87    1857.8852    2107.6286    2435.6228    146.33634   -294.48597    377.53575   -6476.3895 
39837000    41.069931   -6916.4049    -6810.755   -6916.4049            0    2053.5951    23.078107    21.351724     21.61776    10652.311    2607.8657    1598.7383    1954.1814    23.762784   -67.517444    483.11316   -6491.7228 
39838000    43.377276   -6916.0327   -6804.4473   -6916.0327            0      2350.19    23.172592    21.319838    21.543488    10643.257    2367.2811    2291.2741    2392.0149    172.68357     159.1454    74.023448   -6439.6485 
39839000    42.149191   -6923.1929   -6814.7667   -6923.1929            0    2101.5753    23.237935    21.248079    21.590893    10660.751    1982.7417    2535.4827    1786.5015   -152.22882   -135.26941   -325.93493   -6488.0219 
39840000    41.345401   -6914.2088   -6807.8503   -6914.2088            0    2408.7799    23.112993    21.343078     21.58985    10650.325    2118.0329    2363.3179     2744.989   -110.27736    293.62929   -542.36378   -6433.7088 
39841000    40.962207   -6917.3375   -6811.9647   -6917.3375            0    2117.9905     23.11826     21.31983     21.60732    10649.759    2344.7306    1722.3718    2286.8691    251.54381   -236.45533    621.30992   -6483.0073 
39842000    42.246133   -6914.5036    -6805.828   -6914.5036            0    1914.6868    23.224562    21.239833    21.609706    10659.762    2129.4915    1950.8909    1663.6779    410.28292   -220.58341    319.86526   -6508.1676 
39843000    43.694752    -6920.066   -6807.6639    -6920.066            0    1709.0546     23.18243    21.335255    21.586147    10676.574    1595.6394    1917.7687    1613.7556   -708.41496   -11.805161    30.390617   -6541.5524 
39844000    43.338262   -6915.2958   -6803.8107   -6915.2958            0    2154.9013    23.074798    21.395036    21.605957    10666.561    2471.8264    1579.8724    2413.0051    512.85571   -77.414773    41.716908   -6468.5925 
39845000     41.99652   -6920.5296   -6812.4962   -6920.5296            0     2298.914     23.20161    21.256563    21.578028    10641.992    2254.0794    2412.1192    2230.5433   -263.24255   -159.35835   -136.92327   -6455.6989 
39846000    41.903851   -6908.4142   -6800.6191   -6908.4142            0    2188.8497    23.255886    21.199165    21.610806    10654.243    2136.5592    2513.7925    1916.1972   -309.46389    336.77481   -181.65694    -6460.513 
39847000    42.514549   -6915.4088   -6806.0427   -6915.4088            0    1978.1661    23.124449    21.381298    21.547105    10653.551    1926.4573    1253.9033    2754.1377    372.61892    44.613948    206.03333   -6498.6929 
39848000    41.283442   -6918.0766   -6811.8774   -6918.0766            0    2296.9448    23.073515    21.344674    21.613589    10644.621    2708.5971    2233.6483    1948.5891   -21.641457   -281.88036   -438.68026   -6455.2977 
39849000    43.232441   -6916.1638   -6804.9509   -6916.1638            0    2114.1986    23.233229    21.194027    21.620595    10646.104    2024.3173    2613.8606    1704.4179   -441.39917     157.0863  -0.18341268   -6476.6952 
39850000    42.515946   -6919.0969   -6809.7272   -6919.0969            0     2370.271    23.153568    21.304589    21.547413    10628.849    2057.6664    2412.4944    2640.6521    666.34145   -456.30195    366.03621   -6442.3095 
39851000    43.705426   -6923.6361   -6811.2066   -6923.6361            0    2707.5899    23.077534    21.365653    21.531308    10616.368    3076.5788    2241.0239    2805.1671    223.48782   -81.329852   -278.43973   -6391.9936 
39852000    42.313505   -6916.5229    -6807.674   -6916.5229            0    2154.5752    23.213974    21.254888    21.579983    10647.789    2189.1187    2172.0428     2102.564   -416.04919    394.88893   -164.73352   -6473.0963 
39853000    42.377133   -6910.7415    -6801.729   -6910.7415            0    2072.7036    23.191018    21.273864    21.612919    10663.005    1729.2003    2051.7911    2437.1195    164.72101   -210.68451   -62.755706   -6479.4049 
39854000    44.686859   -6921.4345   -6806.4803   -6921.4345            0    1641.0467    23.060584    21.413887    21.609511    10671.138    1974.3485    1375.4889    1573.3028    277.44277   -203.19304    148.42194   -6551.0881 
39855000    42.254996   -6912.5908   -6803.8924   -6912.5908            0    1789.3242    23.223449    21.257681    21.616511    10671.567    1190.3018    2328.4941    1849.1768    329.20562    639.34711    107.87147    -6525.413 
39856000    42.728417   -6918.7884   -6808.8722   -6918.7884            0    2149.5346    23.248014    21.240396    21.581923     10657.09    1552.3226    2994.3611    1901.9201   -186.22832    15.171707    119.90178   -6474.7857 
39857000    41.816093   -6915.0329   -6807.4636   -6915.0329            0    1835.4298    23.072726    21.405357    21.589656    10662.698    2066.2683    2071.8643    1368.1568     232.1512   -180.24971   -266.80912   -6522.0459 
39858000    41.774204    -6915.208   -6807.7464    -6915.208            0    1770.3184     23.16476    21.337382    21.582561    10667.727    1759.2648    1537.6643     2014.026   -252.02026    166.05564   -7.9618968    -6532.324 
39859000    42.660129    -6919.464   -6809.7234    -6919.464            0    1881.7235    23.263526    21.168331    21.645496    10659.325    1445.6244    2277.7148    1921.8312   -130.61458   -507.35226   -49.657642   -6517.1995 
39860000    43.049326   -6920.3105   -6809.5688   -6920.3105            0    1953.4703    23.109238    21.370847    21.578564    10656.876    1910.0847    1812.5996    2137.7266    258.23922    297.97817    216.79221   -6505.9612 
39861000    42.504629   -6914.6757   -6805.3352   -6914.6757            0    1988.0625    23.114957     21.38795    21.556902    10657.334     1665.963    1688.4826    2609.7418    183.09606    672.29995    421.02614    -6496.338 
39862000    44.053619    -6918.613   -6805.2877    -6918.613            0    2059.9662    23.259661    21.181377    21.637277    10660.073    1542.8055    2840.2928    1796.8002   -194.59781   -106.33941   -135.73392   -6485.0326 
39863000     42.23211   -6914.0047   -6805.3652   -6914.0047            0     2024.637    23.127809    21.344123     21.59113    10658.306    1852.3911    1781.9728    2439.5471   -24.501208   -312.10703   -193.97168   -6490.6547 
39864000    44.329331   -6916.9366   -6802.9021   -6916.9366            0    1796.0231     23.09468    21.383887    21.579238    10656.994    1891.2448     1749.885    1746.9395    385.46693     322.8954    279.49121   -6523.7618 
39865000    44.092369   -6917.3329    -6803.908   -6917.3329            0    2118.3225    23.262199    21.204286    21.595584    10652.201     1381.756    2914.8597    2058.3519    276.05037   -339.03754    177.84967   -6474.8236 
39866000    41.102875   -6919.5339   -6813.7993   -6919.5339            0    1986.2835    23.184618    21.251477     21.62723    10655.895     2265.777    2180.9366    1512.1368   -332.15388   -231.58667   -111.20308   -6505.1203 
39867000    40.742214   -6922.4022   -6817.5954   -6922.4022            0    2127.3343    22.997409    21.450494    21.584673    10647.844    2640.4368     1596.725    2144.8413    142.76448   -140.85957   -98.473066   -6487.2461 
39868000     41.28087   -6917.5132   -6811.3206   -6917.5132            0    1979.2083    23.182912    21.283852    21.592502    10654.209    1703.3125    1828.3396    2405.9726   -81.582454    142.90019     13.42041   -6503.7899 
39869000    41.956459   -6915.3946   -6807.4641   -6915.3946            0    1648.3645     23.28062    21.193116    21.624778    10669.425    1125.9458    2712.4325    1106.7151   -180.46677    462.90858   -208.48914   -6550.9743 
39870000    42.853482   -6916.9955   -6806.7575   -6916.9955            0    1703.2084     23.11887    21.380447     21.57338    10663.545    1448.8185    1538.7415    2122.0651    828.79879    21.022589     165.6336   -6541.8799 
39871000    41.178336   -6913.9935   -6808.0647   -6913.9935            0    1898.7587    23.148514    21.337635    21.585169    10661.661    1605.7413    1592.4514    2498.0834   -99.105561   -139.64647    23.405911   -6512.8279 
39872000    44.587159   -6914.4476   -6799.7499   -6914.4476            0    1685.2762    23.291697    21.192456    21.630845    10677.164    1184.1809    2282.1893    1589.4583   -502.71714    302.71846   -340.83269   -6537.3263 
39873000    42.818107   -6918.8916   -6808.7446   -6918.8916            0    2031.5905    23.118444    21.348146     21.59057    10655.722    2714.2532    1421.5322     1958.986   -42.422868   -507.43126   -11.182048   -6493.0298 
39874000    41.001878   -6909.3279    -6803.853   -6909.3279            0    2015.3796    23.093972    21.350252    21.615713    10657.889     2357.432     1700.783    1987.9239    39.675591   -11.264572    -107.5708   -6490.5938 
39875000    42.193443    -6911.069    -6802.529    -6911.069            0    1895.0947    23.256441    21.217974    21.607879    10662.506    1534.0852    2246.4246    1904.7742    -578.2029   -194.86191   -131.86784   -6507.8385 
39876000    42.091969   -6915.8852   -6807.6062   -6915.8852            0    1945.8815    23.195287    21.265268    21.637253    10672.661     1642.969    2163.9947    2030.6807    146.91378    50.674861    144.23315   -6504.7301 
39877000    41.380427   -6914.2137    -6807.765   -6914.2137            0    2229.4086    23.085143    21.423278     21.54419    10654.883    2286.2478    1928.4131     2473.565    -94.98034    640.78553    271.00884    -6461.336 
39878000    43.392628   -6918.2312   -6806.6063   -6918.2312            0    1986.7875     23.20664    21.261956    21.603825    10659.728    1441.2681     2546.455    1972.6394    575.63434   -165.48237    182.63251   -6497.7379 
39879000     43.33311   -6910.5353   -6799.0635   -6910.5353            0    1985.0015    23.248538    21.245893    21.602704    10670.352    1298.1515    2447.2261    2209.6268    177.31752    53.317977    7.1709556   -6490.1653 
39880000    40.699191   -6919.3192    -6814.623   -6919.3192            0      1872.91    23.077171    21.376137    21.608807    10659.641    2333.3495    1683.7804       1601.6    86.319621    426.86838    186.61409   -6523.4606 
39881000    39.931172   -6915.8601   -6813.1396   -6915.8601            0    1657.8582    23.148519     21.36655    21.563728    10665.506     1832.374    1524.5459    1616.6548   -709.68424    411.56987    16.934366   -6555.2673 
39882000    44.161407   -6913.8348   -6800.2323   -6913.8348            0    2038.0366    23.253115    21.201424    21.630828     10663.98    2002.3264    2377.5426    1734.2408   -127.67286   -54.457306   -172.57429   -6483.2703 
39883000    42.923354   -6913.0451   -6802.6274   -6913.0451            0    2302.3241    23.161846    21.298611    21.584947    10648.181    2327.5614    2088.0813    2491.3295    346.83922   -50.159915    81.287631    -6445.093 
39884000    39.738584   -6913.1448   -6810.9197   -6913.1448            0    2374.4238    23.076901    21.394469    21.536016     10632.72    2588.9638    1975.8452    2558.4625    309.00711    157.11432    301.56248   -6442.7242 
39885000    42.545365   -6921.1044   -6811.6591   -6921.1044            0    1838.5258    23.236411    21.224761    21.601775     10653.72    1694.8508     1786.526    2034.2005     121.4458   -599.90376   0.75331936   -6526.0007 
39886000    44.092164   -6915.7814    -6802.357   -6915.7814            0    2101.9751    23.187335    21.274416    21.598066    10654.262     1898.991    2073.2523    2333.6819    161.06247   -81.653948    77.528937    -6475.749 
39887000    42.213459   -6916.6953   -6808.1038   -6916.6953            0    2002.5182    23.036908    21.413751    21.595219    10653.065    2073.0731    2070.5487    1863.9327    162.94069    312.20319   -293.99751   -6496.9845 
39888000    40.962821      -6916.5   -6811.1257      -6916.5            0    1858.7367    23.185592    21.287167    21.583531    10652.672    1378.2454    2490.6432    1707.3214    234.54631   -598.40588     -389.076   -6522.3555 
39889000    41.436218   -6914.7839   -6808.1917   -6914.7839            0    2270.4704    23.272595    21.151937    21.624234    10644.755    1527.2217    3376.0376     1908.152   -85.683152    207.47661    197.40572   -6455.7174 
39890000    43.909022   -6919.8482   -6806.8949   -6919.8482            0    2173.4052    23.137066    21.384395     21.51617    10645.602    1929.5133    2173.3794     2417.323   -225.02241    664.10583   -218.90522   -6469.4625 
39891000    42.934476   -6921.6631   -6811.2168   -6921.6631            0    2122.6278    23.075104    21.340918    21.631912    10652.503     1882.844    2261.8602     2223.179     425.4579    412.09053   -16.193157   -6481.4542 
39892000    43.297365   -6918.4639   -6807.0841   -6918.4639            0    1672.0047     23.26201    21.237264    21.593068    10667.439     1051.404    1886.0584    2078.5518   -614.10665   -65.886792   -240.41089   -6546.9642 
39893000    42.830399   -6916.8787   -6806.7001   -6916.8787            0    2118.2296     23.15486    21.283748    21.634518    10661.971    2339.4166    2388.7355    1626.5366   -183.37209   -24.420684   -142.57669   -6477.3283 
39894000    43.096826   -6917.6089   -6806.7449   -6917.6089            0    2475.1187    23.066927    21.425514    21.525234    10638.218    2789.5297     2099.158    2536.6684    131.67221    338.85175    159.67552   -6422.7365 
39895000    43.083247   -6911.2039   -6800.3749   -6911.2039            0    1963.6651    23.234753    21.236756    21.610877    10663.472    2128.3837    1620.2215    2142.3902     351.7024    97.293243    224.45254    -6494.994 
39896000    42.070962   -6916.4098   -6808.1848   -6916.4098            0    2145.8591    23.186268    21.255909    21.631594    10661.027    2089.6619    2000.9939    2346.9216    136.37207   -11.941038    146.57432   -6474.5463 
39897000    40.596717    -6915.619   -6811.1864    -6915.619            0    2013.4137    23.087091    21.402464    21.572656    10659.495    2056.7889    1549.8327    2433.6193    51.216316    113.88548    182.74862   -6498.1855 
39898000    41.925943   -6918.9849    -6811.133   -6918.9849            0     2014.631    23.171864    21.284894    21.592775    10649.787    2400.2279    1688.8655    1954.7995    310.21284   -311.91604    86.630714   -6498.2281 
39899000     44.23814   -6915.6963   -6801.8963   -6915.6963            0    1443.3409    23.289062    21.226375    21.601057    10678.318    1145.6508    1821.0767     1363.295   -558.52905    300.18103   -62.052355   -6577.1215 
39900000    42.618817   -6919.4792   -6809.8448   -6919.4792            0    1693.4409    23.115537    21.299892    21.667335    10668.095     1639.103    2072.1839    1369.0359    601.80064    358.74303    163.53503   -6546.3738 
39901000     43.61972   -6915.0392   -6802.8301   -6915.0392            0    1874.6074    23.140178    21.355121     21.56795    10658.047    1627.4425    1493.0692    2503.3105    272.64241    184.69284   -94.211782   -6511.4474 
39902000    42.235058   -6920.1496   -6811.5025   -6920.1496            0    1977.8307    23.247183    21.220858     21.59792    10654.797    1839.2551    2123.8936    1970.3436   -441.41948    213.10073    362.95976   -6504.1688 
39903000    45.359091    -6917.074   -6800.3905    -6917.074            0    1922.2237    23.232431    21.336648    21.484105    10649.718    1670.7422    1620.9074    2475.0216    -134.7482   -509.00535   -124.61327   -6501.8399 
39904000    41.014486   -6910.9251   -6805.4178   -6910.9251            0    2112.3619    23.113471    21.306114    21.635175     10654.42    1954.4219    2570.0915    1812.5723    718.11597    455.49289   -377.23536    -6477.191 
39905000    42.200801   -6919.1856   -6810.6266   -6919.1856            0    2308.2495    23.184705    21.267803    21.569947    10635.876    1975.5066    2384.7864    2564.4554   -179.47583    276.69778   -230.11915   -6452.5863 
39906000    39.807683   -6918.1506   -6815.7477   -6918.1506            0    2321.7163    23.179393    21.208399    21.657974    10647.013    1772.5956    2718.3243    2474.2289   -296.55555    256.50792    411.89497   -6455.2415 
39907000    41.717969   -6916.7958   -6809.4789   -6916.7958            0    2439.4004    23.169213    21.380652    21.484011    10642.596    2051.0807    1659.5601    3607.5604    63.217949    264.34547    105.77118   -6430.8562 
39908000    41.515048    -6918.088   -6811.2931    -6918.088            0    1901.8961     23.14885    21.311013    21.619961    10665.677    1723.6006    2380.3113    1601.7763    140.98109    78.892513   -756.51749    -6515.457 
39909000    42.804383   -6916.3931   -6806.2814   -6916.3931            0    2002.0621     23.20669    21.262849    21.604208    10660.388    2038.9952    1958.5743    2008.6167   -640.01447    96.517656   -33.270664   -6495.0192 
39910000    43.731536   -6920.4838   -6807.9871   -6920.4838            0    1798.6441    23.154504    21.281817    21.635635     10661.39    2246.6204    1982.0573    1167.2546    532.04677   -349.53584     441.9011   -6528.3241 
39911000    40.840507   -6917.5497     -6812.49   -6917.5497            0    1808.3029    23.107998    21.389588    21.583238    10667.959    1666.7996    1530.1676    2227.9415    19.771333    603.59636    54.690958    -6531.152 
39912000    41.723048   -6913.7951   -6806.4651   -6913.7951            0    1783.6694    23.179225    21.305216    21.618105     10675.85    1558.7909    1744.3354     2047.882   -153.01045    64.746154   -543.08466   -6528.7543 
39913000    42.548748   -6917.0596   -6807.6055   -6917.0596            0    2272.1894    23.199229    21.221995    21.635099    10651.693    2052.7138    2487.4466     2276.408   -224.23145    150.72984   -180.07024   -6454.6345 
39914000    41.525615   -6917.4031    -6810.581   -6917.4031            0     1926.804    23.082731    21.337255    21.631187    10653.838    2455.7782    1788.5429    1536.0908   -326.01145    300.06621   -285.71894   -6511.2033 
39915000    41.586179   -6914.0559    -6807.078   -6914.0559            0    1767.3922    23.130964    21.331459    21.612393    10663.927     2116.423    1548.3884    1637.3652    379.75595    179.78342    213.04743   -6532.2089 
39916000    44.235162   -6913.7019   -6799.9097   -6913.7019            0    1657.1104    23.319272    21.224326    21.567216    10674.388    1247.9134    2226.8936    1496.5241   -16.735407   -328.52188   -323.25829    -6541.939 
39917000    42.658048   -6918.3396   -6808.6044   -6918.3396            0    2124.4382    23.157253    21.280217    21.623201    10655.727    2153.6092    2642.6621    1577.0432   -169.67797    53.665897   -565.84044   -6478.4607 
39918000    43.615995   -6913.8949   -6801.6955   -6913.8949            0    1891.7544    23.118472    21.415787    21.525298    10657.181    1942.2229    1286.5506    2446.4896    560.02574   -103.77114    244.41614   -6507.6713 
39919000    44.964093   -6912.6606   -6796.9933   -6912.6606            0    2182.3057    23.196531    21.247849    21.619054    10655.522    1895.0065    2227.7028    2424.2079     264.5366    60.226744    678.49857   -6457.8633 
39920000    43.824647   -6920.6734   -6807.9371   -6920.6734            0    2039.5982    23.166225    21.302758    21.603356    10661.353    2286.0882    1430.0021    2402.7044   -383.16641    148.65479    10.559789   -6490.8104 
39921000    42.003125   -6915.5785    -6807.528   -6915.5785            0    1925.8422    23.067309    21.350531    21.664432    10669.717    2593.1889     1932.001    1252.3368   -223.07434    212.88958   -625.56289   -6507.8537 
39922000    42.568156   -6914.9824   -6805.4785   -6914.9824            0    1993.0883    23.209015    21.313175    21.544414    10657.113    1563.6949    2337.5997    2077.9704    39.721855   -233.73891   -466.16257   -6495.7066 
39923000    41.719667   -6916.1622   -6808.8409   -6916.1622            0    1840.1769     23.26414    21.221091    21.590094    10658.823    1678.0955    2174.4312     1668.004   -423.97114   -59.970385    393.05335    -6522.789 
39924000    41.413791   -6916.0433   -6809.5088   -6916.0433            0    2038.4785    23.134304     21.34596     21.57856    10656.009    2009.3779    1564.4103    2541.6473    126.44726    132.23759    503.92121   -6492.7151 
39925000    42.635301   -6913.9244   -6804.2477   -6913.9244            0    2603.4506    23.081073    21.346413    21.592798    10638.731    3021.7422    2204.6158    2583.9937   -62.993081   -160.03608   -15.609248   -6400.3094 
39926000    41.806691   -6917.7589   -6810.2137   -6917.7589            0    1869.9888    23.235095    21.263661    21.575431    10659.626    1835.1166    1979.2095    1795.6402   -544.12352   -582.63787   -334.50237   -6519.5058 
39927000     44.41237   -6911.6394   -6797.3912   -6911.6394            0    2409.6806    23.194943    21.249388    21.569382    10631.081    2497.7467    2784.9995    1946.2957   -326.97442    116.64108   -368.57534   -6423.7861 
39928000    42.669192   -6913.3338   -6803.5699   -6913.3338            0    2264.3963    23.073426    21.338115    21.608899    10638.999     2605.254    2189.0425    1998.8923    201.49651   -73.985816    103.92672   -6452.2287 
39929000    41.670658   -6915.0078   -6807.8126   -6915.0078            0    2051.5528    23.168738    21.317522    21.572621     10654.72    2089.6005    1648.2129     2416.845   -113.42466   -222.47983    820.38166   -6489.0256 
39930000    42.462702   -6914.2301   -6804.9974   -6914.2301            0     1439.133    23.287703    21.217722     21.62599    10685.662    887.05229    2557.6436    872.70302   -60.171033   -397.70941   -462.10367   -6580.7238 
39931000    42.199813     -6915.47   -6806.9135     -6915.47            0    2415.1639    23.167205    21.348338    21.499692    10633.346    2085.6781    2844.5329    2315.2807    14.410677    488.23994   -836.94008   -6432.3785 
39932000    42.426406   -6911.2135   -6802.0742   -6911.2135            0    2312.5538    23.124111    21.278369     21.62592     10640.89    2367.9322    2733.2459    1836.4832    642.52308    524.54366   -65.889514   -6443.1971 
39933000    40.623705   -6914.5307   -6810.0287   -6914.5307            0     2158.818    23.180573    21.274307    21.593386    10648.792    2089.8558    2019.4162    2367.1819   -234.89533   -103.98438    88.802313   -6474.7606 
39934000    41.449281   -6916.2887    -6809.663   -6916.2887            0    2182.8768    23.157604     21.28157    21.621176    10655.568    2411.3156    2186.4439     1950.871    154.45058   -257.18467    -641.8857   -6470.4428 
39935000    43.184717   -6912.8419   -6801.7518   -6912.8419            0    2320.5041    23.076389    21.417227    21.542722    10647.108    2632.4685    1718.6565    2610.3872    122.60717   -261.41686   -392.44554   -6441.4305 
39936000    44.193195   -6916.8128   -6803.1285   -6916.8128            0    2121.7243    23.192373    21.289771    21.575952    10653.349    2008.2568    2102.6338    2254.2824   -233.83962    200.31604    206.50888   -6473.4801 
39937000     41.04766   -6919.9388   -6814.3462   -6919.9388            0    1587.3113    23.242511    21.239789    21.625848    10675.946    1522.4897    1618.1596    1621.2846    122.55473   -58.552266    621.23173   -6567.2054 
39938000    44.231684   -6916.1094    -6802.326   -6916.1094            0    1295.5928    23.091315     21.41283    21.622673    10691.339    1785.2054    689.82072    1411.7522    148.11501    269.59076   -271.36044   -6600.3143 
39939000    41.470484   -6919.9123    -6813.232   -6919.9123            0    2234.3795    23.120366    21.298725    21.637783    10655.186     2609.692    2257.8956    1835.5508    23.105323   -168.56242   -272.29374   -6466.0207 
39940000    42.989466   -6906.6071   -6796.0193   -6906.6071            0     1633.233     23.34439     21.20442    21.561112    10672.842    903.28952    1995.6236    2000.7858   -397.37375    31.696264   -96.875724   -6541.8026 
39941000    43.643393    -6914.351    -6802.081    -6914.351            0    1957.9254    23.144573    21.304498    21.625796    10663.323     2018.476    2397.6966    1457.6035    679.83012    48.221124    58.948185   -6497.5969 
39942000     43.53247   -6916.9016    -6804.917   -6916.9016            0      1517.92    23.148491    21.380439    21.556789    10668.992    1990.7775    1162.9091    1400.0734     96.34653    311.64844   -333.22502   -6568.7342 
39943000    43.210276    -6920.088   -6808.9322    -6920.088            0    1377.3052    23.254285    21.192006    21.679467    10683.749    981.00842    2047.3336    1103.5735      231.593    85.769848    298.58302   -6594.3322 
39944000    43.405768   -6917.4209   -6805.7622   -6917.4209            0     2094.017    23.221514    21.288714    21.542937    10649.883    1735.3735    1998.8936    2547.7839   -202.22849   -20.392886    111.36606   -6480.5245 
39945000    42.435073   -6911.6774   -6802.5157   -6911.6774            0     2124.814    23.084012    21.390888    21.563746    10647.909    2058.8236    2264.1057    2051.5128    302.90993    174.76203   -227.62492   -6472.5559 
39946000    41.790236   -6915.9026   -6808.3997   -6915.9026            0    2100.8223    23.163904     21.30095    21.576166    10645.964    2022.7659    2335.4604    1944.2406   -346.62681    119.66918     104.7534   -6482.2251 
39947000    42.367999   -6914.7301    -6805.741   -6914.7301            0    2189.7944    23.213837    21.197581     21.64923    10653.092    2274.5667    2554.8549    1739.9615   -216.06193   -334.73888    23.805751   -6465.5249 
39948000    43.177119   -6914.9881   -6803.9176   -6914.9881            0    1890.4645    23.147556    21.407247    21.521953    10664.675    1511.2883    1920.3817    2239.7236   -4.3861551    51.417968   -505.05809   -6509.8873 
39949000    44.852194   -6919.8501   -6804.4705   -6919.8501            0    1740.3498    23.178749    21.306514    21.593821    10664.289     1794.282    1715.2539    1711.5134    270.41881    158.07683   -183.98571   -6533.7979 
39950000    41.309589   -6915.5931   -6809.3267   -6915.5931            0    1939.1562    23.234683    21.233903    21.592032    10652.709    1784.9012    1701.9637    2330.6038   -965.09139    104.83778    469.35724   -6508.0617 
39951000    43.578298   -6917.5294   -6805.4268   -6917.5294            0    2066.5102    23.163777    21.279884    21.634725    10664.243    2387.1613    1606.8116    2205.5578   -63.506146    337.52672    10.337706   -6484.0286 
39952000    43.582876   -6920.0319   -6807.9176   -6920.0319            0    2266.3704     23.08324    21.374516    21.584085    10649.439    2788.6829    1826.2957    2184.1326   -22.480278   -162.56555    0.9844602    -6455.925 
39953000    40.904413    -6920.237   -6815.0129    -6920.237            0    2156.0835    23.211236    21.288483    21.564582     10655.75    1948.8316    2082.9894    2436.4295    60.694864    10.465153   -106.28693   -6479.9506 
39954000    42.185153   -6917.8886   -6809.3698   -6917.8886            0    2009.2053    23.215264    21.283882    21.593339    10669.505    1953.6405    1764.2108    2309.7645   -97.027459   -31.628721    421.65087   -6496.7299 
39955000    42.099644   -6917.3045   -6809.0057   -6917.3045            0    2316.1697    23.079506    21.376354    21.582946    10648.069    2790.4714    1606.6318     2551.406   -260.91826    354.97998    -112.3406    -6449.325 
39956000    41.183762   -6919.4371   -6813.4944   -6919.4371            0    2014.9635    23.135063    21.245689    21.706199    10669.039     2054.141    2294.0355    1696.7139    468.85424   -559.42393    156.05455   -6499.9722 
39957000    41.876354   -6920.1056   -6812.3813   -6920.1056            0    1967.4384    23.255011    21.293684    21.520132    10656.444    1275.4222    1807.7481     2819.145   -26.466118    202.58577    267.95625   -6506.6152 
39958000    43.671188   -6919.1445    -6806.803   -6919.1445            0    1865.8099    23.190904     21.28149    21.597868    10659.347    1946.1473    2261.3307    1389.9516    403.21597   -19.420184   -95.983801   -6516.7523 
39959000     43.59411   -6917.0087   -6804.8655   -6917.0087            0    1947.4685     23.13962    21.375067    21.558543    10663.091    2147.8697    1538.2392    2156.2968   -236.60056   -191.84081    15.045869   -6502.0142 
39960000    43.683243   -6921.1061   -6808.7337   -6921.1061            0    1652.2265     23.16873    21.258266    21.676959    10676.488    2002.3626    1537.9322    1416.3846    188.11334   -395.75318    139.41866   -6551.4727 
39961000    43.641543   -6918.0072    -6805.742   -6918.0072            0    1531.4684    23.211085    21.307367    21.580513    10673.011    1715.9694    1310.9018     1567.534    -148.1459   -219.96824    52.757158   -6567.3614 
39962000     42.64164   -6921.0562   -6811.3632   -6921.0562            0    1651.0883    23.174875    21.308537    21.612942    10672.961    1158.8632    1786.3074    2008.0942    356.21859    506.42505     205.2083   -6554.3644 
39963000    41.522495   -6915.6679   -6808.8538   -6915.6679            0    1575.7292    23.173741    21.320951    21.626931    10685.568    1660.0309     1471.962    1595.1946   -82.165011    156.01552   -27.644044   -6563.2953 
39964000    42.346147   -6915.1404   -6806.2075   -6915.1404            0     2073.423     23.20923    21.274613    21.580914    10655.952    1863.1443    1911.2116    2445.9132    525.64497   -28.555732    238.10941   -6483.9849 
39965000    41.567287   -6920.7987   -6813.8694   -6920.7987            0    2120.7857    23.148301    21.327474    21.577495    10652.697    2008.1525    2344.4288    2009.7757    430.39742   -177.43599    52.550415    -6484.387 
39966000    41.385275   -6914.5068   -6808.0457   -6914.5068            0    1795.3803    23.172248    21.326357    21.575985    10662.413    2007.8688    1782.6498    1595.6222   -626.70462   -30.054433    83.531427   -6528.8634 
39967000    43.306931   -6918.5486   -6807.1442   -6918.5486            0    1682.7522    23.235427     21.25385    21.615315    10674.557    1359.2154    1738.7265    1950.3148   -481.59537    16.476689    303.79771   -6545.1776 
39968000    42.864252   -6913.3184   -6803.0527   -6913.3184            0    1894.3925    23.195214    21.339763    21.546418    10665.054    1588.1794    2014.3101     2080.688    545.43883   -186.84288    -288.5481    -6508.401 
39969000    41.245318   -6915.0269   -6808.9258   -6915.0269            0    1708.0231     23.11005    21.336383    21.641594    10671.142    2151.3825    1668.7368    1303.9501    163.28206   -317.70329     244.2388   -6543.1102 
39970000     41.41228   -6919.4398   -6812.9093   -6919.4398            0    1911.2691    23.180388    21.280603    21.591077     10650.72    1964.6723    1686.0756    2083.0594   -197.16648   -321.12276    515.52703   -6516.0322 
39971000    41.750506    -6916.679   -6809.2783    -6916.679            0    2109.9887    23.158303    21.297225    21.594968    10650.802     1878.907    2056.5271    2394.5319    343.49291   -33.929132    311.55762   -6481.5316 
39972000    43.382999   -6923.5215   -6811.9214   -6923.5215            0    1849.1188       23.217    21.294116    21.572884    10665.321    1456.8943    2308.5121    1781.9501    512.66371    151.42989    -311.6862   -6524.3043 
39973000    40.904106   -6916.9597   -6811.7364   -6916.9597            0     1736.339    23.167408    21.300005    21.632727    10675.013    1879.8191    2243.8584    1085.3396    41.209044   -101.18006   -353.11083    -6541.416 
39974000    44.340218    -6915.813   -6801.7505    -6915.813            0    1704.5191    23.127196    21.303457    21.662402    10672.832    1856.6145    1689.4195    1567.5233      126.112    168.76376     274.5784   -6536.4381 
39975000    43.131257   -6919.4373   -6808.4847   -6919.4373            0    1821.8111    23.140058    21.310604    21.592006    10647.636    1770.8318    1779.1937    1915.4078    -605.3353   -20.859823    447.18359   -6525.5851 
39976000    41.885584   -6914.5452   -6806.7971   -6914.5452            0    1823.6721    23.207424    21.256917    21.591622    10651.542     1852.411    1858.7665    1759.8388   -224.69858   -366.95523   -210.09792   -6523.5046 
39977000     44.88851   -6912.5305   -6797.0576   -6912.5305            0    2413.5698    23.137466    21.320669    21.576884    10644.011    2821.7026    2142.6626    2276.3441   -98.433075   -462.52657   -925.35107   -6422.3943 
39978000    44.606693   -6913.9869   -6799.2389   -6913.9869            0    2457.7791    23.095113    21.356225    21.582646    10645.088    3080.0444    2269.7946    2023.4984    194.50153   -272.95351   -107.60978   -6417.6744 
39979000    43.083046   -6916.2758   -6805.4473   -6916.2758            0    2182.1366    23.186728    21.260422    21.588894    10642.453    2045.5531    2370.8913    2129.9655    84.306906    166.30319    419.65644   -6466.7595 
39980000    43.901793    -6913.799   -6800.8643    -6913.799            0    1972.6165    23.201234    21.243561    21.606341    10649.265    1844.6815    1948.8666    2124.3012    460.03172   -54.841145    572.01198      -6494.5 
39981000    43.765309   -6913.8494   -6801.2658   -6913.8494            0    1706.4544    23.135916     21.36057    21.588477    10668.947    1857.5991    1267.9808    1993.7834      637.738     -173.596   -212.76565   -6535.7489 
39982000    43.110378   -6914.3472   -6803.4484   -6914.3472            0    2032.4342    23.108246    21.312948    21.658704    10667.017    2271.6001    2236.0941    1589.6084    43.677886    188.48885   -454.45027   -6487.2677 
39983000    43.457132    -6921.805   -6810.0142    -6921.805            0    2169.1002     23.19791    21.276308    21.578218    10650.272    2284.8867    2341.0604    1881.3534   -394.81909   -8.3566329   -96.965058   -6473.1024 
39984000    42.957702   -6917.3096   -6806.8035   -6917.3096            0    2073.2391     23.13632     21.32822    21.593936    10655.668    2273.8236    1731.7911    2214.1024   -114.06411     24.23622    740.22449    -6484.618 
39985000    42.146677    -6916.583   -6808.1633    -6916.583            0     2055.089    23.165199    21.313723    21.598495    10663.968    1878.1654    2107.4592    2179.6424   -48.646022    250.36343      153.624   -6488.5496 
39986000    41.945917   -6917.6111   -6809.7078   -6917.6111            0    1466.7002    23.206633    21.301927    21.630845    10693.122    1389.1913    1763.7141    1247.1952     3.139187   -290.98508   -591.75289   -6580.9785 
39987000    42.438737   -6919.5644   -6810.3934   -6919.5644            0     2283.163    23.179728    21.308413    21.570887    10654.362     2373.178    2119.5812    2356.7298    511.27899   -369.27805   -551.48664   -6455.6288 
39988000    43.222709    -6912.719   -6801.5312    -6912.719            0    1973.2123    23.153158    21.332853    21.594717    10666.126    2134.5659    2137.3816    1647.6895   -94.005279    161.62231    203.65798   -6494.5892 
39989000    44.280662   -6921.4234   -6807.5141   -6921.4234            0    1711.3187    23.209961    21.249281    21.605817    10655.881    1589.0105    2044.2682    1500.6774   -35.567858    339.77838    238.42354   -6541.5665 
39990000    42.646702   -6914.4082   -6804.7021   -6914.4082            0    1842.8844    23.164629    21.259682    21.655333    10664.659      1490.29    2256.4433    1781.9198   -66.327281     482.1701   -128.28175   -6518.0726 
39991000    42.223813   -6916.0328   -6807.4146   -6916.0328            0    2479.6353    23.187292    21.312833    21.520904    10635.349    2263.8222    2442.9722    2732.1114     15.63932    45.799943   -491.54112   -6422.8092 
39992000    43.843133   -6922.8827   -6810.0989   -6922.8827            0    1655.8912    23.180167     21.30357    21.606064    10669.513    1345.3647    2004.7464    1617.5624    281.38661   -169.24955   -91.765486   -6552.4357 
39993000    42.591095   -6914.3581   -6804.7951   -6914.3581            0    1725.0821    23.169183    21.269058    21.631266      10659.6    1487.7781    1789.8571     1897.611   -117.22704    210.75184    77.845031    -6536.615 
39994000    44.327811   -6920.3221   -6806.2915   -6920.3221            0    1532.5284     23.14522    21.298938    21.623211    10659.564    2152.1875    1309.1051    1136.2928   -702.20632   -129.45666  0.046374819   -6568.0465 
39995000    43.904055   -6912.3125    -6799.372   -6912.3125            0    2042.5949    23.163599    21.292991    21.606904    10657.007    1762.6263    2446.4511    1918.7074     96.47907    67.643383   -231.04747   -6481.9088 
39996000    43.153695    -6921.225   -6810.2148    -6921.225            0    1716.6449    23.211448    21.301989    21.562991    10661.821    1708.9616    1707.2818    1733.6913    23.964993   -7.7649572   -521.75604   -6543.2907 
39997000    42.706319   -6916.8319   -6806.9725   -6916.8319            0    1482.8103    23.165151    21.281046    21.643674    10669.869    1507.6091    1723.7821    1217.0397    139.24127     178.7927   -187.64319   -6576.2337 
39998000    43.078339    -6915.282   -6804.4656    -6915.282            0    2089.5357    23.174384    21.289091    21.570829    10642.218    2003.1078    1897.9226    2367.5767   -223.34063    88.572328   -75.704367   -6480.1574 
39999000    43.256788   -6920.7338   -6809.4584   -6920.7338            0    2226.7073    23.201609    21.265509    21.574818    10644.886    2144.7308    2213.0451    2322.3461    137.91579    -152.7522    71.262947   -6463.7737 
40000000     44.54338   -6913.6779   -6799.0928   -6913.6779            0    1903.3378    23.208324    21.298856    21.571484    10663.017    1950.7797     1790.137    1969.0967    6.4914834    151.28402   -251.79707   -6503.1063 
Loop time of 628.805 on 64 procs for 250000 steps with 1296 atoms

Performance: 68.702 ns/day, 0.349 hours/ns, 397.579 timesteps/s
374.2% CPU use with 16 MPI tasks x 4 OpenMP threads

MPI task timing breakdown:
Section |  min time  |  avg time  |  max time  |%varavg| %total
---------------------------------------------------------------
Pair    | 41.823     | 51.294     | 67.288     | 101.5 |  8.16
Bond    | 1.5362     | 1.9157     | 2.4473     |  19.4 |  0.30
Kspace  | 305.72     | 324.53     | 338.62     |  48.6 | 51.61
Neigh   | 0.17128    | 0.18078    | 0.18593    |   0.9 |  0.03
Comm    | 68.193     | 75.768     | 82.393     |  51.1 | 12.05
Output  | 0.41112    | 0.41143    | 0.41286    |   0.1 |  0.07
Modify  | 135.8      | 143.93     | 149.7      |  38.9 | 22.89
Other   |            | 30.77      |            |       |  4.89

Nlocal:        81.0000 ave          98 max          62 min
Histogram: 2 0 1 1 2 4 2 2 0 2
Nghost:        3704.06 ave        3741 max        3667 min
Histogram: 1 0 3 1 2 3 3 1 1 1
Neighs:        26197.4 ave       31633 max       19992 min
Histogram: 2 0 1 1 3 3 2 2 0 2

Total # of neighbors = 419158
Ave neighs/atom = 323.42438
Ave special neighs/atom = 2.0000000
Neighbor list builds = 306
Dangerous builds = 0

unfix		3
unfix		2
unfix		1

write_data	data.final.${pid}
write_data	data.final.0
System init for write_data ...
PPPM initialization ...
  extracting TIP4P info from pair style
  using 12-bit tables for long-range coulomb (../kspace.cpp:340)
  G vector (1/distance) = 0.36704024
  grid = 30 40 32
  stencil order = 5
  estimated absolute RMS force accuracy = 0.0046296559
  estimated relative force accuracy = 1.3942071e-05
  using double precision FFTW3
  3d grid and FFT values/proc = 11832 2400
Last active /omp style is kspace_style pppm/tip4p/omp
WARNING: Not all mixed pair coeffs generated from mixing. Use write_data with 'pair ij' option to store all pair coeffs. (../write_data.cpp:312)

write_restart   restart.lmp.${pid}
write_restart   restart.lmp.0
System init for write_restart ...
PPPM initialization ...
  extracting TIP4P info from pair style
  using 12-bit tables for long-range coulomb (../kspace.cpp:340)
  G vector (1/distance) = 0.36704024
  grid = 30 40 32
  stencil order = 5
  estimated absolute RMS force accuracy = 0.0046296559
  estimated relative force accuracy = 1.3942071e-05
  using double precision FFTW3
  3d grid and FFT values/proc = 11832 2400
Last active /omp style is kspace_style pppm/tip4p/omp
Total wall time: 0:10:28
