LAMMPS (30 Jul 2021)
  using 1 OpenMP thread(s) per MPI task
package omp 0
using multi-threaded neighbor list subroutines
echo both

include		in.partitions
variable        pid world 0
include		in.temp
variable        temperature equal 275.55
variable	tempDamp equal 100.0
include		in.pressure
variable        pressure equal 10125.0
variable        pressureDamp equal 1000.0 # This is 1 ps
include		in.seed
variable        seed world 745823

units		real
atom_style	full
read_restart	restart.lmp.${pid}
read_restart	restart.lmp.0
Reading restart file ...
  restart file = 30 Jul 2021, LAMMPS = 30 Jul 2021
  restoring atom style full from restart
  orthogonal box = (0.70826814 1.9257776 0.86408548) to (17.499304 21.703400 21.349110)
  4 by 4 by 4 MPI processor grid
  restoring pair style lj/cut/tip4p/long/omp from restart
  restoring bond style harmonic/omp from restart
  restoring angle style harmonic/omp from restart
  864 atoms
  576 bonds
  288 angles
Finding 1-2 1-3 1-4 neighbors ...
  special bond factors lj:    0        0        0       
  special bond factors coul:  0        0        0       
     2 = max # of 1-2 neighbors
     1 = max # of 1-3 neighbors
     1 = max # of 1-4 neighbors
     2 = max # of special neighbors
  special bonds CPU = 0.092 seconds
  read_restart CPU = 0.267 seconds
include 	in.setup
variable	out_freq equal 1000
variable	out_freq2 equal 10000
variable	out_freq3 equal 1000

timestep	2.0

neigh_modify    delay 7 every 1

include		in.tip4p
# This is TIP4P/Ice

# create groups ###
group ox type 2
288 atoms in group ox
group hy type 1
576 atoms in group hy

# set charges - beside manually ###
set group ox charge -1.1794
Setting atom values ...
  288 settings made for charge
set group hy charge 0.5897
Setting atom values ...
  576 settings made for charge

# ### TIP3P Potential Parameters ###
pair_style lj/cut/tip4p/long/omp 2 1 1 1 0.1577 8.5
pair_coeff 1 1*2 0.000 0.000
pair_coeff 2 2 0.21084 3.1668
bond_style  harmonic
bond_coeff  1 450 0.9572
angle_style harmonic
angle_coeff 1 55 104.52
kspace_style pppm/tip4p/omp 1.0e-5
pair_modify tail yes

thermo          ${out_freq}
thermo          1000
thermo_style    custom step temp pe etotal epair emol press lx ly lz vol pxx pyy pzz pxy pxz pyz enthalpy

restart 	${out_freq3} restart.lmp.${pid} restart2.lmp.${pid}
restart 	1000 restart.lmp.${pid} restart2.lmp.${pid}
restart 	1000 restart.lmp.0 restart2.lmp.${pid}
restart 	1000 restart.lmp.0 restart2.lmp.0


include         in.dump
dump            myDump all atom ${out_freq2} dump.water.${pid}
dump            myDump all atom 10000 dump.water.${pid}
dump            myDump all atom 10000 dump.water.0
dump            myDump2 all dcd ${out_freq2} dump.dcd
dump            myDump2 all dcd 10000 dump.dcd
dump_modify     myDump append yes
dump_modify     myDump2 append yes


variable natoms 	equal  "count(all)"                        # NUMBER ATOMS
variable H      	equal  "enthalpy/v_natoms"                 # ENTHALPY-per-atom
variable Vol      	equal  "vol/v_natoms"                 # volume-per-atom
fix AVG all 		ave/time ${out_freq} 1 ${out_freq} v_Vol v_H file vol_enthalpy.dat
fix AVG all 		ave/time 1000 1 ${out_freq} v_Vol v_H file vol_enthalpy.dat
fix AVG all 		ave/time 1000 1 1000 v_Vol v_H file vol_enthalpy.dat


timer           timeout 23:50:00 every 1000
New timer settings: style=normal  mode=nosync  timeout=23:50:00

fix 		1 all shake 1e-6 200 0 b 1 a 1
       0 = # of size 2 clusters
       0 = # of size 3 clusters
       0 = # of size 4 clusters
     288 = # of frozen angles
  find clusters CPU = 0.383 seconds
fix             2 all nph iso ${pressure} ${pressure} ${pressureDamp}
fix             2 all nph iso 10125 ${pressure} ${pressureDamp}
fix             2 all nph iso 10125 10125 ${pressureDamp}
fix             2 all nph iso 10125 10125 1000
fix             3 all temp/csvr ${temperature} ${temperature} ${tempDamp} ${seed}
fix             3 all temp/csvr 275.55 ${temperature} ${tempDamp} ${seed}
fix             3 all temp/csvr 275.55 275.55 ${tempDamp} ${seed}
fix             3 all temp/csvr 275.55 275.55 100 ${seed}
fix             3 all temp/csvr 275.55 275.55 100 745823

run             250000
PPPM initialization ...
  extracting TIP4P info from pair style
  using 12-bit tables for long-range coulomb (../kspace.cpp:340)
  G vector (1/distance) = 0.37515822
  grid = 24 24 24
  stencil order = 5
  estimated absolute RMS force accuracy = 0.0030601966
  estimated relative force accuracy = 9.215691e-06
  using double precision FFTW3
  3d grid and FFT values/proc = 2535 216
Last active /omp style is kspace_style pppm/tip4p/omp
Neighbor list info ...
  update every 1 steps, delay 7 steps, check yes
  max neighbors/atom: 2000, page size: 100000
  master list distance cutoff = 10.8154
  ghost atom cutoff = 10.8154
  binsize = 5.4077, bins = 4 4 4
  1 neighbor lists, perpetual/occasional/extra = 1 0 0
  (1) pair lj/cut/tip4p/long/omp, perpetual
      attributes: half, newton on, omp
      pair build: half/bin/newton/omp
      stencil: half/bin/3d
      bin: standard
Per MPI rank memory allocation (min/avg/max) = 9.238 | 9.241 | 9.244 Mbytes
Step Temp PotEng TotEng E_pair E_mol Press Lx Ly Lz Volume Pxx Pyy Pzz Pxy Pxz Pyz Enthalpy 
  750000    279.31753   -3788.3775   -3309.6369   -3788.3775            0    11853.707    16.791036    19.777623    20.485025    6802.8059    13810.028    10318.774    11432.318   -253.40567    287.08091   -641.17439   -2133.6076 
  751000    268.99064   -3822.8245   -3361.7838   -3822.8245            0    9899.9676     16.90636    19.913459     20.62572    6943.9395    9119.4812    9975.6412    10604.781    1086.7931    365.66644   -2098.0794   -2359.2117 
  752000    280.80665   -3856.0804   -3374.7874   -3856.0804            0    9812.7695    16.878336    19.880451    20.591531    6909.4661    8815.1585     11750.93    8872.2206   -340.27222    -765.4634    115.47977   -2385.9794 
  753000     281.4912   -3852.7518   -3370.2855   -3852.7518            0    11086.836    16.911059    19.918993    20.631452    6949.7309    10187.446    10948.401    12124.661   -366.23321   -330.62535   -241.81353   -2246.5826 
  754000    255.82243   -3847.6431   -3409.1722   -3847.6431            0    9641.3978    16.928937    19.940052    20.653264    6971.7963    9427.4668    11514.423    7982.3035     818.3947    310.71204   -237.97366   -2428.8687 
  755000    270.97524   -3795.3922   -3330.9499   -3795.3922            0    9559.8356    16.925792    19.936347    20.649426    6967.9104    12187.009    7488.0301    9004.4672   -16.656074   -538.67153    549.71775   -2359.4811 
  756000    269.51637   -3800.5362   -3338.5943   -3800.5362            0    10283.111     16.92703    19.937806    20.650938    6969.4405    9269.6252    11704.683    9875.0252   -428.98444    1457.2408    353.01072   -2293.3969 
  757000    286.00957   -3834.6701   -3344.4595   -3834.6701            0     10962.74    16.870748    19.871513    20.582273    6900.1515    11256.747    10607.788    11023.685   -144.67281   -1902.6114   -1880.2718   -2241.2611 
  758000    276.57898    -3821.433    -3347.386    -3821.433            0    9123.9537    16.891777    19.896282    20.607928    6925.9858    9362.2889    7990.3708    10019.201    1788.0515    586.59818   -2823.1148   -2425.7901 
  759000    287.57327   -3801.5274   -3308.6367   -3801.5274            0    11707.832     16.84384    19.839819    20.549445    6867.1875     11641.93    12210.821    11270.744   -1522.8991   -489.83732    444.31339    -2136.087 
  760000    288.14147    -3849.732   -3355.8674    -3849.732            0    6682.4056    17.013324    20.039449    20.756216    7076.5754    7224.9121    7146.1884    5676.1163   -650.38725   -716.06712   -1059.4348   -2666.2124 
  761000    280.16058    -3840.477   -3360.2914    -3840.477            0    11108.987    16.939899    19.952963    20.666637    6985.3475    11298.545    11960.303    10068.113    594.46519   -505.37011   -1921.0948    -2228.573 
  762000    291.23654   -3799.8904   -3300.7209   -3799.8904            0    8234.8584     16.96935    19.987653    20.702567    7021.8445    6727.1265    9533.5377    8443.9109    1871.2807    173.38106   -37.922256   -2457.4187 
  763000    276.28581   -3791.0707   -3317.5263   -3791.0707            0    9307.8098    16.931559     19.94314    20.656463    6975.0359    10768.443    8672.8891    8482.0977    190.50952    839.53614   -5.5088494   -2370.7011 
  764000    268.10546   -3818.1248   -3358.6013   -3818.1248            0    9882.4993    16.950132    19.965016    20.679121    6998.0141    10180.601    10414.636    9052.2607     339.0732    522.77464    2021.3153   -2350.0047 
  765000    275.82884   -3811.9911   -3339.2299   -3811.9911            0    10325.522    16.850854     19.84808    20.558002    6875.7699    10424.125    10617.823    9934.6193   -799.04868    149.17103   -353.80314   -2303.8272 
  766000     276.8442   -3831.4145   -3356.9131   -3831.4145            0    11546.513    16.873162    19.874356    20.585218    6903.1133    9732.3173    12484.301    12422.922   -2132.7169   -289.55291   -1562.0095   -2194.4698 
  767000    270.69251   -3811.8132   -3347.8555   -3811.8132            0    11716.068    16.877957    19.880004    20.591068    6909.0005    9538.2893    12554.497    13055.418    -1142.765   -882.69683   -2329.4741   -2167.3364 
  768000    259.02233   -3825.0176   -3381.0621   -3825.0176            0    10699.933    16.855215    19.853217    20.563323    6881.1094    11506.158    10477.515    10116.125    42.165212    916.46989   -1023.6332   -2307.2819 
  769000    291.24753   -3850.0117   -3350.8234   -3850.0117            0    9904.2773     16.87684    19.878689    20.589706    6907.6291     10790.92    9993.9657    8927.9466    1837.4741    154.23122    2085.3304   -2353.0598 
  770000    267.67604   -3844.9248   -3386.1372   -3844.9248            0    10069.412    16.825023    19.817655    20.526489    6844.1987     10508.11    9178.9655    10521.162    388.60123   -1705.6136    1772.6305   -2381.0526 
  771000    265.25406   -3834.1415   -3379.5052   -3834.1415            0    8718.4717     16.91972    19.929195    20.642019    6960.4145    9146.3975    8583.8216    8425.1961    1561.1567   -301.54639     707.9308   -2494.4887 
  772000    277.30493   -3821.3158   -3346.0246   -3821.3158            0    10058.014    16.912467    19.920652     20.63317     6951.467    8164.0358    9884.8694    12125.136    -8.469277     1004.478    546.22855    -2326.343 
  773000    255.97469   -3833.1221   -3394.3903   -3833.1221            0    10080.492    16.902432    19.908832    20.620927       6939.1    9993.1593    9568.9737    10679.343    1145.0536   -1308.6239    228.36228    -2374.248 
  774000    295.83835   -3804.4197   -3297.3629   -3804.4197            0     9370.618    16.946638    19.960901    20.674859    6993.6882    10245.119    8901.6565    8965.0785   -115.31858    1534.5432   -612.67659   -2341.5995 
  775000    276.00811   -3797.8398   -3324.7714   -3797.8398            0    8541.8217    16.936462    19.948915    20.662444    6981.0972    9883.8239    8434.5145    7307.1266   -121.47007    594.22595   -147.81058   -2455.1102 
  776000    281.17317   -3789.7269   -3307.8057   -3789.7269            0    8816.3805    16.949425    19.964183    20.678258    6997.1385    8471.6241    7256.4879     10721.03    228.85072   -1612.3955    3187.0015   -2408.1286 
  777000    291.73262    -3795.478   -3295.4582    -3795.478            0    11995.862    16.857972    19.856464    20.566686    6884.4868    11984.586    10934.155    13068.846   -1900.4758    792.79352    375.01959   -2091.0355 
  778000    281.43598    -3821.989   -3339.6173    -3821.989            0    10447.826    16.844209    19.840253    20.549895    6867.6388    9191.2989    11319.191    10832.989    15.920104    172.91388   -361.83008   -2293.1896 
  779000     266.4827   -3829.5731   -3372.8308   -3829.5731            0    11054.212    16.881635    19.884336    20.595555    6913.5177    11786.655    9693.6828    11682.299    1384.3569   -916.78187   -2051.7537   -2258.2726 
  780000     285.8274   -3779.8966   -3289.9982   -3779.8966            0    10048.158    16.937674    19.950343    20.663923    6982.5958    9479.0603    8851.8791    11813.534   -885.77667   -925.67215   -2181.9341   -2266.7541 
  781000    287.48078    -3779.284   -3286.5518    -3779.284            0    8705.5729     16.93707    19.949632    20.663186    6981.8494     9295.811     7622.034    9198.8737    1538.6862   -2512.1684    207.72594   -2400.1233 
  782000    269.42439    -3750.902   -3289.1178    -3750.902            0    12104.007    16.853107    19.850734    20.560751    6878.5284    13757.942    11747.079        10807    932.18286     1827.647   -781.51569   -2074.8888 
  783000    277.06016   -3780.8467    -3305.975   -3780.8467            0    11891.966    16.800972    19.789326    20.497146    6814.8892    12993.909    10219.791    12462.196    -246.1828    998.48671    1366.9132   -2124.0543 
  784000    263.63661   -3818.7582   -3366.8941   -3818.7582            0    10609.447    16.909478    19.917132    20.629524    6947.7822    11749.825    9685.4875    10393.028    105.92772    937.78878    170.29081   -2291.8784 
  785000    262.63791   -3816.0655   -3365.9131   -3816.0655            0     9335.963    16.907228    19.914482    20.626779    6945.0097     8935.713    7832.0264     11240.15   -1256.1902    19.730018   -246.09662   -2420.3123 
  786000    266.36252   -3812.1194   -3355.5831   -3812.1194            0    11104.599    16.824122    19.816593     20.52539     6843.099    10442.153    11109.567    11762.077    437.56915   -144.57253   -769.49397   -2247.3488 
  787000    279.77763   -3818.6928   -3339.1635   -3818.6928            0    9915.3493    16.848115    19.844854    20.554661    6872.4173    11052.105    9461.5392    9232.4035   -615.83996    359.97572    78.666408   -2345.3762 
  788000    283.02408    -3845.821   -3360.7274    -3845.821            0    9176.0441    16.909869    19.917592    20.630001    6948.2641    10976.204    8324.5964    8227.3325    498.38252   -533.20241    -1084.136   -2430.8885 
  789000    264.37028   -3793.0576    -3339.936   -3793.0576            0    10097.641    16.886017    19.889497    20.600901    6918.9027    9764.8761     10122.96    10405.087    291.64866   -578.84148    559.87803   -2321.0325 
  790000    283.49344   -3851.3479   -3365.4499   -3851.3479            0    9979.0862    16.845681    19.841987    20.551692    6869.4398    10671.689    10182.484    9083.0858   -1070.8233   -324.99887   -207.28126   -2365.7078 
  791000    275.93722   -3838.5545   -3365.6075   -3838.5545            0    7935.3822    16.943735    19.957482    20.671318    6990.0949    8135.4866    7841.1666    7829.4934   -403.87639     2446.894   -502.51415    -2556.648 
  792000    272.13196   -3817.3086   -3350.8837   -3817.3086            0    10182.847    16.849691     19.84671    20.556583    6874.3462    11043.362     9298.506    10206.671    249.52908    245.45641    274.10978   -2329.9995 
  793000    270.25899    -3783.986   -3320.7713    -3783.986            0    10785.399    16.904524    19.911297     20.62348     6941.678    11445.734    10283.433     10627.03   -568.46461   -520.65363    1175.2612   -2228.8872 
  794000    283.57238   -3810.6279   -3324.5945   -3810.6279            0    13844.251    16.808609    19.798321    20.506464    6824.1867    14625.064    15093.413    11814.276    1290.9119    1731.8002   -268.66923   -1946.7625 
  795000    280.32922   -3873.9378   -3393.4631   -3873.9378            0    11025.462    16.866668    19.866707    20.577296    6895.1467    9388.5714    9745.7882    13942.027   -541.25121   -1293.1461    421.37483   -2284.7576 
  796000    275.97098   -3801.8781   -3328.8733   -3801.8781            0    11504.769    16.845779    19.842102    20.551811    6869.5592    12257.991    10335.532    11920.784    1867.6467    614.51556    1001.1768   -2176.2625 
  797000    271.34213    -3829.531   -3364.4599    -3829.531            0    9771.2856    16.824027    19.816482    20.525274     6842.983    9096.8016    10495.153    9721.9023    272.71032   -2466.9042   -557.06608   -2389.3062 
  798000    269.65791   -3810.5645     -3348.38   -3810.5645            0    11992.361    16.873121    19.874308    20.585169    6903.0639    10384.804     12743.26    12849.018   -339.82468    938.53055    96.545136   -2141.0599 
  799000    277.52407   -3798.5394   -3322.8726   -3798.5394            0    8620.5564    16.919017    19.928367    20.641161    6959.5466     9671.265    8202.0524    7988.3519    125.07634   -1175.4021   -356.81319   -2447.9047 
  800000    274.01862   -3804.6647   -3335.0062   -3804.6647            0    10091.534    16.889938    19.894116    20.605685     6923.724    9845.7494    12211.386    8217.4658    392.14088   -1117.9598   -754.20066   -2316.0094 
  801000    281.08016   -3806.5357   -3324.7739   -3806.5357            0    6920.6929    17.006062    20.030895    20.747356    7067.5169    5393.9663    7942.7153     7425.397    573.02872    2186.0654    447.12294   -2611.4409 
  802000    274.45622   -3833.2028   -3362.7942   -3833.2028            0    8213.0134    16.960743    19.977515    20.692067    7011.1652     6972.638    9695.7861     7970.616    1204.8047   -659.69642   -895.40964   -2523.0082 
  803000    258.14085   -3821.3886    -3378.944   -3821.3886            0    10108.424     16.88775    19.891539    20.603015    6921.0336    8631.7148    10540.105    11153.453     1179.973    1975.8825    1929.1561   -2358.6384 
  804000    288.17319   -3836.8634   -3342.9445   -3836.8634            0      8207.75    16.956646     19.97269    20.687069    7006.0863    10256.182    7537.3455    6829.7222    1208.8643    1473.8335    1055.3583   -2504.3046 
  805000    268.99921   -3820.2016   -3359.1462   -3820.2016            0    10964.159    16.897165    19.902628    20.614502    6932.6154    11073.597    11102.839    10716.041   -860.72381   -58.141099    1070.4825    -2250.614 
  806000    292.25685   -3836.8928   -3335.9745   -3836.8928            0    10502.103    16.959062    19.975535    20.690016    7009.0809    10294.185    11199.266    10012.859   -1669.1935   -1614.3848   -2537.9927   -2262.4468 
  807000    291.74864   -3871.5091   -3371.4619   -3871.5091            0    8761.1851     16.89477    19.899807     20.61158    6929.6681    6420.5552    9192.3827    10670.617   -136.07317   -529.40595   -212.80247   -2486.0381 
  808000    271.45115   -3821.5658   -3356.3078   -3821.5658            0    10309.941    16.901681    19.907948    20.620012     6938.176    10573.657    9634.3654    10721.802    185.44322    236.20442   -1008.8033   -2313.0842 
  809000     283.7186   -3828.6157   -3342.3317   -3828.6157            0    9288.8456    16.906187    19.913255    20.625509    6943.7265    10837.005    10204.169    6825.3627    -1671.165   -1211.9796   -28.115813    -2401.677 
  810000    268.45383   -3819.3661   -3359.2454   -3819.3661            0    9790.9411    16.858318    19.856872    20.567109    6884.9112    9123.1704    9873.8859    10375.767    83.409105    51.113857   -504.95456   -2376.1432 
  811000    270.55055   -3813.1052   -3349.3908   -3813.1052            0    7547.6918     16.91331    19.921645    20.634198    6952.5064    7692.9886    7924.5878     7025.499    301.76095   -155.70891    951.50975   -2584.0913 
  812000    264.26093    -3788.439   -3335.5049    -3788.439            0    8574.7708    16.932364    19.944088    20.657445    6976.0308    6731.9946    10146.751    8845.5671    -679.3851    75.978915    664.15884   -2463.1227 
  813000    285.08115   -3764.5795   -3275.9602   -3764.5795            0    11888.401    16.892074    19.896632    20.608291    6926.3512     12230.72    10947.975    12486.509   -710.72357   -149.08207   -865.95058   -2075.0685 
  814000    283.13934    -3829.377   -3344.0859    -3829.377            0     10905.41    16.915237    19.923915     20.63655    6954.8836    11121.416    9896.5007    11698.312   -533.54168    -222.7679   -2522.9305   -2237.9519 
  815000    269.08158   -3862.9235   -3401.7269   -3862.9235            0    9295.6586    16.983546    20.004374    20.719886    7039.4818    8566.3511    9152.5982    10168.027    92.530338    1068.4642   -68.627169   -2447.4009 
  816000    292.62274   -3826.3735   -3324.8282   -3826.3735            0    8103.3956    16.925361     19.93584    20.648901     6967.379    9753.7927    7192.0132     7364.381    978.46948    -253.1297   -2025.9307   -2501.4253 
  817000    257.96251   -3822.2301   -3380.0912   -3822.2301            0    9318.1375    16.867323    19.867479    20.578095    6895.9499    9243.3815    9073.1646    9637.8666    101.97899   -292.76577    575.64328   -2442.9628 
  818000    277.37984   -3829.1444   -3353.7248   -3829.1444            0    9562.5592    16.896389    19.901715    20.613555    6931.6607    9573.1621    11103.872    8010.6432    383.22385    1176.5496   -74.793041   -2387.0346 
  819000    269.12543   -3846.1523   -3384.8805   -3846.1523            0    10635.522    16.837628    19.832501    20.541867    6859.5923    10344.274    11069.604    10492.689   -364.23774   -707.52036   -1596.7629   -2320.9016 
  820000    282.79563   -3834.9337   -3350.2316   -3834.9337            0    9340.8082    16.910488    19.918322    20.630756    6949.0277    9251.6333    9401.8546    9368.9366    1136.9145    496.34695    705.74199   -2403.5926 
  821000    269.32597   -3823.0856   -3361.4702   -3823.0856            0    10261.646    16.927155    19.937953     20.65109    6969.5949    9621.6895    10430.334    10732.916    614.14707    1701.6058    329.67542   -2318.4313 
  822000    298.79402   -3820.4756   -3308.3528   -3820.4756            0    8838.1026     16.98824    20.009903    20.725613    7045.3209    9720.7515    8899.0457    7894.5104   -1668.5197    565.76295    761.93628   -2400.2486 
  823000    264.53348   -3834.2545   -3380.8531   -3834.2545            0     9141.854    16.913404    19.921756    20.634313    6952.6227    8763.0679    10422.401     8240.093    2193.1999   -590.27306   -341.10051   -2453.8977 
  824000    280.84047   -3853.8999   -3372.5489   -3853.8999            0    10445.551    16.894262    19.899209    20.610961    6929.0435    11816.295    9724.4079    9795.9515    -582.0572   -323.03696   -594.66781   -2316.9947 
  825000    272.99128   -3840.5396   -3372.6419   -3840.5396            0    10305.395    16.928323    19.939328    20.652514    6971.0368    11580.723    8395.9468    10939.516    1903.5686    163.24247   -29.157863   -2324.9395 
  826000    277.81499   -3830.9807   -3354.8153   -3830.9807            0    12188.615     16.88905    19.893071    20.604602    6922.6327    14251.582    11707.955    10606.307   -371.92711   -1216.9228    2221.8759   -2124.2588 
  827000    276.16768   -3813.2475   -3339.9056   -3813.2475            0    10064.933    16.875194     19.87675    20.587698    6905.6084    8060.5204    11937.902    10196.377   -8.8743976   -284.60978   -341.20883   -2326.2539 
  828000    298.42331   -3787.3688   -3275.8815   -3787.3688            0    11455.475    16.881044     19.88364    20.594834    6912.7915    11158.989     13285.91    9921.5268    645.26797    1831.2244    1922.0193   -2120.9866 
  829000    276.61332   -3826.8507    -3352.745   -3826.8507            0    11713.845    16.864013     19.86358    20.574056    6891.8904    13657.358    11135.924    10348.251   -672.99954    1664.0095   -286.83961    -2175.373 
  830000     285.5106   -3801.5901   -3312.2347   -3801.5901            0    10121.877    16.910284    19.918081    20.630507    6948.7758    10685.288    8500.6843     11179.66    526.75958    134.72086    970.30312   -2286.4759 
  831000    289.31451   -3847.8028   -3351.9277   -3847.8028            0     12998.26    16.822589    19.814788    20.523519    6841.2282     12017.89    10744.509    16232.381   -1198.5756    468.98887    70.049755   -2055.0614 
  832000    265.49623   -3849.2995    -3394.248   -3849.2995            0    9385.4457    16.920644    19.930283    20.643146    6961.5545    9833.1484    8098.2606    10224.928    80.461644   -956.38753   -493.15278   -2441.3706 
  833000    270.16313   -3837.9841   -3374.9337   -3837.9841            0    10372.686    16.950495    19.965445    20.679565    6998.4647    7541.4225    10391.195    13185.441   -648.97009   -1049.6913    56.405358    -2316.241 
  834000    291.25685   -3812.9786   -3313.7743   -3812.9786            0    11344.084    16.904516    19.911287    20.623471    6941.6681    9810.2297    13827.765    10394.258    76.460299   -1377.5296   -108.58076    -2165.332 
  835000     277.8805   -3823.2934   -3347.0157   -3823.2934            0    9867.1289    16.893131    19.897877     20.60958    6927.6514    10111.604     10914.73    8575.0532    1225.7421   -1511.5382    1533.2921   -2350.1132 
  836000    274.44832   -3813.9923   -3343.5973   -3813.9923            0     10494.45    16.891568    19.896036    20.607674    6925.7293    10524.469    10184.408    10774.473   -1243.6828   -986.33182    93.826693   -2283.6089 
  837000    265.54058   -3811.4443   -3356.3169   -3811.4443            0    10702.405    16.892196    19.896775    20.608439    6926.5012    11060.121    10002.125    11044.969    211.84565    182.80928   -117.34205   -2275.2036 
  838000    278.93284   -3780.2991   -3302.2177   -3780.2991            0    9929.0346    16.871975    19.872958     20.58377    6901.6566    10313.479    9481.6342    9991.9912    104.39118   -307.27886    -1553.625   -2302.8248 
  839000    265.92239   -3833.7922   -3378.0103   -3833.7922            0    11333.356     16.84408    19.840101    20.549738    6867.4812    11468.394    11258.068    11273.606    161.08458   -668.03783    790.87245   -2242.9161 
  840000    275.70084   -3822.0754   -3349.5336   -3822.0754            0    11199.647    16.940629    19.953823    20.667527    6986.2506    10495.561    9673.6188     13429.76   -766.90219    1270.3679   -10.866334   -2208.4319 
  841000    275.98587   -3831.4508   -3358.4205   -3831.4508            0    11291.302    16.898114    19.903746    20.615659    6933.7835    10462.053    11736.893    11674.961     569.8918   -602.99757    110.39162   -2216.6201 
  842000    279.94112   -3804.1586   -3324.3491   -3804.1586            0    11044.591    16.936261    19.948678    20.662199    6980.8483    13656.769    9915.3883    9561.6151    113.34452   -1067.4888    929.82304   -2199.9158 
  843000    274.88059   -3845.1189    -3373.983   -3845.1189            0    10568.529    16.890135    19.894347    20.605925    6923.9658    10616.451    10640.319    10448.816    137.70637   -713.43877    377.54187   -2306.7841 
  844000    267.87379   -3843.0908   -3383.9643   -3843.0908            0      9558.04    16.930881    19.942342    20.655636    6974.1982    7330.8811    11071.489     10271.75   -365.41378    1392.9192   -89.575814   -2411.8014 
  845000     285.9409   -3839.2558   -3349.1629   -3839.2558            0    10002.904    16.815378    19.806294    20.514722    6832.4344    10681.648    9536.1775    9790.8872    981.07547   -419.14686    2719.0154    -2352.433 
  846000    279.26735   -3804.3202   -3325.6655   -3804.3202            0    10458.012     16.91394    19.922388    20.634968    6953.2841    11216.605    8960.7136    11196.716   -1227.1765    1864.2626    340.68407    -2265.155 
  847000    279.78065   -3814.3578   -3334.8233   -3814.3578            0    7983.6209    16.927168    19.937968    20.651106    6969.6108       8749.8    7213.0958    7987.9669    543.07022   -262.37184   -758.39258   -2523.3312 
  848000    270.17457   -3838.9825   -3375.9125   -3838.9825            0    10086.734    16.870445    19.871156    20.581904    6899.7798    9464.3718    9774.9506    11020.879    938.69346   -1517.8276   -444.65112   -2360.9227 
  849000    285.49223   -3849.2513   -3359.9274   -3849.2513            0    8951.1114    16.907294    19.914559    20.626859    6945.0905    9426.2712     8909.212    8517.8509    201.37428    795.50703   -1155.4709    -2453.296 
  850000    262.40753   -3836.6454   -3386.8879   -3836.6454            0    10075.689    16.861788    19.860959    20.571342    6889.1626    10317.849    11271.761     8637.458    1340.8857   -933.04461    240.38885   -2374.5696 
  851000    272.49362    -3854.296   -3387.2513    -3854.296            0    11009.445    16.859884    19.858717    20.569019    6886.8298    13031.774    9327.6571    10668.905    822.05731    2570.1616    1848.8653   -2281.4918 
  852000    280.94248   -3842.0598    -3360.534   -3842.0598            0    9028.5529    16.951581    19.966723    20.680889    6999.8091    10061.929    9676.8395      7346.89    -966.8581   -817.39363   -174.02026   -2438.8538 
  853000    282.04719   -3844.3952    -3360.976   -3844.3952            0    9722.1307    16.918229    19.927439      20.6402     6958.575    9291.2337    9486.9177    10388.241   -1107.3887    810.12149   -386.99835   -2374.3384 
  854000    258.62623   -3799.5362   -3356.2596   -3799.5362            0    9862.9133    16.954825    19.970544    20.684847    7003.8287    9149.4691    11914.819    8524.4517     1635.505    501.06739    368.84883   -2348.8256 
  855000    291.62438   -3830.1646   -3330.3304   -3830.1646            0    9981.3282    16.903441     19.91002    20.622158    6940.3431    11344.274    9092.8449    9506.8655    2150.2831   -660.32473   -517.28469   -2320.0424 
  856000    264.08123    -3822.096   -3369.4698    -3822.096            0    9774.0527    16.973357    19.992373    20.707456    7026.8204    8650.4506    10229.802    10441.905    189.79006   -301.97503     835.0675    -2367.835 
  857000    275.02628   -3851.0786   -3379.6929   -3851.0786            0    8237.9327    16.894569    19.899571    20.611335    6929.4214    8012.9843    8076.2476     8624.566    815.75786   -461.62273    982.39531   -2547.1798 
  858000    283.99534   -3816.8047   -3330.0464   -3816.8047            0    10740.018    16.870992      19.8718     20.58257    6900.4502    10952.128    8947.2022    12320.723    136.08061    1161.1173   -63.880622   -2249.2141 
  859000    271.21838   -3825.6321   -3360.7731   -3825.6321            0    9995.0928    16.863753    19.863274     20.57374    6891.5722     9863.236    9561.6527     10560.39   -605.57861   -1543.2574   -310.67234   -2356.2012 
  860000    272.51653    -3827.844     -3360.76    -3827.844            0    10450.159    16.887482    19.891223    20.602689    6920.7042    10234.303    9127.6689    11988.503   -250.49865   -1472.9785    1046.6997   -2306.0112 
  861000    272.17653   -3809.2546   -3342.7533   -3809.2546            0    10019.848    16.860632    19.859597    20.569932    6887.7462    9760.2444    10221.733    10077.567   -777.20107   -517.95571     921.1305   -2336.2524 
  862000    280.86788   -3835.1286   -3353.7307   -3835.1286            0    8423.5089    16.924554     19.93489    20.647917    6966.3825    9654.0262    6477.4355     9139.065    -1744.639   -84.264126   -1713.0687   -2497.9229 
  863000    264.17615    -3812.292   -3359.5031    -3812.292            0    10104.772    16.863542    19.863025    20.573482    6891.3129     12205.88    9484.3342     8624.101   -722.96901     360.8873    1682.6506    -2343.946 
  864000    270.12607    -3770.615   -3307.6281    -3770.615            0    9215.1364    16.910951    19.918867    20.631321     6949.598    10422.219    8254.9751    8968.2145   -292.78627    802.87619   -658.23369   -2373.6486 
  865000     291.0132   -3815.6089   -3316.8222   -3815.6089            0    8291.2525    16.931366    19.942913    20.656227    6974.7974    8040.2694    9747.0309    7086.4571    1300.0148   -690.71506    159.36421   -2473.4338 
  866000    272.75513    -3851.348    -3383.855    -3851.348            0    10379.346    16.861361    19.860456    20.570821    6888.6399     10148.48    9643.7944    11345.764    1672.1691   -1143.3986    1342.6698    -2341.107 
  867000    261.90256   -3857.9718   -3409.0797   -3857.9718            0    8735.3055    16.911624     19.91966    20.632142    6950.4282    9678.4343    8275.6335    8251.8486    -21.94877    998.61847    1039.9103   -2523.6267 
  868000    281.12485   -3876.8326   -3394.9942   -3876.8326            0    8848.1101    16.888834    19.892816    20.604339     6922.367    9788.4285    8168.3099     8587.592   -239.86807   -361.04154   -1111.9701   -2501.7278 
  869000    282.39298   -3852.5338   -3368.5219   -3852.5338            0     11016.78    16.831332    19.825086    20.534185    6851.9002    10118.448    12555.405    10376.486    1133.4661   -257.31514    221.85478   -2267.6379 
  870000    269.84141   -3858.0764   -3395.5774   -3858.0764            0    11261.739     16.88676    19.890373    20.601808     6919.817    11508.093    10948.277    11328.847    861.15419    26.895285    1862.3061   -2259.0604 
  871000    264.48966   -3838.0575   -3384.7313   -3838.0575            0    11215.853    16.857241    19.855603    20.565794    6883.5907    10878.597    11891.575    10877.387   -312.92612   -1028.4513    166.31105   -2258.7706 
  872000    288.16505   -3810.4319   -3316.5269   -3810.4319            0    9644.4082    16.884625    19.887858    20.599203    6917.1921    9731.8092    9152.4581    10048.957   -2061.8385    194.62878    -1206.261   -2343.5975 
  873000    268.10274   -3830.6781   -3371.1591   -3830.6781            0    8713.7285    16.929276    19.940451    20.653677    6972.2145     8375.926    9626.5203     8138.739    91.525815   -744.50562   -540.90624   -2485.1246 
  874000    283.37954   -3798.9684   -3313.2656   -3798.9684            0    12770.579     16.82811    19.821291    20.530255    6847.9669    13313.773    12397.932    12600.033   -376.01411   -1094.6848   -364.46307   -2037.8606 
  875000     283.5703   -3783.1456   -3297.1158   -3783.1456            0    11975.526    16.937276    19.949874    20.663437    6982.1038    11348.491    11397.505    13180.583    658.93089    1359.7599    1534.7057    -2077.686 
  876000    273.74393   -3786.3477     -3317.16   -3786.3477            0    10165.783    16.915522     19.92425    20.636897    6955.2345    11660.631    10031.052    8805.6674    -2487.108   -95.357657    730.92946   -2285.9942 
  877000    286.90929   -3833.3559   -3341.6032   -3833.3559            0    8890.0515    16.941548    19.954905    20.668648    6987.3875    11497.094    6705.1449    8467.9154    1104.5574    671.43514    225.15646   -2435.6724 
  878000    275.46616    -3808.559   -3336.4195    -3808.559            0     10519.72    16.874449    19.875872    20.586789    6904.6934    11190.378    10356.888    10011.894    181.17799   -2097.8396    394.49248   -2277.1061 
  879000    282.93473   -3811.8146   -3326.8741   -3811.8146            0    11779.879    16.857574    19.855995    20.566201    6883.9991    9518.4947    12987.127    12834.015   -598.49831    652.14389    278.94131   -2144.2206 
  880000    275.69194   -3861.2962   -3388.7697   -3861.2962            0    9948.4873    16.832109    19.826001    20.535134    6852.8494    8769.7416    10160.512    10915.209    -49.59351   -591.10697    779.48323   -2394.5001 
  881000     281.7087   -3849.5725   -3366.7334   -3849.5725            0    9488.7752    16.855675    19.853758    20.563884    6881.6728    8995.1011    8240.5261    11230.698     1136.648   -567.53629   -10.464753   -2414.4196 
  882000    266.93343   -3778.5259   -3321.0112   -3778.5259            0    9838.7781    16.899566    19.905456    20.617431    6935.5709    9528.3754    10025.968    9961.9911    190.89553   -184.78856    1275.5205   -2325.8366 
  883000    273.87466   -3838.0984   -3368.6866   -3838.0984            0    9499.9332    16.889024     19.89304     20.60457    6922.6003    10657.714    8634.2101    9207.8752     87.98652    -472.7069   -1212.6225   -2409.5826 
  884000    265.32354   -3841.3707   -3386.6152   -3841.3707            0    7955.0159    16.944691    19.958607    20.672483    6991.2772    7481.8653     7572.158    8811.0244   -510.59232   -482.29007     535.1079    -2575.517 
  885000    264.94072   -3840.2789   -3386.1796   -3840.2789            0    7540.4461    16.947045     19.96138    20.675355    6994.1914    7738.1515    5771.9717    9111.2152   -1095.8499    359.54946    678.44816   -2617.0307 
  886000    274.68478    -3810.511   -3339.7107    -3810.511            0        10394    16.932589    19.944354    20.657719    6976.3092    11207.674    9506.7959    10467.531   -222.46738    1305.1488    -265.9993    -2282.201 
  887000    277.39718   -3832.8218   -3357.3726   -3832.8218            0    8894.6792    16.857942    19.856429     20.56665    6884.4505    9134.3309    7546.9806    10002.726    1772.4479    649.84443     1893.324   -2464.3232 
  888000    286.89601   -3850.3923   -3358.6623   -3850.3923            0    10097.126    16.943639    19.957368    20.671199    6989.9751    11416.844    9185.7668    9688.7679   -309.77799    -414.4837    1239.3721   -2329.3449 
  889000     268.7522   -3854.9014   -3394.2693   -3854.9014            0    11526.401    16.857272    19.855639    20.565832    6883.6288    12514.701    11053.401      11011.1   -61.694046    274.05349    443.71979   -2237.1262 
  890000    270.79169   -3825.1259   -3360.9982   -3825.1259            0    9264.3804    16.932553    19.944311    20.657675    6976.2646    10249.862    9742.0778    7801.2012   -1085.9046   -1053.5488   -399.37632   -2418.4247 
  891000     261.3083   -3813.5297   -3365.6562   -3813.5297            0    10547.398    16.905317     19.91223    20.624447    6942.6543    10928.989    11083.992    9629.2115   -1239.1211    1500.0011    403.79988   -2297.7165 
  892000    265.32731   -3804.3609    -3349.599   -3804.3609            0    9588.6232    16.910171    19.917948    20.630369    6948.6361    8212.5148    11320.087    9233.2676   -510.47075    1022.2873   -33.340872   -2377.9001 
  893000    271.07528   -3827.7051   -3363.0914   -3827.7051            0    9228.5475    16.908175    19.915597    20.627934    6946.1763    10341.124    8314.5307    9029.9876   -1542.9185    -982.5214    510.36673   -2428.2132 
  894000    268.85608   -3795.9523   -3335.1422   -3795.9523            0    9550.1532    16.857533    19.855947    20.566151    6883.9493     8785.435    9174.4356    10690.589    767.56102    -933.3139   -500.88849   -2376.3513 
  895000    288.10993   -3817.6512   -3323.8406   -3817.6512            0    6977.2995    16.926389     19.93705    20.650155    6968.6481    7747.8198    5799.5567    7384.5219    481.39173    781.58326   -1259.9993   -2614.7336 
  896000    265.94176   -3810.3168   -3354.5017   -3810.3168            0    9496.5276    16.903744    19.910377    20.622528    6940.7161    8715.3313    10806.866    8967.3855    96.077898   -807.59257   -333.18876   -2393.2325 
  897000    267.94468   -3812.4503   -3353.2023   -3812.4503            0    9373.4246     16.91796    19.927122    20.639871    6958.2424    8911.9109    7664.5211    11543.842    1473.8617   -184.90654     184.0213   -2401.9981 
  898000    259.49707   -3810.2019   -3365.4328   -3810.2019            0    9956.1782    16.869851    19.870456    20.581179    6899.0508    13103.279    7981.0733    8784.1823   -627.56659    1008.7955   -401.67986   -2363.6862 
  899000    295.90475   -3809.4512   -3302.2806   -3809.4512            0     7226.706    16.958652    19.975052    20.689515    7008.5721     7593.361    7489.9014    6596.8557    1235.0468      1307.82   -668.59159   -2563.6185 
  900000    287.50487   -3848.3661   -3355.5926   -3848.3661            0    8297.8853    16.952313    19.967586    20.681783    7000.7166    9016.8432    7691.1535    8185.6593   -1340.3566     1039.725   -312.22731   -2508.3929 
  901000     275.2227   -3795.2611   -3323.5388   -3795.2611            0    8643.7149    16.964052    19.981413    20.696104      7015.27    9041.1997    7700.5057    9189.4393   -214.53225    733.87059    1826.2688   -2439.1958 
  902000     263.7383   -3831.7019   -3379.6634   -3831.7019            0    10185.512    16.873104    19.874288    20.585147    6903.0424    7533.6108      12439.7    10583.226   -68.194919    330.08503   -399.32725   -2354.2493 
  903000    268.64631    -3795.329   -3334.8784    -3795.329            0    10586.474     16.87528     19.87685    20.587802    6905.7129    11529.892    10924.576    9304.9532    238.22258   -765.09709   -675.66158   -2268.6856 
  904000    270.58674   -3856.3909   -3392.6145   -3856.3909            0    8444.1906    16.853641    19.851363    20.561403    6879.1824    7754.2696    8425.0077    9153.2945    1906.7046    1687.0051    287.21851   -2545.4442 
  905000    272.03324    -3800.191   -3333.9353    -3800.191            0    9205.1725    16.866602     19.86663    20.577216    6895.0658     9852.777    9004.2984    8758.4421     229.8618    1670.6866    664.10822   -2408.2865 
  906000    261.70873   -3832.5053   -3383.9455   -3832.5053            0     8910.652    16.924406    19.934714    20.647735    6966.1988    7971.8156    8386.6039    10373.536    295.59652   -659.65324   -2053.4103    -2478.669 
  907000    270.89265    -3838.605   -3374.3043    -3838.605            0    8602.3829    16.958658    19.975059    20.689523    7008.5802    9508.2503    8579.0098    7719.8887   -467.35067   -508.20415    2362.6772   -2495.0294 
  908000    278.27024   -3851.7668   -3374.8212   -3851.7668            0    10832.102    16.882869    19.885789     20.59706     6915.034    11609.132    10355.608    10531.566   -2473.2633   -335.71585   -1153.5113    -2282.418 
  909000     277.2985   -3828.3397   -3353.0595   -3828.3397            0    8823.5294    16.893373    19.898162    20.609875    6927.9492    7091.7662    11712.543    7666.2788   -837.06292   -417.67718    459.58081   -2461.5563 
  910000    285.28375   -3829.4054   -3340.4388   -3829.4054            0    10264.809    16.906555    19.913688    20.625957    6944.1796    10303.179    10035.548    10455.699   -286.18688   -166.66039   -2505.1984   -2300.8833 
  911000    270.30377   -3880.2302   -3416.9388   -3880.2302            0    10543.843    16.886089    19.889582    20.600989    6918.9915    10515.352    11605.783    9510.3947   -994.68979    34.816488    171.87978   -2352.9976 
  912000    262.03313     -3834.63   -3385.5142     -3834.63            0    10397.694    16.925561    19.936075    20.649145    6967.6256     10856.09    11274.222    9062.7705   -67.487396    644.08695    1544.4771   -2328.9455 
  913000    281.61563   -3861.4133   -3378.7338   -3861.4133            0    9900.9683    16.877729    19.879736     20.59079    6908.7206     9740.128    9738.5186    10224.258   -899.42908   -1352.0154   -613.09153   -2381.1458 
  914000    275.24033   -3830.1068   -3358.3543   -3830.1068            0    10351.469    16.845304    19.841543    20.551232    6868.9785    10296.214    10466.667    10291.525    712.38547    224.72739   -229.96468   -2321.3751 
  915000    273.74314   -3807.7995   -3338.6131   -3807.7995            0    9049.8176    16.934284    19.946349    20.659787    6978.4036     10419.18    9702.4985     7027.774   -817.21941    2762.2434   -662.34651   -2417.5873 
  916000    289.48073   -3823.9598   -3327.7997   -3823.9598            0    10665.155    16.840587    19.835987    20.545477    6863.2095    12859.458    10261.576    8874.4301    1113.9223   -1020.0925    910.81817   -2260.2938 
  917000    266.40485   -3826.2187   -3369.6099   -3826.2187            0    10990.773    16.793472    19.780491    20.487996    6805.7664    8136.8993    11730.482    13104.937    1706.8578   -647.71359   -707.57687   -2278.7195 
  918000    302.01838   -3840.5792     -3322.93   -3840.5792            0    9811.9933    16.922342    19.932284    20.645218    6963.6515    8932.5611    9828.3925    10675.026    29.375465     187.1565   -42.145113   -2326.4464 
  919000    276.85786   -3798.1349     -3323.61   -3798.1349            0    8446.3597    16.931239    19.942764    20.656072    6974.6406    7798.4113    10459.494    7081.1738   -631.30767   -893.58579    8.0275046   -2464.4634 
  920000    273.39584    -3820.395   -3351.8039    -3820.395            0    8185.7891    16.920807    19.930476    20.643346    6961.7567    9329.4829    8077.3896    7150.4949    1023.6286    182.14126    80.225137   -2520.7001 
  921000    266.95851    -3843.437   -3385.8792    -3843.437            0    9553.0462    16.919248     19.92864    20.641443    6959.8323    8384.1278    10045.909    10229.102   -32.576516    381.51922    1012.5635   -2416.2258 
  922000    270.74147   -3844.9308   -3380.8891   -3844.9308            0    10417.416    16.862232    19.861483    20.571884    6889.7079     10784.05    10113.088    10355.112    1561.2732   -404.93642    663.80982   -2334.1542 
  923000    274.60397   -3850.8309   -3380.1691   -3850.8309            0    11524.507    16.889306    19.893372    20.604914    6922.9469    9492.3488    12339.366    12741.805    2367.6614   -782.84085    949.69769   -2216.6079 
  924000     266.7199   -3859.6396   -3402.4908   -3859.6396            0    9691.8797    16.908711    19.916228    20.628588    6946.8367    9015.7389    9578.0427    10481.858    2309.0918    315.21196     2123.281   -2420.5824 
  925000    292.57283   -3836.6748    -3335.215   -3836.6748            0    9376.5196    16.867487    19.867672    20.578295    6896.1508    10455.346     8277.945    9396.2678    1.0828422    125.23833    1449.8762   -2392.1876 
  926000    275.01938   -3847.3265   -3375.9527   -3847.3265            0    10216.976    16.872631     19.87373     20.58457    6902.4614    9428.1687    11650.022    9572.7368      988.138   -758.49551   -352.55936   -2347.4575 
  927000    284.35477   -3803.5873   -3316.2129   -3803.5873            0    11677.451     16.81412    19.804812    20.513187    6830.9012    12460.345    11469.416    11102.592      1012.25   -972.66796   -275.21262   -2152.8856 
  928000    271.30033   -3821.0367   -3356.0372   -3821.0367            0    7998.9587    16.947994    19.962498    20.676513    6995.3666    9454.9771    8765.5843    5776.3145   -786.68308   -845.34637   -1734.3996   -2539.9815 
  929000    259.28607   -3826.2265   -3381.8191   -3826.2265            0    7288.2479     17.01388    20.040104    20.756894     7077.269    5902.5189     8353.295    7608.9299   -2475.5383   -302.05837     1408.001   -2629.5647 
  930000    274.00815   -3834.0528   -3364.4122   -3834.0528            0    11135.913    16.924594    19.934936    20.647965    6966.4309    11542.525    12034.565     9830.649    557.51394   -784.12118   -660.98785    -2233.023 
  931000       286.85   -3830.6214   -3338.9703   -3830.6214            0    10757.616    16.944208    19.958038    20.671894    6990.6794    12025.546    8296.1058    11951.195   -222.06259    -1650.745    687.42358   -2242.2111 
  932000    278.11617   -3799.8282   -3323.1466   -3799.8282            0    10637.072    16.918408    19.927649    20.640418    6958.7949    12266.064    9961.6715    9683.4822   -604.14597    -1506.552   -84.495865   -2243.6232 
  933000    265.82185   -3831.7852   -3376.1757   -3831.7852            0    10624.879    16.934295    19.946363    20.659801    6978.4178    11741.831    10362.769    9770.0362   -852.14667   -440.82513    2339.2384   -2294.8492 
  934000    271.57086    -3866.661   -3401.1978    -3866.661            0    9778.7724    16.962297    19.979346    20.693963     7013.093    9664.4351    9145.8861    10525.996   -1804.3644   -506.70917   -712.38229    -2401.037 
  935000    285.78785   -3816.1865   -3326.3559   -3816.1865            0    11070.504    16.926265    19.936905    20.650004    6968.4956    11539.943    8944.1872    12727.381   -2550.6881   -1004.0314    21.367126   -2201.2787 
  936000    271.22897   -3784.9127   -3320.0355   -3784.9127            0    8593.9999    17.014482    20.040812    20.757628    7078.0199    9765.0083    6804.0554     9212.936    218.62624   -1292.1262    562.78969   -2432.9142 
  937000    265.14573    -3821.961   -3367.5103    -3821.961            0    8502.8352    16.977931     19.99776    20.713036    7032.5018    7946.1236    9497.8757    8064.5062   -905.74146     1825.809   -1164.1591    -2495.444 
  938000    284.53791   -3808.9126   -3321.2243   -3808.9126            0    9783.8101    16.948075    19.962594    20.676612    6995.4672    10698.768    9766.1814    8886.4812    -741.4841   -827.91997    151.90399   -2323.0633 
  939000    264.70012   -3849.8652   -3396.1782   -3849.8652            0     8187.128    16.985153    20.006267    20.721847    7041.4804    8960.3549    9503.9998    6097.0291    1279.3703   -658.27136    1771.5593   -2555.4194 
  940000    284.42716   -3772.4827   -3284.9843   -3772.4827            0    11016.018    16.852669    19.850218    20.560217    6877.9918    9313.4531    14754.674    8979.9261   -691.01254    817.47377    -90.77949   -2179.9845 
  941000    266.76359   -3795.5877    -3338.364   -3795.5877            0    10326.178    16.875675    19.877316    20.588284    6906.1981    10152.827    10386.291    10439.416    672.20899    -781.7265    4.1546516   -2298.3133 
  942000    279.01488   -3784.1979   -3305.9759   -3784.1979            0    10837.989    16.867538    19.867731    20.578356    6896.2127    10645.413    9770.0761    12098.478   -924.05795   -884.39495   -1824.3353    -2215.954 
  943000    281.55156    -3806.092   -3323.5223    -3806.092            0    9669.2161    16.932272     19.94398    20.657332    6975.9168    10053.419    9627.4718    9326.7573    249.87813   -283.37364   -675.94351   -2339.8092 
  944000    279.53837   -3761.7523   -3282.6331   -3761.7523            0    12160.885    16.851038    19.848297    20.558227    6875.9948    11281.509    13296.677    11904.468   -608.68643   -744.51146    178.40234   -2063.1477 
  945000    272.19436   -3821.2408    -3354.709   -3821.2408            0    9057.0286     16.87178    19.872729    20.583532    6901.4178    8426.8192    9545.1791    9199.0874    -1098.183   -425.04192   -374.57439   -2443.1182 
  946000    276.34895    -3826.976   -3353.3234    -3826.976            0    7684.4497     16.89614    19.901421    20.613251    6931.3537    7863.4266    8121.1659    7068.7565   -194.63233    109.49709     470.7096   -2576.5279 
  947000    266.42672   -3781.9863     -3325.34   -3781.9863            0    11527.843    16.830631     19.82426    20.533331    6851.0445    11673.003    11302.833    11607.694    379.76576   -1176.0325   -694.98742   -2173.5303 
  948000    272.66358   -3820.4552   -3353.1191   -3820.4552            0    10051.778    16.943375    19.957058    20.670878    6989.6489    8901.4177    8774.2532    12479.664   -91.738809    696.92371    682.79641   -2328.4724 
  949000    273.83516   -3771.2706   -3301.9265   -3771.2706            0    11937.114    16.879752    19.882118    20.593258    6911.2046    14048.625     11206.26    10556.457   -1089.0519    301.29033    164.10573    -2098.751 
  950000    268.52554   -3791.2637   -3331.0201   -3791.2637            0    12258.872    16.897546    19.903078    20.614967    6933.0851    11959.494    12937.318    11879.804   -1125.9987   -988.38338    1135.2309   -2091.5018 
  951000    272.59146   -3836.5599   -3369.3474   -3836.5599            0    10388.697     16.89122    19.895626    20.607249     6925.301    11119.135    12233.639    7813.3157   -2060.5427     141.7129    362.89564   -2320.1056 
  952000    273.07794   -3830.9918   -3362.9456   -3830.9918            0    8338.7892     16.94908    19.963777    20.677838    6996.7112    8148.8699     8761.534    8105.9638    1525.6441   -675.11801    875.84292   -2512.0567 
  953000    275.20284   -3859.1191   -3387.4309   -3859.1191            0    9803.8923    16.874427    19.875846    20.586761    6904.6658    11003.179    8516.5964    9891.9015   -136.67895   -234.23708   -448.60225   -2400.2037 
  954000    265.41181   -3834.3531   -3379.4463   -3834.3531            0     10819.15    16.877116    19.879014    20.590043    6907.9682    12442.118    9543.4638    10471.869   -1956.1454    1325.9683   -426.66277   -2289.4642 
  955000    267.02477   -3836.9159   -3379.2446   -3836.9159            0    11749.617     16.89279    19.897475    20.609164    6927.2321    9575.6289     12858.36    12814.861   -362.75095   -414.48506    315.49955   -2192.2211 
  956000    274.89005   -3860.1299   -3388.9777   -3860.1299            0     9350.299    16.905099    19.911974    20.624181    6942.3857    8746.5017    9217.8242    10086.571   -1136.9856    30.781892    221.06148   -2442.2826 
  957000    259.02492   -3824.6789    -3380.719   -3824.6789            0    9528.6054    16.911697    19.919745    20.632231    6950.5176    8080.1756    10323.962    10181.678   -2461.4508   -565.45066   -725.37314   -2414.8408 
  958000    283.81315   -3817.3702   -3330.9242   -3817.3702            0    12052.547    16.813812     19.80445    20.512812    6830.5265        13565    11361.336    11231.305    776.37888   -890.09964    1828.9451    -2130.295 
  959000    274.30853   -3810.1773   -3340.0219   -3810.1773            0    11131.399     16.83754    19.832398     20.54176    6859.4853    10148.664    8585.9425    14659.591    1481.2959   -3412.3258   -209.80615   -2226.4528 
  960000    276.43139   -3789.0473   -3315.2534   -3789.0473            0    9590.4005    16.898474    19.904171    20.616099    6934.2274    9964.0331    10545.053    8262.1152   -1126.6138   -340.35916   -81.299718   -2345.3896 
  961000    281.68302   -3852.4638   -3369.6687   -3852.4638            0    8763.3328    16.892713    19.897385    20.609071    6927.1379    9532.7851    7717.3551    9039.8581   -747.92968     73.09419    892.30781   -2484.3513 
  962000     279.3198   -3818.5011   -3339.7566   -3818.5011            0    10536.971    16.856813    19.855099    20.565273    6883.0674    11309.724    9915.9567    10385.232    229.06446     582.3208   -1725.7476   -2282.0293 
  963000    292.04649   -3824.4356   -3323.8779   -3824.4356            0    10368.973    16.906237    19.913314    20.625569    6943.7876    11466.228    11292.781    8347.9099   -1892.6224    1247.2998    711.23563   -2273.8325 
  964000    270.52001   -3789.4709   -3325.8088   -3789.4709            0    10562.754    16.841514    19.837078    20.546607    6864.3427    11429.396     10215.45    10043.415    158.67396   -413.06063    897.04747   -2268.3779 
  965000    256.44354    -3816.577   -3377.0416    -3816.577            0    10891.585    16.820435    19.812251    20.520892    6838.6012    11295.196    12261.546    9118.0124    476.88893    -2059.667   -487.33641   -2290.7804 
  966000    283.67627    -3821.202   -3334.9906    -3821.202            0    9989.8849    16.826361    19.819231    20.528121    6845.8313    9385.7453    10121.737    10462.173     2400.826    1525.6968     660.0789   -2337.6062 
  967000    244.10835   -3781.8058   -3363.4124   -3781.8058            0    10587.572    16.885013    19.888314    20.599676    6917.6686     10618.14    12092.458    9052.1188    114.15783   -802.22826    -523.8032    -2295.263 
  968000     271.0024   -3777.6706   -3313.1817   -3777.6706            0    10306.719     16.91724    19.926274    20.638994    6957.3545     9382.309    11822.774    9715.0723   -755.15524    -3096.174   -1586.2047   -2267.4015 
  969000    257.67629    -3795.183   -3353.5346    -3795.183            0    10093.786    16.871207    19.872054    20.582834    6900.7148    11786.431    9988.4554    8506.4715   -884.25143    352.69304   -2284.7888   -2337.6976 
  970000    274.55984   -3852.8122    -3382.226   -3852.8122            0    10908.804    16.857736    19.856186    20.566398    6884.1975    7574.4187    13467.788    11684.204   -567.56209    -1040.484   -193.35504   -2286.9935 
  971000    273.54725   -3818.1348   -3349.2842   -3818.1348            0    10905.101    16.845392    19.841647    20.551339    6869.0864    11473.613    10030.599    11211.092    1176.6355   -599.45458   -1535.9435   -2256.8266 
  972000    267.59919   -3850.2187   -3391.5628   -3850.2187            0    12109.555    16.812112    19.802447    20.510737    6828.4538    10427.266    13230.978    12670.422   -636.64276   -182.84049   -944.64764   -2185.6207 
  973000    270.27433   -3845.5497   -3382.3088   -3845.5497            0     9933.202    16.865755    19.865631    20.576181    6894.0261    10113.241    10400.233     9286.132   -537.67153    967.81577   -166.78935   -2383.6018 
  974000     274.6507   -3850.1087   -3379.3668   -3850.1087            0    7977.9961    16.945034    19.959012    20.672902    6991.7024     7987.997    8123.8145    7822.1768    181.35663     693.5154    1349.8951    -2565.876 
  975000    267.24049   -3849.8598   -3391.8188   -3849.8598            0    10216.657    16.876459    19.878239     20.58924    6907.1605     11986.05    9081.1399    9582.7821   -1348.2939   -871.57651   -591.40855   -2362.6555 
  976000    285.44868   -3850.8351   -3361.5859   -3850.8351            0    10991.893    16.844668    19.840794    20.550456    6868.2008    12624.721     8649.916    11701.041   -1352.6224   -323.29624    49.897568   -2260.5756 
  977000    282.54157   -3787.0672   -3302.8007   -3787.0672            0    9606.3266    16.929049    19.940183      20.6534    6971.9336    8630.4495    8447.9952    11740.535   -2300.8238    885.15945    1773.1506   -2326.0438 
  978000    286.29236   -3813.1574   -3322.4621   -3813.1574            0    10885.377    16.893371    19.898159    20.609873    6927.9466    10577.181     11147.82    10931.129    59.460828   -552.84361    364.71549   -2222.6363 
  979000    275.21661   -3818.6366   -3346.9248   -3818.6366            0    11392.851    16.877605     19.87959    20.590639    6908.5687    10164.328    11957.442    12056.784   -3.3322554    941.98384    -92.28571    -2199.045 
  980000    284.64684   -3795.8462   -3307.9713   -3795.8462            0    11020.516    16.874326    19.875727    20.586638    6904.5422    10929.799     10753.28    11378.471    630.66366   -1182.4275    305.18832    -2198.253 
  981000    282.41993   -3787.4144   -3303.3563   -3787.4144            0    11123.661    16.912916    19.921181    20.633718    6952.0207    13023.893    10899.708     9447.381     113.8491    65.075941    1377.7932   -2175.5496 
  982000    276.91316   -3788.8056   -3314.1859   -3788.8056            0    11499.926     16.84911    19.846026    20.555875    6873.6357    8034.6251    13081.448    13383.705    1274.8957    1271.4365   -65.902165   -2161.3766 
  983000     261.0144   -3795.0333   -3347.6635   -3795.0333            0    9002.7843    16.949673    19.964476    20.678562    6997.4464    9484.8561     8601.898    8921.5987   -240.81698   -24.427118    1.9800375   -2428.9242 
  984000    273.63107   -3777.0103   -3308.0161   -3777.0103            0    9877.2751    16.923331    19.933449    20.646425    6964.8722    10340.503    8085.9198    11205.403    995.65987    581.58003    141.38051   -2304.7267 
  985000    266.69859   -3813.8195   -3356.7072   -3813.8195            0    8974.4857    16.938834    19.951709    20.665338    6984.0302    9708.7647    8446.7174    8767.9752    928.43724     925.3365   -298.69812   -2442.6117 
  986000    279.47574   -3813.7389    -3334.727   -3813.7389            0    10446.005    16.959406     19.97594    20.690435    7009.5071    10876.727    11428.551    9032.7368    164.29612   -668.68793   -144.06735   -2266.8688 
  987000    260.98945   -3815.3042   -3367.9772   -3815.3042            0    9250.5262    16.974428    19.993634    20.708762    7028.1499    9567.0303    9197.7733    8986.7749   -543.86925    685.76367   -455.20681   -2419.8135 
  988000    277.92477   -3834.8155    -3358.462   -3834.8155            0    8344.1158    17.010551    20.036182    20.752832    7073.1151    10292.591    7948.6011    6791.1553    152.73591    940.09452     496.9392    -2497.732 
  989000    272.72548   -3814.6658   -3347.2236   -3814.6658            0    8986.2765      16.9168    19.925756    20.638456    6956.8112    9751.5422    8869.0123    8338.2752    1238.2787   -286.29984    364.28528   -2435.4944 
  990000    280.92998   -3814.3822   -3332.8779   -3814.3822            0    10298.071    16.886729    19.890336    20.601769    6919.7779    12966.175     9993.689    7934.3494    979.28286    15.540569   -1338.0328   -2293.6185 
  991000    268.43158   -3845.2778   -3385.1953   -3845.2778            0    9639.6654    16.897949    19.903552    20.615459    6933.5811    10872.523    9531.1944    8515.2784    -289.3021   -87.142516    737.13027   -2410.4403 
  992000    268.19111   -3787.0004     -3327.33   -3787.0004            0    10101.235    16.932906    19.944727    20.658106    6976.7005    8827.6435     9763.514    11712.548    67.256671    247.10845   -651.97832   -2299.5494 
  993000    283.01291   -3805.3563   -3320.2819   -3805.3563            0    9284.3918    16.905528    19.912479    20.624704     6942.914    7671.0097    10040.301    10141.864     226.8953    1040.4385    -568.0741   -2380.1882 
  994000    297.13145   -3873.7687   -3364.4956   -3873.7687            0    9605.8539    16.898943    19.904723    20.616671    6934.8042    7308.1214    8795.5593    12713.881    597.41797    1769.3107    674.98671   -2392.9883 
  995000    277.97729    -3775.772   -3299.3285    -3775.772            0    10480.354    16.905016    19.911876     20.62408    6942.2834    9988.1634    10792.225    10660.675    251.73892    -15.61984   -230.50375   -2238.2337 
  996000    284.54091   -3825.2186   -3337.5253   -3825.2186            0    9428.8906    16.979407    19.999498    20.714837    7034.3364    9354.6152    10432.194    8499.8626    1670.3637   -553.27135    608.43667   -2370.2288 
  997000    282.19032   -3832.2085    -3348.544   -3832.2085            0    8660.1746    16.952878    19.968251    20.682472    7001.4165    7524.3391    9954.3812    8501.8034   -329.53309   -860.86474   -491.99537   -2464.2667 
  998000    277.45161   -3761.3292   -3285.7867   -3761.3292            0    12049.236    16.811996     19.80231    20.510595    6828.3126    12839.655    12803.204    10504.849    1854.1851   -438.34867   -1666.1699   -2085.8763 
  999000    255.15189   -3827.6232   -3390.3016   -3827.6232            0    8279.1794    16.892067    19.896624    20.608283     6926.343    7592.8922    9127.7623    8116.8836    1748.1978   -974.72518   -558.20427   -2553.9918 
 1000000    295.87335   -3841.9373   -3334.8204   -3841.9373            0    8635.7098     16.91237    19.920538    20.633052    6951.3474    8417.1175    9378.8062    8111.2056   -104.31757   -1136.3817   -2123.3024   -2459.3471 
Loop time of 419.988 on 64 procs for 250000 steps with 864 atoms

Performance: 102.860 ns/day, 0.233 hours/ns, 595.255 timesteps/s
99.1% CPU use with 64 MPI tasks x 1 OpenMP threads

MPI task timing breakdown:
Section |  min time  |  avg time  |  max time  |%varavg| %total
---------------------------------------------------------------
Pair    | 22.411     | 27.259     | 32.263     |  47.7 |  6.49
Bond    | 0.26398    | 0.28181    | 0.29617    |   0.8 |  0.07
Kspace  | 174.39     | 181.78     | 188.52     |  25.1 | 43.28
Neigh   | 5.3398     | 6.16       | 6.7178     |  13.5 |  1.47
Comm    | 95.789     | 99.815     | 107.85     |  24.8 | 23.77
Output  | 1.3185     | 1.3195     | 1.3323     |   0.2 |  0.31
Modify  | 97.382     | 99.232     | 100.47     |   6.4 | 23.63
Other   |            | 4.141      |            |       |  0.99

Nlocal:        13.5000 ave          18 max           9 min
Histogram: 3 4 4 9 13 8 10 8 4 1
Nghost:        2282.53 ave        2323 max        2236 min
Histogram: 2 6 4 5 10 8 14 9 2 4
Neighs:        4431.39 ave        6596 max        2606 min
Histogram: 3 4 6 12 14 13 3 4 3 2

Total # of neighbors = 283609
Ave neighs/atom = 328.25116
Ave special neighs/atom = 2.0000000
Neighbor list builds = 15391
Dangerous builds = 0

unfix		3
unfix		2
unfix		1

write_data	data.final.${pid}
write_data	data.final.0
System init for write_data ...
PPPM initialization ...
  extracting TIP4P info from pair style
  using 12-bit tables for long-range coulomb (../kspace.cpp:340)
  G vector (1/distance) = 0.37456615
  grid = 24 24 24
  stencil order = 5
  estimated absolute RMS force accuracy = 0.0031264279
  estimated relative force accuracy = 9.4151448e-06
  using double precision FFTW3
  3d grid and FFT values/proc = 2535 216
Last active /omp style is kspace_style pppm/tip4p/omp
WARNING: Not all mixed pair coeffs generated from mixing. Use write_data with 'pair ij' option to store all pair coeffs. (../write_data.cpp:312)

write_restart   restart.lmp.${pid}
write_restart   restart.lmp.0
System init for write_restart ...
PPPM initialization ...
  extracting TIP4P info from pair style
  using 12-bit tables for long-range coulomb (../kspace.cpp:340)
  G vector (1/distance) = 0.37456615
  grid = 24 24 24
  stencil order = 5
  estimated absolute RMS force accuracy = 0.0031264279
  estimated relative force accuracy = 9.4151448e-06
  using double precision FFTW3
  3d grid and FFT values/proc = 2535 216
Last active /omp style is kspace_style pppm/tip4p/omp
Total wall time: 0:07:01
