#include		in.partitions
include		in.temp
variable        temperature equal 254.09
variable	tempDamp equal 100.0
include		in.pressure
variable        pressure equal 1500.0
variable        pressureDamp equal 1000.0 # This is 1 ps
include		in.seed
variable        seed equal 745823

units		real
atom_style	full
read_restart	restart.lmp.${pid}
read_restart	restart.lmp.1
Reading restart file ...
  restart file = 30 Jul 2021, LAMMPS = 30 Jul 2021
  restoring atom style full from restart
  orthogonal box = (0.15391648 1.2728246 0.18777774) to (18.053656 22.356353 22.025418)
  2 by 4 by 4 MPI processor grid
  restoring pair style lj/cut/tip4p/long/omp from restart
  restoring bond style harmonic/omp from restart
  restoring angle style harmonic/omp from restart
  864 atoms
  576 bonds
  288 angles
Finding 1-2 1-3 1-4 neighbors ...
  special bond factors lj:    0        0        0       
  special bond factors coul:  0        0        0       
     2 = max # of 1-2 neighbors
     1 = max # of 1-3 neighbors
     1 = max # of 1-4 neighbors
     2 = max # of special neighbors
  special bonds CPU = 0.002 seconds
  read_restart CPU = 0.008 seconds
include 	in.setup
variable	out_freq equal 1000
variable	out_freq2 equal 10000
variable	out_freq3 equal 1000

timestep	2.0

neigh_modify    delay 7 every 1

include		in.tip4p
# This is TIP4P/Ice

# create groups ###
group ox type 2
288 atoms in group ox
group hy type 1
576 atoms in group hy

# set charges - beside manually ###
set group ox charge -1.1794
Setting atom values ...
  288 settings made for charge
set group hy charge 0.5897
Setting atom values ...
  576 settings made for charge

# ### TIP3P Potential Parameters ###
pair_style lj/cut/tip4p/long/omp 2 1 1 1 0.1577 8.5
pair_coeff 1 1*2 0.000 0.000
pair_coeff 2 2 0.21084 3.1668
bond_style  harmonic
bond_coeff  1 450 0.9572
angle_style harmonic
angle_coeff 1 55 104.52
kspace_style pppm/tip4p/omp 1.0e-5
pair_modify tail yes

thermo          ${out_freq}
thermo          1000
thermo_style    custom step temp pe etotal epair emol press lx ly lz vol pxx pyy pzz pxy pxz pyz enthalpy

restart 	${out_freq3} restart.lmp.${pid} restart2.lmp.${pid}
restart 	1000 restart.lmp.${pid} restart2.lmp.${pid}
restart 	1000 restart.lmp.1 restart2.lmp.${pid}
restart 	1000 restart.lmp.1 restart2.lmp.1


include         in.dump
dump            myDump all atom ${out_freq2} dump.water.${pid}
dump            myDump all atom 10000 dump.water.${pid}
dump            myDump all atom 10000 dump.water.1
dump            myDump2 all dcd ${out_freq2} dump.dcd
dump            myDump2 all dcd 10000 dump.dcd
dump_modify     myDump append yes
dump_modify     myDump2 append yes


variable natoms 	equal  "count(all)"                        # NUMBER ATOMS
variable H      	equal  "enthalpy/v_natoms"                 # ENTHALPY-per-atom
variable Vol      	equal  "vol/v_natoms"                 # volume-per-atom
fix AVG all 		ave/time ${out_freq} 1 ${out_freq} v_Vol v_H file vol_enthalpy.dat
fix AVG all 		ave/time 1000 1 ${out_freq} v_Vol v_H file vol_enthalpy.dat
fix AVG all 		ave/time 1000 1 1000 v_Vol v_H file vol_enthalpy.dat


timer           timeout 23:50:00 every 1000
New timer settings: style=normal  mode=nosync  timeout=23:50:00

fix 		1 all shake 1e-6 200 0 b 1 a 1
       0 = # of size 2 clusters
       0 = # of size 3 clusters
       0 = # of size 4 clusters
     288 = # of frozen angles
  find clusters CPU = 0.001 seconds
fix             2 all nph iso ${pressure} ${pressure} ${pressureDamp}
fix             2 all nph iso 1500 ${pressure} ${pressureDamp}
fix             2 all nph iso 1500 1500 ${pressureDamp}
fix             2 all nph iso 1500 1500 1000
fix             3 all temp/csvr ${temperature} ${temperature} ${tempDamp} ${seed}
fix             3 all temp/csvr 254.09 ${temperature} ${tempDamp} ${seed}
fix             3 all temp/csvr 254.09 254.09 ${tempDamp} ${seed}
fix             3 all temp/csvr 254.09 254.09 100 ${seed}
fix             3 all temp/csvr 254.09 254.09 100 745823

run             250000
PPPM initialization ...
  extracting TIP4P info from pair style
  using 12-bit tables for long-range coulomb (../kspace.cpp:340)
  G vector (1/distance) = 0.37286347
  grid = 24 25 25
  stencil order = 5
  estimated absolute RMS force accuracy = 0.0031479626
  estimated relative force accuracy = 9.479996e-06
  using double precision FFTW3
  3d grid and FFT values/proc = 4116 672
Last active /omp style is kspace_style pppm/tip4p/omp
Neighbor list info ...
  update every 1 steps, delay 7 steps, check yes
  max neighbors/atom: 2000, page size: 100000
  master list distance cutoff = 10.8154
  ghost atom cutoff = 10.8154
  binsize = 5.4077, bins = 4 4 5
  1 neighbor lists, perpetual/occasional/extra = 1 0 0
  (1) pair lj/cut/tip4p/long/omp, perpetual
      attributes: half, newton on, omp
      pair build: half/bin/newton/omp
      stencil: half/bin/3d
      bin: standard
Per MPI rank memory allocation (min/avg/max) = 10.20 | 10.21 | 10.23 Mbytes
Step Temp PotEng TotEng E_pair E_mol Press Lx Ly Lz Volume Pxx Pyy Pzz Pxy Pxz Pyz Enthalpy 
 2000000    260.77829   -3912.4063   -3465.4413   -3912.4063            0    572.94915    17.899739    21.083529     21.83764    8241.2999   -641.50572    2003.5283    356.82487    14.344787   -424.00681   -341.01986    -3396.578 
 2001000    265.26724   -3940.6167   -3485.9577   -3940.6167            0   -301.22049     17.83379    21.005849    21.757183    8150.5433   -558.08144    461.45998      -807.04    279.13626    94.839826    -990.0222    -3521.763 
 2002000    253.28972   -3892.5082   -3458.3783   -3892.5082            0    1643.8747    17.727969    20.881206    21.628081    8006.3128    2097.2079    1416.0631    1418.3532     544.6969     515.1299    586.29041   -3266.4331 
 2003000    264.28669   -3927.2672   -3474.2888   -3927.2672            0    2220.6882    17.800119    20.966189    21.716104    8104.4647    897.17284    3267.0131    2497.8785   -83.312251    55.862419    1622.8431   -3211.8139 
 2004000    226.46289   -3903.5953   -3515.4456   -3903.5953            0    -167.6718    17.810713    20.978668    21.729029    8118.9436    470.39599   -473.25153   -500.15985   -463.25832      756.802   -1698.7727   -3535.2991 
 2005000    243.95911   -3872.0275     -3453.89   -3872.0275            0   -1052.8341    17.905542    21.090363    21.844719    8249.3171    37.816339   -503.84382   -2692.4748   -437.32779    126.40666     56.79624   -3580.5541 
 2006000     248.1122   -3870.9293   -3445.6735   -3870.9293            0   -362.20709     17.96386    21.159055    21.915868    8330.1839   -505.45817   -1893.1852    1312.0221     539.7885   -1269.3408   -159.11628    -3489.677 
 2007000    252.61261   -3897.2041   -3464.2347   -3897.2041            0    632.81765    17.839485    21.012557     21.76413    8158.3534    1097.8209     1343.243   -542.61091   -1039.8005   -1026.9799   -174.34077   -3388.9413 
 2008000    249.29573   -3870.4069   -3443.1226   -3870.4069            0    468.54871    17.860246     21.03701    21.789458    8186.8695    3563.2505   -2012.9071   -144.69733    368.31357    766.28793    595.68922   -3387.1792 
 2009000    255.75292   -3876.1119   -3437.7601   -3876.1119            0    3165.7959    17.844432    21.018384    21.770165    8165.1426    3206.3676    3410.8026    2880.2176    215.42853    633.12411   -1835.8588   -3060.7764 
 2010000    254.26176   -3906.7572   -3470.9612   -3906.7572            0    1323.2707    17.898862    21.082495    21.836569    8240.0874    998.75739    2068.4637    902.59115     62.94181   -653.18822    284.07045   -3311.9395 
 2011000    260.26328   -3926.3412   -3480.2588   -3926.3412            0     2295.934    17.768477    20.928919      21.6775    8061.3208    2404.7231    1103.4754    3379.6035    277.52026     972.0558   -687.56442   -3210.3348 
 2012000     272.2104   -3893.9875   -3427.4282   -3893.9875            0    976.23201    17.803069    20.969664    21.719703    8108.4946    1686.7748   -524.57226    1766.4935   -292.21993    436.22294   -724.51492   -3311.9848 
 2013000     261.9915    -3876.315   -3427.2705    -3876.315            0    1977.9645    17.823295    20.993487    21.744378    8136.1618    1954.2295    1889.8478    2089.8162    1695.4644    891.47736    453.92508     -3192.57 
 2014000    249.76743   -3934.2679   -3506.1751   -3934.2679            0    1308.1931    17.813213    20.981612    21.732078    8122.3626    1013.4427   -1114.8188    4025.9553    140.85109    11.260334    546.07843   -3351.2113 
 2015000    259.50072   -3933.4366   -3488.6613   -3933.4366            0    1651.0005     17.81152    20.979618    21.730013    8120.0468    2834.6695    1035.6342    1082.6979    755.01316   -366.47792   -1261.7633   -3293.1456 
 2016000    258.63373   -3933.9317   -3490.6424   -3933.9317            0    1890.5301    17.863748    21.041136    21.793731     8191.687    1403.1212    3819.3801    449.08894   -756.32473   -157.13421   -1083.0094   -3264.7857 
 2017000     265.0456    -3926.257   -3471.9779    -3926.257            0    1551.3582    17.814541    20.983176    21.733698    8124.1794    1361.1686     1842.236    1450.6701    535.41541    61.617046    616.88738   -3288.1686 
 2018000    248.98071   -3923.0587   -3496.3143   -3923.0587            0   -589.96576    17.805163     20.97213    21.722257    8111.3559   -28.678363   -198.86581   -1542.3531    1823.1415     1094.159     60.45376   -3566.1048 
 2019000    265.22012    -3891.772   -3437.1938    -3891.772            0    1552.0666    17.735603    20.890198    21.637394    8016.6602    1030.0099    2170.5415    1455.6483    476.11934   -1214.7995   -993.87432   -3255.7342 
 2020000    254.58449   -3913.7416   -3477.3925   -3913.7416            0    219.06189    17.847345    21.021815    21.773719    8169.1415    26.008177    735.53791   -104.36041    404.44053    1842.6986    345.85252   -3451.2938 
 2021000    245.37993   -3899.8179   -3479.2451   -3899.8179            0    2469.9587    17.867409    21.045448    21.798198    8196.7247     2265.485    2409.5291    2734.8619    293.87165    402.59349    392.27017   -3183.9843 
 2022000     262.8128   -3913.2454   -3462.7933   -3913.2454            0    2765.4421    17.807677    20.975092    21.725325    8114.7927    1805.6259    3641.2908    2849.4095    1511.7228   -179.02145     -712.897   -3135.5145 
 2023000    243.38885   -3902.1461   -3484.9859   -3902.1461            0    1927.5373    17.844884    21.018916    21.770716    8165.7626    1373.7196    508.56848    3900.3237    1800.4751    1501.5876    819.72324   -3255.4369 
 2024000    260.09282    -3868.483   -3422.6928    -3868.483            0    270.20099    17.951217    21.144163    21.900443    8312.6079   -161.47249   -911.65199    1883.7274    324.87893   -156.38597    518.64241   -3389.9361 
 2025000    249.20703   -3886.7597   -3459.6274   -3886.7597            0    1277.1094    17.904687    21.089356    21.843676    8248.1353    498.43958    1717.8317     1615.057    359.27597    255.67879    -1918.144   -3306.0031 
 2026000    261.25167   -3863.4201   -3415.6437   -3863.4201            0     1524.471    17.894656    21.077541    21.831439    8234.2807    1831.4537    1762.7486    979.21075   -280.20603    798.07939    628.53804   -3232.5722 
 2027000    258.93202   -3860.4844   -3416.6838   -3860.4844            0    2206.1961    17.768437    20.928872    21.677452    8061.2667    3676.5391    1917.9285    1024.1206   -205.70993   -133.43132    596.24148   -3157.3116 
 2028000    247.01201   -3874.0035   -3450.6333   -3874.0035            0    2604.6965    17.716626    20.867845    21.614242    7990.9538    2657.9814    2758.0508    2398.0573    1546.9196   -823.59209    522.56341   -3147.0824 
 2029000    236.88962   -3864.1623   -3458.1416   -3864.1623            0    1620.6196    17.750521    20.907769    21.655594    8036.9061    1916.9866    2407.8539    537.01821   -445.23185   -53.412191   -495.24981   -3268.1887 
 2030000    249.88286   -3862.5697   -3434.2791   -3862.5697            0    1182.2188     17.73958    20.894882    21.642246    8022.0544    718.74747    2653.0102    174.89879     1768.641   -1426.8066    981.83101   -3295.9672 
 2031000    263.15576   -3862.8329   -3411.7929   -3862.8329            0     311.1928    17.781587    20.944361    21.693494    8079.1772   -903.55732    1256.6971    580.43861    654.20994    172.94011   -558.78384   -3375.1261 
 2032000    250.06197   -3838.5742   -3409.9766   -3838.5742            0    1756.9255    17.757356     20.91582    21.663933     8046.194    1503.6413    3002.7139    764.42122    110.86538    1695.2479    98.874974   -3203.8093 
 2033000    260.91588   -3878.5314   -3431.3305   -3878.5314            0    411.31697     17.79759     20.96321    21.713018    8101.0103   -845.57761    1685.5874     393.9411    246.26277    660.24307   -328.16024   -3382.7355 
 2034000    238.87716   -3900.9724   -3491.5451   -3900.9724            0    1385.2112    17.720554    20.872472    21.619034    7996.2701    51.564019     1132.284    2971.7857    507.54689   -113.54241    973.96195   -3330.0053 
 2035000    241.39874   -3926.6536   -3512.9044   -3926.6536            0    2444.0843    17.716693    20.867924    21.614324    7991.0449    746.49407    4317.9833    2267.7755   -652.90666   -953.26098    756.02498   -3228.0679 
 2036000    247.81221   -3893.7677    -3469.026   -3893.7677            0    542.90959    17.790002    20.954273    21.703761    8090.6533     -128.489     707.0704    1050.1474    77.750787    56.991554   -510.02903    -3404.966 
 2037000    262.38904   -3920.9927   -3471.2669   -3920.9927            0    2641.2309    17.742752    20.898618    21.646116     8026.358    2718.5408    2486.8862    2718.2657   -263.73486    272.32779   -413.38169   -3162.0944 
 2038000    262.97112   -3906.3381   -3455.6146   -3906.3381            0    1422.7934    17.736327    20.891051    21.638278    8017.6419    2579.1745   -188.45955    1877.6653    196.09195     808.7074   -37.279961   -3289.2486 
 2039000    245.74205   -3894.7012   -3473.5077   -3894.7012            0    618.07874    17.789672    20.953884    21.703358    8090.2028    356.44275   -842.65009    2340.4435    193.17226    482.93519    692.34766   -3400.5823 
 2040000    244.42634   -3886.3928   -3467.4544   -3886.3928            0     702.6539    17.776864    20.938797    21.687732    8072.7411    1055.2127   -230.98458    1283.7336    545.68079   -177.37915   -267.50571   -3384.7291 
 2041000    247.89279   -3912.4148    -3487.535   -3912.4148            0    1413.2725    17.815894     20.98477     21.73535    8126.0311    653.81162    1725.3719     1860.634    226.89549   -378.81592    209.73546   -3320.0483 
 2042000    247.25091   -3912.0528   -3488.2732   -3912.0528            0    1232.3313    17.804424     20.97126    21.721356    8110.3458    887.55055    1154.3434    1655.0998    830.79714    659.39853    1948.4515   -3342.5117 
 2043000    258.49331   -3916.1151   -3473.0664   -3916.1151            0    1196.9966    17.743651    20.899677    21.647212    8027.5778    2060.6768    2388.7918    -858.4788    975.12127    307.12743    889.01823   -3332.9292 
 2044000    259.50135   -3890.3426   -3445.5662   -3890.3426            0    2630.2691    17.655603    20.795968    21.539794    7908.6658    1721.5055    2509.0711    3660.2308   -524.63882   -1341.0802     1096.279   -3142.1915 
 2045000    244.60322   -3937.8007   -3518.5591   -3937.8007            0    2110.6813    17.823883     20.99418    21.745096    8136.9671    2497.6797    2443.3614     1391.003      351.249    1089.4212   -134.30762    -3268.086 
 2046000    271.42053   -3930.6654   -3465.4599   -3930.6654            0    1033.7891    17.881748    21.062337     21.81569    8216.4736    1030.6979    15.901541    2054.7679    153.44508    986.61557   -488.15999   -3341.5821 
 2047000    255.88559   -3926.2046   -3487.6254   -3926.2046            0    3001.8579    17.789948    20.954209    21.703695    8090.5799    2634.4276    2788.3405    3582.8056   -464.29016   -702.30141   -132.57379   -3133.4278 
 2048000    251.09776   -3887.8276   -3457.4547   -3887.8276            0    1522.5358    17.899128    21.082809    21.836894    8240.4555    1151.2836    1504.3511    1911.9728   -1455.0616   -598.45027   -348.90627   -3274.4784 
 2049000    267.81973   -3895.2598    -3436.226   -3895.2598            0    2064.0502    17.733631    20.887874    21.634988    8013.9857   -92.644602    3831.9342    2452.8609     639.9055   -32.404268   -732.09705   -3194.9885 
 2050000    256.69869   -3929.0589   -3489.0861   -3929.0589            0    1417.4246    17.798537    20.964325    21.714173    8102.3029     140.0219    1928.0973    2184.1547   -416.67205    105.91175    169.30405   -3321.5978 
 2051000    252.75049   -3870.9606    -3437.755   -3870.9606            0    1009.4356    17.817276    20.986398    21.737035    8127.9218   -1020.6094    3227.1239    821.79228   -407.43348   -55.514895    235.62629   -3318.0991 
 2052000    260.92065   -3917.5229   -3470.3139   -3917.5229            0    2194.6008    17.660887    20.802192    21.546241    7915.7694    2893.4903    3389.3207    300.99137    964.95364   -726.20588     446.9422   -3216.9617 
 2053000    256.95503   -3908.8059   -3468.3938   -3908.8059            0    135.13973    17.787512    20.951339    21.700723    8087.2559   -1354.4505    1267.7704    492.09923   -369.52897    275.56689    1070.4173   -3452.4548 
 2054000     257.3843   -3886.3957   -3445.2478   -3886.3957            0    786.03754    17.726815    20.879846    21.626673    8004.7487    280.49497    2478.2634   -400.64572   -538.86461    458.81991   -80.966617    -3353.485 
 2055000    258.57466   -3929.6621    -3486.474   -3929.6621            0    2624.4002    17.708316    20.858057    21.604104    7979.7151    2889.2748    3095.9437    1887.9821   -76.332644     532.8376    450.51633   -3181.0569 
 2056000    273.75776   -3905.4848   -3436.2734   -3905.4848            0    816.68448    17.817238    20.986352    21.736988    8127.8692    665.18402    905.05686    879.81257   -574.90276    729.49981    1289.7336   -3339.4663 
 2057000    268.19292   -3912.0609   -3452.3874   -3912.0609            0    4030.1679    17.706011    20.855342    21.601292    7976.5996    4282.2741    3003.3221    4804.9077    1078.3821   -376.19214    641.00047   -2983.5558 
 2058000    240.19814   -3890.7962   -3479.1048   -3890.7962            0    1083.7759    17.892935    21.075514    21.829339    8231.9051    640.93878    1296.5597    1313.8292    505.82922   -100.93985   -815.18951   -3348.9933 
 2059000    265.11715   -3933.4393   -3479.0376   -3933.4393            0    1308.0704    17.794064    20.959057    21.708717    8096.1969    862.53704    577.46504    2484.2092    318.07698    339.26705    240.62699   -3324.5875 
 2060000    252.57786   -3943.8475   -3510.9377   -3943.8475            0    1909.2262    17.858377     21.03481    21.787179    8184.3007    957.60376    3067.8044    1702.2704    179.62141   -20.106149    206.74767   -3283.0532 
 2061000    256.32129   -3937.8943   -3498.5684   -3937.8943            0    2729.2276    17.831514    21.003169    21.754406    8147.4231    2527.4468    4232.7379    1427.4981   -303.93699    215.89163    1484.7602   -3174.2766 
 2062000    246.81904   -3892.0229   -3468.9835   -3892.0229            0    1175.8646    17.779168    20.941512    21.690544    8075.8809    1002.8385    1648.2683      876.487   -668.43791   -695.73331    -661.8186    -3330.492 
 2063000    275.69238   -3896.1455   -3423.6182   -3896.1455            0     2734.601     17.77824    20.940418    21.689411    8074.6159    2421.8969    3476.2724    2305.6336   -454.00731    -740.3618   -84.891585   -3101.5916 
 2064000    262.30349   -3926.1987   -3476.6195   -3926.1987            0    1326.3012     17.89222    21.074672    21.828467    8230.9183   -76.853069    1971.8794    2083.8772    1483.7684     228.4243   -740.48756    -3317.411 
 2065000    253.81184   -3952.7162   -3517.6914   -3952.7162            0    846.48049    17.839019    21.012008    21.763561    8157.7138    -178.9498    749.84025     1968.551    31.966801     379.5287    588.12453    -3416.984 
 2066000    264.53982   -3899.1613   -3445.7491   -3899.1613            0    2436.7295    17.792829    20.957602    21.707209    8094.5103    3367.8278     3547.958    394.40264    662.52055    419.41564   -331.29475   -3158.0928 
 2067000    239.62659   -3936.9796   -3526.2679   -3936.9796            0    2101.6351    17.823447    20.993667    21.744564    8136.3706    3419.3246    1312.0932    1573.4874    208.52395    963.62544    303.82322   -3276.8865 
 2068000    246.29451   -3919.8207   -3497.6803   -3919.8207            0    1382.6803    17.865779    21.043527    21.796208    8194.4805    1626.8976    533.89746    1987.2457   -1029.6946    1359.6561   -1695.1002   -3332.4388 
 2069000    250.59274   -3948.8137   -3519.3063   -3948.8137            0    1079.9824    17.834126    21.006244    21.757592    8151.0032    563.03338    716.24526    1960.6685   -850.25112   -432.93392   -82.947318   -3390.9245 
 2070000     235.3004    -3873.342   -3470.0452    -3873.342            0    1950.3199    17.887639    21.069276    21.822878    8224.5979    2430.0116    1492.2548    1928.6932   -798.78048   -944.46489   -833.94284   -3236.1095 
 2071000    258.90902   -3899.9798   -3456.2186   -3899.9798            0    2845.7776    17.807994    20.975464    21.725711    8115.2253    2774.8987     3256.454    2505.9802   -96.694402   -82.695514    1032.7774   -3119.4144 
 2072000    266.33709   -3857.4026     -3400.91   -3857.4026            0     1644.676    17.875848    21.055387    21.808492    8208.3436    1718.1468    2712.8689    503.01232    5.7915532    618.71237   -638.07246   -3204.0253 
 2073000    228.81695   -3899.3339   -3507.1495   -3899.3339            0    1377.0826    17.777538    20.939591    21.688554    8073.6592    1491.0076    2774.9601   -134.72009    436.35945   -43.173563   -160.41449   -3345.0035 
 2074000    255.44501   -3911.9821   -3474.1581   -3911.9821            0    1003.4371    17.768498    20.928943    21.677526    8061.3488    676.58372    2540.9539   -207.22625   -599.72852   -470.28719    955.23837   -3356.1875 
 2075000    255.10237   -3913.7479   -3476.5112   -3913.7479            0    961.02212    17.771821    20.932858     21.68158    8065.8729     786.4977    917.59861      1178.97    621.73196     204.0519    831.25341   -3363.4637 
 2076000    252.19221   -3918.2162   -3485.9674   -3918.2162            0    1358.3788    17.698133    20.846063    21.591681     7965.957    2857.0854    688.32537    529.72567    296.44538    48.770452     412.5844   -3328.1573 
 2077000    255.36749   -3959.5789   -3521.8878   -3959.5789            0    2030.7399    17.752165    20.909706      21.6576    8039.1397    743.56092    4390.8716    957.78726    697.54144    239.27076   -1350.4386   -3283.7985 
 2078000    260.93043   -3869.7946   -3422.5688   -3869.7946            0    1443.2764    17.759902    20.918818    21.667039     8049.655    1864.5824    918.17215    1547.0748    746.91923   -1058.8813    324.22737   -3253.1339 
 2079000    246.47577   -3883.4618   -3461.0108   -3883.4618            0    1326.2643    17.739989    20.895364    21.642746    8022.6095    2551.7946    823.61234    603.38605    693.53139   -1159.2375   -189.43037   -3305.8359 
 2080000    255.42884   -3838.0608   -3400.2646   -3838.0608            0    1534.8012    17.693695    20.840836    21.586267    7959.9664    80.208205     3333.269    1190.9263   -572.29846    11.394168   -509.65299   -3222.0926 
 2081000    255.17062   -3872.7984   -3435.4447   -3872.7984            0    1497.9342    17.705887    20.855196     21.60114    7976.4313    2791.0975    1068.3997    634.30551   -48.338476   -324.88894   -304.87601   -3261.1929 
 2082000    255.86661   -3907.9765   -3469.4299   -3907.9765            0    2016.3504    17.608653    20.740667    21.482515    7845.7408    3083.0798    1086.5518    1879.4194    1287.4068   -221.57763    856.35346   -3238.7148 
 2083000     250.8906   -3898.8139   -3468.7959   -3898.8139            0    905.19018    17.729952    20.883542      21.6305    8008.9998    2244.4233    1134.4937   -663.34639   -475.22233    1815.0317    160.05832    -3363.067 
 2084000    266.54459   -3870.4343    -3413.586   -3870.4343            0    1586.0751    17.789467    20.953643    21.703108    8089.9234    2659.7837    477.11834    1621.3232    5.5823027   -889.63751    -370.4681   -3226.4557 
 2085000    256.61851   -3878.4938   -3438.6584   -3878.4938            0    1355.3013    17.822294    20.992308    21.743157    8134.7911   -73.729933      1194.13    2945.5037    175.84975    3.1919473    917.00096   -3277.8688 
 2086000    250.15377   -3851.4162   -3422.6612   -3851.4162            0    1509.3552    17.669544    20.812389    21.556802    7927.4155    2046.6845    701.62539    1779.7558   -741.28193   -489.64794    678.91562   -3248.1598 
 2087000    253.92176   -3909.7897   -3474.5765   -3909.7897            0    1569.0345    17.729012    20.882435    21.629354    8007.7261     3042.468   -189.62335     1854.259   -246.13347    1268.5663    388.97113   -3291.3376 
 2088000    266.22477   -3894.2511    -3437.951   -3894.2511            0    2229.0435    17.745719    20.902113    21.649736    8030.3857    235.06141    3254.0818    3197.9873   -11.928185    565.71546   -46.909587   -3176.8967 
 2089000     238.3558   -3922.1062   -3513.5725   -3922.1062            0     554.4388    17.759584    20.918445    21.666652    8049.2235   -982.10217    2569.2273    76.191221   -794.31772    377.24176    620.43591   -3448.4872 
 2090000    262.14791   -3936.5301   -3487.2176   -3936.5301            0    1559.4418    17.730962    20.884731    21.631732    8010.3686    1334.2902    2449.5842     894.4509    390.11132    -387.1827    511.50521   -3305.0389 
 2091000    245.59517     -3904.97   -3484.0283     -3904.97            0    843.05662    17.768726    20.929213    21.677805    8061.6601    160.11388    1145.1603    1223.8957    688.95498   -915.61714    28.029501   -3384.9093 
 2092000    267.45384   -3884.6163   -3426.2096   -3884.6163            0     740.1098    17.770266    20.931026    21.679683    8063.7556    720.14466    1677.9836   -177.79882   -1524.0061   -290.20577    30.538421   -3339.1715 
 2093000     245.5899   -3910.0037    -3489.071   -3910.0037            0    1740.7171     17.78753     20.95136    21.700745    8087.2803    315.66395    2017.9466    2888.5406   -55.803224   -709.72835    434.74827   -3283.7627 
 2094000     244.7446   -3907.5382   -3488.0544   -3907.5382            0    2713.3097    17.739186    20.894417    21.641765    8021.5191    2705.3649    2188.7405    3245.8239    305.15509    1240.9415   -1325.7683   -3170.6361 
 2095000    255.51133   -3942.0451   -3504.1074   -3942.0451            0    2751.9662    17.646873    20.785685    21.529144    7896.9402    2393.7013    2912.6932    2949.5041    694.15042    1127.4957    468.73567   -3187.1669 
 2096000    255.63427   -3893.5804    -3455.432   -3893.5804            0    1879.5371     17.71719     20.86851     21.61493    7991.7174    1465.2294    3335.4765    837.90532   -245.47039    561.84663    129.13626     -3236.37 
 2097000    252.63632   -3898.3828   -3465.3728   -3898.3828            0    859.79837    17.798936    20.964796    21.714661    8102.8489    322.55163    965.50306    1291.3404    651.77602    950.78611   -22.693508   -3363.7689 
 2098000    254.57597   -3965.0361   -3528.7016   -3965.0361            0    469.03176    17.790278    20.954597    21.704097    8091.0291    1489.0963    238.49024   -320.49125    128.76495    380.41909   -858.90206   -3473.3562 
 2099000     252.4469   -3911.7426   -3479.0573   -3911.7426            0    1892.1261    17.762636    20.922039    21.670374    8053.3735    1422.3394     2573.754    1680.2848    624.21952   -762.27275   -806.61385   -3256.8267 
 2100000    249.21262   -3919.7821   -3492.6402   -3919.7821            0    2282.1955    17.841135      21.0145    21.766142     8160.617    1716.7634    1449.8174    3680.0057   -173.64811   -136.35121   -1182.2475   -3221.0265 
 2101000    254.93374   -3948.3606   -3511.4129   -3948.3606            0    2101.3883    17.772597    20.933772    21.682527    8066.9296    1868.1658    2743.3053    1692.6938   -341.73495     1275.921   -50.785381    -3264.189 
 2102000    260.95098   -3911.0875   -3463.8265   -3911.0875            0    2984.3366    17.733463    20.887677    21.634783    8013.7584    4702.1753    1687.9624    2562.8722    -627.9537   -2539.9356    441.03553   -3115.0398 
 2103000    254.11279    -3894.312   -3458.7714    -3894.312            0    1276.2863     17.75111    20.908462    21.656312    8037.7057    1429.7372    1000.9035    1398.2184    239.93872    78.304326    -441.4882   -3309.1629 
 2104000    250.31468   -3878.2517   -3449.2209   -3878.2517            0    2783.2825     17.73244    20.886472    21.633536    8012.3721    2684.1856    3359.2076    2306.4543   -790.11303    1831.1981    1084.2867   -3123.9882 
 2105000    260.85436    -3896.209   -3449.1136    -3896.209            0    712.35103    17.859439     21.03606    21.788473    8185.7597    1113.0647   -397.54375    1421.5322    369.76038   -147.45537   -1118.6823   -3364.0724 
 2106000    247.22055   -3928.5152   -3504.7876   -3928.5152            0    1494.7369    17.809174    20.976855    21.727151    8116.8392    1724.2435    2124.8387    635.12839   -34.097348   -974.31022   -619.69468    -3327.847 
 2107000    262.05086   -3930.5944   -3481.4482   -3930.5944            0    1714.9224    17.786952     20.95068     21.70004    8086.4927    1581.6616    1780.3348    1782.7709    514.17002   -1039.7709   -9.9046764   -3279.2019 
 2108000    253.80763   -3895.2893   -3460.2717   -3895.2893            0    1180.5281    17.740984    20.896536    21.643959    8023.9595    1667.3392    292.86011    1581.3849    1964.0807    139.78208    362.55902   -3322.1249 
 2109000    255.96802   -3883.7394    -3445.019   -3883.7394            0    628.97707     17.74637     20.90288     21.65053    8031.2694    381.41042   -294.79815     1800.319    668.13463   -1049.9877    564.36566   -3371.3483 
 2110000    254.04117   -3898.6169    -3463.199   -3898.6169            0     199.0861    17.756902    20.915285    21.663379    8045.5764   -1092.1661    512.42892    1176.9955    -60.18919   -566.35586   -853.90614    -3439.839 
 2111000    249.97148   -3877.2547   -3448.8121   -3877.2547            0    2314.6685    17.767728    20.928037    21.676587    8060.3016      2186.42    2623.1224     2134.463    -1233.369    1551.6139    688.22877     -3176.72 
 2112000    255.98184   -3888.6947   -3449.9506   -3888.6947            0    1406.0439     17.69982     20.84805    21.593739    7968.2348    1874.1979    1394.3208    949.61294    2.7035357    379.83958      1626.37   -3286.5563 
 2113000    262.06071   -3911.8039   -3462.6408   -3911.8039            0    3592.2855    17.684244    20.829703    21.574736    7947.2171    3702.6387    2791.0247    4283.1933    1.4905009   -721.02392   -448.63917   -3046.2877 
 2114000    262.03112     -3864.27   -3415.1576     -3864.27            0    788.07027    17.826904    20.997738    21.748782    8141.1055    -488.7985    1509.3706    1343.6387    -227.3653   -797.23018    -487.1858   -3321.5903 
 2115000    261.22063   -3869.9921   -3422.2689   -3869.9921            0    2346.3755    17.695083    20.842471     21.58796    7961.8395    3133.1387    3102.9733    803.01452   -255.06173   -1239.1233    838.78685   -3149.8189 
 2116000    253.44153   -3899.5711    -3465.181   -3899.5711            0    1226.2422     17.70624    20.855612    21.601571    7976.9084    793.52377    1707.7375    1177.4654   -991.30701    687.68748    -347.8953   -3322.5261 
 2117000    246.73139    -3922.434   -3499.5449    -3922.434            0    1076.7194    17.804361    20.971186    21.721279    8110.2599     1761.263   -41.187656    1510.0828    207.31443    1405.5504   -1233.5629   -3372.1907 
 2118000    256.31515   -3913.8497   -3474.5343   -3913.8497            0    1191.6416    17.844627    21.018613    21.770403    8165.4102    947.83205    962.47287    1664.6198    845.42291    244.05717   -735.16374   -3332.6287 
 2119000    261.28638    -3910.006   -3462.1701    -3910.006            0    1526.0923     17.86981    21.048275    21.801126    8200.0285    351.73434     2214.366    2012.1765     232.4684    209.09457   -1318.4005   -3279.6663 
 2120000    248.37384    -3902.263   -3476.5587    -3902.263            0    54.642986    17.942147    21.133479    21.889378    8300.0141   -2031.8378    1451.6182    744.14863    1375.1101   -433.61227   -860.00315   -3469.9443 
 2121000     239.0386   -3887.2776   -3477.5736   -3887.2776            0    2785.6774    17.800925    20.967139    21.717087    8105.5656    4294.7776    2726.8322    1335.4223   -516.49034   -532.68405    1300.0996   -3148.2749 
 2122000    260.21083    -3882.166   -3436.1736    -3882.166            0    322.02728    17.905369     21.09016    21.844509    8249.0786    959.76991   -130.86298    137.17492    737.43511    364.84617   -1473.7758   -3397.4323 
 2123000    247.57196    -3933.292   -3508.9622    -3933.292            0    777.02582    17.889761    21.071775    21.825466    8227.5244   -272.84841    1435.4602    1168.4656   -624.70734   -415.80194    729.09983   -3415.7268 
 2124000    264.28387   -3893.4093   -3440.4358   -3893.4093            0    1249.4478    17.853887    21.029521    21.781701    8178.1291    2104.2659    1228.5732     415.5044   -668.39644   -1348.0584   -525.71254   -3291.4146 
 2125000    278.25963   -3890.1107   -3413.1832   -3890.1107            0    1564.9562    17.904084    21.088647    21.842941    8247.3029    1089.7985    2431.8719    1173.1982    228.17342   -669.35688    652.23828   -3224.9527 
 2126000     258.9357   -3903.5911   -3459.7842   -3903.5911            0    912.22432    17.864771    21.042341    21.794979    8193.0946    1961.7717    877.67674   -102.77545   -405.17111    79.837588    374.65374   -3350.7844 
 2127000     261.6938   -3907.2016   -3458.6674   -3907.2016            0    834.64013    17.840083    21.013261    21.764859    8159.1736    1843.5338   -409.85974    1070.2463   -990.54883    869.41446    290.75013   -3359.3509 
 2128000    261.29153   -3915.9905   -3468.1458   -3915.9905            0    1121.8594    17.786295    20.949906    21.699238     8085.596    2073.2905     1844.627    -552.3393    1093.8262    603.39259   -953.68667   -3335.8559 
 2129000    268.74089   -3911.6956    -3451.083   -3911.6956            0   -405.18744    17.819688    20.989239    21.739978    8131.2234   -1230.3722    105.28468   -90.474743   -122.10992    -1441.066    -454.7496   -3499.1323 
 2130000    265.01382    -3956.779   -3502.5544    -3956.779            0    2304.4389    17.641006    20.778774    21.521986    7889.0663    2577.2156    1943.3765    2392.7248   -969.64023   -864.06662    1068.2637   -3237.4196 
 2131000    238.52634   -3908.0672   -3499.2412   -3908.0672            0    944.56665    17.766329    20.926389     21.67488    8058.3974     228.7849   -7.2159998    2612.1311   -524.36487    168.27021   -1089.8575   -3388.2325 
 2132000    249.78016   -3861.0006   -3432.8859   -3861.0006            0    2416.3002    17.776528    20.938402    21.687322    8072.2833    1329.1541    2252.4581    3667.2884    1568.7101    448.08414   -1211.1763   -3148.4246 
 2133000    247.01065   -3917.4084   -3494.0406   -3917.4084            0    1118.2624    17.807877    20.975326    21.725568     8115.065    253.64581    1442.9674     1658.174    1254.5488    358.33282   -432.86821   -3361.6944 
 2134000    243.07376   -3940.5229   -3523.9028   -3940.5229            0    2684.9004    17.749117    20.906115    21.653881     8034.999     3608.287    3728.8439    717.57017    534.23145    179.61171   -799.81201   -3209.2803 
 2135000    243.14403   -3951.7964   -3535.0559   -3951.7964            0    980.90274    17.705922    20.855237    21.601183    7976.4787    1489.8032   -464.54334    1917.4484    -665.4121    597.41066   -295.41059   -3420.9487 
 2136000    252.84719   -3903.3613   -3469.9899   -3903.3613            0    2260.2765    17.671432    20.814612    21.559105    7929.9564    1860.1036    1319.9151    3600.8108    486.99052    170.51769    766.02619   -3208.5883 
 2137000    236.48725   -3892.8417   -3487.5107   -3892.8417            0    1220.4154    17.732068    20.886034    21.633082    8011.8674    2878.3021   -439.20432    1222.1485   -952.66313    81.625056   -49.389131   -3344.9114 
 2138000    264.37944   -3892.1704   -3439.0331   -3892.1704            0    2280.5958    17.790823    20.955239    21.704762    8091.7732    1612.4993    3413.1405    1816.1477    167.89731   -61.679362    1765.6432   -3169.8995 
 2139000    245.35366   -3926.8904   -3506.3626   -3926.8904            0    2957.9952    17.615362    20.748569      21.4907    7854.7123    3869.4279    3191.6367    1812.9209   -999.33247   -979.79244    345.40728   -3167.5156 
 2140000     258.1138   -3883.5044   -3441.1062   -3883.5044            0    829.57817    17.693419     20.84051    21.585929    7959.5929    1424.7089    526.04149    537.98409    736.90495   -153.07624    587.64441   -3344.8067 
 2141000    251.04417   -3903.9519   -3473.6708   -3903.9519            0    873.96781    17.708583    20.858371    21.604429    7980.0755    371.74852    1691.4923    558.66266   -538.52627   -1102.0158   -724.78258   -3371.9573 
 2142000    249.06702    -3887.422   -3460.5297    -3887.422            0    2506.9768    17.647894    20.786888    21.530389    7898.3113    3353.6332    907.11261    3260.1845   -717.64117   -294.53763     398.6629   -3171.7541 
 2143000     247.6146   -3903.0314   -3478.6285   -3903.0314            0    719.41139    17.694099    20.841311    21.586759     7960.511    771.37563    859.99155    526.86699    143.94843   -514.86762    231.13134   -3395.1078 
 2144000    261.08153   -3894.8215   -3447.3367   -3894.8215            0    1820.3797    17.634245    20.770811    21.513738    7879.9996      2645.12    1547.4847    1268.5345   -919.75126   -609.78021     444.6168   -3238.1355 
 2145000    258.98396    -3869.974   -3426.0843    -3869.974            0    1429.5246    17.641306    20.779128    21.522352    7889.4686    1963.9042     578.0962    1746.5734    311.56664    1950.3819   -101.05494   -3261.6035 
 2146000    254.48782   -3921.6517   -3485.4683   -3921.6517            0    2393.2235    17.734808    20.889262    21.636425    8015.5825    2518.4362    3107.8413    1553.3928   -164.47263   -800.85129   -576.40965   -3205.7028 
 2147000    249.03457   -3933.4197    -3506.583   -3933.4197            0    1045.4925    17.757185    20.915619    21.663725    8045.9618      873.054    1063.4921    1199.9315   -479.13947   -532.69172   -942.91859   -3383.9027 
 2148000    242.77595   -3909.2878   -3493.1781   -3909.2878            0    1889.1811    17.763882    20.923506    21.671894    8055.0677    1821.7673    3244.1828    601.59309    293.63953   -815.82896    872.69992   -3271.2467 
 2149000    252.25192   -3872.4071    -3440.056   -3872.4071            0    2285.5647     17.78472    20.948051    21.697317     8083.449    2181.4671    1311.7246    3363.5025    1076.2838    208.98903    972.60897   -3170.6135 
 2150000    244.18254   -3910.7764   -3492.2559   -3910.7764            0    636.00798    17.918057    21.105104    21.859987    8266.6261    1602.3925    957.28341   -651.65193   -960.63074   -143.51413     653.9011   -3415.5786 
 2151000    254.15979   -3891.8474   -3456.2262   -3891.8474            0    971.31641    17.989954    21.189789    21.947701    8366.5367     1515.211    1552.5277    -153.7894    16.469988    535.82313   -648.69307   -3337.7087 
 2152000    235.81295   -3903.5904   -3499.4151   -3903.5904            0    1219.3656    17.958445    21.152676    21.909261    8322.6531    448.31639    2136.7149    1073.0654    1171.2525    1114.4284    320.88108   -3351.4117 
 2153000    244.71052   -3884.0014    -3464.576   -3884.0014            0    1023.4842    18.021977    21.227509     21.98677    8411.2956    639.84528    2321.7573    108.84999    624.67628    809.89032      276.717   -3339.0251 
 2154000    243.29388   -3898.5954    -3481.598   -3898.5954            0   -20.428082    18.014684    21.218918    21.977872    8401.0875   -483.93075   -254.97992    677.62643    -1415.104   -570.33809    711.37092   -3484.1009 
 2155000    242.70026   -3905.7335   -3489.7536   -3905.7335            0    1720.6318     17.96968     21.16591    21.922968    8338.2831    1244.3923    2505.7825    1411.7207    -418.9963    861.60694    774.60472   -3280.5156 
 2156000     236.0838   -3924.2523   -3519.6127   -3924.2523            0    1132.1051    17.915442    21.102024    21.856798    8263.0082    78.129255    2419.2386    898.94748    117.01213   -1233.4054   -768.04069   -3383.1856 
 2157000    252.93917   -3921.1789   -3487.6498   -3921.1789            0    1662.8846    17.926391    21.114921    21.870155    8278.1673    3220.5479    2761.1089     -993.003   -417.11827    1015.0981    307.55302   -3286.8921 
 2158000    252.15257   -3929.9404   -3497.7595   -3929.9404            0    2649.7145    17.829769    21.001112    21.752276    8145.0305    2088.0684    3179.9283    2681.1467    901.98284    531.83058   -18.803242   -3183.0081 
 2159000    244.38639   -3910.2111   -3491.3412   -3910.2111            0    963.25782    17.959188    21.153551    21.910167    8323.6857    254.28113    307.79774    2327.6946   -53.436596   -690.13258   -457.69316    -3374.409 
 2160000    259.02811   -3884.6898   -3440.7245   -3884.6898            0    1787.3076    17.836551    21.009101    21.760551    8154.3291     2597.704    2112.7731    651.44568    1082.4147     561.6735    526.48285   -3228.1733 
 2161000    253.45163   -3937.8953   -3503.4879   -3937.8953            0    2333.0934    17.799531    20.965496    21.715386     8103.661     595.3594    4076.3486    2327.5722    1034.2455    -58.37385   -51.565729   -3227.7546 
 2162000    235.07671   -3894.5873   -3491.6739   -3894.5873            0    524.18119     17.90158    21.085697    21.839886    8243.8424    932.55003   -520.10253    1160.0961     102.0067     264.2157   -616.57651   -3428.6527 
 2163000    250.24866   -3896.2022   -3467.2845   -3896.2022            0    2035.4598    17.801257     20.96753    21.717492    8106.0192    814.25089     3493.556    1798.5724     524.4027   -218.95006    423.15087   -3226.6566 
 2164000      246.843   -3915.0796   -3491.9992   -3915.0796            0    528.21115    17.911624    21.097527    21.852139    8257.7261   -341.34917    1344.9166      581.066    -611.8472    756.25187   -13.869681   -3428.3865 
 2165000    249.64197   -3902.0259   -3474.1482   -3902.0259            0    2487.0859    17.845326    21.019437    21.771256    8166.3704    2181.6259    2042.2042    3237.4274   -1177.9218    1997.5793   -1137.1886   -3177.9409 
 2166000    259.17804     -3894.57   -3450.3477     -3894.57            0    1856.0462    17.858237    21.034645    21.787008    8184.1081    2156.8259    2152.0419    1259.2709   -8.9221055    108.37822   -1376.2662   -3228.8159 
 2167000    251.54723   -3912.1748   -3481.0314   -3912.1748            0    3457.2258    17.900531    21.084461    21.838606    8242.3934    3119.9228    2075.9875    5175.7671   -429.00872    1021.4558   -1131.5366   -3065.4492 
 2168000    252.36638   -3845.0945   -3412.5471   -3845.0945            0    1857.1886     17.81094    20.978935    21.729305    8119.2536     1892.317    600.89394    3078.3549     649.3232    760.48939    33.262869   -3192.6356 
 2169000    266.75658   -3865.6683   -3408.4566   -3865.6683            0    2134.3592    17.890182    21.072272    21.825981    8228.1064    3302.0162     2320.949     780.1124    1188.1766    620.51679    392.01703   -3152.3367 
 2170000    250.03097   -3878.1217   -3449.5772   -3878.1217            0    1273.7284     18.02158    21.227041    21.986286      8410.74    2046.0648    838.54567    936.57479   -97.727678   -227.69194   -409.46154   -3293.3391 
 2171000      262.152   -3934.1677   -3484.8481   -3934.1677            0    2795.4798    17.825099    20.995612    21.746579    8138.6324    3496.8237    1846.3526    3043.2632    928.02346    1444.9113    1.4667698   -3153.0425 
 2172000    261.15591   -3920.2196   -3472.6073   -3920.2196            0    2119.7738    17.860316    21.037093    21.789544    8186.9662    1366.7038    2159.2189    2833.3986     447.2143    425.39213    356.29239   -3219.5095 
 2173000    255.82582   -3903.8038   -3465.3271   -3903.8038            0    2184.1049    17.760909    20.920005    21.668268    8051.0253    2016.1918    2148.4863    2387.6365    657.48345   -103.12284    560.36657   -3208.8783 
 2174000    246.73496   -3890.0602   -3467.1649   -3890.0602            0    1766.9276    17.763608    20.923184     21.67156    8054.6958    2362.4733    1370.0994      1568.21   -300.58901    325.75395    203.55268   -3259.6049 
 2175000    262.20123   -3883.8802   -3434.4762   -3883.8802            0    2754.9858    17.712425    20.862896    21.609117    7985.2704     2841.513    3290.5446    2132.8999   -489.20632    1723.8417   -750.08533   -3113.6389 
 2176000    250.48116   -3903.4364   -3474.1202   -3903.4364            0    25.453917    17.793086    20.957905    21.707524    8094.8617   -877.92548    60.988057    893.29917    253.09227   -776.02594   -50.361588   -3471.1153 
 2177000    266.09918   -3906.6936   -3450.6087   -3906.6936            0    1980.5461    17.798661    20.964472    21.714325    8102.4727    1356.6715    1810.1359     2774.831     666.1497    590.07736   -2.9929358    -3216.575 
 2178000    242.95086   -3880.6521   -3464.2426   -3880.6521            0    561.38839     17.83629    21.008793    21.760232    8153.9704     -748.633     2413.545    19.253175    798.24159    18.933733    937.77831   -3397.4838 
 2179000    249.90602    -3917.271   -3488.9407    -3917.271            0    309.14335    17.875274    21.054712    21.807793    8207.5535    1232.3678     -83.0766   -221.86112   -2059.2607    635.23591   -491.23837   -3451.9366 
 2180000    256.14113   -3917.1644   -3478.1473   -3917.1644            0    334.50048    17.856674    21.032803      21.7851    8181.9584    274.51606    1254.0752   -525.08983   -700.46851    883.74117    94.223134   -3438.2328 
 2181000    250.82127   -3926.7403   -3496.8412   -3926.7403            0     1695.607    17.870432    21.049009    21.801886    8200.8858    1101.1174    773.97228    3211.7314   -881.92626   -507.48005   -389.04675   -3294.0441 
 2182000    274.96676   -3932.7558   -3461.4722   -3932.7558            0    2413.1826    17.793183    20.958019    21.707641    8094.9935    2006.5776    2692.8061    2540.1642    1.4177225   -79.274098   -598.27858   -3176.5786 
 2183000    255.95748   -3958.0879   -3519.3855   -3958.0879            0    1276.0178    17.876997    21.056741    21.809894    8209.9267     817.2867     1822.865    1187.9017   -687.03401   -1576.5759   -806.20563   -3366.6036 
 2184000    253.00116   -3955.4475   -3521.8122   -3955.4475            0    2243.9562    17.899408    21.083139    21.837236    8240.8424    2548.0273    3848.6708    335.17062   -274.28709   -1278.7312    178.14983    -3252.124 
 2185000    257.81518   -3913.3297   -3471.4433   -3913.3297            0    2047.8446    17.889576    21.071558    21.825241    8227.2702    1718.2407    3356.4863    1068.8069    644.28428    142.61078   -871.24707     -3225.73 
 2186000    259.48272   -3897.9227   -3453.1782   -3897.9227            0    2808.4868    17.942442    21.133827    21.889738    8300.4236    3242.7239     3602.854    1579.8825    1181.0979    187.66917    1007.3896   -3113.2019 
 2187000    250.26987   -3918.5528   -3489.5988   -3918.5528            0    646.28221    18.024426    21.230393    21.989758    8414.7252    1013.1631    1349.8908   -424.20729    270.20803   -169.66723    -706.2772    -3410.287 
 2188000    270.17192   -3907.1175   -3444.0521   -3907.1175            0    349.22856    18.005535    21.208142    21.966711    8388.2949     763.3949   -437.47111    721.76189   -109.94609    877.01184   -226.08627   -3401.3294 
 2189000    239.20238   -3898.6662   -3488.6815   -3898.6662            0    1005.5093     17.89831    21.081845    21.835896    8239.3257    602.19617    1815.0559    599.27589    211.62474   -774.26891    671.87493   -3367.8574 
 2190000    264.01404   -3871.7323   -3419.2213   -3871.7323            0    1977.6956     17.86151      21.0385    21.791001    8188.6085      1355.03    3000.5916    1577.4653    148.68551    -464.6422   -614.27258     -3183.04 
 2191000    257.96161   -3900.9833   -3458.8459   -3900.9833            0    1240.5745    17.816138    20.985057    21.735646    8126.3638    1704.2563    1952.6061    64.861076    -1006.298   -11.906856   -60.385479   -3311.8196 
 2192000    265.63084   -3904.9798   -3449.6977   -3904.9798            0    1519.0533    17.854899    21.030713    21.782936    8179.5199    2333.1714    1810.5551    413.43334    1173.5603    788.93549    268.60357     -3268.49 
 2193000     257.3202   -3919.1829   -3478.1449   -3919.1829            0    1200.4775    17.930421    21.119667    21.875072    8283.7511    1849.1612    2306.5095   -554.23814    503.72744   -1612.9193    524.88632   -3333.1152 
 2194000    257.13222   -3888.3182   -3447.6024   -3888.3182            0   -570.87888    17.870137    21.048661    21.801526    8200.4798   -554.94146   -884.24565   -273.44952    198.85072   -240.37332   -344.62174    -3515.877 
 2195000    249.68396   -3912.3982   -3484.4484   -3912.3982            0    2070.5642    17.838597    21.011511    21.763047     8157.136    3107.8689    2537.7009    566.12269    777.42553   -337.11489   -503.20384    -3238.127 
 2196000    249.89303   -3897.4284   -3469.1203   -3897.4284            0    1676.4292    17.791888    20.956494    21.706062     8093.227    1652.8881    2182.4593    1193.9402   -376.93175   -1946.2544   -673.69067    -3271.249 
 2197000    256.61223   -3915.9642   -3476.1397   -3915.9642            0    1234.9098     17.79874    20.964565    21.714422    8102.5813    625.38881    2117.4821    961.85847   -572.85442    1146.5296    640.56303   -3330.2131 
 2198000    254.61142   -3886.4968   -3450.1016   -3886.4968            0    1548.7896    17.853485    21.029047     21.78121    8177.5767    3218.2773    -289.3335    1717.4251   -607.50709    114.36753    1486.7852   -3265.3905 
 2199000    265.74037   -3903.0471   -3447.5772   -3903.0471            0    1641.2331    17.768485    20.928928     21.67751    8061.3312     1849.378    3159.9863    -85.66497   -218.05994   -846.73599    24.750129   -3254.6235 
 2200000    260.91429   -3938.7708   -3491.5726   -3938.7708            0     865.8966    17.861163     21.03809    21.790577    8188.1307    1180.0728    1134.2595    283.35745    144.34797   -653.75881    990.53223   -3388.1711 
 2201000    243.66115   -3907.0996   -3489.4728   -3907.0996            0    652.95967    17.855022    21.030858    21.783085    8179.6884    239.83385    1640.8367    78.208459   -749.30478   -1046.4994    1014.1954   -3411.5797 
 2202000    256.99176   -3934.5726   -3494.0975   -3934.5726            0     1083.039    17.887297    21.068873    21.822461    8224.1261    899.43435    539.26567     1810.417   -154.17301    -683.6681     1134.579   -3364.1974 
 2203000    246.90778   -3944.0096   -3520.8181   -3944.0096            0    2228.9988    17.804787    20.971687    21.721798    8110.8413    3675.2218    2277.4917    734.28296    1162.2714   -827.75291   -573.37632   -3257.1536 
 2204000    236.02314   -3924.7823   -3520.2467   -3924.7823            0    1009.3029    17.817663    20.986853    21.737507    8128.4509    2770.9595    449.54853   -192.59941   -269.16076   -1271.4582    336.21627   -3400.5988 
 2205000    239.35413   -3905.8187   -3495.5739   -3905.8187            0    404.26403    17.887596    21.069225    21.822825    8224.5376    1415.9714   -989.87294     786.6936   -139.39543   -131.14853     78.61505   -3447.0839 
 2206000    246.13189   -3910.3931   -3488.5314   -3910.3931            0    1675.5821    17.850594    21.025642    21.777683    8173.6047    3369.2965    2080.6387   -423.18873   -163.63791   -231.13574    1416.6872   -3288.7959 
 2207000    245.70685   -3900.2832     -3479.15   -3900.2832            0   -152.30135    17.765559    20.925481     21.67394    8057.3492    39.653677   -1516.5491    1019.9914    990.30149    196.06706   -405.58297   -3497.0467 
 2208000    247.48022   -3864.5412   -3440.3686   -3864.5412            0    1721.8396     17.71239    20.862856    21.609075    7985.2244    2580.7294    1426.7566    1158.0328   -788.58958    1081.5401    623.77491   -3239.8495 
 2209000    260.32969   -3929.2639   -3483.0678   -3929.2639            0    1971.2579    17.708551    20.858334    21.604391    7980.0329    1121.4779     3392.188    1400.1079     58.87761   -1278.3153    352.87771   -3253.6516 
 2210000    258.37573   -3890.4864   -3447.6392   -3890.4864            0    1202.7917    17.773815    20.935207    21.684013    8068.5888   -120.62957    2068.2386    1660.7661    29.533887   -184.87016   -1153.4007   -3306.1042 
 2211000    251.83931   -3904.4871   -3472.8432   -3904.4871            0    865.57434    17.738194    20.893249    21.640555    8020.1738    466.32058    1519.6497    610.75276    200.74214    299.79765   -318.28207   -3371.6004 
 2212000     259.1199   -3901.6209   -3457.4982   -3901.6209            0    913.68005    17.752783    20.910434    21.658354    8039.9793    173.67347    1125.8839    1441.4827   -1495.0168   -1095.2829    920.71448   -3350.3648 
 2213000    255.94756   -3886.0737   -3447.3884   -3886.0737            0    466.12712    17.695887    20.843417     21.58894    7962.9239   -509.74605    351.97074    1556.1567    748.42341   -953.34812    931.16871   -3393.2565 
 2214000    258.89563   -3918.1522    -3474.414   -3918.1522            0    1476.4357     17.72132    20.873375     21.61997     7997.308    1754.3126    2907.7953    -232.8009   -525.86917    554.00688   -1246.7219   -3302.2135 
 2215000    241.42349   -3941.2067   -3527.4151   -3941.2067            0    1606.8174    17.581858    20.709106    21.449825    7809.9789    3160.4008     269.4535     1390.598    1282.8489     453.9746    820.70175   -3344.3977 
 2216000    253.07521   -3903.4371   -3469.6749   -3903.4371            0     652.5301    17.690417    20.836975    21.582268    7955.5429    578.60838    765.52224    613.45969    1081.3202   -136.35646    64.711812   -3393.9661 
 2217000    239.77887   -3898.1468    -3487.174   -3898.1468            0    660.76369    17.703227    20.852063    21.597896    7972.8378     227.9826    650.68297    1103.6255   -294.43913    850.32122   -866.40203   -3410.3433 
 2218000    259.56221   -3901.0777    -3456.197   -3901.0777            0     2952.707     17.68553    20.831218    21.576305    7948.9508    5482.0865    1631.8657    1744.1689    51.372624     931.0246    -295.8147   -3113.8976 
 2219000    260.49029   -3891.4327   -3444.9612   -3891.4327            0     720.2603    17.761059    20.920181     21.66845    8051.2281     501.8162    597.75678    1061.2079    107.19985    737.11913   -82.880316   -3360.3891 
 2220000    248.52424    -3924.978    -3499.016    -3924.978            0    1533.4392    17.659022    20.799995    21.543965    7913.2614    691.72581    957.77942    2950.8124   -1304.9397   -451.05528    614.30274   -3322.0467 
 2221000     254.3519   -3917.3994   -3481.4489   -3917.3994            0    1441.0284    17.700788     20.84919     21.59492    7969.5428    2252.9604    475.70817    1594.4166   -754.67347    236.94123    331.66953   -3313.9616 
 2222000    256.88841   -3947.8715   -3507.5736   -3947.8715            0    704.45605    17.694702    20.842021    21.587495    7961.3245    1161.2195    1464.6664   -512.51775   -148.52784      1302.24   -600.09356   -3425.7808 
 2223000     246.2743   -3922.5791   -3500.4734   -3922.5791            0    1382.3736    17.675546    20.819459    21.564125    7935.4966    1512.0627    207.78807      2427.27    410.89314    255.60348    34.621351   -3340.4898 
 2224000    259.06222   -3891.9082   -3447.8844   -3891.9082            0    999.11013    17.825541    20.996133    21.747118    8139.2381  0.038027464    1343.5837    1653.7086    459.46307     1388.858   -1830.4857   -3329.2876 
 2225000    247.66146   -3908.5216   -3484.0383   -3908.5216            0    1836.8528    17.722322    20.874555    21.621192    7998.6643    2141.5683    2115.0427    1253.9475   -714.49212   -1273.1064   -177.30994   -3269.7652 
 2226000    255.46247   -3891.3397   -3453.4858   -3891.3397            0    195.65726    17.880906    21.061346    21.814664     8215.314   -1222.7449   -103.34966    1913.0664   -1092.4107    938.09784   -677.11538   -3430.0437 
 2227000    263.42613   -3875.7048   -3424.2014   -3875.7048            0    2022.8864    17.739044    20.894251    21.641593    8021.3275    1186.5534    2741.9176    2140.1883    487.65612   -257.11309   -1279.8803   -3187.5585 
 2228000    265.80086   -3894.1249   -3438.5513   -3894.1249            0    2577.1734    17.725034    20.877748      21.6245    8002.3361     2295.571      2602.21    2833.7393   -326.72024   -251.74656    -487.2515   -3137.7801 
 2229000    259.31516   -3908.8758   -3464.4185   -3908.8758            0    1697.9178    17.734097    20.888423    21.635556    8014.6174    1086.0139     2051.427    1956.3123    1673.7636    93.435935    616.91546   -3265.9575 
 2230000    268.29854   -3885.2091   -3425.3545   -3885.2091            0    1118.3133    17.709022    20.858889    21.604965    7980.6692    1687.5038   -251.69987     1919.136   -112.32859   -290.67614    190.42323   -3295.1942 
 2231000    257.64519   -3898.4366   -3456.8415   -3898.4366            0    163.98596    17.826728    20.997531    21.748567    8140.8642   -1202.1026    1671.0286    23.031894    -841.1322   -416.77236   -450.79216   -3437.3721 
 2232000    243.58146   -3878.4046   -3460.9143   -3878.4046            0    1381.4809    17.728433    20.881752    21.628647    8006.9409    1684.2841    1861.4417    598.71681    213.29402   -1046.8353   -1009.9266   -3299.5946 
 2233000    238.03351    -3879.886   -3471.9047    -3879.886            0    1116.5026    17.832786    21.004666    21.755957    8149.1662    2990.5709    821.45006   -462.51305    364.58296     227.5347   -154.73285   -3339.2115 
 2234000    263.90325   -3885.8128   -3433.4917   -3885.8128            0     3273.776    17.689381    20.835754    21.581003    7954.1447    3805.8393    4149.5626     1865.926    362.26814    -657.2551    548.47669   -3053.7237 
 2235000    260.38523   -3924.7026   -3478.4113   -3924.7026            0    1590.6746    17.683331    20.828629    21.573623    7945.9868    3649.0759    1622.8981   -499.95013    170.88491   -147.62337    1568.7165   -3294.0774 
 2236000    261.19522   -3910.0477    -3462.368   -3910.0477            0    1345.5714    17.755905     20.91411    21.662162    8044.2211    325.22395    2757.3539    954.13646   -763.62098    61.346831     470.3789     -3304.51 
 2237000    253.94809   -3880.8202   -3445.5618   -3880.8202            0    2866.2721    17.643173    20.781327     21.52463    7891.9744    4064.4527    1799.7012    2734.6623    375.40058    440.89889    437.07647   -3115.6644 
 2238000    254.30062   -3869.7978   -3433.9353   -3869.7978            0     1758.106    17.733803    20.888078    21.635198    8014.2196    1728.2049    2574.0657    972.04739   -1421.2178     801.5879   -1138.7241   -3228.4493 
 2239000    250.26434   -3893.6114   -3464.6669   -3893.6114            0    1780.0485    17.770162    20.930904    21.679556    8063.6147    1396.5324    1603.1763    2340.4369   -462.50157    2545.6373   -566.24823    -3255.334 
 2240000    248.11171   -3894.1634   -3468.9084   -3894.1634            0    2418.4948    17.705644     20.85491    21.600845    7976.1037    3479.4774    2195.6884    1580.3186    835.52294    142.49718     388.4515   -3187.5811 
 2241000    248.53431   -3928.5599   -3502.5806   -3928.5599            0    1287.9325    17.686978    20.832924    21.578072    7950.9037    748.46875    804.05757    2311.2712    361.83099    248.06025   -636.65017   -3353.2374 
 2242000    261.65904   -3917.8887   -3469.4141   -3917.8887            0     864.4315     17.72471    20.877367    21.624105    8001.8978    1609.3728   -589.63273    1573.5544   -173.68247   -866.81414    886.91589   -3368.5354 
 2243000    261.49159   -3852.9728   -3404.7852   -3852.9728            0    1570.9232    17.752809    20.910464    21.658386    8040.0145    379.98698    1498.9847    2833.7979   -263.83572    -1573.974     308.5011    -3220.586 
 2244000     255.0438   -3862.0404    -3424.904   -3862.0404            0    2661.8905    17.661346    20.802733    21.546801    7916.3866    3058.1232    2384.2921    2543.2562    1274.2627    391.78969    505.32129   -3117.5824 
 2245000    258.30897   -3841.4181   -3398.6854   -3841.4181            0    1475.6294    17.727018    20.880086    21.626921    8005.0248    2182.6523    1072.4944    1171.7415    1091.7973   -15.090614    343.01677   -3226.4129 
 2246000    256.91616   -3891.5961   -3451.2506   -3891.5961            0    1115.5605     17.74243    20.898239    21.645724    8025.9216     60.34982    325.49495    2960.8368   -471.63271    -216.7408     517.7492   -3320.6744 
 2247000    247.68401    -3882.221   -3457.6991    -3882.221            0    1823.3912    17.785703    20.949209    21.698516    8084.7888    2548.0552    536.20371    2385.9147    125.37669   -193.77132     -177.364    -3242.706 
 2248000    262.94704   -3862.6402    -3411.958   -3862.6402            0     2459.759    17.702644    20.851376    21.597184    7972.0498    3142.2071    1733.0891    2503.9809    7.3939187   -915.29605   -53.460794   -3125.9761 
 2249000    243.29651   -3886.8044   -3469.8025   -3886.8044            0    2246.9554    17.802636    20.969154    21.719174    8107.9026      2726.25    1427.0884    2587.5277     127.6112   -870.51554   -220.47741   -3204.1103 
 2250000    260.91971   -3851.4147   -3404.2072   -3851.4147            0    4057.6417    17.776542    20.938419     21.68734    8072.3031     5573.847    2555.1943    4043.8837   -1032.4379    462.77221    49.958541   -2926.5162 
Loop time of 363.637 on 64 procs for 250000 steps with 864 atoms

Performance: 118.800 ns/day, 0.202 hours/ns, 687.499 timesteps/s
193.7% CPU use with 32 MPI tasks x 2 OpenMP threads

MPI task timing breakdown:
Section |  min time  |  avg time  |  max time  |%varavg| %total
---------------------------------------------------------------
Pair    | 25.355     | 28.071     | 33.335     |  34.5 |  7.72
Bond    | 0.87214    | 1.0985     | 1.6603     |  17.0 |  0.30
Kspace  | 173.74     | 180.83     | 184.7      |  18.1 | 49.73
Neigh   | 3.2511     | 3.5805     | 3.8193     |   7.9 |  0.98
Comm    | 66.684     | 69.866     | 74.022     |  20.7 | 19.21
Output  | 0.4484     | 0.44872    | 0.45025    |   0.0 |  0.12
Modify  | 65.343     | 67.771     | 71.574     |  18.5 | 18.64
Other   |            | 11.97      |            |       |  3.29

Nlocal:        27.0000 ave          33 max          22 min
Histogram: 3 1 4 7 6 3 1 4 2 1
Nghost:        2335.66 ave        2393 max        2275 min
Histogram: 1 1 6 3 4 6 5 1 2 3
Neighs:        7655.53 ave        9578 max        6404 min
Histogram: 4 2 7 4 4 5 3 2 0 1

Total # of neighbors = 244977
Ave neighs/atom = 283.53819
Ave special neighs/atom = 2.0000000
Neighbor list builds = 12952
Dangerous builds = 0

unfix		3
unfix		2
unfix		1

write_data	data.final.${pid}
write_data	data.final.1
System init for write_data ...
PPPM initialization ...
  extracting TIP4P info from pair style
  using 12-bit tables for long-range coulomb (../kspace.cpp:340)
  G vector (1/distance) = 0.37201176
  grid = 24 24 25
  stencil order = 5
  estimated absolute RMS force accuracy = 0.0033308177
  estimated relative force accuracy = 1.0030658e-05
  using double precision FFTW3
  3d grid and FFT values/proc = 3822 576
Last active /omp style is kspace_style pppm/tip4p/omp
WARNING: Not all mixed pair coeffs generated from mixing. Use write_data with 'pair ij' option to store all pair coeffs. (../write_data.cpp:312)

write_restart   restart.lmp.${pid}
write_restart   restart.lmp.1
System init for write_restart ...
PPPM initialization ...
  extracting TIP4P info from pair style
  using 12-bit tables for long-range coulomb (../kspace.cpp:340)
  G vector (1/distance) = 0.37201176
  grid = 24 24 25
  stencil order = 5
  estimated absolute RMS force accuracy = 0.0033308177
  estimated relative force accuracy = 1.0030658e-05
  using double precision FFTW3
  3d grid and FFT values/proc = 3822 576
Last active /omp style is kspace_style pppm/tip4p/omp
Total wall time: 0:06:03
