LAMMPS (30 Jul 2021)
  using 1 OpenMP thread(s) per MPI task
package omp 0
using multi-threaded neighbor list subroutines
echo both

include		in.partitions
variable        pid world 0
include		in.temp
variable        temperature equal 261.95
variable	tempDamp equal 100.0
include		in.pressure
variable        pressure equal 3500.0
variable        pressureDamp equal 1000.0 # This is 1 ps
include		in.seed
variable        seed world 745823

units		real
atom_style	full

read_restart	restart.lmp.${pid}
read_restart	restart.lmp.0
Reading restart file ...
  restart file = 30 Jul 2021, LAMMPS = 30 Jul 2021
  restoring atom style full from restart
  orthogonal box = (-0.082596424 -0.073523072 -0.089001491) to (20.082597 20.073524 20.788999)
  4 by 4 by 4 MPI processor grid
  restoring pair style lj/cut/tip4p/long/omp from restart
  restoring bond style harmonic/omp from restart
  restoring angle style harmonic/omp from restart
  972 atoms
  648 bonds
  324 angles
Finding 1-2 1-3 1-4 neighbors ...
  special bond factors lj:    0        0        0       
  special bond factors coul:  0        0        0       
     2 = max # of 1-2 neighbors
     1 = max # of 1-3 neighbors
     1 = max # of 1-4 neighbors
     2 = max # of special neighbors
  special bonds CPU = 0.914 seconds
  read_restart CPU = 1.237 seconds
include 	in.setup
variable	out_freq equal 1000
variable	out_freq2 equal 10000
variable	out_freq3 equal 1000

timestep	2.0

neigh_modify    delay 7 every 1

include		in.tip4p
# This is TIP4P/Ice

# create groups ###
group ox type 2
324 atoms in group ox
group hy type 1
648 atoms in group hy

# set charges - beside manually ###
set group ox charge -1.1794
Setting atom values ...
  324 settings made for charge
set group hy charge 0.5897
Setting atom values ...
  648 settings made for charge

# ### TIP3P Potential Parameters ###
pair_style lj/cut/tip4p/long/omp 2 1 1 1 0.1577 8.5
pair_coeff 1 1*2 0.000 0.000
pair_coeff 2 2 0.21084 3.1668
bond_style  harmonic
bond_coeff  1 450 0.9572
angle_style harmonic
angle_coeff 1 55 104.52
kspace_style pppm/tip4p/omp 1.0e-5
pair_modify tail yes

thermo          ${out_freq}
thermo          1000
thermo_style    custom step temp pe etotal epair emol press lx ly lz vol pxx pyy pzz pxy pxz pyz enthalpy

restart 	${out_freq3} restart.lmp.${pid} restart2.lmp.${pid}
restart 	1000 restart.lmp.${pid} restart2.lmp.${pid}
restart 	1000 restart.lmp.0 restart2.lmp.${pid}
restart 	1000 restart.lmp.0 restart2.lmp.0


include         in.dump
dump            myDump all atom ${out_freq2} dump.water.${pid}
dump            myDump all atom 10000 dump.water.${pid}
dump            myDump all atom 10000 dump.water.0
dump            myDump2 all dcd ${out_freq2} dump.dcd
dump            myDump2 all dcd 10000 dump.dcd
dump_modify     myDump append yes
dump_modify     myDump2 append yes


variable natoms 	equal  "count(all)"                        # NUMBER ATOMS
variable H      	equal  "enthalpy/v_natoms"                 # ENTHALPY-per-atom
variable Vol      	equal  "vol/v_natoms"                 # volume-per-atom
fix AVG all 		ave/time ${out_freq} 1 ${out_freq} v_Vol v_H file vol_enthalpy.dat
fix AVG all 		ave/time 1000 1 ${out_freq} v_Vol v_H file vol_enthalpy.dat
fix AVG all 		ave/time 1000 1 1000 v_Vol v_H file vol_enthalpy.dat


timer           timeout 02:55:00 every 1000
New timer settings: style=normal  mode=nosync  timeout=02:55:00

fix 		1 all shake 1e-6 200 0 b 1 a 1
       0 = # of size 2 clusters
       0 = # of size 3 clusters
       0 = # of size 4 clusters
     324 = # of frozen angles
  find clusters CPU = 0.640 seconds
fix             2 all nph aniso ${pressure} ${pressure} ${pressureDamp}
fix             2 all nph aniso 3500 ${pressure} ${pressureDamp}
fix             2 all nph aniso 3500 3500 ${pressureDamp}
fix             2 all nph aniso 3500 3500 1000
fix             3 all temp/csvr ${temperature} ${temperature} ${tempDamp} ${seed}
fix             3 all temp/csvr 261.95 ${temperature} ${tempDamp} ${seed}
fix             3 all temp/csvr 261.95 261.95 ${tempDamp} ${seed}
fix             3 all temp/csvr 261.95 261.95 100 ${seed}
fix             3 all temp/csvr 261.95 261.95 100 745823


run             250000
PPPM initialization ...
  extracting TIP4P info from pair style
  using 12-bit tables for long-range coulomb (../kspace.cpp:340)
  G vector (1/distance) = 0.37185229
  grid = 24 24 25
  stencil order = 5
  estimated absolute RMS force accuracy = 0.0034765914
  estimated relative force accuracy = 1.0469652e-05
  using double precision FFTW3
  3d grid and FFT values/proc = 2366 288
Last active /omp style is kspace_style pppm/tip4p/omp
Neighbor list info ...
  update every 1 steps, delay 7 steps, check yes
  max neighbors/atom: 2000, page size: 100000
  master list distance cutoff = 10.8154
  ghost atom cutoff = 10.8154
  binsize = 5.4077, bins = 4 4 4
  1 neighbor lists, perpetual/occasional/extra = 1 0 0
  (1) pair lj/cut/tip4p/long/omp, perpetual
      attributes: half, newton on, omp
      pair build: half/bin/newton/omp
      stencil: half/bin/3d
      bin: standard
Per MPI rank memory allocation (min/avg/max) = 9.223 | 9.229 | 9.237 Mbytes
Step Temp PotEng TotEng E_pair E_mol Press Lx Ly Lz Volume Pxx Pyy Pzz Pxy Pxz Pyz Enthalpy 
 2000000    266.28691   -4656.6287    -4143.072   -4656.6287            0    3553.2829    20.165194    20.147047    20.878001    8482.0869    4037.5673     2966.311    3655.9706    291.93082    1330.1356   -830.18178   -3703.5219 
 2001000    260.54855   -4693.3255   -4190.8357   -4693.3255            0    2098.6524    20.330374    19.998835    20.771886    8445.5124    1242.1745    1731.8542    3321.9285   -182.92252   -931.37245    1211.9602   -3932.3465 
 2002000    263.25451   -4684.6083   -4176.8998   -4684.6083            0    2193.7962    20.183951     20.31325    20.688078    8482.1458     2947.353     904.1126     2729.923    1.0975484    13.240944   -614.59193   -3905.5198 
 2003000    253.37974   -4678.9612   -4190.2971   -4678.9612            0    3369.3575     20.05509    20.077496    20.879248    8407.1546    2794.4555     4744.721    2568.8961   -524.55758   -16.264566   -501.24145   -3777.1811 
 2004000    245.44613   -4689.7309   -4216.3674   -4689.7309            0    2214.8192    19.842624    20.152911     21.07986    8429.5544    2214.0501    2131.1368    2299.2706    953.63127    -581.9092   -322.63191   -3944.0855 
 2005000    257.49433   -4678.4903   -4181.8908   -4678.4903            0    2311.0873    20.125547     19.90781    21.206287    8496.4165    1292.2807    2772.1383    2868.8427    302.55626    208.88815   -1547.8406   -3895.5205 
 2006000    271.84552   -4681.5503   -4157.2734   -4681.5503            0    4558.9993    20.170111    19.953779    20.790139     8367.406     2515.403    6695.2262    4466.3687    370.99423    652.90311    933.03783   -3600.9385 
 2007000    257.22687   -4663.2934   -4167.2098   -4663.2934            0    3005.9255    20.177504    20.049759    20.919708    8463.1531     155.2257     4709.454    4153.0968    99.977344     1392.071    78.786144   -3796.1992 
 2008000    263.71489   -4674.9338   -4166.3375   -4674.9338            0    2710.6562    19.839425    20.019688    21.346582     8478.416    5490.1928    1126.1187     1515.657   -245.23969   -123.77068    307.60954   -3831.1676 
 2009000    274.97387   -4675.0264   -4144.7162   -4675.0264            0    3073.7344    20.108812    20.003143    20.936478     8421.477     1982.938    4235.9561    3002.3092   -280.38006   -742.70688    771.77097   -3767.2044 
 2010000     262.4081   -4661.1152   -4155.0392   -4661.1152            0    3405.0674     20.13943    20.108196    20.907148    8466.7173    3002.3758    4080.9097    3131.9169    520.71819   -727.80679     34.92123   -3734.5869 
 2011000    261.05702    -4684.542   -4181.0716    -4684.542            0     3002.587    19.966184    20.225518    20.987531     8475.319    3034.2518    4126.3319    1847.1773    542.45662   -798.82347   -210.44317   -3809.9403 
 2012000    269.95159   -4647.9004    -4127.276   -4647.9004            0    2798.5162     20.24687      19.9316    20.956113    8456.8922    1934.3777    3323.5723    3137.5986   -405.70503    253.45647    877.26408   -3782.1208 
 2013000    277.03217   -4668.4755   -4134.1957   -4668.4755            0    5141.6433    19.948808    20.128157    20.833063    8365.1569     5543.024    4410.1016    5471.8043    404.55528    971.58082    326.96413   -3506.9294 
 2014000    251.55232   -4674.0741   -4188.9343   -4674.0741            0    4549.1978    20.086423    19.999003    20.843608    8373.0533     3089.257    6480.1318    4078.2047   -227.84275    794.87343   -757.70433   -3633.4209 
 2015000    261.40156   -4684.1936   -4180.0587   -4684.1936            0    2220.7718     20.09588    20.106714    21.132136    8538.6959    2619.1725    2100.8585    1942.2845   -581.37577    1361.6934   -1553.5889   -3903.5102 
 2016000    257.30095   -4668.3558   -4172.1292   -4668.3558            0    4033.1208    20.109866    19.951973    20.887225    8380.6128     4891.861    3604.5692    3602.9323   -177.87551   -358.82514    858.38356   -3679.1905 
 2017000    267.12088   -4690.1773   -4175.0122   -4690.1773            0    5164.1785    20.238075    20.042353    20.612932    8360.9898    4333.8242    4813.3895    6345.3219    612.54142   -772.23745    199.40154   -3545.3106 
 2018000    261.82028   -4711.8633   -4206.9209   -4711.8633            0    2121.5874    20.176652     20.05215     20.83779    8430.6624    1694.0772    2655.6961     2014.989    58.866424    715.72643    1012.0319   -3946.0662 
 2019000    254.15708   -4679.2868   -4189.1235   -4679.2868            0    3425.3558    20.374798    19.811868    20.903693    8438.0435    1678.1312     5301.563    3296.3734    458.15751     514.0163    598.88945   -3767.5985 
 2020000    255.28416    -4678.814    -4186.477    -4678.814            0    3352.8026    19.913283    20.124923    20.938401    8391.1331    5633.1309    3131.5215    1293.7555    221.17022    365.85709    1303.9345   -3776.1742 
 2021000    264.15536    -4714.613   -4205.1672    -4714.613            0    4167.9029    20.035729    19.982047    21.005707    8409.7372    4760.3072    3301.4879    4441.9136   -483.20565    484.04882   -441.50359   -3693.9848 
 2022000    263.51691   -4686.3151   -4178.1006   -4686.3151            0    984.60689    20.373897    20.069469    20.822275    8514.0888    831.12973     248.6415    1874.0494      132.522    608.94084   -167.29498   -4055.8427 
 2023000    260.72432   -4702.2289   -4199.4002   -4702.2289            0    2827.2394    20.020832    20.261378    20.678869    8388.3758    3184.9076    1487.0621    3809.7484    14.754027   -930.49324     -473.012   -3853.5274 
 2024000     270.1371   -4655.9173   -4134.9352   -4655.9173            0    3415.1873    20.317243    20.026632    20.932919    8517.3107     2323.254    3794.8159    4127.4919    696.61193    625.85487    1144.7319   -3710.7134 
 2025000    276.87987   -4686.3394   -4152.3533   -4686.3394            0    4168.9993    20.060512    19.901755    20.974819     8373.974    3260.3471    5893.0554    3353.5955    97.614946     884.1878   -1525.5006   -3643.2108 
 2026000    274.74607   -4674.6375   -4144.7666   -4674.6375            0    2922.1711    20.024501    19.934546    21.108727    8426.1676    2103.5222    4478.6789    2184.3122    410.92822    136.69954    645.36851   -3785.6698 
 2027000    266.25987    -4644.991   -4131.4865    -4644.991            0     4919.006    20.322044    19.817959    20.792049    8373.8197    3061.9927    6785.7197    4909.3056   -444.03342    1042.0827   -446.86429   -3530.7599 
 2028000    265.48788   -4705.4423   -4193.4266   -4705.4423            0    3666.1482    20.082243     20.00627    20.789131    8352.4654    3234.2267    4125.3979    3638.8199    173.30415   -348.75118   -282.21984   -3746.8452 
 2029000    268.42224    -4688.528   -4170.8531    -4688.528            0    2517.8415    20.364046    20.118081    20.619325    8447.4391    276.51983    4487.1953    2789.8095    388.30952    1608.7469    324.38067    -3860.662 
 2030000    265.75006   -4663.2187   -4150.6974   -4663.2187            0    4207.8348    20.103712    20.040731    20.894623    8418.2987    1893.4559    5604.5069    5125.5415   -778.73838   -75.161208   -591.86483    -3634.092 
 2031000    272.46248   -4666.5794   -4141.1126   -4666.5794            0    3054.9097    20.002917    19.956489    21.075041    8412.9034     2605.059    4303.4517    2256.2184    -861.0771   -394.87454    2299.3608   -3766.2948 
 2032000     251.8979   -4647.6757   -4161.8694   -4647.6757            0    3871.5685    20.066694    20.060163    20.877392    8404.0091    3559.3899    4362.6291    3692.6866   -388.95681     180.3186    800.62984    -3687.355 
 2033000    270.61324    -4685.048   -4163.1476    -4685.048            0    4119.8707     19.89287    20.323883    20.692507    8365.9883    5762.5417    2198.1205    4398.9499    -421.8118    127.75056   -89.798105   -3660.4848 
 2034000    251.41982   -4692.2407   -4207.3565   -4692.2407            0    4178.7326    20.204509    19.956201    20.872637    8415.9569    3591.9577    4386.2716    4557.9686   -217.32559    575.85491   -293.01903   -3694.4668 
 2035000    243.80078   -4700.4104   -4230.2201   -4700.4104            0    3565.3673    19.908384    20.000006    21.107122    8404.1765    4719.4074    2104.7433    3871.9513   -265.21635   -419.48226    1034.2794   -3793.2262 
 2036000    257.94622    -4700.954    -4203.483    -4700.954            0    2507.3709    20.092178    19.784115    21.109729    8391.2429    3886.7619    2763.5083    871.84245    100.06915    862.91698    464.10857   -3896.6368 
 2037000    261.25848   -4691.1019    -4187.243   -4691.1019            0    3020.6357    20.109947     20.15116    20.894347    8467.1993    2161.3087    3309.1276    3591.4709    180.26259    142.06023    1306.5579   -3814.2385 
 2038000    270.10996   -4676.3524   -4155.4226   -4676.3524            0    5121.1307    20.421794    19.836881    20.698791    8385.1776     2087.145    6098.8115    7177.4355   -705.50388   -377.77466    732.40232   -3529.1636 
 2039000    269.67698   -4719.1316   -4199.0368   -4719.1316            0     4588.088    20.086495    20.117776    20.624185    8334.1431    6262.9548    1947.3072    5554.0019   -94.351766    9.1621176    46.620734    -3641.378 
 2040000    254.03487    -4673.807   -4183.8794    -4673.807            0    3660.0103    20.073289    20.088615    20.875534    8417.9458    5585.1087    1697.8759    3697.0465   -681.42951   -272.42875   -399.33092   -3734.5505 
 2041000    253.51674   -4657.9215   -4168.9932   -4657.9215            0    4136.0341    20.013921    19.975003    21.057935    8418.5015    2728.0687    5316.9246    4363.1088    105.99979   -882.44923    55.263955   -3661.1907 
 2042000    255.85884   -4679.6548   -4186.2095   -4679.6548            0    5428.0172     19.87562    19.954575    20.980417    8321.0337    7214.6724    3451.3881    5617.9911    -189.5756    1095.3551    1003.2196   -3527.4993 
 2043000    273.15656   -4679.5949   -4152.7895   -4679.5949            0    3518.6268    20.185465    20.071316    20.709193    8390.3059    4972.0559    1133.7772    4450.0475   -55.712689   -1079.0488    407.94072   -3722.2362 
 2044000    256.39296   -4697.1579   -4202.6825   -4697.1579            0    5357.4339    19.776045    20.291322    20.818469    8354.0792    6488.8621    5442.3152    4141.1244   -332.63849    161.92013    -133.9523   -3549.9559 
 2045000    249.05639   -4706.7738   -4226.4476   -4706.7738            0    3339.3511    20.080527    20.025407    21.021535    8453.1948    3890.8054    2568.6609    3558.5872    89.314737    1909.0645   -528.03197   -3814.7684 
 2046000    255.03909   -4692.3566   -4200.4922   -4692.3566            0    3652.6779    20.177358    20.120941    20.773047    8433.5957    4648.8894    2524.6174    3784.5269   -929.06839    1174.6446    57.643722   -3751.2299 
 2047000    264.60609   -4689.9715   -4179.6564   -4689.9715            0    4249.7483    19.936183    20.166482    20.790003    8358.4683    3476.7796    5408.9168    3863.5484    138.21646   -1023.7797    730.75368   -3661.6134 
 2048000    247.99352   -4690.2778   -4212.0014   -4690.2778            0    3616.3202    20.166983    20.142303    20.766648     8435.609    3041.2674    3203.5919    4604.1012    110.75214   -119.80169    221.17245   -3767.1047 
 2049000    259.37889   -4673.6839   -4173.4499   -4673.6839            0    3955.8604     20.19315    19.887923    21.008605    8437.0519    4350.3915    3992.2515     3524.938     347.6468   -56.946228   -167.69398   -3686.6981 
 2050000    263.90732   -4710.8686   -4201.9011   -4710.8686            0    2947.4387    19.841331    20.149206    20.927106    8366.3866     6088.722    336.34792    2417.2462   -102.73267   -669.18053    1843.3326   -3842.2689 
 2051000    287.12311   -4656.4675   -4102.7264   -4656.4675            0    3374.3374    20.114653    20.143936    20.862707    8453.3243    4811.8423    3285.9784    2025.1915    147.17604   -935.69517    977.50735   -3686.7278 
 2052000    244.32447   -4674.3003      -4203.1   -4674.3003            0    5386.7689    20.107081     20.20347    20.590809    8364.6623    6318.4114    3639.7736    6202.1217   -430.72758   -160.85062    521.17397    -3545.968 
 2053000     251.9451   -4701.7458   -4215.8485   -4701.7458            0    4024.5013    20.159694    20.053634    20.713883    8374.1077     4011.496    3392.4672    4669.5406   -24.591189    1930.9506    323.99856   -3724.3451 
 2054000    274.88202   -4686.8033   -4156.6702   -4686.8033            0    2285.5032    20.100008    20.037614    21.012008    8462.7167      2010.26    3017.2867    1828.9629    467.50678    437.13764    1295.1267   -3874.5933 
 2055000    264.78092   -4696.1727   -4185.5204   -4696.1727            0    2867.4491    20.099075     20.11275    21.109747    8533.5659    3166.9435    3140.9266     2294.477    718.71557    -675.0191   -168.94239   -3828.6569 
 2056000    273.37988   -4660.6728   -4133.4367   -4660.6728            0    4346.3054    20.189469    19.991759    20.784613     8389.148    4924.3217    3122.1808    4992.4138    497.71176    206.86739    770.41082   -3601.6788 
 2057000    242.37478   -4687.4042    -4219.964   -4687.4042            0    2471.2664    19.942003    20.106922    20.959173    8404.0476    2404.0807    3719.4811    1290.2376   -546.44015    1161.8987    397.53425   -3917.0747 
 2058000    259.33491   -4680.0529   -4179.9038   -4680.0529            0    2410.1341    20.320271    20.076864    20.673684    8434.1876    2641.2511    1680.0519    2909.0993    -709.7048    1358.6219    670.71524   -3883.4477 
 2059000     256.9458   -4677.5968   -4182.0552   -4677.5968            0    5118.5285    19.986487    20.073095    20.751813    8325.4333    6002.8204    3315.3666    6037.3986   -286.33307    1828.3249    928.44406   -3560.5742 
 2060000    275.40876   -4712.2905   -4181.1416   -4712.2905            0    3490.8265    20.210727    20.209848    20.781686    8488.3984    3990.8015    2365.8714    4115.8065    306.86447   -1169.0866    -114.7691   -3748.9961 
 2061000    263.33083   -4674.2202   -4166.3645   -4674.2202            0    4076.7749    20.204202    19.917314    20.911396     8415.027    4011.1403    4052.1354    4167.0491   -56.122385   -676.24062   -450.26733   -3666.0442 
 2062000    269.15232   -4656.1388   -4137.0559   -4656.1388            0    1318.9691    20.070981    20.225093    20.962836    8509.6005   -18.219512     2112.212    1862.9147    580.64607   -644.74796   -1065.9477   -3973.3669 
 2063000    272.94335   -4670.9019   -4144.5077   -4670.9019            0    4352.8673     19.96149    20.045026    20.983891    8396.2545     3738.709    5427.4353    3892.4576    263.82418    341.29453    -816.1478   -3611.4958 
 2064000    256.15173   -4673.5759   -4179.5658   -4673.5759            0    2127.9589    20.098171    20.173473    21.079183     8546.553    2783.5293    1400.8501    2199.4972    914.51539   -402.58616   -412.00966   -3914.3312 
 2065000    266.15109   -4702.2584   -4188.9636   -4702.2584            0    4578.4188    19.959204     20.01307    20.811982    8313.2409    4350.5497     4870.083    4514.6238   -251.39421    184.75652    1400.0215   -3633.8757 
 2066000    266.01111   -4644.6709   -4131.6461   -4644.6709            0     2998.683     20.24089    20.182861    20.751422    8477.3517    5069.8003    1934.4998     1991.749   -331.06505   -417.36636   -719.89351   -3760.9085 
 2067000    257.71342   -4683.8096   -4186.7876   -4683.8096            0    2778.7152    20.293002    19.956777    20.770331    8411.6292    958.77519    4552.2807    2825.0896    290.31193    48.361964    1370.5429   -3845.9088 
 2068000    262.63915   -4685.1123   -4178.5906   -4685.1123            0    2363.9487    19.982129     20.09745    21.165361    8499.7942    4087.9614     2224.237    779.64773    330.94971    129.30466   -823.13776   -3885.5537 
 2069000    257.46407   -4713.8799   -4217.3388   -4713.8799            0    1968.0792    19.972796    20.136944    21.139926    8502.2894    5094.4461   -223.29269    1033.0843   -13.748495    559.85753   -1030.6665   -3973.3025 
 2070000    261.11842   -4669.2768    -4165.688   -4669.2768            0    3023.8911    20.195051    20.018382    20.911792    8454.0569    4250.6603    1987.7387    2833.2742    49.642311     117.5875   -256.85282   -3792.8611 
 2071000    263.92442    -4679.436   -4170.4356    -4679.436            0     4313.533    20.218795    19.994073    20.777122    8399.2774    4883.1624    4385.3383    3672.0984   -28.432678     1019.547    1012.9112     -3642.05 
 2072000    271.27882   -4654.2811   -4131.0971   -4654.2811            0     3029.159    20.209586    20.073125    20.853291    8459.5453    2173.4812    2778.8138    4135.1819    260.97151    441.72752   -1409.6354   -3757.3783 
 2073000    253.91014    -4699.323    -4209.636    -4699.323            0    3366.3658    20.007932    20.030054     21.04663    8434.6464    4685.9205     4071.152     1342.025   -413.38996     1440.111    1020.5086   -3795.5371 
 2074000    251.99142    -4698.684   -4212.6973    -4698.684            0    2608.4758    20.044196    20.254127    20.813107    8449.6571    2156.3576    2657.3107    3011.7591   -160.86762   -43.456539   -100.74073    -3891.256 
 2075000    249.32416   -4672.4328   -4191.5902   -4672.4328            0    3808.8545    20.076005    19.792598     21.18994    8419.9557    3201.1097    5563.8809    2661.5728    -4.543342    1164.6761    732.01853   -3723.8765 
 2076000    271.65249   -4715.1185   -4191.2138   -4715.1185            0    1191.7303    20.150469    20.059857     21.08665    8523.5516   -106.60928    3176.8659    504.93434     -630.287    277.95034   -1194.0331   -4043.0731 
 2077000    242.03233   -4694.1692   -4227.3895   -4694.1692            0    3807.5695     19.93383    20.135109     20.91696    8395.4367    4286.1735    4051.9979    3084.5372    125.09452   -2172.9619    903.49405   -3761.1951 
 2078000    272.87294   -4663.8462   -4137.5878   -4663.8462            0    3822.6054    20.242802    20.043145     20.81875    8446.7795    4277.8545    2555.0515    4634.9101    19.266233    470.85448   -882.88101   -3666.6901 
 2079000     255.0552    -4693.986   -4202.0906    -4693.986            0    2149.6105    20.129831    20.164766    20.746208    8421.1624     2478.434    1521.3928    2449.0048    96.888222   -178.60671    1231.2491   -3938.0883 
 2080000    267.81817   -4672.0029   -4155.4931   -4672.0029            0    2847.7336    20.131537    20.022643    20.852973    8405.5538    3361.6909    2521.8831    2659.6269   -961.88302    318.94585    212.89539   -3806.3997 
 2081000     271.3927   -4686.7194   -4163.3158   -4686.7194            0    3375.4152    20.474395    19.985574    20.668643    8457.4541    839.54712    5189.0139    4097.6845   -629.88829   -98.613007    656.48735   -3746.9809 
 2082000    246.01231   -4676.5941   -4202.1386   -4676.5941            0    6157.4924    19.897341    20.107922    20.801478    8322.5502    7021.5417    5119.6923     6331.243    1219.3734   -1169.5452    894.87587   -3454.7677 
 2083000    263.88974   -4674.2298   -4165.2962   -4674.2298            0    3116.7583     20.10963    20.015967    20.982129    8445.5943    4261.9151    2672.6938     2415.666   -765.17985   -1977.8833    -934.7787   -3781.4041 
 2084000    268.88987    -4658.069   -4139.4923    -4658.069            0    3375.0129     20.00513    20.190214    20.875743    8431.8766    4228.2133    2385.7413     3511.084    -479.6044   -1129.5633   -216.98033    -3724.466 
 2085000    253.64513   -4693.8335   -4204.6575   -4693.8335            0    2984.5313    20.107266    19.967923    20.996886    8430.2568    3848.1591     3115.323    1990.1119   -166.78857    498.85456     1004.735   -3837.7194 
 2086000    253.56912   -4684.6507   -4195.6213   -4684.6507            0    3226.0046    19.969595    20.259185    20.825669    8425.3932    4172.9173    2399.0824    3106.0141   -100.40896    327.07973    844.72584   -3799.2237 
 2087000    254.70575   -4689.6574    -4198.436   -4689.6574            0    4259.3854     19.75676    20.313189    20.996412    8426.3385    4308.8007    3513.2857    4956.0698   -124.19499     987.6323    273.89781   -3675.0022 
 2088000    259.19972   -4677.3588   -4177.4703   -4677.3588            0    3403.0759    20.175435    19.945751    20.823486    8379.6667    2145.0733    4939.7778    3124.3765   -62.574785    80.547412    1058.6592   -3761.5844 
 2089000    256.12763   -4728.6062   -4234.6425   -4728.6062            0    3584.0578    20.102714    20.082975    20.773553    8386.7464    2760.5068    5004.9934     2986.673   -666.13618    1007.1144   -636.24898   -3796.2689 
 2090000    253.70378   -4679.8998   -4190.6107   -4679.8998            0    2894.3196    20.105489     19.97145    21.048231    8451.6178    3285.1834     2563.471    2834.3044   -445.37221   -989.28844    381.33932   -3833.8622 
 2091000    261.63551   -4703.0684   -4198.4823   -4703.0684            0    4313.5454     20.17617    19.871754    20.965659    8405.8848    4842.2771    4839.1206    3259.2384   -1101.7269    -613.7772   -72.763375   -3669.6795 
 2092000    256.61244   -4681.1696   -4186.2709   -4681.1696            0    3160.8039    19.979003     20.25059    20.849878    8435.5812    2089.0451    5314.4589    2078.9078    318.86577   -517.21782     610.6441   -3797.4152 
 2093000    267.34891   -4672.9806   -4157.3757   -4672.9806            0    4573.9091    20.146082     19.99392    20.787743    8373.2851    3785.8633    4939.4365    4996.4276    26.964998   -169.74963   -134.04676   -3598.8293 
 2094000    253.85903   -4679.1115    -4189.523   -4679.1115            0    3420.1878    20.128985    20.055146    20.906882    8439.8937    4644.4678    2915.5297    2700.5658    1193.1965    1072.0366   -61.560031   -3768.5417 
 2095000    246.84271    -4696.451   -4220.3941    -4696.451            0    3797.8104    20.103915    19.940187    21.042984    8435.6237     2796.189    4268.1238    4329.1184   -91.547126    2098.9605     568.5419   -3753.1688 
 2096000     268.7975   -4679.3968   -4160.9982   -4679.3968            0    2838.9393    19.959351    19.892187    21.294422    8454.6338    2090.5957    3833.3443     2592.878    533.12215    1176.9996    420.72615   -3810.9509 
 2097000    262.87802    -4682.683   -4175.7006    -4682.683            0    2190.0304    20.237033    19.892259    20.983048    8446.9418     1467.847    2908.5894    2193.6548     150.0627    2351.9222    140.35203   -3905.9108 
 2098000    275.07135   -4708.5314   -4178.0332   -4708.5314            0    1976.1504    20.105985    20.082295    20.874525     8428.597    2838.0786    1930.7474    1159.6252   -282.87187    158.57732   -4.5750249   -3935.1199 
 2099000    265.26669   -4699.3781    -4187.789   -4699.3781            0    3286.1193     20.32027    20.216814    20.537244    8436.9283    3861.0464    1741.8515      4255.46   -343.95869   -394.85722    184.36659   -3783.4519 
 2100000    259.09066   -4681.1114   -4181.4333   -4681.1114            0    3673.4413    20.271987    19.941098    20.921016    8457.2305    2064.3237    4239.5858    4716.4143    290.02656    716.79747   -497.11213    -3728.351 
 2101000    245.57667    -4698.571   -4224.9558    -4698.571            0    3383.9527    20.153915    19.843304    21.144747    8456.2131    1994.9366    5484.8467    2672.0747   -278.90805   -1748.9237    1001.6922   -3807.6291 
 2102000    267.02616   -4693.7139   -4178.7314   -4693.7139            0     2337.906    20.227856    20.108883    20.823657    8470.2223    2081.5848    1961.5265    2970.6066   -753.83927    38.881278    214.24898   -3889.9311 
 2103000    267.67698   -4688.0815   -4171.8439   -4688.0815            0    3791.2083    20.310006    20.053746    20.763753    8456.9043     3040.973    4001.8314    4330.8205    386.94085   -620.02946   -843.13445   -3704.2542 
 2104000    278.33373   -4704.4502   -4167.6602   -4704.4502            0    2683.8207    20.057993    20.072519    20.988705    8450.3558    3877.5505    2047.0627    2126.8489    209.48245   -471.59497   -377.37564   -3836.9068 
 2105000    265.22276    -4644.757   -4133.2526    -4644.757            0    3864.6529    20.109794     19.92001    20.999855     8412.275     2501.836     5525.694    3566.4287    47.923029   -675.81998    456.61047   -3659.1199 
 2106000    252.48829   -4693.7708   -4206.8259   -4693.7708            0    4097.7376    19.912994    20.085754    21.152078    8460.1436    5129.7015    3697.2811    3466.2303   -128.82881   -570.61617    164.56131   -3701.2367 
 2107000    255.34834   -4661.1935   -4168.7328   -4661.1935            0     3851.802    20.079583    20.108415    20.892898    8435.8961    4181.0418    2691.7357    4682.6286   -645.63074   -360.62039    274.97557   -3694.8498 
 2108000    267.14351   -4678.1451   -4162.9364   -4678.1451            0    3398.6588    20.270129    20.081743     20.66781    8413.0286    2126.8294    2634.9286    5434.2184    141.82484   -121.20465    191.79347   -3745.9366 
 2109000    263.31777   -4682.1131   -4174.2826   -4682.1131            0    4404.3478    19.986238    20.258026    20.770519    8409.6038    4662.8221    3920.1124    4630.1091   -90.093101    678.58933    578.61319   -3634.1094 
 2110000    260.34535    -4663.817   -4161.7191    -4663.817            0    2611.7387    20.206354    20.157122    20.853329    8493.6015    1408.5159    2596.8409    3829.8591    247.57238   -771.29034   -746.81434   -3838.2018 
 2111000    276.20886   -4678.8828   -4146.1907   -4678.8828            0    5618.7902    20.207434    19.783842    20.925877    8365.7613    5486.5578    5977.8465    5391.9665   -586.65439   -1374.7977   -1543.2827   -3460.6643 
 2112000    262.31541   -4668.3473     -4162.45   -4668.3473            0    4157.2192    19.894176    19.942264     21.04413    8348.9411    5832.9523    3592.8841    3045.8213     108.6115    1072.4668   -833.88227   -3656.2639 
 2113000    254.85338   -4701.5987   -4210.0925   -4701.5987            0    4397.7462    20.092354    19.949752    20.975741    8407.8633     4478.708    3861.0468    4853.4839    368.78835     56.18106   -793.03496   -3670.8406 
 2114000    267.76911   -4688.1871   -4171.7718   -4688.1871            0     2456.397    20.010752    20.302149     20.70408    8411.2659     2657.408    2340.8396    2370.9433   -380.36723    1247.4411    176.32563   -3870.4464 
 2115000    269.01984   -4697.7652   -4178.9378   -4697.7652            0    3672.5466     20.17379    19.983284    20.746248     8363.613    1332.9327    5344.4282    4340.2788   -390.47914    1415.3401    268.69045     -3730.98 
 2116000    259.49988    -4705.277   -4204.8097    -4705.277            0    2520.5761    19.885306    20.229406    21.046722     8466.421    4434.9101    1071.0729    2055.7452    95.095768    250.66909    683.02289   -3893.5839 
 2117000    248.89285   -4696.3107   -4216.2999   -4696.3107            0    3535.2347    20.243111      19.8732    20.917666    8415.0809    2507.1357     3701.246    4397.3225     67.54027    -138.0433   -142.71179   -3782.4371 
 2118000    249.35156   -4677.3647   -4196.4692   -4677.3647            0    3649.7004    19.929939    20.015379    20.928905    8348.6508    4504.2589    3820.2633    2624.5791     -692.008    298.02889    69.920861   -3752.0945 
 2119000    240.11125   -4670.3856   -4207.3109   -4670.3856            0    2882.8844    20.234194    20.108645     20.72107    8431.0351    592.93609    3901.9883     4153.729   -559.97093    346.08637   -530.04227   -3852.8372 
 2120000    265.38538   -4685.9612   -4174.1432   -4685.9612            0    4671.7646    20.023655    20.121028    20.808765    8383.7793    5539.6676    4409.6849    4065.9414    621.21262   -1066.6436   -1207.1597    -3602.932 
 2121000    258.66363   -4716.5676    -4217.713   -4716.5676            0    4966.8477     20.09226    19.801135    21.056245    8377.2177    5998.5302    4809.0117    4093.0011    706.60279   -17.658303    1635.8738   -3610.8977 
 2122000    254.42105   -4641.9689   -4151.2965   -4641.9689            0    3006.8287    19.785569    20.296317    21.138562    8488.7005    5742.8498    1381.0323    1896.6041   -208.75584    122.01789    48.977436   -3779.0542 
 2123000    253.62253   -4670.3455   -4181.2131   -4670.3455            0    1547.1008    19.958926    20.256558    20.904817    8451.7997    3778.5129   -642.42443    1505.2138   -421.62771   -492.92599    830.94401   -3990.5162 
 2124000    258.88846   -4670.3552    -4171.067   -4670.3552            0    2853.2692    20.279596    20.243591    20.720862    8506.5738    2734.6701    2192.4031    3632.7343    289.96615    746.86143   -951.69987   -3817.0914 
 2125000     274.6098   -4680.8994   -4151.2913   -4680.8994            0    3858.3502    19.998785    20.116138    20.878039    8399.1998     2849.938    5415.6004    3309.5122   -542.93995   -120.46531    114.22709   -3678.6677 
 2126000    251.13148   -4695.3161   -4210.9879   -4695.3161            0    1440.0474    20.130466    20.119195    20.969893    8492.9911    1162.0114    1355.8413    1802.2893    -176.7247   -169.04588     298.7548   -4032.6214 
 2127000    262.01588   -4699.7932   -4194.4735   -4699.7932            0    3849.8624     20.01208    20.051308    21.135315    8480.9332    2575.8382    5502.0247    3471.7243    -387.1345   -30.388855   -66.507394   -3718.3005 
 2128000    243.72634   -4664.9895   -4194.9428   -4664.9895            0    5624.3141    20.200306    19.879494    20.902716    8393.9427    5067.7062    6375.4991     5429.737   -135.76593    434.94134    66.516445   -3506.4309 
 2129000    264.10549   -4645.7604   -4136.4107   -4645.7604            0    2697.0202    20.135929    20.121989     20.85669     8450.608    2352.8805    2305.3877    3432.7924    591.39614    1138.9303   -151.81041   -3804.0206 
 2130000    245.98605   -4694.0538    -4219.649   -4694.0538            0    2757.0114    20.080675    20.010155    20.810504    8362.0231    3831.3747    2105.4673    2334.1921   -718.68545   -32.816613    52.873949   -3883.4273 
 2131000    246.61944   -4699.9106   -4224.2842   -4699.9106            0    2399.2042    19.865319    20.390826    20.848095    8444.9431    1900.8295    3565.4753    1731.3078    509.49239    1258.4794    722.88547   -3928.7962 
 2132000    275.17364   -4678.8076   -4148.1121   -4678.8076            0    3587.7469    20.059178     20.06279    20.909148    8414.7417    5172.3958    3566.1854    2024.6597   -247.76756    459.46836    165.06358   -3707.8224 
 2133000    277.48526   -4676.6399   -4141.4863   -4676.6399            0    4415.7367    19.974151    19.888034    21.127872    8392.9753    2584.2908    6404.3715    4258.5478    423.47362   -181.01506    -914.0825   -3600.9871 
 2134000    257.53603   -4699.8462   -4203.1663   -4699.8462            0    3324.4554    20.219192    20.147483    20.649243    8411.7963    1302.3885    3566.5338     5104.444   -1.0760714    378.32265    16.344454   -3795.3307 
 2135000     268.0407   -4706.8608   -4189.9218   -4706.8608            0    4280.1319    20.181817     20.12681    20.623605    8377.2173    4692.1315    3114.8134    5033.4508   -187.29824    215.91529    1526.5944   -3667.0047 
 2136000    267.59371   -4689.4162   -4173.3392   -4689.4162            0    3294.2646    20.109034    19.929921    20.914858     8382.078    4308.8482    3295.9739    2277.9716    57.947453    94.829217    684.17236   -3770.6351 
 2137000    264.48135   -4712.0366   -4201.9621   -4712.0366            0     4697.976    19.808883    19.998742    21.181887    8391.2625     5994.179    4851.0299    3248.7192   -39.745049    38.540734    84.427663   -3627.0334 
 2138000     258.6753   -4692.5583   -4193.6813   -4692.5583            0     2197.192    19.996754    20.255652     20.87296    8454.5362    2842.7098    1191.6983    2557.1678    362.93919    1425.4123   -712.27695   -3922.7659 
 2139000    250.54628   -4714.5522   -4231.3526   -4714.5522            0    3734.1749     20.08026    19.884345    20.866621    8331.6834    3560.6676    4995.8217    2646.0355     203.4166    654.61588    621.16095   -3777.6165 
 2140000    259.29039   -4667.8434   -4167.7801   -4667.8434            0    5976.5999    19.849999    20.044906    21.145952     8413.792    7450.8116    5788.4713    4690.5168   -426.07249   -66.566743   -690.41839   -3434.4123 
 2141000    268.95594   -4701.2406   -4182.5365   -4701.2406            0    4120.9445     20.18593    19.793909    20.872615    8339.8295    3473.8304    4368.9841     4520.019   -923.14836    873.94162    712.11843   -3681.3148 
 2142000    262.22849   -4686.0319   -4180.3022   -4686.0319            0    2370.7903    20.070159     20.10801     20.90644     8437.232    2572.3502    1835.5943    2704.4265   -136.61893    37.166483    357.70564   -3888.5803 
 2143000    267.03114   -4696.9891   -4181.9971   -4696.9891            0    2615.8983    20.278473     19.91917    20.845921       8420.3    2912.5985    1840.3032    3094.7932    153.23196   -282.43365    343.73935    -3860.761 
 2144000    270.06093   -4701.2327   -4180.3975   -4701.2327            0    3289.1274    20.080427    20.117571    20.631381    8334.4471    3125.9276    3698.2743    3043.1802    915.75975    153.45087   -194.81383   -3780.6062 
 2145000    261.65705   -4696.3085   -4191.6809   -4696.3085            0    4433.7072    20.256374    19.912218    20.795423    8387.8198    2420.9141     5547.441    5332.7665   -462.07198    166.44515    484.83609   -3649.3155 
 2146000    257.77309   -4698.0154   -4200.8783   -4698.0154            0    2873.6113     19.82682    20.116432    21.137439    8430.5594    4828.4207    1145.2156    2647.1977    118.35937   -1082.0906    -451.3226   -3847.5647 
 2147000    248.26359   -4696.3657   -4217.5685   -4696.3657            0    2726.5589    20.123501     19.89901    20.914541    8374.9716    2517.3999    3536.2566    2126.0203    831.92924    350.82444    266.60846   -3884.5456 
 2148000    249.63713   -4675.1474   -4193.7012   -4675.1474            0    3869.1874     20.07048    20.131303    20.856659     8427.027    2794.8531    4896.6984    3916.0106    867.72123   -233.81232    881.48228   -3718.1799 
 2149000    279.55478   -4692.9767   -4153.8318   -4692.9767            0    3856.3714    20.063913    19.985407    20.913974       8386.2    3909.1921    4857.6173    2802.3048    255.53787    1222.5105   -166.34108   -3682.1816 
 2150000    264.24423   -4698.9014   -4189.2841   -4698.9014            0    3571.9792    20.035934     20.13411    20.908199    8434.4863    5053.7351    2829.7453    2832.4571    544.91548   -1586.8575    33.982526   -3749.9009 
 2151000    276.70672   -4671.3211   -4137.6689   -4671.3211            0    3411.2274    20.165086    20.041872     20.78185    8398.9032    279.14337     6183.969      3770.57   -458.56954   -449.98947   -900.92239   -3719.8297 
 2152000    277.46095   -4689.7624   -4154.6556   -4689.7624            0    4272.7849    19.990987    20.060537    20.821295    8349.9622    4682.5079    3373.4031    4762.4437   -319.05516    1632.1881    -75.14388   -3634.3345 
 2153000    259.13436   -4690.7613   -4190.9989   -4690.7613            0    4302.8146    19.943722    20.182977    20.950873    8433.2223    5226.2123    4703.5646    2978.6669   -419.65282   -269.75052    348.79331   -3661.7962 
 2154000    262.72692   -4681.6032   -4174.9123   -4681.6032            0    2145.5556    20.101417    20.194242    20.846014    8462.0826    1694.8657      3033.85    1707.9512   -342.67503   -297.80577    -612.8364   -3910.1276 
 2155000    257.15642   -4672.2888    -4176.341   -4672.2888            0    3505.7419    20.084687    20.160856    20.776195      8412.79    2226.2707    3885.9529    4405.0022   -204.31531   -78.197874   -772.40379   -3746.2148 
 2156000    247.07751   -4687.7673   -4211.2575   -4687.7673            0     1680.313    20.182938    20.090531    21.013042     8520.493    3291.7116    10.594813    1738.6326    21.244664   -555.51497   -332.36354   -4002.4574 
 2157000    263.12182   -4679.2951   -4171.8425   -4679.2951            0    2874.3534    20.137354    20.145926    20.892037    8475.5996    2165.7874     4617.804    1839.4689   -508.53839    935.58558    188.55941   -3816.5497 
 2158000    252.91774   -4699.4135   -4211.6404   -4699.4135            0    1166.2598    20.068912    20.217783    20.911523    8484.8275    647.31243    1383.1516    1468.3153    7.7218561    145.52572    816.31149   -4067.3245 
 2159000    262.59891   -4709.3973   -4202.9532   -4709.3973            0    2728.2086    20.072514    19.944123    20.954339    8388.6232    1495.3502    4041.8272    2647.4485   -634.83228    407.03167    297.79221   -3869.1856 
 2160000    268.59316   -4689.5801   -4171.5756   -4689.5801            0    3467.4385    20.000388    20.191711    20.827282    8410.9324    4303.7971    2064.0508    4034.4676   -393.12422    686.55298   -457.99455   -3746.2428 
 2161000    261.30851   -4707.5278   -4203.5724   -4707.5278            0    2184.6155    20.271077    20.043573     20.78943    8446.8455    514.44863    1910.9146    4128.4834    70.371704    681.36027    522.49723   -3934.4527 
 2162000    263.30994    -4687.885   -4180.0697    -4687.885            0    2904.3035    20.100227    20.166766    20.910821    8476.3383    1148.2945    4000.3484    3564.2676   -70.346054    -640.5793    300.29268   -3821.0434 
 2163000    262.90669   -4681.7977   -4174.7601   -4681.7977            0    4629.0516    19.965876    20.055806    21.111549    8453.7341    4352.6536     5742.673    3791.8282    92.535847   -655.18069    238.78376   -3604.0487 
 2164000    265.07984   -4709.5517   -4198.3229   -4709.5517            0    4186.6441    20.098743    20.061173    20.803248      8387.96    3779.4331    3907.3779    4873.1213   -694.38627    1975.5633    585.81705   -3686.1716 
 2165000    269.41325   -4714.1565   -4194.5704   -4714.1565            0    2666.9294    19.852975    20.254857    20.963305    8429.7472    5136.2174    736.44864    2128.1223    -34.53849   -1127.8207    731.35123   -3866.7001 
 2166000    258.48755    -4663.908    -4165.393    -4663.908            0    4355.8323    20.159937    19.975113    20.932345    8429.3931    5362.7176     4432.907    3271.8723   -257.42026    462.92304    925.17954   -3629.9129 
 2167000    268.61464   -4698.1461   -4180.1002   -4698.1461            0    3544.6654    20.078307    20.028114    20.864196     8390.132    2912.7515    4406.0951    3315.1497    552.97789    694.86894   -463.91316   -3746.3697 
 2168000     269.6937   -4656.6566   -4136.5296   -4656.6566            0    5407.3338    20.003559    20.168346     20.71807    8358.4715    5153.0957    6814.4223    4254.4835    1105.5638   -948.57337    675.82637    -3477.377 
 2169000    281.68261   -4689.3834   -4146.1348   -4689.3834            0    4563.1067    20.072678    19.953872    20.931208    8383.5277    4710.2886    4902.7889    4076.2426   -16.152215    360.16326   -690.06493   -3588.2259 
 2170000    261.52654   -4680.4119    -4176.036   -4680.4119            0    2101.5289    20.044331    20.077534    21.213162     8537.041    3443.0636     1782.548    1078.9751   -553.89943    309.02836    150.17399   -3914.3872 
 2171000    264.64007   -4673.6048   -4163.2242   -4673.6048            0    3089.4376    20.216055    20.005905    20.797639    8411.4073     1468.454    4894.0926    2905.7661    -744.9998   -335.85419   -4.4203309   -3784.2375 
 2172000    266.79273   -4706.3889   -4191.8567   -4706.3889            0    4255.0814    20.053401    20.156674    20.725351    8377.3914    5476.4569    2947.0198    4341.7675    -827.2305    87.004706   -246.55343   -3671.9893 
 2173000    252.08207   -4694.2935    -4208.132   -4694.2935            0    4965.0026      20.0682     20.12678    20.830162    8413.4743    5345.2468     4935.744    4614.0171    385.28073    89.598503   -85.623083   -3598.9168 
 2174000    263.68295   -4683.3839   -4174.8491   -4683.3839            0    3937.2039    19.930231    19.977505    21.252008    8461.6207    1938.8927    5746.7525    4125.9665   -465.07337   -197.42369   -684.30763   -3688.9822 
 2175000    255.78698   -4680.0093   -4186.7026   -4680.0093            0    3604.0005    19.893142    20.143042     20.92048    8383.0121    3203.9721    2691.9935    4916.0359     117.7643   -48.172615    298.35068    -3746.086 
 2176000    258.65428   -4704.5311   -4205.6946   -4704.5311            0     3945.739    20.127534    20.097539    20.782813    8406.9366    2015.5628    5354.7854    4466.8688    668.47889    930.96502   -332.48509   -3721.9212 
 2177000    260.56614   -4679.8403   -4177.3166   -4679.8403            0    1501.8837     20.12478    20.300589    20.775924    8487.8975    2154.7645    457.75439    1893.1323   -134.70462    1576.4358    103.18279   -3991.4025 
 2178000    245.53011   -4657.1773   -4183.6518   -4657.1773            0    2894.9794     20.07521      20.0809    21.033824    8479.3292    1212.7568    4207.8499    3264.3316    806.04032   -13.818887   -220.63793   -3825.6519 
 2179000    267.02028   -4672.5869   -4157.6158   -4672.5869            0    3760.2405    19.938305    20.119317    21.078152    8455.3969    4886.2926    1611.9128    4782.5162   -320.89661    1444.5525   -1005.2239   -3693.9282 
 2180000    260.98741   -4658.0181   -4154.6819   -4658.0181            0    5159.1924    20.053962    19.980719    20.920519    8382.6967    5448.0315     5268.484    4761.0618     431.7573    963.17853    181.21159    -3523.955 
 2181000     262.1992   -4698.3924   -4192.7192   -4698.3924            0    2935.2123    20.001563    20.017731    21.056742    8430.8227    3204.5131    2743.8498    2857.2739   -382.67985    460.12985   -795.36391   -3831.8204 
 2182000    259.74395   -4685.3703   -4184.4322   -4685.3703            0    2801.3872    20.247505    20.092539    20.813437    8467.4012    4652.8513    1384.3818    2366.9285   -879.97368   -248.48707    216.73726   -3838.4935 
 2183000    254.93742   -4709.4982     -4217.83   -4709.4982            0    2115.0219    20.227065    20.176956    20.911234    8534.3055    2172.7682    2359.6343    1812.6631   -379.13961   -422.62983    280.71884   -3954.5857 
 2184000    258.89048   -4705.4664   -4206.1743   -4705.4664            0    1162.4022    20.174097    19.968129    21.159905    8524.0342    121.99563    2151.1546    1214.0563     236.8681    192.90439   -398.03222   -4061.6711 
 2185000    280.44327   -4700.8876   -4160.0292   -4700.8876            0    3439.3962     19.91412    20.185596    21.048955    8461.2249    4824.6494    1366.6401    4126.8991    56.570814   -421.87241    842.90104   -3735.6136 
 2186000    266.33153    -4668.027   -4154.3842    -4668.027            0    3757.5872    20.109616    20.087928    20.934382    8456.6638    2675.2795    5624.0632    2973.4187    145.55372    1305.8154   -29.787173   -3690.9543 
 2187000    253.25104   -4691.2714   -4202.8554   -4691.2714            0    3216.5152    20.344816    19.860353    20.871854    8433.3814    3517.3121    2248.7577    3883.4758   -271.98667    557.00616   -514.86425   -3807.2491 
 2188000    267.15651   -4684.0798    -4168.846   -4684.0798            0    4669.1599    20.058071    19.904458    20.847738    8323.3557    5934.4055    3232.7345    4840.3398      578.808    -135.8451   -59.866283   -3602.0679 
 2189000    250.53296   -4698.3279    -4215.154   -4698.3279            0    1810.9026    20.164461     20.14163    20.819294    8455.6545    1994.5587    750.50235    2687.6469     -171.434    394.98914   -365.45911   -3991.8389 
 2190000    272.92759   -4673.8415   -4147.4777   -4673.8415            0    4401.0018    20.106362    20.137375     20.74604    8399.8504    3214.3793    6496.6322     3491.994   -226.10053    447.68256    1049.4786   -3608.3409 
 2191000    251.64446   -4649.7911   -4164.4736   -4649.7911            0      3844.89    19.823441    20.013105    21.047282    8350.0587    5973.6238    2324.0101     3237.036    359.87365   -670.77162   -528.04388   -3696.2543 
 2192000    264.60767   -4676.0605   -4165.7424   -4676.0605            0    2869.5146    20.115421    20.092749     20.99449    8485.4297    3973.0977    2784.9119    1850.5343   -250.55362    2361.9143    630.20762   -3810.6363 
 2193000    260.51128   -4668.8949    -4166.477   -4668.8949            0    2707.4738    20.228311    20.250227    20.744768    8497.6355    3404.8416    1327.1638    3390.4161   -184.09442    1404.9845   -273.39913   -3830.9417 
 2194000    260.75352   -4664.3665   -4161.4815   -4664.3665            0     2569.076    20.060551    20.120433    20.868304    8423.0101    1568.5737    2572.0689    3566.5854   -206.92789   -1356.7192   -283.94431   -3845.8937 
 2195000    271.74083   -4707.3988   -4183.3238   -4707.3988            0    4286.5586      19.9913    19.998308    20.941434    8372.2211    5651.4583     3282.899    3925.3185   -435.87417   -1065.8543    156.04879   -3659.9339 
 2196000    254.66283   -4676.7735   -4185.6348   -4676.7735            0    4846.6212    20.192857    19.961096    20.852856    8405.1935    6253.5924    3943.8543     4342.417    332.73904    67.724878   -162.24623   -3591.5305 
 2197000    238.77252   -4634.2261   -4173.7332   -4634.2261            0    3044.9759    20.129115    19.979708    20.666703    8311.6072     2870.209    2818.7437    3445.9751   -391.11163    1126.9122    403.21956   -3804.6326 
 2198000    272.68201    -4706.606   -4180.7158    -4706.606            0    4202.1945    20.170798    20.029017    20.899914    8443.5917    4063.6188    3081.7659    5461.1988   -46.491534    179.81767    99.884451   -3663.2529 
 2199000    268.33057    -4666.758   -4149.2599    -4666.758            0     3428.774     20.01395    20.021574    21.142767    8472.1346    4969.3933    2240.5795    3076.3491   -683.28427   -992.44573    651.80513   -3725.6095 
 2200000    266.53658   -4708.6208   -4194.5826   -4708.6208            0    4238.2637    20.159404    19.850178    20.939063    8379.1378    4460.5323    4212.3733    4041.8854   -109.58539    1390.2282   -971.29903    -3676.662 
 2201000    255.74146   -4686.6614   -4193.4425   -4686.6614            0    2442.4594    20.240514    19.941124     20.92555     8445.941    2765.3382    1935.5541    2626.4859    184.81311    1329.5221    607.47912   -3892.5916 
 2202000    269.17157   -4684.1712   -4165.0512   -4684.1712            0     3831.677    20.010794    20.004411    21.122633    8455.4772    3546.1553    4327.3666    3621.5092   -637.05317   -854.79573   -654.94056     -3692.55 
 2203000    246.44317   -4684.0213   -4208.7349   -4684.0213            0    2348.0671    20.236022    19.915304    20.825491    8392.8087    1242.5884    4004.8748    1796.7382    194.71709    1098.5274    1581.1186   -3921.3303 
 2204000    247.41217    -4690.213   -4213.0579    -4690.213            0    3362.5838    20.116143    20.071887    20.844609    8416.4058     3739.157    3070.7508    3277.8438   -744.61566   -494.68672     181.0858   -3800.3187 
 2205000    249.58127   -4704.0246   -4222.6861   -4704.0246            0    1887.4322    20.258816    19.994603    20.931884    8478.8148    2245.1603     935.0645    2482.0718    1203.7362   -493.53984   -276.15026    -3989.296 
 2206000    258.91755   -4711.9372   -4212.5929   -4711.9372            0    2457.4804     20.25684    20.133605    20.738607    8458.0999    2146.2681    2600.6801     2625.493    734.38836   -30.842712   -152.17492   -3909.4561 
 2207000    261.95849   -4691.5536   -4186.3446   -4691.5536            0    3230.7945    20.065926    20.164896    20.943355    8474.2535     3691.861    1762.2369    4238.2856    727.37529    930.38382     101.6669   -3787.0562 
 2208000    265.64612   -4683.0986   -4170.7777   -4683.0986            0    4497.6401    19.929497    20.067903    20.903165    8360.0791     4077.676     5181.657    4233.5875    118.99708    968.34067   -532.13856   -3622.4112 
 2209000     256.1161   -4686.1324    -4192.191   -4686.1324            0    2996.9567    20.147362    20.098889    20.814225     8428.504    802.43148    5329.5482    2858.8905   -71.868066    -423.4839     -1036.43   -3823.8018 
 2210000    269.88165    -4666.768   -4146.2785    -4666.768            0    2850.9529     20.34025    20.170722     20.53795    8426.2595    925.25174    3441.5684    4186.0386    238.89053   -221.28069    318.97966   -3795.9296 
 2211000    263.88961   -4688.0826   -4179.1493   -4688.0826            0     3634.486    20.231509    19.969194     20.82751    8414.4584    4460.2345    2979.8019    3463.4215    537.88015    1709.0077    1049.0191   -3733.1389 
 2212000    267.89365   -4704.1912   -4187.5358   -4704.1912            0     2313.202    20.060309    20.173999    21.085065     8533.055     2412.866    3027.7318    1499.0082   -147.84619    -574.2487   -1513.3776   -3899.6674 
 2213000    267.26486   -4673.1241   -4157.6813   -4673.1241            0    4710.6993    20.076101    19.937313    21.004869    8407.4822    4621.9023    5052.8407    4457.3548   -128.45466   -207.39404    1051.6921   -3580.0812 
 2214000    272.22644   -4690.2265   -4165.2149   -4690.2265            0     4131.952    20.121985    20.093006    20.762314    8394.4354    2524.8732    4754.6903    5116.2927   -96.999929    131.68102    1128.2172   -3659.3638 
 2215000    261.55966   -4732.4235   -4227.9837   -4732.4235            0    3316.4064    19.906769    20.097168    20.996584    8400.0966    3350.8539    3915.4568    2682.9083   -254.25087   -351.56154   -842.22138   -3821.7014 
 2216000    267.95876   -4713.5891   -4196.8081   -4713.5891            0    3864.4015    20.050234    19.828644    21.088534    8384.1463    3293.6384    4762.0085    3537.5574   -395.00852    806.26319   -375.13669   -3724.2916 
 2217000     243.9686   -4692.9688   -4222.4548   -4692.9688            0    2281.3501    20.198293    20.200179    20.818103     8493.976    1577.5802    3252.4224    2014.0478    369.18715   -7.2088439    755.33316   -3939.8505 
 2218000    267.76382   -4675.2769   -4158.8719   -4675.2769            0    3760.6323    20.361967     19.99682    20.595387    8385.9179    1257.0797    5710.6228    4314.1943   -927.91969    1226.7701   -326.10666   -3698.9465 
 2219000    276.62657   -4704.6754   -4171.1778   -4704.6754            0    4240.7877    20.074289    20.093057    20.784614    8383.5532    3605.4387    4444.4136    4672.5109   -268.74463   -65.734521    184.55783   -3652.6756 
 2220000    250.68354   -4688.1213    -4204.657   -4688.1213            0    4354.3394    20.023471    20.107668     20.84885    8394.2746    3346.6929    5157.7006    4558.6247    413.92831   -467.64554   -1174.8484   -3671.5906 
 2221000    253.55257    -4681.912   -4192.9145    -4681.912            0    4381.7855    20.106835    19.849808    21.043641    8398.8709    5467.4762    3102.1667    4575.7136    506.57122      769.601     1491.291   -3656.1944 
 2222000    255.17276   -4696.1068   -4203.9846   -4696.1068            0      4155.42    19.968369    20.183557    20.858908    8406.8222    4708.8783    4728.2686    3029.1131   -562.32472    500.17651     1532.433   -3694.5099 
 2223000    249.01933   -4686.4777    -4206.223   -4686.4777            0    3011.0616    20.179695    20.052661    20.849554    8436.9094    2026.2208    3077.6624    3929.3015   -727.43604    -578.4226    246.67315   -3835.7309 
 2224000    269.30764   -4706.5879   -4187.2054   -4706.5879            0    2483.7738    20.148997    20.110791    20.761563    8412.8398    1871.5866    2108.1268    3471.6081   -757.34177      -441.04    125.22314   -3882.4647 
 2225000    260.61687   -4707.3408   -4204.7193   -4707.3408            0    4340.9073    20.060702    19.874473    21.092177    8409.3636    4226.2941    5499.2166    3297.2111    576.41059    751.82304    629.08709    -3672.342 
 2226000     266.3494    -4696.766   -4183.0888    -4696.766            0    3012.9674    20.084931    20.128498    20.910848    8453.8266    2353.6879    3562.4471    3122.7671    817.68026    516.37655   -348.70577   -3811.6189 
 2227000    273.69972   -4648.3635   -4120.5106   -4648.3635            0    1805.1126    20.242721    20.327951    20.741311    8534.9049    1550.8442     50.97634    3813.5173   -632.09637     210.9467    596.97294   -3895.8231 
 2228000    269.13385   -4669.3382    -4150.291   -4669.3382            0    4546.8942    19.990075    20.050371    20.905069    8378.9276    5119.7227    3824.3497    4696.6101    151.52259   -323.91095   -386.88236   -3594.6693 
 2229000    264.31276   -4674.1078   -4164.3584   -4674.1078            0    3974.4615    20.050104    20.182688    20.866555    8443.9643    3720.1008    3694.2311    4509.0525     740.7541    786.80119    284.31932   -3674.9172 
 2230000     260.9968   -4646.0879   -4142.7336   -4646.0879            0    4459.3334     20.02798    20.111173    21.002881    8459.6699    5805.2965    3571.0227     4001.681    -629.8494   -591.37042    1140.9373   -3592.5606 
 2231000     272.5935   -4687.6802   -4161.9607   -4687.6802            0    3998.3356    20.037388    20.316582    20.647987    8405.6149    4516.4531    3184.5165     4294.037    694.43703   -745.35055     1002.898   -3671.8157 
 2232000    259.49743   -4673.9514   -4173.4888   -4673.9514            0    4376.4384    20.275777    19.838932    20.744635    8344.5244    3594.9234     5593.972    3940.4198   -272.56497     687.6512     246.6367   -3640.8923 
 2233000    265.89282   -4712.7472   -4199.9506   -4712.7472            0    3167.1963    20.019027    20.138335    20.963041    8451.2473    4264.6033    2061.7584    3175.2274   -1005.7234   -232.64143    390.83218   -3809.5848 
 2234000    273.78334   -4699.1412    -4171.127   -4699.1412            0    2301.7983    20.298554    19.944702    20.961079    8486.0636    -547.5979    5011.3059    2441.6869   -674.93219   -279.73176    -17.61186   -3886.2552 
 2235000    251.52344   -4701.6069   -4216.5228   -4701.6069            0    764.76981    20.040686    20.111682      21.0644    8490.0466    2865.3019   -537.81148   -33.180983   -611.97129    668.60265    1401.4558     -4121.83 
 2236000    243.74086   -4682.8924   -4212.8177   -4682.8924            0    3634.5675     19.89901    20.061243    21.129016    8434.6794    4619.0207    3470.2078    2814.4741    133.32455    1447.6176    793.94006   -3765.7253 
 2237000    271.36593   -4702.8467   -4179.4947   -4702.8467            0    5101.3213    19.978224    20.108613     20.73868    8331.4407    4336.7439    4955.7561     6011.464   -131.10693     1400.736   -281.50569    -3559.656 
 2238000     264.8478   -4670.2962   -4159.5149   -4670.2962            0    4942.8752    20.137841    19.711983    20.980998    8328.5496    3825.1363    6962.1067    4041.3826    248.24549   -370.63728   -38.665144   -3559.1367 
 2239000    251.40115   -4674.7301   -4189.8818   -4674.7301            0    3876.3236     20.03397    19.991719     20.99228    8407.6916     4806.962    4529.0488      2292.96   -311.69158    1287.3896   -2038.3093   -3714.5765 
 2240000    271.46451   -4691.5544   -4168.0122   -4691.5544            0    2971.8889    20.241489    19.888292    20.879803    8405.5539    3804.8968      2165.31    2945.4601    -600.0972     26.92944   -94.289813   -3803.6991 
 2241000    243.75708   -4671.9587   -4201.8527   -4671.9587            0    3876.3785    20.095327    20.147471    20.768723     8408.633    3081.0512    3745.1458    4802.9384   -400.99401    458.28511   -706.95466   -3726.4874 
 2242000    274.70627    -4708.831   -4179.0369    -4708.831            0    3252.2376    20.011408     20.33048    20.889451    8498.6965    4018.9412    2707.3928    3030.3788    959.76472   -447.25454    1289.4687    -3775.939 
 2243000    269.13217   -4679.5964   -4160.5524   -4679.5964            0    3938.6363    19.913356    20.039258    21.085788    8414.2601    5443.1453    1935.3367     4437.427    89.402321    326.48858    1541.4498   -3677.2291 
 2244000    258.95432   -4674.7484   -4175.3332   -4674.7484            0    3963.4579    20.108304    19.999055    20.959153    8428.6622    1238.9265    5440.5393    5210.9079   -54.933961   -564.23601    822.08977   -3688.1315 
 2245000    270.06027   -4670.4903   -4149.6564   -4670.4903            0    1814.4177    20.094458    20.329763    20.905005      8540.02    3506.9883    149.37882     1786.886    57.685778   -85.172527    168.53231   -3923.6753 
 2246000    262.94854   -4662.2898   -4155.1714   -4662.2898            0    3383.6826      20.2075     19.81855    20.873822    8359.6186    3396.2971     4258.745    2496.0058    0.1086844   -1511.5176   -447.09926   -3742.6448 
 2247000    253.59454    -4684.341   -4195.2626    -4684.341            0    1809.6604     19.86501    20.345043    21.178402    8559.3462    2660.2994    1775.6063    993.07555   -452.84204    955.43776   -406.07356    -3969.364 
 2248000    253.54124   -4642.1133   -4153.1377   -4642.1133            0    3747.2973    20.113986    19.944106    21.009975    8428.2662     3647.683    3789.4935    3804.7153   -625.25846    484.53756    532.88562   -3692.5289 
 2249000     257.0485    -4699.357   -4203.6173    -4699.357            0    4705.6044     20.04427    20.074735     20.84361    8387.1227    5777.3498    3721.6192    4617.8441   -375.69615   -424.59639    1158.0511   -3628.0392 
 2250000    277.47293   -4667.0688   -4131.9389   -4667.0688            0    5612.9716    20.149512    20.088722    20.554801    8320.1301    6381.8782    5014.3522    5442.6844    2.6962683     320.1972   -688.96327   -3450.8578 
Loop time of 414.341 on 64 procs for 250000 steps with 972 atoms

Performance: 104.262 ns/day, 0.230 hours/ns, 603.368 timesteps/s
99.1% CPU use with 64 MPI tasks x 1 OpenMP threads

MPI task timing breakdown:
Section |  min time  |  avg time  |  max time  |%varavg| %total
---------------------------------------------------------------
Pair    | 20.159     | 27.783     | 35.861     |  77.1 |  6.71
Bond    | 0.2675     | 0.27782    | 0.29408    |   1.0 |  0.07
Kspace  | 169.21     | 182.28     | 191.6      |  34.1 | 43.99
Neigh   | 2.9152     | 3.2868     | 3.7025     |  11.5 |  0.79
Comm    | 90.714     | 95.454     | 102.44     |  28.1 | 23.04
Output  | 0.73614    | 0.73825    | 0.74238    |   0.3 |  0.18
Modify  | 94.757     | 97.195     | 101.14     |  12.6 | 23.46
Other   |            | 7.33       |            |       |  1.77

Nlocal:        15.1875 ave          20 max          10 min
Histogram: 2 3 4 7 9 9 9 10 6 5
Nghost:        2215.75 ave        2255 max        2192 min
Histogram: 8 10 6 15 5 7 8 1 2 2
Neighs:        4731.98 ave        6432 max        2708 min
Histogram: 2 4 3 8 13 6 9 10 6 3

Total # of neighbors = 302847
Ave neighs/atom = 311.57099
Ave special neighs/atom = 2.0000000
Neighbor list builds = 8404
Dangerous builds = 0

unfix		3
unfix		2
unfix		1

write_data	data.final.${pid}
write_data	data.final.0
System init for write_data ...
PPPM initialization ...
  extracting TIP4P info from pair style
  using 12-bit tables for long-range coulomb (../kspace.cpp:340)
  G vector (1/distance) = 0.37124978
  grid = 24 24 24
  stencil order = 5
  estimated absolute RMS force accuracy = 0.0036259674
  estimated relative force accuracy = 1.0919493e-05
  using double precision FFTW3
  3d grid and FFT values/proc = 2197 216
Last active /omp style is kspace_style pppm/tip4p/omp
WARNING: Not all mixed pair coeffs generated from mixing. Use write_data with 'pair ij' option to store all pair coeffs. (../write_data.cpp:312)

write_restart   restart.lmp.${pid}
write_restart   restart.lmp.0
System init for write_restart ...
PPPM initialization ...
  extracting TIP4P info from pair style
  using 12-bit tables for long-range coulomb (../kspace.cpp:340)
  G vector (1/distance) = 0.37124978
  grid = 24 24 24
  stencil order = 5
  estimated absolute RMS force accuracy = 0.0036259674
  estimated relative force accuracy = 1.0919493e-05
  using double precision FFTW3
  3d grid and FFT values/proc = 2197 216
Last active /omp style is kspace_style pppm/tip4p/omp
Total wall time: 0:06:57
