#include		in.partitions
include		in.temp
variable        temperature equal 81.29
variable	tempDamp equal 100.0
include		in.pressure
variable        pressure equal 918.8
variable        pressureDamp equal 1000.0 # This is 1 ps
include		in.seed
variable        seed equal 745823

units		real
atom_style	full
box tilt large
read_restart	restart.lmp.${pid}
read_restart	restart.lmp.0
Reading restart file ...
  restart file = 30 Jul 2021, LAMMPS = 30 Jul 2021
  restoring atom style full from restart
  triclinic box = (-10.666427 -9.1624591 0.065810462) to (12.646427 12.152457 21.794189) with tilt (-9.2149809 1.9872728 2.8008347)
  4 by 4 by 4 MPI processor grid
  restoring pair style lj/cut/tip4p/long/omp from restart
  restoring bond style harmonic/omp from restart
  restoring angle style harmonic/omp from restart
  1296 atoms
  864 bonds
  432 angles
Finding 1-2 1-3 1-4 neighbors ...
  special bond factors lj:    0        0        0       
  special bond factors coul:  0        0        0       
     2 = max # of 1-2 neighbors
     1 = max # of 1-3 neighbors
     1 = max # of 1-4 neighbors
     2 = max # of special neighbors
  special bonds CPU = 0.008 seconds
  read_restart CPU = 0.029 seconds
include 	in.setup
variable	out_freq equal 1000
variable	out_freq2 equal 10000
variable	out_freq3 equal 1000

timestep	2.0

neigh_modify    delay 7 every 1

include		in.tip4p
# This is TIP4P/Ice

# create groups ###
group ox type 2
432 atoms in group ox
group hy type 1
864 atoms in group hy

# set charges - beside manually ###
set group ox charge -1.1794
Setting atom values ...
  432 settings made for charge
set group hy charge 0.5897
Setting atom values ...
  864 settings made for charge

# ### TIP3P Potential Parameters ###
pair_style lj/cut/tip4p/long/omp 2 1 1 1 0.1577 8.5
pair_coeff 1 1*2 0.000 0.000
pair_coeff 2 2 0.21084 3.1668
bond_style  harmonic
bond_coeff  1 450 0.9572
angle_style harmonic
angle_coeff 1 55 104.52
kspace_style pppm/tip4p/omp 1.0e-5
pair_modify tail yes

thermo          ${out_freq}
thermo          1000
thermo_style    custom step temp pe etotal epair emol press lx ly lz vol pxx pyy pzz pxy pxz pyz enthalpy

restart 	${out_freq3} restart.lmp.${pid} restart2.lmp.${pid}
restart 	1000 restart.lmp.${pid} restart2.lmp.${pid}
restart 	1000 restart.lmp.0 restart2.lmp.${pid}
restart 	1000 restart.lmp.0 restart2.lmp.0


include         in.dump
dump            myDump all atom ${out_freq2} dump.water.${pid}
dump            myDump all atom 10000 dump.water.${pid}
dump            myDump all atom 10000 dump.water.0
dump            myDump2 all dcd ${out_freq2} dump.dcd
dump            myDump2 all dcd 10000 dump.dcd
dump_modify     myDump append yes
dump_modify     myDump2 append yes


variable natoms 	equal  "count(all)"                        # NUMBER ATOMS
variable H      	equal  "enthalpy/v_natoms"                 # ENTHALPY-per-atom
variable Vol      	equal  "vol/v_natoms"                 # volume-per-atom
fix AVG all 		ave/time ${out_freq} 1 ${out_freq} v_Vol v_H file vol_enthalpy.dat
fix AVG all 		ave/time 1000 1 ${out_freq} v_Vol v_H file vol_enthalpy.dat
fix AVG all 		ave/time 1000 1 1000 v_Vol v_H file vol_enthalpy.dat


timer           timeout 10:00:00 every 1000
New timer settings: style=normal  mode=nosync  timeout=10:00:00

fix 		1 all shake 1e-6 200 0 b 1 a 1
       0 = # of size 2 clusters
       0 = # of size 3 clusters
       0 = # of size 4 clusters
     432 = # of frozen angles
  find clusters CPU = 0.001 seconds
fix             2 all nph tri ${pressure} ${pressure} ${pressureDamp}
fix             2 all nph tri 918.8 ${pressure} ${pressureDamp}
fix             2 all nph tri 918.8 918.8 ${pressureDamp}
fix             2 all nph tri 918.8 918.8 1000
fix             3 all temp/csvr ${temperature} ${temperature} ${tempDamp} ${seed}
fix             3 all temp/csvr 81.29 ${temperature} ${tempDamp} ${seed}
fix             3 all temp/csvr 81.29 81.29 ${tempDamp} ${seed}
fix             3 all temp/csvr 81.29 81.29 100 ${seed}
fix             3 all temp/csvr 81.29 81.29 100 745823


run             250000
PPPM initialization ...
  extracting TIP4P info from pair style
  using 12-bit tables for long-range coulomb (../kspace.cpp:340)
  G vector (1/distance) = 0.36733186
  grid = 30 40 32
  stencil order = 5
  estimated absolute RMS force accuracy = 0.004529111
  estimated relative force accuracy = 1.3639283e-05
  using double precision FFTW3
  3d grid and FFT values/proc = 5168 640
Last active /omp style is kspace_style pppm/tip4p/omp
Neighbor list info ...
  update every 1 steps, delay 7 steps, check yes
  max neighbors/atom: 2000, page size: 100000
  master list distance cutoff = 10.8154
  ghost atom cutoff = 10.8154
  binsize = 5.4077, bins = 7 5 5
  1 neighbor lists, perpetual/occasional/extra = 1 0 0
  (1) pair lj/cut/tip4p/long/omp, perpetual
      attributes: half, newton on, omp
      pair build: half/bin/newton/tri/omp
      stencil: half/bin/3d/tri
      bin: standard
Per MPI rank memory allocation (min/avg/max) = 9.436 | 9.441 | 9.446 Mbytes
Step Temp PotEng TotEng E_pair E_mol Press Lx Ly Lz Volume Pxx Pyy Pzz Pxy Pxz Pyz Enthalpy 
 4500000    86.317427   -6795.6838   -6573.6374   -6795.6838            0    844.88526    23.312854    21.314916    21.728378    10797.081    1063.1114    1496.0577   -24.513314   -123.53531    418.34628   -72.814552   -6440.5981 
 4501000    81.910881   -6812.6028    -6601.892   -6812.6028            0    572.86476    23.181268    21.478211    21.691989    10800.271    1533.1546    -154.9228    340.36244   -33.951428    96.393599    656.77882   -6511.6596 
 4502000    84.923299   -6816.6811   -6598.2211   -6816.6811            0    311.10666    23.372332    21.291015    21.718184    10807.418   -495.31366    609.02062    819.61302    247.57712   -74.848434    771.66857    -6549.186 
 4503000    79.394243   -6805.3264   -6601.0895   -6805.3264            0     796.5253    23.230396    21.443684    21.672599    10796.103    565.46816   -94.181991    1918.2897   -536.56555     647.1479    440.65808   -6475.6765 
 4504000    78.315167   -6813.0161   -6611.5551   -6813.0161            0    1031.5575     23.33129    21.250777    21.729309    10773.566    880.64155    1494.8834    719.14746   -173.31434   -313.02637    705.16698   -6449.4753 
 4505000    85.472574   -6823.5007   -6603.6277   -6823.5007            0    1039.9629    23.208149     21.45625    21.626916    10769.336    1204.2693    712.48259     1203.137   -281.27422    510.81101    -438.3153   -6440.2914 
 4506000    83.677318   -6808.0249   -6592.7701   -6808.0249            0     622.5084    23.337127    21.363099    21.663893    10800.606    409.97203    841.72552    615.82766   -69.342308   -439.48899   -329.19232   -6494.7152 
 4507000    82.337189   -6817.6022   -6605.7948   -6817.6022            0    1491.7786    23.216514    21.425859    21.637834    10763.389    1557.4785    1670.9221    1246.9353     134.0694   -541.87372   -180.22951   -6371.6258 
 4508000    80.225583   -6803.3206   -6596.9452   -6803.3206            0    992.21242    23.284157     21.38245    21.681001     10794.37    481.03265    1105.9688    1389.6358    14.874737   -158.57083    251.48156   -6440.7463 
 4509000    84.090308   -6802.8692    -6586.552   -6802.8692            0     655.0086     23.28418    21.356831    21.720138     10800.91    573.39088    1107.9091    283.72586   -354.71424     72.37369   -182.37099   -6483.3749 
 4510000    84.664528   -6815.2084    -6597.414   -6815.2084            0    296.70896    23.225931    21.378181    21.739889    10794.467    277.86513    584.67655    27.585197    283.75998   -118.94616    445.52847   -6550.7043 
 4511000    81.104926   -6807.6574   -6599.0199   -6807.6574            0    1872.0536    23.270061    21.267969    21.700387    10739.672    1345.6044    1991.9464    2278.6101    210.56591    74.169104    671.87551   -6305.8056 
 4512000    83.019706   -6800.5501    -6586.987   -6800.5501            0    441.68102    23.174876     21.50377    21.693752     10811.02    1124.9514   -588.60203    788.69367   -195.51295    120.86625    209.73253   -6517.3482 
 4513000    79.569446   -6796.1874   -6591.4999   -6796.1874            0    1235.1066    23.344489    21.312561    21.691781     10792.33    1232.8666    1389.3688    1083.0843   -176.53734    363.21057   -19.631327   -6397.1002 
 4514000    79.028152   -6813.7078   -6610.4127   -6813.7078            0    1050.9584    23.136669    21.519957    21.657553    10783.299    1642.9515    709.47671    800.44685    266.80823    346.49793   -439.82776   -6445.1355 
 4515000    81.195754   -6806.7092   -6597.8381   -6806.7092            0     776.9464    23.406419    21.193951    21.775802     10802.42   -361.39073    2104.5019    587.72805   -607.98269    252.97107    353.36848   -6475.4362 
 4516000     79.09591   -6804.9759   -6601.5065   -6804.9759            0     851.1352    23.157713    21.478692    21.721056    10803.997    1111.6323     412.6122    1029.1611    456.86553    156.19253   -274.19504   -6467.3972 
 4517000    81.249913   -6809.1768   -6600.1664   -6809.1768            0    1143.5866    23.296236    21.243732    21.791297    10784.491    965.49669    1216.8992     1248.364   -454.94255    38.391273   -76.584893   -6420.3022 
 4518000    80.094716   -6814.8315   -6608.7927   -6814.8315            0     1621.153    23.086913    21.468419    21.702654    10756.693    1827.2902    1270.0979    1766.0709    819.63868    222.50609    363.68064   -6354.4738 
 4519000    82.318794   -6816.0681    -6604.308   -6816.0681            0    583.61001    23.360629    21.276423    21.721308    10796.156   -89.450826    1359.3898    480.89105    797.16047   -131.47043     317.1083   -6512.4181 
 4520000    80.727368   -6812.8977   -6605.2314   -6812.8977            0    742.88788    23.176366    21.475706    21.633932    10767.832    995.12768    627.59665    605.93931    565.14662    107.43221   -309.60493     -6488.57 
 4521000     80.87886   -6818.2171   -6610.1611   -6818.2171            0    1107.8728    23.386918    21.230479    21.683088    10765.989    676.51902    2295.6589    351.44055    6.1978462   -629.80691   -890.81263    -6436.213 
 4522000    81.025303   -6805.6029   -6597.1702   -6805.6029            0    1121.9757    23.140493    21.507461    21.658827    10779.452    1772.0772    439.77899     1154.071   -299.14938   -442.37892    29.709736   -6420.7875 
 4523000    81.109188   -6813.6686   -6605.0202   -6813.6686            0    710.17047     23.34389    21.338963    21.682369    10800.734   -221.00875    762.77521     1588.745   -722.25741   -58.338675    546.37528   -6493.1558 
 4524000    85.194955   -6794.9192   -6575.7603   -6794.9192            0    1793.5969    23.113027    21.502381    21.666859    10768.107    2159.5181     1961.817    1259.4555    312.78428    42.862661   -53.657684   -6294.0907 
 4525000    82.678022   -6801.3142   -6588.6301   -6801.3142            0    723.12967    23.366326    21.248462    21.746374    10797.042    715.83271    1373.4572    80.099083   -758.66742   -764.29067   -473.14635   -6474.7633 
 4526000    82.157391   -6800.3197   -6588.9749   -6800.3197            0    1105.3744    23.149669    21.455411    21.685667     10770.96    1431.5972    409.84725    1474.6789    2.4855527   -112.15244     472.7051   -6415.3389 
 4527000    80.710014   -6802.0728   -6594.4513   -6802.0728            0    1034.5521    23.274784    21.321498    21.750523    10793.768    1389.3919     1206.296    507.96826   -534.07866    254.24299    41.654336   -6431.5962 
 4528000    78.670909   -6812.3341    -6609.958   -6812.3341            0    348.19431    23.187738    21.456181    21.733895    10813.054    835.15603    262.62995   -53.203034    4.5096783    82.402365   -629.44978   -6555.0487 
 4529000    78.731978   -6809.4627   -6606.9295   -6809.4627            0    1819.9723    23.304057    21.283247    21.687474    10756.684    1220.8851    2249.2824    1989.7494   -84.482642   -244.08992   -293.83151   -6321.4209 
 4530000    85.104731   -6808.7156   -6589.7889   -6808.7156            0    1313.3128    23.240313    21.429595    21.631797    10773.295    1413.3769    534.27209    1992.2895    95.192587     380.8195    217.86803   -6383.4445 
 4531000    84.660249     -6810.24   -6592.4567     -6810.24            0   -35.405212    23.350367    21.363707    21.702455    10826.278   -702.84585    535.65297    60.977247   -19.081839    322.65255   -104.25201   -6598.0468 
 4532000    84.294526   -6808.4527   -6591.6102   -6808.4527            0    1217.1171    23.282927    21.375943    21.644984     10772.59    630.42451    1084.9943    1935.9326    898.08247    15.374404    297.44183   -6400.3923 
 4533000    80.593161   -6806.9425   -6599.6215   -6806.9425            0    1089.2895     23.26439    21.401053    21.629999    10769.197    560.17489    1019.9651    1687.7285    7.3978661    363.54466   -402.29161   -6428.5402 
 4534000    79.592397   -6807.0097   -6602.2631   -6807.0097            0     1121.438    23.333846    21.333686    21.645379    10775.004     956.9735    1628.8786    778.46175    518.90466   -137.41229   -267.62339   -6426.0377 
 4535000    79.370596   -6810.9135   -6606.7375   -6810.9135            0    860.87703    23.234375    21.467401    21.618901    10783.111    516.19419    409.77682    1656.6601    694.91572    637.00942    200.49541   -6471.3554 
 4536000    81.859351   -6816.1894   -6605.6112   -6816.1894            0    770.90773    23.306214    21.329156    21.680632    10777.483    620.12058    571.10918    1121.4934    459.48839    138.56088    207.44506   -6484.4411 
 4537000    85.286669   -6817.3113   -6597.9165   -6817.3113            0    1072.0117    23.206415    21.433414    21.665218    10776.121    1050.0028    726.08662    1439.9457   -210.04319    653.21283   -583.59096   -6429.4406 
 4538000    79.616971   -6805.7822   -6600.9724   -6805.7822            0    515.04585    23.365023    21.306079    21.703121    10804.183    440.03088    488.26288     616.8438    245.89761   -1013.4181   -179.29126   -6519.8177 
 4539000     80.82457   -6805.3424   -6597.4261   -6805.3424            0    1123.6308    23.178973    21.448808     21.67255    10774.754    1348.6306    1116.3297     905.9322    831.02116   -243.91423   -52.743084   -6420.8602 
 4540000     79.94974   -6812.1949   -6606.5291   -6812.1949            0    1319.7187    23.298765     21.28386    21.727318    10774.309    788.79773    2133.8758    1036.4826    529.49467   -252.89366   -278.25265   -6399.1587 
 4541000    80.036459   -6810.7739   -6604.8849   -6810.7739            0    831.75942    23.140762    21.459415    21.741828    10796.714    541.98721    1084.7761    868.51496   -49.253017    696.96199    106.81554   -6473.9169 
 4542000    82.302324   -6814.6287    -6602.911   -6814.6287            0    416.76217    23.302669    21.313433    21.763224     10808.92   -106.20519    426.39289    930.09882   -53.984617    357.34454    68.084735   -6537.2138 
 4543000    81.379835   -6806.0785   -6596.7338   -6806.0785            0    539.98288     23.18197    21.426863    21.765033     10811.06    859.46213    815.92955   -55.443027   -459.44968   -682.49307   -299.05588   -6511.5957 
 4544000     81.55052   -6807.1112   -6597.3275   -6807.1112            0    1445.6894    23.220132    21.278634    21.788205    10765.393    1511.5575    2082.7962    742.71456    -232.5664   -341.88039    197.60102    -6370.351 
 4545000    74.713461   -6812.5269   -6620.3311   -6812.5269            0    1162.7176    23.109074     21.43165     21.71081    10752.617    2033.5034    820.87658    633.77273   -170.05996   -331.66308   -246.41059   -6437.9985 
 4546000     80.59136   -6802.4552   -6595.1388   -6802.4552            0    1325.2507    23.270096    21.331931    21.696395    10770.006    1217.3121    1346.0611    1412.3788    -707.9769     -356.568    21.655732   -6386.9824 
 4547000    79.515718    -6814.279   -6609.7296    -6814.279            0    488.28704    23.250408    21.469812    21.668302    10816.424    1050.2105   -112.76905    527.41964   -429.64949    97.301586    297.84718   -6532.7041 
 4548000    84.082159   -6809.7891   -6593.4929   -6809.7891            0     662.0989    23.322731    21.362248    21.670203    10796.658    484.45094    888.87424    612.97151   -1051.1508      105.323    227.91964     -6489.24 
 4549000    82.418336   -6806.2714   -6594.2553   -6806.2714            0    1573.5591    23.236906    21.431891    21.596627    10755.354    931.78494     1542.095    2246.7973   -676.36671   -391.42683    -224.4744   -6347.4334 
 4550000    82.419138   -6811.3814   -6599.3632   -6811.3814            0    1046.9842    23.372725    21.366455    21.558416    10766.107    210.59596    1566.3718    1363.9848    52.417847   -78.864668    208.83294   -6434.9734 
 4551000    84.197267   -6808.2128   -6591.6205   -6808.2128            0    582.50315    23.253748    21.425164    21.655887    10789.296    389.98019    561.27472    796.25453   -406.74476   -5.5519431   -159.24422   -6499.9631 
 4552000    80.125154   -6813.6784   -6607.5613   -6813.6784            0    778.31529    23.348776    21.347286    21.649253    10790.702     425.0757    1060.0948    849.77537    243.51086    457.12111   -175.12922   -6485.0768 
 4553000    79.718804    -6812.432   -6607.3602    -6812.432            0    502.23482    23.283312    21.436109    21.631009    10796.115    144.24742   -104.61312    1467.0701    280.30007   -29.687555    462.59085   -6528.2832 
 4554000    83.926015   -6810.1016    -6594.207   -6810.1016            0    1096.3278    23.298581    21.345596    21.655486    10769.752    671.06972    1150.4739    1467.4398   -57.850295    836.92843   -323.06544   -6422.0114 
 4555000    84.121088     -6812.28   -6595.8836     -6812.28            0    1023.8682    23.268564    21.335658    21.702192    10774.056    523.82501    1183.6484    1364.1313    50.205758     9.573936    425.02063   -6435.0047 
 4556000    81.377811   -6796.4469   -6587.1074   -6796.4469            0    617.96675    23.274386    21.380141    21.710959    10803.583    265.42287    816.63206    771.84532    863.34687    783.25487    188.47322   -6489.7411 
 4557000    80.850621    -6807.799   -6599.8157    -6807.799            0    1597.1761    23.277253    21.299574    21.706767    10762.119    1774.6404    1585.5462    1431.3416    19.266196     96.98841   -150.07055   -6349.1318 
 4558000    82.399006   -6814.4966   -6602.5302   -6814.4966            0    844.58502    23.178664    21.441908     21.69548     10782.54     803.0332    519.86569    1210.8562   -533.28238    1068.2001    -294.5763   -6469.7172 
 4559000    81.747906   -6808.0738   -6597.7823   -6808.0738            0    951.36969    23.273976    21.285964    21.770617     10785.36    1233.5627    1175.5583    444.98811   -263.27034     114.1093   -71.784264   -6448.1382 
 4560000    78.071598   -6814.1805   -6613.3461   -6814.1805            0    86.282417    23.127298    21.538612    21.759447    10839.031    1166.8005   -717.05322       -190.9    159.93631    -608.8537   -873.78362   -6599.7069 
 4561000    82.682988   -6816.0885   -6603.3915   -6816.0885            0    1004.4394    23.295092    21.288844    21.758996    10790.843    1145.9263    1464.9397    402.45213   -635.27886   -486.65333   -269.18618   -6445.3195 
 4562000    84.975453   -6813.5246   -6594.9305   -6813.5246            0    435.76022    23.166094    21.448714    21.719216    10791.908    1027.8367    143.44744    135.99656    23.499707   -343.77463   -44.010933   -6526.3466 
 4563000    84.318836    -6801.012    -6584.107    -6801.012            0    1946.5432    23.299992    21.208313    21.767102     10756.29    2008.1561     3342.889     488.5846   -412.15669   -209.77856   -616.42887   -6278.7538 
 4564000    77.178913   -6802.6262   -6604.0882   -6802.6262            0    883.60085    23.138704    21.435689    21.768239    10796.917    1524.8434    802.31423    323.64494    -65.84472   -320.51638   -3.9683409   -6464.9547 
 4565000    77.651365   -6814.9485   -6615.1951   -6814.9485            0    761.77444    23.242516    21.324013    21.771134     10790.29    244.71112    1349.4983    691.11385   -178.12753    679.60985   -152.95912   -6495.3182 
 4566000    82.484216   -6801.9024   -6589.7167   -6801.9024            0    979.03146    23.174888    21.448464    21.730566     10801.52    634.51993    1441.6526    860.92183    14.518998    395.54567    434.92046   -6435.4908 
 4567000    78.788089   -6816.8397   -6614.1621   -6816.8397            0    789.02315    23.287877    21.322185     21.72171    10785.881    1231.2051    314.44591    821.41844   -130.06661   -324.71361    717.69483    -6490.048 
 4568000    78.384885   -6809.1109   -6607.4705   -6809.1109            0    1476.6189    23.230802    21.413055    21.636672    10762.999    1571.3469    1029.1403    1829.3696   -304.92073    143.15142     144.5499   -6375.6896 
 4569000    76.147449   -6814.3884   -6618.5037   -6814.3884            0    1671.4655    23.282596    21.338991    21.635434     10749.07     2387.304    1449.3055     1177.787    94.045638   -1010.4581    142.48288   -6356.4778 
 4570000    80.077369   -6808.1976   -6602.2034   -6808.1976            0    536.42877    23.298854    21.423667    21.641488    10802.281    100.56466    511.75696     996.9647    261.31017    225.08715    623.86083   -6517.6943 
 4571000    81.390687   -6807.4334   -6598.0609   -6807.4334            0    1424.2789    23.256879     21.35692    21.652151    10754.521     1648.956    834.82506    1789.0558   -127.96265    264.00913    42.770299   -6374.6717 
 4572000    84.634724   -6800.1339   -6582.4162   -6800.1339            0    632.74402    23.258129    21.388786     21.70396     10796.92    787.37882     255.2343    855.61895    51.716034    442.05218   -171.67001   -6482.7831 
 4573000    82.028848   -6819.1875   -6608.1733   -6819.1875            0    1562.5658    23.193544    21.369656    21.683406    10747.121    1444.9184    2195.2244    1047.5546    149.11299    39.335424    -420.7828   -6363.2634 
 4574000    82.849179   -6815.9998   -6602.8753   -6815.9998            0    244.14571    23.317126    21.362485    21.726443    10822.197    730.90603     88.17006   -86.638954    172.05612   -229.62021   -407.86339   -6564.3416 
 4575000    82.788263   -6813.1967    -6600.229   -6813.1967            0    1136.2482    23.231271    21.411717    21.662875    10775.578    761.86911    1306.2003    1340.6753    870.44062    312.53516   -484.02353   -6421.6667 
 4576000    80.936104   -6811.4634   -6603.2603   -6811.4634            0    1278.8322    23.271904    21.335296    21.687287    10768.019    1582.8179    1413.7725    839.90609   -148.42194   -572.59624   -749.15466   -6402.4318 
 4577000    79.537907   -6810.2459   -6605.6395   -6810.2459            0     230.1683    23.204015    21.464798    21.709746    10812.962    115.36081    57.880736    517.26336    45.393761   -2.8010511   -429.39046   -6569.3429 
 4578000    83.603487   -6803.2094   -6588.1445   -6803.2094            0    1018.0251    23.291127    21.315349    21.733086    10789.575     1434.545    639.14336    980.38683    612.90136   -587.73413    640.62029   -6427.9533 
 4579000    80.159012   -6814.2099   -6608.0057   -6814.2099            0    937.19268    23.213004    21.402639    21.703046    10782.498    989.46977    820.91166    1001.1966    41.462557    411.10326    186.09819   -6460.6306 
 4580000    83.088076   -6802.3788   -6588.6398   -6802.3788            0    1299.9404    23.237968    21.325023    21.714043    10760.399    1370.0439    1411.4098    1118.3676   -30.500049    274.00932    531.20558    -6384.641 
 4581000    79.964871   -6810.4939   -6604.7891   -6810.4939            0    189.65508    23.213183    21.427364    21.756529    10821.639    99.448154    342.75876    126.75834    785.12818   -112.33307    236.48408   -6574.8573 
 4582000    78.707429   -6808.6743   -6606.2042   -6808.6743            0    730.12998    23.304781    21.361323    21.685809     10795.65    550.87158    1187.9967    451.52161   -430.37966    104.81088   -50.872419     -6491.25 
 4583000    80.790246   -6809.9322   -6602.1043   -6809.9322            0    993.06154    23.235314    21.397522    21.668754    10773.231    967.72693    1120.8077    890.65001   -282.42332    236.47713   -134.49956   -6446.0779 
 4584000    87.199846   -6805.6045   -6581.2882   -6805.6045            0    1762.5357    23.232284    21.368743    21.636893    10741.521    1995.0583    1378.5151    1914.0335    -684.6736    405.81484   -335.38431   -6305.1798 
 4585000    79.161043    -6808.594   -6604.9571    -6808.594            0    841.78054     23.25096    21.409692    21.696561    10800.459    168.53466    1192.2501    1164.5569    -396.2029     688.9418   -781.94969   -6472.3652 
 4586000    80.930307   -6814.9457   -6606.7574   -6814.9457            0    224.79155    23.279692     21.40157    21.691021    10806.943    342.08955   -64.548401    396.83349    64.046379   -320.82587   -425.53609   -6571.3284 
 4587000    79.667539   -6816.7118   -6611.7719   -6816.7118            0    1734.3115    23.228356    21.337126    21.688832    10749.557    1885.0571    1895.3597    1422.5176    -150.8071   -424.60064   -195.58454   -6339.8817 
 4588000    81.304996   -6808.5524   -6599.4003   -6808.5524            0    518.20817    23.227438    21.435577    21.694688    10801.645    489.98414    647.60739    417.03299    534.09028   -279.72042   -291.48957   -6517.7665 
 4589000    77.158136    -6816.068   -6617.5834    -6816.068            0    655.89184    23.346102    21.287247    21.723519    10796.029    207.06931    1384.5324    376.07377    358.33479    143.55518   -126.37134   -6514.3139 
 4590000     80.76212   -6814.0673   -6606.3117   -6814.0673            0    519.81694    23.162202    21.444094    21.736623    10796.416   -33.616248    248.89153    1344.1755    280.13733    681.06548    1157.2082   -6524.4641 
 4591000    79.009641   -6814.7256   -6611.4781   -6814.7256            0    1266.3978    23.228251    21.310992    21.730671    10757.053    1367.4784    960.16161    1471.5536   -152.71231   -398.38979    599.41921   -6412.8049 
 4592000    82.019685   -6812.7158   -6601.7251   -6812.7158            0    1506.2984    23.104021    21.424853    21.724324    10753.546    2515.2539    1382.7979    620.84332   -709.15106    173.28528    -198.4714   -6365.4932 
 4593000    82.161258   -6814.6099   -6603.2551   -6814.6099            0    348.28679    23.359113      21.2466    21.791338    10815.079    419.23063    628.05342    -2.423692   -472.54359   -711.31335    304.94686   -6548.3209 
 4594000    78.838602    -6800.962   -6598.1545    -6800.962            0    1349.3964    23.182951    21.412089    21.686843     10765.25    1964.1251    892.30548    1191.7588   -174.22042   -87.769699   -70.568396   -6386.2991 
 4595000     77.99163   -6815.2657    -6614.637   -6815.2657            0    712.49526     23.29997      21.3531    21.699222     10795.94    608.60505    159.73688    1369.1438   -699.02788   -216.90711    86.079922   -6502.4562 
 4596000    82.008414   -6801.8751   -6590.9134   -6801.8751            0     1017.331    23.156408     21.50082    21.689053    10798.584    883.26308    459.23121    1709.4988   -127.26888   -262.31536   -176.87934   -6430.6977 
 4597000    81.307741   -6811.9598   -6602.8006   -6811.9598            0    1228.4163    23.263042    21.306024    21.783845    10797.009    825.38113    1935.8535    924.01441    53.021209   -312.21003    285.47864   -6409.3701 
 4598000    79.106385   -6817.8495   -6614.3532   -6817.8495            0     1164.345    23.137164    21.372635    21.774332    10767.454    1573.9703    1613.6927    305.37188    78.486156    404.99089   -144.78129   -6431.5135 
 4599000    79.948449   -6804.5732   -6598.9107   -6804.5732            0    656.88476    23.316087      21.2353      21.8268    10806.975    689.06232    1269.6453    11.946656    458.06031   -704.33675    335.06216     -6495.38 
 4600000    79.148253   -6813.3168   -6609.7127   -6813.3168            0    966.99983    23.173773    21.420869    21.737537    10790.564    1523.1043    623.31742    754.57775    -225.7446    58.101577    456.25071   -6457.5366 
 4601000    79.407388   -6817.3789   -6613.1082   -6817.3789            0    773.67611    23.267188    21.349421    21.713304    10785.888    519.95759    1111.5636    689.50716   -318.75141    377.79025    38.417903   -6491.4081 
 4602000    78.298111   -6804.2734   -6602.8563   -6804.2734            0    1233.8598    23.229939    21.334876     21.71305    10761.158    1431.2337    1261.0845    1009.2611   -560.16371    778.97159   -739.81772   -6409.2138 
 4603000    82.535612    -6805.273   -6592.9551    -6805.273            0   -56.468651    23.237494    21.440972    21.753653    10838.419    236.08477     214.9731   -620.46382   -228.63302    1164.6182   -28.812001    -6601.881 
 4604000     80.28748   -6806.2821   -6599.7475   -6806.2821            0    1018.7326    23.296435    21.319178    21.715571    10785.274    652.98838    1671.4715    731.73799    244.64871    144.20816   -133.42154   -6439.5088 
 4605000    84.856375   -6815.2725   -6596.9846   -6815.2725            0    1312.4819    23.181138    21.412268    21.696824    10769.451    1096.4177    1761.8242    1079.2039    444.16739    627.66463    16.776394   -6390.8444 
 4606000    79.838879   -6813.9392   -6608.5586   -6813.9392            0    980.78482    23.305381    21.222341    21.797195    10780.778    1229.7106    1222.5873    490.05651   -286.70209   -12.585031     635.4569   -6454.3531 
 4607000     82.61039   -6818.7352    -6606.225   -6818.7352            0    73.792505    23.159454    21.448694    21.764509    10811.303    384.05066    261.34739   -424.02053    124.67793    791.72867   -235.55898     -6594.59 
 4608000    78.794248   -6808.1013   -6605.4079   -6808.1013            0    773.28677    23.288416    21.322443    21.745384    10798.017     1052.503    996.46873    270.88855   -59.176752   -611.60871   -367.27872   -6483.6322 
 4609000    79.277138   -6811.7379   -6607.8022   -6811.7379            0    1397.0709     23.10825    21.490534    21.696379    10774.609    2367.7689    1298.4752    524.96847    -99.39686    93.074846   -688.52863   -6388.2713 
 4610000      79.5293   -6811.6085   -6607.0242   -6811.6085            0    596.21361    23.334624    21.280727    21.761743    10806.398    88.956612    1857.7697   -158.08547   -691.07121   -310.76776   -1085.9146   -6513.0608 
 4611000    82.845177   -6812.4043   -6599.2902   -6812.4043            0    839.63112    23.155085    21.486326    21.702705     10797.48    1544.6547    -347.3566    1321.5953   -140.38975    -594.4259    315.82934   -6467.0733 
 4612000    82.639303   -6813.0668   -6600.4822   -6813.0668            0    576.82378    23.324081    21.361175     21.70311    10813.136    427.82581    315.55419    987.09134   -349.14543   -591.22631   -62.536799    -6509.518 
 4613000    80.385153   -6805.4855   -6598.6996   -6805.4855            0    356.03242    23.184834    21.486047     21.71006    10814.876    852.70744    77.678014    137.71179   -809.43378    26.036325   -78.771132   -6542.5448 
 4614000    81.571212   -6805.9342   -6596.0972   -6805.9342            0     827.3553    23.223997    21.304099    21.811791     10791.74    960.89466    1213.3493    307.82195   -705.81062    174.59573    53.730049   -6465.8827 
 4615000    82.400955   -6810.0897   -6598.1183   -6810.0897            0     733.5222    23.172612    21.383434    21.772296    10788.391    1041.9147    200.07002    958.58186    218.61819   -453.80543    273.47609   -6482.7076 
 4616000     79.31449   -6818.9779   -6614.9462   -6818.9779            0    694.97521    23.251912    21.300658    21.794535     10794.42   -102.61884    1720.7528    466.79169    647.34989    -213.0005   -22.696138   -6505.5393 
 4617000     78.22556   -6823.8401   -6622.6096   -6823.8401            0    1376.8568    23.139199    21.382216     21.75377    10763.055    1685.6585    1774.5164    670.39546   -60.226779    474.41287   -834.05945    -6406.487 
 4618000    79.784241   -6816.5866   -6611.3465   -6816.5866            0    557.45145    23.266976    21.393047    21.716015    10809.179    674.32051     183.5269    814.50694    126.19599    141.50245    277.58114   -6523.4694 
 4619000    84.648221   -6822.4895   -6604.7371   -6822.4895            0    1232.8978    23.226486    21.420436    21.663864    10778.237    1362.9017    926.54735    1409.2443   -443.82724    152.26386   -840.54499   -6410.9384 
 4620000    80.796952   -6812.5737   -6604.7284   -6812.5737            0    399.35983    23.315934    21.419165    21.619649    10797.022    289.58963    565.94843    342.54144    280.70808    30.633845   -6.1259153   -6541.8438 
 4621000    81.740935   -6815.4169   -6605.1433   -6815.4169            0    745.48526    23.295242    21.380511    21.636728    10776.479    550.74471    847.27127     838.4398   -216.15253    187.79307   -293.44584     -6487.98 
 4622000    84.371664   -6807.6561   -6590.6152   -6807.6561            0     504.3911    23.306271    21.381977    21.660516    10794.175   -15.299384    1003.4002    525.07248    406.91929    116.80792   -229.12627   -6511.2129 
 4623000    80.273894   -6812.8897     -6606.39   -6812.8897            0    858.33228     23.33502    21.362878    21.620009    10777.643   -188.58885    653.08103    2110.5046    1242.7115   -18.715856    482.77787   -6471.4766 
 4624000    81.118142   -6806.9356   -6598.2641   -6806.9356            0    897.65943    23.283383    21.425821    21.615727    10783.343    331.19039    758.47438    1603.3135     896.1782    -28.08936    98.923378   -6457.0946 
 4625000    80.457916   -6798.5185   -6591.5454   -6798.5185            0    1339.8875    23.321696    21.375196    21.592799    10764.136    845.64738    1128.4278    2045.5873   -72.022385    26.259756   -409.35956   -6381.2046 
 4626000    81.823913   -6813.4197   -6602.9327   -6813.4197            0    372.15234    23.228631    21.497894    21.634162    10803.379    650.10615    114.44111    351.90977   -154.98587    202.12969   -759.07264   -6544.2978 
 4627000    81.238855   -6813.7183   -6604.7363   -6813.7183            0    1169.2288    23.315136    21.339225    21.685472    10789.106     149.5433    1027.3607    2330.7824   -316.16348    197.23902    424.21238   -6420.7605 
 4628000    80.737894   -6809.7399   -6602.0466   -6809.7399            0    746.08779    23.153916    21.463016    21.730952    10799.259     1277.656    534.74113    425.86623    267.99745    243.09711    226.88767   -6484.5407 
 4629000    84.536727    -6804.678   -6587.2124    -6804.678            0    581.78843    23.303588    21.250161    21.821374    10806.053     327.4644    1483.5694   -65.668533   -634.11476    570.85186   -71.479941   -6495.5253 
 4630000    76.005905   -6814.1529   -6618.6323   -6814.1529            0    1371.0221    23.105715     21.42882    21.754493    10771.263    1477.2313    1753.5321    882.30292     -273.525    741.85974    147.41668   -6403.2614 
 4631000    77.700334     -6814.92   -6615.0407     -6814.92            0    875.38057    23.290319    21.262971    21.798524    10795.095    773.77049    1478.8988    373.47237   -799.23594    93.725934      46.7363   -6477.2248 
 4632000    84.368208   -6808.0312   -6590.9992   -6808.0312            0    608.46129    23.090903    21.503791    21.782318    10815.835    1361.0847    272.25855    192.04066   -81.838621    304.53634    254.37805   -6495.0218 
 4633000    77.771175   -6796.4423   -6596.3807   -6796.4423            0    540.68813    23.279982    21.345757    21.759386    10812.866    283.30698    889.83233    448.92506    136.09513   -135.23818    73.666646   -6511.1171 
 4634000    77.002733   -6814.5613   -6616.4764   -6814.5613            0    1021.0139     23.20453    21.459977     21.65788    10784.946    1218.3405    549.19419    1295.5069    197.16029     253.4035   -313.96973   -6455.8838 
 4635000    77.736358    -6812.693    -6612.721    -6812.693            0     80.54554    23.384364    21.357509    21.648932    10812.164   -192.88269    321.80858    112.71073    66.684526   -620.87765    473.05063   -6600.0202 
 4636000    85.644196   -6814.2793   -6593.9649   -6814.2793            0    1094.7375    23.220726    21.416338    21.684853    10783.941    823.20295    1017.3463    1443.6634    -8.954753   -73.159027    290.66705   -6421.7925 
 4637000    78.541736   -6806.8472   -6604.8034   -6806.8472            0    623.66171     23.43154     21.28003    21.666999    10803.683    395.11486    567.75039    908.11989    899.71764       55.501    96.681435   -6506.5389 
 4638000    80.095276   -6818.2733   -6612.2331   -6818.2733            0    933.18345    23.170033    21.488513    21.645778    10777.207    1019.1226    252.72089    1527.7069    334.77438    682.21116   -211.75012   -6465.5604 
 4639000    78.938307   -6811.8236   -6608.7596   -6811.8236            0    1284.9661    23.327089    21.277364     21.67089    10756.107    1228.9677    1550.4716     1075.459   -662.08192    57.637876   -404.89524   -6407.1911 
 4640000    81.261777   -6813.0316   -6603.9906   -6813.0316            0    605.64469    23.181387    21.481266    21.668166        10790    586.55354    117.79397    1112.5866    499.54506    539.82431    279.31015   -6508.6857 
 4641000    80.975144   -6817.4598   -6609.1562   -6817.4598            0    987.86911    23.366879    21.280617     21.69404    10787.613    174.15472    1543.2894    1246.1632    1395.9702    90.362528    414.04664   -6453.7384 
 4642000    80.550359   -6812.0073   -6604.7964   -6812.0073            0    90.632575    23.228486    21.438369    21.725591    10818.929    228.12423   -73.224029    116.99752   -166.24089   -243.74891   -268.56808   -6590.4961 
 4643000    80.737176   -6807.8076   -6600.1161   -6807.8076            0    1494.8527    23.249716     21.32623    21.700773    10759.868    952.40623    1731.1432    1801.0086   -222.23002   -479.42193   -988.27569   -6365.5414 
 4644000    79.488435   -6812.0864   -6607.6072   -6812.0864            0    523.34022    23.226482    21.398577    21.742111    10806.126    1064.9601    673.77928   -168.71866    289.64132   -254.28413   -1020.9374   -6525.1308 
 4645000    82.740931   -6803.5907   -6590.7447   -6803.5907            0    226.72849    23.243074    21.410647    21.758224    10827.964    214.38657    161.69957    304.09933     408.7669   -386.34692   -444.94359   -6554.9409 
 4646000    79.460676   -6808.7254   -6604.3176   -6808.7254            0    1588.4497    23.209771     21.32589     21.75433     10767.72    1354.9346    2125.7216    1284.6929    239.50304   -258.29855   -642.05925   -6354.8736 
 4647000    82.044374   -6821.9476   -6610.8935   -6821.9476            0    1261.9547    23.145446    21.360876    21.786664    10771.479    1896.1814    1039.1496      850.533   -208.16488   -756.36138   -195.79901   -6412.6518 
 4648000    78.816691   -6814.3113   -6611.5602   -6814.3113            0    655.60115    23.248086    21.320662    21.772957    10792.083   -184.08693    1648.7079    502.18242   -47.242636    422.44067   -231.48622   -6508.3742 
 4649000    83.247164   -6805.7321   -6591.5838   -6805.7321            0    1092.7435    23.136393    21.400855    21.787397    10787.781    1575.4201    865.35855    837.45188   -56.066629   -418.88498    425.39878   -6419.6639 
 4650000    80.700886   -6815.7926   -6608.1945   -6815.7926            0    340.34131    23.293103     21.31661    21.786414    10817.608    695.40158    771.59057   -445.96823   -744.34608    200.13444    180.12547   -6554.5009 
 4651000    82.114311    -6805.163   -6593.9289    -6805.163            0    460.82306    23.183194    21.452467     21.73017    10807.211    1249.2133   -298.45565    431.71152   -745.14939   -570.87667    170.34457   -6521.2976 
 4652000    80.815979   -6820.3248   -6612.4306   -6820.3248            0    1312.8546    23.255211    21.314036    21.702252    10756.991    1584.5565    1037.5635    1316.4437    -437.6351   -314.28076   -48.676362   -6406.4704 
 4653000    82.215865   -6804.0511   -6592.5558   -6804.0511            0    157.79248    23.243871    21.434682    21.709728    10816.329     485.2841    -270.4091    258.50246  -0.67464551    100.17606   -103.56372   -6567.6648 
 4654000    81.579991   -6811.1553   -6601.2957   -6811.1553            0    1300.3707     23.31434    21.342089    21.652592    10773.826    239.95374    1902.3177    1758.8405    552.06684    641.01565   -120.36058   -6396.9747 
 4655000    78.287338   -6813.4018   -6612.0124   -6813.4018            0    1277.3402     23.19853    21.520567    21.551851    10759.665    514.04364    753.20009    2564.7769    63.573731    511.63643   -53.607801   -6411.5739 
 4656000    80.093231   -6826.1201   -6620.0851   -6826.1201            0    1044.4092    23.366786    21.284566    21.647061    10766.207   -111.27736    1585.6365    1658.8683    503.83442    183.46787    347.97405   -6456.0982 
 4657000     79.05235   -6811.9853    -6608.628   -6811.9853            0     500.6965    23.206654    21.497295    21.638273    10794.908    663.74644    38.011129    800.33193    679.21015   -744.48215   -106.27381    -6529.802 
 4658000    83.025127   -6820.7491   -6607.1721   -6820.7491            0    464.14602    23.492646    21.221518    21.624585    10780.929   -120.55915    736.57419    776.42301     305.1906   -764.73045   -672.62327   -6534.1949 
 4659000    81.267683   -6810.7019   -6601.6458   -6810.7019            0    1555.4071     23.16852    21.469447    21.631616    10759.897    2304.2156      648.182    1713.8237    295.25368   -212.50501   -223.86086   -6357.5681 
 4660000     77.97681    -6805.903   -6605.3124    -6805.903            0    388.48645    23.344669    21.305347    21.714283    10799.952    244.48709    244.24106    676.73119    137.62217    314.74397      299.328   -6544.1234 
 4661000    77.979019   -6813.5243   -6612.9281   -6813.5243            0    767.51295     23.21389     21.49271    21.638313    10795.991    1010.5288    221.56193    1070.4482    74.908107    657.05708    13.386389   -6492.0843 
 4662000    79.713666   -6807.2119   -6602.1533   -6807.2119            0    1011.9064    23.342688    21.361515    21.655934     10798.41    939.30144    723.22809    1373.1896   -97.994109    31.197456   -348.61913   -6442.7945 
 4663000    77.973131   -6803.9044   -6603.3233   -6803.9044            0    1042.6679    23.229155     21.40356    21.688222    10783.094    876.16853    1785.0552     466.7798   -229.49442    427.13292   -220.99088    -6439.353 
 4664000    80.610063   -6817.7551   -6610.3907   -6817.7551            0    1231.6153    23.297949    21.316498    21.659699    10756.871    683.09559    1252.5184     1759.232    967.35243    304.33706     348.2437   -6417.1774 
 4665000    85.160043   -6820.4862   -6601.4172   -6820.4862            0    800.44137    23.237677    21.356938    21.721218    10779.928    1045.9102    882.19938    473.21453    458.36919   -360.29419    138.69664   -6475.5765 
 4666000    83.263223   -6805.8104   -6591.6208   -6805.8104            0    1079.9217    23.258449    21.365533    21.703932    10785.317    1155.0487    637.90682    1446.8095    -568.7696    781.74011    561.45532   -6421.7569 
 4667000    81.440318   -6815.5065   -6606.0063   -6815.5065            0    1318.0845    23.208675    21.368672    21.719358    10771.467    1465.8508    1082.2041    1406.1988   -915.77904     480.8943    788.82275   -6398.9473 
 4668000    84.450909   -6811.9345   -6594.6897   -6811.9345            0    500.88569    23.222103    21.381124    21.756937    10802.638    777.20897    414.52331    310.92479    206.12291    484.07969    420.14936   -6515.7774 
 4669000    85.581415   -6803.8236   -6583.6706   -6803.8236            0    855.67409    23.327708    21.341192     21.68231    10794.344    391.12873    1549.9706     625.9229   -99.543881     196.2667     -71.6026   -6448.9666 
 4670000    80.732865   -6811.4677   -6603.7874   -6811.4677            0    1000.3267    23.219566    21.421152    21.674649    10780.751    619.61341    665.94983     1715.417    583.27588     363.0562   -503.70806   -6446.5098 
 4671000    79.064577    -6807.997   -6604.6082    -6807.997            0    756.17337    23.325011    21.293448    21.731213     10793.24    497.48005    942.20783    828.83224    207.88957   -389.00346   -203.77284   -6485.5802 
 4672000    83.220226   -6811.9933   -6597.9144   -6811.9933            0    737.36964    23.130672    21.528665    21.672491    10792.304    1243.9364    392.33355    575.83892    67.942146    338.77263   -821.96005   -6481.8563 
 4673000     79.32232   -6810.2171   -6606.1652   -6810.2171            0     1388.984    23.328412    21.260024    21.710567    10767.629    804.90722     1754.218    1607.8267   -347.17918    612.95638   -41.085229   -6388.0464 
 4674000    80.131806   -6818.2021   -6612.0679   -6818.2021            0    443.03709    23.143766    21.467501    21.740294    10801.422    237.51026    710.71637    380.88463   -137.66622    561.46796   -431.90973   -6542.2773 
 4675000    82.506521    -6810.348    -6598.105    -6810.348            0    1375.3982    23.351616    21.165699    21.779333    10764.507    874.82589    2680.0603     571.3086    617.00522   -346.44754   -532.10629   -6382.1822 
 4676000    79.406205   -6814.0996   -6609.8319   -6814.0996            0    1246.9646    23.168487    21.414084    21.691897    10762.043    965.83073    1392.7243    1382.3388    405.42858    495.92817    760.52455   -6414.1167 
 4677000    83.045821   -6802.8179   -6589.1876   -6802.8179            0    304.52477    23.337529    21.309198    21.739562    10811.171   -17.122984    741.04153    189.65577    127.28874    27.188909   -503.59714   -6541.1732 
 4678000    80.628517   -6806.1384   -6598.7264   -6806.1384            0    1119.8017    23.150259    21.456753    21.652773    10755.569    1652.3377    780.00676    927.06077    -214.2332   -323.41961    111.37251   -6423.0755 
 4679000     82.20069   -6814.5356   -6603.0793   -6814.5356            0    503.39485    23.328965    21.339297    21.699969    10802.759    225.74543    161.61109     1122.828   -115.49493   -95.875854    384.08404   -6523.7709 
 4680000    79.427465   -6801.9871   -6597.6648   -6801.9871            0    937.89465    23.289842    21.418231    21.633024    10791.141    585.18709    1198.4053    1030.0915   -85.779305   -360.20428   -369.27138    -6450.061 
 4681000    79.800353   -6809.2672   -6603.9857   -6809.2672            0    856.67785    23.266693    21.434455     21.63314    10788.639    1405.8461    424.71689    739.47054   -874.28676   -482.36657   -121.48266   -6469.1949 
 4682000    81.949522   -6805.3097   -6594.4995   -6805.3097            0     1512.944    23.291285    21.387176    21.604202    10761.805     922.9564    1622.5828    1993.2927   -304.19462    54.257783  -0.84173496   -6357.0431 
 4683000    78.162471   -6810.5192    -6609.451   -6810.5192            0    925.07955    23.270883    21.401119    21.641866    10778.146    701.44071    922.98245    1150.8155    27.489962   -414.68794    62.987813   -6464.0394 
 4684000    82.682912   -6822.4394   -6609.7426   -6822.4394            0     1497.794    23.210216    21.384873    21.676116    10758.886     1750.325    1204.7777    1538.2792   -63.196117   -424.50854    229.53517   -6374.7278 
 4685000      80.8415   -6804.2602   -6596.3003   -6804.2602            0    729.02446    23.189481    21.413806    21.737092    10794.098    1471.6315   -19.930077    735.37196   -505.37679     -167.801    592.14785   -6481.5367 
 4686000    80.205042   -6800.4298   -6594.1072   -6800.4298            0    803.46931    23.273114    21.306923    21.754161     10787.42    793.49672    816.47231     800.4389   -364.06262   -584.84814    320.56631   -6467.7027 
 4687000    80.164397    -6820.119   -6613.9009    -6820.119            0    922.94748     23.13291    21.452225    21.694739    10766.066    1630.2939    644.62656    493.92195    72.014768   -240.44079    176.54755   -6468.9871 
 4688000     82.85799   -6807.4652    -6594.318   -6807.4652            0    1123.2537    23.298666      21.3112    21.727309    10788.099    918.68429    1662.1649    788.91183    633.47196    196.69726   -72.759481   -6417.5928 
 4689000     78.92557   -6819.0938   -6616.0626   -6819.0938            0    696.92996    23.196863    21.439546    21.687084    10785.642    879.78068    583.50847    627.50074      270.848    41.700189   -274.60868   -6506.4372 
 4690000    85.477376   -6804.2297   -6584.3444   -6804.2297            0     1034.956    23.316065    21.319148    21.701702    10787.453      656.542    1798.5457    649.78015   -361.61709    346.67642   -1074.1644   -6421.5211 
 4691000    82.760588   -6804.9955   -6592.0989   -6804.9955            0    832.00152    23.224754    21.473247    21.642578    10793.389    561.77304    697.50716    1236.7244    16.070136   -57.971256   -657.48798   -6461.1331 
 4692000    80.462428   -6806.8487    -6599.864   -6806.8487            0    192.07851    23.405029    21.321841    21.671632    10814.975    -474.8902    723.87882    327.24692   -269.40432   -370.73753   -690.88062   -6569.5683 
 4693000    80.708349    -6814.139   -6606.5217    -6814.139            0    1111.0618    23.207666    21.437722    21.666329    10779.421    1311.0085    629.95821    1392.2186    649.98683   -398.90673   -710.98142   -6431.8552 
 4694000    81.470289   -6810.8129   -6601.2356   -6810.8129            0    522.02587    23.360198    21.323372    21.675729    10797.075    256.85876     473.7472    835.47165    771.10113    160.47438   -195.00513   -6519.0351 
 4695000    81.660481   -6805.6408   -6595.5742   -6805.6408            0    592.25216    23.256631    21.480267    21.631267    10806.087    833.47496   -368.03268    1311.3142    565.15435    806.51863    175.38408   -6502.2378 
 4696000    81.988644   -6816.8317   -6605.9209   -6816.8317            0    1258.6178    23.291202    21.317372    21.668531    10758.582    1766.0093    606.84722    1402.9968   -487.15767   -26.315883    13.225279   -6408.4401 
 4697000     81.09096   -6807.5238   -6598.9223   -6807.5238            0    1149.6522     23.21412    21.390464    21.678973    10764.928    1470.3894    1131.0405    847.52658    59.270726    540.29679    48.067147   -6418.4321 
 4698000    79.475974   -6802.6597   -6598.2126   -6802.6597            0    1079.7455     23.26759     21.30552    21.761464    10787.769    772.52961     1577.116    889.59084    964.54862     -245.411    1276.6156   -6428.3378 
 4699000    84.488252   -6812.8546   -6595.5137   -6812.8546            0    221.68465     23.21937    21.426713     21.74665     10819.28    355.76606   -194.72203    504.00991    21.232817    70.201811    905.34091   -6560.5345 
 4700000    79.942061   -6812.5845   -6606.9384   -6812.5845            0    1531.5322    23.244507    21.331699    21.707382    10763.493    2008.0791    1327.5852    1258.9324   -242.59332   -458.83198    20.994011   -6366.5269 
 4701000    81.506552   -6809.2449   -6599.5743   -6809.2449            0    653.03165    23.162463    21.448436    21.699609    10780.336     1164.408    367.35301    427.33389   -617.49247   -374.28935    75.138029   -6496.9045 
 4702000    80.837002   -6810.4015   -6602.4533   -6810.4015            0    883.17358    23.285367    21.300834    21.742981    10784.469     301.1385    1775.4703    572.91195    598.97791   -76.640692    551.17924   -6463.5474 
 4703000    77.354183   -6818.4084   -6619.4195   -6818.4084            0    926.28888    23.182139    21.430713    21.687366    10774.495    1372.8823    934.27584    471.70856   -768.80002   -78.040821    -491.4942   -6473.8672 
 4704000    79.573624   -6811.0964   -6606.3981   -6811.0964            0    1278.3909    23.280473      21.3633    21.647263    10766.217    820.97735    1686.6625    1327.5329   -49.810714    213.74524   -123.93298   -6405.6725 
 4705000    79.804772   -6813.8303   -6608.5374   -6813.8303            0    1454.1892    23.279675    21.396437    21.623701    10770.811    1890.4354    419.40534     2052.727    -320.8619    -481.7249    455.52944   -6380.1115 
 4706000    81.119473   -6824.1512   -6615.4763   -6824.1512            0     575.8518     23.27096    21.417935    21.679813    10805.563    911.68939    520.32471    295.54129    333.30534   -174.96073   -235.96887    -6524.729 
 4707000    76.702265   -6807.2822   -6609.9703   -6807.2822            0    1167.6303     23.25406    21.348258     21.73195    10788.472    1380.4975    1571.5265    550.86701   -180.78566   -209.22705   -466.40205   -6426.2568 
 4708000    81.603524   -6811.9661    -6602.046   -6811.9661            0    832.93164    23.209421    21.380923    21.739014    10787.743    1104.7228    1004.1269     389.9453   -18.500696    -190.0613   -305.03372   -6471.0024 
 4709000    80.676105   -6804.3703   -6596.8359   -6804.3703            0    483.65129    23.249499    21.365817    21.780745    10819.466    948.93479    159.25592    342.76316    219.42306    363.83424    17.551453   -6520.5202 
 4710000    80.103955   -6810.7107   -6604.6481   -6810.7107            0    979.96988    23.191206    21.346875    21.791143    10787.919    1692.9836      1028.13    218.79609    616.79965    204.47422   -119.66279   -6450.4688 
 4711000    80.780597   -6804.9576   -6597.1544   -6804.9576            0     1339.371    23.215288     21.32502    21.725162      10755.4     1828.142    1222.7572    967.21394   -517.51812    362.90463    83.850943   -6387.0654 
 4712000    78.451631   -6810.4578   -6608.6457   -6810.4578            0    190.67622    23.215612    21.403316    21.747242     10806.01    589.33905    321.54928   -338.85966    629.06067   -79.891845   -175.69688   -6578.5962 
 4713000    79.563232   -6809.2172   -6604.5457   -6809.2172            0    501.08841    23.314319    21.322485    21.737851    10806.303   -314.47087    927.87263    889.86348    799.31766    96.486931   -123.11933   -6525.5747 
 4714000    77.185302    -6801.843   -6603.2885    -6801.843            0    1636.6851     23.20589    21.397841     21.68143    10766.043    2432.1857    478.67037    1999.1993   -72.564298   -41.201807   -205.70102   -6346.3098 
 4715000    77.706045   -6815.6859   -6615.7919   -6815.6859            0   -70.896197    23.283838    21.391288    21.724242    10820.221   -119.36689   -107.63455    14.312852    171.11196   -120.08522   -125.86519   -6626.9794 
 4716000    84.702386   -6822.4535   -6604.5617   -6822.4535            0    1393.5916    23.259086    21.341133    21.686966    10764.873    759.56212    1260.0595    2161.1533    1230.6689   0.18748556    24.322236   -6385.7753 
 4717000    82.091918   -6816.5758   -6605.3993   -6816.5758            0    277.37149    23.291814    21.362126    21.720202    10807.161   -1.8569459    175.47624    658.49518    1196.5314   -742.79283    483.77806   -6561.6824 
 4718000    82.164587   -6808.4983   -6597.1349   -6808.4983            0    539.24069    23.303155    21.314331    21.756036    10806.031    724.18449    649.40193    244.13566   -80.348347   -399.34172   -390.81047   -6512.1533 
 4719000    80.438835   -6812.0664   -6605.1424   -6812.0664            0    200.80158    23.233715    21.458461    21.692281    10814.898    297.55437    277.61508    27.235284    215.97725   -912.89351   -256.72942   -6573.4712 
 4720000    79.304202   -6819.7798   -6615.7745   -6819.7798            0     1069.757    23.350192    21.312727    21.653736    10776.117     924.9878    1530.5479    753.73519   -1001.1917    325.15366   -534.30963    -6447.653 
 4721000    81.303927   -6817.6858   -6608.5364   -6817.6858            0    110.30902    23.210423    21.498621    21.675899    10816.102     431.8644   -492.11678    391.17942   -974.48273    1049.0268    74.120021   -6591.1361 
 4722000    80.958118   -6818.4032   -6610.1434   -6818.4032            0    1610.4735    23.311969    21.313761    21.656212     10760.23     908.7683    2160.5032    1762.1491   -515.06401   -72.146414   -254.40654   -6357.4167 
 4723000    82.302649   -6822.5535    -6610.835   -6822.5535            0    1654.6616    23.161376    21.455438    21.609076     10738.36    1888.3494    1949.8429    1125.7926    117.57087   -467.08099    280.28086   -6351.7018 
 4724000    83.175206   -6803.9799   -6590.0168   -6803.9799            0    1219.8886    23.281558    21.307284    21.724877    10776.989    965.32488    1510.0995    1184.2414   -400.36606   -712.62668   -85.940986   -6398.2852 
 4725000    80.824179   -6815.9776   -6608.0624   -6815.9776            0    1027.9724    23.158839     21.44477    21.712865     10783.39    1866.7797    434.31921    782.81815   -153.76986   -401.38917   -110.77334   -6446.3986 
 4726000    81.336569   -6813.0152   -6603.7818   -6813.0152            0    1183.8418    23.274036    21.267527     21.75617    10768.895    697.87353    1179.9959     1673.656    27.804582    992.71778    833.49077   -6417.8556 
 4727000    83.682008    -6798.437   -6583.1701    -6798.437            0    467.60744    23.096139    21.485196    21.776087    10805.841     700.3917     432.7776    269.65301   -681.14652    38.126587    461.78913   -6509.4789 
 4728000    84.045764   -6805.1767   -6588.9741   -6805.1767            0    1119.2834    23.267259    21.307177    21.748031    10781.796    1164.5442    1445.7634    747.54251   -56.142965    -78.40524   -629.60693   -6412.9764 
 4729000    84.951931   -6818.7244   -6600.1907   -6818.7244            0    223.35643    23.246347    21.429915    21.691753     10806.12    11.759228    451.26642    207.04364    732.43286   -379.14596    89.654996   -6564.9906 
 4730000    81.409121   -6801.2609   -6591.8409   -6801.2609            0    1106.6875    23.337436    21.320124    21.631698    10763.003    559.23735    1620.8851    1139.9401    764.11491   -430.73221    28.841583   -6418.1271 
 4731000    82.918319   -6805.6789   -6592.3766   -6805.6789            0    962.05933    23.265436    21.419609    21.602726    10765.428    901.66394    260.50587    1724.0082    657.38894    22.311747    1166.9457   -6441.3306 
 4732000    80.188526   -6805.1089   -6598.8288   -6805.1089            0    1310.1515    23.299719     21.36443    21.646793    10775.454    1129.6177    954.28642    1846.5505   -104.09496    407.24915   -328.31659   -6392.9399 
 4733000    79.384793    -6814.273   -6610.0605    -6814.273            0    934.56409    23.256352    21.438378    21.627632    10783.072    971.20409    495.77111    1336.7171   -426.83851    374.86921    519.61542   -6463.0909 
 4734000    80.815428   -6811.8421   -6603.9493   -6811.8421            0    688.72205    23.308307    21.352013    21.672787    10786.097    805.42816    468.77465    791.96333   -326.57802   -198.26248     29.32782   -6495.6105 
 4735000    79.845073   -6811.0051   -6605.6086   -6811.0051            0     1351.028    23.177231    21.409731    21.688622    10762.291    2136.4691    1081.9509    834.66403   -107.33463   -97.970601    67.554941   -6393.5553 
 4736000     78.66868   -6806.5431   -6604.1727   -6806.5431            0    802.06999    23.254955    21.347944    21.735269    10790.376    290.35074    1194.8828     920.9764   -200.73723   -286.20237    1097.8743   -6477.9537 
 4737000    77.771226   -6808.8895   -6608.8278   -6808.8895            0    730.91627    23.229774    21.445733    21.677441    10799.257    1434.4609   -129.47321    887.76112   -489.60422   -675.59144    978.54767   -6493.7113 
 4738000    81.242027   -6801.3874   -6592.3972   -6801.3874            0     274.2629    23.311933     21.41645    21.685725     10826.79    314.56225   -163.54727    671.77371   -823.24253   -166.62607     691.6703   -6549.0918 
 4739000    81.049967   -6815.0238   -6606.5277   -6815.0238            0    851.39664    23.246732    21.377377    21.702683    10785.239    879.20211    842.79474    832.19309    138.90153    371.85555    630.64482   -6472.6101 
 4740000    83.749861   -6814.6189   -6599.1774   -6814.6189            0    1173.1851    23.215956    21.334668    21.731323    10763.627    861.41445    2049.5976    608.54342   -554.63162    392.09661    276.92141    -6415.015 
 4741000    77.992983   -6807.3865   -6606.7543   -6807.3865            0    1001.9176     23.18281    21.405116    21.744098     10790.09    751.45737    1654.8863    599.40914    239.31878    107.73347   -37.330713   -6449.0901 
 4742000      80.8613   -6815.7557   -6607.7449   -6815.7557            0    568.81845    23.262367    21.314062    21.811808    10814.633    101.35433    1086.7671     518.3339    -99.81859   -295.81617   -343.09315   -6518.0307 
 4743000     80.36139   -6806.9782   -6600.2534   -6806.9782            0    695.63061     23.17924    21.418912    21.767647    10807.073    1387.3354    426.50665    273.04976    110.76382   -858.60089    -214.9565    -6490.615 
 4744000     80.16604   -6811.6145   -6605.3922   -6811.6145            0    837.06624    23.192014    21.378738    21.772674     10795.24    1492.1011     728.6465    290.45111   -392.25972    88.739105    8.7995037   -6473.6066 
 4745000    85.187099   -6805.9596    -6586.821   -6805.9596            0    1662.2229    23.217679    21.320621    21.747939    10765.563    2109.8325    1882.9822    993.85399   -751.26927   -396.02058   -936.89642   -6325.8441 
 4746000    80.364857   -6812.8983   -6606.1646   -6812.8983            0    1316.3947    23.127664    21.427262    21.758839    10782.865    1893.0558    1626.1634     429.9648    102.20722   -170.44826   -1077.0266   -6399.1523 
 4747000     82.26644   -6816.2303   -6604.6049   -6816.2303            0    500.52578    23.262276    21.367427    21.745575    10808.747    784.74965    377.01519    339.81251    234.15931    419.94402   -101.67617   -6525.7048 
 4748000     84.87032   -6818.0973   -6599.7735   -6818.0973            0      703.481    23.281799    21.357473    21.706919    10793.557    28.237023     1531.995    550.21097    1077.6227    -70.05209   -443.11307   -6489.0365 
 4749000    83.159877   -6822.5698   -6608.6461   -6822.5698            0    1004.5597    23.203246    21.338453    21.756449    10772.083     955.3691    953.62301    1104.6869    617.17273    497.97411    385.21053     -6450.83 
 4750000    83.785535   -6799.5199   -6583.9867   -6799.5199            0    1254.6983    23.247168    21.309549    21.758225    10778.734    1703.2545    707.95722    1352.8832   -241.82359      534.167    405.75015   -6386.7522 
Loop time of 552.87 on 64 procs for 250000 steps with 1296 atoms

Performance: 78.138 ns/day, 0.307 hours/ns, 452.186 timesteps/s
99.1% CPU use with 64 MPI tasks x 1 OpenMP threads

MPI task timing breakdown:
Section |  min time  |  avg time  |  max time  |%varavg| %total
---------------------------------------------------------------
Pair    | 28.872     | 40.463     | 52.554     | 117.7 |  7.32
Bond    | 0.28202    | 0.29056    | 0.3024     |   0.8 |  0.05
Kspace  | 281.3      | 294.3      | 306.27     |  43.9 | 53.23
Neigh   | 0.97491    | 0.99005    | 1.0032     |   0.6 |  0.18
Comm    | 92.22      | 94.162     | 96.988     |  15.4 | 17.03
Output  | 0.60077    | 0.6019     | 0.60356    |   0.1 |  0.11
Modify  | 107.64     | 109.68     | 113.05     |  11.3 | 19.84
Other   |            | 12.38      |            |       |  2.24

Nlocal:        20.2500 ave          27 max          13 min
Histogram: 2 4 15 5 2 10 5 11 6 4
Nghost:        2594.91 ave        2623 max        2574 min
Histogram: 5 4 10 13 10 6 8 5 1 2
Neighs:        6476.34 ave        8677 max        4198 min
Histogram: 2 8 11 5 5 7 6 10 6 4

Total # of neighbors = 414486
Ave neighs/atom = 319.81944
Ave special neighs/atom = 2.0000000
Neighbor list builds = 1786
Dangerous builds = 0

unfix		3
unfix		2
unfix		1

write_data	data.final.${pid}
write_data	data.final.0
System init for write_data ...
PPPM initialization ...
  extracting TIP4P info from pair style
  using 12-bit tables for long-range coulomb (../kspace.cpp:340)
  G vector (1/distance) = 0.3681976
  grid = 30 40 32
  stencil order = 5
  estimated absolute RMS force accuracy = 0.004323963
  estimated relative force accuracy = 1.3021486e-05
  using double precision FFTW3
  3d grid and FFT values/proc = 5168 640
Last active /omp style is kspace_style pppm/tip4p/omp
WARNING: Not all mixed pair coeffs generated from mixing. Use write_data with 'pair ij' option to store all pair coeffs. (../write_data.cpp:312)

write_restart   restart.lmp.${pid}
write_restart   restart.lmp.0
System init for write_restart ...
PPPM initialization ...
  extracting TIP4P info from pair style
  using 12-bit tables for long-range coulomb (../kspace.cpp:340)
  G vector (1/distance) = 0.3681976
  grid = 30 40 32
  stencil order = 5
  estimated absolute RMS force accuracy = 0.004323963
  estimated relative force accuracy = 1.3021486e-05
  using double precision FFTW3
  3d grid and FFT values/proc = 5168 640
Last active /omp style is kspace_style pppm/tip4p/omp
Total wall time: 0:09:13
