LAMMPS (30 Jul 2021)
Processor partition = 0
  using 1 OpenMP thread(s) per MPI task
using multi-threaded neighbor list subroutines
variable        pid world 0 1
variable        phase world IceII IceIII

shell cd ${phase}
shell cd IceII
include Restart.lmp
echo both
log log.lammps
#include		in.partitions
include		in.temp
variable        temperature equal 137.16
variable	tempDamp equal 100.0
include		in.pressure
variable        pressure equal 9793.8
variable        pressureDamp equal 1000.0 # This is 1 ps
include		in.seed
variable        seed equal 745823

units		real
atom_style	full
box tilt large
read_restart	restart.lmp.${pid}
read_restart	restart.lmp.0
Reading restart file ...
  restart file = 30 Jul 2021, LAMMPS = 30 Jul 2021
  restoring atom style full from restart
  triclinic box = (-10.594102 -9.1006459 0.25505287) to (12.574102 12.090644 21.604946) with tilt (-9.2980706 1.7805238 2.7247758)
  4 by 4 by 4 MPI processor grid
  restoring pair style lj/cut/tip4p/long/omp from restart
  restoring bond style harmonic/omp from restart
  restoring angle style harmonic/omp from restart
  1296 atoms
  864 bonds
  432 angles
Finding 1-2 1-3 1-4 neighbors ...
  special bond factors lj:    0        0        0       
  special bond factors coul:  0        0        0       
     2 = max # of 1-2 neighbors
     1 = max # of 1-3 neighbors
     1 = max # of 1-4 neighbors
     2 = max # of special neighbors
  special bonds CPU = 0.006 seconds
  read_restart CPU = 0.017 seconds
include 	in.setup
variable	out_freq equal 1000
variable	out_freq2 equal 10000
variable	out_freq3 equal 1000

timestep	2.0

neigh_modify    delay 7 every 1

include		in.tip4p
# This is TIP4P/Ice

# create groups ###
group ox type 2
432 atoms in group ox
group hy type 1
864 atoms in group hy

# set charges - beside manually ###
set group ox charge -1.1794
Setting atom values ...
  432 settings made for charge
set group hy charge 0.5897
Setting atom values ...
  864 settings made for charge

# ### TIP3P Potential Parameters ###
pair_style lj/cut/tip4p/long/omp 2 1 1 1 0.1577 8.5
pair_coeff 1 1*2 0.000 0.000
pair_coeff 2 2 0.21084 3.1668
bond_style  harmonic
bond_coeff  1 450 0.9572
angle_style harmonic
angle_coeff 1 55 104.52
kspace_style pppm/tip4p/omp 1.0e-5
pair_modify tail yes

thermo          ${out_freq}
thermo          1000
thermo_style    custom step temp pe etotal epair emol press lx ly lz vol pxx pyy pzz pxy pxz pyz enthalpy

restart 	${out_freq3} restart.lmp.${pid} restart2.lmp.${pid}
restart 	1000 restart.lmp.${pid} restart2.lmp.${pid}
restart 	1000 restart.lmp.0 restart2.lmp.${pid}
restart 	1000 restart.lmp.0 restart2.lmp.0


include         in.dump
dump            myDump all atom ${out_freq2} dump.water.${pid}
dump            myDump all atom 10000 dump.water.${pid}
dump            myDump all atom 10000 dump.water.0
dump            myDump2 all dcd ${out_freq2} dump.dcd
dump            myDump2 all dcd 10000 dump.dcd
dump_modify     myDump append yes
dump_modify     myDump2 append yes


variable natoms 	equal  "count(all)"                        # NUMBER ATOMS
variable H      	equal  "enthalpy/v_natoms"                 # ENTHALPY-per-atom
variable Vol      	equal  "vol/v_natoms"                 # volume-per-atom
fix AVG all 		ave/time ${out_freq} 1 ${out_freq} v_Vol v_H file vol_enthalpy.dat
fix AVG all 		ave/time 1000 1 ${out_freq} v_Vol v_H file vol_enthalpy.dat
fix AVG all 		ave/time 1000 1 1000 v_Vol v_H file vol_enthalpy.dat


timer           timeout 10:00:00 every 1000
New timer settings: style=normal  mode=nosync  timeout=10:00:00

fix 		1 all shake 1e-6 200 0 b 1 a 1
Finding SHAKE clusters ...
       0 = # of size 2 clusters
       0 = # of size 3 clusters
       0 = # of size 4 clusters
     432 = # of frozen angles
  find clusters CPU = 0.001 seconds
fix             2 all nph tri ${pressure} ${pressure} ${pressureDamp}
fix             2 all nph tri 9793.8 ${pressure} ${pressureDamp}
fix             2 all nph tri 9793.8 9793.8 ${pressureDamp}
fix             2 all nph tri 9793.8 9793.8 1000
fix             3 all temp/csvr ${temperature} ${temperature} ${tempDamp} ${seed}
fix             3 all temp/csvr 137.16 ${temperature} ${tempDamp} ${seed}
fix             3 all temp/csvr 137.16 137.16 ${tempDamp} ${seed}
fix             3 all temp/csvr 137.16 137.16 100 ${seed}
fix             3 all temp/csvr 137.16 137.16 100 745823


run             250000
PPPM initialization ...
  extracting TIP4P info from pair style
  using 12-bit tables for long-range coulomb (../kspace.cpp:340)
  G vector (1/distance) = 0.36992736
  grid = 30 40 32
  stencil order = 5
  estimated absolute RMS force accuracy = 0.0040042772
  estimated relative force accuracy = 1.2058762e-05
  using double precision FFTW3
  3d grid and FFT values/proc = 5168 640
Last active /omp style is kspace_style pppm/tip4p/omp
Neighbor list info ...
  update every 1 steps, delay 7 steps, check yes
  max neighbors/atom: 2000, page size: 100000
  master list distance cutoff = 10.8154
  ghost atom cutoff = 10.8154
  binsize = 5.4077, bins = 7 5 4
  1 neighbor lists, perpetual/occasional/extra = 1 0 0
  (1) pair lj/cut/tip4p/long/omp, perpetual
      attributes: half, newton on, omp
      pair build: half/bin/newton/tri/omp
      stencil: half/bin/3d/tri
      bin: standard
Setting up Verlet run ...
  Unit style    : real
  Current step  : 31000000
  Time step     : 2
  Walltime left : 9:59:59.90
Per MPI rank memory allocation (min/avg/max) = 9.446 | 9.451 | 9.455 Mbytes
Step Temp PotEng TotEng E_pair E_mol Press Lx Ly Lz Volume Pxx Pyy Pzz Pxy Pxz Pyz Enthalpy 
31000000    138.05623   -6628.7218   -6273.5806   -6628.7218            0    10074.292    23.168205     21.19129    21.349893    10482.032    10064.798    10058.603    10099.475     129.1994   -449.23957    31.519521   -4733.5267 
31001000    139.44932   -6651.2993   -6292.5745   -6651.2993            0     10568.58    22.968454    21.242744    21.411296    10446.849    10753.207    10341.514     10611.02   -673.51544   -1003.5527   -696.48746   -4682.3817 
31002000    137.85203   -6656.8119   -6302.1959   -6656.8119            0    9267.1299    23.086847    21.207491    21.446598    10500.557    8492.6036    10183.486    9125.3007    636.49437    606.10098   -288.15945    -4883.029 
31003000    137.81894   -6652.2508   -6297.7199   -6652.2508            0    9752.2912    23.131972    21.234823    21.294955    10460.153    9544.7338    9003.8358    10708.304   -202.94109    172.96656    1334.2654   -4810.0021 
31004000    129.14893   -6651.4961   -6319.2683   -6651.4961            0    10031.837    23.048846    21.124452    21.530327    10482.992     11121.64    11021.547     7952.323    396.32998   -1536.9597   -769.36744   -4785.5641 
31005000    139.01031   -6660.2118   -6302.6162   -6660.2118            0    9298.3116    23.153507    21.266668    21.319295    10497.577    7778.1414     9542.747    10574.046    719.51344    251.88849    240.08105   -4879.0783 
31006000    136.99387   -6648.7791   -6296.3707   -6648.7791            0    8157.8131    23.060674    21.268095    21.471663    10530.919    8486.1633    7784.0166    8203.2593   -347.87527   -61.205221     462.2615   -5043.4721 
31007000    135.65954   -6653.6562   -6304.6803   -6653.6562            0    10424.588    23.004582    21.201794    21.415463    10445.144    10591.035    10282.475    10400.254    39.904261    1118.0267   -678.39776   -4716.6849 
31008000    144.86221   -6659.3225   -6286.6733   -6659.3225            0    10428.044    23.147302    21.280455    21.173067    10429.538     9581.017    10762.816    10940.298    1192.1811   -557.88493    350.35771   -4700.5249 
31009000    143.30239   -6644.5315   -6275.8948   -6644.5315            0    9923.0395     23.01703    21.163956    21.479283    10463.234    9748.8813    9961.2584    10058.979    125.39266   -590.17724    493.60715   -4761.6833 
31010000    142.34312   -6656.3212   -6290.1522   -6656.3212            0    9733.7578    23.206338    21.228745    21.223043     10455.35    9486.1079    9236.6397    10478.526    18.814182   -263.37854    -654.4009   -4805.9433 
31011000    131.50225    -6633.432   -6295.1505    -6633.432            0    10854.961     23.05901    21.138229    21.433195     10447.11    11168.388    11183.824    10212.672    104.71141   -180.68275   -493.24799   -4641.2845 
31012000    137.97954   -6632.5082   -6277.5642   -6632.5082            0    9131.3529    23.098502    21.247041    21.386724    10496.065    8877.3259    9358.3228    9158.4102    622.48672    1430.5219   -196.73254   -4879.7884 
31013000     137.6157   -6640.8965   -6286.8885   -6640.8965            0    8942.4479    22.990232    21.331737    21.392158    10491.176    9917.3883    7946.3364    8963.6189    481.11685    172.22833   -497.83427   -4918.6667 
31014000    136.91424   -6668.1813   -6315.9778   -6668.1813            0    9852.7509    23.069378    21.143022     21.44097     10457.97    10487.704    9549.9297    9520.6195    504.14419    571.09997   -890.97538   -4813.2484 
31015000    141.16703   -6654.6767   -6291.5331   -6654.6767            0    10457.884    23.166641    21.114247    21.321158    10429.163    9978.2645    11080.884    10314.504    104.56165   -823.73459    523.38574    -4700.903 
31016000    141.50491    -6663.287   -6299.2742    -6663.287            0    9714.0243    23.189358      20.9941    21.541104    10487.064    8741.9404    11277.313    9122.8195   -999.99243    358.88445    -554.3636   -4813.5815 
31017000    139.61737   -6655.2858   -6296.1286   -6655.2858            0    10398.353    23.153396    21.131544    21.363917     10452.66    9848.8992    10125.057    11221.104   -697.43215   -210.68031    430.41741   -4710.9899 
31018000    132.22849   -6664.3876   -6324.2379   -6664.3876            0     8893.355    23.104756    21.207262    21.433428    10502.136    9394.0587    8279.8339    9006.1725   -688.31271   -1311.7253    474.76623    -4962.106 
31019000      132.037   -6643.2178   -6303.5606   -6643.2178            0    10063.154    23.073043    21.308441    21.276234    10460.472    9894.8805    9332.8376    10961.743    964.94239    -417.2623    -464.0863   -4768.3736 
31020000    133.50848   -6647.0362   -6303.5938   -6647.0362            0     10273.89    22.928008    21.282183    21.442203    10462.896    9656.5325     10650.92    10514.218   -178.68395    198.48879    1272.3275   -4735.8947 
31021000    134.38309   -6656.5275   -6310.8352   -6656.5275            0    10420.077    23.033182    21.201005    21.365302    10433.246    11094.095    9835.9463    10330.189    509.24564   -34.318332    93.660616   -4725.3352 
31022000    141.60254   -6663.4393   -6299.1754   -6663.4393            0    9912.4816    23.107974    21.238518    21.318529    10462.688    10318.007    9866.2261    9553.2117    212.91617   -993.65244    455.01728   -4786.6538 
31023000    141.45192   -6671.8202   -6307.9438   -6671.8202            0    9703.6465    23.238079    20.920447    21.558386    10480.631    8500.4648    11129.712    9480.7628      268.037    512.45338      194.238   -4824.7487 
31024000    146.69534   -6634.7316   -6257.3668   -6634.7316            0    10198.731    23.181943    21.151353    21.323343    10455.463    10039.572    10846.932    9709.6892   -176.34409    105.46576    43.164588   -4702.2417 
31025000    142.39229   -6644.0606   -6277.7651   -6644.0606            0    10275.373    23.065309    21.172123    21.470596    10484.985    10243.478    10991.433    9591.2088    870.63394   -60.980596   -486.25969   -4706.5295 
31026000    139.94872   -6642.8513   -6282.8417   -6642.8513            0    8735.3335    23.096401    21.286811     21.37825    10510.589    8628.3111     7913.759    9663.9303     711.9234    255.09302    195.53088    -4943.836 
31027000    140.66591   -6640.2772   -6278.4227   -6640.2772            0    11375.987    23.037415     21.28874    21.202423    10398.464    11898.179    10710.476    11519.308   -216.96932     1096.907   -898.52162   -4553.2437 
31028000    131.15058   -6655.3742   -6317.9973   -6655.3742            0    10337.806     22.98595     21.23563    21.436831     10463.77    10060.535    9618.1164    11334.767    996.73341   -336.88486   -124.61177   -4740.4134 
31029000    139.07379   -6664.0845   -6306.3257   -6664.0845            0    10700.686    23.056589    21.198834    21.318701    10420.001    10335.445     10363.67    11402.943    594.15786    690.24225    379.87933   -4680.1957 
31030000    138.02826   -6637.0471   -6281.9779   -6637.0471            0    10014.924     23.08969    21.297297    21.328365    10488.181    9195.4289    10792.109    10057.233    948.66228   -861.37961    240.99441   -4750.1015 
31031000    142.37637   -6652.5634   -6286.3089   -6652.5634            0    9628.5445    23.128417    21.165589    21.409386    10480.463    9610.2885    9530.3145    9745.0306   -512.73955   -266.87993   -907.36761   -4814.6166 
31032000    134.52124   -6632.5361   -6286.4884   -6632.5361            0    10510.728    23.187691    21.088058    21.373678    10451.373    9883.9671    10538.877    11109.341   -394.97577    481.31726    175.79753   -4684.4164 
31033000    136.27744   -6656.5471   -6305.9817   -6656.5471            0    8226.5121    23.296362    21.111735    21.406824    10528.446    7618.1783    8255.2116    8806.1464   -187.92354       28.021    199.44253   -5042.8288 
31034000    135.59079   -6649.2973   -6300.4982   -6649.2973            0    10623.993    23.129574    21.135203    21.353795    10438.765    10122.693    10468.688    11280.597   -475.42847    794.24087    225.96122   -4683.1156 
31035000    135.85405   -6667.3629   -6317.8866   -6667.3629            0    8770.8767    23.011379    21.286452    21.433448    10498.759    9392.9025    8051.1614    8868.5661    271.49511   -316.82563    678.63116   -4974.9458 
31036000    137.52421   -6656.5355   -6302.7628   -6656.5355            0    10720.586    23.065472    21.180146    21.353053    10431.608    9912.5586    11485.833    10763.367    254.05477    1516.4781   -421.99859   -4671.7939 
31037000    140.17986   -6643.8198   -6283.2157   -6643.8198            0    11306.336    23.002409    21.286189    21.255248    10407.284    10742.969    11068.225    12107.815   -159.14598    674.04345     101.2675    -4567.145 
31038000    140.98912   -6666.8791   -6304.1932   -6666.8791            0     9055.556    23.006271    21.243388    21.496057    10505.792      9018.65    8863.7282    9284.2899    674.41288   -435.05915   -120.22115   -4916.7353 
31039000    138.60498   -6648.1701   -6291.6173   -6648.1701            0    10270.655    23.134571    21.282792    21.214844    10445.516     9814.238    10103.622    10894.104     167.8004   -221.87724    524.02965   -4727.0151 
31040000    137.18217   -6664.1963   -6311.3035   -6664.1963            0      9394.47     23.12141    21.069315    21.517772    10482.432    10704.108    9734.6627    7744.6391   -587.10875   -444.09225   -451.51801   -4875.1191 
31041000    134.50933   -6653.4126   -6307.3955   -6653.4126            0    10387.209    23.225567    21.111184    21.317052     10452.16    9628.5806    10618.894    10914.152    15.903345    284.59768   -688.98989   -4724.0314 
31042000    135.07192   -6641.4588   -6293.9945   -6641.4588            0    10927.531    23.076933    21.144888    21.335795    10410.997    11091.805    11276.083    10414.705    569.36945   -1603.7439   -518.40038   -4634.8269 
31043000    136.41531   -6643.0352   -6292.1151   -6643.0352            0    10239.132    23.040647     21.23171    21.378158    10458.031    11197.528    9592.2484    9927.6212   -25.938409    575.14589   -586.90061   -4730.4463 
31044000    137.49955   -6649.1615   -6295.4523   -6649.1615            0    8953.7532    22.895708    21.450457     21.38803    10504.162    8988.1024    8238.3495    9634.8077   -277.60145    620.00786    821.81361   -4923.8051 
31045000     128.7781   -6669.1262   -6337.8524   -6669.1262            0     9284.102    23.133069    21.189725    21.409806    10494.731    9168.5266    9197.4778    9486.3017    196.52497    1256.6865    313.92493   -4916.8753 
31046000    139.72176   -6651.6229   -6292.1972   -6651.6229            0    10053.632    23.120616    21.214957    21.339197    10466.937    9943.5494    9699.6216    10517.725   -538.35184   -750.46522   -2.0049012   -4757.5148 
31047000    141.12533   -6677.0275   -6313.9912   -6677.0275            0    8915.5034    23.246676    21.001668    21.477585    10485.764    8912.3287    9167.0774    8667.1042   -131.34282   -420.46084    791.73507   -4950.5957 
31048000    143.36382   -6658.1084   -6289.3137   -6658.1084            0    9648.1268    23.163582    21.178133    21.351504    10474.224    9830.2036    10520.792    8593.3849   -138.02732   -335.78375    -634.6252   -4815.5063 
31049000    144.97263   -6663.2792   -6290.3459   -6663.2792            0    9767.4943    22.976233    21.322424    21.418422    10493.077    9254.8934    9374.4765    10673.113   -159.61658    169.92238    783.11423   -4795.6188 
31050000    141.32143   -6660.1117   -6296.5709   -6660.1117            0     9922.224    22.971725    21.282694    21.382626    10453.971    10754.311    9202.1135    9810.2473   -310.66711   -257.68731   -505.24186   -4783.8243 
31051000    136.38388   -6635.6818   -6284.8426   -6635.6818            0    9689.3477    22.915038    21.436501     21.31301    10469.339    9701.1295     9287.191    10079.723   -462.08444    1221.2813   -146.03519   -4805.4287 
31052000    132.59613   -6652.8355     -6311.74   -6652.8355            0    9916.8367    22.962217    21.277513     21.42549    10468.042    10278.071    9843.4796    9628.9593   -127.72059    85.787748    -457.5591   -4797.7797 
31053000    137.63785   -6662.8804   -6308.8154   -6662.8804            0    9929.3721    23.124435    21.211465    21.317642     10456.37    9819.6532    9825.2493    10143.214    246.72881   -67.674079     573.4967   -4794.6315 
31054000    141.65385   -6654.7245   -6290.3286   -6654.7245            0    9993.2797    23.195045    21.009155    21.471585    10463.282    9157.8479    11009.293    9812.6979     348.4477    246.61046    321.01474   -4765.3918 
31055000    143.81221   -6662.4277   -6292.4795   -6662.4277            0    9413.3287    23.233108    21.091646    21.399194    10486.129     9263.561    9920.9904    9055.4347     -401.445   -1007.7542    350.09525   -4852.9045 
31056000    144.29596   -6645.9774   -6274.7848   -6645.9774            0    9814.6538    23.179233    21.181996    21.323778      10469.6    9280.2076    9924.7967    10238.957   -492.76658   -546.04236    8.5555741   -4776.2012 
31057000    139.96891   -6651.8846   -6291.8231   -6651.8846            0    10678.035    23.053097    21.099025    21.453545    10434.959    10803.187    10737.976    10492.943   -300.90206    -640.8222    205.94396   -4666.8058 
31058000    137.31952   -6654.2781    -6301.032   -6654.2781            0    9561.4551      23.0859    21.315802    21.289853    10476.619    9474.2277    9635.8495     9574.288    61.313551    684.34084   -337.98982   -4840.1302 
31059000    138.80526   -6651.7976   -6294.7295   -6651.7976            0    9816.0012    22.916057    21.298289    21.437622     10463.12     9849.252    9532.9084    10065.843    259.98824    729.39493    1077.0079   -4796.8678 
31060000    134.23135   -6660.6814   -6315.3794   -6660.6814            0    10148.382    22.949048    21.408421     21.26154    10445.856    10623.759    9127.2049    10694.183    -966.1674    286.41926   -782.58859   -4769.3536 
31061000    136.03006   -6656.2521   -6306.3231   -6656.2521            0     9058.628    23.102738     21.20935      21.4397    10505.325    8836.6504    9648.4787     8690.755    378.99976   -163.27645    -303.6622   -4918.4562 
31062000    138.00934   -6647.9391   -6292.9185   -6647.9391            0    9013.2149     23.23127     21.03355    21.489389    10500.491    9224.1485    10637.729    7177.7673    191.48429   -432.20698   -666.17753   -4912.6448 
31063000    138.59012   -6626.3751   -6269.8605   -6626.3751            0    10853.655    23.354023    21.018033    21.279369    10445.098     9903.734    11549.752    11107.478   -184.32875   -1119.9906   -414.60705    -4616.512 
31064000     139.3189   -6665.3685   -6306.9791   -6665.3685            0    9891.8277    23.132613    21.137112    21.422815    10474.827    9797.4072    10086.667    9791.4093    597.51349   -277.43672    306.02897   -4795.8579 
31065000    128.33892   -6658.0453   -6327.9013   -6658.0453            0    9663.6416    23.054089    21.177291     21.44405    10469.482    9663.2405    10349.658    8978.0263   -232.97394    934.09649   -9.9741745   -4852.3922 
31066000    137.17779   -6633.4718   -6280.5903   -6633.4718            0    10021.925    23.034571    21.358322    21.291515    10474.995    9290.3686    10442.706      10332.7   -207.86629    871.38753   -723.39383   -4749.5702 
31067000    127.70551   -6652.1364   -6323.6217   -6652.1364            0    9154.0453    22.904258    21.333711    21.454473     10483.36    9204.6149    8961.0929    9296.4281    247.72043    178.61894   -844.53893   -4924.0685 
31068000    136.21296   -6659.7164   -6309.3168   -6659.7164            0    9927.5562    22.951043    21.349386     21.32674    10449.904    10219.523     8278.961    11284.185    93.045496    1371.0844    509.82861    -4796.346 
31069000    131.93951   -6669.5132   -6330.1069   -6669.5132            0    9164.4764     23.07116    21.264062    21.334807     10466.57    9384.0238    10134.568    7974.8368   -346.69839   -35.680831   -1029.1647   -4931.2028 
31070000    134.02092   -6652.3186    -6307.558   -6652.3186            0    9694.1052    23.165249    21.002474    21.525871    10472.929    9395.4413    9792.2258    9894.6485    449.31576   -53.274301     150.4147   -4826.9101 
31071000    138.32922   -6655.1822   -6299.3387   -6655.1822            0    8700.3145    23.297577    21.146754    21.301161    10494.403    7979.3809    8733.0543    9388.5082   -38.559148    -377.2313    1308.7349   -4967.7546 
31072000    142.65367   -6637.0899    -6270.122   -6637.0899            0    9236.6313    23.160275    21.134834    21.428432    10488.972    9798.2286    8833.1596    9078.5057     -486.384   -548.44212    89.004911   -4857.1862 
31073000    130.32433   -6649.6578   -6314.4064   -6649.6578            0    10050.335    22.977529    21.215536      21.4385    10450.853    10092.357     11147.27    8911.3792   -809.61961   -62.743815   -244.94098   -4782.5849 
31074000    136.58586   -6650.1007   -6298.7418   -6650.1007            0    9960.5376    23.113368    21.231668    21.261987    10434.009    9936.7869     9039.571    10905.255    606.23091    713.76171    222.47878   -4783.0537 
31075000    137.82906   -6649.1053   -6294.5484   -6649.1053            0    11657.297    22.936974    21.200742    21.426738    10419.413    12569.719    12244.035    10158.136    261.01781   -413.91653    -707.7693    -4523.147 
31076000    136.56882   -6649.5485   -6298.2336   -6649.5485            0    10900.613    23.096029    21.237343    21.292589    10443.978    10660.952    10240.882    11800.006     367.8606    233.78645    236.15269   -4637.9098 
31077000    132.63243   -6657.8342   -6316.6454   -6657.8342            0    8877.3819    22.936736    21.397236    21.404032     10504.73    10337.756    7889.3816    8405.0078    62.352019   -589.26609   -345.22677   -4956.6242 
31078000    141.58014   -6641.5185   -6277.3122   -6641.5185            0    9896.9434    23.080093    21.200745    21.419657    10480.963    10609.257    9856.4873    9225.0858    647.97324    -442.2623   -302.39421   -4764.5239 
31079000    136.84304   -6668.5623   -6316.5419   -6668.5623            0    8857.3067    23.250013    21.187323    21.282867    10484.058    7951.4387    8938.1734    9682.3081    207.52063   -95.471784   -338.85103   -4962.2665 
31080000     146.1849   -6661.3878    -6285.336   -6661.3878            0    8718.4667    23.139007     21.03105    21.590837    10506.913      9517.34    10162.646    6475.4147   -663.16845   -946.46643   -627.02069   -4949.3831 
31081000    132.64411   -6646.2227   -6305.0038   -6646.2227            0    11083.811     23.00715    21.213274    21.339812    10415.044    11052.786    11915.042    10283.607    911.88148    516.85289   -717.61305   -4621.4534 
31082000    137.43917    -6659.207   -6305.6531    -6659.207            0    9887.5222    23.036785    21.356386    21.261138    10460.107    10313.782    8697.8569    10650.927   -1844.3906    -116.9288    43.279899   -4797.3122 
31083000    141.82187     -6669.57   -6304.7419     -6669.57            0    8978.9823    23.002432    21.271474    21.447249    10494.045    8359.0564     9728.696    8849.1944    631.06038    314.39994   -285.94057   -4930.5546 
31084000    145.04583    -6640.743   -6267.6215    -6640.743            0    10503.627    22.941259    21.296378    21.388381     10449.63    11636.654    9515.2672    10358.961    1121.6549   -252.73727    1255.9998   -4666.8988 
31085000    134.13891   -6662.2912    -6317.227   -6662.2912            0    8596.8145    23.168555     21.22791    21.389834    10519.948    9107.5614    7961.6831     8721.199   -592.19705    920.80453   -198.59488    -4998.281 
31086000    139.32353   -6669.5615   -6311.1602   -6669.5615            0    9607.1672    23.220204    21.099964    21.402197    10485.909    9179.8776     9762.791     9878.833    121.05176   -116.75872    128.16031   -4841.9724 
31087000    131.22524   -6648.1542   -6310.5853   -6648.1542            0    11573.115    23.156552    20.988167    21.414503     10407.74    11408.577    12279.393    11031.374   -132.26685   -552.80287    227.68072   -4553.9461 
31088000    135.05894   -6645.0588   -6297.6279   -6645.0588            0    9693.0809    23.200123    21.187167    21.310905    10475.266    8291.7868      10539.8    10247.656    455.02189    301.47253   -425.43972   -4816.8062 
31089000    132.59541   -6666.7946    -6325.701   -6666.7946            0    9917.2174    22.995196     21.24595     21.41961    10464.653    9766.6022    10508.959    9476.0909    -139.7622    373.86267   -255.41061   -4812.1727 
31090000    140.16308    -6670.326    -6309.765    -6670.326            0    9390.9931    22.966252    21.396332    21.294261    10463.863    9476.4089    9295.9844     9400.586    794.97501    642.24409   -381.42942   -4876.6553 
31091000    131.59573   -6655.7447   -6317.2227   -6655.7447            0    10304.441    23.019189    21.290001     21.35833    10467.259    11101.686    10420.082    9391.5564    228.62137   -293.78007   -684.69659    -4744.206 
31092000    138.79095   -6657.3769   -6300.3457   -6657.3769            0    9556.2291    23.093212    21.225209    21.364438    10471.955     9817.476    9435.9225    9415.2886   -120.18295   -138.85696   -301.48147   -4840.8923 
31093000    139.73724   -6653.5783   -6294.1128   -6653.5783            0    11058.885    23.308823    20.987022    21.316655    10427.741    9227.5502     12623.77    11325.336    1104.1734   -127.45646   -576.55569   -4612.3007 
31094000    134.96917   -6635.6874   -6288.4875   -6635.6874            0    10513.024    23.159747    21.106891    21.366802    10444.739    9803.4859    10550.603    11184.983    -595.4547   -140.12788    208.38172   -4687.0826 
31095000    129.36255   -6663.3874   -6330.6101   -6663.3874            0    8780.2651    23.183051    21.177958    21.416478    10514.841    8903.5423    8309.0057    9128.2475   -833.53895    257.55302     914.5881   -4984.1724 
31096000    139.69282   -6646.5244   -6287.1731   -6646.5244            0    9974.8659    23.157062    21.214832     21.34942    10488.397    10289.038    9693.5375    9942.0219    -305.0769    219.34034    132.02076   -4761.3926 
31097000    136.59434   -6656.8864   -6305.5058   -6656.8864            0    9019.7044    23.013047    21.367284    21.337404    10492.163    9939.1459    7807.6241    9312.3432   -528.69561    532.26248   -710.92842   -4925.3338 
31098000    134.01374   -6669.3765   -6324.6343   -6669.3765            0    10011.026    22.931397    21.305946    21.416231    10463.437    10151.476    9666.3009    10215.302    521.27645    1473.2128    246.34528   -4796.9667 
31099000    137.43183   -6652.2458   -6298.7108   -6652.2458            0    9626.6016     23.00449    21.339606    21.327363    10469.746    10521.534    8707.8725    9650.3988   -1041.0181    564.15653    519.68329   -4828.8201 
31100000    137.03317   -6668.9019   -6316.3924   -6668.9019            0    8868.2072    23.114057    21.304704    21.337377    10507.339    8545.6093    9211.3829    8847.6293    335.49142   -629.12065    -757.9847   -4957.4394 
31101000    131.77164   -6653.6805    -6314.706   -6653.6805            0    10998.952     23.01181    21.173994    21.402717    10428.515    10211.251    11761.662    11023.942    369.60527    82.884301   -316.16559   -4641.8842 
31102000    137.90933   -6656.1539   -6301.3906   -6656.1539            0    10231.871    23.114273    21.178698    21.333287    10443.288    9705.7348    10939.256    10050.623     635.7205   -423.23158    154.51039    -4743.029 
31103000    135.27285    -6640.198   -6292.2169    -6640.198            0    8465.9225    23.148255    21.179641    21.499307    10540.503    8752.0503    8793.2044    7852.5128    -108.0836   -164.27813    256.10688   -4990.8148 
31104000    139.67465   -6654.2192   -6294.9147   -6654.2192            0    9802.6014    23.249589    21.140205    21.297432    10467.711    10254.123    9285.4176    9868.2637    211.05943   -426.19024    131.78376   -4798.4415 
31105000    139.18618   -6644.8584   -6286.8104   -6644.8584            0     10979.78    23.055775    21.103273    21.444249    10433.749    11995.997    10584.833    10358.511   -1142.0368    104.96876    182.57311   -4616.0664 
31106000     137.6463    -6665.538   -6311.4513    -6665.538            0    10035.462    23.056379    21.301809    21.287719    10455.305    10555.168    8997.7379     10553.48    320.93972   -538.09168   -696.90961   -4781.2451 
31107000    131.69323   -6646.2197   -6307.4469   -6646.2197            0    10125.087    22.982273    21.294414    21.357495     10452.23    11124.912    9264.1318    9986.2167    -337.1666    -751.6371   -690.09212   -4764.0288 
31108000    136.00558   -6653.0275   -6303.1614   -6653.0275            0    9936.5186    22.955835    21.254789    21.402503     10442.74    8448.8496     11718.81    9641.8962    1012.6659     327.7572    110.39222   -4789.8629 
31109000    134.96516   -6648.0055   -6300.8158   -6648.0055            0    11489.599    23.052429    21.194888    21.281271    10397.894    12292.079    11217.242    10959.477   -610.20742    132.68055   -214.03272   -4558.5029 
31110000    133.89492   -6655.1882   -6310.7517   -6655.1882            0    10057.149    23.127786    21.131944    21.386716    10452.438    11788.051    8614.4503    9768.9439   -1481.3737    -286.1706    588.33867   -4777.6592 
31111000    135.19847   -6652.5105   -6304.7207   -6652.5105            0    8763.4166    23.154951    21.164533    21.433269    10503.668     8687.458     8727.797    8874.9947    130.37876    -475.6106   -204.13142   -4962.2948 
31112000    140.22992   -6656.2861   -6295.5531   -6656.2861            0    9766.6635     23.26507    21.132653    21.285966    10465.302    8941.7668    9936.3708    10421.853   -11.538085   -539.49867   -582.02115   -4804.9094 
31113000    140.24712   -6659.6853   -6298.9082   -6659.6853            0    10047.135    23.099379    21.164858    21.396225    10460.509    10562.704    10670.948    8907.7532   -46.727919   -281.56352   -657.65159   -4766.1596 
31114000    139.11407   -6653.7643   -6295.9018   -6653.7643            0     9216.327     23.06607    21.180822    21.463999    10486.415    9258.6953    10051.685    8338.6005    1054.8371    394.50173    -118.6201   -4886.4156 
31115000    137.75037   -6650.7122   -6296.3578   -6650.7122            0    8994.4493    23.072987    21.322719    21.334956    10496.347    8833.3948    8730.7157    9419.2374    391.81907    282.64216   -57.254973   -4919.5014 
31116000    134.99752   -6673.8365   -6326.5636   -6673.8365            0    9282.4867    23.061535     21.21419    21.412909    10475.875    10024.364     9492.122    8330.9741   -1128.7003    293.61379   -830.79907   -4908.3862 
31117000    130.44475   -6669.6351   -6334.0739   -6669.6351            0    10222.556    23.019909    21.193026    21.395384    10437.985    10154.004    10147.389    10366.275   -267.28682     512.2426    617.86795   -4777.9217 
31118000    129.84076   -6652.5524    -6318.545   -6652.5524            0    8946.8811    23.162963    21.183597    21.358047    10479.857    9847.8889    8603.2184     8389.536   -200.14471   -354.34913    -282.4888   -4951.1219 
31119000    140.55569   -6658.6983   -6297.1274   -6658.6983            0    11582.928    23.093961    21.125555    21.365291    10423.543    12229.987    11878.265    10640.532   -874.70634   -918.60462   -338.31965    -4536.329 
31120000    137.00216   -6661.4842   -6309.0545   -6661.4842            0    9175.0634    23.194505    21.066613     21.45632    10484.195    7938.8351    10236.136    9350.2195   -225.25461    883.54524    875.44517    -4906.176 
31121000    135.89495   -6656.3463   -6306.7649   -6656.3463            0    9792.9153    23.162072    21.100629    21.420546    10468.955    8860.9153    9993.7325    10524.098    501.01735    67.703753    472.43228   -4811.5926 
31122000    140.12146   -6647.7107   -6287.2568   -6647.7107            0    9368.5855    23.091506    21.285813    21.376026    10506.776    8790.0733    9252.7341    10062.949    413.77611   -364.93688   -310.70463   -4851.7032 
31123000    134.66763   -6656.4951   -6310.0708   -6656.4951            0     10312.89      22.9951    21.306644    21.354544    10462.625     10197.71     9316.094    11424.867    678.94172   -321.93544   -190.65133   -4736.4615 
31124000    139.62711   -6656.0581   -6296.8758   -6656.0581            0    9296.0026    22.925349    21.282095    21.485323    10482.677    10907.394     9083.659    7896.9546    138.64728   -79.310153   -259.29771   -4875.7114 
31125000    145.25272   -6652.2974   -6278.6436   -6652.2974            0     10964.72     23.16496    21.211643    21.220189    10426.898    10849.623    10732.274    11312.263   -726.51279   -204.94862   -137.78189   -4611.2868 
31126000    135.95543   -6654.5935   -6304.8564   -6654.5935            0    9218.8137    23.122702    21.163683    21.422195    10483.199    9797.2332    9811.7639     8047.444    117.09777    643.30258   -1151.5737   -4895.4224 
31127000    136.99446   -6653.5525   -6301.1426   -6653.5525            0    10756.853    23.036824    21.143778    21.462437    10454.042     10743.98    10615.881    10910.698   -439.48445     394.9552    589.30206   -4661.1369 
31128000     135.8111   -6646.2352   -6296.8694   -6646.2352            0    11294.033    23.187124    21.100675    21.324978    10433.544    10292.732    11743.046    11846.321   -776.44264     374.2218   -288.59857   -4578.3408 
31129000    139.97385   -6646.6378   -6286.5636   -6646.6378            0    8686.1856    23.080012    21.209516    21.500218    10524.698    9552.4638    8685.3944    7820.6985   -291.53119    308.60141   -673.24344   -4953.3043 
31130000    137.58712   -6685.0747   -6331.1402   -6685.0747            0    9288.4874    23.039863    21.296264    21.317858    10459.884    9382.6675    8398.8091    10083.986    1622.6614    1144.1916    335.90747   -4914.2123 
31131000    135.04029   -6676.0689   -6328.6859   -6676.0689            0    9334.2039    22.940874    21.347696    21.420999    10490.609    9941.0382    8657.9021    9403.6715    149.49803    105.75116    181.55164   -4900.6015 
31132000    137.77424   -6638.9705   -6284.5547   -6638.9705            0    9838.5188    23.033419     21.32201    21.338897    10479.934    10359.292    9229.8093    9926.4551   -646.17334   -206.19582   -273.30652   -4780.8445 
31133000    138.88094   -6644.4427     -6287.18   -6644.4427            0    10660.937    23.032616    21.187061     21.41055    10448.208    11138.138    10140.827    10703.845   -351.43629   -157.46608    149.08043   -4662.7049 
31134000    136.05143   -6674.7812   -6324.7972   -6674.7812            0    8965.7735    23.148203    21.096868    21.482463    10491.059    8435.9456    10250.064     8211.311    1280.3555   -330.81383   -268.15755   -4953.0218 
31135000    133.87258   -6667.0923   -6322.7132   -6667.0923            0    10199.664    23.231294    21.126099    21.317141    10462.167    8516.7194    10405.086    11677.185    504.40531    361.45479    937.72678   -4766.4487 
31136000    140.96192   -6650.0415   -6287.4256   -6650.0415            0    10244.708    23.057328    21.066947    21.571946    10478.519    11375.733    9670.7481    9687.6445   -247.36512   -531.13276    374.05183   -4721.8452 
31137000    142.27931    -6673.258   -6307.2532    -6673.258            0    9276.2178     23.12365     21.25669    21.320149    10479.541    9172.5905    8917.2525    9738.8105    1605.3182   -406.46755    547.81742   -4889.5377 
31138000     132.9533    -6666.575   -6324.5608    -6666.575            0     8711.237    22.965407    21.375316    21.403265     10506.71    8602.2246    9397.4017    8134.0847   -216.05908    61.882903   -823.25098   -4989.7415 
31139000     132.1015   -6653.1559   -6313.3328   -6653.1559            0    9498.2622    23.004306    21.232805    21.468342    10486.124    9137.1781    11122.084    8235.5241    1607.9935    235.99062   -635.97012   -4860.7696 
31140000    136.61117    -6653.918   -6302.4941    -6653.918            0     9838.147    23.227475    21.105355    21.366176    10474.214    9153.5024    10355.307    10005.632   -643.03372     218.9558    37.838249   -4799.6614 
31141000    136.14986   -6664.3559   -6314.1187   -6664.3559            0    9901.6153    23.159595    21.094161    21.430468    10469.474    10162.453    10748.329    8794.0635   -529.17193   -142.06336   -449.43964   -4802.2753 
31142000    138.30812   -6655.6909   -6299.9017   -6655.6909            0     9360.428    23.266575    21.060895    21.389207     10481.03    8539.9249    9750.5733    9790.7857    793.51447   -106.43772     272.8265   -4869.1128 
31143000    136.48987   -6645.8974   -6294.7855   -6645.8974            0    10350.623    22.968596    21.214579     21.44855    10451.216    10831.572    10324.992    9895.3044   -1498.6805    790.09758   -306.18655   -4717.1409 
31144000    136.46643    -6655.921   -6304.8694    -6655.921            0    9734.9796    23.092895    21.203015    21.382083    10469.501    9745.3347    10033.404    9426.2005   -309.43566    279.34185   -860.80371   -4818.4652 
31145000    140.43705   -6638.7361   -6277.4703   -6638.7361            0    10039.321    22.952039    21.293849    21.359322    10439.096     10879.48    8904.1786    10334.306    302.29508   -828.50104   -11.772363   -4749.0488 
31146000    134.04035   -6655.4305   -6310.6198   -6655.4305            0    9884.3533    23.031264    21.286561    21.324479    10454.463    8225.9463    10242.328    11184.786    461.36272    468.15287    45.510337    -4803.576 
31147000    136.10523   -6666.2942   -6316.1718   -6666.2942            0    9688.1415     23.06574    21.154418    21.474625    10478.378    9567.2931    10441.745    9055.3861    989.19526   -643.70995    10.452388   -4835.6649 
31148000     135.3149   -6662.6021   -6314.5127   -6662.6021            0    9610.8391    23.057415    21.240514    21.339906    10451.247     9829.237     10094.51    8908.7701   -1021.7321   -247.79753    244.31094   -4849.6217 
31149000    142.66078   -6657.7471    -6290.761   -6657.7471            0    8630.1139    23.225959     21.10465    21.446826    10512.713    8938.2072    9108.1029    7844.0317     722.6629   -1360.8924    341.38915   -4967.6166 
31150000    132.52432   -6648.2789   -6307.3682   -6648.2789            0    10985.802    23.106297    21.113512    21.421396    10450.537    11036.896    11858.673    10061.836    84.337528   -433.58015    -377.6685   -4633.0182 
31151000    140.14511   -6650.2809   -6289.7661   -6650.2809            0    8905.4019    23.201183    21.120221    21.392778    10482.763    8728.8283    9127.9918    8859.3854   -277.22889    496.17317    290.31205   -4928.3052 
31152000    134.51598    -6666.729   -6320.6948    -6666.729            0    9358.4045    23.093076    21.236395    21.373651    10481.931    9248.3378    8703.7329    10123.143   -1060.6452     850.7653    494.90119   -4890.0923 
31153000    141.43997   -6641.7609   -6277.9152   -6641.7609            0    10455.769    22.932207    21.320861     21.39975    10463.074    10546.734    10554.849    10265.724    628.60602   -333.92053    255.12539   -4682.4359 
31154000    138.00141   -6661.9144   -6306.9142   -6661.9144            0    8608.7255    23.077979    21.306472    21.364089    10504.943    9118.5815    7356.5007    9351.0943    705.94682    941.49249    228.80024   -4988.0245 
31155000    133.79779   -6660.5046   -6316.3179   -6660.5046            0    9718.4512    22.935127    21.293257    21.407529    10454.657    10083.354    9762.5807    9309.4183    157.26716    366.81343    373.78503   -4834.5413 
31156000    133.46814   -6669.3095   -6325.9709   -6669.3095            0    11065.074    22.976467    21.203405    21.366894     10409.51    11333.415    11872.583    9989.2241   -851.80926     325.6926   -33.408158   -4646.1597 
31157000     133.0153   -6660.2076   -6318.0339   -6660.2076            0    9163.0512    23.039467    21.358025    21.313831    10488.057    9087.8667    8794.1729    9607.1141    1470.5802   -281.42816    45.369577    -4916.476 
31158000    137.99106   -6672.6529   -6317.6793   -6672.6529            0     8996.465    23.039488      21.1874    21.508831    10499.468    8959.3243    9285.7709    8744.2999   -629.26555    414.84766   -606.50265   -4940.1049 
31159000     143.2868   -6663.7439   -6295.1473   -6663.7439            0    10466.736    23.158665    21.175257    21.241746    10416.754    9318.5901    10645.874    11435.745    425.62083    624.75663    1128.3149   -4705.0651 
31160000     138.8722   -6659.4623    -6302.222   -6659.4623            0    11275.956    23.097374    21.081232    21.410172    10425.065    11387.213    11934.517    10506.137    415.01867   -162.18648    277.21676   -4587.8384 
31161000    134.32073   -6672.3957   -6326.8638   -6672.3957            0    8976.5142    23.146617    21.118618     21.46522    10492.727    9194.6214    9662.4243    8072.4968   -100.56218   -244.73083   -406.79687   -4953.2268 
31162000    139.05795   -6653.7078   -6295.9897   -6653.7078            0     10422.31    23.084261    21.205698    21.324091    10438.524    10171.292    10817.535    10278.103   -463.52921    142.99009    536.46472   -4709.3476 
31163000    134.84656   -6653.9839   -6307.0994   -6653.9839            0     9487.311    23.040028     21.18738    21.465695    10478.647    9410.8171    10174.089    8877.0266    706.61806   -17.897482   -556.60764   -4857.2454 
31164000     134.4383   -6657.8849   -6312.0506   -6657.8849            0    10511.007    22.951541    21.339067    21.322813    10443.156    11967.907    9191.1679    10373.945    825.49822    426.10171   -553.38136   -4711.1957 
31165000     137.7071   -6654.7674   -6300.5243   -6654.7674            0    9639.0875    22.876223    21.405847    21.371895    10465.495    10412.083    8493.2724    10011.907      1020.54   -892.24307   -690.24417   -4829.3247 
31166000    143.14405   -6645.4181   -6277.1887   -6645.4181            0    10955.636     22.90981    21.316477     21.35582    10429.252    11395.342    10847.252    10624.313   -903.15449    486.87919   -666.41741   -4610.8371 
31167000    130.66177   -6643.9172   -6307.7978   -6643.9172            0      10106.7    23.073515    21.278465    21.293728     10454.56    10895.643     9168.975    10255.482   -815.87853   -611.62072   -17.824474    -4766.839 
31168000     134.8414   -6636.5608   -6289.6896   -6636.5608            0    9149.1811    23.180791    21.096304    21.505065    10516.601    8940.1422    9656.8024    8850.5987   -1272.1381    844.16563   -1071.3183   -4886.4445 
31169000    141.37238   -6641.7107   -6278.0389   -6641.7107            0     9065.805    23.220788    21.145409    21.376736    10496.256    7922.9001    10507.069    8767.4456   -554.25512    892.60273   -805.50464   -4890.2715 
31170000    135.89738   -6663.2313   -6313.6435   -6663.2313            0    9358.3018    23.168079    21.064354    21.525929    10505.097    9134.3413    9920.1889    9020.3752   -121.63898    567.02045    130.46109   -4879.8949 
31171000    133.45467   -6646.4295   -6303.1255   -6646.4295            0    9443.5378    23.318428    21.116548    21.283516    10480.103    8823.8523    9349.5462    10157.215   -90.109296   -569.76836    530.46696   -4859.7605 
31172000    136.45488   -6653.0761   -6302.0543   -6653.0761            0    9571.9371    22.970795    21.242198    21.487321    10484.742    11136.327    8543.4403    9036.0438    -1164.331    262.36156   -195.12435    -4838.417 
31173000    133.79312   -6651.2787   -6307.1041   -6651.2787            0     10428.27    23.000457    21.281708    21.339545    10445.473    11269.291    10175.662    9839.8569    360.26083    269.20514    206.68309   -4718.4978 
31174000    139.63524   -6671.0554   -6311.8523   -6671.0554            0    10625.472    22.993314    21.325541    21.287709    10438.319    10880.379    9237.6381    11758.398   -352.97278    -766.2742     220.4245   -4694.3136 
31175000     139.9271    -6659.507   -6299.5531    -6659.507            0    9653.3419    23.063989    21.212424    21.390799    10465.301    10119.927    8556.0153    10284.083    -94.26514    527.28688    79.951551   -4826.2052 
31176000    134.23683   -6658.7925   -6313.4764   -6658.7925            0    10281.583    23.144513    21.151237    21.344778    10449.018    9011.4492     11296.67    10536.629    766.27903    1106.5438    124.84288   -4746.6845 
31177000    143.31693   -6650.4019   -6281.7278   -6650.4019            0    9176.5212    23.162089     21.10048    21.492039     10503.83    9153.5975    10006.761    8369.2054   -1040.0298   -266.07354   -333.09102   -4875.9987 
31178000    140.97112   -6653.9957   -6291.3561   -6653.9957            0    9900.4119     23.21367    21.117149    21.329573    10455.896    9458.3251    9613.5794    10629.331    434.33224    318.67235     927.4536    -4781.657 
31179000    137.96568    -6661.201   -6306.2927    -6661.201            0    9047.7149    23.113158    21.181147    21.418412    10485.666    8461.2038     10024.93    8657.0106    228.21628   -698.73191    304.51372   -4922.6918 
31180000    136.46026     -6647.03   -6295.9943     -6647.03            0     9010.506    23.111684    21.138172      21.4423    10475.395    8094.4572    9808.8562    9128.2047   -25.723463    1000.2585    295.98226   -4919.4333 
31181000    139.82272   -6670.0864    -6310.401   -6670.0864            0    9906.1122    23.052211     21.37912     21.26716    10481.221     10363.57      8945.77    10408.997   -457.91376   -975.29849   -61.301312   -4796.1739 
31182000     138.8006   -6652.1851    -6295.129   -6652.1851            0    9544.9369    22.988215    21.235366    21.467778    10479.778    10334.666    10017.359    8282.7858    119.88188    275.41878   -365.26962   -4836.3113 
31183000    134.69728    -6665.498   -6318.9974    -6665.498            0    8851.2575     22.99992    21.350173    21.370419    10493.993    9542.6774    7837.1823    9173.9129    309.14611   -409.05442   -131.56163   -4964.3645 
31184000    133.67943   -6660.7158   -6316.8336   -6660.7158            0    8876.6301    23.050106    21.264119    21.422294    10499.927    9229.5664     8671.536    8728.7878   -99.008723    289.36894   -406.25145   -4957.5493 
31185000    140.63081   -6649.4376   -6287.6734   -6649.4376            0    11090.969    23.110558    21.152765    21.346489    10435.278    9364.2036    13102.477    10806.228    1582.7526    1499.3792   -654.42121   -4599.7629 
31186000    140.36472   -6656.5336   -6295.4539   -6656.5336            0    8801.0293    23.236852    21.138815    21.429016    10525.922    8698.4667    8958.7251    8745.8962    316.01826   -1450.0973    96.615695   -4944.4099 
31187000    135.12323   -6668.3775   -6320.7812   -6668.3775            0    10005.953    23.210353    21.102775    21.321405    10443.285    8730.7709    10553.824    10733.263    29.702986    137.50871    329.44177   -4796.8285 
31188000    137.98022   -6642.4138   -6287.4681   -6642.4138            0    10005.317    23.050529    21.196572    21.431846    10471.433    9334.2088     10799.37    9882.3731     -200.107    426.65877    93.509951    -4759.505 
31189000    132.10956   -6663.7327   -6323.8889   -6663.7327            0    10439.507    23.011796    21.245672    21.391378    10458.267     11195.65    9233.6547    10889.217    438.08839    125.42616   -487.63605   -4731.6229 
31190000    143.87361   -6645.2845   -6275.1784   -6645.2845            0    9855.0819     22.99496    21.379894    21.326144    10484.568    10452.537    8455.4271    10657.281   -877.20392    230.81172   -712.80439   -4768.2705 
31191000    142.37228   -6656.3093   -6290.0653   -6656.3093            0    9117.0155    23.052539    21.275628    21.406678     10499.06    9815.8886    8896.3314    8638.8263   -358.82922    235.17414    342.75131   -4894.0858 
31192000    133.79967   -6635.4635    -6291.272   -6635.4635            0    9993.1883    23.176571    21.035907    21.466934    10465.993    8498.1604    11543.851    9937.5533    66.978858    722.20799   -540.75141    -4765.954 
31193000    134.93381   -6662.6597   -6315.5507   -6662.6597            0    9094.8264    23.255439    21.183585     21.31326    10499.628    7756.7527    10406.517    9121.2099   -381.53789    -777.9042   -562.77756   -4922.8936 
31194000    140.21773   -6664.0442   -6303.3426   -6664.0442            0    9279.5322    23.133333    21.129386    21.462681    10490.811     9695.352    9166.5308    8976.7137    -830.1602    188.86496    66.887093   -4883.5955 
31195000    140.50083   -6650.4084   -6288.9786   -6650.4084            0    9532.4033    23.137967    21.148732    21.401447    10472.555    9408.8515    9550.7107    9637.6479    759.23028    824.95785    693.73469   -4833.0805 
31196000    136.65631   -6656.9218   -6305.3817   -6656.9218            0    10916.382    23.047488    21.235838    21.319949    10434.681    10152.697    11225.941    11370.507   -91.348049    602.58449    -44.73364   -4644.1364 
31197000    136.69537   -6657.0534   -6305.4129   -6657.0534            0    8830.2609    23.063987    21.230984    21.529232    10542.243    9188.5798    8769.4731    8532.7296    496.10932    42.670353   -348.81045   -4947.7797 
31198000    138.27022   -6638.4848   -6282.7931   -6638.4848            0    10757.776    23.022654    21.257063    21.306231    10427.142    10640.801    10200.994    11431.534    187.33288    168.97829    699.99327   -4646.8671 
31199000    134.60182   -6637.8869   -6291.6319   -6637.8869            0    9968.9843    23.045879     21.22158    21.413928    10472.909     9585.844    9932.3404    10388.768   -57.945716    998.36505    101.89264   -4769.0027 
31200000    132.38732   -6648.7882   -6308.2299   -6648.7882            0    10416.408    23.117735    21.211751    21.315512    10452.437    9816.7884    11442.021    9990.4158     1641.679    17.850146   -409.35446   -4720.3726 
31201000     137.5151   -6650.6509   -6296.9017   -6650.6509            0    9867.8879    23.083866    21.235789    21.339397     10460.66    10679.762    10082.339    8841.5624   -639.70218    121.78638   -372.44041   -4791.4766 
31202000    134.16104   -6646.4229   -6301.3018   -6646.4229            0    10848.936    23.029307    21.216789    21.384377    10448.577    11208.559    10768.848    10569.399   -975.86469    164.47308   -183.95144   -4648.1218 
31203000    131.01907   -6664.8454   -6327.8069   -6664.8454            0    9343.5165    23.140945      21.1882    21.334454    10460.602    8834.5172    8401.4685    10794.564   -86.981994    946.48223    623.20681   -4902.3866 
31204000    134.51919   -6655.8864    -6309.844   -6655.8864            0     9049.987    23.011652    21.246759    21.459397    10491.993     8603.896    9416.1237    9129.9413   -501.93939    732.00037    234.33836   -4925.0606 
31205000    135.67095   -6660.4534   -6311.4482   -6660.4534            0    10126.292    23.115503    21.198101    21.336911    10455.188    10242.709    10060.469    10075.699   -328.90257   -322.74745    -979.6499   -4767.4095 
31206000    133.07008   -6664.9112   -6322.5965   -6664.9112            0     9563.009    23.030709    21.305936    21.322935    10462.968    9703.3701    10386.629    8599.0283   -339.67641    255.21746   -22.826044   -4863.3611 
31207000    138.92363   -6674.4599   -6317.0873   -6674.4599            0    10391.437    23.104285    21.072317    21.432292    10434.543    10134.577    10687.385     10352.35    742.93821  -0.74592645    1281.7271   -4735.7484 
31208000    135.97876   -6656.0381    -6306.241   -6656.0381            0    9558.1856     23.14358    21.175943    21.402751    10489.212    9242.5264    9719.9923     9712.038   -73.777538   -1462.2353   -690.81803   -4844.0832 
31209000    136.65407   -6650.1567   -6298.6224   -6650.1567            0    9035.6722    23.198651    21.240328    21.340902    10515.664    8536.5619    8372.6343     10197.82     494.2265    -440.8591    290.14499   -4912.9101 
31210000    138.36983   -6658.0809   -6302.1329   -6658.0809            0    9955.1987    22.949628    21.142461    21.568859    10465.461    11678.199    10492.147    7695.2504   -627.26623    655.25532    -633.8949   -4782.6907 
31211000    140.22503   -6658.2085   -6297.4882   -6658.2085            0    8313.1691    23.047084    21.316548    21.402553    10514.738    8171.2971    7737.6409    9030.5694    60.729576    511.37266    307.08459   -5022.6914 
31212000    134.88103   -6658.1465   -6311.1732   -6658.1465            0    10140.189    23.166432    21.202972    21.303606    10464.272    10323.191    9520.0497    10577.327   -469.89529   -60.345508   -224.41663   -4763.6721 
31213000    134.87639   -6650.3163   -6303.3549   -6650.3163            0    10236.781    23.061795    21.131527    21.440648    10448.691    10367.556    11248.111    9094.6768   -858.58898   -386.27281   -522.12896    -4743.439 
31214000    139.46519   -6657.9336   -6299.1679   -6657.9336            0     10307.42    23.189585    21.153097     21.29154    10444.172    9501.5815    10269.354    11151.323   -446.17587    1106.2026    286.48859   -4729.1671 
31215000    131.54873   -6664.2668   -6325.8658   -6664.2668            0    10192.791    23.020058    21.177383    21.480417    10471.802    11128.951    9720.7654    9728.6567   -517.97585    513.54199    307.76652   -4769.2177 
31216000    135.71832   -6649.1383   -6300.0112   -6649.1383            0    10231.731    23.077733    21.285315    21.262319    10444.409    9466.5429    10246.077    10982.571     111.5059    107.80009   -303.24918   -4741.5039 
31217000    139.83994   -6662.5174   -6302.7877   -6662.5174            0    10118.786    22.966211    21.184922    21.477831    10449.768    11305.326    9410.0576    9640.9731    921.77933    590.76707   -211.06486   -4760.6935 
31218000    139.21522   -6657.0217    -6298.899   -6657.0217            0    8431.1538    23.092446    21.378756    21.319876    10525.362    8688.7023    8328.5432    8276.2158    669.45967   -462.46324   -166.03226   -5004.7034 
31219000      135.562   -6660.1524   -6311.4274   -6660.1524            0    9145.5617    23.102161    21.213992    21.435067    10505.092     9383.737    9184.2721    8868.6762     186.4544    79.054864   -606.39974   -4910.2726 
31220000    130.36069   -6656.4669   -6321.1219   -6656.4669            0    9703.4872    22.931296    21.249353    21.440534     10447.44    10105.847    8540.5283    10464.087    758.63458   -45.512013    1672.6965   -4842.6481 
31221000    130.36797    -6651.262   -6315.8983    -6651.262            0    9054.9973    23.079786    21.265871    21.369055    10488.183    9698.7541    9784.8791    7681.3586   -90.246027    598.15346   -239.92218   -4930.8514 
31222000    135.49577   -6666.0528   -6317.4982   -6666.0528            0    9820.5285    23.087634    21.181744    21.415007    10472.717    9619.5464    10063.022    9779.0172    294.60277   -149.01424   0.56100248   -4817.5713 
31223000    132.76034   -6656.9404   -6315.4225   -6656.9404            0    9450.9661     23.13736    21.136409    21.416192     10473.39    8933.2097    9970.2104    9449.4782    742.38981   -296.72564    787.90906   -4871.8475 
31224000    142.75261   -6653.3827   -6286.1603   -6653.3827            0    10293.514    23.155697    21.088634    21.417893    10458.829    10271.158    10750.239    9859.1445    944.06053   -523.92786     280.5795   -4716.0774 
31225000    132.22784   -6651.1275   -6310.9794   -6651.1275            0    9142.4903    23.128318    21.188921    21.403315    10488.996    8555.7442    9768.6294    9103.0973   -716.16312   -295.57661   -252.60951   -4912.4412 
31226000    135.10993   -6651.7342   -6304.1721   -6651.7342            0    9301.7099    23.098712    21.197612    21.388472    10472.599    8758.6652    10190.179    8956.2853    127.84209   -780.97889   -237.15474   -4883.5023 
31227000    148.21494   -6656.7639   -6275.4899   -6656.7639            0    9796.3957    23.016499    21.153109    21.520407    10477.652    10593.534     9856.688    8938.9646   -415.31933   -511.21131   -420.26819   -4778.5438 
31228000    144.04798   -6641.7665   -6271.2119   -6641.7665            0    11034.672    23.121433    21.239453    21.245024    10433.147    10832.839    9667.3639    12603.813   -774.57357   -324.94236     937.4758   -4592.2121 
31229000    140.65821   -6653.4715   -6291.6368   -6653.4715            0    9634.5103    23.133709    21.089396    21.480117    10479.633    9937.4548    9970.1082    8995.9679    -594.6667    156.39668   -843.60126   -4819.1494 
31230000    144.47193   -6649.0691   -6277.4239   -6649.0691            0    10207.637    23.049027    21.275786    21.306918    10448.617    10719.436    9204.9291    10698.547    498.46421   -956.70352    791.25936   -4721.9599 
31231000    139.39614   -6642.4086   -6283.8205   -6642.4086            0    9627.6901    23.146754     21.20321    21.342311    10474.497    9205.9101    9717.5757    9959.5846    59.517688   -349.38738   -863.78186   -4813.0966 
31232000     136.3162   -6649.8399   -6299.1748   -6649.8399            0      8669.34    23.048211    21.218166    21.487086    10508.061    9553.4298    7580.6249    8873.9652   -1258.9149    689.35682    946.72134   -4970.6045 
31233000    134.66638   -6658.3127   -6311.8916   -6658.3127            0    10081.945    23.274792    21.112173    21.278719    10455.967     9246.685    10765.511    10233.638 -0.012410153    156.67781   -907.32955   -4774.5003 
31234000    135.37236   -6649.8794   -6301.6423   -6649.8794            0    9740.5185    22.972523    21.348261    21.357523    10474.229      10645.5    8789.8203    9786.2351   -277.30163   -653.41335    148.84047   -4813.7207 
31235000     135.5594   -6650.4554   -6301.7371   -6650.4554            0    10253.223    23.023937    21.301165    21.299936     10446.27     10382.01    9370.5778     11007.08    345.95644     876.5909    -128.1572   -4739.6778 
31236000    139.05436   -6661.4806   -6303.7717   -6661.4806            0    9524.2218    22.869911    21.336163    21.437176    10460.402    11024.736     8643.389    8904.5403   -334.65874   -414.26516   -115.23833   -4850.8114 
31237000    138.10859   -6667.3025   -6312.0266   -6667.3025            0    10554.806    22.991228    21.276456    21.346367    10442.041     10941.78    10388.692    10333.945     315.9803   -580.16508    79.336574   -4704.6725 
31238000    145.21075    -6656.919   -6283.3732    -6656.919            0    9825.2337     23.12138     21.15583     21.39416    10464.996    9959.0495    9741.6425    9775.0092   -625.95301     583.1962    157.07826    -4783.834 
31239000    133.44219   -6655.2237   -6311.9518   -6655.2237            0     8812.349    23.234647    21.072624    21.481469    10517.649    7906.3608    9903.1773    8627.5088   -665.04486    886.02649   -422.42157   -4960.2333 
31240000    135.09611   -6641.1853   -6293.6588   -6641.1853            0    10007.486    23.314432    21.015028    21.371792    10471.183    9230.5698    11348.024    9443.8647    621.58471    23.913768   -390.66814    -4765.401 
31241000    132.31851   -6645.2998   -6304.9185   -6645.2998            0    11241.913      23.1507    21.076157    21.372637    10428.304    10606.869    11825.447    11293.422   -395.91561   -132.52699   -416.23123   -4595.1797 
31242000    138.85471   -6657.4278   -6300.2325   -6657.4278            0    11616.988    23.096187    21.092729     21.36543    10408.417    10721.732    12534.504    11594.727   -273.77403    1219.9531    264.08374   -4536.8192 
31243000    138.75508   -6651.8762   -6294.9372   -6651.8762            0    9505.0578    23.028525    21.302508     21.38799    10492.207    8941.1801     10024.17    9549.8233   -298.32842    898.54654    7.8736827   -4840.4916 
31244000    135.61592   -6655.6798   -6306.8161   -6655.6798            0    9321.2472     23.01766    21.262924     21.44308    10494.732    8615.8477    9119.8489    10228.045    1560.9895    -32.74626    448.14272   -4880.1536 
31245000    143.07275   -6643.3989   -6275.3529   -6643.3989            0    10364.594    23.054117    21.371645    21.256033    10472.941    9051.2439    10154.525    11888.015    1497.0411   -279.84302   -198.55344   -4692.2948 
31246000    133.84563   -6658.7474   -6314.4377   -6658.7474            0    9127.9778    22.971025    21.299108    21.438122    10488.866     9149.945    9698.4586    8535.5297    310.10377    127.65022     363.7417   -4918.1369 
31247000    137.44783   -6649.8859   -6296.3098   -6649.8859            0    10477.898    23.124476    21.141447    21.386993    10455.778    10610.064    10719.564    10104.065    945.73377    155.62438   -101.60033   -4698.5687 
31248000    136.86783   -6653.0933   -6301.0092   -6653.0933            0    8643.9492    23.128851    21.208131     21.44427    10518.837    7637.4199    9077.6853    9216.7426   -8.8708804    -274.9314    -21.81512   -4974.9716 
31249000    136.42584   -6653.9455   -6302.9983   -6653.9455            0    10645.269     23.25115    20.976474    21.364853    10420.219    9976.9253    10704.807    11254.076     1002.591   -200.36818     340.3763   -4685.2558 
31250000    142.76781   -6641.2633   -6274.0019   -6641.2633            0    10129.502    23.111847    21.155767    21.390512    10458.866    10513.279    9380.1197    10495.107     -195.552    -1704.177    1074.7554   -4728.9303 
Loop time of 526.122 on 64 procs for 250000 steps with 1296 atoms

Performance: 82.110 ns/day, 0.292 hours/ns, 475.175 timesteps/s
99.1% CPU use with 64 MPI tasks x 1 OpenMP threads

MPI task timing breakdown:
Section |  min time  |  avg time  |  max time  |%varavg| %total
---------------------------------------------------------------
Pair    | 30.506     | 41.719     | 52.702     | 109.1 |  7.93
Bond    | 0.28134    | 0.28796    | 0.29969    |   0.6 |  0.05
Kspace  | 265.73     | 276.56     | 287.7      |  42.6 | 52.57
Neigh   | 1.925      | 1.9429     | 1.9602     |   0.7 |  0.37
Comm    | 90.737     | 92.004     | 93.77      |   8.0 | 17.49
Output  | 0.55719    | 0.55824    | 0.55973    |   0.0 |  0.11
Modify  | 102.16     | 103.62     | 104.59     |   6.0 | 19.70
Other   |            | 9.423      |            |       |  1.79

Nlocal:        20.2500 ave          28 max          14 min
Histogram: 6 7 12 2 5 13 5 10 1 3
Nghost:        2671.48 ave        2696 max        2637 min
Histogram: 3 4 1 5 6 11 13 11 3 7
Neighs:        6678.75 ave        9231 max        4635 min
Histogram: 6 7 12 2 10 8 7 7 2 3

Total # of neighbors = 427440
Ave neighs/atom = 329.81481
Ave special neighs/atom = 2.0000000
Neighbor list builds = 3527
Dangerous builds = 0

unfix		3
unfix		2
unfix		1

write_data	data.final.${pid}
write_data	data.final.0
System init for write_data ...
PPPM initialization ...
  extracting TIP4P info from pair style
  using 12-bit tables for long-range coulomb (../kspace.cpp:340)
  G vector (1/distance) = 0.37239011
  grid = 30 36 32
  stencil order = 5
  estimated absolute RMS force accuracy = 0.0035122573
  estimated relative force accuracy = 1.0577059e-05
  using double precision FFTW3
  3d grid and FFT values/proc = 4896 600
Last active /omp style is kspace_style pppm/tip4p/omp
WARNING: Not all mixed pair coeffs generated from mixing. Use write_data with 'pair ij' option to store all pair coeffs. (../write_data.cpp:312)

write_restart   restart.lmp.${pid}
write_restart   restart.lmp.0
System init for write_restart ...
PPPM initialization ...
  extracting TIP4P info from pair style
  using 12-bit tables for long-range coulomb (../kspace.cpp:340)
  G vector (1/distance) = 0.37239011
  grid = 30 36 32
  stencil order = 5
  estimated absolute RMS force accuracy = 0.0035122573
  estimated relative force accuracy = 1.0577059e-05
  using double precision FFTW3
  3d grid and FFT values/proc = 4896 600
Last active /omp style is kspace_style pppm/tip4p/omp
Total wall time: 0:08:46
