#include		in.partitions
include		in.temp
variable        temperature equal 241.47
variable	tempDamp equal 100.0
include		in.pressure
variable        pressure equal 375.0
variable        pressureDamp equal 1000.0 # This is 1 ps
include		in.seed
variable        seed equal 745823

units		real
atom_style	full

read_restart	restart.lmp.${pid}
read_restart	restart.lmp.0
Reading restart file ...
  restart file = 30 Jul 2021, LAMMPS = 30 Jul 2021
  restoring atom style full from restart
  orthogonal box = (-0.22630533 -0.048322112 -0.16118906) to (20.226306 20.048323 20.861187)
  4 by 2 by 4 MPI processor grid
  restoring pair style lj/cut/tip4p/long/omp from restart
  restoring bond style harmonic/omp from restart
  restoring angle style harmonic/omp from restart
  972 atoms
  648 bonds
  324 angles
Finding 1-2 1-3 1-4 neighbors ...
  special bond factors lj:    0        0        0       
  special bond factors coul:  0        0        0       
     2 = max # of 1-2 neighbors
     1 = max # of 1-3 neighbors
     1 = max # of 1-4 neighbors
     2 = max # of special neighbors
  special bonds CPU = 0.002 seconds
  read_restart CPU = 0.009 seconds
include 	in.setup
variable	out_freq equal 1000
variable	out_freq2 equal 10000
variable	out_freq3 equal 1000

timestep	2.0

neigh_modify    delay 7 every 1

include		in.tip4p
# This is TIP4P/Ice

# create groups ###
group ox type 2
324 atoms in group ox
group hy type 1
648 atoms in group hy

# set charges - beside manually ###
set group ox charge -1.1794
Setting atom values ...
  324 settings made for charge
set group hy charge 0.5897
Setting atom values ...
  648 settings made for charge

# ### TIP3P Potential Parameters ###
pair_style lj/cut/tip4p/long/omp 2 1 1 1 0.1577 8.5
pair_coeff 1 1*2 0.000 0.000
pair_coeff 2 2 0.21084 3.1668
bond_style  harmonic
bond_coeff  1 450 0.9572
angle_style harmonic
angle_coeff 1 55 104.52
kspace_style pppm/tip4p/omp 1.0e-5
pair_modify tail yes

thermo          ${out_freq}
thermo          1000
thermo_style    custom step temp pe etotal epair emol press lx ly lz vol pxx pyy pzz pxy pxz pyz enthalpy

restart 	${out_freq3} restart.lmp.${pid} restart2.lmp.${pid}
restart 	1000 restart.lmp.${pid} restart2.lmp.${pid}
restart 	1000 restart.lmp.0 restart2.lmp.${pid}
restart 	1000 restart.lmp.0 restart2.lmp.0


include         in.dump
dump            myDump all atom ${out_freq2} dump.water.${pid}
dump            myDump all atom 10000 dump.water.${pid}
dump            myDump all atom 10000 dump.water.0
dump            myDump2 all dcd ${out_freq2} dump.dcd
dump            myDump2 all dcd 10000 dump.dcd
dump_modify     myDump append yes
dump_modify     myDump2 append yes


variable natoms 	equal  "count(all)"                        # NUMBER ATOMS
variable H      	equal  "enthalpy/v_natoms"                 # ENTHALPY-per-atom
variable Vol      	equal  "vol/v_natoms"                 # volume-per-atom
fix AVG all 		ave/time ${out_freq} 1 ${out_freq} v_Vol v_H file vol_enthalpy.dat
fix AVG all 		ave/time 1000 1 ${out_freq} v_Vol v_H file vol_enthalpy.dat
fix AVG all 		ave/time 1000 1 1000 v_Vol v_H file vol_enthalpy.dat


timer           timeout 02:55:00 every 1000
New timer settings: style=normal  mode=nosync  timeout=02:55:00

fix 		1 all shake 1e-6 200 0 b 1 a 1
       0 = # of size 2 clusters
       0 = # of size 3 clusters
       0 = # of size 4 clusters
     324 = # of frozen angles
  find clusters CPU = 0.001 seconds
fix             2 all nph aniso ${pressure} ${pressure} ${pressureDamp}
fix             2 all nph aniso 375 ${pressure} ${pressureDamp}
fix             2 all nph aniso 375 375 ${pressureDamp}
fix             2 all nph aniso 375 375 1000
fix             3 all temp/csvr ${temperature} ${temperature} ${tempDamp} ${seed}
fix             3 all temp/csvr 241.47 ${temperature} ${tempDamp} ${seed}
fix             3 all temp/csvr 241.47 241.47 ${tempDamp} ${seed}
fix             3 all temp/csvr 241.47 241.47 100 ${seed}
fix             3 all temp/csvr 241.47 241.47 100 745823


run             250000
PPPM initialization ...
  extracting TIP4P info from pair style
  using 12-bit tables for long-range coulomb (../kspace.cpp:340)
  G vector (1/distance) = 0.37132626
  grid = 24 24 25
  stencil order = 5
  estimated absolute RMS force accuracy = 0.003543331
  estimated relative force accuracy = 1.0670636e-05
  using double precision FFTW3
  3d grid and FFT values/proc = 3458 576
Last active /omp style is kspace_style pppm/tip4p/omp
Neighbor list info ...
  update every 1 steps, delay 7 steps, check yes
  max neighbors/atom: 2000, page size: 100000
  master list distance cutoff = 10.8154
  ghost atom cutoff = 10.8154
  binsize = 5.4077, bins = 4 4 4
  1 neighbor lists, perpetual/occasional/extra = 1 0 0
  (1) pair lj/cut/tip4p/long/omp, perpetual
      attributes: half, newton on, omp
      pair build: half/bin/newton/omp
      stencil: half/bin/3d
      bin: standard
Per MPI rank memory allocation (min/avg/max) = 10.18 | 10.19 | 10.20 Mbytes
Step Temp PotEng TotEng E_pair E_mol Press Lx Ly Lz Volume Pxx Pyy Pzz Pxy Pxz Pyz Enthalpy 
 6750000    252.44823   -4701.5642   -4214.6965   -4701.5642            0   -591.83175    20.452612    20.096645    21.022376    8640.8037   -1714.9129      911.686   -972.26833    32.629009   -788.56921   -1035.0484   -4289.2775 
 6751000    236.59304   -4720.7765   -4264.4869   -4720.7765            0   -239.38812    20.123656    20.444568    21.047654    8659.4142    123.96345    -707.2169   -134.91092   -11.116778    594.63183     685.2505   -4294.7189 
 6752000    252.72429   -4737.8376   -4250.4375   -4737.8376            0    753.47491    20.100106    20.115806     21.29338    8609.5493    1290.0396    1104.8508   -134.46564   -907.16212    248.44725   -84.276443   -4155.8301 
 6753000    229.86019   -4702.7223   -4259.4176   -4702.7223            0    680.11433    20.219883    20.195841    21.234078    8671.0959    1888.7509   -341.52371    493.11577     389.6063    -1120.093     217.9396   -4173.4109 
 6754000    232.69728   -4735.9978   -4287.2215   -4735.9978            0    645.56266    20.356917    20.162217    20.931712    8591.2242    939.17014    619.31491    378.20292    654.99891     256.9613     778.1231   -4206.3362 
 6755000     237.2299   -4719.5332   -4262.0154   -4719.5332            0   -965.17123    20.355635    20.077127    21.206672    8666.7992   -1138.8074   -1050.9047   -705.80159   -464.47909    159.93243   -834.64661   -4384.0096 
 6756000    242.95626   -4713.8833   -4245.3217   -4713.8833            0    1620.3578    20.138155    20.154536    21.172498    8593.3911    1995.6889    1283.4927     1581.892    253.00397    811.01025    617.17929   -4042.2491 
 6757000    241.76488   -4713.3788   -4247.1149   -4713.3788            0    1390.6313    20.104648    20.179644    21.479302    8714.2523    1831.8847    1387.4229    952.58631    15.803084     772.9121    123.71126   -4070.3818 
 6758000    243.31685   -4717.7326   -4248.4756   -4717.7326            0    102.13898    20.270486    20.041102    21.408496    8697.0493   -384.73299    1854.8155   -1163.6656   -220.59719    944.95809   -544.24995   -4235.5205 
 6759000    260.98862   -4729.8871   -4226.5486   -4729.8871            0   -827.00742    20.154908    20.494552    21.122879    8725.1395   -1241.6453   -1108.8137   -130.56324    233.87122    905.44168    -1515.152    -4331.783 
 6760000    244.13656   -4710.5759   -4239.7381   -4710.5759            0    1257.3824    20.323831    20.113139    21.129864    8637.3821    1516.2433    1815.1123    440.79163   -779.37804    612.80819   -598.37622   -4081.3489 
 6761000     241.2939   -4725.6447   -4260.2892   -4725.6447            0    450.74514    20.269926    20.095356    21.374193    8706.3792   -261.14137    1139.8009    473.57592    42.376251    207.21439   -262.93202   -4203.0564 
 6762000    249.70987   -4695.6911   -4214.1046   -4695.6911            0    161.95613    20.125534    20.184061    21.273721    8641.7044    32.644814     1327.507   -874.28339    500.43322    906.54511    369.78765   -4193.6932 
 6763000    251.03618   -4698.0615   -4213.9171   -4698.0615            0   -575.76371    20.176071     20.29521    21.116726    8646.8262    -1874.791   -270.72545    418.22531    684.69278   -1422.2835   -358.44413   -4286.5238 
 6764000    246.46553   -4747.1613   -4271.8318   -4747.1613            0    1061.4989    20.151589    20.216787    21.085798    8590.3624   -345.49002    1996.8935    1533.0932   -714.14411   -343.30038    1731.0735   -4138.8455 
 6765000    238.17176   -4722.8345   -4263.5002   -4722.8345            0   -624.94752    20.135647    20.121486    21.511975    8715.7729   -1608.4818    189.14901   -455.50978    235.15199   -94.662611   -788.42328   -4342.9377 
 6766000    248.89509   -4734.8197   -4254.8046   -4734.8197            0    377.60734    20.101107     20.15967    21.477708    8703.4479    780.26702    1311.2448   -958.68983    368.17641   -342.08908   -1041.4131   -4206.8746 
 6767000    235.11433   -4712.6821   -4259.2443   -4712.6821            0   -296.63984    20.316641    20.128648    21.280317    8702.5117   -575.40458   -574.50728    259.99233   -162.05493    78.604983   -441.62671    -4296.893 
 6768000    238.67711   -4734.7639   -4274.4551   -4734.7639            0   -84.117047    20.479662    20.081903    21.037175    8651.9711   -197.04199   -830.16095     774.8518   -378.11524     181.1574     572.1643    -4285.069 
 6769000    241.47515   -4726.8335   -4261.1284   -4726.8335            0    614.68058    20.136059     20.26863    21.289946    8689.0728     942.5916    951.71929   -50.269153   -653.82278    442.23833   -56.901619   -4183.2353 
 6770000     246.9117    -4740.257   -4264.0671    -4740.257            0    1130.1151    20.028447    20.007151    21.630306    8667.5263      1204.76     1866.944    318.64121     457.0786   -1169.2177    596.20542   -4121.2126 
 6771000    242.92965   -4756.5025   -4287.9922   -4756.5025            0    853.99325    20.158591     20.17199    21.147384    8599.3487    158.83181    1226.1877    1176.9602   -1.0948101   -842.56445    1019.4919   -4180.8906 
 6772000    234.55814   -4712.8887   -4260.5236   -4712.8887            0     52.65617     20.14911      20.2782    21.205932    8664.4826   -1033.1755    1453.1409   -261.99689    303.88948    1017.1774    -535.2211   -4253.8698 
 6773000    245.36722   -4748.4804   -4275.2691   -4748.4804            0    724.51761    20.211933    20.165408    21.301025    8681.9118    735.01198    1488.9814   -50.440523   -422.40659    698.56535    -823.1156    -4183.533 
 6774000    253.66639   -4699.3139   -4210.0969   -4699.3139            0   -27.954743    20.180615    20.035618    21.603126    8734.8155   -1883.0503    2051.3805   -252.19441    647.60082    1063.7944   -277.76547    -4213.658 
 6775000    242.62957   -4695.8908   -4227.9593   -4695.8908            0    1030.8596    20.169526    20.323032    21.203927    8691.6151    358.12059    1008.5921     1725.866   -90.592581    1420.8835   -1419.7806   -4097.2893 
 6776000    251.12936   -4706.7908   -4222.4667   -4706.7908            0    -1082.283    20.101471    20.432007    21.314901    8754.3154   -791.43888   -1356.0461   -1099.3641   -618.01005    1644.6421    482.36456   -4360.6448 
 6777000    262.29575   -4726.6581   -4220.7987   -4726.6581            0    1035.1708    20.287652    20.005405    21.157579    8587.0719    689.46978     2176.903     239.1398   -361.21436    702.10369     421.2102   -4091.1605 
 6778000    231.06155   -4705.1255   -4259.5039   -4705.1255            0   -1737.1937    20.239314    20.557776    21.024022    8747.5759   -1939.9128   -3486.6139    214.94579    976.65708    772.90558   -351.43904   -4481.1254 
 6779000    247.06284   -4720.4207   -4243.9393   -4720.4207            0    1937.9371    20.153691    20.154073    21.081337    8562.7951    1587.2488    2862.1239    1364.4385   -98.683373   -893.09643   -1074.2359   -4001.9305 
 6780000    242.71286   -4704.4748   -4236.3826   -4704.4748            0    281.00873    20.327527    20.087752    21.270574    8685.5055    159.83876    670.10301    13.084429   -183.00496    1399.8352    -439.7744   -4200.7875 
 6781000    251.42732   -4714.1528   -4229.2541   -4714.1528            0   -314.61421      20.2733    20.034992    21.297563    8650.5463   -1382.0746    1247.8948   -809.66279    107.47916    198.11823     1099.785   -4268.9456 
 6782000    244.45673   -4720.3417   -4248.8864   -4720.3417            0    1170.0999    20.106352     20.28109    21.059653    8587.6784    113.35664    2552.1308    844.81217   -280.39945    641.52625   -131.07419   -4102.3402 
 6783000    241.73368   -4710.7865   -4244.5828   -4710.7865            0    665.18113    20.268211    20.129657    21.191527    8645.9763     2788.737   -1692.4607    899.26712   -1106.7874    -860.9695    759.93306   -4160.7083 
 6784000    242.28135   -4744.4373   -4277.1773   -4744.4373            0   -870.97784    20.023164    20.514463    21.273208    8738.2775   -923.56209   -745.82805   -943.54337   -434.37727    1344.0894   -251.31662   -4388.1737 
 6785000    236.36217   -4759.8847   -4304.0403   -4759.8847            0    814.12812     20.16703    20.027088    21.404524    8645.0067    2038.2498    550.92879   -146.79421    18.136448   -444.89562      1032.31   -4201.3962 
 6786000    236.30142   -4745.8647   -4290.1375   -4745.8647            0    896.93687    20.032523     20.20299    21.372699    8649.8919    1937.4543    1289.3136   -535.95732   -709.93048      851.782   -210.10097   -4176.9891 
 6787000     254.5059   -4749.4254   -4258.5893   -4749.4254            0    114.10466     20.44067    20.132336     21.00024    8641.9856   -197.30388    80.507989    459.10986    380.26442    1110.5675   -39.441547   -4244.2082 
 6788000    245.75995   -4722.6334   -4248.6647   -4722.6334            0     513.5013     20.15823    20.149948     21.15264    8591.9336     3307.869   -1663.7613   -103.60377    188.37245    140.62309    740.87283   -4184.3206 
 6789000    223.83994   -4699.6251   -4267.9309   -4699.6251            0   -1479.4184    20.230632    20.141775    21.285787    8673.5504   -2386.0834   -674.37186   -1377.7998   -73.450124    717.95046   -1790.5806   -4455.0697 
 6790000    232.70964   -4713.2452   -4264.4451   -4713.2452            0   -85.175433    20.122439    20.248716    21.264987    8664.4944     649.3354   -870.39797   -34.463728   -118.74429    1376.7314    692.08639   -4275.2081 
 6791000     238.7664   -4713.0321    -4252.551   -4713.0321            0   -437.45478    20.183904    20.342965    21.168498    8691.7948    2307.5887   -3373.8666    -246.0864    57.098698   -494.16107    259.90751   -4308.0032 
 6792000    237.22686   -4725.9452   -4268.4333   -4725.9452            0    510.52182    20.177327     20.14864    21.356678    8682.4659    1628.1588   -237.90174     141.3084    103.70924   -451.33589    -90.89497   -4203.7885 
 6793000    245.23287   -4709.3871   -4236.4349   -4709.3871            0    1258.5528     20.23139    20.063014    21.238741    8620.8617    1329.7873    1390.8143    1055.0567   -458.48585   -176.38486   -1194.0744   -4078.2015 
 6794000    227.62351   -4728.1699   -4289.1788   -4728.1699            0    2327.2355    20.172898    20.205829    21.087757    8595.5831     2410.102    1774.0324    2797.5721   -738.96458    634.24221   -835.09448   -3997.4418 
 6795000    241.28931   -4760.6252   -4295.2785   -4760.6252            0    269.28396    20.282568    20.043949    21.060335    8561.9266   -1581.6049    2343.7085    45.748262    220.10044    2042.4236    743.23626   -4261.6538 
 6796000    232.33085   -4720.5431   -4272.4735   -4720.5431            0    -589.0254    20.279349    19.965803    21.520036    8713.3222   -1029.1033   -104.48433   -633.48854   -637.78948   -382.27732    115.49137   -4347.3238 
 6797000    241.85525   -4728.1035   -4261.6653   -4728.1035            0    16.470982     20.28545     20.23058      21.3215    8750.0543    -814.1099   -117.54118    981.06403    52.670335    1554.9531    153.36091   -4259.5634 
 6798000     234.8395   -4738.5412   -4285.6335   -4738.5412            0    2006.7635    20.072241     20.32739    20.913789    8533.1661    1857.7189     454.1708    3708.4009    158.70401    1680.6836   -183.16079   -4035.8969 
 6799000    244.81923   -4719.8895    -4247.735   -4719.8895            0    335.87608    20.148161    20.254345    21.235386     8665.902     761.6352   -752.39054    998.38359    210.74642    129.55206   -328.00512   -4205.2859 
 6800000    237.65627   -4739.4392   -4281.0991   -4739.4392            0     1876.353    20.084223    20.169159    21.378369      8659.99    2312.2144    1375.6962    1941.1482   -273.97945    634.02191    49.949588   -4044.1212 
 6801000    258.86706   -4696.8271   -4197.5802   -4696.8271            0   -732.13137    20.258313    20.183755    21.381738    8742.7535   -487.27903   -715.16944   -993.94563    755.76383   -539.62434    379.22981   -4290.9299 
 6802000    234.71234   -4729.2473   -4276.5848   -4729.2473            0    860.50567    20.210836    20.152136    21.211847    8639.4055    129.23459    429.82573    2022.4567   -761.20335   -781.61726     -363.802   -4168.1638 
 6803000     240.2495   -4754.4153    -4291.074   -4754.4153            0   -1575.5139    20.407908    20.173558    21.254186    8750.3505   -2109.1402   -1269.3666    -1348.035    74.619381   -116.70762   -459.84031    -4492.133 
 6804000    241.24215   -4701.5103   -4236.2545   -4701.5103            0    1236.9185    20.061014    20.221351    21.440027    8697.3788    2291.6086    178.68507    1240.4618   -401.00859    754.45887   -355.35397   -4079.3609 
 6805000    239.81412   -4713.7108   -4251.2091   -4713.7108            0   -1144.0986    20.306946    20.110748    21.392529    8736.4492   -650.11441   -1518.4289   -1263.7525   -216.50221    194.86523    91.407219   -4396.9812 
 6806000    255.35618   -4701.8752   -4209.3993   -4701.8752            0    1957.6672    20.104757    20.172693    21.286754    8633.2073    1710.4345    2634.8976    1527.6695   -56.906013    704.16983    1146.2745   -3962.9163 
 6807000    236.47337   -4749.7423   -4293.6835   -4749.7423            0    210.97794    20.176365    20.190686    21.236198    8651.0886    640.19604   -102.25864    94.996425   -712.76987   -707.85731    930.65919    -4267.065 
 6808000    239.06801    -4706.232   -4245.1693    -4706.232            0    1443.8328    20.302058    20.057731    21.038948    8567.3378   -259.61184      4318.49    272.62028    269.75802   -70.578919     229.9144   -4064.7684 
 6809000    236.49499   -4722.7199   -4266.6194   -4722.7199            0   -463.84854    20.319901    20.256949    21.046651    8663.2059   -373.50017   -1718.7726    700.72716    89.714693   -369.54876     506.2852   -4325.2239 
 6810000    237.58231   -4717.6081   -4259.4106   -4717.6081            0    2297.3613    19.913991    20.337547    20.981105    8497.3835    2817.4008    842.70051    3231.9825   -135.40499    188.78505   -320.65799   -3974.7087 
 6811000    244.17484   -4712.0745   -4241.1628   -4712.0745            0   -1335.7538     20.28869    20.051536    21.232862    8637.9401   -653.39588   -2224.3929   -1129.4727    -205.6554   -220.30442   -164.36982   -4409.4351 
 6812000    247.32416   -4693.3457   -4216.3603   -4693.3457            0    751.90565    19.991654    20.296691     21.34182    8659.7515    2120.8811    1133.7631   -998.92719   -298.33776   -696.17679   -615.18593   -4121.3994 
 6813000    248.36576    -4710.996   -4232.0018    -4710.996            0   -1365.8541    20.316476    20.055484     21.48916    8755.9034   -2291.2096   -369.51339   -1436.8394   -143.88817   -429.89574    281.21566   -4406.4157 
 6814000     241.3086   -4718.9525   -4253.5686   -4718.9525            0     896.2756     20.23404    20.152437      21.1644     8630.106    1002.1816    884.63116    802.01398    65.514472   -97.568159   -62.215431   -4140.7622 
 6815000    239.74531   -4725.7894   -4263.4204   -4725.7894            0    257.78897    20.245904    20.122368    21.250656    8657.4223    283.10344    272.68341    217.58006    144.31869     726.0558    -490.8447   -4230.8721 
 6816000     252.9062   -4699.8225   -4212.0717   -4699.8225            0   -438.05086    20.112583    20.403866     21.11586    8665.4096   -58.948506   -1265.8629    10.658858   -332.97172    1263.8476   -175.05019   -4267.4308 
 6817000    240.04841   -4732.3884   -4269.4349   -4732.3884            0   -1393.7573    20.282766    20.275436    21.242553    8735.8284    -1388.689   -1329.1486   -1463.4343   -433.30003   -796.41115     582.7704   -4447.0039 
 6818000    239.47593   -4715.8753   -4254.0258   -4715.8753            0    661.70277    20.184661    20.124611    21.322287    8661.2936    966.18068    557.40502    461.52261    69.685342    546.34005    802.37239   -4170.4421 
 6819000     243.8758   -4762.1912   -4291.8562   -4762.1912            0    1157.1557    20.393033    20.076754    20.834231    8530.0741   -170.78095    818.35763    2823.8905    -48.27931       516.34   -289.35487   -4147.9032 
 6820000     245.3941   -4718.3218   -4245.0587   -4718.3218            0    62.040511    20.221916    20.374455    20.922869    8620.4421    763.67211   -1092.3206    514.77004   -40.531386    279.93651    1208.9567   -4237.2589 
 6821000    237.13573    -4706.534   -4249.1978    -4706.534            0   -666.70042    20.203853    20.294441    21.185759      8686.71   -584.23935   -1018.5183   -397.34361    30.432824   -201.01397    -150.0605     -4333.66 
 6822000    255.56847   -4693.9628   -4201.0775   -4693.9628            0    976.10365     20.15449    20.171857    21.541194    8757.6475    221.52609    1462.8209     1243.964    38.388749   -385.97391    283.48122   -4076.4083 
 6823000    232.80891   -4738.3779   -4289.3864   -4738.3779            0     1308.483    19.862506    20.261395    21.358972    8595.7491    3948.8404   -991.34649    967.95508    38.806666    786.66566    306.64826   -4125.3547 
 6824000     232.1072    -4733.573   -4285.9348    -4733.573            0    518.77488    20.312464    20.000544    21.147425    8591.3596   -525.48173    1256.6254    825.18094   -33.771013    80.498073    1192.8505   -4220.9342 
 6825000    250.82062   -4752.5929   -4268.8642   -4752.5929            0   -291.00214    20.271191    20.151941    21.321011    8709.7148   -762.84855   -52.947308   -57.210555      259.522    412.92548    97.992589    -4305.828 
 6826000    242.79039    -4728.382   -4260.1403    -4728.382            0    995.22343    20.075205     20.15468     21.31234    8623.1716    1839.3984    130.63782    1015.6341    499.00615    762.81455    58.113835   -4134.9809 
 6827000      223.107    -4731.055   -4300.7743    -4731.055            0    713.68467    20.243948     20.07223    21.293026    8652.2335     70.46598     1038.987     1031.601    271.86995   -352.80582   -878.44923   -4210.7188 
 6828000    257.12953   -4718.7479    -4222.852   -4718.7479            0    1754.9788    20.121879    20.195362    21.216426    8621.6902    3617.3586    98.152734     1549.425     5.009743   -983.44128    301.10535   -4002.1836 
 6829000    229.87785   -4721.3039   -4277.9651   -4721.3039            0    5.2198045    20.332902    20.175871    21.015475    8621.2623    1098.1559    -488.8903   -593.60616   -593.20858    691.70933    87.867106   -4277.3088 
 6830000    249.34946   -4717.0305   -4236.1391   -4717.0305            0    216.48513    20.334245    20.209857    21.324184    8763.2198    725.62878   -887.15107    810.97768   -703.40437    595.99851     17.59534   -4208.4717 
 6831000    247.96871   -4726.3108   -4248.0823   -4726.3108            0   -218.09868    20.378757     20.05078    21.171993    8651.0871   -930.53862    102.00992    174.23267    193.26343    132.79999    610.50501   -4275.5992 
 6832000    239.65689   -4743.9402   -4281.7418   -4743.9402            0   -407.34966    20.159179    20.370395    21.271578    8735.1826     909.4595   -2632.8978    501.38931   -51.177205   -1359.6201    -1526.483   -4333.6355 
 6833000    248.35769   -4717.4289   -4238.4502   -4717.4289            0    38.023475    20.194954    20.189826    21.217789    8651.1843     1628.789   -980.28109   -534.43746   -515.68721   -498.45638    14.278871   -4233.6528 
 6834000    246.08148    -4691.653   -4217.0642    -4691.653            0   -34.203385    20.004943    20.448081    21.344184    8731.1092     602.9724   -1279.1658     573.5832    160.25393   -1257.1552    145.62616   -4221.4195 
 6835000    230.98468    -4721.124   -4275.6506    -4721.124            0    726.04934    20.205871    20.258967    21.143875    8655.2468   -451.80553    769.85739    1860.0962    349.41936    1273.9232   -106.24062    -4184.003 
 6836000    238.53658   -4732.4511   -4272.4132   -4732.4511            0    1602.0336    19.983757    20.323688    21.045499    8547.4955    2083.8258    823.68219     1898.593    745.32607    251.87769   -787.77988   -4072.7094 
 6837000    231.05135    -4716.404   -4270.8021    -4716.404            0    1278.2935    20.346032    20.158366    21.121694    8662.9103    1704.0737    1097.2625    1033.5441    168.16677   -11.175126    331.40436   -4109.3029 
 6838000      250.526   -4741.4573   -4258.2968   -4741.4573            0    154.36498    20.266287    20.117935    21.306046    8686.8126    1194.6458   -444.46711   -287.08379   -236.69964    765.26699    695.83818   -4238.7406 
 6839000    227.08239   -4747.4963   -4309.5488   -4747.4963            0    192.80319    20.340031    20.176726    21.235342    8714.8829   -161.48749   -420.85311    1160.7502    754.52301   -391.14006   -99.437153    -4285.044 
 6840000    241.83512    -4734.297   -4267.8976    -4734.297            0    690.73152    20.178011    20.160864    21.209003    8627.9527    1731.0835    1149.2871   -808.17604   -157.91558    1246.9552   -1084.1666    -4180.983 
 6841000    235.38894   -4726.1721   -4272.2047   -4726.1721            0   -908.91443    20.064941    20.452758    20.993257    8615.2839   -1349.9364   -1408.8477    32.040803   -59.833715    906.20174   -46.644514   -4386.4053 
 6842000    245.84903   -4740.4255   -4266.2849   -4740.4255            0    512.31739    20.125246    20.227374    21.281228     8663.181   -238.60952    1379.5509    396.01081   -416.22718    517.56207     936.7246   -4201.5569 
 6843000    245.12375   -4705.1761   -4232.4344   -4705.1761            0    978.81125    20.180264    20.077161    21.340276    8646.2778    3786.0859   -828.73594   -20.916197   -255.44229    8.2015248    886.19846   -4109.0091 
 6844000    240.60789   -4724.2847   -4260.2521   -4724.2847            0   -361.31688    20.214365    20.253809    21.300163    8720.6677    446.44112   -1726.5467    196.15491   -837.89384   -412.78543    -1091.362   -4306.2051 
 6845000     235.3949    -4751.691   -4297.7122    -4751.691            0   -632.38835    20.132199    20.022911    21.546709    8685.5913   -1468.3103     301.7742   -730.62898   -482.51438    1175.3934    68.460135   -4377.8171 
 6846000    240.67186   -4711.9705   -4247.8146   -4711.9705            0    1122.5567    20.363059    20.136816    21.172071    8681.5478    1646.3339   -256.56696    1977.9032   -369.52827   -564.91781    1163.0608    -4105.686 
 6847000    249.10375   -4739.9785    -4259.561   -4739.9785            0   -1019.9045    20.233613    20.247455    21.117377    8651.3494   -1428.8923   -1662.2051     31.38379   -554.37068    750.68981   -336.99716   -4388.2434 
 6848000    237.50964   -4716.5516   -4258.4943   -4716.5516            0   -188.75665     20.23603    20.309957    21.055882    8653.8182   -906.84427    789.03482    -448.4605     91.43335    51.070134    -2046.135   -4282.3167 
 6849000    236.55099   -4718.0184   -4261.8099   -4718.0184            0    685.93134    20.182539    20.196454    21.136288    8615.4835    1760.0443   -663.95483    961.70458   -424.40993   -545.46183    -831.4731    -4175.624 
 6850000    239.18904   -4713.4882    -4252.192   -4713.4882            0    1093.3413    20.086745    19.881177    21.663019    8651.0867    1862.7908     1127.085    290.14814    133.15999   -35.451975    796.50157   -4114.2481 
 6851000    231.89122   -4748.9293   -4301.7076   -4748.9293            0    1249.2674     20.09587    20.150118    21.395672    8663.8381    2512.6767    606.23046    628.89494   -366.84313    57.335399   -1609.7805   -4143.8586 
 6852000    241.65361   -4722.9087   -4256.8594   -4722.9087            0    252.23724    20.285935    20.268776    20.954555     8615.907   -717.00065     1287.503    186.20936    -921.7483    64.924963   -778.11023   -4225.1647 
 6853000    247.58654   -4716.5369   -4239.0454   -4716.5369            0   -203.65537    20.270419    20.383477    20.962662    8661.3866   -1036.2519   -929.84529    1355.1311   -362.88826    1622.3651    769.74745   -4264.7707 
 6854000    236.06679   -4700.7259   -4245.4512   -4700.7259            0   -38.874541    20.139199     20.18508    21.368805    8686.6618    1251.5169   -510.97571    -857.1648   -426.79263     1157.051    289.99834   -4250.3761 
 6855000    257.23739   -4709.1691   -4213.0652   -4709.1691            0    725.28768    20.094569    20.026981    21.570158    8680.5549    1438.8193     1061.014    -323.9703    623.60194   -130.12639    358.67138   -4121.2459 
 6856000     236.9376   -4733.8984   -4276.9443   -4733.8984            0   -649.22535    20.241764    20.176111    21.329006    8710.7676    215.41633   -1557.6071   -605.48533    131.37108    427.86598   -1253.5411   -4359.4203 
 6857000     238.1711   -4706.8357   -4247.5027   -4706.8357            0   -309.00329    20.276016    20.248649    21.078329     8653.959   -824.18146    466.25773   -569.08613    90.065546    939.42158   -463.54564   -4286.5018 
 6858000     242.4338   -4706.5999    -4239.046   -4706.5999            0    238.96173    20.436371    20.148279    20.998596    8646.3337    52.089733    537.28722    127.50824    197.52415   -745.50534    195.79722   -4208.9134 
 6859000    248.91243   -4742.4011   -4262.3525   -4742.4011            0    1205.6862    19.961033    20.283437    21.116875    8549.7655    1909.6429   -132.94765    1840.3635    -757.4056    -104.0985   -995.27204    -4112.016 
 6860000    248.44608   -4711.4404   -4232.2912   -4711.4404            0   -62.505677     20.17709    20.248534    21.300145    8702.3124   -417.57306    303.35576   -73.299731    203.80148    23.000795    794.69819   -4240.2241 
 6861000    253.90762   -4714.4832    -4224.801   -4714.4832            0    -28.98364    20.419449    19.997796    21.155601    8638.7621   -1875.5576     1460.994    327.61275    -57.22197   -102.76261   -289.73684   -4228.4526 
 6862000    241.21021   -4715.2346   -4250.0405   -4715.2346            0   -84.478777    20.412027    20.149516    21.083179    8671.3525   -1178.5083    715.60663    209.46532    39.701109    503.76587    -1010.529   -4260.7239 
 6863000    228.04017   -4719.1983   -4279.4036   -4719.1983            0    1539.1771    20.187131    20.120506    21.012456    8534.7409     864.3543    2797.9166    955.26032    28.210742   -71.648214   -893.71974   -4087.8216 
 6864000    240.39363   -4712.6432   -4249.0239   -4712.6432            0   -226.54734    20.159057    20.363216    21.245748    8721.4481    796.88501   -558.53523    -917.9918   -167.92156    -567.8502    882.65112   -4277.8392 
 6865000    239.44559   -4713.8526   -4252.0617   -4713.8526            0    412.97484    20.120806    20.205087    21.118773    8585.6813   -958.90891    635.19138     1562.642   -302.27107   -913.47524   -631.75734   -4200.3517 
 6866000    232.30533   -4730.4169   -4282.3965   -4730.4169            0    230.95884    20.107273    20.299913    21.352414    8715.5407     783.1953    259.09636   -349.41513    382.43447    641.92625    434.89555     -4253.04 
 6867000    238.66655   -4747.2046   -4286.9161   -4747.2046            0    261.85711    20.063076    20.121772    21.423569    8648.7944    2205.0424   -995.46493   -424.00613    130.33707    238.90552   -800.69101    -4253.887 
 6868000    233.10919   -4721.2517    -4271.681   -4721.2517            0    756.74396    20.205606    20.232012    21.179186    8658.0522     421.5134    481.80756    1366.9109    347.68026   -59.414482    779.42799   -4176.1279 
 6869000    242.14227   -4748.7613   -4281.7695   -4748.7613            0    446.38347    20.188664    20.258634    21.003995    8590.5235    77.408145    64.443465    1197.2988    559.00385    654.18372   -994.85799   -4225.8448 
 6870000    245.30024   -4724.9768   -4251.8946   -4724.9768            0    1727.6996    20.268558    20.067098    21.129064    8593.8485     2353.535    1968.1558    861.40794     -625.301    1770.0728    485.87722   -4035.3578 
 6871000    236.98011   -4743.2366   -4286.2005   -4743.2366            0    450.12494    20.192106    20.039142     21.57052    8728.1329    1130.2163   -256.83372    476.99229    82.706334    204.42987   -1345.1628   -4228.9037 
 6872000     246.0648   -4709.2205   -4234.6638   -4709.2205            0    1234.1068    20.094541     20.06752    21.352562    8610.3698    808.69483    2177.9945    715.63099    457.99077   -261.79833       402.89   -4079.6928 
 6873000    236.94676    -4716.125   -4259.1532    -4716.125            0    -2336.084    20.139927     20.31304    21.485781    8789.9005   -1603.2671   -2016.8486   -3388.1361    533.35463    699.76605     407.9473   -4558.6197 
 6874000    237.10307    -4713.669   -4256.3958    -4713.669            0    2084.9168    20.206354    20.076779    21.181431    8592.8514    2638.4433    2693.5409    922.76629    485.97417    908.85349    1210.6532   -3995.1184 
 6875000    252.09775   -4716.1102   -4229.9185   -4716.1102            0   -1371.8859    20.174926    20.281487    21.276915    8706.0347   -431.85084   -1517.0352   -2166.7716    132.84229    828.69387    -132.3074   -4404.1049 
 6876000    236.03352   -4744.7663   -4289.5558   -4744.7663            0    1810.9099    20.249989    20.084316    20.970811    8528.9795    851.41831    2869.8639    1711.4475    797.76478   -553.76369    22.194889   -4064.3032 
 6877000    246.46738   -4737.4417   -4262.1086   -4737.4417            0    939.82642    20.163454    20.374199      21.1331    8681.7782    187.72166    527.13231    2104.6253   -1023.6703    387.25622    64.477449   -4143.1127 
 6878000    235.05059   -4726.6033   -4273.2884   -4726.6033            0    1722.1946    19.996801    20.162988    21.148084    8526.8068    2046.0846    1586.5846    1533.9146   0.93247448    287.09975      -445.96   -4059.1254 
 6879000    244.62333   -4688.8932   -4217.1165   -4688.8932            0   -1702.3467     20.31871    20.320032    21.375357    8825.3896   -995.28954    -2689.064   -1422.6864    167.06425   -1029.3421   -507.32297   -4436.2243 
 6880000    224.02302   -4732.5005   -4300.4533   -4732.5005            0    671.62243    20.107818    20.083385    21.147368    8540.0059   -23.748907    1882.8585    155.75766   -669.76385    881.70022    518.04434   -4216.8046 
 6881000    236.84714   -4755.5195   -4298.7398   -4755.5195            0    441.14077    20.020312    20.312572    21.287846    8657.0013    1022.9882   -592.57122    893.00534   -180.42863   -773.17349    70.819177   -4243.0443 
 6882000    248.34003   -4707.0822   -4228.1376   -4707.0822            0    1226.5805    20.207146    19.970312    21.442574     8653.001    575.45854    2940.1842    164.09867    183.02355   -217.87222    585.77455   -4073.3491 
 6883000     249.3219   -4703.5941   -4222.7558   -4703.5941            0    2168.6131    20.107815    20.102378    21.256446    8592.1724    2691.0121    1418.5686    2396.2586   -38.928435    1060.5995    396.14122   -3951.0112 
 6884000    248.16414   -4752.3045    -4273.699   -4752.3045            0    825.83471    20.329657    20.165699    21.097272    8649.0745    1114.5817   -28.664689    1391.5872   -1.1833044    904.98141    -398.0487     -4169.53 
 6885000    235.37955   -4722.9267   -4268.9774   -4722.9267            0    686.74288    20.412955    19.985933    21.041416    8584.3077     2333.662    -157.7835   -115.64985   -127.81214    967.54869    984.52658   -4183.0018 
 6886000    249.66713   -4737.6352   -4256.1312   -4737.6352            0    335.00988    20.103472    20.096801    21.502465    8687.3286    1555.6488     546.8615   -1097.4807    614.93997    443.22384   -268.60084   -4213.6868 
 6887000    231.57603   -4720.7017   -4274.0879   -4720.7017            0   -770.44385    20.057472    20.217951    21.450453    8698.6089    332.36274   -1217.1215   -1426.5728   -104.30834    804.81035   -702.21479   -4371.8266 
 6888000    236.05122   -4731.0475   -4275.8029   -4731.0475            0    1117.0396     20.22183    20.120861    21.219508    8633.8069    1257.2168    432.32827    1661.5736    360.93846    1759.5941     852.9955   -4135.1506 
 6889000    236.87873    -4752.566   -4295.7255    -4752.566            0    558.53522    20.029007    20.389003    21.136847    8631.6854    746.13527     58.19279    871.27761   -625.71647   -495.82067   -209.05415   -4225.4147 
 6890000    236.17677   -4703.0572   -4247.5704   -4703.0572            0    6.2599379    19.967684    20.269249    21.437696    8676.4777   -516.32706    539.57805   -4.4711787   -202.15472   -772.20962   -505.40241   -4246.7783 
 6891000    234.81059   -4710.1641   -4257.3121   -4710.1641            0    -1140.215    20.144023    20.301368    21.332204    8723.8312   -1461.6139   -716.94349   -1242.0876     7.901552    -342.1761    237.81974   -4402.3795 
 6892000    245.44206   -4736.1889   -4262.8333   -4736.1889            0    35.958536    20.324774    20.225564    21.163584    8699.9265    1083.4551   -1611.4758    635.89633   -261.48297    1012.9265    723.23521   -4258.2709 
 6893000    242.09413   -4736.8669    -4269.968   -4736.8669            0   -2228.2054    20.182577    20.401479    21.289252    8765.9439    -591.5652   -2911.2568   -3181.7941    125.74063   -408.13366    551.21219   -4554.8269 
 6894000    244.38541   -4722.6534   -4251.3356   -4722.6534            0   -599.44748    20.239881    20.260168    21.357087    8757.7595   -1280.0911    1103.9584   -1622.2097    437.65036    1569.3841    119.69011   -4327.8988 
 6895000    239.17869   -4720.9711   -4259.6949   -4720.9711            0    717.20864    20.140851    19.942108    21.350236    8575.3442   -696.35516    3018.0648   -170.08378    837.36184    1365.1584   -348.93342   -4169.9989 
 6896000    238.24938    -4741.874   -4282.3901    -4741.874            0    1460.4747    20.209894    20.237624    21.147174    8649.1989    1578.2473    538.10837    2265.0683   -122.96298    435.29196   -822.42037   -4098.1662 
 6897000    240.37539   -4755.0442   -4291.4601   -4755.0442            0    314.71988    20.113724    20.326149    21.239354    8683.3821    2224.5806   -2077.3945    796.97358    275.23372     605.5808    173.33294   -4251.6045 
 6898000    237.83303    -4744.677    -4285.996    -4744.677            0    255.56414    20.282791    19.997055    21.179813    8590.4491    292.89851    441.97047    31.823437   -74.798488    1246.4112    1046.6559   -4253.9782 
 6899000    247.53957   -4721.5038   -4244.1029   -4721.5038            0   -239.55799    20.262368    20.024968    21.415025    8689.2166   -1973.3157    1890.0511   -635.40939    -187.0173    115.68796   -1133.6716   -4274.4605 
 6900000    235.56206   -4725.3572    -4271.056   -4725.3572            0    795.19883    20.053648    20.206739    21.417867    8678.9228    1085.7306    1613.4487   -313.58277   -324.46968   -204.03588   -106.95402   -4170.4051 
 6901000    252.43021   -4706.1986   -4219.3657   -4706.1986            0    -621.9429    20.163486    20.382975    21.059096    8655.1168    -807.5284   -1223.3793    165.07905    231.35792    547.18407    499.40343   -4297.8711 
 6902000    241.06018   -4700.9174   -4236.0126   -4700.9174            0    499.26132    20.229605    20.357154     20.99015    8644.1043    1286.9981   -543.08588    753.87175    373.81933    72.186012    1495.6707    -4173.073 
 6903000    246.62776   -4743.0179   -4267.3755   -4743.0179            0    158.20307    20.308658    20.099561    21.061796    8597.3224    1566.4672   -628.44737   -463.41057   -601.03837   -28.308819    1188.0496   -4247.5395 
 6904000    236.22759   -4719.7491   -4264.1643   -4719.7491            0    865.77851    20.153454    20.181766    21.331886    8676.3667    246.78283    1088.0047     1262.548    971.74033    1350.6763   -789.89937   -4154.6122 
 6905000    236.50296   -4717.8861   -4261.7703   -4717.8861            0   -128.39312    20.201001    19.933215    21.742093    8754.9083   -571.72007     2293.744   -2107.2033   -19.531881   0.68960925    1047.1995   -4278.1637 
 6906000    243.47012   -4755.3478   -4285.7952   -4755.3478            0   -25.402655    20.262167    20.073619    21.352827    8684.9426    941.00569   -843.38542   -173.82824    55.083593    907.57321    528.70921   -4289.0127 
 6907000    239.90598   -4715.5415   -4252.8626   -4715.5415            0    1275.2255    20.194068    20.138531    21.302411    8663.2403    653.71991    1409.9661    1761.9904   -138.79606   -204.53353   -223.46284   -4091.7449 
 6908000     232.5143   -4741.0045   -4292.5811   -4741.0045            0    -656.2596    20.264549    20.230381    21.230205    8703.5252    631.81558   -1192.8993   -1407.6951   -390.57372     78.47287   -899.77625   -4375.8815 
 6909000    232.58454   -4735.1057   -4286.5469   -4735.1057            0    331.54538    20.267124    20.239419    20.833826    8545.9276    830.30387   -1208.1907     1372.523   -173.10081   -1310.0361    699.35775   -4245.2252 
 6910000    250.61805   -4735.0929   -4251.7549   -4735.0929            0    1191.5295    20.156023     20.22642    21.186442    8637.3777   -160.69049    3300.9525    434.32658    154.52564   -1213.1978    277.30743   -4101.6612 
 6911000    231.80319   -4734.5742   -4287.5222   -4734.5742            0   -102.23439    20.236659    20.244689    21.161171    8669.4116   -935.29751   -246.52266      875.117   -388.48183    1756.7274   -1046.7635   -4300.4482 
 6912000    240.83077   -4713.6301   -4249.1677   -4713.6301            0    860.08098    20.144241    20.140607    21.316091    8648.3054    1752.6187    -415.7609    1243.3851   -424.60039    773.79942   -974.66656   -4140.6886 
 6913000    241.79612   -4717.8671    -4251.543   -4717.8671            0    138.09897    20.046274    20.288234    21.451968    8724.5902    1319.4041   -522.01937   -383.08785   -481.67786    998.85096    452.21068   -4233.9714 
 6914000    239.18384   -4735.3621   -4274.0759   -4735.3621            0    202.66099    20.343139      20.1901     21.06669    8652.7217   -478.47526     525.0892    561.36905   -80.730269    1535.0628   -907.31268   -4248.5019 
 6915000    235.05627   -4720.0402   -4266.7144   -4720.0402            0     997.3557    20.188109    19.947631    21.273116    8566.7888    588.52754    2026.3999    377.13967    903.08316   -590.41511   -706.80587    -4142.107 
 6916000    235.78276   -4692.6262   -4237.8993   -4692.6262            0   -862.11167    20.376586    20.029475    21.347728    8712.6976   -1584.9545   -420.05583   -581.32468   -143.65787    1089.7513    714.65565   -4347.4442 
 6917000    244.55561   -4732.2305   -4260.5845   -4732.2305            0   -287.57699    20.233733    20.040089    21.192828    8593.3912    658.34785   -130.23675   -1390.8421    435.54612    2052.2624   -56.722736   -4296.6253 
 6918000    245.00923   -4703.1971   -4230.6762   -4703.1971            0    536.27856    20.123365     20.29817    21.263495    8685.4461    261.66287   -130.12739    1477.3002    99.401195   -198.26815   -195.81777   -4162.7467 
 6919000    249.85321   -4711.2181   -4229.3552   -4711.2181            0    1447.4455    20.214952    20.075995    21.130443    8575.4791    614.13944    2580.2799    1147.9171    248.48999    1447.1808    498.03906   -4048.3311 
 6920000    241.53737   -4710.8448   -4245.0196   -4710.8448            0   -1698.6171     20.34117    20.259043    21.191184    8732.7308   -2427.4214   -1908.4278   -760.00201   -79.668249    2040.8323   -698.28826    -4461.352 
 6921000    243.33598   -4709.5126   -4240.2187   -4709.5126            0    166.97818    20.282675    20.241829    21.181214    8696.1259   -354.57293    710.83458    144.67289    62.061259   -1055.4378    725.11425   -4219.0419 
 6922000    233.94172     -4730.33   -4279.1537     -4730.33            0    1146.8037    20.054022     20.13828     21.27421    8591.6646    1668.7264     1295.701    475.98375    557.04521    2274.8892   -721.21059   -4135.4585 
 6923000    233.85342   -4727.1707   -4276.1647   -4727.1707            0    116.00923    20.092923    20.184518    21.449035    8698.9985     421.6245   -94.461374     20.86456    383.59037    949.63958   -1312.8803   -4261.4471 
 6924000    248.14649   -4734.2525   -4255.6811   -4734.2525            0    97.574059    20.106034    20.221733    21.205481    8621.6999    848.91133   -421.21399   -134.97516   -332.60307    243.96625    772.15471   -4243.4123 
 6925000    244.62932   -4741.8621   -4270.0739   -4741.8621            0    1439.2688    20.053402    20.337973    20.968811    8552.0359    2740.8071    150.56094    1426.4384   -437.62096     327.9156    1785.5162   -4090.5644 
 6926000    239.72007   -4754.9738   -4292.6535   -4754.9738            0    167.74267    20.373092    20.073572    21.151358    8650.0747   -517.69796    1411.4952   -390.56925   -684.32606    -469.2533   -808.38122   -4271.4923 
 6927000    228.87712   -4704.2148    -4262.806   -4704.2148            0    528.04855    20.118561     20.09192    21.415807    8656.7088    1131.0669    129.93183    323.14693   -202.24808     1014.157    818.12807   -4196.1403 
 6928000    235.46746   -4709.0086   -4254.8899   -4709.0086            0    -1095.142    20.166188    20.231367    21.390262    8727.0031   -1055.3303   -2290.0457    59.950109   -169.60052    260.88212   -621.74701   -4394.2734 
 6929000    251.73339   -4713.9797   -4228.4907   -4713.9797            0    65.324252    20.017676    20.037759    21.684444    8697.8331    1300.2156   -499.34823   -604.89466   -517.21719   -88.120686   -467.07461   -4220.2044 
 6930000    247.95059   -4720.9264   -4242.7328   -4720.9264            0   -197.75053     20.06812    20.346994    21.126591    8626.5348    1112.1365   -1385.4734   -319.91465    2.8456832   -912.53568    590.18791   -4267.6116 
 6931000    244.23338   -4740.7069   -4269.6823   -4740.7069            0    752.90287    20.185913    20.281906    21.083886     8631.928    1478.4196   -267.29251    1047.5815   -233.62399   -436.56593    710.78972    -4174.901 
 6932000    243.14291   -4732.6191   -4263.6976   -4732.6191            0   -346.43437    20.478713    20.138118    21.253078    8764.8275   -1226.4182   -576.00863    763.12366    816.35245     852.9095    390.60159   -4307.9809 
 6933000    243.01322   -4755.7347   -4287.0633   -4755.7347            0      1598.41    20.027856    20.067644    21.357555    8583.8547    1541.1295    1884.7971    1369.3035   -169.10784    134.78232    1231.1274   -4086.9636 
 6934000    231.46409   -4733.9589   -4287.5609   -4733.9589            0    813.30371    20.261054    20.188429    21.292246    8709.3559    91.967388    1843.3282    504.61551   -44.455955    91.218134    638.40856   -4184.2575 
 6935000    255.09154   -4723.9387   -4231.9732   -4723.9387            0    250.70284    20.216593    20.149754    21.156496    8618.2967    1543.4016   -459.27136    -332.0217    63.443777    732.91085   -449.07295   -4200.4626 
 6936000    239.15363   -4695.7703   -4234.5424   -4695.7703            0    345.45056    20.111506    20.393825    20.990495    8609.2626     389.3045    734.47195   -87.424761   -166.80116    205.65609    287.57382   -4191.1686 
 6937000    241.37054   -4739.5243   -4274.0209   -4739.5243            0   -537.20176     20.28996    20.149707    21.325452    8718.6285   -2985.6297      1999.11   -625.08562    512.09334   -160.07129     729.3343   -4342.3273 
 6938000    235.04173   -4697.9741   -4244.6764   -4697.9741            0    1808.8228    20.006533    20.050963    21.420036    8592.6531    1904.6703    4089.2339   -567.43571     684.7247    572.62754    1504.1698   -4018.0037 
 6939000    228.16128   -4727.2536   -4287.2254   -4727.2536            0   -147.95761    20.171773    20.086222    21.269171    8617.7302    1555.7716    -862.2808   -1137.3636    247.75283   -331.10529    954.04689   -4305.8209 
 6940000    257.86654   -4720.0429   -4222.7256   -4720.0429            0   -295.28816    20.361367      20.2982    20.988354     8674.468   -899.82912   -711.75317    725.71782   -442.82338   -285.85064   -909.14322    -4260.082 
 6941000    243.43955   -4727.0666    -4257.573   -4727.0666            0    654.12436    20.156997    20.170504    20.989256    8533.7442    1847.5955    -1300.415    1415.1926   -750.90027    250.41749   -318.81535   -4176.1633 
 6942000    241.42132   -4717.3179   -4251.7166   -4717.3179            0   -118.94583    20.241656    20.252462    21.313222    8737.2139    -1568.442    380.33986    831.26468    527.33763    405.96057    -354.8382   -4266.8731 
 6943000    239.25047   -4713.8812   -4252.4666   -4713.8812            0   -704.00608    20.092878    20.250296    21.482836    8741.0806    332.44525   -2179.1174   -265.34609    394.89969   -410.12316    4.7073028    -4342.213 
 6944000    244.88758   -4702.8881   -4230.6018   -4702.8881            0    355.39105    20.231101    20.165956     21.45665    8753.8732    646.08866     3.873442    416.21104    202.82602    958.79051    -1549.985   -4185.2303 
 6945000    245.83589   -4737.7301   -4263.6149   -4737.7301            0    1422.3396    20.241592    20.178591    21.107779    8621.4047    2731.0818    299.88772    1236.0494   -202.80127    867.94883   -454.63623    -4084.778 
 6946000    233.27959   -4714.5579   -4264.6586   -4714.5579            0   -160.17346    20.232492     20.22436    21.247031    8694.0556   -1330.0685    680.46681    169.08132    -92.65064   -1394.2709    719.19819   -4284.9676 
 6947000    240.44928    -4728.544   -4264.8173    -4728.544            0    257.83214    20.115502    20.151469    21.194194     8591.213    1666.3341   -1061.4785    168.64078    397.67917    1433.4082   -699.89252   -4232.5125 
 6948000    241.32752   -4700.9394    -4235.519   -4700.9394            0    497.22211    20.500827    20.118224    20.844864      8597.26   -505.41981   -172.86719    2169.9533   -243.92904   -61.468933     533.7144   -4173.1762 
 6949000    245.81911   -4713.1407   -4239.0578   -4713.1407            0    1264.4627    20.336211    20.068161    21.147786    8630.6303    390.90898    2164.2205    1238.2586   -420.71514    726.50838   -277.51919   -4079.9013 
 6950000    231.48721   -4718.2399   -4271.7973   -4718.2399            0    1146.9943    20.350273    20.048537    21.006392    8570.4654    210.65957    1266.3751    1963.9481   -210.55902    -454.0226    932.09507   -4128.4328 
 6951000    228.80085   -4706.4462   -4265.1845   -4706.4462            0   -85.633791    20.174939    20.195818    21.341377    8695.5312   -1122.1502    397.88862    467.36019   -176.51803   -188.26908   -559.97562   -4276.0442 
 6952000    238.60948   -4713.4295    -4253.251   -4713.4295            0    1359.2605    20.112788    20.248732    21.272008     8663.205    2388.5362    680.03474    1009.2106   -584.36639   -70.594216   -1256.3912   -4081.5167 
 6953000    233.45153   -4732.0952   -4281.8643   -4732.0952            0   -304.82389    20.369346     20.19611    21.117972    8687.5441   -1517.2202    474.92242    127.82615   -557.14357   -1216.7993   -583.22958   -4320.4852 
 6954000    242.89186   -4750.8802   -4282.4428   -4750.8802            0    1470.1176    20.230558    20.254387    20.868563     8551.051    1955.7412    941.69293    1512.9186   -160.38727    229.15478   -344.73822   -4099.1069 
 6955000    230.39616   -4742.2494    -4297.911   -4742.2494            0   -807.06997    20.203046    20.215658    21.316957    8706.2263   -608.66799   -925.95275   -886.58917    4.5729828   -960.78736    -519.5837   -4400.3858 
 6956000    225.60168   -4720.7321   -4285.6403   -4720.7321            0    509.77647    19.973166    20.077126    21.457713    8604.6234    619.55745     1178.295   -268.52301    260.67258   -112.94575   -1451.8124   -4221.6686 
 6957000    235.15912   -4716.3638   -4262.8397   -4716.3638            0   -527.59107    20.231664    20.281613    21.091058    8654.3102   -25.859616   -1334.6446   -222.26903   -738.63538    1372.5398   -918.59873   -4329.4292 
 6958000    244.22506   -4722.5191   -4251.5105   -4722.5191            0    1190.3929    20.153059    20.261094    20.876788    8524.4732    1092.1213    874.99485    1604.0627    502.20045    788.27919    330.69809   -4103.5201 
 6959000    239.26038   -4729.0017   -4267.5679   -4729.0017            0    87.019983    20.244187    20.162788    21.279549      8685.87   -795.46619    1127.2139   -70.687747    179.83828   -393.06686   -330.73185   -4256.5447 
 6960000    251.71534    -4717.784   -4232.3298    -4717.784            0    2318.7977    20.126488    19.860049    21.340294    8529.9938     4118.266    2061.4332    776.69399    83.715268    1458.3258   -977.80674   -3943.8685 
 6961000     246.8886   -4732.6922   -4256.5468   -4732.6922            0   -2313.5621    20.302048    20.222692    21.406796    8788.8181   -2233.7766   -3772.8039   -934.10593   -443.27854   -932.83908   -309.75644   -4553.0897 
 6962000    242.60652   -4726.0473   -4258.1602   -4726.0473            0    438.35992     20.28983    20.109254    21.178209     8640.992    1002.2701    388.07306   -75.263381   -146.79767    271.62601   -171.16083   -4202.9181 
 6963000    249.25146   -4714.5336   -4233.8312   -4714.5336            0    275.79093    20.183728    20.393414    21.044961    8662.4242     12.16588   -44.663515    859.87042   -545.59268   -387.07619   -18.897931   -4198.9898 
 6964000    246.81877   -4724.7577    -4248.747   -4724.7577            0    24.324337    20.284105    20.284251      20.9508    8620.1622   -1219.7737   -1170.4499    2463.1966   -206.88991   -191.30714  -0.36619328    -4245.689 
 6965000    235.56491   -4761.6671   -4307.3604   -4761.6671            0     1019.957    20.271242    20.084477    21.256334    8654.2464    1145.4085    1795.8837    118.57898   -398.33908     97.87518    184.71059   -4178.6282 
 6966000    229.21182   -4714.2866   -4272.2323   -4714.2866            0    16.712859    20.100263    19.936792     21.64581    8674.2284   -190.43347    2632.8523   -2392.2802   -381.45892   -678.21292    559.08641    -4270.118 
 6967000    233.98035    -4743.766   -4292.5152    -4743.766            0    497.76569    20.333519    20.053934    21.256722    8667.7907    1365.6471   -429.90246    557.55246   -46.276317    141.93114   -104.01887   -4229.5922 
 6968000    250.11288   -4723.7173   -4241.3536   -4723.7173            0    2506.0318    20.204077    20.161817    20.916206    8520.2353     1307.425    3543.4947    2667.1757    -148.8094   -613.77749   -651.75591   -3929.9569 
 6969000    246.22728   -4725.8719   -4251.0019   -4725.8719            0    225.03967    20.256072    20.383954    21.172932    8742.2789    440.19123   -367.40805    602.33584    -244.1405    -257.7315      738.408     -4222.31 
 6970000      230.143    -4733.108   -4289.2578    -4733.108            0    1157.3918    20.250428    20.066524    21.136885    8589.0938    1918.6007    688.09207    865.48267   -658.19669    1622.5033   -192.11621   -4144.2793 
 6971000    239.33504    -4726.995   -4265.4173    -4726.995            0     -1669.55     20.06957    20.091323    21.605293    8711.7771    -1160.823    -1084.278   -2763.5491   -180.70696   -48.958139   -527.33804   -4477.5375 
 6972000    239.15054   -4743.5281   -4282.3062   -4743.5281            0     1697.751    20.037209    20.165331    21.242341    8583.1154    1488.1991    3062.1068    542.94726   -689.50675    15.182492    130.24498   -4069.7886 
 6973000    229.30934   -4716.2457   -4274.0033   -4716.2457            0   -314.35739    20.343536    20.252174     21.13255    8706.6281   -1795.0363    645.56911    206.39497   -391.74951    -32.21371   -38.463871   -4313.9196 
 6974000    241.91758   -4726.0293   -4259.4709   -4726.0293            0   -1099.1111    20.448494    20.058202    21.062506    8638.9981   -2138.1552   -180.71441   -978.46364   -348.00357   -405.42589    194.12912   -4397.9489 
 6975000     240.3235   -4742.7042   -4279.2201   -4742.7042            0    522.76323    20.119203    20.154684    21.245322     8614.897    365.78317    758.57117    443.93535   -276.67189    840.09219    622.19148   -4213.5404 
 6976000    252.23138   -4745.4485   -4258.9991   -4745.4485            0    593.07944    20.183502    20.109943    21.382842     8679.062    1598.4986    35.791583    144.94811    73.844557    846.78063    398.02785   -4183.9299 
 6977000    260.28341   -4701.1099   -4199.1314   -4701.1099            0    1474.1822    20.167584    19.967396    21.366688    8604.2398     1737.561    1885.6649    799.32053   -250.85925    492.02121    293.51331   -4014.1451 
 6978000    246.70202   -4712.2188   -4236.4332   -4712.2188            0    894.97658    20.303625    19.987788    21.291418    8640.5798    1115.6586   -106.27461    1675.5458    486.10665    577.00057    67.861582   -4123.6536 
 6979000    247.97216   -4713.3838   -4235.1486   -4713.3838            0    1356.9652    20.048987    20.203597    21.303817    8629.3591    2102.7469    748.77243    1219.3764   -1185.7699    920.64565    134.96672   -4064.3741 
 6980000    248.16509   -4687.6679   -4209.0607   -4687.6679            0    625.05884    20.182542    20.495479    21.005093    8688.7749   -717.42271   -194.33288    2786.9321   -511.80663    334.51124   -546.27907   -4129.8552 
 6981000     263.4799    -4737.038   -4228.8949    -4737.038            0    590.08245    20.314122    20.202248    21.164909    8685.8868   -817.95728    2371.1538    217.05084    81.573791    -48.61225    383.49028   -4154.1464 
 6982000    247.48105   -4716.2175   -4238.9295   -4716.2175            0    1247.9555    20.282482    19.864315    21.171832    8530.0802    681.29932    3239.6753   -177.10821     397.9182   -137.86918   -394.94421   -4083.6807 
 6983000    240.74719   -4722.7811   -4258.4799   -4722.7811            0   -268.54296    20.154492    20.178169    21.402941    8704.1636    1096.2564   -960.14759   -941.73769    13.463091   -730.06574   -462.76509   -4292.5691 
 6984000    240.57009   -4703.2158   -4239.2562   -4703.2158            0    731.58264    20.112051     20.12636    21.433739         8676    1596.7772   -326.81837    924.78908   -473.15592   -175.54553   -42.865412   -4146.6886 
 6985000    237.86879    -4741.236   -4282.4861    -4741.236            0   -329.91812    20.361042    20.166492    21.168491    8692.0111   -1479.4683    216.42997    273.28398    314.95822    954.90159   -295.84511   -4324.3078 
 6986000    234.65568   -4727.7709   -4275.2177   -4727.7709            0     613.4137    20.137805     20.23594    21.028263    8569.1732    4.4193365    417.76925    1418.0525    440.79384    317.74279    602.87478   -4198.5578 
 6987000    239.29784    -4723.842    -4262.336    -4723.842            0   -1053.0083    20.222466    20.191127    21.486886    8773.4042   -565.00299   -1140.7057   -1453.3161   -393.31323   -166.12453   -272.72351   -4397.0696 
 6988000    245.04589   -4713.1609   -4240.5693   -4713.1609            0   -382.36755    20.137943    20.151867    21.466084    8711.3053   -1857.4109    829.59925   -119.29104    226.20579    459.37135   -441.36752   -4289.1474 
 6989000    241.96274   -4730.5419   -4263.8964   -4730.5419            0    318.20741    20.158563    20.278196    21.070542    8613.2012    1572.9171   -322.48839   -295.80644   -635.30812   -156.16781   -1248.7104   -4223.9248 
 6990000    243.08833   -4711.8802   -4243.0639   -4711.8802            0    284.24495    20.320809    20.131865     21.15824    8655.7468    421.45479   -216.27726    647.55731   -625.62045   -475.69606    1250.3057   -4207.1822 
 6991000    246.58464   -4756.4256   -4280.8664   -4756.4256            0    511.57171    20.043721    20.108712    21.441112    8641.9132    2423.3368    205.39932    -1094.021   -442.49772    679.17211    63.299923   -4216.3912 
 6992000    239.99572   -4715.0246   -4252.1726   -4715.0246            0    296.37435    20.067152    20.257092    21.595766    8778.7251   -665.18804     1878.929   -324.61791   -680.69993    938.05199   -1012.1038   -4214.2282 
 6993000     237.5977   -4700.3809   -4242.1537   -4700.3809            0    642.99779    20.022991    20.140232    21.278154    8580.7923    2403.5493   -7.8936559   -466.66226   -184.13082    466.68742   -1271.0625   -4161.6876 
 6994000    249.47753    -4730.227   -4249.0886    -4730.227            0    24.097593    20.363393    20.189015    21.180679     8707.734    591.99028   -363.46198   -156.23552    196.22618   -19.042115    768.58325   -4246.0283 
 6995000    250.70666   -4705.8638   -4222.3549   -4705.8638            0    300.28876    20.175459     20.30196    21.203564    8685.0088    1303.5139    595.07495   -997.72262    45.842413    1217.1852    65.178799   -4184.3197 
 6996000    251.01612   -4730.3797   -4246.2741   -4730.3797            0    531.54646    20.121151    20.071841    21.322992    8611.6858    1415.1271   -210.46227    389.97455     243.0077   -121.97764   -43.325222   -4179.5157 
 6997000    237.71383   -4714.5591    -4256.108   -4714.5591            0   -489.42713    20.367712    20.181935    21.563239    8863.7811   -1546.3414    808.65201   -730.59205    278.33922    1542.1982    662.09642   -4319.3758 
 6998000    243.68398   -4702.3033   -4232.3383   -4702.3033            0   -955.23984    20.160277    20.214234    21.326623     8691.123   -987.32372   -453.72906   -1424.6667    215.34359   -898.04058   -236.33699    -4353.416 
 6999000    242.62528   -4750.8786   -4282.9554   -4750.8786            0   -1301.5306    20.315923     20.11749    21.435784    8760.9205   -1476.2983   -961.93567   -1466.3577    517.61938    1682.1684    1157.6892   -4449.2507 
 7000000    256.58467   -4711.3875   -4216.5424   -4711.3875            0     1470.414    20.165348    20.014545    21.348755     8616.363    1885.2438    2086.1409    439.85722    178.08178    1586.6153   -105.00404   -4031.7689 
Loop time of 347.78 on 64 procs for 250000 steps with 972 atoms

Performance: 124.216 ns/day, 0.193 hours/ns, 718.845 timesteps/s
195.4% CPU use with 32 MPI tasks x 2 OpenMP threads

MPI task timing breakdown:
Section |  min time  |  avg time  |  max time  |%varavg| %total
---------------------------------------------------------------
Pair    | 26.821     | 33.064     | 42.035     |  71.9 |  9.51
Bond    | 0.81595    | 1.1212     | 1.4051     |  14.1 |  0.32
Kspace  | 150.77     | 159.74     | 169.98     |  36.2 | 45.93
Neigh   | 1.7681     | 2.0534     | 2.4258     |  15.5 |  0.59
Comm    | 62.803     | 71.079     | 76.6       |  43.4 | 20.44
Output  | 0.4637     | 0.46402    | 0.46566    |   0.0 |  0.13
Modify  | 67.55      | 69.825     | 73.182     |  17.4 | 20.08
Other   |            | 10.44      |            |       |  3.00

Nlocal:        30.3750 ave          37 max          23 min
Histogram: 2 1 5 2 1 8 5 5 0 3
Nghost:        2512.59 ave        2547 max        2470 min
Histogram: 2 1 1 3 8 5 1 5 3 3
Neighs:        9155.78 ave       12255 max        6387 min
Histogram: 2 2 3 5 5 7 3 3 0 2

Total # of neighbors = 292985
Ave neighs/atom = 301.42490
Ave special neighs/atom = 2.0000000
Neighbor list builds = 7254
Dangerous builds = 0

unfix		3
unfix		2
unfix		1

write_data	data.final.${pid}
write_data	data.final.0
System init for write_data ...
PPPM initialization ...
  extracting TIP4P info from pair style
  using 12-bit tables for long-range coulomb (../kspace.cpp:340)
  G vector (1/distance) = 0.37143463
  grid = 24 24 25
  stencil order = 5
  estimated absolute RMS force accuracy = 0.0035277467
  estimated relative force accuracy = 1.0623704e-05
  using double precision FFTW3
  3d grid and FFT values/proc = 3458 576
Last active /omp style is kspace_style pppm/tip4p/omp
WARNING: Not all mixed pair coeffs generated from mixing. Use write_data with 'pair ij' option to store all pair coeffs. (../write_data.cpp:312)

write_restart   restart.lmp.${pid}
write_restart   restart.lmp.0
System init for write_restart ...
PPPM initialization ...
  extracting TIP4P info from pair style
  using 12-bit tables for long-range coulomb (../kspace.cpp:340)
  G vector (1/distance) = 0.37143463
  grid = 24 24 25
  stencil order = 5
  estimated absolute RMS force accuracy = 0.0035277467
  estimated relative force accuracy = 1.0623704e-05
  using double precision FFTW3
  3d grid and FFT values/proc = 3458 576
Last active /omp style is kspace_style pppm/tip4p/omp
Total wall time: 0:05:47
