#include		in.partitions
include		in.temp
variable        temperature equal 100.55
variable	tempDamp equal 100.0
include		in.pressure
variable        pressure equal 2293.8
variable        pressureDamp equal 1000.0 # This is 1 ps
include		in.seed
variable        seed equal 745823

units		real
atom_style	full
box tilt large
read_restart	restart.lmp.${pid}
read_restart	restart.lmp.0
Reading restart file ...
  restart file = 30 Jul 2021, LAMMPS = 30 Jul 2021
  restoring atom style full from restart
  triclinic box = (-10.614251 -9.1824722 0.080918500) to (12.594251 12.172470 21.779081) with tilt (-9.1174889 1.6318175 3.0669968)
  4 by 4 by 4 MPI processor grid
  restoring pair style lj/cut/tip4p/long/omp from restart
  restoring bond style harmonic/omp from restart
  restoring angle style harmonic/omp from restart
  1296 atoms
  864 bonds
  432 angles
Finding 1-2 1-3 1-4 neighbors ...
  special bond factors lj:    0        0        0       
  special bond factors coul:  0        0        0       
     2 = max # of 1-2 neighbors
     1 = max # of 1-3 neighbors
     1 = max # of 1-4 neighbors
     2 = max # of special neighbors
  special bonds CPU = 0.009 seconds
  read_restart CPU = 0.020 seconds
include 	in.setup
variable	out_freq equal 1000
variable	out_freq2 equal 10000
variable	out_freq3 equal 1000

timestep	2.0

neigh_modify    delay 7 every 1

include		in.tip4p
# This is TIP4P/Ice

# create groups ###
group ox type 2
432 atoms in group ox
group hy type 1
864 atoms in group hy

# set charges - beside manually ###
set group ox charge -1.1794
Setting atom values ...
  432 settings made for charge
set group hy charge 0.5897
Setting atom values ...
  864 settings made for charge

# ### TIP3P Potential Parameters ###
pair_style lj/cut/tip4p/long/omp 2 1 1 1 0.1577 8.5
pair_coeff 1 1*2 0.000 0.000
pair_coeff 2 2 0.21084 3.1668
bond_style  harmonic
bond_coeff  1 450 0.9572
angle_style harmonic
angle_coeff 1 55 104.52
kspace_style pppm/tip4p/omp 1.0e-5
pair_modify tail yes

thermo          ${out_freq}
thermo          1000
thermo_style    custom step temp pe etotal epair emol press lx ly lz vol pxx pyy pzz pxy pxz pyz enthalpy

restart 	${out_freq3} restart.lmp.${pid} restart2.lmp.${pid}
restart 	1000 restart.lmp.${pid} restart2.lmp.${pid}
restart 	1000 restart.lmp.0 restart2.lmp.${pid}
restart 	1000 restart.lmp.0 restart2.lmp.0


include         in.dump
dump            myDump all atom ${out_freq2} dump.water.${pid}
dump            myDump all atom 10000 dump.water.${pid}
dump            myDump all atom 10000 dump.water.0
dump            myDump2 all dcd ${out_freq2} dump.dcd
dump            myDump2 all dcd 10000 dump.dcd
dump_modify     myDump append yes
dump_modify     myDump2 append yes


variable natoms 	equal  "count(all)"                        # NUMBER ATOMS
variable H      	equal  "enthalpy/v_natoms"                 # ENTHALPY-per-atom
variable Vol      	equal  "vol/v_natoms"                 # volume-per-atom
fix AVG all 		ave/time ${out_freq} 1 ${out_freq} v_Vol v_H file vol_enthalpy.dat
fix AVG all 		ave/time 1000 1 ${out_freq} v_Vol v_H file vol_enthalpy.dat
fix AVG all 		ave/time 1000 1 1000 v_Vol v_H file vol_enthalpy.dat


timer           timeout 10:00:00 every 1000
New timer settings: style=normal  mode=nosync  timeout=10:00:00

fix 		1 all shake 1e-6 200 0 b 1 a 1
       0 = # of size 2 clusters
       0 = # of size 3 clusters
       0 = # of size 4 clusters
     432 = # of frozen angles
  find clusters CPU = 0.001 seconds
fix             2 all nph tri ${pressure} ${pressure} ${pressureDamp}
fix             2 all nph tri 2293.8 ${pressure} ${pressureDamp}
fix             2 all nph tri 2293.8 2293.8 ${pressureDamp}
fix             2 all nph tri 2293.8 2293.8 1000
fix             3 all temp/csvr ${temperature} ${temperature} ${tempDamp} ${seed}
fix             3 all temp/csvr 100.55 ${temperature} ${tempDamp} ${seed}
fix             3 all temp/csvr 100.55 100.55 ${tempDamp} ${seed}
fix             3 all temp/csvr 100.55 100.55 100 ${seed}
fix             3 all temp/csvr 100.55 100.55 100 745823


run             250000
PPPM initialization ...
  extracting TIP4P info from pair style
  using 12-bit tables for long-range coulomb (../kspace.cpp:340)
  G vector (1/distance) = 0.36683981
  grid = 30 40 32
  stencil order = 5
  estimated absolute RMS force accuracy = 0.0046594262
  estimated relative force accuracy = 1.4031724e-05
  using double precision FFTW3
  3d grid and FFT values/proc = 5168 640
Last active /omp style is kspace_style pppm/tip4p/omp
Neighbor list info ...
  update every 1 steps, delay 7 steps, check yes
  max neighbors/atom: 2000, page size: 100000
  master list distance cutoff = 10.8154
  ghost atom cutoff = 10.8154
  binsize = 5.4077, bins = 7 5 5
  1 neighbor lists, perpetual/occasional/extra = 1 0 0
  (1) pair lj/cut/tip4p/long/omp, perpetual
      attributes: half, newton on, omp
      pair build: half/bin/newton/tri/omp
      stencil: half/bin/3d/tri
      bin: standard
Per MPI rank memory allocation (min/avg/max) = 9.436 | 9.441 | 9.446 Mbytes
Step Temp PotEng TotEng E_pair E_mol Press Lx Ly Lz Volume Pxx Pyy Pzz Pxy Pxz Pyz Enthalpy 
 1250000    104.37374   -6747.2354   -6478.7403   -6747.2354            0    2773.1044    23.208502    21.354942    21.698162    10753.961    2196.8824    3032.0309    3090.3998   -489.02557    948.90936   -394.84281   -6043.8191 
 1251000    100.68221   -6757.1148   -6498.1159   -6757.1148            0    3692.3362    23.196412    21.309939    21.622698    10688.405    3513.2394     4367.405    3196.3643    254.15534   -23.684288   -1023.5096   -5922.5567 
 1252000    102.87346   -6761.8747    -6497.239   -6761.8747            0    2645.9234    23.262083    21.308644    21.662761    10737.872    2637.7053    3455.1355    1844.9293   -106.57369   -372.43869   -629.69069   -6082.8852 
 1253000    99.161324   -6753.6753   -6498.5888   -6753.6753            0    2403.3213    23.172145    21.375267    21.687271    10741.939    2449.4156    2094.5874     2665.961    319.72606   -6.6825916    358.80868   -6122.0841 
 1254000    95.495725   -6759.2572   -6513.6002   -6759.2572            0    1915.6812    23.182515    21.348036    21.795066    10786.404    1764.8304    2260.3127    1721.9006    606.99707    -334.2504     945.6163    -6212.247 
 1255000    97.287143   -6749.7889   -6499.5236   -6749.7889            0    2275.9847    23.317481    21.316445    21.635366    10753.768     1686.724    2895.1195    2246.1105    129.56311    351.43231   -402.20011   -6142.5748 
 1256000    104.25726   -6759.3272   -6491.1317   -6759.3272            0     1783.535    23.244507    21.433662    21.615298    10769.064     1570.502      1232.74     2547.363   -243.38237    647.18487    465.22091   -6211.0173 
 1257000    97.266817   -6755.5744   -6505.3614   -6755.5744            0    1939.4744    23.186949    21.442905    21.716302    10797.249    2133.3079    2139.1756    1545.9397    237.83573    466.59977   -292.93743   -6199.9586 
 1258000    103.91027   -6762.3759   -6495.0731   -6762.3759            0    1555.7737    23.243505    21.349046    21.733204    10784.595    1831.7602    1561.8273    1273.7336   -522.56691   -580.27593     246.2888   -6250.3775 
 1259000     103.2472    -6748.349   -6482.7519    -6748.349            0    2221.5714    23.313093    21.346049    21.639819    10768.892    2324.5878    2071.5632    2268.5633    842.18626   -337.35988   -227.03335   -6133.8469 
 1260000    99.617178   -6753.0771    -6496.818   -6753.0771            0    2526.4373    23.215745    21.415357    21.603624    10740.749    2405.3383    2085.6392    3088.3344     228.0441    657.05305    164.27182   -6101.0697 
 1261000    102.28351   -6759.6378   -6496.5197   -6759.6378            0    2774.7621     23.17528    21.328871    21.695791    10724.285    2668.8028    2856.1726    2799.3109   -139.96683    324.17666   -561.16908   -6062.5394 
 1262000    101.91971   -6744.8639   -6482.6817   -6744.8639            0     1547.387    23.299882    21.305965    21.750337    10797.443    2010.0774    1168.0945    1463.9893   -292.20331   -615.50623    247.21825   -6239.0152 
 1263000    102.85119   -6754.4623   -6489.8839   -6754.4623            0    2172.9051    23.214078    21.420419    21.626645    10753.964    2726.1124    1305.2569     2487.346    661.81368   -212.25704    506.87254   -6149.0952 
 1264000    97.920152     -6762.41   -6510.5163     -6762.41            0    1755.7591    23.302388    21.447827    21.541037      10765.9    806.04835    1981.2986    2479.9302    106.38103    278.68843    98.984351   -6234.8453 
 1265000    103.12773   -6762.8777   -6497.5879   -6762.8777            0    2205.8418    23.308917    21.280737    21.687099    10757.472    2071.2669    1800.2685      2745.99    178.29937    889.53456    432.38391   -6151.5207 
 1266000    96.278995   -6746.2952   -6498.6233   -6746.2952            0    3166.8664    23.197574    21.266094    21.745709    10727.632    3275.8773    3874.6086    2350.1132    431.65357   -140.55205   -843.80571   -6003.1623 
 1267000    100.38488   -6754.5853   -6496.3513   -6754.5853            0     3081.328    23.217044    21.469508    21.507936    10720.814    2068.3236    2580.0934    4595.5669    501.35349    620.94404    475.64439   -6014.5793 
 1268000    97.250686   -6761.4923   -6511.3208   -6761.4923            0    2547.2981    23.237458    21.373687    21.608484    10732.289    2816.2941     2306.639    2518.9611    -363.4248   -209.14469   -397.75489   -6112.6192 
 1269000    100.81188   -6759.4246   -6500.0922   -6759.4246            0    3538.2251    23.197405    21.181147    21.778122    10700.629    3721.6381    5137.2156    1755.8216   -23.070417   -589.87857   -755.73808    -5947.925 
 1270000    99.378075   -6760.8152   -6505.1712   -6760.8152            0    2882.8322     23.23299    21.379508    21.608102    10732.958    2614.8287    2506.7984    3526.8694     11.71916    269.20107    713.75619   -6053.9238 
 1271000    98.041559   -6762.8342   -6510.6282   -6762.8342            0    3090.8348    23.126472    21.499004    21.534743    10706.991    4259.1371     2191.277    2822.0902   -100.92968    321.38341   -435.10048   -6027.9929 
 1272000    101.07789   -6754.5175   -6494.5008   -6754.5175            0    2497.0586    23.289669    21.282125    21.678058    10744.808       2241.9     3171.948    2077.3279    390.07549    602.42782   -254.87727   -6103.2067 
 1273000     100.7819   -6764.3953     -6505.14   -6764.3953            0    1877.7243    23.275955    21.311171    21.733075    10780.428    1817.2844    1911.4267    1904.4618   -201.72978    62.437731   -477.72706   -6209.9214 
 1274000    106.86867   -6745.7475   -6470.8344   -6745.7475            0    2348.4575    23.178707    21.494844    21.593344    10758.294    2823.8939    1506.1305    2715.3481    82.979732    197.69597   -772.84121   -6102.3645 
 1275000    104.78179   -6750.2025   -6480.6578   -6750.2025            0    2421.8517    23.223498    21.361901    21.669698    10750.295     2584.562    1353.5146    3327.4786    616.90032   -1381.2373    494.17986   -6100.9549 
 1276000     102.3988   -6747.0904   -6483.6757   -6747.0904            0     1482.961    23.340701    21.312935    21.725843    10807.713    363.11028    2666.2338     1419.539   -400.34286    863.91025   -142.76701   -6249.9323 
 1277000     102.6759   -6759.5661   -6495.4386   -6759.5661            0    1569.3679    23.225424    21.457426    21.662655    10795.753    2283.4086    705.75269    1718.9425    110.90659   -165.19982     376.3857   -6248.3495 
 1278000    98.601953   -6768.0861   -6514.4386   -6768.0861            0    2168.5272    23.176139    21.419969    21.637152    10741.378    2188.9766    2091.6796    2224.9254   -553.31392    46.628458    312.86674   -6174.7345 
 1279000    98.739278   -6762.6988    -6508.698   -6762.6988            0    1703.3693    23.345392    21.338443    21.640238    10780.178     122.9787    1786.8108    3200.3183   -715.79213    1130.8905    930.87582    -6240.898 
 1280000    108.18071   -6761.9141   -6483.6258   -6761.9141            0    2708.3607     23.21783    21.339493    21.657867    10730.536    3624.2156     2449.448    2051.4185   -82.474874   -656.66347    174.65964    -6059.784 
 1281000    104.01226   -6755.6717   -6488.1065   -6755.6717            0    2493.7743    23.190618    21.408865    21.680257    10763.919    2726.3929    2231.2993    2523.6306    432.18856    306.52847   -527.17099   -6096.6321 
 1282000    102.50899   -6754.6298   -6490.9317   -6754.6298            0    2490.6207    23.199169    21.431434    21.644536    10761.478    2674.3544    2503.7332    2293.7746    328.11175    853.39095   -818.47636   -6100.0409 
 1283000    96.988808   -6748.1072   -6498.6094   -6748.1072            0    2880.8227    23.294085    21.382016    21.553776    10735.386    2114.8494    3053.4014    3474.2173    159.36738     237.4372    357.30171   -6047.5745 
 1284000    99.357371   -6762.8582   -6507.2674   -6762.8582            0    1920.6526    23.255336    21.368204    21.686565    10776.591    1636.3939    1666.7655    2458.7984    523.78957    265.35167    506.03203    -6205.407 
 1285000    97.597738   -6761.2992   -6510.2349   -6761.2992            0    2999.5523    23.121966    21.296666    21.753102     10711.68    3055.4891    3608.1533    2335.0146    -71.69328   -386.09586    549.21455   -6041.6483 
 1286000    102.68115   -6769.3466   -6505.2056   -6769.3466            0    2428.7281    23.255815    21.377555    21.570011    10723.584    1319.2478    2126.3079    3840.6287    105.77295    125.23631    273.17011   -6125.3708 
 1287000    101.96183   -6760.6943   -6498.4037   -6760.6943            0    1777.6183    23.238601    21.412671    21.676257    10786.117    1462.9498    1560.3736    2309.5314    610.30385    -104.9286    560.05856   -6218.7764 
 1288000    100.05581    -6756.294   -6498.9065    -6756.294            0    2104.3166    23.255033    21.249383    21.790684    10767.978    2057.6721    2405.5647     1849.713   -87.105699   -557.59223   -304.30471   -6168.4448 
 1289000    99.651725   -6755.4133   -6499.0653   -6755.4133            0    2825.8979    23.327787    21.330681    21.609787    10752.977     2195.683    3185.6452    3096.3653    222.81036   -499.41599    187.42525   -6055.9047 
 1290000    104.14662   -6773.9154   -6506.0046   -6773.9154            0    2147.3645    23.245371    21.431501    21.578307     10749.95     2379.481    501.57985    3561.0326   -437.65574   -97.199321    66.786447   -6169.3472 
 1291000    97.116249   -6758.2443   -6508.4187   -6758.2443            0    2327.9079    23.116028    21.409051    21.730493    10754.252    3358.2481     1725.901    1899.5746    434.88302   -664.65511    349.22775   -6143.3102 
 1292000    100.16208   -6758.8611   -6501.2003   -6758.8611            0    2488.7324    23.182655     21.27302    21.815576     10758.68    2861.0111    3222.8159    1382.3701    701.86429   -376.01744   -990.45601   -6110.7074 
 1293000    102.38539   -6755.5062   -6492.1261   -6755.5062            0    2739.2235    23.273601    21.289242    21.659754    10731.917    2376.6731    3162.8075    2678.1898    604.95011   -123.21349    110.90089   -6063.3992 
 1294000    102.78266   -6759.0004   -6494.5982   -6759.0004            0    1887.8857    23.230518    21.522517    21.524739    10761.922    1450.3976    1034.1732    3179.0862    299.33498    429.44923     806.9914   -6198.2916 
 1295000    97.337556   -6779.0023   -6528.6074   -6779.0023            0     863.3196    23.192443    21.413253    21.729116    10791.236    582.16169     1294.815    712.98214    520.74078    32.297097   -175.43326   -6392.7389 
 1296000    99.364481   -6753.6746   -6498.0655   -6753.6746            0    836.55701     23.34877    21.361757    21.685335    10816.011   -329.13211    1397.8874    1440.9158    436.11116    486.84405   -100.68118   -6366.1066 
 1297000    99.832457   -6769.0747   -6512.2618   -6769.0747            0      1831.75    23.192212    21.440367    21.651719    10766.307    2106.6642    984.26345    2404.3224    181.42355     591.0656    52.975126   -6224.6485 
 1298000    102.61751   -6756.0243    -6492.047   -6756.0243            0     1845.709    23.142703    21.433127     21.70005     10763.67    1808.6521    2516.2733    1212.2018   -389.16986    7.2863469   -394.38831    -6202.313 
 1299000    102.71329   -6755.1603   -6490.9366   -6755.1603            0    1723.7113    23.345203    21.305298    21.671053    10778.673    1951.5233    1126.3638    2093.2468   -168.13665   -787.70947    650.72948   -6219.9763 
 1300000    100.26371   -6757.1926   -6499.2704   -6757.1926            0    1703.5377    23.291659    21.365531    21.642165    10769.978    1069.9114    1703.2663    2337.4354    463.79149    655.15131    197.64256   -6231.6973 
 1301000    100.54077   -6746.3973   -6487.7623   -6746.3973            0    1945.9378    23.162427    21.484834    21.632313    10765.124    2679.9646    1271.3575    1886.4915    416.10169   -345.31916    82.743441   -6182.2534 
 1302000    102.03979    -6774.114   -6511.6229    -6774.114            0    943.94786    23.219158    21.421128    21.725494    10805.839    1871.1832    285.85881    674.80161   -826.20351   -260.51843     510.5438   -6362.8642 
 1303000    98.611154   -6763.9587   -6510.2875   -6763.9587            0    1302.8826    23.378502    21.371262    21.625377    10804.646    1003.3431    1259.4744    1645.8303   -455.36029   -320.92884   -6.8999943   -6304.9862 
 1304000    100.32724    -6749.459   -6491.3733    -6749.459            0    2724.6036    23.235867    21.409545    21.567247    10729.045    2744.1584    2548.8176    2880.8347    112.07161   -574.42846   -118.04251   -6065.0488 
 1305000    98.833293   -6749.4906   -6495.2479   -6749.4906            0    2210.6354    23.164106    21.387701    21.734813    10768.013     3403.468    1417.0271    1811.4109    531.01468   -883.70575    -907.1969   -6148.0888 
 1306000    99.445063   -6742.4801   -6486.6638   -6742.4801            0    2542.3943    23.276431    21.275208    21.720626    10756.291    2468.3032    2498.2843    2660.5952     238.6175    5.6049809    150.66095   -6087.8397 
 1307000    101.64293   -6758.3533   -6496.8831   -6758.3533            0    2886.1564    23.311406    21.282793    21.616147    10724.459    2312.1851    3575.3155    2770.9687   -260.70625    822.97142   -326.55732   -6045.4731 
 1308000    103.17617   -6767.7013   -6502.2869   -6767.7013            0    2147.6525    23.200194    21.458088    21.623023    10764.629    2149.2911    1842.5692    2451.0972    -225.2231    111.44653   -88.172285   -6165.1247 
 1309000    100.95011   -6757.9169   -6498.2289   -6757.9169            0    2708.1099    23.207608    21.343357    21.672111    10734.809    2308.1803    2947.4412    2868.7081    127.36462   -6.2406642    498.29142   -6074.2575 
 1310000    98.648171   -6767.8588   -6514.0924   -6767.8588            0    2574.1955    23.273862    21.207764    21.760682     10740.78     3105.079    2099.2959    2518.2116    -351.8887   -515.99863    523.27137   -6110.8621 
 1311000    102.84896   -6764.3283   -6499.7557   -6764.3283            0    2710.1871    23.187092     21.41127    21.612073     10729.64    2241.4906    2474.1753    3414.8953     58.51972    236.95885    780.31298   -6075.6634 
 1312000    102.78356   -6755.3444     -6490.94   -6755.3444            0    2705.6748    23.160599    21.386109     21.65095    10724.043    3380.0619    2247.3554    2489.6071    817.60259   -145.37197    398.82078   -6067.7747 
 1313000    102.94712   -6745.2355   -6480.4104   -6745.2355            0    2152.3526    23.373481    21.187597    21.749006    10770.715     1485.499    3358.8234    1612.7354    412.79523   -189.80263    -483.9626   -6142.3192 
 1314000     99.85862   -6758.8366   -6501.9564   -6758.8366            0    3326.0751    23.187949    21.382033    21.603525    10711.146    4353.1606    3049.7326    2575.3322   -1301.5573   -220.69417   -984.38806   -5982.3866 
 1315000    98.619629   -6771.7144   -6518.0214   -6771.7144            0    2389.7302    23.174371    21.486848    21.567631    10739.476     2953.421    1290.0785    2925.6911    613.06417   -649.39584   -108.14067   -6143.7317 
 1316000    101.31422   -6746.0776    -6485.453   -6746.0776            0    2201.1259     23.31593    21.313736    21.657905    10762.887    1456.0763    2826.3233    2320.9779    185.33128   -176.19817   -479.23157   -6139.9518 
 1317000    99.430691   -6776.0048   -6520.2255   -6776.0048            0    2064.0291    23.292628     21.33032    21.678804     10770.88     2271.963    1980.6735    1939.4508   -166.18782   -170.02767   -245.00773   -6196.0031 
 1318000    102.19948   -6776.0904   -6513.1885   -6776.0904            0    2703.0746    23.204474    21.398423    21.599122     10724.81    2758.9051    2319.4195    3030.8993   -27.919801   -968.18252    307.65097   -6090.3997 
 1319000    95.016933   -6767.1048   -6522.6795   -6767.1048            0    2170.3908    23.184353     21.36875    21.707602    10754.394     2252.613     2164.913    2093.6465   -393.44584    406.43425    646.54978   -6182.2715 
 1320000    97.585064   -6756.0422   -6505.0106   -6756.0422            0    2722.6641    23.247547    21.253804    21.724681    10734.139    2730.6095    2865.0109     2572.372     92.29896   -269.15493   -235.38046   -6078.7873 
 1321000     99.30146   -6753.0469      -6497.6   -6753.0469            0    2251.3704    23.289437    21.286117    21.685118    10750.217    2295.9934    2521.3254    1936.7925    908.34939   -325.10568    542.04318   -6144.6281 
 1322000    104.46041   -6743.6544   -6474.9363   -6743.6544            0    2673.5701    23.134582    21.387542    21.704122    10739.023    3712.3914    2264.2347    2044.0842   -615.76607   -731.74373    660.09937   -6056.2081 
 1323000    99.808681   -6769.2542   -6512.5025   -6769.2542            0    1908.5638    23.188551    21.395428    21.709499    10770.712    1986.8621    1827.4763    1911.3529    199.48915    101.92181    524.08396   -6212.7057 
 1324000    102.90938   -6766.8383   -6502.1102   -6766.8383            0    1988.0724    23.330153    21.255421    21.699171     10760.45    1857.6823    1996.9117    2109.6233    471.04392   -321.79867    779.70127   -6190.1217 
 1325000    104.93304   -6770.8692   -6500.9353   -6770.8692            0    2024.9412    23.287987    21.393681    21.607654    10765.274    2409.7149    1105.4278    2559.6809   -273.19573     725.0589    178.69617   -6183.0186 
 1326000    103.88267   -6770.3869    -6503.155   -6770.3869            0    1907.0242    23.191713    21.421733    21.674447     10768.01    1620.6425    2171.6388    1928.7912    14.099422    776.76263   -292.19129   -6203.6752 
 1327000    99.634823   -6764.4926   -6508.1881   -6764.4926            0    2359.1433    23.245499    21.308275    21.700464    10748.706    2642.9618    2399.4136    2035.0544   -243.01035   -719.37199    797.79916   -6138.3715 
 1328000    104.34185   -6753.3551    -6484.942   -6753.3551            0    1856.2367      23.3248    21.305623    21.674703     10771.23     1976.892     2100.517    1491.3012    50.335456   -383.27277   -304.62017   -6193.3507 
 1329000    100.08168   -6767.1208   -6509.6668   -6767.1208            0    2594.6577     23.17661    21.427846    21.651813    10752.828    2261.0243    2573.0849    2949.8641    445.49491    539.05405   -63.345358   -6102.7753 
 1330000    104.78574   -6756.0997   -6486.5447   -6756.0997            0    2626.0224    23.149266    21.360719    21.708948    10734.749      3729.89    2669.7789    1478.3985   -744.38175   -331.17977   -140.78642    -6075.427 
 1331000    100.15988   -6767.2895   -6509.6344   -6767.2895            0    1556.9257    23.400222    21.290181    21.626891    10774.408    462.20637     2706.679    1501.8918   -1261.1154     106.5224   -25.375185   -6264.9889 
 1332000     105.0555   -6780.6319    -6510.383   -6780.6319            0    1879.4476    23.206648     21.41769    21.662566    10767.006    2150.9836    1859.7662    1627.5928   -420.49152   -410.25585   -112.93961   -6215.2614 
 1333000    102.54283   -6766.9297   -6503.1445   -6766.9297            0    1949.4476    23.169161    21.386812    21.691009    10748.209    1673.0042    2345.2945    1830.0442    400.29896    434.11815   -86.194233   -6197.5654 
 1334000    106.98131   -6754.1987   -6478.9958   -6754.1987            0    1832.2087    23.334746    21.206599    21.765831    10770.835    989.28108    3396.1664    1111.1786    677.48748    730.58455   -182.26879   -6191.1895 
 1335000    98.538807   -6760.6801    -6507.195   -6760.6801            0    1684.3804    23.353243     21.32356    21.645314    10778.809    697.45967    2445.7398    1909.9419   -109.62957     636.4369    1085.1617    -6242.414 
 1336000    103.32562     -6771.73   -6505.9312     -6771.73            0    2444.1096     23.14367    21.456638    21.616905    10734.638    1956.8787    2739.6819    2635.7683    10.075803    -249.4777   -224.50949   -6123.2968 
 1337000    100.16337   -6772.0365   -6514.3723   -6772.0365            0     1588.044    23.294899    21.392265    21.663829     10795.75      1163.67     1676.643     1923.819    309.76283    -765.3317   -294.95131   -6264.3428 
 1338000    102.05846   -6761.8046   -6499.2654   -6761.8046            0    2152.8871    23.304582    21.277373    21.673296    10746.927    2289.9649    2702.3932    1466.3031    637.71603    57.686374   -826.40669   -6161.8372 
 1339000    96.175754   -6767.3069   -6519.9006   -6767.3069            0     2239.196    23.197298    21.436264    21.616932    10749.309    3432.5632    1473.5451    1811.4798   -645.09808   -461.56479   -1060.1929   -6168.8671 
 1340000    97.666115   -6757.0716   -6505.8314   -6757.0716            0    2408.6373    23.217722    21.498093    21.534681     10748.75     1630.268    2093.3615    3502.2824   -574.53493   -151.62852    1101.6251   -6128.2547 
 1341000    100.88711   -6771.4504   -6511.9245   -6771.4504            0    2410.5189    23.256065    21.274823    21.719456    10746.107    2542.3977    3064.4195    1624.7394   -245.63554   -816.06739   -786.99495   -6134.1457 
 1342000    103.35509   -6765.4976   -6499.6229   -6765.4976            0    2075.0654    23.281331    21.348764    21.673164    10772.161    2195.3948    2012.6989    2017.1025   -59.184424    -452.6238   -332.98437   -6173.6282 
 1343000    101.21564   -6757.8581   -6497.4871   -6757.8581            0     3676.857    23.139963    21.443628    21.510548    10673.637    3856.9052     3686.954    3486.7118    701.99365   -766.14131   -1103.1818   -5925.1326 
 1344000    101.14752   -6758.9123   -6498.7165   -6758.9123            0    1740.8986    23.274468    21.400848    21.658333    10787.872    1670.1993    1847.4265    1705.0701   -478.41459    -51.73964    306.31241   -6224.8208 
 1345000    95.840253   -6764.8552    -6518.312   -6764.8552            0    2295.8517    23.255409     21.27248    21.712009    10740.936    1942.8217    3052.1049    1892.6284   -148.40634   -440.62182    135.92144   -6158.6771 
 1346000    105.17166   -6761.7905   -6491.2428   -6761.7905            0    2467.4443     23.21617    21.330636     21.71518    10753.698    2255.4011    3218.4573    1928.4747    495.21513   -339.04868    195.40666   -6104.2695 
 1347000    100.44485   -6756.5593    -6498.171   -6756.5593            0    3197.2643    23.240623    21.359256    21.548805    10696.879    2838.3911    3267.8609    3485.5408    640.44277    198.06906    838.46639   -5999.3882 
 1348000    94.726626   -6761.7935    -6518.115   -6761.7935            0    3432.2443    23.216328    21.269511    21.678615    10704.899    3220.3346    4294.8611    2781.5373   -951.36881     868.1518   -163.97423   -5982.2732 
 1349000    100.17396   -6755.7786   -6498.0872   -6755.7786            0    1695.8956    23.208856    21.349906    21.777113    10790.709    1958.2552    1874.6705    1254.7613   -852.57219    3.5666525    320.50733   -6231.2017 
 1350000      94.9346   -6752.3951   -6508.1816   -6752.3951            0    2258.4505    23.200369    21.410611    21.620888    10739.832    2389.8375    2262.6383    2122.8757   -64.960172    495.39012    10.203328   -6154.4418 
 1351000    101.08041   -6773.4275   -6513.4043   -6773.4275            0    1703.7737    23.289443    21.323121    21.697409    10775.012    1651.4083    1813.7882    1646.1246    13.157007    85.966655   -47.751091    -6245.669 
 1352000    100.51628   -6761.5237   -6502.9517   -6761.5237            0    2189.4343    23.262972    21.353696    21.684403    10771.737    2681.5092    1766.6445    2120.1493    501.99059   -378.94146     36.04982   -6159.0031 
 1353000    104.60842   -6758.4713   -6489.3726   -6758.4713            0    1944.5397    23.220439    21.501634    21.547696    10758.277    2777.4966    208.84579    2847.2768   -198.22671    523.65956    495.24609   -6184.2773 
 1354000    102.09548   -6761.3551   -6498.7207   -6761.3551            0    2193.6281     23.29446    21.316867    21.653087    10752.163    2140.5256    2611.3586    1829.0002   -111.01355    189.73239   -50.778195   -6154.7395 
 1355000    102.54657   -6758.8399   -6495.0451   -6758.8399            0    2519.8795     23.28103     21.27282    21.688826     10741.46    2472.2552    3296.6308    1790.7525   -2.3117505   -665.31592   -916.35097    -6100.298 
 1356000    97.330633   -6760.4884   -6510.1113   -6760.4884            0    2679.4164    23.209495    21.410922     21.60694    10737.281    3239.3541    1676.1229    3122.7722    316.68633    86.121317    326.98953   -6090.5355 
 1357000    104.04558   -6771.8777   -6504.2268   -6771.8777            0    2841.1196    23.163607    21.447502     21.57185    10716.928    3376.1141    2106.9112    3040.3336    178.35658    97.882735   -481.37572   -6060.1729 
 1358000    98.277423   -6757.6528   -6504.8401   -6757.6528            0    2310.3297    23.309118    21.203066    21.734922    10741.937    2279.2195    3588.7567    1063.0129    524.97965    -329.8552   -193.03855   -6142.9036 
 1359000    98.888349   -6763.9168   -6509.5325   -6763.9168            0    2250.1819    23.204867    21.309921    21.722423    10741.605    1477.8652    3152.1994    2120.4812    218.71649    986.80133   -21.111579   -6157.0296 
 1360000    97.767869   -6759.1813   -6507.6794   -6759.1813            0    2418.6621    23.192245    21.447057    21.570488    10729.277    3108.8528    2180.2849    1966.8487   -72.888729   -485.33032    -328.0207   -6129.2181 
 1361000    100.74844   -6758.1719   -6499.0027   -6758.1719            0    2088.5528    23.275479    21.276146    21.709355    10750.744    1359.8202    2408.7769    2497.0613   -352.40812    704.71155    885.70035   -6171.5415 
 1362000    102.24368   -6762.6039   -6499.5882   -6762.6039            0    1749.4302    23.206092    21.284628    21.841148    10788.064    2320.3157    2128.3165    799.65842    509.41604    12.676802   -289.78685   -6224.3454 
 1363000    101.14482   -6760.1018   -6499.9129   -6760.1018            0    1947.0494     23.19467    21.423116    21.658559    10762.184    2169.7483    1871.7123    1799.6875    237.12043    -348.0654   -302.02488    -6194.313 
 1364000     99.93311   -6751.2448    -6494.173   -6751.2448            0    1689.7463    23.345191    21.419176     21.55259    10777.044    1812.4481    605.49256    2651.2983   -158.58161   -64.656573     1055.587    -6228.592 
 1365000    102.06339   -6760.2476   -6497.6957   -6760.2476            0    1823.3083    23.266463    21.322502    21.746709    10788.525    2133.8033     1776.651    1559.4706   -243.24043    225.74255    426.00985   -6210.8171 
 1366000    95.717259   -6767.3698    -6521.143   -6767.3698            0    1786.9961    23.184009    21.476337    21.672474    10790.889    2431.1969    1475.6935     1454.098    13.865194   -527.51351   -925.27481   -6239.9162 
 1367000    95.466619   -6773.9405   -6528.3584   -6773.9405            0     2501.159    23.280053    21.395218    21.534483    10725.934    1505.6188     2755.204    3242.6542    290.71747    518.47309   -285.20363   -6137.1103 
 1368000    100.50517   -6770.3169   -6511.7735   -6770.3169            0     2317.875    23.271388      21.2693    21.726167    10753.717    2380.4495    2566.9735    2006.2021    121.96902   -401.87792    211.36734   -6148.2567 
 1369000    100.77171   -6764.6711    -6505.442   -6764.6711            0    2282.5883    23.170451    21.370506    21.718435    10754.193    3287.5299     1357.906     2202.329    32.241246   -274.73963     327.8549   -6147.4435 
 1370000     101.8538   -6767.2306   -6505.2179   -6767.2306            0    2177.7378    23.266077    21.387721    21.593018    10744.866    2389.4481    1517.7436    2626.0219     205.3696    529.87128    521.80396   -6163.9602 
 1371000    101.38963    -6767.375   -6506.5563    -6767.375            0      2325.85    23.180568    21.291645     21.74713    10733.349    2713.4281    2316.8632    1947.2587    327.50613    379.40289    858.94515   -6142.4797 
 1372000    102.39394   -6748.5424   -6485.1402   -6748.5424            0     2381.022    23.227578    21.314779    21.719088    10752.918    2741.7552    2619.8872    1781.4236    44.186844   -184.50625    332.44648   -6111.7476 
 1373000    98.141855   -6761.2896   -6508.8257   -6761.2896            0    2266.1211     23.27859    21.318575    21.650932    10744.629     1887.899    2628.5021    2281.9622   -103.71375    536.12789    48.917889   -6153.7259 
 1374000    101.78137   -6757.7275   -6495.9011   -6757.7275            0    2511.3792    23.145915     21.41713    21.679419    10746.901     3120.161     1475.073    2938.9036   -6.6769547      251.767    350.73732   -6102.2863 
 1375000    103.39121   -6756.8331   -6490.8655   -6756.8331            0    2605.9828    23.202806    21.363011     21.67202    10742.426    2903.1244    2350.6271     2564.197     444.5802   -435.07524   -208.36308   -6082.5933 
 1376000    101.08249   -6764.0051   -6503.9766   -6764.0051            0    1675.6993    23.343582    21.327281     21.65565    10781.377     1273.361    1964.3661    1789.3708   -808.75898    65.483481   -660.14211   -6240.4974 
 1377000    99.660728   -6760.2728   -6503.9016   -6760.2728            0    3204.0879    23.212631    21.385618    21.583856    10714.581    3154.1752    2907.4116    3550.6768   -280.70236   -1166.7847   -565.49689   -6003.2271 
 1378000    101.82815   -6760.3304   -6498.3837   -6760.3304            0    2322.8366    23.170558    21.471118    21.628806    10760.283    2746.6005    1981.6146    2240.2948    175.90734   -148.52255   -909.58566   -6133.8663 
 1379000    101.62533   -6748.2404   -6486.8154   -6748.2404            0    1366.8106    23.349693    21.293634    21.723097     10800.72    1071.0764    2005.9808    1023.3746     194.6154    331.26824   -715.86742    -6271.519 
 1380000    92.581527   -6758.9323   -6520.7719   -6758.9323            0    2504.7766    23.149333    21.397012    21.701185    10749.173    3027.2598    2358.7689    2128.3012   -140.96881    -654.9533   -16.869066    -6128.109 
 1381000    97.499877   -6769.3728   -6518.5603   -6769.3728            0    1118.2484    23.075909    21.559587    21.715971    10803.849     2431.914   -2.3140788    925.14519   -923.74851   -235.58746    382.27791   -6342.3657 
 1382000     100.1438   -6747.6282   -6490.0143   -6747.6282            0    2134.2554    23.282657    21.345232    21.665591    10767.229    1709.9118     2295.775    2397.0793    178.60144    680.79399      277.629   -6154.8743 
 1383000    100.81799   -6754.9716   -6495.6235   -6754.9716            0    2225.3438    23.394811    21.210347    21.707505    10771.526    2013.4412    3120.3941     1542.196   -63.274904   -619.30321    30.035153   -6146.0405 
 1384000    95.090356   -6762.9001   -6518.2859   -6762.9001            0    2028.5473    23.140601    21.422806    21.704548    10759.739    2095.5297    2108.0594    1882.0528    118.44226    1017.8218    339.92116   -6199.9668 
 1385000    98.493132   -6768.3678   -6515.0002   -6768.3678            0    2510.7617    23.156658    21.440857    21.631571    10740.044    3919.2832    1566.5586    2046.4432   -186.10718   -902.29249    92.263272   -6121.7333 
 1386000    103.31617   -6755.9242   -6490.1496   -6755.9242            0    2535.3961    23.428903    21.229434    21.619001    10752.909     1066.345    3402.4382    3137.4052   -197.94958    147.08444   -319.72968   -6092.5484 
 1387000    96.826926   -6755.5587   -6506.4774   -6755.5587            0    2095.7844    23.234627    21.342447    21.689032     10755.24     2328.693    2168.9656    1789.6944   -49.903219    556.37232   -97.792859   -6177.7449 
 1388000    97.418587   -6764.4457   -6513.8423   -6764.4457            0     1710.695    23.119517     21.45938    21.675157    10753.707    2534.8038     1442.736    1154.5452   -371.84832    200.30615   -664.35871   -6245.5509 
 1389000    100.98305     -6769.76   -6509.9873     -6769.76            0    1472.8275    23.380646    21.297722     21.65704    10784.221    826.10147    2115.4903    1476.8908    812.17372   -390.20157    976.43176   -6278.3457 
 1390000    98.671013   -6757.4903   -6503.6652   -6757.4903            0      1767.55    23.293798    21.248077     21.74744    10763.861    809.74569    2910.3522    1582.5522    416.86498    139.31156   -55.799649   -6226.1954 
 1391000    96.798947   -6760.5418   -6511.5324   -6760.5418            0    1821.5554    23.157026    21.431842    21.709012    10774.133    2385.6609    1107.2919    1971.7133    -251.7958    393.10756    429.80191    -6225.312 
 1392000     97.29563   -6752.6796   -6502.3925   -6752.6796            0     2124.552    23.188125    21.448663    21.628966    10757.259    2367.1738    1902.5247    2103.9577      57.3571    659.54929    819.69314   -6169.0852 
 1393000    100.27944   -6754.4413   -6496.4785   -6754.4413            0    1706.6242    23.388448    21.158869    21.773695    10775.216    1935.3886    2257.3193    927.16488   -36.331838    253.51293    717.83799   -6228.2903 
 1394000    101.69728   -6768.0055   -6506.3955   -6768.0055            0    1908.8208    23.194481    21.356098        21.73    10763.817    1904.1578    2206.2449    1616.0598    358.92455   -494.40022    124.74229   -6206.7503 
 1395000    103.17475   -6750.7059   -6485.2951   -6750.7059            0    2271.6446    23.178182    21.427858    21.656754    10756.017    2924.2858    1702.2602    2188.3877    367.55259    96.883327   -110.16797   -6128.9525 
 1396000    98.801147   -6760.4572   -6506.2973   -6760.4572            0    1887.7677    23.312709    21.341655    21.648371    10770.753    2262.9949    1614.7947    1785.5135    382.17594    -293.8735    225.43998    -6209.766 
 1397000    101.27246   -6772.9934   -6512.4761   -6772.9934            0    2667.5672     23.30548    21.223193    21.687644    10727.071    1437.9352    4112.0432    2452.7233    375.54897    86.952234   -827.01153    -6095.153 
 1398000    96.876138   -6763.9278   -6514.7198   -6763.9278            0    1823.1274    23.206259    21.403003    21.718582    10787.264    2604.1023    1210.9832    1654.2966   -47.690279   -408.98289    -116.9456   -6227.9033 
 1399000    104.13233   -6756.0785   -6488.2044   -6756.0785            0    1486.7905    23.238989     21.44246     21.65871    10792.559    1628.7613    1274.3715    1557.2386   -120.21153   -51.357856   -177.19086    -6254.186 
 1400000    99.018265   -6764.6112   -6509.8928   -6764.6112            0    1677.9467     23.29999    21.364562    21.641078      10772.8     2270.465    1016.8912    1746.4839   -2.4261383   -463.29994    -887.4816   -6246.2702 
 1401000    102.05502   -6757.0594   -6494.5291   -6757.0594            0    1281.5107    23.314073    21.438147    21.606563    10799.188    1182.2568    680.97685    1981.2984   -562.63668   -78.841428   -625.42255   -6292.6975 
 1402000    96.545806   -6765.0821   -6516.7239   -6765.0821            0    1318.3663    23.271566    21.379678    21.720949     10807.01    756.07839    1454.5636     1744.457    329.82807   -620.24338    433.02213   -6308.9373 
 1403000    104.10137   -6757.6707   -6489.8762   -6757.6707            0    1625.8125    23.266963    21.381435    21.657813    10774.352    1829.8407    1403.5402    1644.0567   -594.46805   -117.20403   -455.60719   -6234.4076 
 1404000    95.305712   -6745.7507   -6500.5825   -6745.7507            0    2370.9138    23.233558    21.428354    21.583185    10745.338    2185.7312    1596.6654    3330.3447   -132.12446    499.53106   -422.01927   -6129.0373 
 1405000    100.02685   -6770.0484   -6512.7354   -6770.0484            0    2235.4138     23.21759    21.305696    21.751708     10759.85    2673.2505    2762.1883    1270.8025     682.2423    374.00055   -71.646679   -6161.9512 
 1406000    95.950946   -6771.5338   -6524.7059   -6771.5338            0    1943.8341    23.199013    21.369929    21.722325    10769.088    2472.8789    2227.7806    1130.8427    -136.2739    -564.2209    315.18109   -6219.4149 
 1407000    99.718053   -6764.6898   -6508.1712   -6764.6898            0    2974.2127    23.200675    21.370951    21.579777    10699.696    2148.9671    3346.0267    3427.6444   -299.79894    747.58711    551.49929   -6044.0629 
 1408000    100.69904   -6770.4548   -6511.4126   -6770.4548            0    1618.9437    23.307082    21.390266    21.588114    10762.639    1301.4446    1280.5432    2274.8432    33.646926    436.84965    349.69656   -6257.2999 
 1409000    101.60365   -6762.9962    -6501.627   -6762.9962            0    2535.4501     23.19772    21.266094    21.777869    10743.565    3203.2935    3179.0636    1223.9931   -364.57344   -55.905486   -1110.3971   -6104.3629 
 1410000    99.790044   -6763.2981   -6506.5943   -6763.2981            0     2252.239    23.207154    21.371816    21.679434    10752.544    2213.5946    2297.6566    2245.4658    -632.3311    37.305395   -418.55674   -6153.4098 
 1411000    96.009941    -6761.181   -6514.2013    -6761.181            0    1640.2291    23.250419    21.536657    21.498313    10764.985    1651.3795    499.95791      2769.35   -760.92742    395.27126    698.08697   -6256.6915 
 1412000    98.442856    -6753.808   -6500.5697    -6753.808            0    3012.7019    23.267729    21.288061    21.662186    10729.818    2801.8319    3457.8559    2778.4179    -478.9676    404.05632    235.44302   -6029.1319 
 1413000    97.737184   -6754.0625   -6502.6395   -6754.0625            0    2046.6297    23.277031    21.243712    21.785403    10772.676    1749.2635    2616.5017    1774.1239     549.4656    262.32528    6.8248897   -6181.0968 
 1414000    97.259758   -6763.1876   -6512.9928   -6763.1876            0    2867.9743    23.031558    21.481635    21.683561    10728.062    4174.7382    1689.8244    2739.3604   -202.10379    -83.73511   -215.72731   -6064.2759 
 1415000    99.530509   -6758.2617   -6502.2255   -6758.2617            0    2784.1511    23.274522    21.381224    21.569576    10733.836    2336.6605    3054.8884    2960.9044   -136.34782   -6.5364981   -7.4682989    -6066.389 
 1416000    106.01097   -6761.5866   -6488.8798   -6761.5866            0    2487.9065    23.357047    21.214631    21.667925    10736.698    2255.5883    3621.0187    1587.1127   -353.35604   -435.23844   -433.53634   -6099.3142 
 1417000    96.869559   -6755.1399   -6505.9488   -6755.1399            0    2869.3004    23.141021    21.417982    21.681158    10745.918    3406.2858    2878.8594     2322.756   -63.256344    -246.2088   -750.42465   -6056.2772 
 1418000    104.11853   -6759.6123   -6491.7737   -6759.6123            0    1791.4601    23.129324     21.48062    21.714846    10788.635     2477.453    1183.4984    1713.4288    1015.8183   -125.05086   -333.60322   -6209.9033 
 1419000    104.40273   -6748.7194   -6480.1498   -6748.7194            0    2992.7281    23.340084    21.252874    21.634589    10731.706    2508.0129    3107.0591    3363.1123   -818.85247   -615.86089    151.43042   -6011.7551 
 1420000    99.098178   -6759.1169   -6504.1929   -6759.1169            0    2929.2646    23.244584    21.314471    21.634695    10718.823    3239.0837    3263.0271    2285.6829   -599.82908    -527.1137   -481.51627   -6046.2813 
 1421000    101.54721    -6763.531   -6502.3069    -6763.531            0    2346.2215     23.06818    21.514142    21.659157    10749.269    3247.0613    1943.0091     1848.594    618.18296   -219.51954   -301.97458   -6134.4967 
 1422000    103.58744   -6766.6554   -6500.1831   -6766.6554            0    1901.2671    23.350459    21.254599    21.693033    10766.353    1355.1977    2969.3102    1379.2933   -34.558237    86.058119    182.54637   -6201.6533 
 1423000    99.086414   -6763.2261   -6508.3323   -6763.2261            0    2176.1092    23.254886    21.322026    21.687007    10753.313    1715.7604     3168.652    1643.9151   -142.87021    312.28445   -328.52774   -6167.0618 
 1424000    100.15215   -6768.2813    -6510.646   -6768.2813            0    2429.8282    23.096631    21.543854     21.55432    10725.224    2478.8007    3114.8668    1695.8172   -385.15616     420.6122   -338.17506   -6130.5811 
 1425000    101.88272   -6762.1186   -6500.0315   -6762.1186            0    2169.1765    23.266105    21.355538    21.658423    10761.208    1565.3429    2309.3717     2632.815    314.88185    679.00349   -147.08055   -6159.5984 
 1426000    99.026524   -6766.3442   -6511.6045   -6766.3442            0    2344.3287    23.331445    21.210301    21.739753    10758.286    1743.1203    2553.0362    2736.8296   -43.274521    -221.8591   -274.24006   -6143.7827 
 1427000    103.77112   -6750.2059   -6483.2611   -6750.2059            0     2599.677    23.191388    21.492726    21.560932    10746.963    2878.2292     2405.807    2514.9948   -56.113418   -921.75167    745.40929   -6075.8048 
 1428000    100.59265    -6753.838   -6495.0696    -6753.838            0    3055.3659    23.085789    21.483709     21.64222    10733.857    4423.4052    2086.1477    2656.5446   -629.93098    117.25114   -280.99646   -6016.7756 
 1429000    99.689129     -6758.59   -6502.1458     -6758.59            0    2170.0448    23.333081    21.258197     21.66481    10746.163    2212.2993    1907.1618    2390.6732   -142.02271   -5.7378788    2.0117875   -6162.0526 
 1430000    98.301553   -6753.8264   -6500.9517   -6753.8264            0    1979.3963     23.26599    21.342494     21.67364    10762.138    932.00604    3052.1381    1954.0447    344.84355    809.87089    363.73801    -6190.276 
 1431000    99.678181   -6763.7971   -6507.3811   -6763.7971            0     1778.592     23.11443    21.433491    21.707496    10754.392    1987.7445    1953.2949    1394.7366   -182.41953    251.56439    256.85878   -6228.4236 
 1432000    104.15268   -6761.6262   -6493.6998   -6761.6262            0     2081.938    23.223722    21.366711    21.678673    10757.273     2396.916    2094.7887    1754.1094    165.31505    471.01235   -343.55258   -6167.0774 
 1433000    98.561169   -6762.9288   -6509.3862   -6762.9288            0    2333.1824    23.290713    21.247309    21.693224    10735.217    2419.2639    2296.6227    2283.6605    616.01546    26.259978   -726.40607   -6144.0982 
 1434000    100.97791   -6770.8471   -6511.0875   -6770.8471            0    2404.5276    23.204996    21.355232    21.705667    10756.201    2278.3924    3300.7115    1634.4789    523.11903    13.653777    -525.7447   -6133.8937 
 1435000    98.858419   -6747.4139   -6493.1066   -6747.4139            0    2543.2228    23.283793    21.489493    21.479311    10747.322    3181.4983     860.4847    3587.6854   -1381.5589   -445.41712   -263.12542   -6094.4853 
 1436000    102.51901   -6754.7562   -6491.0323   -6754.7562            0    2655.7597     23.19556    21.377125    21.700873    10760.473    2747.9499    3189.1412     2030.188   -760.13499   -398.47912   -221.13898   -6074.2627 
 1437000    96.751126   -6765.7549   -6516.8686   -6765.7549            0    2922.2222    23.297168    21.324479    21.588928    10725.379    2323.2425    3425.3185    3018.1057   -204.07555    247.78057   -618.83797   -6059.7785 
 1438000    100.09832   -6747.9409   -6490.4441   -6747.9409            0    1815.5302    23.325787    21.430668    21.574633    10784.883    1327.8423    2019.4605    2099.2878    484.90283   -165.02207   -1087.8942   -6204.8857 
 1439000    96.432877   -6769.9583   -6521.8906   -6769.9583            0    2165.6661    23.200425     21.38454    21.682154    10757.176    2213.5848         2117    2166.4135    583.90548   -539.88709   -404.18224   -6182.1358 
 1440000    106.36035   -6754.1472   -6480.5416   -6754.1472            0    1728.1707    23.265603    21.360681    21.694588     10781.54     1904.221    912.97677    2367.3143   -884.53629    72.440904     150.9579   -6208.8081 
 1441000    103.21306   -6755.6096   -6490.1003   -6755.6096            0     2273.411    23.327938    21.302404    21.628174     10747.93    1227.7806    3164.8512    2427.6011     653.4573    621.48494    859.41928   -6133.7488 
 1442000    99.037378   -6750.6166    -6495.849   -6750.6166            0    2562.5189    23.197175    21.339498    21.695383    10739.563    2621.6436    2852.4679    2213.4452    1119.6624    938.94686    1.4237892   -6094.4932 
 1443000    96.487245   -6756.6943   -6508.4867   -6756.6943            0    2436.9754    23.120885    21.387775    21.737275    10749.176    2492.3721    1634.4489     3184.105    755.47753    248.33274    417.39021   -6126.4526 
 1444000    98.749649   -6756.0888   -6502.0613   -6756.0888            0    2539.9485    23.220388    21.373181    21.613388    10726.585    2632.3468    2269.0567     2718.442   -46.284692   -334.01424    155.75545   -6104.7213 
 1445000    98.424815   -6744.8502   -6491.6583   -6744.8502            0    2203.5777    23.342722    21.282962    21.660088    10760.781    2017.9463    2193.9709    2398.8159   -742.93207   -99.046262    312.47179     -6145.84 
 1446000    99.419215   -6763.0286   -6507.2788   -6763.0286            0    2692.1807    23.197055    21.338898     21.71048    10746.679    2921.8556     2789.901    2364.7854   -204.54998     139.3834   -441.05981   -6085.3352 
 1447000    98.488611   -6749.9027   -6496.5468   -6749.9027            0    2786.2144    23.179945     21.41523     21.60355    10724.086    2930.0054    2063.1251    3365.5126    1287.1581   -394.03096   -131.12491   -6060.7835 
 1448000    104.48414    -6764.356   -6495.5769    -6764.356            0    2285.8038    23.326577    21.339083    21.630099    10766.766    751.77654     2957.873     3147.762    442.77601    585.58546     116.6724   -6136.6548 
 1449000    102.26871   -6757.4007   -6494.3206   -6757.4007            0    2379.0278    23.294954    21.309539    21.670939    10757.556    2287.7513    2475.3737    2373.9583   -291.78114   -503.22613   -303.92959   -6121.0799 
 1450000    100.02487   -6766.3382   -6509.0303   -6766.3382            0    2596.6271    23.176804    21.462593    21.607182    10748.154    2443.9704    2544.7115    2801.1995    550.78668   -467.61425   -475.89601    -6102.007 
 1451000    106.13253   -6771.7744   -6498.7549   -6771.7744            0    2469.2588    23.185857    21.438921    21.584241    10729.089    1935.4213    2698.8318    2773.5232    519.98364    319.47392   -19.771424   -6112.3832 
 1452000    101.07422   -6761.9462   -6501.9389   -6761.9462            0     2850.774    23.222462    21.297162    21.684021    10724.322    3083.9073    3019.7845      2448.63    66.479881    -134.3566    419.69466   -6056.0687 
 1453000    96.091256    -6768.626   -6521.4371    -6768.626            0    3118.6084    23.268003    21.212559    21.712644    10716.794    3385.2104    3604.3676    2366.2473   -275.68329   -60.982157    12.820234   -6034.0191 
 1454000    98.438168   -6759.8054   -6506.5792   -6759.8054            0    2643.1249    23.158711    21.402901    21.640411    10726.364    3148.1058    2205.3113    2575.9575    154.92014   -986.92169   -237.29925   -6093.1073 
 1455000    99.761771    -6764.829    -6508.198    -6764.829            0    2571.7264    23.210576    21.403386    21.605405     10733.24    2050.1253    2891.2513    2773.8028   -29.234431    457.66955   -255.98239   -6105.6372 
 1456000    97.013988   -6762.4172   -6512.8546   -6762.4172            0    2564.9593    23.239983    21.279889    21.723002    10742.986    2896.4534    2518.3128    2280.1117   -334.76916    764.17484   -296.57303   -6110.9885 
 1457000    99.282549   -6768.3094   -6512.9111   -6768.3094            0    1431.6328    23.307115    21.314553    21.706612    10783.426    1265.5479    1908.1383    1121.2123    548.03564    583.71198   -548.87301   -6287.7651 
 1458000    103.71116   -6766.6539   -6499.8632   -6766.6539            0    2570.7995    23.135421    21.479283    21.593372    10730.443    2781.2123    1935.7095    2995.4767   -221.47732    232.15953    1.4377363   -6097.5523 
 1459000    102.57007   -6758.5616   -6494.7064   -6758.5616            0    1955.4491    23.154736     21.48046    21.642738    10764.543    2686.1042    773.07398     2407.169   -418.42926    -595.0336   -284.80064   -6187.7208 
 1460000    101.40718    -6766.625   -6505.7611    -6766.625            0    2383.5735    23.220042    21.305912    21.725401    10748.081    3327.6699    2320.9106    1502.1401   -163.00252   -603.10342   -972.17873   -6132.1366 
 1461000    96.702813     -6744.16   -6495.3979     -6744.16            0    2951.4301    23.313074    21.251977    21.663738    10733.276    1794.3385    3386.4796    3673.4722    1285.7127    262.02983     363.5453   -6033.3993 
 1462000    97.771256   -6761.5158   -6510.0052   -6761.5158            0    2041.1171      23.1875    21.416319    21.645487    10748.952    2854.4604    1176.8447    2092.0462     339.3662   -349.64049    318.76923   -6190.0347 
 1463000    95.388736   -6750.9883   -6505.6066   -6750.9883            0    2483.1792    23.144621    21.413876    21.678595    10744.259    2732.7317    2821.3079    1895.4979    773.21618   -133.88453    295.17712   -6116.5073 
 1464000    101.59187   -6761.5755   -6500.2366   -6761.5755            0    2537.9136    23.217461    21.344206    21.658985    10733.289    2552.8354    2475.3265    2585.5788   -409.81522   -346.01525     233.6818   -6102.9668 
 1465000    101.45519   -6779.4459   -6518.4586   -6779.4459            0    2188.3298    23.282378     21.31381    21.655954    10746.468    2358.7488    2068.8575    2137.3832   -650.31718    430.66024    470.90012     -6175.49 
 1466000     94.40453    -6747.563   -6504.7131    -6747.563            0     2859.196    23.202791    21.347636     21.66733    10732.365    2705.2137    2507.3387    3365.0356    970.33214     75.68528   -183.84525   -6057.1903 
 1467000     100.8077   -6764.6844   -6505.3627   -6764.6844            0    2158.1525    23.185679    21.388989    21.689097    10756.019    2631.7092    2572.6715    1270.0767    52.121078   -168.58583   -331.96487   -6166.8231 
 1468000    103.49269   -6759.5644   -6493.3358   -6759.5644            0    2483.2219    23.242256    21.341349    21.657903    10742.777    2573.3461    2408.9362    2467.3832   -34.654527    527.34093    89.475318   -6104.2835 
 1469000    99.025825   -6759.9471   -6505.2092   -6759.9471            0     1763.068    23.308637    21.394076     21.63085    10786.585    1832.6244    1438.7116     2017.868    349.88923   -956.16398    300.52558   -6227.8587 
 1470000    97.412227   -6771.6642   -6521.0771   -6771.6642            0    1851.3513    23.197895     21.35675    21.732775    10767.104    2297.1971    1389.5709    1867.2859    218.88708    440.00572    497.85994   -6230.3647 
 1471000    94.932297    -6753.417   -6509.2095    -6753.417            0    2309.6924    23.171157    21.299433    21.792996    10755.552    3097.6366    1992.9639    1838.4768   -36.014171    539.39021     175.2062   -6146.9141 
 1472000    100.47303     -6772.17   -6513.7092     -6772.17            0    1994.9582     23.26732    21.374902    21.648559    10766.623    1179.4031    2866.0534    1939.4181    1033.8985    56.872451     429.8367   -6200.4606 
 1473000    96.589418   -6760.6879   -6512.2175   -6760.6879            0    2068.3603    23.236005    21.478923    21.544823    10752.684    2122.1971    1195.4894    2887.3942     -1006.34    529.46341    103.26019   -6187.8637 
 1474000    104.57953   -6759.4369   -6490.4125   -6759.4369            0    1922.0553     23.29133    21.346094    21.676318    10777.008     1763.856    1520.6279    2481.6819    -621.3657    1595.4011   -38.136589     -6188.32 
 1475000    103.69734   -6776.5837   -6509.8286   -6776.5837            0    1830.8059    23.283823    21.346246    21.665163    10768.067    1289.9545    2073.1013     2129.362    603.89516   -243.16071   -27.843079   -6222.3166 
 1476000    102.64077    -6768.081   -6504.0439    -6768.081            0    1990.9889    23.152079    21.418071    21.667346     10744.25    1775.2884    2637.1311    1560.5473    599.87802    1175.1522    20.489926   -6192.0681 
 1477000    105.73472   -6753.1478   -6481.1517   -6753.1478            0    2337.0612    23.263389    21.374636    21.645053    10762.926    2617.3693    1631.2211    2762.5933   -498.18677    407.83496    648.98921    -6114.312 
 1478000    107.32301   -6761.6184   -6485.5365   -6761.6184            0    2593.7607    23.296546    21.292257    21.652472    10740.406    2115.2524    3166.1593    2499.8705    937.54166    261.56383   -129.31766   -6079.2555 
 1479000    99.880075   -6755.1194    -6498.184   -6755.1194            0    2288.5616    23.185147    21.399286    21.670424    10751.685    2591.2552    2508.5524    1765.8773   -1102.5943    317.12121   -701.42201   -6139.3322 
 1480000     105.0329    -6760.015   -6489.8243    -6760.015            0    2265.7474    23.242328    21.390138    21.613838    10745.462    2045.5704    1954.4062    2797.2657   -544.29649    420.63256    404.30452   -6134.7555 
 1481000    104.72854   -6759.7272   -6490.3194   -6759.7272            0    2229.6411    23.292914    21.353821    21.634295    10760.741    1032.4384    3799.1169    1857.3682     334.1733   -113.02678    51.559647   -6140.4121 
 1482000    100.73499   -6755.3589   -6496.2243   -6755.3589            0    3070.3401    23.153426     21.32019    21.719665    10721.596    3144.5227    3785.8492    2280.6484   -663.57342    882.13094    104.33175   -6016.1352 
 1483000    96.650498   -6758.1638   -6509.5362   -6758.1638            0    2136.6022    23.240442    21.360024    21.663042     10753.89    2291.1851    2054.5944    2064.0273    398.11741   -372.77301    155.44375   -6174.4434 
 1484000    96.128808   -6750.1696   -6502.8841   -6750.1696            0    2087.7823    23.340548    21.358606    21.577916    10757.056    1503.5618     1347.614    3412.1711    988.36283   -1201.5773    223.90199   -6175.3515 
 1485000    100.16768   -6762.5949   -6504.9197   -6762.5949            0      2257.01    23.195691    21.378316    21.673865     10747.74    1895.9694    2689.9895    2185.0712    43.098506    115.52175   -411.37149   -6151.1452 
 1486000    98.078572   -6757.2146   -6504.9135   -6757.2146            0    2089.0741    23.179701    21.402855     21.73431    10782.647    1582.3126    1257.4687    3427.4409   -892.96809    626.72365    1175.7324   -6176.3985 
 1487000    92.292083   -6749.1066   -6511.6909   -6749.1066            0    2032.4088    23.303904    21.378876    21.626878    10774.755    1779.2288    1958.7662    2359.2314    68.572477    124.11384    -236.8939   -6192.3207 
 1488000    101.17338   -6751.1681   -6490.9058   -6751.1681            0    2332.1174    23.366315    21.296514    21.659423    10778.185     1811.155    2083.7043     3101.493    1163.3259    745.64091    -217.6219   -6124.3231 
 1489000    100.08947   -6761.5545   -6504.0804   -6761.5545            0    2326.4613    23.170955    21.450402    21.633894    10752.614    2676.0947    2656.1771     1647.112   -234.46969    179.42207   -1156.7483   -6139.2544 
 1490000    102.32947   -6762.4168   -6499.1805   -6762.4168            0    2065.9658    23.228166    21.418417    21.640358    10766.306    1819.7736    2188.6218    2189.5018    41.024747   -619.18401   -204.45569   -6174.7917 
 1491000    99.186996   -6761.6045    -6506.452   -6761.6045            0    2717.7457    23.234399    21.355974    21.623359    10729.364    2731.8035    2546.5071    2874.9264   -410.35633   -859.16012   -227.19616   -6081.1879 
 1492000    101.79389   -6767.7548   -6505.8963   -6767.7548            0    2853.3123    23.182763    21.343063    21.711445    10742.631    3306.9716     2106.281    3146.6843    337.07574   -485.79388    23.196574   -6058.8671 
 1493000    98.013724   -6748.3607   -6496.2264   -6748.3607            0    2796.1136     23.22637    21.362794    21.658464      10746.5    3229.0383    3361.2871    1798.0155    661.60508   -865.05799   -955.05327   -6058.0008 
 1494000    100.58308   -6760.0029    -6501.259   -6760.0029            0    2580.0346    23.232766    21.336908    21.644559    10729.542    1535.1583    3684.5284    2520.4171    460.23795   -423.59962   -489.27357   -6097.5369 
 1495000    103.26902   -6751.5168   -6485.8635   -6751.5168            0    2065.9623     23.23351    21.374987    21.697677    10775.413    1729.3819    2130.1475    2338.3576    -398.7442   -450.26907    1074.5863   -6161.2009 
 1496000    99.609623   -6766.5427    -6510.303   -6766.5427            0    1907.3635    23.227695    21.366985    21.703723    10771.684    2096.6967    2131.3443    1494.0494   -65.321385   -790.65141   -250.36085   -6210.6677 
 1497000    98.231757   -6752.6721   -6499.9769   -6752.6721            0    2905.3301    23.239877    21.339842    21.653558    10738.764    2366.9038    2290.9378    4058.1488    385.86539    384.46439    142.24426   -6044.9619 
 1498000     100.4829   -6756.5011    -6498.015   -6756.5011            0    2254.9587    23.315565    21.341362    21.620363    10757.988    2199.6099     1949.257    2616.0091   -65.867775    284.29983    342.43642    -6144.225 
 1499000    101.81766   -6770.9132   -6508.9935   -6770.9132            0    3140.1583    23.180202    21.348807    21.648888    10713.378    3429.7764    3488.4633    2502.2351    817.99056   -959.43268    106.49861   -6018.3638 
 1500000    103.69421   -6745.6866   -6478.9396   -6745.6866            0    2238.3716    23.215159    21.313441    21.778267    10775.776    2274.3906    2060.8069    2379.9173   -712.92253   -231.14265    513.49731   -6127.1714 
Loop time of 525.693 on 64 procs for 250000 steps with 1296 atoms

Performance: 82.177 ns/day, 0.292 hours/ns, 475.562 timesteps/s
99.1% CPU use with 64 MPI tasks x 1 OpenMP threads

MPI task timing breakdown:
Section |  min time  |  avg time  |  max time  |%varavg| %total
---------------------------------------------------------------
Pair    | 29.323     | 40.36      | 51.548     | 113.4 |  7.68
Bond    | 0.28241    | 0.29043    | 0.2987     |   0.7 |  0.06
Kspace  | 266.48     | 278.22     | 289.44     |  43.4 | 52.92
Neigh   | 1.3331     | 1.3513     | 1.3682     |   0.7 |  0.26
Comm    | 89.968     | 91.196     | 93.681     |  12.2 | 17.35
Output  | 0.67907    | 0.67968    | 0.68129    |   0.0 |  0.13
Modify  | 102.28     | 104.14     | 105.1      |   7.1 | 19.81
Other   |            | 9.46       |            |       |  1.80

Nlocal:        20.2500 ave          26 max          13 min
Histogram: 3 2 9 11 1 4 6 13 10 5
Nghost:        2578.73 ave        2601 max        2546 min
Histogram: 3 1 4 4 6 11 13 5 11 6
Neighs:        6482.56 ave        8291 max        4106 min
Histogram: 2 3 9 11 1 4 6 13 10 5

Total # of neighbors = 414884
Ave neighs/atom = 320.12654
Ave special neighs/atom = 2.0000000
Neighbor list builds = 2553
Dangerous builds = 0

unfix		3
unfix		2
unfix		1

write_data	data.final.${pid}
write_data	data.final.0
System init for write_data ...
PPPM initialization ...
  extracting TIP4P info from pair style
  using 12-bit tables for long-range coulomb (../kspace.cpp:340)
  G vector (1/distance) = 0.36856752
  grid = 27 40 32
  stencil order = 5
  estimated absolute RMS force accuracy = 0.004246529
  estimated relative force accuracy = 1.2788296e-05
  using double precision FFTW3
  3d grid and FFT values/proc = 4845 560
Last active /omp style is kspace_style pppm/tip4p/omp
WARNING: Not all mixed pair coeffs generated from mixing. Use write_data with 'pair ij' option to store all pair coeffs. (../write_data.cpp:312)

write_restart   restart.lmp.${pid}
write_restart   restart.lmp.0
System init for write_restart ...
PPPM initialization ...
  extracting TIP4P info from pair style
  using 12-bit tables for long-range coulomb (../kspace.cpp:340)
  G vector (1/distance) = 0.36856752
  grid = 27 40 32
  stencil order = 5
  estimated absolute RMS force accuracy = 0.004246529
  estimated relative force accuracy = 1.2788296e-05
  using double precision FFTW3
  3d grid and FFT values/proc = 4845 560
Last active /omp style is kspace_style pppm/tip4p/omp
Total wall time: 0:08:45
