LAMMPS (30 Jul 2021)
Processor partition = 1
  using 1 OpenMP thread(s) per MPI task
using multi-threaded neighbor list subroutines
variable        pid world 0 1
variable        phase world IceII IceIII

shell cd ${phase}
shell cd IceIII
include Restart.lmp
echo both
log log.lammps
#include		in.partitions
include		in.temp
variable        temperature equal 117.03
variable	tempDamp equal 100.0
include		in.pressure
variable        pressure equal 4168.8
variable        pressureDamp equal 1000.0 # This is 1 ps
include		in.seed
variable        seed equal 745823

units		real
atom_style	full

read_restart	restart.lmp.${pid}
read_restart	restart.lmp.1
Reading restart file ...
  restart file = 30 Jul 2021, LAMMPS = 30 Jul 2021
  restoring atom style full from restart
  orthogonal box = (0.047332212 0.084966545 0.020693124) to (19.952669 19.915034 20.679305)
  4 by 4 by 4 MPI processor grid
  restoring pair style lj/cut/tip4p/long/omp from restart
  restoring bond style harmonic/omp from restart
  restoring angle style harmonic/omp from restart
  972 atoms
  648 bonds
  324 angles
Finding 1-2 1-3 1-4 neighbors ...
  special bond factors lj:    0        0        0       
  special bond factors coul:  0        0        0       
     2 = max # of 1-2 neighbors
     1 = max # of 1-3 neighbors
     1 = max # of 1-4 neighbors
     2 = max # of special neighbors
  special bonds CPU = 0.006 seconds
  read_restart CPU = 0.015 seconds
include 	in.setup
variable	out_freq equal 1000
variable	out_freq2 equal 10000
variable	out_freq3 equal 1000

timestep	2.0

neigh_modify    delay 7 every 1

include		in.tip4p
# This is TIP4P/Ice

# create groups ###
group ox type 2
324 atoms in group ox
group hy type 1
648 atoms in group hy

# set charges - beside manually ###
set group ox charge -1.1794
Setting atom values ...
  324 settings made for charge
set group hy charge 0.5897
Setting atom values ...
  648 settings made for charge

# ### TIP3P Potential Parameters ###
pair_style lj/cut/tip4p/long/omp 2 1 1 1 0.1577 8.5
pair_coeff 1 1*2 0.000 0.000
pair_coeff 2 2 0.21084 3.1668
bond_style  harmonic
bond_coeff  1 450 0.9572
angle_style harmonic
angle_coeff 1 55 104.52
kspace_style pppm/tip4p/omp 1.0e-5
pair_modify tail yes

thermo          ${out_freq}
thermo          1000
thermo_style    custom step temp pe etotal epair emol press lx ly lz vol pxx pyy pzz pxy pxz pyz enthalpy

restart 	${out_freq3} restart.lmp.${pid} restart2.lmp.${pid}
restart 	1000 restart.lmp.${pid} restart2.lmp.${pid}
restart 	1000 restart.lmp.1 restart2.lmp.${pid}
restart 	1000 restart.lmp.1 restart2.lmp.1


include         in.dump
dump            myDump all atom ${out_freq2} dump.water.${pid}
dump            myDump all atom 10000 dump.water.${pid}
dump            myDump all atom 10000 dump.water.1
dump            myDump2 all dcd ${out_freq2} dump.dcd
dump            myDump2 all dcd 10000 dump.dcd
dump_modify     myDump append yes
dump_modify     myDump2 append yes


variable natoms 	equal  "count(all)"                        # NUMBER ATOMS
variable H      	equal  "enthalpy/v_natoms"                 # ENTHALPY-per-atom
variable Vol      	equal  "vol/v_natoms"                 # volume-per-atom
fix AVG all 		ave/time ${out_freq} 1 ${out_freq} v_Vol v_H file vol_enthalpy.dat
fix AVG all 		ave/time 1000 1 ${out_freq} v_Vol v_H file vol_enthalpy.dat
fix AVG all 		ave/time 1000 1 1000 v_Vol v_H file vol_enthalpy.dat


timer           timeout 02:55:00 every 1000
New timer settings: style=normal  mode=nosync  timeout=02:55:00

fix 		1 all shake 1e-6 200 0 b 1 a 1
Finding SHAKE clusters ...
       0 = # of size 2 clusters
       0 = # of size 3 clusters
       0 = # of size 4 clusters
     324 = # of frozen angles
  find clusters CPU = 0.001 seconds
fix             2 all nph aniso ${pressure} ${pressure} ${pressureDamp}
fix             2 all nph aniso 4168.8 ${pressure} ${pressureDamp}
fix             2 all nph aniso 4168.8 4168.8 ${pressureDamp}
fix             2 all nph aniso 4168.8 4168.8 1000
fix             3 all temp/csvr ${temperature} ${temperature} ${tempDamp} ${seed}
fix             3 all temp/csvr 117.03 ${temperature} ${tempDamp} ${seed}
fix             3 all temp/csvr 117.03 117.03 ${tempDamp} ${seed}
fix             3 all temp/csvr 117.03 117.03 100 ${seed}
fix             3 all temp/csvr 117.03 117.03 100 745823


run             250000
PPPM initialization ...
  extracting TIP4P info from pair style
  using 12-bit tables for long-range coulomb (../kspace.cpp:340)
  G vector (1/distance) = 0.37173707
  grid = 24 24 24
  stencil order = 5
  estimated absolute RMS force accuracy = 0.0035679657
  estimated relative force accuracy = 1.0744823e-05
  using double precision FFTW3
  3d grid and FFT values/proc = 2197 216
Last active /omp style is kspace_style pppm/tip4p/omp
Neighbor list info ...
  update every 1 steps, delay 7 steps, check yes
  max neighbors/atom: 2000, page size: 100000
  master list distance cutoff = 10.8154
  ghost atom cutoff = 10.8154
  binsize = 5.4077, bins = 4 4 4
  1 neighbor lists, perpetual/occasional/extra = 1 0 0
  (1) pair lj/cut/tip4p/long/omp, perpetual
      attributes: half, newton on, omp
      pair build: half/bin/newton/omp
      stencil: half/bin/3d
      bin: standard
Setting up Verlet run ...
  Unit style    : real
  Current step  : 8750000
  Time step     : 2
  Walltime left : 2:54:59.94
Per MPI rank memory allocation (min/avg/max) = 9.224 | 9.226 | 9.227 Mbytes
Step Temp PotEng TotEng E_pair E_mol Press Lx Ly Lz Volume Pxx Pyy Pzz Pxy Pxz Pyz Enthalpy 
 8750000     123.7348   -5012.7547   -4774.1218   -5012.7547            0    4598.2062    19.905337    19.830068    20.658612    8154.4535    5000.8824    4401.1214    4392.6147   -126.68497   -64.981356   -230.98879   -4227.2831 
 8751000    114.90357   -5012.2523   -4790.6511   -5012.2523            0    4103.4581    19.837152    19.914023     20.68127    8169.8773    4364.5784     3659.677     4286.119   -463.98482    624.63273    -933.8101    -4301.727 
 8752000    115.66255   -5016.2236   -4793.1586   -5016.2236            0    3375.9513    19.912078    19.929865    20.708942    8218.2405    4205.2829    2815.5363    3107.0347   -421.63934    1946.6798    520.98667   -4388.5353 
 8753000    114.07081   -5008.2217   -4788.2266   -5008.2217            0    5346.3582    19.921855    19.834501     20.52504    8110.2652    3582.2081    6001.9078    6454.9586   -609.08927    708.94888    378.33871   -4155.8599 
 8754000     116.1776   -5029.4299   -4805.3717   -5029.4299            0    3896.3314    20.020912    19.883242     20.44609    8139.1926     3072.836    4609.6854    4006.4729     22.82442   -847.12295   -158.72323   -4342.8702 
 8755000    117.44979   -5011.6741   -4785.1623   -5011.6741            0    4409.7527    19.943277    19.733753     20.56315    8092.7451    3436.8931    5212.4117    4579.9532   -443.82826    380.68407   -1080.3607    -4264.704 
 8756000    117.85034   -5008.5796   -4781.2953   -5008.5796            0    3855.6852    20.014116    19.897978    20.453159    8145.2752    3144.0288    3744.6063    4678.4203    267.41264   -478.71048   -158.13028   -4323.2766 
 8757000    115.45839   -5013.9335   -4791.2622   -5013.9335            0    2726.0134    19.867928     20.03128    20.664696    8224.1363    3685.7496    1325.6541    3166.6365    122.89984     160.7382   -135.17964   -4464.3026 
 8758000    117.84124   -5009.5189   -4782.2522   -5009.5189            0    5532.0204    19.884475    19.906628    20.496659     8113.251    4523.6175    6940.7292    5131.7144   -776.37193    1129.4471   -233.42653   -4127.6845 
 8759000     119.8174   -4998.7614   -4767.6835   -4998.7614            0    5697.4247    19.930956    19.905153    20.408286    8096.5533    4642.6117    5389.6927    7059.9697    845.26151     35.16095    149.85756    -4094.932 
 8760000    117.28441   -5009.3806   -4783.1878   -5009.3806            0    4057.5621    19.991091    19.868169    20.558538     8165.571    3910.7086    3476.7642    4785.2133   -90.233345   -382.87336    585.72506    -4299.987 
 8761000    112.32295   -5003.4957   -4786.8714   -5003.4957            0     4603.496    19.828477    19.931166     20.58878    8136.7818    6063.4277    3639.8063     4107.254    -187.2122    296.51505     64.16363   -4240.5901 
 8762000     118.3457   -4998.4802   -4770.2405   -4998.4802            0    3569.9891    19.907911    19.960786     20.60141    8186.5376    4934.3236    2058.7536    3716.8902    380.03915    781.22079   -377.31006   -4344.0115 
 8763000    119.59822   -5000.6085   -4769.9533   -5000.6085            0     4890.974    19.754986    19.936373    20.618262     8120.353    5273.1438    4609.6695    4790.1088    342.02865    45.460999   -166.03546   -4190.7298 
 8764000     115.5486   -5021.4115   -4798.5663   -5021.4115            0    2926.2292    19.932732    19.972496    20.607836    8204.1114    2775.4627    2750.5908    3252.6341    496.13638     335.9365   -331.39018   -4448.4472 
 8765000    112.26791   -5008.6807   -4792.1626   -5008.6807            0    4430.8752    19.927467    19.860178    20.667789    8179.5466    4424.8274    4236.1183    4631.6799    211.25581    630.94942     198.9584   -4263.6022 
 8766000    114.22466   -5009.5473   -4789.2555   -5009.5473            0    4500.5537    19.845596    19.989617    20.564469    8158.0452    5603.0905    3443.3311    4455.2396   -398.31624    663.19109   -353.80851   -4253.7943 
 8767000    118.67969   -5017.6747   -4788.7909   -5017.6747            0    4576.4296    19.880219    19.883288    20.570965    8131.3756     3966.839    4231.9221    5530.5277   -968.76241   -212.56052   -2.2191265   -4246.0823 
 8768000    112.09844   -5015.3173   -4799.1261   -5015.3173            0    4125.0296    19.865027    19.908079    20.605004    8148.7541    4572.4402    3292.1102    4510.5383   -578.92188   -252.05368    724.96929   -4308.9025 
 8769000    112.97701   -5010.3426   -4792.4569   -5010.3426            0    4531.2002    19.869977    20.026147    20.504453    8159.1131    2725.4894    4930.9771    5937.1341    76.066623   -105.79112   -890.98442    -4253.279 
 8770000    116.88899   -5018.2494   -4792.8191   -5018.2494            0    3933.7068     19.97657    19.890793    20.516633    8152.2802    1976.1051    4886.1992    4938.8162   -105.07682    -307.0603   -159.10651   -4325.1303 
 8771000    111.30985    -5011.855   -4797.1846    -5011.855            0    5513.1304    19.747938    19.999135    20.560147    8120.0592    6500.1724    4278.7068    5760.5119   -48.622398   -1002.4619    384.77253   -4144.3046 
 8772000    116.30299   -5010.6476   -4786.3475   -5010.6476            0    4581.4432    19.886346     19.96807    20.595811    8178.4306    4631.0043    4860.4294    4252.8958    37.089641    883.24956   -916.50317   -4239.9004 
 8773000    112.58055   -5016.4512   -4799.3301   -5016.4512            0    3951.6968    19.947203    19.819954    20.602872    8145.3995    3882.6994    4037.7334    3934.6578   -765.53658    1694.7707    777.53738    -4329.899 
 8774000    119.88721   -5001.2652   -4770.0526   -5001.2652            0    4148.9661    19.955987    19.733502    20.753698    8172.8379     3733.317    4682.2108    4031.3705   -464.10385     553.0289    829.29344   -4275.5271 
 8775000    122.42507   -5012.1089   -4776.0018   -5012.1089            0    3658.1725    19.856462    19.871004     20.75295    8188.4463    3407.1842    4278.9493    3288.3841    -359.9011    181.58055    230.91485   -4339.1425 
 8776000    118.51721   -5004.0401   -4775.4697   -5004.0401            0    4183.2457    19.906929      19.9558     20.60093    8183.8985    3676.5083    4431.5789    4441.6499    126.64267    649.54791    378.78429   -4276.1835 
 8777000    126.24949   -5016.7437   -4773.2609   -5016.7437            0    4481.7046    19.790615    19.976753    20.578763    8135.8602    4996.7447    4529.7193    3918.6498    288.53989    164.83908    1181.5216   -4241.4924 
 8778000    115.12384   -5019.1416   -4797.1156   -5019.1416            0    3320.5414    19.903577    19.965594    20.582891    8179.3677    3535.5627    2183.1939    4242.8677   -389.01993    744.95555   -130.21109   -4401.0159 
 8779000    119.36077   -5013.7158   -4783.5185   -5013.7158            0    4963.8343     19.86483    19.834506    20.638683    8131.8288     4903.776    6421.8941    3565.8327   -380.59768    338.36574    540.76785   -4194.8357 
 8780000    123.94769     -5017.93   -4778.8865     -5017.93            0    3303.3692    19.962152    19.791174    20.675623    8168.4098    3631.3881    3633.8631    2644.8563    284.67111   -354.39801    15.182212   -4385.3631 
 8781000    122.11401   -5012.4797   -4776.9726   -5012.4797            0    3662.8045    19.894065    20.038969    20.479425     8164.257    4715.8411    3066.3842    3206.1883   -86.126271    -563.2268    275.56722   -4340.8523 
 8782000    119.07075   -5009.9683   -4780.3304   -5009.9683            0    4158.1808     19.96919    19.839675    20.568718    8148.9608    3965.6841    4691.6355    3817.2227    112.24507   -381.46698   -428.63268   -4286.1546 
 8783000    119.67923     -5015.12   -4784.3086     -5015.12            0    4630.4485    19.831633     19.92682    20.537177    8115.9095    4230.1574    5102.3668    4558.8215   -314.23021    1103.1422    486.26795   -4236.2384 
 8784000    113.57333   -5016.1243   -4797.0886   -5016.1243            0    3288.5491    19.968917    19.883828    20.514127    8145.3087    2388.0692    3438.2078    4039.3702   -499.21281    129.42233    184.84058   -4406.4386 
 8785000     111.6647    -5023.656   -4808.3013    -5023.656            0    3134.2359    19.900054    20.048749    20.498717    8178.3977    4508.0445    1801.6545    3093.0087    -243.2716    469.88842     916.3083   -4434.4699 
 8786000    114.08891   -5019.5707   -4799.5406   -5019.5707            0    4995.5373     19.86411    19.919028    20.532629    8124.2228    5830.6872    3591.3112    5564.6134    133.91195   -59.908138    337.82633   -4207.6521 
 8787000     120.9668   -5023.9196   -4790.6249   -5023.9196            0    3939.0445    19.976454    19.800073    20.651421    8168.3649     3859.525     3724.093    4233.5155    128.82856     500.3586    98.749216   -4321.3775 
 8788000    121.15085   -5015.5052   -4781.8556   -5015.5052            0     3636.383    19.982273    19.877766    20.643173     8199.529    4476.2473    2272.2747    4160.6269   -220.07547    1158.1011    877.58541   -4347.0107 
 8789000    114.87145   -5014.7253   -4793.1861   -5014.7253            0    4958.7709    19.817426    19.912595    20.553019    8110.5578    5408.5231    4414.7098    5053.0797   -464.00503    302.43489   -111.75809    -4206.642 
 8790000    113.50777   -5006.1919   -4787.2826   -5006.1919            0    5081.4803    19.939342    19.843014    20.528386    8122.1921    4621.9332    5199.8019    5422.7058   -434.37482    552.21768    640.26292   -4185.3618 
 8791000    117.57486   -5011.6484   -4784.8954   -5011.6484            0    4628.4771    19.906682     19.83055    20.597256    8130.9824    5730.3852     5087.178    3067.8682    38.660541   -94.983968      333.378   -4236.0411 
 8792000    116.44064   -5013.3996   -4788.8341   -5013.3996            0    5307.2763    19.801259    19.961686    20.550785     8123.037    5114.2768    5702.0764    5105.4756    15.862098    200.55367   -369.97616   -4160.1014 
 8793000    117.00378   -5009.4993   -4783.8477   -5009.4993            0    3133.8458    20.126327    19.778153    20.625214     8210.105    2615.6269    3160.8901    3625.0204   -206.55051    118.73306   -863.36601   -4408.6137 
 8794000    110.06549   -5016.3068   -4804.0362   -5016.3068            0    4679.0304    19.915256    19.864585    20.647459    8168.3061    4099.4845    4776.7552    5160.8515   -292.90485    644.29636   -600.17886   -4246.6403 
 8795000      110.636   -5019.5131   -4806.1422   -5019.5131            0    3648.7979    19.946085    20.046126    20.457465    8179.7485    3287.3608    3005.4639     4653.569    156.12657    5.0622459   -478.01102   -4370.8653 
 8796000    114.16583   -5022.0899   -4801.9115   -5022.0899            0    3340.3033    19.992725    20.048503    20.492439    8213.8657    3543.0202    2866.6539    3611.2357   -367.33294    428.64491   -322.70903   -4401.7739 
 8797000    116.31088    -5013.507   -4789.1917    -5013.507            0    4953.3503    19.970836    19.798909     20.59526    8143.3815    3456.1362    7012.6567    4391.2579    57.739915    408.24979     322.6599   -4200.9176 
 8798000    114.67692   -5026.5666   -4805.4025   -5026.5666            0    3736.4467    19.911184    19.866429    20.610701    8152.8537    4420.4673     3278.659    3510.2136   -367.99956    524.68878    748.10798   -4361.1352 
 8799000     116.6951   -5005.8318   -4780.7754   -5005.8318            0     4997.827    19.833158    19.971537    20.640158    8175.5386    6009.8387    3796.7859    5186.8563   -20.523527   -505.17679     -1049.95   -4184.8753 
 8800000    112.91381   -5019.2819   -4801.5181   -5019.2819            0    4402.4422    19.860141    19.944749    20.625291    8169.7922    5149.9595      2877.06    5180.3072    132.18563   -657.33611   -102.55564   -4276.9757 
 8801000    126.16588   -5003.6204   -4760.2989   -5003.6204            0    4516.5235    20.049911    19.735436    20.691998     8187.694    2698.4073    6065.7425    4785.4205     164.1442    397.29566   -367.57275   -4220.9848 
 8802000    109.83236   -5013.0469   -4801.2259   -5013.0469            0    3500.2039    19.911633    19.965001    20.598151    8188.5022     4020.185    2570.9458    3909.4808   -456.66663   -82.745307   -884.15648   -4383.2284 
 8803000    118.84533   -5035.8785   -4806.6753   -5035.8785            0    4354.6312    19.916933    19.846411    20.602866    8143.8937    5250.2338     3057.123    4756.5368   -177.36311   -278.75159   -16.492413   -4289.4743 
 8804000    123.66897   -5014.5085   -4776.0025   -5014.5085            0    4615.1779    19.911296    19.857597    20.539869     8121.269    6422.2508    2619.4308    4803.8522    91.713786     385.0159     100.9718   -4229.3791 
 8805000    118.90446   -5014.4262    -4785.109   -5014.4262            0    4227.2507    19.897599    19.915155    20.543302    8140.5666    4499.6706    2963.4594    5218.6222   -51.095199    302.96115   -266.31355   -4283.2421 
 8806000    120.26935   -5000.6434   -4768.6939   -5000.6434            0    4753.7254    19.901123    19.934163    20.500755    8132.8997    5222.9956    4360.8399    4677.3407   -712.68329    734.17535   -446.57525   -4204.8545 
 8807000    110.67498   -5020.5945   -4807.1485   -5020.5945            0    2717.3486    19.988136    20.050359    20.451037    8196.1476    2740.4999    1464.2115    3947.3344   -49.226523     1202.803    372.43451   -4482.3373 
 8808000    114.03544   -5010.7401   -4790.8132   -5010.7401            0    3462.0245    19.990974    19.956679    20.591792    8215.1665    3177.9123    3849.9397    3358.2213    239.35276    319.85055    864.78043   -4376.0288 
 8809000    119.10011   -5024.6481   -4794.9535   -5024.6481            0    2868.4871    19.952109     19.92411    20.676308    8219.4118    3047.0043    2889.6505    2668.8066   -126.76052    303.59694   -1544.6998   -4451.1031 
 8810000    118.53208    -5020.742   -4792.1429    -5020.742            0    4639.9064    19.789926    19.931993    20.701074    8165.5939    5969.7889    4329.9195    3620.0107    439.63792    549.17963    177.27621   -4239.5912 
 8811000    117.18885   -5011.0973   -4785.0887   -5011.0973            0    3753.3162    19.944106    19.786128    20.665792    8155.0652    3996.3874    4304.7293    2958.8318   -36.044351   -101.97879    433.31763   -4338.6946 
 8812000    120.63654   -4999.0563   -4766.3986   -4999.0563            0       3625.7    20.016438    19.775958    20.610964    8158.7317    1799.3856    5505.0304    3572.6839   -304.09676   -765.59382     326.6126   -4334.9884 
 8813000    124.43791   -5016.6878   -4776.6988   -5016.6878            0     4353.239    19.912737    19.783827    20.596221    8113.8844    4884.3792    3563.4731    4611.8646    220.29394    1272.0116    368.56213   -4261.5684 
 8814000    118.79622   -5015.8548   -4786.7463   -5015.8548            0    4207.3774    19.882545    19.922846    20.519417    8128.0877    4597.9961    4140.0351    3884.1009    240.96866     568.5317   -611.40145   -4288.0045 
 8815000    118.94536   -5024.1934   -4794.7972   -5024.1934            0    4428.1728    19.845302    19.932575    20.547522    8127.9413    5686.0566    3202.8266    4395.6351   -206.62017    122.80474    118.64402   -4269.8919 
 8816000    120.27265   -5004.8325   -4772.8766   -5004.8325            0    2508.7432    19.982599    19.932049    20.594645    8202.7267    2334.8964    2519.7743    2671.5589   -141.18014    1030.6572   -423.68184   -4472.7598 
 8817000    118.02205   -5024.9432   -4797.3278   -5024.9432            0    4055.3639    19.940309    19.992901    20.474113    8162.3048    3166.3797    3924.2763    5075.4357    178.74257   -27.541408    -817.9146    -4314.582 
 8818000      118.897   -5021.1694   -4791.8665   -5021.1694            0    3591.8463     20.03833    19.926415    20.506052    8187.9042    2847.4087    3470.9432    4457.1869    37.935473   -507.50003   -648.72718   -4362.9563 
 8819000    117.93146   -5032.3521   -4804.9114   -5032.3521            0     4452.315    19.922916    19.980394    20.492646    8157.4606    4754.9392    3330.5237     5271.482    186.21742    406.73123    -487.7907   -4275.2275 
 8820000    113.82201   -5005.0741   -4785.5587   -5005.0741            0    3300.1025    19.994864    19.913989    20.530291    8174.6999    3264.0387    3698.1406    2938.1282    86.389661   -46.047299    31.039907   -4392.1218 
 8821000    120.06838   -5013.4672   -4781.9053   -5013.4672            0    4692.2063    19.809527    19.969681    20.554699     8131.232    4433.2232    4670.4273    4972.9685   -132.35524   -570.96836    1115.8154   -4225.4768 
 8822000    123.62391    -5000.999   -4762.5799    -5000.999            0    3618.5967    19.927055    19.815419    20.669977     8161.808    4260.0271     3606.286     2989.477    -402.1065    223.16575    -545.5344   -4331.8526 
 8823000    110.87305   -5021.3836   -4807.5556   -5021.3836            0    2856.9879    19.872302    19.985852    20.626778    8192.2319    3583.2667    1415.5541     3572.143   -627.47362   -55.265258   -1101.3082   -4466.2161 
 8824000    116.63579   -5022.7977   -4797.8558   -5022.7977            0    4680.9213    19.867806    19.949495    20.529928    8137.0923    5324.0766    3806.0646    4912.6228   -97.636196    444.33844   -780.59476   -4242.3655 
 8825000    117.61945    -5024.734   -4797.8949    -5024.734            0    3275.7742    19.916588    20.027087    20.491828    8173.6008    2821.6889    3561.7182    3443.9157   -675.65745    224.66499    234.88502   -4407.4109 
 8826000    117.06923   -5019.0074   -4793.2295   -5019.0074            0    3642.6234    19.918216    19.922938    20.517429    8141.9188     3682.503    2547.4783     4697.889   -135.69569    873.71847   -769.36277   -4360.6988 
 8827000    115.04654   -5032.5593   -4810.6824   -5032.5593            0    3410.0077     19.90586    20.016584    20.556369    8190.6302    3191.1273    3295.8976    3742.9982    67.410131     901.7012   -631.39411   -4403.3504 
 8828000    120.06213   -5002.3504   -4770.8004   -5002.3504            0    4045.5282    19.909056    19.881779    20.630156    8165.9819    4614.8063    3449.0603    4072.7181    7.1067147   -273.96604    29.961949   -4289.0085 
 8829000    114.61628   -5021.7184   -4800.6713   -5021.7184            0    4738.7489    19.930305    19.930183    20.528902    8154.3801    4291.7585    4465.3412    5459.1469   -450.67806    737.16343    -458.1434   -4237.1238 
 8830000    120.32638   -5011.0805   -4779.0209   -5011.0805            0    4763.5598    19.930191     19.94829    20.473189    8139.5919    5589.2407    3492.9675    5208.4713    173.02776    871.34349   -496.06714   -4213.5502 
 8831000     119.1087   -5017.0924   -4787.3812   -5017.0924            0    3146.6175    19.862477     20.03984    20.650947    8219.9205    4865.2153    2008.9117    2565.7255   -299.03808   -282.92495    507.71164   -4410.1675 
 8832000    120.00037   -5031.1447   -4799.7139   -5031.1447            0    4877.4877    19.960381    19.818461       20.536    8123.7136    3327.9121     5890.013     5414.538   -72.563234    807.36354   -777.69182   -4221.8486 
 8833000    117.71032    -5006.201   -4779.1868    -5006.201            0    5591.9867    19.746849    19.935527    20.537678    8084.9411    6881.8002    4908.8853    4985.2746    188.33844    158.76981     513.8658   -4119.8324 
 8834000    122.90598   -5012.0665   -4775.0319   -5012.0665            0    4196.8697     19.91095    19.864495    20.753354    8208.3867    3820.3617    4393.2274    4377.0199   -338.57921   -154.67761    751.83835   -4272.6209 
 8835000    115.76725   -5021.7652   -4798.4983   -5021.7652            0    3272.1466    19.885472    19.987263    20.593898    8185.1717    3265.4435    3119.6326    3431.3637    299.92485    792.15421   -330.08926   -4407.8945 
 8836000    114.84014   -5019.4192   -4797.9403   -5019.4192            0    2344.5029    20.004395    19.870848    20.618618    8195.9889    1604.9614    2184.4791    3244.0681   -116.95032    373.38157    570.99265   -4517.7017 
 8837000    119.71928   -5023.5789   -4792.6902   -5023.5789            0    4684.7645    19.981917    19.922665    20.380413    8113.3002    2581.0389    6344.2916    5128.9629    139.79137     186.9485    143.72324   -4238.3693 
 8838000    114.29021   -5010.2133    -4789.795   -5010.2133            0    4371.8617    19.882776    19.928546     20.59375    8159.9608    4146.9595    4462.4698     4506.156   -206.34596    668.40761   -393.58171   -4269.5231 
 8839000    111.59345    -5021.793   -4806.5756    -5021.793            0     5504.762    19.730417     19.87895    20.633982    8093.0603    5271.6426    6085.6183    5157.0251   -402.81962   -104.08155    1399.9328   -4156.8542 
 8840000    115.63773   -5017.7612   -4794.7441   -5017.7612            0    4257.6657    19.840033    19.846958    20.683098    8144.2655    3923.4903    4260.9005    4588.6064    79.141323    114.45594    844.88189   -4289.0366 
 8841000    117.39675   -5024.1304   -4797.7209   -5024.1304            0    3326.5409    20.073089     19.87326    20.457265    8160.7653    1929.4952    4477.2706    3572.8569   -518.35397    166.80499   -771.27376    -4401.808 
 8842000    114.03945    -5017.912   -4797.9774    -5017.912            0    2793.1266    20.042212    19.923621    20.539429    8201.6702    2240.3557    2327.8109    3811.2133    196.62584   -263.57103   -375.75715   -4463.8832 
 8843000    118.28204   -5005.6097   -4777.4929   -5005.6097            0     3015.928    20.244587    19.696005    20.491559    8170.7529    1984.6793    4103.6596    2959.4451     267.6156    26.765138   -546.46681   -4418.1087 
 8844000    116.98574   -5015.0764   -4789.4596   -5015.0764            0    4898.5774    20.019748    19.829063    20.491612    8134.6136    4331.7288    4746.9002    5617.1033   -517.89899    1212.7852    640.36549   -4208.3169 
 8845000    115.36624   -5030.1062   -4807.6127   -5030.1062            0    3957.1876    19.939875    19.779823    20.611193    8129.2031    3583.9738    4480.5041    3807.0848   -78.912334    330.10087    785.29553    -4338.464 
 8846000    122.28611   -5019.1004   -4783.2614   -5019.1004            0     4882.978    19.759741    19.881581    20.730254    8143.9819    5894.8893    5111.6221    3642.4225   -12.866731    47.296133    950.68083   -4203.3022 
 8847000    120.04761   -5016.7053   -4785.1834   -5016.7053            0    4844.7225    19.839701    19.830027    20.642526      8121.22    4427.9152    6148.2738    3957.9786     -61.8555   -1008.2623    -922.9684   -4211.3761 
 8848000    119.27679   -5021.1598   -4791.1245   -5021.1598            0    4612.9509    19.862344    19.921806      20.6454    8169.2558    4648.7501    4662.6587    4527.4439   -399.96341   -1082.8242    69.221568   -4241.5365 
 8849000    118.15043   -5017.6558   -4789.7927   -5017.6558            0    4528.0745    19.920072     19.91237    20.550456    8151.4584    5119.8502    3878.0149    4586.3584   -802.00451    370.56406   -54.589771   -4251.4922 
 8850000    113.55996   -5011.6045   -4792.5945   -5011.6045            0    4623.9508    20.012203    19.956646     20.40985    8151.2136    5342.6226    3552.4928     4976.737    40.066602   -257.90415    538.04182   -4242.9127 
 8851000     112.9955   -5026.6769   -4808.7556   -5026.6769            0    3559.9146    20.010933     19.89546     20.52128    8170.0694    3015.0006    3766.7447    3897.9986   -141.71101   -232.90264   -94.771885   -4384.5844 
 8852000    120.68029      -5023.7   -4790.9579      -5023.7            0    4095.1215    20.143915    19.753449    20.553035     8178.295    3779.5344    4536.2663    3969.5638   -267.89229   -365.32949    823.30012   -4302.5244 
 8853000    121.62054   -5016.3144   -4781.7589   -5016.3144            0    3453.1165    19.826632    19.970887    20.636539    8171.1498    5208.7206    2181.6826    2968.9464   -60.712894    74.646718   -231.60215   -4370.2585 
 8854000    118.47984   -5010.9539   -4782.4555   -5010.9539            0    4218.4474    19.918442    19.738066    20.682346    8131.2957     2674.711    6286.8867    3693.7444    -73.62208   -83.573753   -324.93192   -4282.2042 
 8855000    121.36938   -5008.4103   -4774.3392   -5008.4103            0    3364.2354    19.853135    19.863532    20.737399     8177.863     3982.292    3681.1944    2429.2199   -185.74862     560.3682    700.06983   -4373.1012 
 8856000    114.76019   -5023.3988   -4802.0741   -5023.3988            0    4022.8817    19.924218    19.923779    20.620843     8185.768    4701.9778    3251.7579    4114.9094    462.66713    396.85688     249.6818   -4321.8183 
 8857000    115.18074   -5013.0932   -4790.9574   -5013.0932            0    2371.4741    20.118726    19.923045    20.543097    8234.2135     2934.505    1887.3763    2292.5411   -36.497328    487.37247    1194.4923   -4506.1729 
 8858000     117.8658   -5001.8395   -4774.5254   -5001.8395            0    3904.7189    19.949597    19.832695    20.523105    8120.0539    1727.1875     5580.499    4406.4702    237.06594    113.57064    60.882717   -4312.1182 
 8859000      118.911   -5020.1594   -4790.8295   -5020.1594            0    3383.1597    19.936954    19.913168    20.572857    8167.5868    3186.0355     3071.848    3891.5956   -112.11984   -483.00623   -1057.9823   -4387.8415 
 8860000    119.93367   -5010.1183   -4778.8161   -5010.1183            0    3502.9956    19.852682    20.007023    20.630788    8194.4056    4901.3715    2228.1668    3379.4485   -225.39979    365.88674    198.33031   -4360.1836 
 8861000    117.74638   -5004.2265   -4777.1427   -5004.2265            0    3714.9344     19.89536    19.919395    20.684089    8197.1779     3610.958    4212.4674    3321.3777     143.2767    385.05474   -507.94849   -4333.0318 
 8862000    123.11946   -5019.9058   -4782.4596   -5019.9058            0    4084.5095    20.036039    19.777711    20.597277    8162.0209    4856.6408    3107.6946    4289.1931    -5.152849   -246.66273   -384.63326   -4296.2612 
 8863000    113.97808   -5018.3806   -4798.5643   -5018.3806            0    4713.8786    19.858558    19.876628    20.561239    8115.9566    5504.6449    3013.5648     5623.426    127.06323   -207.18197   -700.42907   -4240.6159 
 8864000    116.88226   -5013.7589   -4788.3417   -5013.7589            0    3447.2538    19.943968    19.911872    20.718372    8227.7156    4473.9205    2839.9463    3027.8945   -572.93231   -229.63914   -312.04959   -4374.6961 
 8865000    112.75365   -5004.3466   -4786.8917   -5004.3466            0    3689.4886    19.899679    19.907623    20.558481    8144.3516    3743.4745    3449.0404     3875.951   -223.54965    -238.0179   -735.29675   -4348.6652 
 8866000     116.9139   -5028.2942    -4802.816   -5028.2942            0    3888.6706    20.061525    19.893716    20.460192    8165.6277    3626.2058    4051.3663    3988.4395    554.84449    124.37809    1049.6431   -4339.7247 
 8867000    109.55579    -5014.132   -4802.8445    -5014.132            0    3930.9612    19.976038    19.897396     20.51451    8153.9257    3376.4258    4974.3282    3442.1295    411.88903    42.285462   -33.291118   -4335.3878 
 8868000    116.91911   -5021.4637   -4795.9754   -5021.4637            0    4107.9221    19.764553    20.054042    20.554267     8146.872    5493.9168    2683.9939    4145.8555    573.41516    307.39015   -911.19337   -4307.8976 
 8869000    112.12393   -5016.8995   -4800.6591   -5016.8995            0    4131.9363    19.846114     19.97257    20.612196    8170.2192    5392.1264    2110.3848    4893.2977   -444.30245    275.08943    117.18537   -4308.3213 
 8870000      116.132   -5010.3843    -4786.414   -5010.3843            0    4684.6898    19.804739    19.905901    20.716404    8167.0524    5146.1415    4532.7992    4375.1286   -265.18994    643.05141    396.21253   -4228.4295 
 8871000    114.35639   -5029.0004   -4808.4545   -5029.0004            0    3351.9669    19.884116    19.875953     20.72571     8191.127    5137.3992    1775.2401    3143.2615   -511.30314   -484.37958   -186.13628   -4408.0313 
 8872000    119.17843    -5007.912   -4778.0664    -5007.912            0    4039.5683    19.804805    19.943535    20.662844    8161.3651    3555.3779    4433.5749    4129.7521   -236.96502    -1038.743     849.9559   -4297.2562 
 8873000    115.02142   -5011.0311   -4789.2027   -5011.0311            0    3825.0583    19.827344    19.887438    20.740617    8178.3378    4266.0848    4040.8887    3168.2015   -410.32674    483.70065    68.808625   -4332.9777 
 8874000     112.7735   -5007.7828   -4790.2896   -5007.7828            0    4408.7344     19.88423    19.765254    20.846903    8193.1847    4063.3869    5020.0881    4142.7281   -709.92256     211.3385    250.55334   -4263.4935 
 8875000    119.95732   -5011.8679   -4780.5202   -5011.8679            0     4059.197    19.971106    19.796928    20.695554    8182.3296    3056.9772     5729.088    3391.5258    214.33842   -93.070041    105.07383   -4296.1326 
 8876000     117.0064   -5031.9012   -4806.2445   -5031.9012            0    3683.6778     19.83608    19.696147     20.91606    8171.7863    4210.7013    3783.8965    3056.4357   -51.668339   -684.10549   -1318.3502   -4367.2344 
 8877000    114.61502   -5016.3492   -4795.3045   -5016.3492            0    4249.2316    19.898213    19.842336    20.656116    8155.5931     3825.398      4173.09     4749.207   -28.704778    337.89066    408.99418   -4289.8968 
 8878000      114.692   -5017.7313   -4796.5381   -5017.7313            0    3671.2815    19.885068    19.918788    20.573557    8148.9073    3621.5962    3904.9195    3487.3287    38.978018     1328.171   -629.95877   -4360.2303 
 8879000    125.96563   -5013.4638   -4770.5285   -5013.4638            0    4274.0981    19.897797     19.95427    20.490029    8135.4846     4292.356    3943.8405    4586.0977    -767.3818    221.69899    283.20338   -4263.4166 
 8880000    114.55255   -5029.5029   -4808.5787   -5029.5029            0    3868.2432    19.984828    19.913467    20.516846    8165.0322    2226.5263    5534.4387    3843.7646    216.40551    390.67708   -250.83214   -4347.9536 
 8881000    111.12063   -5022.7369   -4808.4314   -5022.7369            0    4813.6094    19.899669    19.976269    20.463657     8134.736    5253.9609    4175.7563    5011.1111   -12.050479    446.36534   -726.32333   -4237.3602 
 8882000    119.55153   -5000.4874   -4769.9223   -5000.4874            0    4763.0265    19.759929    19.896946    20.534812    8073.5123    5098.7345    4571.8524    4618.4926   -72.998713   -310.10392    243.70505    -4209.105 
 8883000    119.68431   -5006.4336   -4775.6124   -5006.4336            0    4603.0478    19.939353    19.985089    20.470141    8157.1411    5036.3148    3646.6213    5126.2074    -6.665329    73.261802    201.50961   -4228.0175 
 8884000    111.86634   -5012.7244   -4796.9808   -5012.7244            0    5032.1399    19.875086    19.849327    20.661713    8151.1918    3729.6599    6516.9277     4849.832    104.80061    92.797564    49.432711   -4198.7762 
 8885000    112.75157   -5013.3679    -4795.917   -5013.3679            0    3372.1094    19.982606    19.835173    20.733036    8217.7138    3903.5458    3290.3686    2922.4137   -277.36985    1027.6018    341.38125   -4391.7801 
 8886000    119.86376   -5018.7988   -4787.6314   -5018.7988            0    4026.4471    19.915887    19.907596    20.642683    8184.3581    5902.0114    2494.8024    3682.5276    281.05904   -456.62523    68.924265   -4307.0328 
 8887000    115.01833   -5020.0623   -4798.2398   -5020.0623            0    4497.3989    19.893923    19.891563    20.569362     8139.733    5383.5217    4094.6778    4013.9974    153.95251   -282.96545   -25.456342   -4264.3551 
 8888000    117.33532   -5023.3415   -4797.0505   -5023.3415            0    4349.3905    19.814527    19.993846    20.575421    8151.3356    5157.1892    3351.5448    4539.4375    257.97692    948.69127     370.6804   -4279.9999 
 8889000    111.39788   -5025.7213   -4810.8811   -5025.7213            0    3166.2035    19.980326     19.83322    20.674238    8192.6671     1892.202    4231.6726     3374.736   -285.72588   -340.77011    -1024.638   -4432.5779 
 8890000     115.8604    -5004.218   -4780.7715    -5004.218            0    5561.7827    19.808222    19.932415    20.547544    8112.6985    5712.6802    5322.1432    5650.5246    -697.7993   -653.17577    649.92131    -4122.727 
 8891000    112.78856   -5012.5847   -4795.0625   -5012.5847            0    2715.4033     20.07971    19.834484    20.559408    8188.2099    3072.5083    2373.8528    2699.8489   -358.31984   -985.73887    348.32114   -4470.7982 
 8892000    115.14528   -5012.8684    -4790.801   -5012.8684            0    3967.8334    20.020179    19.930698     20.37628    8130.4646    3971.2848     2298.248    5633.9673    446.00635   -712.57481      9.60504   -4320.3172 
 8893000    113.45745   -5009.9312   -4791.1189   -5009.9312            0    4537.3736    19.917962    19.881017    20.521787    8126.4087    4643.9845    4563.1432     4404.993    114.72319   -32.522049    80.658404   -4253.3706 
 8894000    115.83592   -5010.5363    -4787.137   -5010.5363            0    3398.4711     20.09571    19.754384    20.576168    8168.2938    1757.5316    4442.5777    3995.3039    125.25493   -168.52992   -154.92249   -4382.2901 
 8895000    110.43568   -5004.6346   -4791.6501   -5004.6346            0     4079.631    19.847877    20.012993    20.589211    8178.3522    4100.7059    4375.9104    3762.2766   -234.01764   -124.07935   -606.65905   -4305.0608 
 8896000    113.96725    -5019.758   -4799.9626    -5019.758            0    4303.1598    19.942316    19.904909    20.590158    8173.2628     3436.289    5028.1123     4445.078    318.64414   -30.486485   -477.13446   -4287.0317 
 8897000    115.09633    -5030.517    -4808.544    -5030.517            0    2690.1563    19.934335     19.85075     20.74361     8208.485    3679.9869    2272.0645    2118.4177   -155.66326    -261.1686   -843.90902   -4486.4991 
 8898000    111.88997   -5017.8834   -4802.0942   -5017.8834            0    4026.3353    19.847144    19.866117    20.793208    8198.4641    4147.5189    3589.6508    4341.8362   -28.195897    1255.1662   -114.57214   -4320.6806 
 8899000    124.21652   -5021.7309   -4782.1689   -5021.7309            0    4812.5466     19.79357    19.920289    20.675763    8152.3218    4408.6584    5153.9321    4875.0494    6.2991957    6.8466639   -563.85194   -4209.9896 
 8900000    117.52138   -5021.7297   -4795.0799   -5021.7297            0    3630.4011    19.694025    19.963877    20.747172    8157.1469     5346.291    2026.2289    3518.6835   -307.55729    463.43459    560.81397   -4363.1942 
 8901000    121.09389   -5006.4873   -4772.9476   -5006.4873            0    3524.6015    19.831329    19.991337    20.608394    8170.2963    3203.0987    3851.0191    3519.6867   -14.060648    665.32899    70.444726   -4352.9723 
 8902000    119.11568   -5012.7611   -4783.0365   -5012.7611            0    4053.0951    19.977997    19.743182    20.678959     8156.386    3369.0974    4914.0916    3876.0963   -106.43676    538.77353   -708.69024   -4300.9106 
 8903000    115.29053   -5017.5148   -4795.1673   -5017.5148            0    3781.8875    19.955579    19.828672     20.66107     8175.433    4236.3716    3936.7037    3172.5873   -89.904301    529.93104    862.23993   -4344.2517 
 8904000    118.57162   -5020.7987   -4792.1234   -5020.7987            0    3437.4287    19.816496    19.871703    20.835855    8204.8997    4517.3819    2454.4688    3340.4355    84.144262    840.89197    -54.09947   -4380.8005 
 8905000    115.79482    -5019.198   -4795.8779    -5019.198            0    3668.6924    19.885479    19.889166    20.658148    8170.4129    3952.2977    3772.0934    3281.6862   -165.59118      537.469     435.6849   -4358.7272 
 8906000    111.68429    -5012.368   -4796.9755    -5012.368            0     4717.398    19.772568     19.98928    20.547664    8121.2465    4725.1679    4752.4438    4674.5822   -433.94937    549.03827   -304.32516   -4238.2466 
 8907000    120.47106   -5016.4448   -4784.1063   -5016.4448            0    4793.3103    20.019437    19.851465    20.474491    8136.8728     4921.652    4246.2209     5212.058   -249.71064   -72.299923    1045.2602    -4215.294 
 8908000    117.31344   -5032.6878   -4806.4389   -5032.6878            0    3698.6466     19.94245    19.971358    20.464187    8150.4318    3201.4232    3976.4516     3918.065   -421.02421     132.8354    297.01549   -4366.7968 
 8909000    119.83405   -5032.0771    -4800.967   -5032.0771            0     3661.883    19.858164    19.937249    20.589851    8151.8752    5067.4072    2002.8912    3915.3507   -196.93588   -128.69407   -529.59269   -4365.6177 
 8910000    117.49333   -5017.6999   -4791.1042   -5017.6999            0    3433.1646    19.888364    19.943854    20.727796    8221.6934     4056.603    2701.7038     3541.187    324.74948   -84.102123    153.71521   -4379.4507 
 8911000    112.01699   -5018.4464   -4802.4122   -5018.4464            0    4703.2182    19.837173    20.032727    20.587296    8181.2407     6923.111    2728.2447    4458.2988   -440.98511     488.5469    1166.1134   -4241.2477 
 8912000    116.21149    -5013.033   -4788.9093    -5013.033            0    3958.7382    19.914979    19.838515    20.644474    8156.2935     3616.942    5247.2443    3012.0283     22.23544   -816.29088   -119.67472   -4318.0128 
 8913000    116.97487   -5013.7926   -4788.1968   -5013.7926            0    5347.4858    19.838848    19.763872    20.825813    8165.6443     6004.327    5305.7131    4732.4173   -930.98956    875.04077    -228.2184   -4151.3778 
 8914000    113.66436   -5016.7325   -4797.5213   -5016.7325            0    4077.7771    19.766891    19.878542    20.766572    8159.9538    5568.0994    3348.4564    3316.7756    25.118314  -0.37107029    784.46503   -4312.2472 
 8915000    116.71147   -5017.2477   -4792.1598   -5017.2477            0    4230.8065    19.819119    19.979892    20.615723    8163.4934    4768.5035    2971.1359    4952.7801   -872.40668    181.83501   -250.88971   -4288.4562 
 8916000    122.52722   -5019.4186   -4783.1146   -5019.4186            0       4831.3    19.813107    19.925461    20.720518    8180.1556    5979.2156    3571.7709    4942.9136    158.83947   -4.9773561   -156.52642   -4206.7444 
 8917000    117.65017   -5017.9638   -4791.0655   -5017.9638            0    4157.5856    19.850573    19.877352     20.72517     8177.672    5483.3135    2950.6584     4038.785    158.01777   -634.42918   -420.94696   -4295.2196 
 8918000     119.1173   -5004.5862   -4774.8584   -5004.5862            0    4776.0897    19.762425    19.799129    20.868389    8165.3584    4551.3695    5323.1563    4453.7431   -140.91318    822.61766    -544.7377   -4206.1055 
 8919000    117.12535   -4996.9635   -4771.0774   -4996.9635            0    5766.1969    19.960069    19.714183    20.557724    8089.3912    5578.6526    6252.4992    5467.4389   -96.669353    360.15816   -327.36912   -4090.8076 
 8920000    117.61449   -5013.5527   -4786.7232   -5013.5527            0    3986.8241    19.874682    19.865999    20.613478    8138.8279    5007.9401    3121.3528    3831.1793    104.91572    623.47669   -903.92044   -4313.5013 
 8921000    117.07526   -5008.4904   -4782.7009   -5008.4904            0     3384.936    20.041122    19.845007      20.6071    8195.7777     3096.803    3782.7889     3275.216    57.454727   -520.63043    -1202.532   -4378.1097 
 8922000    112.97021   -5013.5738   -4795.7012   -5013.5738            0    5289.4009    19.946339    19.863223    20.528978    8133.5519    5363.6296    5084.1371     5420.436   -427.91147   -267.30845   -389.56184   -4168.2751 
 8923000    115.95044   -5024.4006   -4800.7804   -5024.4006            0    5003.2319    19.886543    19.888704    20.630108    8159.5702    4397.5197    5089.6972    5522.4788    281.46105   -341.13643   -351.49868    -4205.401 
 8924000    118.46576   -5019.2219   -4790.7507   -5019.2219            0    4205.7531    20.006346    19.737843    20.679305    8165.8876    3120.9343    5469.8972    4026.4277   -70.024587   -724.68126    -419.0332   -4289.8829 
 8925000     114.4315   -5014.1113   -4793.4205   -5014.1113            0    4459.1059    19.987359     19.86534      20.5013    8140.1577     4330.477    4298.7767     4748.064    378.81836   -936.49633   -189.21754   -4264.0539 
 8926000    114.64329   -5021.1301   -4800.0309   -5021.1301            0    4799.9144    19.886628    19.977425    20.418939    8112.1097    5039.4945    3327.4996    6032.7492    64.807701     311.3612     -347.729   -4232.1683 
 8927000    113.95525   -5008.3849   -4788.6126   -5008.3849            0    3566.4984    20.010148    19.911173    20.419313    8135.5754    2771.2013    3943.3056    3984.9882   -206.01425    1180.3534    238.09547    -4365.451 
 8928000    118.75125   -5015.1634   -4786.1416   -5015.1634            0    5337.2407    19.898452    19.899696    20.399895    8077.8106    4796.0219    5371.0083    5844.6919    309.83956     398.5837   -125.45975   -4157.3795 
 8929000    113.58817   -4998.4403   -4779.3759   -4998.4403            0    4012.0025    19.961501    19.931795    20.541975    8173.0057    4237.0224     3492.137     4306.848   -313.80784   -484.31645   -1304.6587   -4301.1657 
 8930000    120.61725   -5011.1813   -4778.5608   -5011.1813            0    4561.7465    19.920646    19.847617    20.624333     8154.394    4997.1696    4592.0973    4095.9728   -151.73471   -595.14216    64.315764    -4236.062 
 8931000    116.31334   -5014.6351   -4790.3151   -5014.6351            0     4940.997    19.951427    19.735447    20.636909      8125.79    4765.5348    5817.2271     4240.229   -476.92962    148.88473   -218.52085   -4204.7757 
 8932000    114.54948   -5007.2772   -4786.3589   -5007.2772            0    5166.4623    19.851745     19.83984     20.55161    8094.3636     4705.487    5337.7389    5456.1609   -537.70502   -700.33304   -212.11194   -4176.4684 
 8933000    117.68466   -5030.2508    -4803.286   -5030.2508            0    4383.4968     19.97448    19.668909    20.688682    8128.0912    5210.7093    3676.3155    4263.4657   -462.11968     1139.279    109.03807   -4283.6669 
 8934000    113.50106   -5020.9946   -4802.0983   -5020.9946            0    4458.0768    19.959563    19.735011    20.667006    8140.7793    3274.9165    5828.9206    4270.3932    656.89655   -709.88214    241.41932   -4272.8135 
 8935000    119.36998   -5011.8274   -4781.6123   -5011.8274            0    4521.5923    20.008368     19.86759    20.564959    8174.9423    4528.1455    4240.4609    4796.1704   -26.980648    249.43559    286.41649   -4242.5338 
 8936000    118.82538   -5009.5195   -4780.3548   -5009.5195            0    4228.6645    19.793944    19.953445    20.661973    8160.5982    5314.1229    4041.9808    3329.8897   -273.37813   -906.74398    56.421265   -4277.0847 
 8937000    117.31575   -5026.0928   -4799.8395   -5026.0928            0     3271.804      19.9626    19.794294    20.728701    8190.8543    3613.3103    3280.7017       2921.4   -86.615187   -81.016963   -539.57799   -4409.0055 
 8938000    117.18804   -5007.0308   -4781.0238   -5007.0308            0    6716.9595    19.932316    19.832733    20.516172    8110.2952    5519.2585    7122.8522    7508.7679   -358.35159     334.0669    62.353079   -3986.5396 
 8939000    115.47227   -5028.2303   -4805.5323   -5028.2303            0    4686.7543    20.107836    19.857381    20.478628    8176.8901    2722.4278    5717.8679    5619.9672    -442.8496    244.54402    457.39438   -4246.6296 
 8940000    122.28748   -5011.7678   -4775.9261   -5011.7678            0    4984.9609    19.902744    19.931575    20.558761    8155.5174    4852.9614    4712.4575    5389.4637    68.147845    -387.9287    971.00656   -4183.0156 
 8941000    117.12748   -5010.9048   -4785.0146   -5010.9048            0    4864.4245    19.932099    19.866921    20.567737    8144.6063    5117.8674    4461.1947    5014.2114   -363.14383    633.82312   -260.34595   -4207.2147 
 8942000    119.65266   -5021.2664   -4790.5062   -5021.2664            0    4007.6225    19.922135    19.915631    20.599577    8173.1269    3554.2595    4242.6158    4225.9923   -12.554874   -363.87326   -377.68979   -4312.8109 
 8943000      122.213   -5026.2473   -4790.5493   -5026.2473            0    4301.7493    19.907912    19.965652    20.578378     8179.379    3427.5494    4618.9542    4858.7442   -511.78215    61.697623    149.14645   -4277.4028 
 8944000    124.05835   -5017.6324   -4778.3754   -5017.6324            0     4920.951     19.83351    19.829692    20.677656    8132.3649     5666.576    3717.4962     5378.781   -399.95657    855.75342    1581.9377   -4194.7398 
 8945000    115.78832   -5013.8321   -4790.5246   -5013.8321            0    3139.7358    19.943275    19.824425     20.76347    8209.1279    2953.6833    3998.3367    2467.1874   -533.28751   -248.82472    415.53649   -4414.6301 
 8946000    113.24013   -5014.2935   -4795.9003   -5014.2935            0    3998.6319     19.88091    19.792035    20.839407     8199.966    4406.1396     3793.237    3796.5192   -70.855279   -64.453364   -402.87557   -4317.7116 
 8947000    112.43507   -5005.7166   -4788.8761   -5005.7166            0    3434.1253    19.941286    19.763336    20.775596     8187.794     3205.477     3854.689      3242.21   -247.25124    10.405551    1015.7034   -4378.8053 
 8948000      117.074   -5014.0637   -4788.2766   -5014.0637            0    4438.6472    19.933314    19.819218    20.612718    8143.3159    5573.5935    3730.4705    4011.8776   -361.71867    220.23905   -368.46122   -4261.1344 
 8949000     116.2534   -5004.3904   -4780.1859   -5004.3904            0    2885.2851    19.961208    20.016292    20.557212    8213.6211    3171.3177    3031.2127    2453.3248   -387.52273    903.08975    1115.6125   -4434.5656 
 8950000     117.2435   -5022.1797   -4796.0658   -5022.1797            0    3358.0786    19.925503    19.902987    20.531518    8142.3283    2782.8338    3545.9191     3745.483    326.53684    -30.60012    688.30817   -4397.3023 
 8951000    116.17121   -5015.5286   -4791.4826   -5015.5286            0    4335.5792    20.035101    19.770887    20.495943    8118.6831    1941.1393     6711.316    4354.2824   -375.49593   -425.20438    413.88857   -4278.1385 
 8952000    122.66227   -5023.1403   -4786.5758   -5023.1403            0    5841.5783    19.868327    19.913621    20.424446    8080.9387    5759.6475     5926.393    5838.6942   -340.59631   -328.36338    1372.7236   -4098.1329 
 8953000    111.34829    -5014.502   -4799.7574    -5014.502            0    4091.3856    19.910078    19.943068    20.478393    8131.3151     3282.593    4460.4816     4531.082   -627.13929    1078.4601   -308.44742   -4314.5728 
 8954000    114.79291   -5021.5808    -4800.193   -5021.5808            0     4730.259    20.001119    19.772635    20.578336    8138.2139    4332.4262    5575.3932    4282.9576   -438.93086    930.25125    741.16419   -4238.7704 
 8955000    114.12552    -5028.602   -4808.5013    -5028.602            0    3877.2243    19.827113    19.891724    20.688341    8159.3876    4837.2897    3585.4556    3208.9276   -70.239709    642.35831   -349.04495    -4347.126 
 8956000    111.47006   -5017.9505   -4802.9711   -5017.9505            0    3709.9915      19.8476    19.780153    20.816206    8172.2042     4269.592     3269.559    3590.8236    -191.0237    -302.2499   -347.34864   -4360.8024 
 8957000    117.77372   -5019.1073   -4791.9708   -5019.1073            0    4097.4746    19.906324    19.830069    20.644537    8149.3025    4122.6926    3961.3476    4208.3837    6.3318336    283.46395    340.22421   -4304.9892 
 8958000    115.66729   -5007.3202   -4784.2461   -5007.3202            0    4512.8384    19.909442    19.754412     20.75116    8161.4171    3957.0678    5541.6663    4039.7812   -349.42901    570.61538    122.80819   -4247.1015 
 8959000    112.98097   -5009.7131   -4791.8198   -5009.7131            0       4098.6    19.864159    19.908549    20.655241    8168.4574    3824.1851    3684.6972    4786.9177   -132.94585    254.82261    489.52323   -4303.5594 
 8960000    117.58265   -5003.8623   -4777.0943   -5003.8623            0    3952.1209    19.889185     19.89402    20.624031    8160.4311    3858.2122    4760.2489    3237.9015   -419.13353   -389.32383    812.29284   -4306.7464 
 8961000    118.35654   -5015.1548   -4786.8942   -5015.1548            0    4479.8558    19.918024     19.99067    20.454628    8144.5142     3308.185    5236.2083    4895.1741   -109.73191    337.07065    312.12485   -4254.7797 
 8962000    112.83458   -5005.6596   -4788.0486   -5005.6596            0    4123.3845    19.946623     19.92587    20.454104    8129.5618    4536.3092    3473.2094    4360.6348   -441.34876    329.02131   -21.845451   -4299.1747 
 8963000    117.19556   -5008.0857   -4782.0642   -5008.0857            0     4859.345    19.893854      19.9342    20.546421    8148.0546     3144.492    6664.7762    4768.7669    277.77193    142.17588   -771.31321   -4204.6233 
 8964000    119.86058   -5016.3068   -4785.1456   -5016.3068            0    3946.4014    20.037269    19.932964    20.470789    8176.0775    3906.6849    4238.8461    3693.6733   -975.36378    299.51786    -126.3824   -4314.5779 
 8965000    113.16299   -5027.4837   -4809.2393   -5027.4837            0    5093.0247    19.907927    19.851007    20.509609    8105.2417    6522.0994    2836.3243    5920.6506    326.11471    583.16357   -182.58102     -4207.21 
 8966000    111.93898   -5014.8955   -4799.0118   -5014.8955            0    3533.5716      19.9779    19.894047    20.644327    8204.9074    2149.1756    4857.0671     3594.472   -429.15885   -125.58453   -453.07207    -4376.184 
 8967000    113.11567   -5027.5507   -4809.3976   -5027.5507            0    4757.9076    19.813196    19.881136    20.702556      8154.92    5350.3851    4973.3658     3949.972    61.159083   -39.881781    991.80279   -4243.5342 
 8968000    120.00268   -5012.2755   -4780.8403   -5012.2755            0    4832.8252    19.707561     20.00897    20.739095    8178.0062    4520.6979    6086.1641    3891.6136   -219.72871   -274.55872    1316.3455   -4204.4397 
 8969000    117.40279   -5012.8993   -4786.4781   -5012.8993            0     4197.223    19.960103    19.820711    20.695158    8187.4896    3103.9643     5770.017    3717.6876   -169.51926    263.20455    1094.9163    -4285.304 
 8970000    113.24856   -5024.4945   -4806.0851   -5024.4945            0    3627.0721    19.856525    19.961013    20.675819    8194.9922    3947.4642    3328.0894    3605.6627   -220.80988    -7.449652    -458.1979   -4372.5936 
 8971000    115.67965   -5014.2669    -4791.169   -5014.2669            0     4172.544    19.932386    19.826006    20.640471    8156.6934     3524.291    4546.4738    4446.8673   -103.74984    498.88729   -287.43971   -4294.8156 
 8972000    119.79962   -5029.0087   -4797.9651   -5029.0087            0    4755.2745    19.933572    19.893553    20.549817     8149.021    4916.7279    4050.1654    5298.9301   -68.132052    -583.7507   -130.52341    -4232.824 
 8973000    117.32155   -5027.3042   -4801.0397   -5027.3042            0    4318.0825    19.831677    19.854756    20.712262    8155.5175    3945.6543    5052.0099    3956.5833   -76.480978    15.153693    288.23693   -4287.4476 
 8974000    116.18042   -5017.4161   -4793.3524   -5017.4161            0    3147.2065    19.880096    20.009201    20.583716      8187.89    3194.5632    1989.4888    4257.5674   -100.23206    1216.4825   -32.995272   -4417.5383 
 8975000    111.07831   -5014.9257   -4800.7019   -5014.9257            0    3664.7769    19.974641    20.029253    20.433493    8174.9736    2231.7475    3956.2574    4806.3257   -598.95299   -334.41652   -89.312078   -4363.7739 
 8976000     113.6863   -5009.6335   -4790.3799   -5009.6335            0    4487.8392    20.008366    19.796421    20.613108    8164.7293    6708.9666    2749.1064    4005.4447    152.42983     897.5443    81.673759    -4255.994 
 8977000    126.65792   -5006.3156   -4762.0452   -5006.3156            0    4085.9172    19.837143    19.954273     20.60186    8154.9534      3762.68    4173.8263    4321.2454    34.520662    83.303636    765.72759   -4276.1004 
 8978000    121.72361   -5015.5343   -4780.7801   -5015.5343            0     4038.165    19.973515    19.944922    20.575944    8196.8433    3346.0859    5368.7041    3399.7049   -5.6323347    636.43325   -224.89089   -4298.0475 
 8979000    120.64837   -5013.2374   -4780.5569   -5013.2374            0    4081.0578    19.960725    19.974541     20.39891    8133.1747    4001.1453    3531.9295    4710.0986     79.49072    598.72738   -203.11838   -4296.4862 
 8980000    125.03043   -5014.6459   -4773.5142   -5014.6459            0    4831.9754    19.965518    19.924585    20.459397    8138.8434    3858.1469    4949.6237    5688.1556   -584.94809     1484.306    46.903275   -4199.9748 
 8981000    122.72955   -5016.5832   -4779.8889   -5016.5832            0    4342.2419    20.003841    19.735857    20.576989    8123.6498    3598.9078    4590.3031    4837.5148   -190.93869    266.43154    427.04266   -4265.4414 
 8982000    117.28402   -5015.2856   -4789.0935   -5015.2856            0    3960.2491    19.810206    19.948654     20.68155    8173.0785    3746.2257    4368.2342    3766.2874     168.3126   -390.26913    -105.5597   -4317.0478 
 8983000    118.32067   -5027.4155   -4799.2242   -5027.4155            0    3821.7169    19.939827    19.779816    20.681104    8156.7538    3288.9108    4486.5843    3689.6558   -271.40842   -84.499607     861.7039   -4344.6008 
 8984000    118.14349   -5013.5129   -4785.6632   -5013.5129            0    4008.0704     19.87785     19.83133    20.691943    8156.8509    4584.8491     4775.359    2664.0032   -1253.3058    249.80568   -59.559732    -4308.866 
 8985000    112.35702   -5013.8722   -4797.1822   -5013.8722            0    5217.1876    19.858577    19.792815    20.566146    8083.6707    4532.3259    5858.4699     5260.767   -483.09735   -799.39145    1187.8918   -4182.1173 
 8986000    113.25272   -5020.1116   -4801.6942   -5020.1116            0      4136.93    19.989779    19.845552    20.636082    8186.5031     5170.918    3703.4938    3536.3781   -477.90219    632.11259   -44.637841   -4307.7789 
 8987000    116.27295   -5015.4819   -4791.2398   -5015.4819            0    4905.2502    19.856596    19.884447    20.662506    8158.3305    5532.2206    4549.4951    4634.0348   -117.88052    346.00068   -374.28616   -4207.6088 
 8988000    119.88329   -5016.7295   -4785.5245   -5016.7295            0    5297.3432    19.859024    19.992758    20.517052    8146.0219    5921.2578    4294.9942    5675.7777    -417.6308    588.23847    818.01065   -4156.1928 
 8989000    114.54277   -5011.5963   -4790.6909   -5011.5963            0    3206.3303    20.003625    19.943749    20.476087    8168.8792    3266.5931    2390.2904    3962.1073   -96.733897   -899.63477    670.27026   -4408.7056 
 8990000    120.92954   -5016.5252   -4783.3025   -5016.5252            0    4115.3613    19.930116    19.794894    20.600144     8127.056    2864.2343    5791.7658    3690.0838    161.09196    212.25606   -659.45025   -4295.5302 
 8991000    109.58763   -5010.7218   -4799.3728   -5010.7218            0    3787.4687    19.938415    19.901405    20.656126     8196.402     3450.026    4592.8405    3319.5394     356.5546    529.00031    895.68723   -4346.6335 
 8992000    117.21005   -5017.4723   -4791.4229   -5017.4723            0    5410.4665    19.773339     19.94433    20.645012    8141.6907    5932.7571    4861.8945     5436.748    215.96074    746.33513    755.96691   -4148.9938 
 8993000    118.39056   -5011.4909   -4783.1647   -5011.4909            0    4185.3662    19.977474    19.802201    20.556535    8132.1231    4021.5741    3929.8099    4604.7146   -383.11505    715.77542    545.18716   -4286.7858 
 8994000    117.14315   -5008.0298   -4782.1094   -5008.0298            0    4038.6727    19.900091     19.82998    20.633765    8142.4637    4461.6846     3599.022    4055.3114     207.9327   -1084.9979    613.03293   -4302.5191 
 8995000    123.50382   -5011.6358   -4773.4483   -5011.6358            0    4014.7297    19.918426    19.736596    20.827338    8187.6834    2935.9979    5791.5947    3316.5964   -162.96033    -645.7967    50.792786   -4294.0536 
 8996000    119.85029   -5014.7926   -4783.6512   -5014.7926            0    4437.1627    19.802041      19.8448    20.776854    8164.6292    5808.2424     4037.205    3466.0409    -75.16338    38.253649   -7.6966075   -4255.3061 
 8997000    119.09254   -5021.7522   -4792.0722   -5021.7522            0    4174.0227    19.904013    19.780904     20.69364    8147.4867    5080.9212    4088.5016    3352.6452   -371.84576    730.54292   -789.68494   -4296.1034 
 8998000    120.35446   -5012.9205   -4780.8068   -5012.9205            0    4541.8228    19.959354    19.791251    20.731852    8189.5081    2751.7661    6308.3898    4565.3124   -412.46593   -568.91854    715.31253   -4238.3516 
 8999000    113.07337   -5018.5279   -4800.4564   -5018.5279            0    5124.5281    19.818821    19.952449    20.613437    8151.2542     4958.995    4303.5414    6111.0479   -84.135671    794.66824    536.17052   -4191.2644 
 9000000    122.83644   -5008.2844    -4771.384   -5008.2844            0    3710.1697    19.867563    19.853359    20.655492     8147.308     3459.416    4524.2026    3146.8906    287.88787      304.742    377.28267   -4330.5412 
Loop time of 339.3 on 64 procs for 250000 steps with 972 atoms

Performance: 127.321 ns/day, 0.188 hours/ns, 736.811 timesteps/s
99.1% CPU use with 64 MPI tasks x 1 OpenMP threads

MPI task timing breakdown:
Section |  min time  |  avg time  |  max time  |%varavg| %total
---------------------------------------------------------------
Pair    | 18.934     | 27.932     | 37.97      |  87.0 |  8.23
Bond    | 0.26455    | 0.27421    | 0.28601    |   0.8 |  0.08
Kspace  | 130.22     | 140.38     | 149.78     |  39.4 | 41.37
Neigh   | 0.82627    | 0.85047    | 0.86486    |   0.9 |  0.25
Comm    | 80.703     | 81.923     | 83.733     |   9.4 | 24.14
Output  | 0.63003    | 0.63125    | 0.63276    |   0.0 |  0.19
Modify  | 81.016     | 82.458     | 83.253     |   6.5 | 24.30
Other   |            | 4.856      |            |       |  1.43

Nlocal:        15.1875 ave          19 max          10 min
Histogram: 1 2 3 10 5 9 18 10 3 3
Nghost:        2280.55 ave        2319 max        2248 min
Histogram: 5 1 8 12 10 13 7 4 3 1
Neighs:        4828.75 ave        6491 max        3018 min
Histogram: 2 1 9 8 9 14 4 10 5 2

Total # of neighbors = 309040
Ave neighs/atom = 317.94239
Ave special neighs/atom = 2.0000000
Neighbor list builds = 2429
Dangerous builds = 0

unfix		3
unfix		2
unfix		1

write_data	data.final.${pid}
write_data	data.final.1
System init for write_data ...
PPPM initialization ...
  extracting TIP4P info from pair style
  using 12-bit tables for long-range coulomb (../kspace.cpp:340)
  G vector (1/distance) = 0.37176081
  grid = 24 24 24
  stencil order = 5
  estimated absolute RMS force accuracy = 0.0035649748
  estimated relative force accuracy = 1.0735816e-05
  using double precision FFTW3
  3d grid and FFT values/proc = 2197 216
Last active /omp style is kspace_style pppm/tip4p/omp
WARNING: Not all mixed pair coeffs generated from mixing. Use write_data with 'pair ij' option to store all pair coeffs. (../write_data.cpp:312)

write_restart   restart.lmp.${pid}
write_restart   restart.lmp.1
System init for write_restart ...
PPPM initialization ...
  extracting TIP4P info from pair style
  using 12-bit tables for long-range coulomb (../kspace.cpp:340)
  G vector (1/distance) = 0.37176081
  grid = 24 24 24
  stencil order = 5
  estimated absolute RMS force accuracy = 0.0035649748
  estimated relative force accuracy = 1.0735816e-05
  using double precision FFTW3
  3d grid and FFT values/proc = 2197 216
Last active /omp style is kspace_style pppm/tip4p/omp
Total wall time: 0:05:39
