LAMMPS (30 Jul 2021)
  using 1 OpenMP thread(s) per MPI task
package omp 0
using multi-threaded neighbor list subroutines
echo both

include		in.partitions
variable        pid world 0
include		in.temp
variable        temperature equal 269.59
variable	tempDamp equal 100.0
include		in.pressure
variable        pressure equal 11500.0
variable        pressureDamp equal 1000.0 # This is 1 ps
include		in.seed
variable        seed world 745823

units		real
atom_style	full
read_restart    restart.lmp.${pid}
read_restart    restart.lmp.0
Reading restart file ...
  restart file = 30 Jul 2021, LAMMPS = 30 Jul 2021
  restoring atom style full from restart
  triclinic box = (-3.0910536 -0.16403854 -0.0093295742) to (14.701053 22.744038 19.239328) with tilt (-0.099040070 -6.7915165 -0.10407478)
  4 by 4 by 4 MPI processor grid
  restoring pair style lj/cut/tip4p/long/omp from restart
  restoring bond style harmonic/omp from restart
  restoring angle style harmonic/omp from restart
  1008 atoms
  672 bonds
  336 angles
Finding 1-2 1-3 1-4 neighbors ...
  special bond factors lj:    0        0        0       
  special bond factors coul:  0        0        0       
     2 = max # of 1-2 neighbors
     1 = max # of 1-3 neighbors
     1 = max # of 1-4 neighbors
     2 = max # of special neighbors
  special bonds CPU = 1.123 seconds
  read_restart CPU = 1.498 seconds

include 	in.setup
variable	out_freq equal 1000
variable	out_freq2 equal 10000
variable	out_freq3 equal 1000

timestep	2.0

neigh_modify    delay 7 every 1

include		in.tip4p
# This is TIP4P/Ice

# create groups ###
group ox type 2
336 atoms in group ox
group hy type 1
672 atoms in group hy

# set charges - beside manually ###
set group ox charge -1.1794
Setting atom values ...
  336 settings made for charge
set group hy charge 0.5897
Setting atom values ...
  672 settings made for charge

# ### TIP3P Potential Parameters ###
pair_style lj/cut/tip4p/long/omp 2 1 1 1 0.1577 8.5
pair_coeff 1 1*2 0.000 0.000
pair_coeff 2 2 0.21084 3.1668
bond_style  harmonic
bond_coeff  1 450 0.9572
angle_style harmonic
angle_coeff 1 55 104.52
kspace_style pppm/tip4p/omp 1.0e-5
pair_modify tail yes

thermo          ${out_freq}
thermo          1000
thermo_style    custom step temp pe etotal epair emol press lx ly lz vol pxx pyy pzz pxy pxz pyz enthalpy

restart 	${out_freq3} restart.lmp.${pid} restart2.lmp.${pid}
restart 	1000 restart.lmp.${pid} restart2.lmp.${pid}
restart 	1000 restart.lmp.0 restart2.lmp.${pid}
restart 	1000 restart.lmp.0 restart2.lmp.0


include         in.dump
dump            myDump all atom ${out_freq2} dump.water.${pid}
dump            myDump all atom 10000 dump.water.${pid}
dump            myDump all atom 10000 dump.water.0
dump            myDump2 all dcd ${out_freq2} dump.dcd
dump            myDump2 all dcd 10000 dump.dcd
dump_modify     myDump append yes
dump_modify     myDump2 append yes


variable natoms 	equal  "count(all)"                        # NUMBER ATOMS
variable H      	equal  "enthalpy/v_natoms"                 # ENTHALPY-per-atom
variable Vol      	equal  "vol/v_natoms"                 # volume-per-atom
fix AVG all 		ave/time ${out_freq} 1 ${out_freq} v_Vol v_H file vol_enthalpy.dat
fix AVG all 		ave/time 1000 1 ${out_freq} v_Vol v_H file vol_enthalpy.dat
fix AVG all 		ave/time 1000 1 1000 v_Vol v_H file vol_enthalpy.dat



fix 		1 all shake 1e-6 200 0 b 1 a 1
       0 = # of size 2 clusters
       0 = # of size 3 clusters
       0 = # of size 4 clusters
     336 = # of frozen angles
  find clusters CPU = 0.414 seconds
fix             2 all nph tri ${pressure} ${pressure} ${pressureDamp}
fix             2 all nph tri 11500 ${pressure} ${pressureDamp}
fix             2 all nph tri 11500 11500 ${pressureDamp}
fix             2 all nph tri 11500 11500 1000
fix             3 all temp/csvr ${temperature} ${temperature} ${tempDamp} ${seed}
fix             3 all temp/csvr 269.59 ${temperature} ${tempDamp} ${seed}
fix             3 all temp/csvr 269.59 269.59 ${tempDamp} ${seed}
fix             3 all temp/csvr 269.59 269.59 100 ${seed}
fix             3 all temp/csvr 269.59 269.59 100 745823


run             250000
PPPM initialization ...
  extracting TIP4P info from pair style
  using 12-bit tables for long-range coulomb (../kspace.cpp:340)
  G vector (1/distance) = 0.37928284
  grid = 24 27 32
  stencil order = 5
  estimated absolute RMS force accuracy = 0.0024603238
  estimated relative force accuracy = 7.4091921e-06
  using double precision FFTW3
  3d grid and FFT values/proc = 3825 384
Last active /omp style is kspace_style pppm/tip4p/omp
Neighbor list info ...
  update every 1 steps, delay 7 steps, check yes
  max neighbors/atom: 2000, page size: 100000
  master list distance cutoff = 10.8154
  ghost atom cutoff = 10.8154
  binsize = 5.4077, bins = 5 5 4
  1 neighbor lists, perpetual/occasional/extra = 1 0 0
  (1) pair lj/cut/tip4p/long/omp, perpetual
      attributes: half, newton on, omp
      pair build: half/bin/newton/tri/omp
      stencil: half/bin/3d/tri
      bin: standard
Per MPI rank memory allocation (min/avg/max) = 9.315 | 9.328 | 9.339 Mbytes
Step Temp PotEng TotEng E_pair E_mol Press Lx Ly Lz Volume Pxx Pyy Pzz Pxy Pxz Pyz Enthalpy 
18000000    269.99675   -4775.6167   -4235.5898   -4775.6167            0    13282.532    17.792106    22.908076    19.248657    7845.4239    14043.457    14526.915    11277.224     1433.511    196.38005   -1603.1392   -2715.8362 
18001000    254.50139   -4784.4811   -4275.4469   -4784.4811            0    11495.058    17.734357    23.055522    19.205829    7852.7808    13101.247    11223.292    10160.634   -2515.1048   -711.94251   -2105.9957   -2958.9783 
18002000    268.46053   -4801.5001   -4264.5459   -4801.5001            0     10412.09    17.658577    23.260503    19.173223    7875.3516     10526.45    10930.515    9779.3042   -1271.4834   -1107.6726   -2329.7178   -3068.6765 
18003000    267.47142   -4808.2517   -4273.2758   -4808.2517            0    12777.161    17.705782    22.837598     19.31444    7809.9395    13398.978    13368.408    11564.097     906.2922    1295.7154    526.47587   -2817.9578 
18004000    256.69982   -4829.7424    -4316.311   -4829.7424            0    9430.4187    17.892872    22.930488    19.224981    7887.8612    9923.8265    9055.2247     9312.205     437.5912    20.063404    601.37534   -3231.4699 
18005000    276.46917   -4820.3413   -4267.3688   -4820.3413            0    9327.2549    17.701645    22.962321    19.382883    7878.5769    10285.451    9072.3012    8624.0123     2288.179   -618.25382    1712.4139   -3195.6583 
18006000    275.17224   -4799.7879   -4249.4094   -4799.7879            0    11758.672    17.866075     22.94781    19.132523    7844.0911    8029.2007    12489.219    14757.597     559.6188    1224.4337    547.99627   -2904.2406 
18007000    273.60177   -4810.5065   -4263.2692   -4810.5065            0    11040.833    17.770237    23.098451    19.160126    7864.5604    10550.937    11252.708    11318.854    1068.0047    1262.2742    2993.4755   -2996.9237 
18008000    266.66071   -4797.2655   -4263.9112   -4797.2655            0    11178.969    17.767708    23.086734    19.140659    7851.4666     11511.84     10488.79    11536.275   -491.67765       1856.1   -148.46716   -2983.8568 
18009000     278.2621   -4796.3411   -4239.7826   -4796.3411            0    10062.731     17.92582    23.117744    19.081135    7907.3084    10422.366    9056.2204    10709.608     778.7007    1060.6763    586.19856   -3079.3485 
18010000    277.90466   -4798.3052   -4242.4615   -4798.3052            0    12044.853    17.591326    23.080852    19.296964    7835.0071     12140.84    11749.662    12244.058   -25.976946    461.99509   -730.88614   -2866.1498 
18011000    282.57615   -4838.0565   -4272.8693   -4838.0565            0    11099.601    17.664678    23.134561    19.130866    7818.1076     11056.04    10929.156    11313.608   -1340.1862   -343.59626   -2030.4045    -3007.303 
18012000    282.47259   -4782.6657   -4217.6857   -4782.6657            0    11221.241    17.876946    22.870909    19.170781    7838.2037    12238.077    11495.747    9929.9004    1117.2231   -252.52286   -532.62096   -2934.9613 
18013000    278.01847   -4773.9235   -4217.8523   -4773.9235            0    12105.794    17.942002    22.769912    19.191359    7840.3962    11710.319    13114.608    11492.455    1286.1433    287.30055   -2603.1486   -2833.6257 
18014000    272.26298   -4812.0144   -4267.4548   -4812.0144            0    10974.095    17.862433    22.802222    19.255016    7842.6287    9801.4798    11983.193    11137.612   -921.97694    1166.9915   -657.68708   -3012.2741 
18015000    269.30804    -4798.516   -4259.8666    -4798.516            0    11610.754    17.879464    22.862734    19.158977    7831.6811    8103.2436    12631.251    14097.766   -38.842966   -41.335211   -620.39874   -2933.7208 
18016000    276.29246   -4814.5225   -4261.9034   -4814.5225            0    10700.504    17.960829    22.618564    19.327643    7851.8193    9645.6178    12536.333    9919.5601    1082.7275   -489.36048     400.6136   -3036.5809 
18017000    274.54141   -4811.2675   -4262.1507   -4811.2675            0    13361.494    17.948867    22.606048    19.241828    7807.4283    14046.766     13944.15    12093.566   -1664.5233    417.07133   -2148.5199   -2740.7665 
18018000    268.68883   -4840.6327   -4303.2218   -4840.6327            0    9115.3716    17.929043    22.932272    19.273305    7924.2903    8282.1305    10050.492    9013.4921    890.58452    801.96357    2415.5209   -3249.7798 
18019000    267.02418   -4798.3092   -4264.2278   -4798.3092            0     12211.37    17.704438     23.02053    19.230722    7837.7798    12895.296    11389.542    12349.273    -7.059079   -1642.5466    740.54842   -2868.3952 
18020000    270.71481   -4811.6993   -4270.2363   -4811.6993            0    10700.689      17.8445    22.983741    19.121205    7842.2442     9590.994      10655.3    11855.774    801.71243   -2068.5337   -618.35869   -3046.3868 
18021000    259.63431   -4815.8879   -4296.5872   -4815.8879            0    10819.464    17.716029    23.119729    19.179507    7855.7301    12143.133    10909.246    9406.0128   -566.04041    1201.9166   -499.28541   -3057.0254 
18022000    259.74485   -4789.6093   -4270.0875   -4789.6093            0    10595.595    17.931045    23.031428    19.061925    7872.1476    11567.168    11502.673    8716.9439    164.26868    696.14881    -818.5477   -3053.6369 
18023000    260.77859   -4816.3656   -4294.7762   -4816.3656            0    10422.523    17.779627    23.043093    19.178564    7857.4117    10977.818    10513.635    9776.1164    355.17834   -820.13107  -0.47099007   -3100.4354 
18024000    283.70399   -4765.5184   -4198.0753   -4765.5184            0    13098.972    17.783155    22.910336    19.145473    7800.2115    12964.486    12406.835    13925.594   -715.11313   -1522.1381   -1476.1663   -2707.9614 
18025000    280.65475   -4799.8963   -4238.5521   -4799.8963            0     9932.848    17.774223    22.905062    19.379354    7889.7166    13343.876    8414.9587    8039.7095   -370.89468   -1242.7184   -775.19851   -3095.6446 
18026000    274.06607   -4793.5424   -4245.3764   -4793.5424            0    11240.025    18.004548     22.73405    19.203413    7860.2699    10594.813     12281.46    10843.802    304.33153    597.86684    1110.3215   -2956.8877 
18027000     281.3753   -4786.6547   -4223.8694   -4786.6547            0      10822.5     17.75446    22.738684    19.423908    7841.6852     10817.04    12894.113    8756.3472    -701.7958    307.60616   -477.07454   -2986.1765 
18028000    268.17944    -4817.196    -4280.804    -4817.196            0    10132.961    17.825849     23.02005    19.135686    7852.3656    10420.078    10311.422    9667.3846   -51.570687   -1460.5973    144.04553   -3120.3904 
18029000     263.9174   -4790.1782   -4262.3108   -4790.1782            0    10705.804    17.799799    22.844949    19.339413     7864.092    8564.3585    12288.603    11264.452    131.59319   -308.54847    356.87185   -3034.4651 
18030000    277.63198   -4794.6225   -4239.3242   -4794.6225            0      12887.4    17.879732    22.847876    19.133567    7816.3283    11931.797    13497.428    13232.974    1353.6589    1192.7023    3295.6552   -2770.2492 
18031000    271.94799   -4769.0228   -4225.0932   -4769.0228            0    9838.5331    17.822041    22.932912    19.206146    7849.7692    11025.402    10019.929    8470.2691   -610.69715   -671.25101   -995.35174   -3098.7698 
18032000    277.34711   -4790.5638   -4235.8354   -4790.5638            0    13233.888    17.676749    22.841465    19.256947    7775.2396     14729.17     13080.33    11892.164    -862.1078    59.635634   -1527.7142   -2735.1933 
18033000    272.72407   -4806.7468    -4261.265   -4806.7468            0    12825.971    17.688591    23.051822    19.139959    7804.3997    13464.214    13248.057    11765.642    -3.758418   -465.91784    2401.4881   -2801.4237 
18034000    270.83798   -4833.2511   -4291.5417   -4833.2511            0    12977.929    17.797822    22.746356    19.239419    7788.8017    13591.549    12385.763    12956.475    597.17668    720.56008   -444.85643   -2817.3569 
18035000    272.20957   -4835.9376   -4291.4848   -4835.9376            0    12452.348    17.811319    23.006611    19.018346    7793.3017    11293.202    12326.773    13737.068   -701.85912   -1161.7176   -1395.8038   -2876.1845 
18036000    268.66937   -4831.5084   -4294.1365   -4831.5084            0    11992.111    17.798944    22.656194     19.30198    7783.6457    12604.807    13348.662    10022.866    -1064.826    281.32063   -99.632299   -2932.8341 
18037000     273.0002   -4801.0413   -4255.0072   -4801.0413            0    12556.243     17.92164    22.682097    19.300697    7845.7407    10213.605    13382.352    14072.772     1180.544   -187.46507    897.53491   -2818.2958 
18038000    277.30956   -4827.6478   -4272.9944   -4827.6478            0    11797.604    17.724558    22.978193    19.229907    7831.9238    10859.426    12086.322    12447.063   -1604.3854   -1215.6105    324.29247   -2925.4653 
18039000    265.52127   -4809.3259   -4278.2506   -4809.3259            0    9724.0545    17.808001    23.091218    19.186102    7889.4871     11580.62    8266.7637    9324.7798    511.34532    24.629579   -1181.4436   -3159.4001 
18040000    275.81551   -4818.4873   -4266.8223   -4818.4873            0    9509.8675    17.871211    23.044612    19.161084    7891.2076    7435.2445     11366.88    9727.4774   -1854.7744    1599.0765    -1897.471   -3172.3776 
18041000    265.60879   -4792.0876   -4260.8372   -4792.0876            0    10845.349    17.755382    23.117513    19.159689    7864.2914    10772.957    11046.664    10716.426    1195.3177   -1262.2998   -712.89939   -3016.9557 
18042000    281.90684   -4813.1785     -4249.33   -4813.1785            0    14368.983    17.632132     23.09044    18.976546    7725.9911    14585.925    14489.261    14031.762   -866.26943   -563.01327     446.9523   -2630.2955 
18043000    274.22611   -4788.2663   -4239.7802   -4788.2663            0    11269.684    17.590912    23.363928    19.045893    7827.7249     10237.62    10597.615    12973.818   -224.14216    969.27404    952.28584   -2953.2405 
18044000     262.7375   -4827.6805    -4302.173   -4827.6805            0    9801.8789    17.801889    23.214996    19.007928    7855.4214    9977.2608     10263.32    9165.0562   -721.23202    744.89273   -1001.6215   -3179.2378 
18045000    261.47658   -4825.0806   -4302.0951   -4825.0806            0    10469.844    17.533307    23.128971    19.358913    7850.5689    12016.199    9310.5836     10082.75    1288.6391   -307.28893    618.87118   -3103.3765 
18046000    270.49571   -4828.2958    -4287.271   -4828.2958            0    10072.888    17.763748    23.081241    19.150328    7851.8135    8138.0657    10511.892    11568.707    919.33853     366.7245   -1033.9431    -3133.818 
18047000    273.62355   -4817.8837   -4270.6028   -4817.8837            0    10003.098     17.68997    23.169522    19.203257     7870.803    10633.997    9218.7951    10156.502    234.80285    95.524077   -850.52638   -3122.3713 
18048000    271.39706   -4831.8112   -4288.9835   -4831.8112            0    11879.342     17.81254    23.041408    19.031026    7810.8281    10548.396    13043.131    12046.499   -295.07477    1037.8344   -742.05933    -2935.773 
18049000    276.30609   -4797.9133   -4245.2669   -4797.9133            0    13199.964    17.832599    22.884205    19.220565    7843.6213    13148.025    13732.234    12719.632   -938.53911    344.58466    520.39804   -2735.3076 
18050000     264.1879   -4809.2883   -4280.8799   -4809.2883            0    12584.153     17.90826    22.778184    19.119709    7799.2668    11736.091    13969.303    12047.066   -737.69226   -609.54392      -117.32   -2849.5041 
18051000    284.85054    -4768.749   -4199.0127    -4768.749            0     11444.63    17.799595    22.937709    19.318422     7887.363     10196.44    11864.967    12272.484    374.59534   -1528.2571    1191.1196   -2882.5472 
18052000    264.66842   -4813.9537   -4284.5842   -4813.9537            0    12974.989    17.834586    22.736598    19.235054    7799.7724    12696.391    13875.077    12353.498    97.012434   -75.968409   -120.05791   -2808.6575 
18053000    280.89118   -4865.9447   -4304.1277   -4865.9447            0    12671.862    17.867737    22.835402    19.124004    7802.9179    12994.845    12415.665    12605.075    561.64428   -887.24972    1559.7198   -2862.1008 
18054000    284.17564   -4793.8284    -4225.442   -4793.8284            0     11131.77    17.746622    22.979622    19.246449    7848.9074    12363.572    9525.8453    11505.894    342.43701   -864.00219   -1558.2368   -2951.2076 
18055000    280.93051   -4811.9708    -4250.075   -4811.9708            0    11448.028    17.819679     22.95187    19.169645     7840.288    12923.777    10848.016    10572.292    327.19676   -428.13848   -144.96256   -2941.0782 
18056000      280.489   -4780.4357    -4219.423   -4780.4357            0    13101.683    17.817258    22.864281    19.253481    7843.4598    12511.243     13677.14    13116.666   -337.80951    617.74444    622.18945   -2720.7371 
18057000    249.33981   -4799.7316   -4301.0212   -4799.7316            0    12690.609    17.985252     22.85997    19.062748    7837.5022    11878.921    12993.985    13198.922    1922.7081   -18.590895   -604.65882   -2850.4601 
18058000    261.81635    -4784.678    -4261.013    -4784.678            0    12291.127    17.634944    22.980073    19.309549    7825.2392    13130.696    11903.046    11839.641    54.098437    -465.4875    775.09934   -2858.3116 
18059000    261.34611   -4788.2854   -4265.5609   -4788.2854            0    11438.439    17.918902    22.913089    19.116479    7848.7944    9593.6397    12434.443    12287.234    1861.9812    445.96154    13.821082   -2956.2415 
18060000    267.79587   -4808.6711   -4273.0463   -4808.6711            0     11297.45     17.70684      22.8819    19.371261    7848.5787    12604.389    12064.489    9223.4707    1144.5569    669.96359   -2353.3333    -2979.901 
18061000    267.45404   -4775.2284   -4240.2873   -4775.2284            0    12057.431    17.834423    22.993681    19.141563     7849.554    12471.791    11913.379    11787.123   -1711.0008   -660.50498    386.84846   -2859.9804 
18062000    284.00543   -4791.7252   -4223.6792   -4791.7252            0    9585.8124    17.807125    22.970037    19.283346    7887.4732    10166.201    8682.6798    9908.5567   -293.30252    443.50341   -988.38017   -3121.0164 
18063000    282.23204   -4786.5873   -4222.0884   -4786.5873            0    10201.479    17.651725    23.216212    19.187762    7863.2635    11557.792    8673.8422    10372.802   -548.93003    277.83099   -1179.7285   -3052.2069 
18064000    257.76285   -4784.9455    -4269.388   -4784.9455            0    11262.115    17.456425    23.111266    19.398315    7826.0578    13979.297    10542.406    9264.6428   -1093.1147    271.75332   -1701.4175   -2983.9862 
18065000    264.34115   -4818.8327   -4290.1178   -4818.8327            0    12414.209    17.964111    22.891348    19.056299    7836.3831    11877.178     12011.43     13354.02   -703.71958   -264.24284   -492.15549   -2871.3523 
18066000    268.18385   -4755.2906   -4218.8897   -4755.2906            0    11394.989    17.650152     22.97857    19.319232    7835.4022    13118.452    11217.546    9848.9677    777.47515    358.43959    2154.2044   -2916.7695 
18067000    260.15393   -4806.1636   -4285.8236   -4806.1636            0    11320.348    17.882911    22.857075    19.162962    7832.8809    9081.0188    12892.716    11987.309   -384.48537   -1461.6859   -299.45987   -2992.6489 
18068000    279.83661   -4813.7198    -4254.012   -4813.7198            0     11796.96    17.717438     23.04044     19.13045    7809.3858    12048.266    12363.104     10979.51   -14.209184    1216.1767   -409.30203    -2910.434 
18069000    259.29111    -4806.209   -4287.5947    -4806.209            0    14174.258     17.76709    22.935443    18.992794    7739.4893    12305.422    15082.875    15134.478   -856.17697    732.14616    268.73816   -2687.7106 
18070000    272.66918   -4783.9085   -4238.5365   -4783.9085            0    11912.105    17.397293     23.32877    19.230393    7804.7983    13511.578    11557.309    10667.428    1464.9256    108.19409    2251.9262   -2882.6414 
18071000    281.77727   -4825.5479   -4261.9585   -4825.5479            0    9817.1945    17.758794    23.280845    19.031758    7868.4849    9125.1121    9470.7349    10855.737   -1236.6158    486.35212   -960.43436   -3135.3983 
18072000    273.78653   -4756.8249    -4209.218   -4756.8249            0    11026.014    17.806764    23.130534    19.138969    7882.9579    11041.657    10693.013    11343.374    2829.8689    87.342716    1319.0237   -2941.6138 
18073000    267.03577   -4844.3734   -4310.2688   -4844.3734            0     10047.32    17.828181    22.999922    19.143881    7849.8865    8871.5456    10998.674     10271.74    13.535374    1606.7107   -161.63942   -3160.0261 
18074000    269.20226   -4847.0794   -4308.6417   -4847.0794            0    9783.1191    17.753082    22.895283    19.313763    7850.3074    8016.5614    11073.565    10259.231     37.31111   -608.31014    236.68724   -3188.5852 
18075000    265.89325    -4811.112   -4279.2926    -4811.112            0    12005.454    18.052473    22.678317    19.152554    7841.0497    10703.663    12808.132    12504.566    881.76066    999.79574    525.22075    -2906.425 
18076000    265.70731   -4789.1661   -4257.7187   -4789.1661            0    10409.948    18.021531     22.48737    19.440342    7878.3318    8896.9705    11540.759    10792.113    288.93521    -282.6275    137.60868   -3061.6429 
18077000    258.86808   -4836.2681      -4318.5   -4836.2681            0    10083.085    18.064811    22.569016    19.223427    7837.4874     9166.911     11413.61    9668.7331    921.19512    263.27461    485.51096   -3165.9861 
18078000    288.26257   -4800.1731   -4223.6123   -4800.1731            0    11208.394    17.882289    22.698881      19.4087    7878.1455    11008.746    11525.174    11091.263   -817.18519   -1035.3213   -1628.0356   -2935.8276 
18079000    261.44706   -4802.1695   -4279.2431   -4802.1695            0    12317.698    17.892636    22.694472    19.230342     7808.748    11674.928    13023.395     12254.77   -193.37247    -52.95612    2.5263367   -2876.4719 
18080000    282.80106   -4805.0429   -4239.4059   -4805.0429            0    12495.242    17.817758    22.560003    19.408742    7801.7064    13138.599    12722.897     11624.23    457.23934     234.8389    1901.9247   -2817.6987 
18081000     267.3926   -4792.9774   -4258.1592   -4792.9774            0    11205.908    17.820923    22.879964    19.228505    7840.2705    11516.872    11852.006    10248.846   -213.17153   -430.41528    1030.2523   -2976.8498 
18082000    268.47547   -4831.2712   -4294.2871   -4831.2712            0    11827.036    17.660013    22.979282    19.261747    7816.6948    13521.863    11368.517    10590.728   -925.74716    881.18529   -1303.0133    -2946.023 
18083000    269.01151    -4786.146   -4248.0898    -4786.146            0    12309.314    17.776495    23.040784      19.0515     7803.197    12125.241    12984.045    11818.656    1640.5871   -503.57932    288.84599   -2847.2698 
18084000    287.75772   -4782.9151   -4207.3641   -4782.9151            0    14431.416    17.648749    23.085895    19.004125    7742.9871    15411.053    13598.997    14284.198    488.42704   -299.93369    481.89991   -2577.7177 
18085000    267.42411   -4826.8039   -4291.9227   -4826.8039            0    10980.541    17.809462    23.140722    19.054857    7852.9598    10123.878    11181.368    11636.378    -1072.298    1292.7126    1133.2261   -3034.3503 
18086000     270.6695   -4823.3387   -4281.9663   -4823.3387            0    11621.192    17.636296    23.255727     19.08512    7827.6641    12210.653    11556.791    11096.132    246.55508    643.97176   -2125.0122    -2955.309 
18087000    263.85737   -4802.3549   -4274.6076   -4802.3549            0    12036.449    17.750207    23.095838    19.021943    7798.1581    13205.326    11353.508    11550.514    7.7096276    -1026.424    160.04376   -2905.7246 
18088000    276.03471   -4828.9427   -4276.8392   -4828.9427            0    8453.5273    17.831017    22.983265    19.364789    7935.9807    10144.111    8476.3532    6740.1176   -625.82319   -583.99988     -119.859   -3298.4437 
18089000    263.89392   -4855.1451   -4327.3247   -4855.1451            0    10729.803    17.942949    22.809993    19.174187    7847.5833    12485.537    10141.526    9562.3445   -715.83269   -505.18897   -1811.9777     -3099.31 
18090000    266.45503   -4803.2072   -4270.2642   -4803.2072            0     12527.58    17.802129    22.904269    19.138152    7803.4813    10996.502    14041.825    12544.412    1322.4598     499.3298    2650.3368   -2844.5533 
18091000    269.62598   -4810.8967   -4271.6115   -4810.8967            0    11201.757    17.793862    22.877073    19.222606    7824.9749    11408.094    10721.432    11475.744   -504.91669   -1558.8572      -204.86   -2993.2756 
18092000    267.54076   -4801.5478   -4266.4332   -4801.5478            0    13597.165    17.690684    22.769224    19.227626    7744.9485    12089.458    15601.502    13100.534    570.59042    962.42863   -1411.6905   -2730.6045 
18093000    277.10061   -4800.6974   -4246.4619   -4800.6974            0    10389.645     17.86727    22.904713    19.224175    7867.3918    6619.2378    12590.017    11959.681   -507.83897    848.65694    512.87552   -3054.3765 
18094000    274.46087   -4813.9549   -4264.9992   -4813.9549            0    11619.972    17.799258    22.917361    19.168311     7818.984    11243.513    11498.032    12118.373    -1641.951   -145.73843    42.907871   -2939.9522 
18095000    261.92063   -4826.2443   -4302.3706   -4826.2443            0    11424.909    17.769534    23.015763    19.107265    7814.4774    11795.372    11012.487    11466.869   -1015.3049   -710.76574    1388.0955   -3000.3178 
18096000    278.18267   -4817.4425   -4261.0428   -4817.4425            0    11263.219    17.790161    22.940549    19.239623    7851.9995    10206.951    11495.115    12087.591    418.64212    167.82343    830.20052   -2971.2537 
18097000    254.44467   -4781.2152   -4272.2944   -4781.2152            0    12747.576     17.78234    23.079013    19.108076    7841.9325    12423.518    12654.834    13164.375   -201.69479    635.80733   -538.30399   -2814.3983 
18098000    270.95064   -4812.0084   -4270.0737   -4812.0084            0    9824.1796    17.616777    23.095234    19.233397    7825.3688    9840.9751    9592.7874    10038.776   -79.767086    202.45615    907.27664   -3148.8894 
18099000    266.23897    -4806.826   -4274.3152    -4806.826            0    10569.526    17.778147    23.267431    18.931668    7831.1187    9919.0322    10120.285    11669.261   -777.23201   -175.27345   -88.096174   -3067.1819 
18100000    266.56748   -4800.6703   -4267.5024   -4800.6703            0    12298.653    17.669604    23.070778    19.196191    7825.3563    13386.321    11338.227     12171.41   -2117.7571   -1069.4414    260.83576   -2863.9212 
18101000    254.49869   -4803.7235   -4294.6947   -4803.7235            0    13126.259    17.739269    23.002848    19.091599    7790.3976     12894.78    12488.293    13995.703   -2047.9454   -656.12905   -473.66276   -2803.3553 
18102000    273.85987   -4822.6993   -4274.9457   -4822.6993            0    10354.346    17.919746    22.861916    19.258305    7889.7372    10453.779    11258.253    9351.0045    368.72742    2114.4525    2099.3693   -3083.5361 
18103000    279.64697   -4808.3068   -4248.9783   -4808.3068            0    11072.275    17.772269    22.902187    19.284232    7849.1417    11004.348    11522.528    10689.949   -501.16332   -402.15043    147.52208   -2981.5163 
18104000    268.42245   -4777.4848   -4240.6067   -4777.4848            0    12874.852    17.755472    23.052186    19.050512     7797.421    11031.298     13100.53    14492.726   -1524.5508   -315.07898   -89.538262   -2776.5122 
18105000    290.12881   -4802.0083   -4221.7148   -4802.0083            0    12964.069    17.849105     22.92052    19.126962    7825.0461    15331.722    12664.107    10896.378   -650.91485    1305.6182     509.0056   -2742.2517 
18106000    269.82847   -4829.2424   -4289.5522   -4829.2424            0    11357.252    17.762684    23.006642    19.142106    7822.6073    11176.227    10457.481    12438.047    80.810521   -350.37895    1509.9809   -2993.8634 
18107000    262.18785   -4778.3602   -4253.9521   -4778.3602            0    12901.259    17.655364     23.06778    19.158962    7802.8715    14464.764    11838.532    12400.482   -329.33547   -1321.8766    1966.6488   -2785.8291 
18108000    261.91666   -4768.3766   -4244.5109   -4768.3766            0    10022.617    17.642262    23.147327    19.304367    7883.3478    11769.995    9953.3235    8344.5312    475.29285   -1341.6751    172.29364   -3092.2053 
18109000    266.52406   -4815.3655   -4282.2845   -4815.3655            0    10362.698    17.867697    22.944576       19.162    7855.7825    10170.727    10770.581    10146.786    820.10338   -325.83367    181.12964   -3095.0453 
18110000    279.24606   -4813.0918   -4254.5651   -4813.0918            0    10355.835    17.776007    23.178484     19.17315    7899.7383    11470.609    8802.8714    10794.026   -139.85644   -432.13968   -1090.2111   -3061.4737 
18111000    283.17617   -4793.0154   -4226.6281   -4793.0154            0    10536.932    17.663081    23.215982    19.141757    7849.3793    12259.347    9722.9634    9628.4874     744.2545   -303.85618    794.34542   -3020.4112 
18112000    269.56196   -4791.1253   -4251.9681   -4791.1253            0    11897.221    17.676648    23.218269     19.01279    7803.2519    10470.936    12019.926    13200.801   -1447.9854     705.7983   -727.15774   -2898.0355 
18113000    273.89553   -4827.1229    -4279.298   -4827.1229            0    12252.197     17.54866    23.236716    19.121627    7797.2875    12811.043    11669.118    12276.431   -108.24459    221.93557   -316.42924    -2886.034 
18114000    291.13482     -4834.62   -4252.3144     -4834.62            0    10792.397    17.753456    23.042164    19.152168    7834.7319    12620.313    9816.2559    9940.6233    484.29015   -210.28402   -1280.9418   -3019.1585 
18115000     270.6186   -4814.5967   -4273.3261   -4814.5967            0    9055.7481    17.698877    23.092124    19.331272    7900.7808    9420.9698    9648.8999    8097.3746    1082.4519     475.0211    1109.4439   -3229.8794 
18116000    260.63724   -4833.1203   -4311.8137   -4833.1203            0    8192.9226    17.880217    22.980389    19.286573    7924.7436    8898.6673    8299.1929    7380.9077    334.05513    970.47359    1008.3899   -3364.9227 
18117000    258.98044   -4828.3511   -4310.3582   -4828.3511            0    10921.747    17.832445     22.89414    19.193433    7835.8824    11546.478    10153.911    11064.851    650.50831    420.39277   -40.855616   -3062.2395 
18118000    267.31434   -4821.1372   -4286.4755   -4821.1372            0    12785.877    17.760357    22.753693    19.201331     7759.521    13368.197    13087.917    11901.518    623.01504   -112.69888    126.38011   -2839.5661 
18119000    260.00954   -4805.3838   -4285.3326   -4805.3838            0    13233.535    17.840175    22.956798    18.991285    7777.9431    12576.813     13099.59    14024.201   -22.555593   -530.66205    -1910.432   -2784.2088 
18120000    267.54587   -4811.7894   -4276.6646   -4811.7894            0    11248.879    17.847585     22.94435    19.193273    7859.6693    9749.8425    11931.821    12064.973    390.22481    313.16466    829.93129   -2987.2594 
18121000    274.24272   -4839.5002   -4290.9809   -4839.5002            0    11220.031    17.792517    22.983561     19.16357    7836.6623     10403.47    11096.224      12160.4   -18.103918   -773.44657   -1269.9199   -3008.6471 
18122000     283.3687   -4802.6154    -4235.843   -4802.6154            0    11194.261    17.731988    22.909372    19.265825    7826.3312    11276.215    11788.058     10518.51    784.81353   -883.97977    1925.9178   -2958.1411 
18123000    270.01482   -4803.1543   -4263.0913   -4803.1543            0    12022.851    17.641349    22.715865    19.483939    7807.9648    11832.465    13164.711    11071.377    1472.6587   -364.98286    846.08038   -2894.0353 
18124000    279.37387   -4817.4153   -4258.6331   -4817.4153            0    11584.079    17.923706    22.816409    19.161313    7836.1071    10101.484    11190.399    13460.353    1309.2998    260.04739   -998.83661   -2934.7862 
18125000    271.99851   -4783.5412   -4239.5106   -4783.5412            0    10075.054    17.770536    22.945013    19.290582    7865.6419    9948.0279    9825.9275    10451.208    1074.6071    543.59944    42.009889   -3083.7777 
18126000    262.62387   -4803.8254   -4278.5452   -4803.8254            0    11924.271    17.864954    22.920548    19.078176    7812.0272    13589.335    10594.304    11589.173   -577.72036   -451.20938    569.38273   -2920.0082 
18127000    265.59193   -4814.9131   -4283.6964   -4814.9131            0    11357.714    17.724817     22.87761    19.258694    7809.4283    10456.922     11316.24    12299.981    404.73696   -124.54216   -558.75288   -2990.1379 
18128000    269.70118   -4832.7613   -4293.3256   -4832.7613            0    10744.331    17.744114    23.069358     19.18108    7851.6853     10164.43    11000.563        11068    345.96876   -378.83354   -794.73418   -3063.0054 
18129000    282.97226   -4798.2491   -4232.2696   -4798.2491            0    9852.0136    17.770453    23.115788     19.19111    7883.2864    12372.547    9462.9162    7720.5774   -1068.7933   -15.575344   -1143.6916   -3099.5871 
18130000    260.61528   -4829.0222   -4307.7595   -4829.0222            0    12283.389    17.713807    23.159333    19.078988    7826.9634    13429.139    11477.399     11943.63    491.93248    586.76043    92.030955   -2905.6323 
18131000     259.9921    -4824.884   -4304.8676    -4824.884            0    12328.952    17.761991     22.94137     19.19378    7821.1663    11392.337    11364.872    14229.648   -944.52924   -37.093991    685.54398   -2898.5819 
18132000     278.4609   -4790.9555   -4233.9993   -4790.9555            0    11392.793     17.55007    23.090922    19.316172    7827.8263    11801.355    11730.327    10646.698    1188.1573   -1777.9661   -171.34771   -2933.3887 
18133000    282.23037   -4799.5267   -4235.0311   -4799.5267            0    12370.829    17.738632    23.179648    19.027852    7823.7819    10724.961    10980.175    15407.352    -399.8569   -1456.4314   -1937.9726   -2823.4968 
18134000    266.88177    -4832.673   -4298.8765    -4832.673            0    10128.238    17.655097    23.210895    19.116486    7833.7561     10633.53    9144.1356    10607.048   -1147.3624     505.1532    875.47023   -3141.7527 
18135000    257.15567   -4801.1342   -4286.7911   -4801.1342            0    12395.739    17.722661    23.088169    19.139461    7831.5574    14060.954    12869.545    10256.719   -1932.8538    978.29795    -799.7911   -2871.0089 
18136000    280.44343   -4809.5693   -4248.6478   -4809.5693            0    11670.755    17.757445    23.014564    19.214206    7852.4588    12485.093    10846.361    11680.812    375.16203   -565.61486    222.92783   -2912.1123 
18137000    260.11081   -4804.0485   -4283.7947   -4804.0485            0     11162.52    17.805006    22.889644    19.240022    7841.2756    11500.567    10918.945    11068.048   -272.17577   -1025.0614    135.52143   -3007.2829 
18138000     263.0198   -4805.4207   -4279.3486   -4805.4207            0    12978.729    17.816762     22.71238    19.343614    7827.6077    14026.694    14189.005    10720.489      218.547    182.65463     3006.838   -2797.7276 
18139000    265.25953   -4814.3364   -4283.7845   -4814.3364            0    14682.818    17.841891    22.673049    19.104363    7728.2893    12795.352    16058.125    15194.977   -532.27176     1319.909    43.388962   -2628.8963 
18140000    275.98815   -4809.3543   -4257.3439   -4809.3543            0    9506.5349    17.859055    22.924212    19.289518    7897.2207    7847.0589    10274.492    10398.054    751.74404    1197.6526    45.067146   -3162.4491 
18141000    256.73525   -4796.0206   -4282.5184   -4796.0206            0    11637.142     17.84252    22.838192     19.27734    7855.3407    11223.133    12084.917    11603.375   -973.98242   -494.76908    1584.2019   -2949.3431 
18142000     273.3575   -4820.1083   -4273.3595   -4820.1083            0     11869.81    17.878167    22.823861    19.216343    7841.2055    13413.489    11680.878    10515.064   -294.43793   -3.1687289   -1222.5409   -2915.9762 
18143000    269.94489   -4820.2602   -4280.3371   -4820.2602            0    11559.509    17.746727    22.933667    19.185101    7808.2885    12792.633    10822.503     11063.39   -1517.2491   -834.50365   -199.73281   -2963.9879 
18144000    264.81421   -4801.3253   -4271.6642   -4801.3253            0    9996.4315    17.889327     23.09483    19.094899    7889.0759    10627.249    9897.7226    9464.3227   -465.70429    296.84748    -659.1166   -3121.5339 
18145000    266.67484   -4815.5511   -4282.1685   -4815.5511            0    9318.7041    17.577021    23.218359    19.340358    7892.9853    10761.984    9470.7725    7723.3556    243.84525   -483.66921    613.31733   -3209.4823 
18146000    282.18325   -4839.5277   -4275.1264   -4839.5277            0    11643.507    17.789659    22.993627    18.985549     7766.016    10039.132    12204.132    12687.256   -3.6371904    272.77322   -137.74065   -2956.3901 
18147000      268.113   -4845.2308   -4308.9717   -4845.2308            0    10350.908    17.588412    23.329051    19.142942    7854.7501    11261.267    9331.1112    10460.345     683.5564   -68.964228    1108.0104   -3123.2393 
18148000    248.36546   -4777.7061   -4280.9444   -4777.7061            0    11774.755     17.64508    23.394121    18.951738    7823.1097    11982.602    10518.896    12822.766   -655.61117   -562.27296    221.10738   -2937.5388 
18149000    286.80598   -4805.3723   -4231.7249   -4805.3723            0    13164.411    17.638253    23.090389    19.168343    7806.7703    11877.771    13639.969    13975.494   -90.953714    798.80976   -1172.4468   -2732.9074 
18150000    254.47077   -4789.3671   -4280.3941   -4789.3671            0    12432.587    17.800233    23.019949    19.063945    7811.6507    13627.474    11550.196    12120.093     12.70577    -158.0095   -1285.9297   -2864.0127 
18151000    276.64512   -4757.1642   -4203.8398   -4757.1642            0    11582.081    17.651435    23.151415    19.109267     7809.111    9378.5564    12776.758    12590.928     2395.941   -259.00234   -1486.3027   -2884.7812 
18152000    257.67975   -4760.9798   -4245.5885   -4760.9798            0    13223.799    17.793779    23.033963    18.984516    7781.0175    13018.698    12675.954    13976.745   -839.40466    -1301.712   -2666.2036   -2744.9761 
18153000    266.97981   -4793.9194   -4259.9267   -4793.9194            0    11555.232    17.852649    22.719812     19.37562    7858.9228    10704.027    14031.572     9930.097    1604.9598     1560.983    943.05524   -2935.5316 
18154000    272.78418   -4814.1737   -4268.5716   -4814.1737            0    11319.656    18.039948    22.677532    19.077879    7804.7888    9757.9559     12029.93    12171.081   -1413.9147    1099.5113    84.861566   -2980.1136 
18155000    255.83849   -4795.0236    -4283.315   -4795.0236            0    12870.203    17.702656    22.929218    19.246596    7812.3482    13240.188    12411.735    12958.686   -372.50748   -405.70209   -1039.0709   -2816.9473 
18156000    260.17832   -4813.2416   -4292.8528   -4813.2416            0    11624.227    17.832372    22.989505    19.064055    7815.4505    10653.551    11885.667    12333.464   -979.45791    -387.8135    146.31436   -2967.9196 
18157000     270.6877   -4811.0803   -4269.6714   -4811.0803            0      12148.3    17.699333    22.823134    19.285969    7790.6489    12889.597    12915.155    10640.148    266.33522   -33.759015    2422.0692   -2889.3983 
18158000    256.34197   -4822.0713   -4309.3557   -4822.0713            0    9575.6804    17.922141    22.894867    19.174618    7867.8256    11638.553    8516.8915    8571.5962   -1401.1256   -364.49416    1400.8401   -3210.6023 
18159000    260.74504   -4823.1596   -4301.6373   -4823.1596            0    10242.595    17.849483    22.972824    19.227664    7884.3618    10022.507     10718.41    9986.8692   -1258.9373    1191.1152   -726.32782   -3123.8891 
18160000    277.78759   -4813.5003   -4257.8908   -4813.5003            0    11136.643    17.825744    23.030115    19.068303    7828.0903    10699.283    10931.876     11778.77    -425.1434   -895.57078    -715.2726   -2986.4797 
18161000    257.66178    -4806.111   -4290.7556    -4806.111            0    12345.077    17.700808    23.055118    19.132364    7807.8068    13171.461    12807.735    11056.033   -433.84796    200.93701    224.70706   -2885.0359 
18162000     263.9312   -4796.3079   -4268.4129   -4796.3079            0    11584.397     17.63151    23.253505    19.167008    7858.3659    10379.311    12745.274    11628.605    -2606.164    1209.5939    -1409.845   -2940.7691 
18163000    266.21924   -4806.1039   -4273.6326   -4806.1039            0    13333.159     17.55934    23.115879    19.163046    7778.2722    13531.002    14068.773    12399.701   -1357.5922   -86.281988    917.44177   -2761.1441 
18164000     271.6926   -4832.3918    -4288.973   -4832.3918            0     9695.858    17.938185    23.062679    18.980409    7852.2446      7483.16    10380.699    11223.715    792.98133   -290.77709    1818.6935   -3178.6331 
18165000    278.44361   -4831.0302   -4274.1086   -4831.0302            0    12774.679    17.627943    22.886758    19.334712     7800.521    14017.555    13640.308    10666.174   -326.36442    183.98689    541.62463   -2820.8279 
18166000    280.30121   -4788.1625   -4227.5255   -4788.1625            0    11090.494    17.916677    22.955517    19.120838    7864.1442    7497.9818     13364.44    12409.061    726.37952    1308.9273   -645.77428   -2955.5514 
18167000    261.26945   -4798.7385   -4276.1673   -4798.7385            0    12768.356    17.759079    22.623656    19.466045    7820.9763    12584.249    13613.204    12107.616    671.25273    36.689438    2318.5597   -2819.7969 
18168000    274.68145   -4804.0836   -4254.6868   -4804.0836            0    11180.609    17.875255    22.913672    19.154994    7845.6505    13187.576    10169.155    10185.097    264.78346   -368.67824   -899.13608   -2975.3929 
18169000    287.57966   -4802.5814   -4227.3865   -4802.5814            0    12282.911    17.762228    22.924694    19.210672    7822.4634    11603.419    11931.872    13313.443   -191.87971    803.48434   -910.26025     -2826.12 
18170000    263.02992   -4781.2192   -4255.1269   -4781.2192            0    11955.106    17.977476    22.938982    19.044242      7853.56    12268.344    11305.521    12291.455   -2477.9346    -668.8538    1330.8904   -2885.8354 
18171000     274.0309   -4808.3492   -4260.2536   -4808.3492            0    10438.559    17.758686    22.877394    19.387971     7876.799    12600.767    9367.0833    9347.8274   -1082.1369    1326.8006     1558.535   -3061.1237 
18172000    270.66853   -4820.6433   -4279.2728   -4820.6433            0    12860.383    17.543251    23.181533      19.0398    7743.0955    13141.305    12155.389    13284.455   -679.17014   -1318.8948    367.55145   -2827.0127 
18173000    266.96025   -4830.2413   -4296.2878   -4830.2413            0    11183.991    17.682822    23.321503    18.963049    7820.1717    10652.485    11142.041    11757.447   -1129.8453   -691.74046   -309.51633   -3020.7627 
18174000     268.5448   -4827.6464   -4290.5236   -4827.6464            0     10466.38    17.680082    23.187753    19.176245    7861.5198    10598.092    10610.007    10191.042    688.79468    -247.2079    2561.5843   -3090.5301 
18175000    254.60079   -4791.8933   -4282.6603   -4791.8933            0    12079.669    17.634892    23.361871    18.906451    7789.1569    12377.468    12186.488    11675.049    -302.5012   -152.60125   -431.73074   -2910.4478 
18176000    264.54642    -4794.474   -4265.3484    -4794.474            0    13844.723    17.480714    23.178158    19.127471    7749.8922    14211.546    14585.724    12736.898   -1071.2984    190.06356   -1056.5357   -2700.5593 
18177000    281.78992   -4800.9645   -4237.3498   -4800.9645            0    11907.713     17.83262     23.06345    19.005106    7816.4532    12017.246    11824.121    11881.771   -1285.5936   -599.90921    1.2685619   -2879.9307 
18178000    264.58581   -4780.0548   -4250.8505   -4780.0548            0    12247.336    17.620645    23.018584    19.263195    7813.1961    14040.545    12380.673     10320.79    1665.6612    171.38602    2465.0422   -2855.2978 
18179000    273.36868   -4797.3587   -4250.5876   -4797.3587            0    10063.508    17.855587    23.023623    19.148268    7871.8585     9871.154    11070.756    9248.6131    -766.4437   -212.85931   -1907.8902   -3095.2669 
18180000    262.35975   -4793.9786   -4269.2267   -4793.9786            0    11517.809    17.861839     22.91081    19.205403    7859.4118    11307.502    11388.902    11857.022    1226.6566    -1338.609    333.12454   -2949.0387 
18181000     260.4832   -4810.7032   -4289.7046   -4810.7032            0     10295.25    17.872829    23.046301    19.089594    7863.0534    8999.0261    10198.488    11688.234    375.75964   -418.24752   -292.65625   -3109.1013 
18182000    274.22135   -4804.8429   -4256.3663   -4804.8429            0    12198.732    17.718814    22.863795    19.265246    7804.7238    12231.732    14003.094    10361.372   -58.332504    381.66952   -1200.0219   -2867.8591 
18183000    258.87406   -4811.8784   -4294.0983   -4811.8784            0    12536.062    17.880077    22.771164    19.233403    7830.8832    13045.232    11970.995    12591.959   -967.92809   -576.79488   -808.99393   -2862.4124 
18184000    262.86233   -4835.5475   -4309.7904   -4835.5475            0    10161.886    17.909584    22.818828     19.20141    7847.1499    8811.2494    10671.321    11003.087    136.21228   -572.13736   -240.81826   -3146.8374 
18185000     280.0366   -4803.0369   -4242.9292   -4803.0369            0    12428.614    17.966758    22.581262     19.30701     7833.087    12010.765     12952.01    12323.067    320.49013    86.893447    920.72487   -2823.1149 
18186000     267.8487   -4778.8528   -4243.1223   -4778.8528            0    13024.562    18.134051    22.381961    19.199903    7792.7729    10107.495    13848.266    15117.926    329.01821   -332.57922    274.41081    -2762.886 
18187000    255.79319     -4791.62   -4280.0021     -4791.62            0    10507.701    17.675257    22.846381    19.521408    7883.0499    11543.558    9137.3745    10842.171   -860.21698   -1853.5317    127.33458   -3071.9716 
18188000    281.86988   -4805.0305   -4241.2559   -4805.0305            0    12917.615    18.062158    22.639912     19.14792     7830.076    11660.159    13371.264    13721.423   -833.00565   -889.35648    86.145591   -2766.1466 
18189000    264.43561   -4824.6697   -4295.7658   -4824.6697            0    12972.532    17.936554    22.492009     19.26579    7772.3805    10454.984     14488.95    13973.662    606.30143   -635.99048    3055.4512   -2825.3009 
18190000    279.06783   -4783.2663   -4225.0962   -4783.2663            0    10464.105    17.968518    22.732928    19.298018    7882.7969    8521.1752    12633.986    10237.155   -2569.2397    277.63788     324.3252   -3022.1164 
18191000    271.71999   -4802.5702   -4259.0966   -4802.5702            0    10470.784    17.804774    22.725937    19.372037    7838.5106    11476.984    10791.769    9143.6007   -70.898761   -450.96403    756.66183   -3062.1118 
18192000    272.65607   -4789.0338    -4243.688   -4789.0338            0    12757.575    17.755293    22.806646    19.265484    7801.3395    11631.074    14310.284    12331.368    -272.9071    1468.0222     681.0304   -2792.2008 
18193000    274.38213   -4824.7259   -4275.9277   -4824.7259            0    12384.072    17.745085    22.954055    19.226531    7831.3825    13028.317    11425.739    12698.161    317.74139   -143.53386    2309.1462   -2861.5096 
18194000    265.42418   -4795.3004   -4264.4193   -4795.3004            0    11329.984    17.704741    23.042815    19.154974    7814.5986    10578.949    12980.647    10430.355    -382.1698     1013.534   -2753.1092   -2973.1647 
18195000    265.31838   -4796.8368   -4266.1673   -4796.8368            0     9954.788    17.677966    23.281563    19.088769    7856.3775    10830.856    9620.4882    9413.0198    1198.5719   -927.56765    76.762409   -3125.5754 
18196000     271.9709    -4829.862   -4285.8866    -4829.862            0    7958.9675    17.597518    23.338793    19.225592    7896.0433    9062.7247    8051.1434    6763.0345    -414.2725   -774.47617    -2561.454   -3369.3662 
18197000    265.60535   -4797.6062   -4266.3627   -4797.6062            0    11291.558    17.692551    23.270717    19.033807    7836.5676    13063.991    9343.4274    11467.256   -265.38588   -711.56417    807.83436   -2975.8697 
18198000    271.69027   -4805.6872   -4262.2731   -4805.6872            0    12614.217    17.696449    23.287316    18.947272    7808.2237    13747.195    12340.198    11755.259    513.12215    944.76568    700.56118     -2825.83 
18199000    281.67352   -4811.3074   -4247.9255   -4811.3074            0    10108.696    17.441369    23.388054     19.19596    7830.4099    11542.716    9006.8115    9776.5603    -434.5752    35.734521    1018.4714   -3093.5277 
18200000    269.84347   -4805.3222   -4265.6019   -4805.3222            0    12187.475    17.744408    23.171271    19.009169    7815.8189    12216.667    12639.512    11706.247   -1371.7849    1763.5666    110.10789    -2876.404 
18201000    269.20518   -4800.2558   -4261.8121   -4800.2558            0    12323.077    17.716859    23.088974    19.127226    7824.2612    13129.056    12023.603    11816.573     1546.106   -27.042109    1358.8147   -2855.6403 
18202000    258.26354   -4789.0144   -4272.4554   -4789.0144            0    11896.772    17.800857    23.000079    19.155977    7842.8615    12525.114    11759.753    11405.449    614.33587   -1810.7301   -1258.0977   -2911.7016 
18203000    259.72362   -4817.3603   -4297.8809   -4817.3603            0    11785.566      17.7528    22.874606    19.254405    7818.9889    10812.247    12371.567    12172.883    443.00343    34.930518    949.15334   -2953.9501 
18204000    263.66659   -4835.4705   -4308.1047   -4835.4705            0    11894.582     17.59689    23.105871    19.187838    7801.6114    13363.614    11382.586    10937.545   -1019.2884   -386.09608   -1043.5095   -2954.7571 
18205000     266.7698   -4832.8976    -4299.325   -4832.8976            0    12129.612    17.771938    22.918989    19.119347    7787.5941    13074.096    11797.765    11516.974   -1162.1608   -146.68603   -593.76921   -2921.7156 
18206000    271.18929   -4820.7215   -4278.3095   -4820.7215            0    12742.825    17.677004    22.865701    19.138042    7735.5411    12453.546    12847.707    12927.221   -256.71701   -1325.7554    1103.4786   -2840.7286 
18207000    272.67895   -4810.5342   -4265.1426   -4810.5342            0    12421.578    17.891512     22.85072    19.139389    7824.8316    12531.012    12262.154    12471.568    313.01328     146.7436   -1773.6439   -2847.6276 
18208000      274.783   -4811.3426   -4261.7427   -4811.3426            0    10352.669    17.762857    23.125778    19.186903    7881.5938    11286.206      9532.31    10239.492     714.9083    -109.2194    800.63315   -3071.7555 
18209000    272.82914   -4819.4348   -4273.7428   -4819.4348            0    11770.174    17.772212    23.076568    19.104332    7835.1003    11430.913    11502.426    12377.184    131.77987    147.87577   -408.93667   -2928.8014 
18210000     276.3503   -4794.6075   -4241.8727   -4794.6075            0    11626.995    17.579995    23.195196    19.179972    7821.0447    10850.133    12037.242    11993.612    1286.7608     -260.659   -493.36628   -2915.6754 
18211000    270.41399   -4793.4217   -4252.5603   -4793.4217            0    11907.781    17.918126    22.691443    19.260733    7831.1856    9426.2103    12816.496    13480.637   -636.93497    -1281.461   -964.20121   -2892.5749 
18212000     262.8073   -4786.3326   -4260.6856   -4786.3326            0     13875.97    17.875956    22.725117    19.154796    7781.3138    13805.587    13448.081    14374.242   -283.54946     505.0833    64.020893   -2686.0061 
18213000    266.00824   -4803.6089   -4271.5595   -4803.6089            0    11808.706    17.806378    22.939746    19.222333     7851.819    9659.1914     12415.82    13351.105   -76.751133   -176.39994    375.66598   -2919.3361 
18214000    272.49265   -4814.2358   -4269.2168   -4814.2358            0    11167.934    17.610909    23.143868     19.19506    7823.6096    10062.106    11842.546    11599.148   -792.76767   -323.24386    617.68954   -2994.9632 
18215000     261.6715   -4850.4205   -4327.0452   -4850.4205            0     11994.59    17.655685    23.106558    19.169274    7820.3378    12097.223    10767.463    13119.085   -1577.2146   -1388.0897   -228.92052   -2959.0429 
18216000     266.8271    -4816.585   -4282.8978    -4816.585            0    11576.971    17.807139     23.08382    19.056483    7833.2969    10321.831    11961.966    12447.118    795.97479    887.04837    -638.8937   -2960.3377 
18217000    272.32234   -4852.0966   -4307.4183   -4852.0966            0    11028.329     17.61539    22.992128    19.235837    7790.8084     12244.68    10926.165    9914.1402   -1083.4491   -655.37117    -2570.672   -3054.3691 
18218000    280.27514   -4800.3757   -4239.7908   -4800.3757            0    12056.896    17.749193    23.168936    18.950472    7793.0009    13202.716    10138.003    12829.969    50.551737    95.772568    -616.8901   -2869.4893 
18219000    265.45445   -4803.9421   -4273.0004   -4803.9421            0     12000.83    17.634355    22.882774    19.356112    7810.6357    11339.216    13925.561    10737.713   -331.53431    263.37572   -2370.4187   -2905.9845 
18220000    265.99185   -4830.9798   -4298.9632   -4830.9798            0    13896.513    17.700645    22.932541     19.15317    7774.6698    15821.923    12855.857     13011.76   -1324.5864   -321.11017    -471.2395   -2723.2989 
18221000    265.57578   -4807.9587   -4276.7743   -4807.9587            0    11450.815    17.832218    22.844147    19.243512    7839.0718    10989.748    11721.578    11641.119   -1862.9646    434.79697   -2395.6992   -2967.6619 
18222000    259.21328   -4835.1806    -4316.722   -4835.1806            0    11336.679    18.022381    22.779772    19.063854    7826.5839     10056.05    11723.656    12230.331    1379.8169     582.3135   -4.1998593   -3022.7229 
18223000     258.1238   -4819.7333   -4303.4538   -4819.7333            0    12810.945    17.672386    22.890218    19.320287    7815.5345    14445.869    10679.038     13307.93    -534.4021   -1344.5593    722.19255   -2843.2423 
18224000    263.13417   -4796.7146   -4270.4137   -4796.7146            0    12647.078    17.917996    23.095637    18.941841     7838.655    11104.121    13198.216    13638.896   -415.44489   -868.36231    275.46342   -2824.6157 
18225000    269.91729   -4824.9473   -4285.0794   -4824.9473            0    13863.821    17.659923    22.883796    19.201592    7759.8641     13937.39    12772.531    14881.543    358.76253   -97.155627    1437.7914   -2716.1155 
18226000    275.17749   -4832.1951   -4281.8062   -4832.1951            0    10942.608    17.698104    23.007413     19.35853    7882.5533    9936.9974    11573.727    11317.099    459.31221    1398.2789   -411.52335   -3023.8554 
18227000    285.81866   -4763.6916    -4192.019   -4763.6916            0    11112.532     17.75727    23.189933    19.001034    7824.4338    9894.2289    11882.944    11560.423   -632.52092     1217.876   -511.86545    -2923.953 
18228000    265.01349   -4774.6927    -4244.633   -4774.6927            0    12134.298    17.748081    23.140564    19.132662    7857.7959    12085.456    11445.175    12872.263    1992.4048    154.01061   -192.25375    -2854.068 
18229000    280.83017   -4810.3569   -4248.6619   -4810.3569            0    10270.122    17.785232    23.106184    19.174878    7879.8938    10890.742    8943.5297    10976.093   -731.01683   -1732.0256    404.63038   -3068.4178 
18230000     270.0689   -4774.2324   -4234.0612   -4774.2324            0    10002.211    17.811601    23.138405    19.154084    7894.0119    9253.3849    9632.2806    11120.967   -551.68593   -876.11577    804.25996    -3082.546 
18231000    267.88838   -4775.3245   -4239.5146   -4775.3245            0    13185.225    17.603546    23.157224     19.11432     7791.938    13902.892     13224.45    12428.334    326.15534    101.14406    2273.6539   -2741.1796 
18232000    270.59165   -4801.3171   -4260.1004   -4801.3171            0    13326.825    17.727837    23.058528     19.10044    7807.8365    14092.093    14040.918    11847.465    1642.0469    1810.9714   -314.96171   -2742.5842 
18233000    261.85165    -4800.495   -4276.7593    -4800.495            0    13560.376    17.577096    23.152339    19.190711    7809.6768    14832.226    12582.722     13266.18   -1506.0693   -868.26365   -1639.5916    -2732.285 
18234000    275.12203   -4801.6296   -4251.3516   -4801.6296            0    12671.754    17.826557    23.085947    19.063731    7845.5443    11322.792    13179.845    13512.623    141.62825    1265.5756     519.8996   -2801.4595 
18235000    271.31836    -4831.339   -4288.6687    -4831.339            0    12369.345    17.712714    23.000628    19.166818    7808.6294    11535.368    13210.671    12361.995   -267.94686    77.935658   -963.57335   -2880.0372 
18236000    275.44997      -4831.6    -4280.666      -4831.6            0    11179.992    17.946974    23.000982    19.023246    7852.7583    7940.4036    12600.348    12999.223   -479.86663    196.32505    1139.7678   -3000.2839 
18237000    258.36193   -4792.3032   -4275.5474   -4792.3032            0    10546.614    17.664025    23.028812    19.343578    7868.6097    11145.123    10958.274    9536.4435    1446.9131   -873.67759    441.28907   -3065.2644 
18238000     275.7869   -4806.3681   -4254.7602   -4806.3681            0    10719.716    17.943478    22.877736    19.141781     7857.819    8724.9508    10629.603    12804.595    945.88678   -1034.7328    736.49113   -3026.2997 
18239000    254.04126     -4775.91   -4267.7961     -4775.91            0     11931.27    17.767618    22.907846    19.280789    7847.6256    14483.773    10572.804    10737.234   -1092.1968     331.8072    -1070.539   -2902.2673 
18240000    273.24108   -4804.4786   -4257.9626   -4804.4786            0    8882.9643    17.771626    23.142395    19.172322    7885.1539    8607.8043     8166.603    9874.4857    601.42802   -156.93859    642.73291   -3236.4494 
18241000    266.50792   -4828.5279   -4295.4791   -4828.5279            0    9920.9751     17.79168    23.200375    19.025484    7853.2185    10284.974    8139.8946    11338.057    149.33624   -575.14516    -709.6354   -3159.2186 
18242000    272.38065   -4814.9456   -4270.1506   -4814.9456            0    11785.459    17.525293    23.350767    19.098148    7815.5166    11120.989    12116.257    12119.129   -222.46529    682.23252    875.81055   -2926.8288 
18243000    273.33397   -4788.7836   -4242.0819   -4788.7836            0    9837.8957    17.736093    23.393104    18.985664     7877.195    10623.107    8924.2663    9966.3142    267.03274    639.88361    541.72041   -3111.8965 
18244000    275.22847   -4796.2078   -4245.7168   -4796.2078            0    12143.141    17.629136     23.30908    18.964583    7792.9065     11985.34    12104.479    12339.605   -236.85998    947.53297     342.5457     -2865.63 
18245000    279.29165   -4787.3302   -4228.7124   -4787.3302            0    12469.422    17.627598    22.985126    19.219383    7787.1665    13524.383    11875.093    12008.791   -433.08501   -1173.0662     -460.106   -2812.5871 
18246000    264.82015   -4803.9133   -4274.2403   -4803.9133            0    12767.782    17.723176    23.159766    18.991861    7795.4868    12199.533    12018.476    14085.337    277.54666   -9.0274256    2536.8824   -2822.6816 
18247000    272.11914   -4824.0315   -4279.7596   -4824.0315            0    9461.7084    17.811874     23.12132    19.207384    7910.2545    10321.758    9684.1269      8379.24   -301.07238     -1418.33   -1634.9148    -3188.229 
18248000     274.0459   -4782.5757   -4234.4501   -4782.5757            0    13161.893    17.892679    22.852544    19.152788    7831.4454    12432.357    12390.364    14662.957   -387.51647    503.95811   -1784.4474   -2731.1829 
18249000    265.26595   -4811.9859   -4281.4213   -4811.9859            0    11440.877    17.956028    22.707274    19.285483    7863.3172    9331.6137    11689.178    13301.838    149.57489   -165.71124   -760.12493   -2969.3996 
18250000    268.03082     -4757.98   -4221.8852     -4757.98            0    13474.012    17.870975     22.85731    19.084063    7795.5042    12901.176    13862.125    13658.734    1174.2847   -683.15178    724.42806   -2690.0325 
Loop time of 513.596 on 64 procs for 250000 steps with 1008 atoms

Performance: 84.113 ns/day, 0.285 hours/ns, 486.764 timesteps/s
99.1% CPU use with 64 MPI tasks x 1 OpenMP threads

MPI task timing breakdown:
Section |  min time  |  avg time  |  max time  |%varavg| %total
---------------------------------------------------------------
Pair    | 28.607     | 33.105     | 37.054     |  32.6 |  6.45
Bond    | 0.29121    | 0.29946    | 0.31376    |   0.8 |  0.06
Kspace  | 236.66     | 245.58     | 260.67     |  35.2 | 47.82
Neigh   | 4.8246     | 5.5895     | 7.0091     |  21.4 |  1.09
Comm    | 89.79      | 105.13     | 115.86     |  55.2 | 20.47
Output  | 2.2461     | 2.2475     | 2.2596     |   0.1 |  0.44
Modify  | 110.93     | 113.52     | 116.14     |  14.7 | 22.10
Other   |            | 8.128      |            |       |  1.58

Nlocal:        15.7500 ave          20 max          11 min
Histogram: 2 0 7 11 7 12 12 9 2 2
Nghost:        2525.11 ave        2552 max        2502 min
Histogram: 3 6 5 11 11 9 10 2 4 3
Neighs:        5349.44 ave        6784 max        3716 min
Histogram: 2 0 7 11 7 12 12 9 1 3

Total # of neighbors = 342364
Ave neighs/atom = 339.64683
Ave special neighs/atom = 2.0000000
Neighbor list builds = 10033
Dangerous builds = 0

unfix		3
unfix		2
unfix		1

write_data	data.final.${pid}
write_data	data.final.0
System init for write_data ...
PPPM initialization ...
  extracting TIP4P info from pair style
  using 12-bit tables for long-range coulomb (../kspace.cpp:340)
  G vector (1/distance) = 0.37953565
  grid = 24 27 32
  stencil order = 5
  estimated absolute RMS force accuracy = 0.0024342266
  estimated relative force accuracy = 7.3306012e-06
  using double precision FFTW3
  3d grid and FFT values/proc = 3825 384
Last active /omp style is kspace_style pppm/tip4p/omp
WARNING: Not all mixed pair coeffs generated from mixing. Use write_data with 'pair ij' option to store all pair coeffs. (../write_data.cpp:312)

write_restart   restart.lmp.${pid}
write_restart   restart.lmp.0
System init for write_restart ...
PPPM initialization ...
  extracting TIP4P info from pair style
  using 12-bit tables for long-range coulomb (../kspace.cpp:340)
  G vector (1/distance) = 0.37953565
  grid = 24 27 32
  stencil order = 5
  estimated absolute RMS force accuracy = 0.0024342266
  estimated relative force accuracy = 7.3306012e-06
  using double precision FFTW3
  3d grid and FFT values/proc = 3825 384
Last active /omp style is kspace_style pppm/tip4p/omp
Total wall time: 0:08:36
