#include		in.partitions
include		in.temp
variable        temperature equal 263.75
variable	tempDamp equal 100.0
include		in.pressure
variable        pressure equal 6250.0
variable        pressureDamp equal 1000.0 # This is 1 ps
include		in.seed
variable        seed equal 745823

units		real
atom_style	full

read_restart	restart.lmp.${pid}
read_restart	restart.lmp.0
Reading restart file ...
  restart file = 30 Jul 2021, LAMMPS = 30 Jul 2021
  restoring atom style full from restart
  orthogonal box = (-0.00035469519 0.022128802 -0.027631470) to (20.000356 19.977872 20.727629)
  4 by 2 by 4 MPI processor grid
  restoring pair style lj/cut/tip4p/long/omp from restart
  restoring bond style harmonic/omp from restart
  restoring angle style harmonic/omp from restart
  972 atoms
  648 bonds
  324 angles
Finding 1-2 1-3 1-4 neighbors ...
  special bond factors lj:    0        0        0       
  special bond factors coul:  0        0        0       
     2 = max # of 1-2 neighbors
     1 = max # of 1-3 neighbors
     1 = max # of 1-4 neighbors
     2 = max # of special neighbors
  special bonds CPU = 0.003 seconds
  read_restart CPU = 0.008 seconds
include 	in.setup
variable	out_freq equal 1000
variable	out_freq2 equal 10000
variable	out_freq3 equal 1000

timestep	2.0

neigh_modify    delay 7 every 1

include		in.tip4p
# This is TIP4P/Ice

# create groups ###
group ox type 2
324 atoms in group ox
group hy type 1
648 atoms in group hy

# set charges - beside manually ###
set group ox charge -1.1794
Setting atom values ...
  324 settings made for charge
set group hy charge 0.5897
Setting atom values ...
  648 settings made for charge

# ### TIP3P Potential Parameters ###
pair_style lj/cut/tip4p/long/omp 2 1 1 1 0.1577 8.5
pair_coeff 1 1*2 0.000 0.000
pair_coeff 2 2 0.21084 3.1668
bond_style  harmonic
bond_coeff  1 450 0.9572
angle_style harmonic
angle_coeff 1 55 104.52
kspace_style pppm/tip4p/omp 1.0e-5
pair_modify tail yes

thermo          ${out_freq}
thermo          1000
thermo_style    custom step temp pe etotal epair emol press lx ly lz vol pxx pyy pzz pxy pxz pyz enthalpy

restart 	${out_freq3} restart.lmp.${pid} restart2.lmp.${pid}
restart 	1000 restart.lmp.${pid} restart2.lmp.${pid}
restart 	1000 restart.lmp.0 restart2.lmp.${pid}
restart 	1000 restart.lmp.0 restart2.lmp.0


include         in.dump
dump            myDump all atom ${out_freq2} dump.water.${pid}
dump            myDump all atom 10000 dump.water.${pid}
dump            myDump all atom 10000 dump.water.0
dump            myDump2 all dcd ${out_freq2} dump.dcd
dump            myDump2 all dcd 10000 dump.dcd
dump_modify     myDump append yes
dump_modify     myDump2 append yes


variable natoms 	equal  "count(all)"                        # NUMBER ATOMS
variable H      	equal  "enthalpy/v_natoms"                 # ENTHALPY-per-atom
variable Vol      	equal  "vol/v_natoms"                 # volume-per-atom
fix AVG all 		ave/time ${out_freq} 1 ${out_freq} v_Vol v_H file vol_enthalpy.dat
fix AVG all 		ave/time 1000 1 ${out_freq} v_Vol v_H file vol_enthalpy.dat
fix AVG all 		ave/time 1000 1 1000 v_Vol v_H file vol_enthalpy.dat


timer           timeout 02:55:00 every 1000
New timer settings: style=normal  mode=nosync  timeout=02:55:00

fix 		1 all shake 1e-6 200 0 b 1 a 1
       0 = # of size 2 clusters
       0 = # of size 3 clusters
       0 = # of size 4 clusters
     324 = # of frozen angles
  find clusters CPU = 0.000 seconds
fix             2 all nph aniso ${pressure} ${pressure} ${pressureDamp}
fix             2 all nph aniso 6250 ${pressure} ${pressureDamp}
fix             2 all nph aniso 6250 6250 ${pressureDamp}
fix             2 all nph aniso 6250 6250 1000
fix             3 all temp/csvr ${temperature} ${temperature} ${tempDamp} ${seed}
fix             3 all temp/csvr 263.75 ${temperature} ${tempDamp} ${seed}
fix             3 all temp/csvr 263.75 263.75 ${tempDamp} ${seed}
fix             3 all temp/csvr 263.75 263.75 100 ${seed}
fix             3 all temp/csvr 263.75 263.75 100 745823


run             250000
PPPM initialization ...
  extracting TIP4P info from pair style
  using 12-bit tables for long-range coulomb (../kspace.cpp:340)
  G vector (1/distance) = 0.37251086
  grid = 24 24 25
  stencil order = 5
  estimated absolute RMS force accuracy = 0.0033952794
  estimated relative force accuracy = 1.0224783e-05
  using double precision FFTW3
  3d grid and FFT values/proc = 3458 576
Last active /omp style is kspace_style pppm/tip4p/omp
Neighbor list info ...
  update every 1 steps, delay 7 steps, check yes
  max neighbors/atom: 2000, page size: 100000
  master list distance cutoff = 10.8154
  ghost atom cutoff = 10.8154
  binsize = 5.4077, bins = 4 4 4
  1 neighbor lists, perpetual/occasional/extra = 1 0 0
  (1) pair lj/cut/tip4p/long/omp, perpetual
      attributes: half, newton on, omp
      pair build: half/bin/newton/omp
      stencil: half/bin/3d
      bin: standard
Per MPI rank memory allocation (min/avg/max) = 10.19 | 10.20 | 10.21 Mbytes
Step Temp PotEng TotEng E_pair E_mol Press Lx Ly Lz Volume Pxx Pyy Pzz Pxy Pxz Pyz Enthalpy 
17000000     262.7146   -4654.8424   -4148.1752   -4654.8424            0    5930.5411     20.00071    19.955743    20.755261    8284.0275    6157.4876    5096.2487    6537.8871    142.70689    853.97466   -613.48441   -3431.6826 
17001000    267.33042   -4710.2403   -4194.6711   -4710.2403            0    4793.4087    19.978979    20.217248    20.517213    8287.3118    5054.5917    3805.2459    5520.3886    569.10381      -174.91   -1117.7184   -3615.3304 
17002000     257.7734   -4677.4137    -4180.276   -4677.4137            0    6639.1892    20.039406    20.008173    20.535636    8233.8024    6375.5881    7409.1806    6132.7989    37.441897   -35.601482     333.7533   -3383.0318 
17003000    265.26516   -4697.1798   -4185.5936   -4697.1798            0    6770.0801     19.75109    20.046281     20.77049    8223.7827    6747.6663     7314.093    6248.4811    481.53294    -238.4105    1345.1348   -3373.6211 
17004000    249.91958   -4699.8572   -4217.8663   -4699.8572            0    5103.4852    20.222518    19.788141    20.599628    8243.2716    3531.3121    6593.1694     5185.974   -87.143927    345.86098   -33.958249    -3604.327 
17005000    270.10188   -4699.6658   -4178.7516   -4699.6658            0    6603.3435    19.947053    19.985088    20.493483    8169.5961    7719.6289    6375.4273    5714.9744    180.46171    1106.8927   -159.80923   -3391.9951 
17006000    269.93168    -4686.836   -4166.2501    -4686.836            0    6971.3774    19.925022    20.039661    20.629632    8237.2199    6361.4558    6901.2216    7651.4549   -972.83629   -109.84211    32.392065   -3328.7687 
17007000    270.71067   -4686.0718   -4163.9835   -4686.0718            0    6345.1118     19.84227    19.897459    20.717221    8179.3814     5933.796    7202.4031    5899.1362   -271.49582     -1626.31   -1624.7085   -3407.0885 
17008000    261.62431   -4681.9954   -4177.4309   -4681.9954            0     6335.399    20.114263    20.036415    20.481055    8254.2284    6955.1555    4289.8923    7761.1492    634.03853   -212.76797   -1449.6593    -3414.779 
17009000    270.47157   -4679.9908   -4158.3636   -4679.9908            0    7366.5336    20.027756    19.909661    20.616252    8220.6447    6618.7212    8528.1933    6952.6864   -357.63022    125.35666    1403.3541   -3275.1923 
17010000    274.79219   -4692.0384   -4162.0785   -4692.0384            0     5468.686     20.22621    19.989754    20.475444    8278.5692    5834.7006    4518.7768    6052.5807    86.235128   -618.14507    1808.9925   -3501.8198 
17011000    263.40987   -4698.0633   -4190.0552   -4698.0633            0    6760.4201    20.061247    19.899612     20.65252    8244.7139    5289.1246    8499.2635    6492.8722   -16.993001   -226.02289   -979.80158   -3377.1776 
17012000    264.43558   -4648.7952    -4138.809   -4648.7952            0    5247.2985    19.869909    19.924216    20.892045    8271.0011    6310.6108    5333.8154    4097.4692    317.96924   -1152.4726     82.16556   -3505.8585 
17013000    276.46294   -4677.0205   -4143.8385   -4677.0205            0    7483.5395    19.794429    20.171831    20.542887    8202.5671    6527.8438    8320.2101    7602.5648    517.96505    117.46164    424.70592   -3248.6124 
17014000    252.73735   -4684.1007   -4196.6755   -4684.1007            0    6234.4951    20.332747    19.683414    20.456202    8186.9379    4844.8797    6312.5164    7546.0892    705.81682   -1082.8062     1139.726   -3452.2887 
17015000    258.67307    -4688.851   -4189.9782    -4688.851            0    6754.6557    19.882609    19.892838    20.761804    8211.7401    7964.8138    6096.7783    6202.3751   -339.21495    1299.0662    1564.1075   -3381.0419 
17016000    262.44486   -4675.8595   -4169.7125   -4675.8595            0     8009.084     19.83678     19.86753    20.650024    8138.3363    6590.3976    9844.0145    7592.8398    1321.1064    665.89457    1146.5883     -3219.12 
17017000    257.75367   -4680.5509   -4183.4512   -4680.5509            0    5653.2819    19.963692    20.113964    20.481877    8224.4765    6180.4618    4566.1917    6213.1923    -429.8676   -1408.6318   -537.32015   -3505.3652 
17018000    245.45719   -4689.9484   -4216.5635   -4689.9484            0     7489.156    20.014764    20.022324    20.538186    8230.5156    5494.5118    9205.0272    7767.9292    211.70465    814.96312    -54.87002    -3317.613 
17019000     258.6589   -4693.8333   -4194.9879   -4693.8333            0    6688.5199    19.861788    19.796857      21.0332    8270.2747    7108.4952    7690.4382    5266.6263    853.47246    1438.8019    -927.8212   -3388.2623 
17020000    256.38427   -4685.8208   -4191.3622   -4685.8208            0    5239.8291    19.779613    20.126802    20.700879    8241.0271    7428.2206    3756.0059    4535.2607   -962.13327   -579.30615    395.72187   -3561.6032 
17021000    259.51136    -4712.634   -4212.1446    -4712.634            0    5008.3079    20.084456    20.043529    20.476885    8243.2438    4748.0484    5357.5917    4919.2836    666.78269   -943.11529   -47.398192   -3610.0495 
17022000    268.56119   -4708.7265   -4190.7837   -4708.7265            0    4919.5736    20.033292    20.059644    20.555358    8260.3907    4545.7233    4740.2103    5472.7873   -662.62066    730.68216    -1274.978    -3598.126 
17023000    253.08574   -4703.4546   -4215.3575   -4703.4546            0    5383.5221    20.009897    19.840285    20.864835    8283.3826    8093.8516    4437.3224    3619.3924   -539.63123   -286.05107    103.48316   -3565.0031 
17024000    266.68605   -4650.7796   -4136.4531   -4650.7796            0    5406.0936    19.920294    20.002294    20.819898     8295.721    8121.3878    4784.8026    3312.0903   -367.50231    290.97106    1173.5172   -3482.3991 
17025000    272.23724   -4678.1529   -4153.1205   -4678.1529            0    7182.7691    19.920196    20.056245    20.549055    8209.8475    9337.4729    4580.4581    7630.3764     495.1409    601.46218    266.86445   -3293.1117 
17026000    284.49686   -4702.1385   -4153.4624   -4702.1385            0     7741.183    19.797996    20.144294    20.607971    8218.8019    9114.4587    5526.9349    8582.1556    579.30128   -508.94388    534.03038   -3225.5825 
17027000    273.25679   -4672.4772   -4145.4785   -4672.4772            0    6003.6013    20.243973    19.809772    20.662829    8286.3829    5730.3705    7001.5498    5278.8837   -175.60779    594.86185    1034.4322   -3419.9529 
17028000    251.48666   -4685.2531   -4200.2399   -4685.2531            0    7066.6766    19.746499    20.208994    20.700405    8260.6394     8537.769    5376.4691    7285.7917   -275.89662   -663.91686   -190.55302   -3348.8965 
17029000    275.31606   -4709.8007   -4178.8306   -4709.8007            0    4898.1174    20.144288    19.774031    20.716132    8251.9352    5089.7532     5549.075     4055.524    486.58012   -105.33302   -40.473951   -3589.3617 
17030000    259.09408   -4673.0064   -4173.3216   -4673.0064            0     5581.463    19.975944    20.014826    20.720304    8284.2891     6274.863    5063.2799    5406.2459   -166.44204   -201.66647   -724.89219   -3498.9812 
17031000    269.46945   -4676.1064   -4156.4119   -4676.1064            0      6846.65    20.167501    19.915366    20.543919    8251.3246     7452.564     6082.607     7004.779    -183.0715     145.3628    189.20696   -3332.5058 
17032000    258.72099   -4668.9452     -4169.98   -4668.9452            0    6420.5712    20.054036    19.882868    20.741016    8270.1016    5474.7239    7359.1325    6427.8574   -574.73804   -230.00865   -1362.8423   -3395.5888 
17033000    262.64386   -4696.1595   -4189.6287   -4696.1595            0    5122.7327    20.003965    20.078844    20.737344    8329.2888    7191.1653     2832.251    5344.7818   -293.66174    -495.1797   -160.94958   -3567.3492 
17034000    274.80232   -4737.9966   -4208.0172   -4737.9966            0    4971.6142    19.926079     20.16617    20.504577    8239.4094    4550.5379    4633.4756    5730.8291    161.20417    713.63417    1117.4713   -3610.6114 
17035000    246.39948   -4706.9685   -4231.7664   -4706.9685            0     7044.606    19.845367    20.161067    20.561138    8226.5888    8325.0632    5152.3345    7656.4202   -50.768182    664.28821     -316.675   -3386.5802 
17036000     249.0676   -4701.9336   -4221.5858   -4701.9336            0    4415.8666    20.231869    19.791741    20.705112     8290.822    3104.6056    5802.0432    4340.9511    375.02911   -917.85529    315.40095   -3687.6495 
17037000    267.64782   -4704.6772   -4188.4959   -4704.6772            0    7010.3338    19.725876    20.329631    20.548727    8240.4459    8012.8005    5625.4313    7392.7698   -276.00913    1162.3965    446.01578   -3346.0048 
17038000    271.05823   -4679.6915   -4156.9329   -4679.6915            0    8389.4964    20.090724    19.975736    20.395819    8185.3929    7633.0808    9460.4997    8074.9086    41.040153   -635.23151   -127.25108    -3155.432 
17039000    255.43862   -4702.0494   -4209.4146   -4702.0494            0    6091.7465    19.909609    19.884968    20.789024     8230.415     7805.731    4904.7863    5564.7222    337.05043    273.67322    377.33609   -3478.2091 
17040000     259.8191   -4693.0053   -4191.9223   -4693.0053            0    5374.6656    20.299376    19.764979    20.552186    8245.8807    3256.2516    6209.5646    6658.1805    459.30887    168.48456   -176.28402   -3545.5773 
17041000    270.78281   -4696.3334    -4174.106   -4696.3334            0    5177.4678    20.029996    19.944732     20.66543    8255.6925    3744.8057    6296.7985    5490.7992    281.65109    -856.4668    198.80196   -3550.7347 
17042000    259.81054   -4689.7094   -4188.6429   -4689.7094            0    7475.8648    19.946147    19.741151    20.848655    8209.3642     9581.585    5678.1103    7167.8992    106.43424    539.54194    1010.5849   -3293.5938 
17043000    271.40499   -4691.8164   -4168.3891   -4691.8164            0    7198.0155    19.937617    19.981124    20.638487    8221.8782    7879.1586    6304.5522    7410.3358   -143.07306    83.749316   -342.35975   -3305.2919 
17044000    266.96206    -4732.102   -4217.2433    -4732.102            0     6646.967    20.081371    19.860013    20.747538    8274.4561    7776.3387    5411.4805    6753.0819    358.28205   -165.76663   -1257.1232   -3415.1241 
17045000    256.78295    -4726.483   -4231.2555    -4726.483            0    6194.0123    19.999125    20.324679    20.377048    8282.7769    5745.6506    5249.4561    7586.9302    79.923538   -465.33141    678.66731   -3483.0448 
17046000    259.72059   -4699.2679   -4198.3749   -4699.2679            0    6140.6328     20.00886    19.976183    20.595555    8232.0567    7447.0917    4297.4728    6677.3339      301.279     353.3053   -483.83438   -3461.1544 
17047000     262.9637   -4702.2871   -4195.1395   -4702.2871            0      6810.33    19.956295    20.021045    20.800946    8310.9323    7733.6201    7404.2071    5293.1627   -225.72704    392.39102    593.05872   -3369.6837 
17048000    248.51812    -4705.632    -4226.344    -4705.632            0    5821.2234    19.998205    20.046815     20.67328    8287.9244    6208.5501    5651.7077    5603.4123    -26.22781    87.302457   -1150.2491   -3522.7276 
17049000    269.84061   -4695.9021   -4175.4918   -4695.9021            0    6649.2304    20.174257    19.865506    20.614122    8261.5593    7173.0379    6399.4255    6375.2278    279.03713    914.95892   -1275.0354   -3374.3502 
17050000     240.7559   -4681.5116   -4217.1936   -4681.5116            0    5890.3363     19.95088    20.006824    20.640309    8238.6562    6536.6652    6422.4774    4711.8663    -189.5055     877.3798   -67.460581   -3509.4558 
17051000    270.02867   -4637.5698   -4116.7968   -4637.5698            0    6693.8948    20.083737     20.04349    20.562284    8277.3099    5757.4898    7816.6272    6507.5673   -168.30485   -1197.5503    562.23535   -3308.7361 
17052000    261.66918   -4713.7052   -4209.0542   -4713.7052            0    7732.3741    19.883964    19.874338    20.713212    8185.4601    7314.0672    7769.3325    8113.7224   -27.419388   -560.29701    -629.7213   -3285.9901 
17053000    251.48975   -4705.2904   -4220.2713   -4705.2904            0    6376.2745     20.15372    19.842405    20.629967    8249.8883    6233.8169    6039.2586    6855.7482    462.68391     2232.172   -37.629478   -3453.1024 
17054000    259.92531   -4667.2802   -4165.9924   -4667.2802            0    4008.7258     20.01318    20.042418    20.721532     8311.666    4827.0072    4110.5084    3088.6618    198.82905    197.11953    1018.9491   -3680.0662 
17055000    260.19965   -4694.8147   -4192.9978   -4694.8147            0     4926.055    19.925366    20.162062     20.68071    8308.1955     5841.756    4764.3644    4172.0445   -604.18927    208.08413    183.86189    -3596.125 
17056000    277.91279   -4681.1235   -4145.1453   -4681.1235            0    6032.5319    20.028041    19.968484    20.725802     8288.862    5867.0593    5386.5165      6844.02   -190.32141   -38.465664   -1519.5727   -3415.9054 
17057000    253.42078   -4710.3271   -4221.5838   -4710.3271            0     6356.581    20.154523    19.886127    20.483587    8209.7273    4480.3326    7983.9355    6605.4748    465.80798    515.06352    312.09717   -3460.5075 
17058000    261.71432   -4686.3468   -4181.6088   -4686.3468            0    6151.8237    19.921346    20.148101    20.570278    8256.4423    8619.1801    3868.9433    5967.3477   -487.23583    967.27524   -616.88558   -3440.8569 
17059000    263.60934   -4703.1339   -4194.7411   -4703.1339            0    6205.3396    20.254442    19.761075    20.674218    8274.8464    3905.0736    8278.7393     6432.206   -463.93291    1059.4773    1214.0377   -3445.8798 
17060000    259.34473   -4690.3786   -4190.2105   -4690.3786            0    6550.4438    19.884442    20.080416    20.683871    8258.8185    10251.919    3720.1931    5679.2189   -358.72498    412.36724   -154.04518   -3401.2331 
17061000    260.39905   -4673.1086   -4170.9071   -4673.1086            0    4486.9039    20.192221    19.929833    20.554586    8271.7327    2638.7606    6199.4703    4622.4806   -325.35094    1364.2189    346.89593   -3629.6307 
17062000    274.88154   -4671.2402    -4141.108   -4671.2402            0    6322.6772    20.014763    20.077354    20.485095    8231.8021    5157.9591    6690.5819    7119.4907    318.70416   -353.82724   -162.90824   -3382.0555 
17063000    276.09005   -4691.9017   -4159.4388   -4691.9017            0    6713.2565    20.060357    19.989997    20.625713    8271.0442    8427.5339    5205.0917     6507.144    474.92876   -94.232347   -799.10918   -3349.6543 
17064000    268.90362   -4698.2956   -4179.6923   -4698.2956            0    5005.6665    19.809161    20.135083    20.833239    8309.5269    6304.3562    3847.2867    4865.3565   -303.24497    135.06206   -50.578954    -3573.076 
17065000    273.54621   -4722.8144   -4195.2576   -4722.8144            0    5750.6677    20.004715    20.017446    20.593332    8246.4621    7636.7578    4170.3767    5444.8686   -767.26029   -813.00299   -1300.7477   -3503.6467 
17066000     277.5412   -4670.4963   -4135.2348   -4670.4963            0    6745.4853    19.956649    20.298124    20.284142    8216.7518    9730.3964    3282.8407    7223.2188   -564.02088    1287.3621    1421.8786   -3326.9038 
17067000    247.51726   -4684.7526   -4207.3948   -4684.7526            0    6770.4713    19.993121    20.059288    20.608698    8265.0727    8769.9687    4921.8884    6619.5568    386.59372    1166.1425   -1393.5168   -3391.2984 
17068000    254.49911   -4684.9515   -4194.1286   -4684.9515            0    6180.3381    20.070869    19.806627    20.935401    8322.5805    6782.3444    6204.4615    5554.2085   -415.13401   -494.96253    877.81202    -3443.982 
17069000    262.06347   -4732.3432   -4226.9318   -4732.3432            0    7287.9365    20.075516    20.022533    20.508546    8243.6703     7152.004    7330.0429    7381.7628   -951.83738    180.48226   -951.40731   -3350.7362 
17070000    259.94954   -4665.0273   -4163.6927   -4665.0273            0    7627.2039    20.034984    19.956344      20.5396    8212.2461    7025.9897    7831.4689     8024.153   -26.666347     -386.079   -55.742724    -3250.204 
17071000    259.72629   -4683.8318   -4182.9278   -4683.8318            0    4906.4521    20.085198    19.936549    20.726485    8299.4969    6653.5299    3283.3809    4782.4453    731.42671    1173.6475   -290.71435   -3589.0525 
17072000     279.9895   -4657.4876   -4117.5043   -4657.4876            0    6089.6862    20.228733    20.142156    20.207709    8233.6369    6300.7954    4443.7953     7524.468    639.78674    22.532409   -8.7333342   -3386.2599 
17073000    257.01247   -4719.1717   -4223.5015   -4719.1717            0    6296.5056    20.038588    19.992756    20.575997    8243.2918    5324.8074    7622.5119    5942.1976    140.16657    249.03378   -101.39221   -3466.5359 
17074000    262.46065   -4721.8628   -4215.6854   -4721.8628            0    7940.8382    19.981511    19.929258    20.660964    8227.5406    7513.1842    8360.0829    7949.2475    117.42288   -678.66006   -1390.2271   -3262.8623 
17075000    264.12693   -4704.5399   -4195.1489   -4704.5399            0    6436.6059    20.021358    20.098294    20.587959    8284.4948    7924.7011    4908.1374    6476.9792    458.29127    292.32231   -151.84736   -3417.4726 
17076000    266.73609   -4718.5338   -4204.1108   -4718.5338            0    6251.5637    20.143546    20.037386    20.489455    8270.0361    7661.8906    4887.3314     6205.469    73.940543       733.84    1223.3984   -3450.1097 
17077000     252.5247   -4730.0852     -4243.07   -4730.0852            0    4608.7771    20.010878    20.010432    20.671427    8277.3833    2951.3733    5744.4985    5130.4596   -126.70901    870.10111   -558.86955   -3686.7116 
17078000    263.11636   -4648.0261    -4140.584   -4648.0261            0    7453.0832    19.773946     20.09955    20.596569     8186.053    9598.3244    5013.4279    7747.4973    86.249563   -1152.6171    12.931505   -3250.7963 
17079000    255.89947   -4700.1959   -4206.6722   -4700.1959            0    5270.7699    20.046638    19.776412    20.822526     8255.102    4550.1442    5281.8218    5980.3436   -320.91693    389.77135   -473.55593   -3572.1127 
17080000    261.20911    -4664.025   -4160.2612    -4664.025            0    7438.4408    20.117301    19.963528    20.556088    8255.5779    8123.9663    6431.5533    7759.8028    78.711015    101.94783   -336.98562   -3264.6794 
17081000     274.8302   -4705.0569   -4175.0237   -4705.0569            0    6434.0276    20.194135      20.0024    20.384776    8234.0463    6698.1614    5114.9629    7488.9584   -81.173258    1156.7572   -575.42552   -3402.3927 
17082000    256.55992    -4729.825   -4235.0276    -4729.825            0    3163.5139    20.067081    19.986539    20.877488    8373.3654    2396.2216    4868.1524    2226.1679   -50.275203    1039.7802     806.6518    -3848.709 
17083000    273.41878   -4708.9088   -4181.5977   -4708.9088            0     4786.261    20.000465    20.082539    20.683835     8307.872    3246.0265    5476.7131    5636.0434   -486.15062    1.3832721    316.81419   -3601.6857 
17084000    276.67829   -4673.5573   -4139.9599   -4673.5573            0    5612.9821    20.208203    20.111539    20.330138    8262.5355    2799.5451    7121.0167    6918.3844   -125.41255    765.09133    -925.7707   -3463.5922 
17085000    260.50407   -4707.2931   -4204.8891   -4707.2931            0    5194.4089    19.920081    20.150754    20.487317    8223.7043    3970.4456    6195.7529    5417.0281    664.61094   -86.470414   -276.13965   -3581.9013 
17086000    260.18087   -4705.3123   -4203.5316   -4705.3123            0    3504.9325     20.12189    20.045784    20.704012    8351.1506    2771.7191    4238.8207    3504.2577   -285.46603   -1019.9317    559.69504   -3776.6555 
17087000     259.5833   -4702.8809   -4202.2527   -4702.8809            0    5468.6226    20.005226    20.126748    20.401526    8214.4734    5742.4426    4422.2387    6241.1863    560.39883    429.21799    -52.87591   -3547.1135 
17088000    271.49173   -4717.4867    -4193.892   -4717.4867            0     5078.409    19.950655     19.91318    20.826108    8273.8165    6144.4186     5753.105    3337.7033     585.2984    136.59234    1944.1954   -3581.1052 
17089000     248.7856   -4716.7981   -4236.9942   -4716.7981            0    5694.8926    19.885237    20.092429    20.619129    8238.2226    6673.6911     4314.438    6096.5487    83.566557   -485.35744   -194.15771   -3552.7755 
17090000    251.70653   -4688.1928   -4202.7556   -4688.1928            0    6326.3914     20.10029    20.096588    20.513872    8286.5219      6071.22    6708.3459    6199.6084   -503.97677    191.80948   -861.46208   -3438.2085 
17091000    268.15429   -4723.3298   -4206.1717   -4723.3298            0    3027.9289    20.137039    19.973286    20.687518    8320.5783    1051.2769    3915.1122    4117.3977    873.70685   -226.52336    289.89999   -3838.7413 
17092000    259.30981    -4685.176   -4185.0752    -4685.176            0    7324.3655    19.962478    19.742172    20.669919    8146.0703    7805.0794    7483.9409    6684.0761   -125.83043   -274.31111    1453.8677   -3314.9254 
17093000    274.28283   -4706.3942   -4177.4167   -4706.3942            0    6473.4928    20.159727    19.902935    20.620699    8273.8027    8449.4554    4912.1897    6058.8332    1117.4665   -398.68453   -1111.6137   -3396.2932 
17094000    261.21919   -4694.9291   -4191.1459   -4694.9291            0    7615.9294    19.892914    19.989089    20.714592     8236.976    8029.5179    8570.8137    6247.4567    578.30229   -309.94653    25.640232   -3276.2607 
17095000    249.44784   -4712.0915   -4231.0104   -4712.0915            0    7195.4092    19.986181    19.864996    20.698096      8217.67    5945.4148    7626.7988     8014.014    632.88409   -1340.6221    256.40497   -3368.6673 
17096000    262.91694   -4679.5027   -4172.4452   -4679.5027            0    6166.7416    20.092899    20.073886    20.432605     8241.339    3795.4202     6510.191    8194.6135   -706.58488   -1151.7122   -736.32724   -3431.2555 
17097000    263.26582   -4685.1414   -4177.4111   -4685.1414            0    6047.3206    19.825243    20.171196    20.526304     8208.446    6530.2952     5755.495    5856.1715    286.89682    579.42521   -429.35538   -3453.4757 
17098000    260.38832   -4689.7122   -4187.5314   -4689.7122            0    7391.3428    20.118652    19.983485    20.514092    8247.5017    7690.2118    7594.1948    6889.6217     17.51111   -374.98849    -1121.444   -3298.4907 
17099000    261.10754   -4704.4701   -4200.9022   -4704.4701            0    5522.7203    19.978257    19.939267    20.919517    8333.3271    6928.8543    4457.3318    5181.9748   -15.616983    122.56743   -657.48878   -3529.7093 
17100000     263.3268   -4691.0932   -4183.2453   -4691.0932            0    7039.2287    19.894504    20.053205    20.657903    8241.4409    6506.7208     6897.522    7713.4433   -186.70304    862.40181    -205.8569   -3337.1796 
17101000    258.10712    -4732.833   -4235.0517    -4732.833            0    5567.4974    19.915881    20.065548    20.615549     8238.449    8076.1546    3729.1912    4897.1463     1051.387    1385.4202   -187.41562   -3566.1206 
17102000    264.54813   -4698.2899   -4188.0866   -4698.2899            0    6486.9628    20.163011    19.804577    20.778596    8297.3068    6075.0538    6957.2703    6428.5644   -23.235975    298.91136   -202.60497   -3403.1141 
17103000    260.63859   -4658.8675    -4156.204   -4658.8675            0     7141.973    19.653193    20.044238    20.701763    8155.1133    8297.0818    4682.0495    8446.7877    465.81393    815.54729    1491.5078   -3306.7809 
17104000    282.58443   -4714.0573   -4169.0695   -4714.0573            0    6180.8589    19.900839    19.998818    20.585462    8192.8753    7036.6668    4989.9323    6515.9774    1151.6397   -236.32696   -651.64846   -3430.5515 
17105000    281.65572    -4675.576   -4132.3793    -4675.576            0     8446.696    20.198449     19.99004     20.24814    8175.5471    8777.6149    6785.0886    9777.3845    373.30586    1658.3466   -849.47399   -3125.2631 
17106000    248.11971   -4692.6365   -4214.1168   -4692.6365            0    7788.5863    19.904746    20.035607    20.564505       8201.2    7295.2657    8041.7227    8028.7705   -418.13057    1601.5839   -702.73085   -3282.5544 
17107000    262.09388   -4687.2046   -4181.7345   -4687.2046            0    7105.0263    19.829755    19.935029    20.745993    8201.0307    7634.4574    7339.1755     6341.446   -87.287018     -520.071    62.199561   -3331.9476 
17108000    270.14433   -4673.3172   -4152.3211   -4673.3172            0     8138.715    20.037144    19.726963    20.576829    8133.4443    8678.1301    7523.2249    8214.7901    32.051999    887.46645    661.26717   -3186.9235 
17109000    262.95924   -4690.7434   -4183.6044   -4690.7434            0     5629.712    20.172072    19.895076    20.402081    8187.8634    3198.1865    7672.2574    6018.6921    -1016.081     1836.159    1076.0209   -3511.3515 
17110000    269.73938   -4680.7809   -4160.5658   -4680.7809            0    7241.6945    19.932144    20.001033    20.642487    8229.4055    6791.2023    8325.2191    6608.6621    108.84885   -976.95782    873.80134   -3291.4362 
17111000    273.20504   -4684.0953   -4157.1964   -4684.0953            0    6009.2588    20.056831    19.920184    20.578331    8221.7793     4155.179    7265.6605    6606.9368   -7.2038412    87.636255   -57.720423   -3436.6489 
17112000     264.5412   -4688.8634   -4178.6734   -4688.8634            0    4814.3485    20.027257    19.941524    20.655465    8249.2562    6242.6917    3870.2483    4330.1055     288.9594   -296.85376    76.729769   -3599.4739 
17113000    257.74193   -4710.9451   -4213.8681   -4710.9451            0    6387.3442    20.128861    19.697581     20.55154    8148.4776    6462.8557    6023.8342    6675.3426    323.79563    374.54885    538.67195   -3454.8141 
17114000    264.66818   -4686.3844   -4175.9496   -4686.3844            0    7236.0482    20.088919    19.859702    20.559762    8202.5217    8046.2776    6344.7402    7317.1268   -566.52763    -855.9292    680.35364   -3310.3346 
17115000    259.60594   -4692.5113   -4191.8394   -4692.5113            0    6522.0096    19.967339    20.158058    20.381058    8203.4328    6531.7696    5712.8397    7321.4196   -336.90655   -712.90937   -744.62285    -3411.555 
17116000    257.86184   -4719.8208   -4222.5126   -4719.8208            0    5944.6988     20.01653    19.868371    20.789505    8267.8995    5894.7283    6333.5269    5605.8411    151.40125    804.03353    -517.8281   -3505.7077 
17117000    251.12852   -4701.7794    -4217.457   -4701.7794            0    6005.0447    19.912917     19.94033    20.732614     8232.302    5808.1956    6913.9664    5292.9722   -382.14169    783.52532    96.508668   -3496.4932 
17118000    247.66243   -4694.4851   -4216.8473   -4694.4851            0    4446.2511    20.185391    19.842818    20.722037    8299.9023    2171.6915    7004.6848     4162.377   -131.35745    111.33142    770.94401   -3678.6483 
17119000    249.26156   -4701.3086   -4220.5867   -4701.3086            0    5635.3071      20.0913    20.059328    20.616446    8308.7985    6048.7973    4485.0188    6372.1052    9.1675599     5.835517   -328.50925   -3537.7266 
17120000    260.48999   -4683.4948   -4181.1179   -4683.4948            0    7717.3878      19.9079      19.9192    20.697779    8207.6929     9751.764    5582.3882    7818.0112   -171.78151   -314.24207   -192.66133   -3257.3406 
17121000    267.18582   -4733.6789   -4218.3885   -4733.6789            0     6439.498      19.9714    19.925867     20.53645    8172.4283    6898.0515     6801.005    5619.4373    -348.0488    121.38201    126.78016   -3450.8874 
17122000    270.44013   -4675.8678   -4154.3013   -4675.8678            0    5765.1432    20.048831    20.202548    20.382911    8255.8426    6981.5016    4245.5736    6068.3543   -240.14937    529.50691   -381.12109   -3460.1608 
17123000    280.64141   -4722.5837   -4181.3432   -4722.5837            0     6154.237    19.896527    19.926084    20.646594    8185.5457    8493.6029    4350.6572     5618.451   -319.95189   -788.68429    428.84194   -3446.6639 
17124000    266.18898   -4692.8348   -4179.4669   -4692.8348            0    7151.9946    19.979835    19.960963    20.547022    8194.4967    6878.8622    7357.1521    7219.9694   -154.76717    1391.1247    385.68903    -3324.744 
17125000    267.28611   -4675.0294   -4159.5456   -4675.0294            0    6230.3138    20.163292     19.73526    20.778637    8268.3977    5330.0846    7479.4508     5881.406     125.8266    478.45417   -211.21947   -3408.2564 
17126000    246.69319   -4688.1806    -4212.412   -4688.1806            0    6609.6238    19.981137    20.017016    20.553749    8220.7342    6737.0351    6559.5746    6532.2617   -266.58626    1006.9134   -1706.1865   -3419.9778 
17127000    268.32934   -4706.8141   -4189.3183   -4706.8141            0    7367.8846    19.969664    19.912894    20.648206    8210.8374     8677.537    8217.9995    5208.1175    498.51679   -183.05667   -82.962488   -3307.0389 
17128000    263.44238   -4713.4652   -4205.3944   -4713.4652            0    6197.0059    19.953613    19.981173    20.653419     8234.448    6311.1581    8271.7503    4008.1093    350.37769    458.53413   -263.97606   -3461.1899 
17129000    280.87475   -4698.4622   -4156.7717   -4698.4622            0    4077.2271    19.972872    20.068258     20.69146    8293.5664    3975.9034     3959.524     4296.254    529.14647    200.53643   -100.21128   -3663.6182 
17130000    245.78092   -4698.0714   -4224.0622   -4698.0714            0    5387.5061    19.864697    19.733828    20.852808    8174.4367    6704.0489    4579.7975    4878.6719   -25.115076   -471.01655   -2092.7673   -3581.7865 
17131000    259.37977   -4727.2007    -4226.965   -4727.2007            0    6250.9791    19.977011    19.929896    20.595163    8199.7533    6649.0734    6736.1168     5367.747    649.08202    91.626293    320.04587   -3479.4418 
17132000    270.27155   -4675.1995   -4153.9581   -4675.1995            0    6696.1123    20.031751    20.202567    20.427324    8266.7909    6022.0615    6794.3852    7271.8903    379.89742   -40.376471    1761.8241    -3346.657 
17133000    275.21316   -4687.8394   -4157.0677   -4687.8394            0    6371.8522    20.044956    20.110277    20.529114    8275.4832    6022.1908    6821.7489    6271.6168   -254.41855   -649.54089   -1026.5057   -3388.0524 
17134000     269.4272   -4734.3389   -4214.7259   -4734.3389            0    5145.7237    20.023179    19.822204    20.930566    8307.4157    4088.8368    7064.3209    4284.0134    439.76667   -1910.7025     1597.162    -3591.295 
17135000    274.90388   -4726.4054   -4196.2302   -4726.4054            0    7772.3018    19.991235     19.96987    20.573422    8213.3702    7429.2603    8022.1381     7865.507    517.52891    956.65873    1026.9123    -3265.236 
17136000     268.5602   -4687.0011   -4169.0602   -4687.0011            0    6718.0526    20.082283    19.902363    20.456921    8176.3223    5847.6131     7677.202    6629.3427   -670.41291     1156.433    1317.1491   -3367.9776 
17137000     266.9476    -4715.013   -4200.1821    -4715.013            0    7055.5846    19.890418    20.140792    20.558653    8235.9765    7237.1114    6602.4238    7327.2187   -3.7691969   -1383.0584    448.66104   -3352.7128 
17138000    259.29155   -4706.7792   -4206.7137   -4706.7792            0    7009.3207    20.019203    19.923593    20.721765    8264.9687    6368.9461    8189.3351    6469.6809    255.72701    1317.4842     -608.883   -3361.8375 
17139000     256.5439   -4726.7095    -4231.943   -4726.7095            0     6115.393    19.727209     19.89398    20.897633    8201.3326    7098.7384    6339.8143    4907.6262   -146.20613    1353.7124    -558.6234   -3500.4929 
17140000    265.17691   -4682.0704   -4170.6544   -4682.0704            0    7410.9451    19.988424    19.928656    20.497001    8164.8248    7469.8944    7360.5258    7402.4151     879.6279    969.58142   -446.26883   -3288.1917 
17141000      268.232    -4716.382    -4199.074    -4716.382            0    4967.4186    20.196883    19.878907    20.604873    8272.6906    3309.9934    6408.4791    5183.7834    719.80013   -223.23113   -771.56734   -3599.7614 
17142000     257.6554    -4682.313   -4185.4029    -4682.313            0      6703.42    20.065328    19.843046    20.555251    8184.2217    6078.0652    6349.1512    7683.0435   -73.047389   -26.459678     1077.277   -3385.2929 
17143000    261.14123    -4701.223   -4197.5902    -4701.223            0    8482.0031    19.914283    19.877278    20.589281    8150.0967    8629.4775    9575.9082    7240.6235   -768.02751    -1015.737     272.2067   -3189.4125 
17144000    259.39077   -4677.9785   -4177.7216   -4677.9785            0      4831.85    20.006089     20.05839    20.519054    8234.0901    3365.8065    5338.4082    5791.3354   -49.812656   -325.18114   -242.09086   -3597.4852 
17145000    259.10349    -4698.432   -4198.7291    -4698.432            0    6343.5143    20.075213     20.05767    20.503117    8255.8259    4354.1562    7768.2759    6908.1108    14.356786   -836.12186    199.38521   -3434.9525 
17146000    258.44199   -4717.8121   -4219.3849   -4717.8121            0    6119.0624    20.013356    20.092437    20.450094    8223.3326    7838.7221    4214.9804    6303.4847     220.4787    135.46221    351.39917   -3485.5327 
17147000    254.37663   -4705.7508   -4215.1641   -4705.7508            0    5587.3946    19.916675    20.071121     20.58846     8230.237     4703.078    5661.7565    6397.3492    155.93531    985.28472    594.32248   -3544.5115 
17148000    270.84672    -4735.843   -4213.4924    -4735.843            0    4671.6832    20.067073    19.915144     20.80773    8315.5729    4785.2125    4685.6533    4544.1838   -905.66974   -429.44641    1242.3472   -3646.9382 
17149000    269.36019   -4680.8375   -4161.3537   -4680.8375            0    7066.8306    19.948547    19.817216    20.831649    8235.2644    7180.2636    6512.3621    7507.8661     148.8471   -220.07947   -1812.8944    -3312.607 
17150000    255.56755   -4693.3025    -4200.419   -4693.3025            0    6666.6668    20.022376    19.925935    20.553227    8200.0093     3913.209    9019.7172    7067.0742    563.64995     454.9281   -966.65807   -3403.1608 
17151000    284.03612   -4688.3172   -4140.5297   -4688.3172            0    7622.4111    20.049734    19.905315    20.415692    8147.8265    7377.5491    7140.5801    8349.1041    971.44588   -403.49858    1104.6637   -3234.7762 
17152000    275.77433   -4706.0572   -4174.2032   -4706.0572            0    7394.2517    19.899974    19.894386    20.769116    8222.4463    9205.4853    6192.8864    6784.3835    187.03536    967.51967    497.39221   -3287.5146 
17153000     259.4905   -4686.3904   -4185.9412   -4686.3904            0    6598.2411    19.715638    20.260706    20.505919    8191.1454    6940.2714     5828.534    7025.9181   -442.57989   -951.01387   -575.73699   -3397.7189 
17154000    265.94105   -4704.8273   -4191.9376   -4704.8273            0    6247.4338    20.206166    19.744495    20.630313    8230.6807     5842.196    6486.0071    6414.0984    542.50477    290.99715   -287.80061   -3442.0204 
17155000    264.33353   -4712.0059   -4202.2165   -4712.0059            0    5939.1304    19.868868    20.032716    20.735136     8253.152    8671.2483    3651.9802    5494.1626   -1035.7481    846.45439     1414.654   -3487.3604 
17156000     263.6064   -4723.0664   -4214.6793   -4723.0664            0     5661.639    20.057692    20.103442    20.502947    8267.3755    5871.9008    5424.5302    5688.4859    277.96365   -40.426714   -1417.6973   -3532.0487 
17157000    267.69727   -4689.3486   -4173.0719   -4689.3486            0     6832.671    20.091676    19.911991    20.494286     8199.052    5356.7957    7115.2305    8025.9867    440.31084    190.15667   -745.44444   -3356.0569 
17158000    256.90318   -4707.9913   -4212.5319   -4707.9913            0    6593.6103    19.938526    19.861541    20.686118    8191.9067    6663.8647    6762.1664    6354.7998    -396.3927   -102.69067   -417.40254   -3424.7896 
17159000    262.00708    -4707.528   -4202.2253    -4707.528            0     7585.487    20.028933    19.869489    20.578732    8189.6085    5441.5582     9250.103    8064.7999   -432.39887   -1014.7731   -31.896098   -3296.2372 
17160000    260.78247   -4689.0116   -4186.0707   -4689.0116            0    5525.9884    19.877444    20.188552     20.63489    8280.7156    7166.4047    4190.0291    5221.5314   -121.35337   -877.42543   -171.76337   -3518.7206 
17161000    259.61204   -4709.9594   -4209.2758   -4709.9594            0    6413.5189    20.070751    19.842295     20.62375    8213.4037    6600.5691    6098.0568    6541.9307   -506.21508   -1405.3663   -142.80873   -3441.0384 
17162000    260.38785   -4684.6783   -4182.4984   -4684.6783            0    6227.7706    19.835571    19.988491    20.665396    8193.4809    6595.2387    6277.8079    5810.2653   -394.70732    483.75078    231.72062   -3438.3202 
17163000    269.38137    -4697.753   -4178.2284    -4697.753            0    6705.9301    19.934763    19.919428     20.68965    8215.6342    6400.2995    6949.3211    6768.1695   -307.46294    524.25745    -1294.048   -3374.7467 
17164000    257.43782   -4697.1145    -4200.624   -4697.1145            0    5833.3885    20.140001    19.800779    20.524508    8184.9218    4465.7993    6811.7555    6222.6107    501.64366   -1177.6465   -60.899794   -3504.3001 
17165000    265.80418   -4708.1436   -4195.5178   -4708.1436            0    6486.7814    19.933243    20.015535    20.588517    8214.2941    6261.8784    6375.8451    6822.6207    294.46497   -518.02332    1431.0468   -3418.4205 
17166000    258.92755   -4668.8924   -4169.5288   -4668.8924            0     5603.759    20.257666    19.884066    20.444374    8235.0914    5460.5256    6098.0517    5252.6999   -673.54996   -932.14275   -264.67543   -3496.5154 
17167000     268.0186   -4705.3005   -4188.4041   -4705.3005            0    5872.9025    19.932832    20.012677    20.709808    8261.3358    7742.1917    3183.5124    6693.0034    309.42669    505.82096     1368.362   -3480.8185 
17168000    266.40622   -4665.7572   -4151.9704   -4665.7572            0     7353.797     19.82602    19.802534    20.778603    8157.7924    9197.3426    6137.4814    6726.5672    329.92236   -1608.2175    1321.3379   -3277.0669 
17169000    284.66726   -4709.1539   -4160.1491   -4709.1539            0    5434.9945    19.958197    20.110396    20.511457    8232.6271    5465.2695    5679.5132    5160.2007     322.2927    351.33586   -1700.6948   -3507.5997 
17170000    267.20383   -4685.6559   -4170.3308   -4685.6559            0    7976.3523    19.978538     20.01532    20.417644    8164.5431    7427.1765    8193.8133     8308.067   -1118.8028    105.87239   -441.67045   -3220.5747 
17171000    270.42345    -4698.675   -4177.1406    -4698.675            0    5742.1536    20.031976     19.93643    20.708822    8270.4008    4087.2426    7728.9046    5410.3135    627.87797   -558.82562   -594.51534    -3484.549 
17172000     250.2652   -4692.0756   -4209.4181   -4692.0756            0    5367.1644    19.959035    19.898304    20.777505    8251.8056    4914.9461    6675.7292    4510.8178    249.55251   -154.48214    129.60797   -3563.5114 
17173000    256.95413   -4706.2149   -4210.6572   -4706.2149            0    5953.0201     20.04301    19.943322     20.48873     8189.841    5097.9528    6285.0331    6476.0745     -296.962    -789.5817   -475.19774    -3499.626 
17174000    255.46235   -4680.0439   -4187.3633   -4680.0439            0    4471.9801    20.351444    19.863432    20.556242    8309.8513    3546.1213    5118.8415    4750.9774   -280.96086    123.65816   -552.21334   -3645.4011 
17175000    266.61662   -4717.3791   -4203.1865   -4717.3791            0     6709.293    19.940837    19.920405    20.774245    8252.1439    6363.4665    8526.3822    5238.0303    341.11902   -485.25953   -424.98754   -3395.7294 
17176000    265.04456   -4735.6708   -4224.5101   -4735.6708            0    6287.8868    19.994865     19.80793    20.807965    8241.1378    6170.2938    6602.7501    6090.6165   -239.57953   -277.12815    1633.8979   -3468.7781 
17177000    265.24203   -4691.1713   -4179.6298   -4691.1713            0    5446.1861    19.816722    19.977663     20.77071    8222.9535    6178.8923    4548.8647    5610.8014   -461.95657    265.68146    1037.4884   -3526.5049 
17178000     265.4287    -4701.806   -4189.9044    -4701.806            0    6141.9343    20.091085    20.069285    20.384981    8219.5038    4160.1133    6717.8969    7547.7926   -564.91233    1952.7691   -690.82814   -3453.6521 
17179000    257.48759   -4652.0861   -4155.4996   -4652.0861            0     5662.355    20.048204     20.02239    20.474716    8218.8165    4793.7237    4757.9581    7435.3831    264.79559    927.86334   -303.62347   -3476.7927 
17180000    257.10694   -4669.3156   -4173.4633   -4669.3156            0     5692.015    20.027248    20.206058    20.388167    8250.5146    4892.1987    4664.9261    7518.9202    6.7357821   -666.22089    84.902015   -3488.5699 
17181000    275.98185   -4739.3237   -4207.0695   -4739.3237            0    6039.0182    19.974431     19.81257    20.859676     8255.109     4406.771    7070.8947    6639.3889    32.962046    1352.0543   -192.57189   -3480.0182 
17182000    267.66804   -4704.1456   -4187.9253   -4704.1456            0    6927.3882    19.826931    20.029227    20.660827    8204.7885    6297.9972    6728.3705     7755.797   -154.84297   -1104.9618    474.04478   -3359.0049 
17183000    252.78164   -4716.4675   -4228.9569   -4716.4675            0    6975.7011    20.006204     19.92757    20.650724    8232.9278    5364.0442     8900.691    6662.3683   -568.94632    596.89272    711.19652   -3391.3928 
17184000    255.53441   -4709.1108   -4216.2912   -4709.1108            0    5599.1728    19.935942    20.102687    20.669073     8283.462    6251.3073    4853.2784    5692.9326   -52.165181    235.53533   -228.18126   -3539.8787 
17185000    266.21827   -4677.5643     -4164.14   -4677.5643            0    6124.5661    20.264021    19.865881    20.610944    8297.1961    6144.8013    6693.1274    5535.7697   -159.15873   -80.832212     32.86308   -3423.0302 
17186000    275.25419   -4684.6937   -4153.8429   -4684.6937            0    7593.9703    19.788688     20.16613    20.542357    8197.6588    8047.1192    6899.9655    7834.8261    295.94686    644.81808   -690.46649     -3245.95 
17187000    258.12106   -4704.3722    -4206.564   -4704.3722            0    5359.0904    20.088394    19.960051    20.669256    8287.6558    5363.4944    5953.9866    4759.7902   -157.29888   -891.63184   -1263.6999    -3558.827 
17188000    265.91278   -4690.7836   -4177.9485   -4690.7836            0    6890.4682    20.210364    19.941447     20.41291    8226.8907    4646.6616    7483.4353    8541.3078    418.32308    294.90329    916.88221   -3351.2248 
17189000    259.85719   -4720.0211   -4218.8647   -4720.0211            0    8027.6931    20.015986    19.858672    20.533847     8162.017    7296.1603     8717.168     8069.751    48.323103    1201.5783    82.403116    -3263.291 
17190000    261.93774   -4648.6843   -4143.5153   -4648.6843            0    8730.9894    20.045848    20.039604    20.353691    8176.2987    8238.2618    7425.0262     10529.68    326.55819   -20.465584   -135.84532   -3102.4066 
17191000    266.79048   -4700.1172   -4185.5893   -4700.1172            0    7634.5753    19.907942    19.876004    20.642466    8168.0246    9022.3797    7304.1327    6577.2134   -125.89156    825.91582    158.91851   -3276.1415 
17192000    264.18148   -4683.4613   -4173.9651   -4683.4613            0    7204.3039    19.872493    19.820435    20.782234    8185.7368    8288.4111    7018.1507    6306.3499   -211.44128    174.05938   -288.06011   -3313.9111 
17193000     274.9634   -4719.3585   -4189.0684   -4719.3585            0    6190.5976     19.97273    20.018769    20.678867    8268.0205    6723.1451    5076.4666    6772.1811   -957.73401    2014.3996   -826.47754   -3442.6025 
17194000    266.95498   -4681.2381    -4166.393   -4681.2381            0    5980.2937     20.22391    19.967154    20.557202    8301.2843    4121.1634    7580.5308     6239.187    76.571282    895.09231   -477.71972   -3442.3844 
17195000    261.15843   -4701.1896   -4197.5236   -4701.1896            0     6447.932    20.071403    20.044296    20.587224    8282.5933    5195.9333    7934.8402    6213.0224    49.022566   -165.80073    -115.3594   -3418.6577 
17196000     255.5531   -4688.3762   -4195.5206   -4688.3762            0     4878.178    20.084058    19.891762    20.711762    8274.5002    5777.8589     5264.282     3592.393   -891.20765   -723.89832    430.45813    -3606.846 
17197000    260.86931   -4682.9208   -4179.8124   -4682.9208            0    7713.6388    19.997907    19.889444    20.642705    8210.5792    7845.5987    7512.1686    7783.1492   -261.86191    1358.1264    552.67745   -3256.1591 
17198000    266.29566    -4693.663   -4180.0894    -4693.663            0     7228.589       19.792    20.136533    20.565365    8196.1672    8571.2802    5867.4194    7247.0673   -932.39439    24.338546    316.36221   -3316.0367 
17199000    264.20903   -4678.5776   -4169.0283   -4678.5776            0    5393.9779    20.168631    19.908917    20.589619    8267.4652    4236.0986     6206.201     5739.634    493.91223   -870.34702    560.65707   -3518.6629 
17200000    256.00058   -4697.7546    -4204.036   -4697.7546            0     5155.878    20.153141     19.96798    20.386266    8203.7904    3780.7228    4688.5735    6998.3376   -142.70558     924.8344    -1852.706   -3587.1668 
17201000    259.17105   -4696.7679   -4196.9348   -4696.7679            0    5573.1223    19.874744    20.015771    20.791315    8270.9584    4996.0329    5320.5302    6402.8039    479.55308   -945.22687   -1651.3704   -3524.6856 
17202000    259.98983   -4679.7237   -4178.3115   -4679.7237            0    5534.6194    19.951669    19.941958     20.78361    8269.2861    6944.0296    3905.4284    5754.4001    42.469068    441.00297    619.88855   -3510.8416 
17203000    253.14971   -4714.8203   -4226.5998   -4714.8203            0    5547.8765    20.098758    19.937665     20.70272    8296.0414    6504.4561     6271.272    3867.9015   -63.258038   -757.26142   -1714.7935   -3555.3663 
17204000    253.98432   -4705.8524   -4216.0223   -4705.8524            0     5616.191    20.001873    20.010152    20.687035    8279.7894    6678.4596     4030.631    6139.4823   -195.18408    -300.5696   -697.03231   -3537.8546 
17205000     247.5151   -4706.4044   -4229.0508   -4706.4044            0    6843.3599    20.068225    20.022833    20.445725    8215.5572    7035.4023    7002.4938    6492.1837    308.17811   -143.51004    962.70466   -3409.1103 
17206000    258.62902   -4704.6242   -4205.8364   -4704.6242            0    8074.7612    19.865786    19.931835    20.561532    8141.5767    7724.1643     9111.252    7388.8672    93.235169    216.47157    1511.1323   -3247.0671 
17207000    260.73523   -4700.0679   -4197.2181   -4700.0679            0    3687.2016     20.21962     19.83911    20.658206    8286.8172    3572.0539    3800.1304    3689.4204    -321.6247    191.00729    61.759717   -3751.6023 
17208000    260.05188   -4678.6798   -4177.1479   -4678.6798            0    6610.8453    19.952774    19.838948    20.792056    8230.3701    5912.3685    7975.8551    5944.3123     74.90092   -171.25602   -184.82029   -3383.6381 
17209000    251.10094   -4684.0366   -4199.7673   -4684.0366            0     6127.917    19.836281    19.999534    20.802861    8252.8357    6959.7701    5453.0042    5970.9766   -922.93737   -1007.9412    495.15817   -3462.2165 
17210000    284.31142   -4704.0964   -4155.7779   -4704.0964            0    7339.5777    19.974283    20.009386    20.520733    8201.5859    9310.8543    6423.8723    6284.0066    318.04858   -583.07411   -1994.4255   -3277.8784 
17211000    259.00319   -4684.7402   -4185.2307   -4684.7402            0     6474.373    19.916749    20.073245    20.663835    8261.2727    4399.6429    9084.9233    5938.5529    346.34372   -290.04745    209.47547   -3405.1841 
17212000    260.96698   -4696.7494   -4193.4526   -4696.7494            0    6001.7687    20.016109    19.944489    20.674839    8253.6245     7602.005    4362.0318    6041.2694    14.058395    313.03863   -160.93384   -3471.0159 
17213000    259.62898   -4660.4167   -4159.7004   -4660.4167            0    7773.6867    20.009272     20.23487    20.232818    8191.9651       7031.4    8073.9604    8215.6998    54.631916   -206.78576   -2483.4398   -3230.9671 
17214000    280.00383   -4724.9338   -4184.9228   -4724.9338            0    7340.0582    20.073547    19.941499    20.502264    8206.9867    5815.5681    8105.3422    8099.2642    256.08991   -362.78467    922.74089   -3306.3877 
17215000    253.43469   -4729.1946   -4240.4245   -4729.1946            0     6635.951    19.848515    19.835685    20.770667    8177.5964    8002.2117    7111.9651    4793.6761   -405.24054    441.41222    436.82404   -3449.0087 
17216000    262.67692   -4699.9053   -4193.3108   -4699.9053            0    6395.2313    19.961165    19.880242    20.628354    8186.0073    8355.9611    4607.2642    6222.4685    119.44418   -612.18191    2070.5178   -3429.8192 
17217000    257.32814    -4718.195    -4221.916    -4718.195            0    6890.8068    20.022964    19.859898    20.560776    8176.0752    5539.5513    8397.7058    6735.1632    88.384388   -734.49726    48.769729   -3400.2585 
17218000    263.91389   -4682.7429   -4173.7627   -4682.7429            0    5125.9448    19.949725    19.808518    21.058415    8321.7484     5480.764      5234.18    4662.8904    5.7733863    1977.6685    640.14062   -3551.6567 
17219000    276.40443   -4705.7559   -4172.6867   -4705.7559            0    7583.1773    19.893242    20.030356    20.812338    8293.0659     8553.526    6797.6379     7398.368   -1424.8649    -900.2999   -441.90599   -3255.5329 
17220000    260.17911    -4728.952   -4227.1747    -4728.952            0    6287.1989    20.039674    20.097114    20.351316    8196.2815     5434.881    5759.9183    7666.7975    572.70186    546.20109    811.60032   -3475.6384 
17221000    258.07219   -4685.7887   -4188.0748   -4685.7887            0    7416.2824    19.987466    19.913741    20.512322    8164.4214     6211.223    8226.8624    7810.7619    493.66855   -1212.1461    1836.7847   -3305.0202 
17222000    259.03738   -4701.7771   -4202.2018   -4701.7771            0    8415.5146    19.924368    19.943084    20.535855    8159.9909    9622.9706    8367.8251    7255.7482   -116.17415    529.93461    1030.1368   -3200.7126 
17223000    262.00853   -4714.3064   -4209.0009   -4714.3064            0    5715.2772     20.00369    20.054455    20.675801    8294.3683    6725.8855    4930.9559    5488.9903   -577.75863    402.01646    305.91419   -3517.6532 
17224000    269.70641   -4705.9987   -4185.8472   -4705.9987            0    8004.5751    20.158666    19.679436      20.6237    8181.6518    5424.3723    11227.256    7362.0967      42.1728     1309.153   -833.03738   -3230.7333 
17225000    269.62394     -4737.74   -4217.7476     -4737.74            0     6292.822    19.964283    20.058864    20.562624    8234.5256    5411.0323    8717.5288    4749.9049    253.31697    515.24061    638.43048   -3462.0293 
17226000    264.54097   -4704.7953   -4194.6058   -4704.7953            0    5502.4984    20.237048    19.950043    20.467387    8263.2979    4355.4628    4652.9569    7499.0756   -295.48655    325.98506   -740.24808   -3531.4903 
17227000    286.75489   -4678.7208   -4125.6899   -4678.7208            0    5766.4484    19.875678    20.016663    20.819629    8282.9801    6181.0129    5069.9141    6048.4181    100.22139   -1194.8264   -689.81374   -3429.1101 
17228000    279.13804   -4702.1371   -4163.7959   -4702.1371            0    6474.6887     19.97834    19.901475    20.674185    8220.0239    6749.6659    6323.6366    6350.7635   -497.50416     657.4938    425.58548   -3387.6062 
17229000    268.11792   -4696.1471   -4179.0592   -4696.1471            0    6541.3124    19.904006    20.195488    20.564081    8266.1665    7942.3889    4769.2154    6912.3328   -385.01967    28.761593   -276.41399   -3390.4807 
17230000    266.72858   -4659.5351   -4145.1266   -4659.5351            0    7394.5122    20.077331    19.893092      20.5947    8225.5276    7113.2932    8735.3121    6334.9312    818.46878    -35.72746     9.489025   -3258.0744 
17231000    267.97726    -4687.578   -4170.7613    -4687.578            0    5380.1449    20.012813    19.986544    20.686949    8274.5099    5704.2619    5311.0293    5125.1435   -532.93429    -2022.153    352.18478    -3521.511 
17232000    261.45344   -4685.4118   -4181.1768   -4685.4118            0    6187.0611    20.120096    20.018986    20.439129    8232.5523    8279.6597    4872.7493    5408.7744    1000.7289   -612.67561    666.49429   -3438.3377 
17233000    262.91002   -4704.1272   -4197.0831   -4704.1272            0    5681.6957    20.132091    19.768496    20.545641    8176.7782    4455.8521    6077.4674    6511.7675    446.12524   -518.15085    209.99544   -3519.5414 
17234000    267.30382   -4685.5756   -4170.0577   -4685.5756            0    5541.1858    19.988009    19.938313    20.700222    8249.6008    5253.7354    6000.6568    5369.1652    704.59153    742.31498   -54.746249   -3503.3867 
17235000    246.87728   -4700.9158   -4224.7922   -4700.9158            0    4626.9556    19.958359    20.149701     20.55666    8266.9633    5066.0737    3430.0647    5384.7284   -165.31376    1195.9984   -1255.9116   -3666.9424 
17236000    267.88741   -4721.6852   -4205.0418   -4721.6852            0    6175.5914    20.101977    20.049681    20.395506    8220.1687     6711.364    4109.1996    7706.2106    -68.86937    309.96919    850.51274   -3464.6951 
17237000    257.62788   -4694.7368   -4197.8798   -4694.7368            0    7470.7081    20.256237    19.726953    20.502009    8192.4764    7532.6846      7177.98    7701.4598   -718.20706   -85.659709    26.011135   -3305.2881 
17238000    263.86999   -4676.1962   -4167.3007   -4676.1962            0    6177.8563    19.934219    20.001334    20.669685    8241.2302      7707.62    4686.5925    6139.3563   -828.61154   -481.93544    1698.2113   -3424.7849 
17239000    248.70821   -4676.8956   -4197.2409   -4676.8956            0    5827.6603    20.060404    19.753069    20.712129    8207.2753    5891.5265    7095.2209    4496.2334    36.805182   -206.98693   -229.18712   -3499.7009 
17240000    261.88973   -4687.7693   -4182.6929   -4687.7693            0    4664.7774    20.009941    20.149412    20.443163    8242.4494     4541.953    4862.4611    4589.9181   -653.19054   -993.62681   -484.85294   -3621.9509 
17241000    251.23908   -4701.1339   -4216.5982   -4701.1339            0    6593.3929    20.044397    19.714365    20.814686    8225.1844    6262.5404    8158.4223    5359.2161    747.04729     -1455.54    454.80521   -3425.6819 
17242000    263.28851    -4689.344   -4181.5699    -4689.344            0    9428.7939    20.070597    19.661855    20.661367    8153.4951    7238.5456    10582.307     10465.53   -195.86326    1904.5936   -1490.0653   -3060.3886 
17243000    260.23473   -4675.7659   -4173.8813   -4675.7659            0    6018.2246    20.056259    20.013063      20.6003    8268.6962    7409.6214     5138.323    5506.7294    1030.4447    501.76568   -356.91114   -3448.1409 
17244000    265.58613   -4680.1795   -4167.9743   -4680.1795            0    7636.9037    20.097461    19.987969    20.413097    8200.0926     6684.321    8977.2422    7249.1479   -165.75872    953.04308    85.923575   -3254.6775 
17245000    272.22139   -4664.1178   -4139.1159   -4664.1178            0     4947.687    19.976985    19.937501    20.831692    8297.0785    5565.7585    5365.1031    3912.1992    303.76578   -657.80104   -1359.7429   -3540.4241 
17246000    252.59787   -4666.5469   -4179.3906   -4666.5469            0    5591.6121    20.058087    19.911111    20.831161    8319.5241    5507.9489    6008.1555     5258.732    160.08507   -383.39808    1921.4659   -3500.9507 
17247000    255.09227   -4687.6066   -4195.6397   -4687.6066            0    5336.5871    20.076349    19.975137     20.63205    8274.0259    4970.3011    5624.9665    5414.4937    -473.6263    888.15242    362.46074   -3551.6835 
17248000    270.87409   -4677.9049   -4155.5014   -4677.9049            0    7689.8615    20.040734    20.065343    20.354192    8184.9129    8470.0578    4367.0429    10232.484    632.24521   -1348.4352   -496.64803   -3237.5737 
17249000    252.99048   -4691.3112   -4203.3978   -4691.3112            0     6570.298    20.114756    19.884776    20.540444    8215.7133     7700.547    4988.2921     7022.055    970.65596    74.262714    178.66986   -3416.1595 
17250000     276.0253   -4675.1953   -4142.8573   -4675.1953            0    5968.5986    19.990584    19.806313    20.879445    8267.0027    5826.1515     7383.193    4696.4513    43.973626    111.79518   -2518.7521   -3423.2487 
Loop time of 459.83 on 64 procs for 250000 steps with 972 atoms

Performance: 93.948 ns/day, 0.255 hours/ns, 543.680 timesteps/s
192.3% CPU use with 32 MPI tasks x 2 OpenMP threads

MPI task timing breakdown:
Section |  min time  |  avg time  |  max time  |%varavg| %total
---------------------------------------------------------------
Pair    | 25.337     | 34.768     | 45.603     |  80.3 |  7.56
Bond    | 0.8075     | 1.0891     | 1.6362     |  15.3 |  0.24
Kspace  | 195        | 210.77     | 226.17     |  47.6 | 45.84
Neigh   | 2.2949     | 2.8271     | 3.6053     |  27.0 |  0.61
Comm    | 83.954     | 99.262     | 111.34     |  71.1 | 21.59
Output  | 0.52621    | 0.52661    | 0.52811    |   0.0 |  0.11
Modify  | 86.879     | 92.634     | 98.641     |  39.3 | 20.15
Other   |            | 17.95      |            |       |  3.90

Nlocal:        30.3750 ave          35 max          25 min
Histogram: 3 1 4 1 4 2 3 4 4 6
Nghost:        2619.00 ave        2640 max        2596 min
Histogram: 2 2 6 2 3 4 3 3 5 2
Neighs:        9518.53 ave       11989 max        7120 min
Histogram: 2 2 3 4 6 7 1 2 3 2

Total # of neighbors = 304593
Ave neighs/atom = 313.36728
Ave special neighs/atom = 2.0000000
Neighbor list builds = 8056
Dangerous builds = 0

unfix		3
unfix		2
unfix		1

write_data	data.final.${pid}
write_data	data.final.0
System init for write_data ...
PPPM initialization ...
  extracting TIP4P info from pair style
  using 12-bit tables for long-range coulomb (../kspace.cpp:340)
  G vector (1/distance) = 0.37257732
  grid = 24 24 25
  stencil order = 5
  estimated absolute RMS force accuracy = 0.003386609
  estimated relative force accuracy = 1.0198672e-05
  using double precision FFTW3
  3d grid and FFT values/proc = 3458 576
Last active /omp style is kspace_style pppm/tip4p/omp
WARNING: Not all mixed pair coeffs generated from mixing. Use write_data with 'pair ij' option to store all pair coeffs. (../write_data.cpp:312)

write_restart   restart.lmp.${pid}
write_restart   restart.lmp.0
System init for write_restart ...
PPPM initialization ...
  extracting TIP4P info from pair style
  using 12-bit tables for long-range coulomb (../kspace.cpp:340)
  G vector (1/distance) = 0.37257732
  grid = 24 24 25
  stencil order = 5
  estimated absolute RMS force accuracy = 0.003386609
  estimated relative force accuracy = 1.0198672e-05
  using double precision FFTW3
  3d grid and FFT values/proc = 3458 576
Last active /omp style is kspace_style pppm/tip4p/omp
Total wall time: 0:07:39
