LAMMPS (30 Jul 2021)
Processor partition = 0
  using 4 OpenMP thread(s) per MPI task
using multi-threaded neighbor list subroutines
variable        pid world 0 1
variable        phase world IceVI IceV

shell cd ${phase}
shell cd IceVI
include Restart.lmp
echo both
log log.lammps
#include		in.partitions
include		in.temp
variable        temperature equal 220.77
variable	tempDamp equal 100.0
include		in.pressure
variable        pressure equal 8351.8
variable        pressureDamp equal 1000.0 # This is 1 ps
include		in.seed
variable        seed equal 745823

units		real
atom_style	full
read_restart	restart.lmp.${pid}
read_restart	restart.lmp.0
Reading restart file ...
  restart file = 30 Jul 2021, LAMMPS = 30 Jul 2021
WARNING: Restart file used different # of processors: 32 vs. 16 (../read_restart.cpp:659)
  restoring atom style full from restart
  orthogonal box = (-0.075042240 -0.048578228 -0.11971458) to (24.805043 24.778579 22.929715)
  4 by 2 by 2 MPI processor grid
  restoring pair style lj/cut/tip4p/long/omp from restart
  restoring bond style harmonic/omp from restart
  restoring angle style harmonic/omp from restart
  1920 atoms
  1280 bonds
  640 angles
Finding 1-2 1-3 1-4 neighbors ...
  special bond factors lj:    0        0        0       
  special bond factors coul:  0        0        0       
     2 = max # of 1-2 neighbors
     1 = max # of 1-3 neighbors
     1 = max # of 1-4 neighbors
     2 = max # of special neighbors
  special bonds CPU = 0.001 seconds
  read_restart CPU = 0.006 seconds
include 	in.setup
variable	out_freq equal 1000
variable	out_freq2 equal 10000
variable	out_freq3 equal 1000

timestep	2.0

neigh_modify    delay 7 every 1

include		in.tip4p
# This is TIP4P/Ice

# create groups ###
group ox type 2
640 atoms in group ox
group hy type 1
1280 atoms in group hy

# set charges - beside manually ###
set group ox charge -1.1794
Setting atom values ...
  640 settings made for charge
set group hy charge 0.5897
Setting atom values ...
  1280 settings made for charge

# ### TIP3P Potential Parameters ###
pair_style lj/cut/tip4p/long/omp 2 1 1 1 0.1577 8.5
pair_coeff 1 1*2 0.000 0.000
pair_coeff 2 2 0.21084 3.1668
bond_style  harmonic
bond_coeff  1 450 0.9572
angle_style harmonic
angle_coeff 1 55 104.52
kspace_style pppm/tip4p/omp 1.0e-5
pair_modify tail yes

thermo          ${out_freq}
thermo          1000
thermo_style    custom step temp pe etotal epair emol press lx ly lz vol pxx pyy pzz pxy pxz pyz enthalpy

restart 	${out_freq3} restart.lmp.${pid} restart2.lmp.${pid}
restart 	1000 restart.lmp.${pid} restart2.lmp.${pid}
restart 	1000 restart.lmp.0 restart2.lmp.${pid}
restart 	1000 restart.lmp.0 restart2.lmp.0


include         in.dump
dump            myDump all atom ${out_freq2} dump.water.${pid}
dump            myDump all atom 10000 dump.water.${pid}
dump            myDump all atom 10000 dump.water.0
dump            myDump2 all dcd ${out_freq2} dump.dcd
dump            myDump2 all dcd 10000 dump.dcd
dump_modify     myDump append yes
dump_modify     myDump2 append yes


variable natoms 	equal  "count(all)"                        # NUMBER ATOMS
variable H      	equal  "enthalpy/v_natoms"                 # ENTHALPY-per-atom
variable Vol      	equal  "vol/v_natoms"                 # volume-per-atom
fix AVG all 		ave/time ${out_freq} 1 ${out_freq} v_Vol v_H file vol_enthalpy.dat
fix AVG all 		ave/time 1000 1 ${out_freq} v_Vol v_H file vol_enthalpy.dat
fix AVG all 		ave/time 1000 1 1000 v_Vol v_H file vol_enthalpy.dat




fix 		1 all shake 1e-6 200 0 b 1 a 1
Finding SHAKE clusters ...
       0 = # of size 2 clusters
       0 = # of size 3 clusters
       0 = # of size 4 clusters
     640 = # of frozen angles
  find clusters CPU = 0.000 seconds
fix             2 all nph aniso ${pressure} ${pressure} ${pressureDamp}
fix             2 all nph aniso 8351.8 ${pressure} ${pressureDamp}
fix             2 all nph aniso 8351.8 8351.8 ${pressureDamp}
fix             2 all nph aniso 8351.8 8351.8 1000
fix             3 all temp/csvr ${temperature} ${temperature} ${tempDamp} ${seed}
fix             3 all temp/csvr 220.77 ${temperature} ${tempDamp} ${seed}
fix             3 all temp/csvr 220.77 220.77 ${tempDamp} ${seed}
fix             3 all temp/csvr 220.77 220.77 100 ${seed}
fix             3 all temp/csvr 220.77 220.77 100 745823


run             250000
PPPM initialization ...
  extracting TIP4P info from pair style
  using 12-bit tables for long-range coulomb (../kspace.cpp:340)
  G vector (1/distance) = 0.37460231
  grid = 30 30 30
  stencil order = 5
  estimated absolute RMS force accuracy = 0.0032508704
  estimated relative force accuracy = 9.7898997e-06
  using double precision FFTW3
  3d grid and FFT values/proc = 7920 1800
Last active /omp style is kspace_style pppm/tip4p/omp
Neighbor list info ...
  update every 1 steps, delay 7 steps, check yes
  max neighbors/atom: 2000, page size: 100000
  master list distance cutoff = 10.8154
  ghost atom cutoff = 10.8154
  binsize = 5.4077, bins = 5 5 5
  1 neighbor lists, perpetual/occasional/extra = 1 0 0
  (1) pair lj/cut/tip4p/long/omp, perpetual
      attributes: half, newton on, omp
      pair build: half/bin/newton/omp
      stencil: half/bin/3d
      bin: standard
Setting up Verlet run ...
  Unit style    : real
  Current step  : 8750000
  Time step     : 2
Per MPI rank memory allocation (min/avg/max) = 12.55 | 12.55 | 12.55 Mbytes
Step Temp PotEng TotEng E_pair E_mol Press Lx Ly Lz Volume Pxx Pyy Pzz Pxy Pxz Pyz Enthalpy 
 8750000    225.50371   -9280.4167   -8420.6937   -9280.4167            0    7826.3746    24.880085    24.827157    23.049429    14237.674    8372.9247    8080.3378    7025.8612   -216.46591   -769.06418    774.21048   -6795.6106 
 8751000    219.44851    -9272.707   -8436.0692    -9272.707            0    8416.6998    24.712566    25.019301    22.980957    14208.922    9610.2086    7803.9848     7835.906   -280.04851    1001.7655   -408.32296   -6691.9392 
 8752000    225.08704   -9298.5683   -8440.4338   -9298.5683            0     8442.384    24.829575    24.976247    22.942392    14227.715    9047.3129    8140.0198    8139.8193     237.7209    610.63096    823.75548   -6688.6676 
 8753000      228.138   -9307.2526   -8437.4865   -9307.2526            0    8508.6687    24.947016    24.851488    22.953198    14230.305    8246.1033    8406.0885    8873.8142    -465.9348    470.40116    652.84324   -6671.6451 
 8754000    216.68426   -9304.0011   -8477.9018   -9304.0011            0    7926.9309    24.943535    24.858526    22.968799    14242.023    7402.3896    8504.4056    7873.9976   -182.20404    -1520.478    394.95928   -6831.4363 
 8755000    216.88745    -9249.809   -8422.9351    -9249.809            0    8061.0845    24.897039    24.875625    23.060935    14282.315    7794.7424    9377.5274    7010.9838   -111.38317   -1675.2403   -50.805628   -6743.8683 
 8756000    221.09111   -9240.1822   -8397.2821   -9240.1822            0    9220.3806     24.73786    24.930262    23.071552    14228.718    9228.2854    9595.5313     8837.325    170.01952   -382.29195    437.51788   -6483.9493 
 8757000    214.15207   -9272.2411   -8455.7957   -9272.2411            0    8677.2326    24.844732    24.930849    22.972201    14228.987    8881.6902    8453.6691    8696.3385   -401.29141    798.80792    5.0781409   -6655.1383 
 8758000    217.69895   -9288.6613   -8458.6936   -9288.6613            0     7677.613    25.047599    24.892489    22.841715    14241.743    7284.6553    7509.5795    8238.6042    558.22898   -329.93407    1187.7801   -6864.0441 
 8759000    230.58727   -9280.3638     -8401.26   -9280.3638            0    8612.8868    24.867311    24.944761    22.902964    14206.917    9266.0165    8626.9194    7945.7247   -741.99442   -741.69795    847.75209   -6616.7274 
 8760000    222.13106   -9271.8045   -8424.9395   -9271.8045            0    8074.0872    24.808762    25.028233    22.935829    14241.303    8864.2719    7418.0146    7939.9749    96.966552   -665.38022    613.43646   -6747.9937 
 8761000    214.99656   -9256.3983   -8436.7334   -9256.3983            0    9122.5536    24.851649    24.902113    22.954561    14205.627     8362.132    10217.539    8787.9898   -193.61235   -1044.6377   -214.97995    -6546.773 
 8762000    225.89697   -9260.6425   -8399.4202   -9260.6425            0    8705.1396    25.000163    24.965539    22.805522    14233.897    7627.4001    8739.9504    9748.0682    892.57789   -414.50528    884.04949   -6592.3483 
 8763000    230.67908    -9293.701   -8414.2471    -9293.701            0    7962.1729    25.005145    24.952956    22.860867     14264.09    7340.6578    7967.7765    8578.0844   -681.74179   -142.37097   -519.69914   -6757.8992 
 8764000    214.74135   -9288.2426   -8469.5506   -9288.2426            0     9765.317    24.893948    24.931072    22.762511    14127.161    9222.7122    9451.8791     10621.36   -54.123991   -752.34386    223.68682   -6457.6008 
 8765000    221.29685   -9283.8905    -8440.206   -9283.8905            0    8485.5722    24.951714    24.986685    22.803207    14216.902    8569.2298    7225.3691    9662.1177    1045.6003    313.12237    186.86472   -6680.8165 
 8766000    229.43075   -9299.6455   -8424.9509   -9299.6455            0    8396.3821    24.993888    24.879087    22.848937    14208.042    6900.8973    9299.9195    8988.3294   -177.25755   -636.18056   -1187.6916   -6685.1389 
 8767000      231.542   -9310.1382   -8427.3945   -9310.1382            0    8611.5275    24.859579    24.849523    22.985985    14199.562    8399.3182    8992.1852     8443.079    37.258942   -1268.9197   -61.181549   -6644.0674 
 8768000    225.54334   -9327.6165   -8467.7424   -9327.6165            0     8331.025    24.773073    24.853515    23.058005    14196.766    9486.2953    8169.4147    7337.3652    649.06496   -642.59388   -22.090853   -6742.8431 
 8769000    213.73308   -9268.3454   -8453.4974   -9268.3454            0    8936.2889    24.824352    24.890357    22.978523    14198.131    9809.9021    9417.8117     7581.153   -1646.1292   -635.54524    936.83797   -6603.1032 
 8770000    222.25564   -9317.1827   -8469.8428   -9317.1827            0    6938.5644    24.881206    24.899119    23.082792    14300.254    6752.2576    7389.2319    6674.2036    718.19047   -594.01193    -343.1405   -7022.7738 
 8771000    217.24898   -9276.4061   -8448.1539   -9276.4061            0    9305.6087    24.892106    24.857831    22.924486    14184.841    9500.5859    9138.0504    9278.1898   -7.7774539    138.98619    452.96119     -6523.09 
 8772000    226.54621   -9281.8592   -8418.1617   -9281.8592            0    8155.3682    25.078066    24.860543    22.791145    14209.238    7754.4665    8226.9559    8484.6821    76.602198    612.04437    732.45211   -6728.1479 
 8773000    215.55068   -9303.9021   -8482.1247   -9303.9021            0    7125.2499    24.996408    24.946567    22.848924    14248.008    6780.1622    7061.2355     7534.352   -270.40037    363.70931    67.133855   -7001.5506 
 8774000    230.30051   -9255.4109   -8377.4004   -9255.4109            0    7591.2244    24.827123    25.008868    22.973356    14264.116     8658.738    7311.9252      6803.01    956.91969     759.3613    645.89817   -6798.2169 
 8775000    220.04676   -9282.3774   -8443.4588   -9282.3774            0    7814.1841    24.802747    25.062434    22.964513    14275.136    8983.0709    6226.1829    8233.2985    -117.7524   -230.40298   -779.67069   -6816.6377 
 8776000    225.26964   -9270.0231   -8411.1925   -9270.0231            0    8075.0473    24.879923    24.923237    22.951351    14231.862    7507.7137    8970.6976    7746.7308    -328.1644    1056.7075     12.89236   -6735.1589 
 8777000    214.86594   -9255.4403   -8436.2734   -9255.4403            0    7189.9147    24.893306    25.067339    22.889849    14283.471    7851.6895    5941.6572    7776.3976    162.98184    429.82807   -168.20489   -6938.5439 
 8778000    224.38751   -9296.9423   -8441.4748   -9296.9423            0    7999.0496    24.855161     25.04067    22.843841    14217.776    8138.0803    7936.2244    7922.8441    222.69662   -561.33276   -233.04818   -6782.8585 
 8779000    219.49786   -9299.9929   -8463.1669   -9299.9929            0    8853.5533    24.904564    24.968993    22.860865    14215.843    8766.3778    8078.2247    9716.0574   -410.33208   -836.60595   -422.08685   -6627.6173 
 8780000    222.25236   -9259.3626   -8412.0352   -9259.3626            0    7853.0947    24.909835    24.913559     22.96828    14253.945    8105.6063    7547.4039    7906.2739   -264.41991   -72.972259   -934.94295   -6779.5404 
 8781000    226.46204   -9260.4762   -8397.0997   -9260.4762            0    8316.7421    24.910149    24.849038    23.008206    14241.924    7254.9482    10009.087    7686.1909   -110.20059   -569.31767    503.54772   -6669.6803 
 8782000    228.71612   -9286.8664   -8414.8962   -9286.8664            0    6502.0048    24.929293    24.799293    23.160539    14318.513    6080.8953    7501.3608    5923.7583   -615.40672    267.12884    864.53045   -7057.1422 
 8783000    228.92386   -9301.3627   -8428.6006   -9301.3627            0    8231.4824    24.871637    24.916826    22.949152      14222.1    8392.6983    9111.7631     7189.986   -774.51346    129.19537   -1494.3281   -6721.2698 
 8784000    222.21004   -9324.9662   -8477.8002   -9324.9662            0    8266.8827    24.759791    25.007991    22.950344    14210.684    8559.5637    7644.6368    8596.4477   -79.055269    883.60903    483.97465   -6764.5033 
 8785000    213.87141   -9308.0476   -8492.6722   -9308.0476            0    6797.0241    24.904697    24.982961    22.956398    14283.311    6775.0929    6479.7502    7136.2293   -199.52933    369.32218   -582.25851   -7076.8015 
 8786000    223.05116   -9290.9097    -8440.537   -9290.9097            0    8695.7568    24.898176    24.841352    22.948968    14194.036    8706.6183    8507.1537    8873.4984   -462.07708   -164.34003    1854.8171   -6640.4679 
 8787000    223.59011   -9300.7263   -8448.2989   -9300.7263            0    8085.9241    24.884194    24.817787    23.031452    14223.548    8414.5866    9178.1073    6665.0784   -980.59884   -738.21237    622.57107   -6770.9882 
 8788000     223.7145   -9274.0404   -8421.1387   -9274.0404            0    8169.3593    24.811944    24.939701    23.033474     14253.17    8419.1461     8349.576    7739.3557   -1013.6522   -355.19982    -391.5397   -6722.9914 
 8789000    217.62435   -9294.3289   -8464.6456   -9294.3289            0    7968.4668     24.81737    24.942134    23.001769    14238.053    8044.9902    8227.6511     7632.759   -782.07886    -85.78948    38.851897   -6810.0142 
 8790000    218.55941   -9294.8744   -8461.6262   -9294.8744            0     8029.648    24.931958    24.845711    22.981908    14236.194    8140.0432    7772.9727    8175.9279   -441.95634    487.27066    63.432691   -6794.5084 
 8791000    221.99638   -9331.5317   -8485.1802   -9331.5317            0    8945.9508     24.87205     24.87666    22.910373    14175.416    8657.9949    8506.0321    9673.8254   -66.936403    101.57525   -23.485898    -6635.749 
 8792000    219.87895   -9296.1655   -8457.8867   -9296.1655            0    6382.4368    24.975532    24.959793    22.961471    14313.816    6979.1921    6210.0505    5958.0676   -536.00205   -14.327343    837.07238   -7125.5381 
 8793000    226.80234   -9277.9827   -8413.3088   -9277.9827            0    8880.8926     24.80852    24.995067    22.892462    14195.401    10380.799    8821.8456    7440.0329    808.59898    137.89636   -521.50271   -6574.7387 
 8794000    221.45929   -9290.9791   -8446.6753   -9290.9791            0    7482.0339    24.907201     25.01543    22.848455    14236.058    7015.4592    7508.1613    7922.4811    311.89004     -37.0924   -320.31876   -6893.2682 
 8795000    209.32836   -9291.8455   -8493.7903   -9291.8455            0    7602.9466    24.886451    24.956836      22.9256    14238.794     7559.993    8133.4893    7115.3575   -111.59138   -248.51947     1107.953   -6914.9761 
 8796000    230.71594   -9275.7557   -8396.1613   -9275.7557            0    8602.5637    24.882921    24.934524    22.908177    14213.236    8290.9936    8640.6756    8876.0219    -601.3549    666.96188   -777.75408   -6612.9748 
 8797000    220.68082   -9302.8064   -8461.4705   -9302.8064            0     8458.059    24.947893    24.830203    22.961955    14224.041    9008.7356    8871.9296    7493.5118    166.68058   -999.27053    69.565991    -6706.905 
 8798000     218.1163   -9283.8072   -8452.2484   -9283.8072            0    7594.7639    24.958103    24.863031      22.9728    14255.405     7452.906    7623.7366    7707.6493    -239.6158   -948.45921    731.62958   -6873.2934 
 8799000    227.30081    -9277.809   -8411.2347    -9277.809            0    9186.9752    24.803769    24.929631    22.918043    14171.345       9646.8    9078.6121    8835.5135   -836.68228    116.06111    4.5033354   -6512.5209 
 8800000    231.19363    -9297.484   -8416.0685    -9297.484            0    7931.1367    24.847095    24.967932    22.971268    14250.929    8073.2905    8039.1699    7680.9495   -624.74465    724.04257    1039.1088   -6767.6993 
 8801000    223.16059   -9276.3594   -8425.5695   -9276.3594            0    8018.7189    24.917392    24.906539    22.942187    14238.059    8149.5025    7848.3379    8058.3163    43.167973   -506.32818    783.94585   -6760.5027 
 8802000    218.52863   -9278.6516   -8445.5208   -9278.6516            0    9346.8554    24.815484    24.934254    22.912338    14177.137    9613.0818    9105.0443    9322.4401   -174.74932     908.4841    167.74279   -6512.9744 
 8803000    218.40584   -9281.9583   -8449.2956   -9281.9583            0    7444.8012    24.911333     24.94533     22.94115    14256.122    7579.3998    7372.9448     7382.059   0.99906509    433.64833    1024.7337   -6901.4401 
 8804000    223.74436   -9276.4527   -8423.4371   -9276.4527            0    8716.8868    24.954907    24.940425    22.835553    14212.528    6483.7684    10396.797    9270.0954    107.11297     103.9107   -90.679454   -6616.6432 
 8805000    224.64264   -9273.3252    -8416.885   -9273.3252            0     7849.392    24.951516    24.991404    22.807187    14221.955    7326.9354    7938.4261    8282.8146   -153.66894   -166.85906    578.83048    -6788.822 
 8806000    225.42567   -9267.8359   -8408.4105   -9267.8359            0    8160.3739     24.92512    25.051696    22.806611    14240.825    8675.8542    7084.6355    8720.6321     302.6779   -495.11403    96.138934   -6713.6002 
 8807000    223.46064   -9283.8994   -8431.9656   -9283.8994            0    9511.9719    24.888442    24.894117    22.855551    14160.746    8837.4625    9773.4876    9924.9657   -202.43829   -929.54013   -543.10741   -6467.5536 
 8808000    210.07335   -9261.9095   -8461.0141   -9261.9095            0    7153.7499    24.956676    24.852322    23.059216    14302.048    7241.7044    7047.1563    7172.3889    406.78854   -798.63114    228.15624   -6968.8799 
 8809000    225.18237   -9298.4697   -8439.9718   -9298.4697            0    8854.8797    24.870254    24.820557    23.024662    14212.976    8243.0978    9592.3077    8729.2336    977.67814    80.113164   -652.12746   -6604.5175 
 8810000    208.58975   -9282.8198   -8487.5806   -9282.8198            0    8201.1701    24.927092    24.997402    22.863464    14246.512    7783.6824    7492.2061    9327.6217    109.42019   -1483.1375   -349.94842   -6783.6173 
 8811000    215.93998   -9275.4956   -8452.2339   -9275.4956            0    8903.5546    24.841004    24.958535    22.908432    14203.115    9998.7633     8030.139    8681.7613     252.4543   -656.34432   -384.89505   -6607.9706 
 8812000    223.57865   -9286.8712   -8434.4874   -9286.8712            0     9376.118    24.869807    24.862762    22.875928     14144.92    10878.875    8514.4857    8734.9928    514.94264   -528.29254   -718.41121    -6500.296 
 8813000    226.76654   -9271.0327   -8406.4952   -9271.0327            0    8358.2849     24.97659    24.827183    22.972557    14245.245     7979.432    9346.2957    7749.1271    39.779153     968.0201    23.006437   -6670.0424 
 8814000    220.67617   -9271.0282     -8429.71   -9271.0282            0    8385.3527    25.047611    24.688448    23.033447    14243.576    7528.2975    9738.1595    7889.6013    266.86306    -529.0826    343.52164   -6687.8379 
 8815000    216.71241   -9312.7287   -8486.5221   -9312.7287            0    7552.1452    24.965504    24.895283    22.926414      14249.3     7075.972    7675.9223    7904.5414    236.58986   -535.36689   -195.32006      -6917.1 
 8816000    226.20577   -9228.9842   -8366.5846   -9228.9842            0    9797.7981    24.825277    25.013802    22.846987    14187.398    10605.532      8679.21    10108.652   -196.97284   -238.43292    285.99029   -6339.3355 
 8817000    221.75287   -9316.8557   -8471.4327   -9316.8557            0    8548.6064    24.890029    24.893799    22.908208    14194.095    9434.7963    7399.7459    8811.2768   -732.00846    428.12861    225.73362   -6701.8171 
 8818000     218.2944   -9300.5116   -8468.2738   -9300.5116            0    9155.0724    24.944118    24.778769    22.943499    14181.022    7584.7212    10704.716    9175.7799   -87.994068   -65.842545     381.6931   -6574.8615 
 8819000    215.32487   -9298.3829   -8477.4663   -9298.3829            0    8109.3383    24.925907    24.800461    23.020977    14230.969    8358.1967    8457.4013    7512.4168   -1244.3154   -334.23917     781.5084   -6794.4211 
 8820000    214.13576   -9280.3774   -8463.9943   -9280.3774            0    8696.6805    24.863705    24.817764     23.02336     14206.83     8728.539    9965.3787    7396.1239   -311.69453   -402.01198    179.64445   -6662.1113 
 8821000    221.93648   -9281.3909   -8435.2678   -9281.3909            0    8536.9218    24.833869    24.898688    23.000081    14221.657    9357.2061     8657.646    7595.9133    -849.7008   -576.97654    1319.6462   -6664.6395 
 8822000    224.90038   -9269.5873   -8412.1644   -9269.5873            0    8606.6778    24.826383    25.039222    22.922417    14249.338    9247.6262    8208.7801     8363.627    206.84875     223.0918    277.59745   -6623.5938 
 8823000    213.38606   -9315.0603   -8501.5353   -9315.0603            0    8453.6534    24.895861     24.91062    22.896471    14199.735    7853.6379    8492.4438    9014.8785   -9.9594046    739.74505   -773.91525   -6750.8803 
 8824000    217.77757   -9254.4221   -8424.1547   -9254.4221            0    9511.7416    24.916021    24.818456    22.916834    14171.247    9289.9866    10430.905    8814.3327   -488.45691   -295.38926   -185.55596   -6458.3337 
 8825000    220.59683   -9248.3205   -8407.3048   -9248.3205            0    8532.9629    25.029609    24.843921    22.914966    14249.297    7834.8112    7805.0845    9958.9931   -40.477286    -1552.753    753.10027   -6634.0581 
 8826000    222.11519   -9292.5013   -8445.6969   -9292.5013            0    8079.7115    24.935528    24.928868    22.909379    14240.802    6758.4751    8863.2434     8617.416   -318.56591   -332.08837   -762.05484   -6767.6419 
 8827000    217.96843   -9300.4937   -8469.4986   -9300.4937            0    9851.4314    24.779871    24.967241     22.83762    14129.294    11538.238    8428.2911    9587.7652    305.00688    731.74901    165.53488   -6439.5003 
 8828000    218.19745    -9246.381   -8414.5128    -9246.381            0    7793.8158    24.968526    24.946946    22.922783    14278.338    7394.2951    7995.0951    7992.0572   -1050.2621   -1246.2973   -408.86853   -6791.5682 
 8829000    225.67031   -9313.5601    -8453.202   -9313.5601            0    8243.1547    24.973067    24.888137    22.865088    14211.409    8069.9598    8411.4275    8248.0767   -75.633954   -209.15631    894.79053   -6744.7355 
 8830000    222.46333   -9284.0609   -8435.9292   -9284.0609            0    8244.6052     24.87348     24.93251    22.933519    14222.411     8051.796     8676.173    8005.8468   -328.87352   -201.23481   -435.83313   -6725.8391 
 8831000    230.62426   -9293.2382   -8413.9934   -9293.2382            0    7828.2166    24.812027    25.027892    22.941214    14246.328    8790.6211    6604.1272    8089.9014   -315.44175    218.72454   -263.53449   -6787.5399 
 8832000    218.15115   -9274.5393   -8442.8476   -9274.5393            0     8824.755    24.828458    24.904017    22.983899    14211.597    10796.631    8056.4559    7621.1778    187.49201    771.61669   -230.82781   -6613.8151 
 8833000       221.63   -9332.6292   -8487.6746   -9332.6292            0    8199.6236    24.902829    24.810135    22.982758    14199.726    7468.6758    9093.4022    8036.7929   -767.28356    90.623781     210.1993   -6789.6274 
 8834000    222.80749   -9264.9016   -8415.4578   -9264.9016            0    7996.1021    24.976553    24.856427    22.999709     14278.86    7235.5434    8875.9829      7876.78    18.740887   -826.85695   -285.75318   -6750.3293 
 8835000    214.82783   -9265.6553   -8446.6336   -9265.6553            0    10233.079    24.917622    24.876744    22.825404    14148.767    9569.4217    10265.975     10863.84    -1184.967    483.63834   -189.08337   -6335.0864 
 8836000    223.03666   -9284.5699   -8434.2524   -9284.5699            0    8932.4263    24.918624    24.938879    22.858655    14205.341    7885.2308    8364.6823    10547.366    162.35394   -652.89003    125.00373   -6583.7187 
 8837000    216.59301   -9279.3132   -8453.5619   -9279.3132            0    7318.5318    24.920611    24.970856    22.930528    14269.415    8343.4898    6184.6855    7427.4202   -868.83561    1191.8315    432.13962   -6930.5404 
 8838000    224.84944   -9253.6426   -8396.4141   -9253.6426            0    9647.3695    24.909268      24.9279    22.826835    14173.997    9334.8614    9928.4916    9678.7555   -659.39538    45.368616    818.71822   -6402.1753 
 8839000    221.48846   -9342.6721   -8498.2571   -9342.6721            0    7392.3865    24.891759    24.952908    22.904404    14226.424     7631.074    6275.1278    8270.9577   -750.21304    -617.6077   -204.24758    -6964.501 
 8840000    220.96925   -9264.4945   -8422.0589   -9264.4945            0    10269.563    24.789309    24.871188    22.946103    14147.181    11189.938    10123.407    9495.3427    -156.3728    -84.41572    360.31903   -6303.2209 
 8841000    218.83564   -9309.1298   -8474.8285   -9309.1298            0     6661.573    24.858145     24.91482    23.077989    14293.034    7073.9896    7035.2633    5875.4661    50.319794    204.18306    248.82847   -7086.2287 
 8842000    220.49515   -9273.1564   -8432.5283   -9273.1564            0    9282.0088    24.891384    24.820776    22.948538    14178.146    8917.5962    10065.461    8862.9687   -251.14661     759.2647    600.27615   -6513.2529 
 8843000    225.28948   -9290.2092    -8431.303   -9290.2092            0    8393.3384    24.920137    24.933943    22.897855    14227.749    7440.7413    9488.5784    8250.6955     209.1318   -839.38577   -84.916314   -6689.7094 
 8844000    216.91389   -9278.4789   -8451.5042   -9278.4789            0    7909.7547    24.857486    25.052439    22.890268      14254.7    7878.8727    7218.3744    8632.0168   -368.80704    322.67285    986.93285   -6807.1439 
 8845000    219.13193   -9331.0232   -8495.5923   -9331.0232            0    8502.8596    24.813768    24.944643    22.935083    14196.142    8599.8921    8273.5032    8635.1836   -639.83329    49.975817   -192.97807   -6735.1928 
 8846000    220.72065   -9282.0731   -8440.5853   -9282.0731            0    7980.7036    24.874562    24.830558    23.062395    14244.472    7627.6364    9666.3266    6648.1479    835.94962   -228.04365    237.51501   -6782.6659 
 8847000    226.40857   -9287.2215   -8424.0488   -9287.2215            0    8217.4744    24.904479    24.830063    23.013164    14230.875    7451.8815    9583.8105    7616.7311   -935.49094     93.62041    597.97394   -6718.5719 
 8848000    213.88761   -9306.0902   -8490.6531   -9306.0902            0    8267.5573    24.921501     24.82036    22.973169    14210.298    7486.0972    9566.6349    7749.9397   -712.44519   -280.49225     579.3797   -6777.2629 
 8849000     226.9123    -9290.363   -8425.2698    -9290.363            0    7331.3566    24.970702    24.919071    22.947254    14278.853    7464.7762     7737.895    6791.3985    571.31161   -248.34873    611.63135   -6898.5703 
 8850000    218.72687   -9297.9043   -8464.0177   -9297.9043            0    9014.1375    24.842359    24.967096    22.867645    14183.464    9187.7159     8324.509    9530.1877   -498.64608   -1080.7665   -455.46684   -6599.4319 
 8851000    223.57062   -9303.2174   -8450.8642   -9303.2174            0    8211.2876    24.991947    24.863502    22.854124    14201.263    8126.1342    8240.6569    8267.0715    141.27743   -150.85461    609.08615   -6750.2175 
 8852000     224.2915   -9266.3295    -8411.228   -9266.3295            0    9344.8126    24.935567    24.823753    22.932453    14195.059    7827.5194    10233.545    9973.3733    -1248.867    -787.0859    435.49387   -6476.6614 
 8853000     218.4232   -9265.1837   -8432.4549   -9265.1837            0    10027.673    24.875984    24.841954    22.927525    14168.478    9357.1078    10899.839    9826.0731   -793.48585   -366.59271    767.30971   -6360.4095 
 8854000    219.33216   -9288.1304   -8451.9362   -9288.1304            0    7681.9818    24.908347    24.963944    22.982702    14290.887    7624.9426    7083.4102    8337.5925   -409.94545   -314.72875   -439.12495   -6850.8735 
 8855000    219.67996   -9264.0441   -8426.5239   -9264.0441            0    8707.7702    24.791379    24.902216    23.004409    14202.008     9543.405    8132.3596    8447.5461   -197.15812    695.07253   -301.78189   -6622.9555 
 8856000    216.70176   -9294.2263   -8468.0603   -9294.2263            0     7853.974    24.823382    24.902154    23.056563    14252.546    8631.4863    8002.7797    6927.6559    721.81926   -465.57323    218.53032    -6835.543 
 8857000    223.88195   -9293.6659   -8440.1258   -9293.6659            0    8275.8366    24.841145     24.68769    23.207314    14232.361    9200.1245    9633.2842    5994.1011    36.992552   -980.58384    448.10579   -6722.3569 
 8858000    222.97792   -9292.6682   -8442.5746   -9292.6682            0    8905.0958    24.958209    24.878067    22.879665    14206.258    8011.2056    9301.2754    9402.8063   -180.28304   -147.60499   -680.20499   -6597.5839 
 8859000    214.89384   -9268.7234     -8449.45   -9268.7234            0    8334.4632    24.857962    24.997757    22.867678    14209.822    8834.6767    7504.7774    8663.9355    863.07394    577.42426    310.81737   -6722.2519 
 8860000    218.20179   -9299.0902   -8467.2054   -9299.0902            0    8009.0753    24.935866     24.92939    22.886153    14226.855    7079.5193    8353.6795    8594.0269   -1166.0007   -391.98055    1608.5436   -6805.4498 
 8861000    225.86918   -9302.4961   -8441.3797   -9302.4961            0    7818.9667    24.953912    24.861263    22.935583     14228.91    7253.4776    7687.1021    8516.3203   -591.47751   -1192.1842   -131.76725   -6818.8343 
 8862000    221.93693   -9273.7209   -8427.5961   -9273.7209            0    7857.6323    24.868933    24.834279    23.082555    14255.833    7119.3848    8638.5256    7814.9865   -198.00624    653.53497   -530.10244   -6793.9417 
 8863000    221.00682   -9283.8512   -8441.2724   -9283.8512            0    8749.8634    24.786741    24.864754    23.045448    14203.283    9580.6305     9008.994    7659.9657    500.12303    257.72287     245.0019   -6628.8229 
 8864000    227.71898   -9261.0164   -8392.8478   -9261.0164            0    7820.9209      24.8024    24.893235    23.136306    14284.632    8738.0274    7648.8595    7075.8757    194.88276   -121.10917    382.10811    -6763.541 
 8865000    228.13805   -9254.3917   -8384.6254   -9254.3917            0    9916.1399    24.799588    24.890709    22.918514    14147.125    10203.062    10264.459    9280.8991   -83.897258    153.92475   -1000.6292   -6338.7144 
 8866000    214.62919   -9288.1737   -8469.9093   -9288.1737            0    7493.6016    24.910517    24.971245    22.920509    14257.624     7884.835    7485.4307     7110.539    105.46292   -70.071154   -30.613708   -6911.7436 
 8867000    213.72477    -9303.703   -8488.8867    -9303.703            0    7673.7344    24.959042    24.867437    22.965835    14254.145    6936.0159    8582.7032     7502.484   -35.507416    153.56885    260.91117   -6893.6548 
 8868000    212.06611   -9298.5189   -8490.0262   -9298.5189            0    7866.7734    24.982009    24.793905    22.934678    14205.776    7146.2409    9359.6132     7094.466    79.395927    891.04383   -1043.9213   -6860.2143 
 8869000    224.92843   -9300.3644   -8442.8347   -9300.3644            0    8267.7981    24.898401    24.892528    22.939436    14217.499    7410.1922    9013.1004    8380.1018   -426.83639   -341.90802    93.681151   -6728.5262 
 8870000    217.95447   -9292.3892   -8461.4474   -9292.3892            0    7769.4407    24.850385    24.903392    23.017556    14244.619    8052.6711    8027.8014    7227.8495   -891.90496    376.48294   -487.55043   -6847.3993 
 8871000    223.50098   -9307.4436   -8455.3559   -9307.4436            0    7833.0216    24.881393    24.932152    22.942861    14232.528    9266.2177    6886.7188    7346.1284   -545.22161    416.42009     248.8509   -6829.4806 
 8872000     223.7009    -9270.719   -8417.8691    -9270.719            0    9678.9039     24.82189    24.931519    22.893207    14167.402    10663.402    8923.7317     9449.578   -27.582153    59.660434   -198.28301   -6418.0428 
 8873000     216.1965   -9294.9656    -8470.726   -9294.9656            0    7356.2834    24.970106    24.875835    22.971102    14268.551    6274.6926    7972.5568    7821.6007   -593.59424   -163.59569   -641.06967   -6939.9409 
 8874000    221.25105   -9254.8806   -8411.3707   -9254.8806            0     9471.356    24.893216    24.789224    23.005681    14196.427    9517.5668    9849.3045    9047.1967   -92.110799   -1110.8134   -883.12257   -6450.4181 
 8875000     224.9522   -9261.3675   -8403.7472   -9261.3675            0     7338.142    24.812886    24.946291    23.066498    14277.919    7667.9651    8083.8154    6262.6454      189.671    133.38517    740.68599   -6875.7346 
 8876000    216.19911   -9277.9352   -8453.6856   -9277.9352            0    7554.9872    24.788768    24.979158    23.050122    14272.695    8199.9024    7495.5606    6969.4985    354.20132    122.62897    383.80786   -6881.0953 
 8877000    222.25144    -9274.812   -8427.4881    -9274.812            0    8951.8299    24.887521    24.906049    22.911837    14201.898    9287.1763     8766.116    8802.1973   -301.32941   -490.18961     596.0458   -6573.3841 
 8878000    224.95128   -9311.9172   -8454.3004   -9311.9172            0    7655.2322    24.964384    24.940178    22.846437    14224.562    7078.1141    6951.9982    8935.5844   -19.904414    657.28239   -378.10742   -6866.2175 
 8879000    216.69359   -9258.4555   -8432.3207   -9258.4555            0    8781.7575    24.915948    24.983867    22.840056    14217.861    9339.2085    7602.2095    9403.8544   -967.39489   -759.99166   -260.86793   -6611.3977 
 8880000    211.87152   -9281.5091   -8473.7582   -9281.5091            0    8180.8106    24.912182    24.924327     22.90453    14221.867    7633.9521    8249.1274    8659.3522   -242.61301   -209.88635   -686.26344   -6776.9653 
 8881000    215.81294   -9313.7498   -8490.9724   -9313.7498            0    6658.7804     24.83178    24.993396    23.041391    14300.191    6799.9961    6254.7044    6921.6406     145.1505    -165.0724   -1275.3667   -7102.2597 
 8882000    221.01745   -9284.2339   -8441.6146   -9284.2339            0    8786.6872    24.868498    24.898226    22.910323    14185.648    8463.9982    8719.0632    9177.0001     467.2811    171.77404    762.11005   -6623.7973 
 8883000    219.71532   -9302.8205   -8465.1655   -9302.8205            0    8293.5788    24.817884    24.972851    22.937825    14216.252    7744.3759    8089.3212    9047.0394    428.11683   -620.76553     854.5631   -6745.6623 
 8884000    210.92031    -9281.604   -8477.4796    -9281.604            0    7906.5616    24.909335    24.950515    22.914422    14241.331    8322.4977    7075.3642    8321.8228   -344.38009   -301.08452    637.71066   -6835.3247 
 8885000      215.877   -9318.2855   -8495.2639   -9318.2855            0    8175.8087     24.88738    24.900006    22.919694     14203.24    7533.5099    8351.8121    8642.1043    -675.4402     148.2168   -233.59347   -6801.7294 
 8886000    224.64871   -9288.2495   -8431.7861   -9288.2495            0    8687.0428    24.740709    24.968851    22.997307    14206.519    10918.391    7827.2382    7315.4996   -870.44916    1184.0373    605.84646   -6631.9394 
 8887000    222.52073   -9312.7806   -8464.4301   -9312.7806            0    7610.2113    24.808739    24.989997    22.987711    14251.698    7747.4153    7155.6679    7927.5506   -584.84248   -341.35938   -257.44874   -6882.6751 
 8888000    215.91004   -9256.7764   -8433.6289   -9256.7764            0    8621.7933    24.814965    24.871938    23.028828    14213.307    9579.6387     7944.307    8341.4341    193.14539   -323.16435   -556.43675   -6646.4475 
 8889000    205.50027   -9261.4619   -8478.0012   -9261.4619            0    8819.9032    24.951331    24.791521     22.99287    14222.962    8841.6518    9129.0015    8489.0563    976.45866    751.49956    391.03578   -6648.5123 
 8890000     221.0743   -9279.8291   -8436.9931   -9279.8291            0    9034.5286    24.849164    24.907011    22.957351    14208.726    8464.2313    9785.4914    8853.8631    170.61707   -418.39966   -467.72761   -6564.8607 
 8891000    220.93163   -9313.6216   -8471.3295   -9313.6216            0    8299.6081     24.80219    25.022695    22.927748    14229.365    9441.8731    6550.1881    8906.7632   -472.75472    526.28087   -870.37042   -6748.9891 
 8892000    217.30174   -9302.2924    -8473.839   -9302.2924            0    7995.7549    24.794751    24.980517    22.972483    14228.828    8134.6243    7732.0384    8120.6021   -525.99047    63.154522   -650.08908   -6814.6171 
 8893000    219.96445   -9280.1643   -8441.5595   -9280.1643            0    8579.2969    24.935724    24.817079    22.941712    14197.062    8882.4503    9162.6182    7692.8222   -1531.4613    287.18619    294.89796   -6665.2196 
 8894000    219.31494   -9285.1385   -8449.0099   -9285.1385            0    9262.3348    25.019258     24.83474    22.833619    14187.595    7889.3961    10720.198    9177.4107   -147.31543   -780.15935   -109.93803   -6532.5261 
 8895000    233.45749   -9295.6819   -8405.6355   -9295.6819            0    7547.5285     24.90003    24.995529    22.940892    14278.168    8304.6679    6989.3153    7348.6022    213.68594    55.895163   -626.22107   -6833.9952 
 8896000    222.54169   -9301.0615   -8452.6311   -9301.0615            0    8325.9234    24.805642    24.991868    22.969457     14239.67    8369.7274    7420.2963    9187.7465 -0.051031738   -764.61213    257.46323   -6723.5784 
 8897000    220.07376   -9287.1853   -8448.1637   -9287.1853            0    9749.6866    24.825788    24.942023    22.856448    14152.835    9238.2318    10057.268      9953.56    637.36473   -1113.8678   -144.72294   -6435.7837 
 8898000    212.68393   -9294.8619   -8484.0138   -9294.8619            0     8939.884    24.933239    24.892738    22.872267    14195.823    9174.0886    8372.6715    9272.8918    521.39486    567.51783      674.906    -6633.176 
 8899000    216.71701   -9264.1036   -8437.8796   -9264.1036            0    8026.4748    25.005849    24.835631    22.926673    14238.291    7685.9126    8284.0992    8109.4126   -81.369629     37.52016   -746.58258   -6771.1751 
 8900000    219.76793   -9306.9461   -8469.0905   -9306.9461            0    7345.4144    24.916728    24.991454    22.939592    14284.605    7715.4478    6905.1384    7415.6569    82.679535   -149.45858    280.85199   -6938.8474 
 8901000    221.20058   -9280.4359   -8437.1184   -9280.4359            0    9374.8887    24.756573    24.941395     22.95555    14174.214    9983.8723    9197.8242    8942.9695    230.31713    -668.9986   -704.68873   -6499.1755 
 8902000    219.74407   -9306.3817    -8468.617   -9306.3817            0    6663.8812    24.803706    25.059627    23.002965     14297.99    7526.2357    5891.4368     6573.971    371.35472   -142.73152    1364.9042   -7079.0544 
 8903000    220.86522   -9281.7943   -8439.7554   -9281.7943            0    6972.2979    24.969921    24.939781    22.967542    14302.908    5677.6096     8219.875     7019.409   -201.59155   -236.78347   -59.759559   -6985.3812 
 8904000    217.39616   -9294.7224   -8465.9091   -9294.7224            0    9920.5289    24.945947    24.703852    22.950565    14143.538     8533.059    11585.057    9643.4705     634.8579    376.92017    141.72586   -6419.6116 
 8905000    218.09308   -9285.1926   -8453.7223   -9285.1926            0    8355.8514    24.879661    24.920925    22.940453    14223.636    8827.6643     8312.401    7927.4887    235.96092   -1245.1806    -533.2377   -6720.4084 
 8906000    212.48499   -9332.3581   -8522.2684   -9332.3581            0    8420.0582    24.831185    25.094124    22.752765    14177.631    9356.3312      6282.95    9620.8934    585.20655    77.072707   -12.801692    -6781.285 
 8907000    216.51361   -9279.1988   -8453.7502   -9279.1988            0    8891.6243    24.880514    24.932418    22.884058      14195.7    8630.3417    8155.8258    9888.7056   -617.55782    788.28176    586.74345   -6612.9197 
 8908000    223.24907   -9289.9627   -8438.8355   -9289.9627            0    8895.3351    24.963889    24.756835    22.970731     14196.53     7845.286    9992.3776    8848.3416   -417.51227   -191.33331      -433.89   -6597.1291 
 8909000    225.31778    -9283.104   -8424.0899    -9283.104            0    8038.1484    24.861228    24.896234    22.972787    14219.028    8036.3699    8136.5591    7941.5163   -381.67845    115.70343    307.14037   -6757.2195 
 8910000    219.02598   -9279.3902   -8444.3633   -9279.3902            0    9693.0281    24.718511      25.0521    22.827196    14135.755    10806.843    8868.2662    9403.9749    44.017069   -73.972709    1389.4684   -6446.0923 
 8911000    221.98328   -9337.9137   -8491.6122   -9337.9137            0    8096.2867    24.827655     24.89111    22.989898    14207.479    7504.6281    8687.5365    8096.6955   -1613.1902    248.49976      671.984   -6814.0494 
 8912000     224.6385   -9308.9121   -8452.4877   -9308.9121            0    8616.6703    24.833291     24.79499    23.088381    14216.468    9464.9238    8289.9503    8095.1369   -561.71089    392.97814     29.89772   -6665.9711 
 8913000    225.38838   -9292.6374   -8433.3541   -9292.6374            0    8272.4603    24.944996    24.841733    22.966813    14232.004    8390.6282    8078.4203    8348.3324   -338.82725   -177.96439   -138.76043    -6716.329 
 8914000    218.22607   -9305.2305   -8473.2532   -9305.2305            0     7879.998    25.029088     24.83272    22.907597    14237.995    7030.1934    8086.6444    8523.1561    404.32732    732.52449   -296.24081   -6836.9988 
 8915000    221.30339   -9291.2437   -8447.5343   -9291.2437            0     9129.976    24.920084    24.935252    22.850153    14198.824    8346.2401    9180.5048    9863.1832     -62.2115   -429.32512    482.16876   -6556.9419 
 8916000    223.17624   -9273.2915   -8422.4419   -9273.2915            0    7000.6328    24.999098     25.00036    22.879504     14299.38    6113.2902    6767.0068    8121.6016   -35.510585    74.060724    121.32575   -6962.5174 
 8917000    208.75008    -9290.039   -8494.1885    -9290.039            0    8479.2895    24.900907    24.937379    22.859135    14194.685    8303.3718    8959.8693    8174.6274    209.47159    -767.1333   -758.45739   -6738.8491 
 8918000    225.65752    -9267.545   -8407.2356    -9267.545            0    8565.1959    24.964808    24.885103     22.87691    14212.322    8017.0443    9820.3494    7858.1939   -242.96559   -671.15327    515.08933   -6631.9091 
 8919000    219.70727   -9279.1767   -8441.5524   -9279.1767            0    7231.2676    24.892525     24.92832    22.974707    14256.468    7031.5239    7557.4984    7104.7804   -207.26679    321.98334     229.4669   -6938.0565 
 8920000    218.17115   -9276.5342   -8444.7663   -9276.5342            0    9899.4112    24.928396    24.775287    22.891676    14138.086    9449.6916     10016.27    10232.272    -100.4647   -213.76057   -271.47787   -6403.6118 
 8921000    220.97585   -9316.8765   -8474.4158   -9316.8765            0    6841.4675    24.944989    24.946962    22.985303    14303.793    7475.6931    5828.7859    7219.9235    -1330.318   -750.09874    162.86996   -7047.2436 
 8922000    222.25908   -9293.0263   -8445.6733   -9293.0263            0     9337.393    24.814413    24.859674    22.942324     14152.62    9895.1968    9090.4966    9026.4855    353.33221    833.42107    266.31974   -6518.4219 
 8923000    222.15166   -9304.4268   -8457.4833   -9304.4268            0    6946.7103    24.902711    24.940346    22.999587    14284.634     6336.964    7703.0295    6800.1373   -183.14397    -122.2801    591.52189   -7010.2978 
 8924000    211.58972   -9265.7142   -8459.0377   -9265.7142            0    9756.9593    24.854425    24.774582    22.974103    14146.487    10381.636    9969.7874    8919.4549    285.97886    8.2813548     148.6433   -6446.0599 
 8925000    224.67084   -9316.7655   -8460.2179   -9316.7655            0    7210.5418    24.901856    24.895596    23.041859    14284.721    8404.7868    6298.5998    6928.2387   -220.11327   -452.82231    339.76212   -6958.0601 
 8926000    211.76439   -9275.4031   -8468.0607   -9275.4031            0    8435.0202     24.67067    24.917392    23.143135    14226.751    9812.8942    8165.4016    7326.7648   -553.00641    6.8999953    965.36204   -6717.9411 
 8927000    219.98432     -9272.92   -8434.2394     -9272.92            0    8170.6244    24.780503    24.993877    22.982781    14234.635    8876.9925    7724.0776    7910.8032    118.61522   -1563.5926    13.283167   -6738.0378 
 8928000    219.35618   -9290.1616   -8453.8759   -9290.1616            0    7657.6109    24.924374    24.948396    22.920725    14252.637    7339.2618    7077.1529     8556.418   -23.360179   -142.77934   -358.82772   -6862.1641 
 8929000    220.77533   -9307.3447   -8465.6485   -9307.3447            0    7084.1086    24.924747    24.868051    23.007269    14260.593    6532.7091    7973.0786    6746.5379   -681.40307    368.58532    412.87774   -6992.3231 
 8930000     215.7749   -9286.1499   -8463.5176   -9286.1499            0     9226.733    24.883823    24.743644    23.032592    14181.546     8289.025    11231.547    8159.6269    214.24367   -210.45092   -79.765057   -6555.2142 
 8931000    221.56742   -9294.9203   -8450.2043   -9294.9203            0    9110.5013    24.870908    24.840517    22.927457    14164.725    8203.8324    9873.8896     9253.782   -135.09938    322.09671    71.772255   -6568.1752 
 8932000    214.35336   -9230.3363   -8413.1235   -9230.3363            0    8225.6272    24.920418    25.028896    22.881745    14272.044    9664.6364     7132.916    7879.3292    307.23506   -367.91941    55.620203   -6701.0158 
 8933000    218.23695   -9274.8765   -8442.8577   -9274.8765            0    9181.9236    24.847915    24.998103    22.844193    14189.688    9046.2647    8079.1533    10420.353   -746.76248    -40.95594   -502.26702   -6542.7317 
 8934000    222.60793    -9288.283      -8439.6    -9288.283            0    8962.1706    24.934476     24.85857    22.841555    14158.005    8763.3138    9835.8807    8287.3175    8.7886031   -928.98546   -551.50166   -6589.0912 
 8935000    228.11186   -9275.3005   -8405.6341   -9275.3005            0    7218.1236     24.95189    24.964971    22.931512    14284.571    6575.3033    6557.1852    8521.8824   -727.47786   -15.402757    204.02085   -6901.9125 
 8936000    220.22564   -9247.9352   -8408.3347   -9247.9352            0    9306.3682    24.897386     24.96105    22.864452    14209.454     8797.074    8405.7051    10716.325   -192.36468   -342.52076    814.57959   -6479.7731 
 8937000    217.61878   -9327.9949   -8498.3329   -9327.9949            0    6591.2573    24.934632    24.865398    23.059146     14296.89    6107.5609    7694.5427    5971.6684   -343.69555   -908.64448   -178.45957   -7124.0196 
 8938000    229.23279   -9295.3181   -8421.3781   -9295.3181            0    8277.8488    24.891067    24.878442    23.002362    14244.235    7362.6896    8258.2008     9212.656     506.2784   -306.14777   -814.50804   -6701.7581 
 8939000    215.46662   -9313.1018   -8491.6448   -9313.1018            0    8612.5778    24.803599    24.935919     22.94367    14190.673    9612.1629    8017.0641    8208.5065     581.8989   -724.55594   -48.569491   -6709.2167 
 8940000    237.55079   -9317.2282   -8411.5763   -9317.2282            0    8035.3024    24.816583    24.949898    22.983008    14230.417    8398.7916    8376.0733    7331.0422   -277.20671    498.29876    154.74728   -6743.9615 
 8941000     219.1569   -9270.8789   -8435.3528   -9270.8789            0     8001.871    24.948968    24.936484    22.933603    14267.901    7817.6229    7373.2904    8814.6997   -573.95601   -717.12433     370.3347   -6770.3019 
 8942000    224.01371   -9275.0503   -8421.0079   -9275.0503            0    8760.2474    24.907814    24.969128    22.836084    14202.363    8625.1784    8467.7469     9187.817    20.103102    976.32574   -407.42837    -6606.525 
 8943000    218.40079   -9276.6658   -8444.0224   -9276.6658            0     8896.639    24.923942    24.942238    22.842717    14200.378    8998.2732     8580.819    9110.8249    949.25671    405.16599    142.25745   -6601.5467 
 8944000    214.60774   -9283.4992   -8465.3166   -9283.4992            0    7398.8281    25.009917    24.906776    22.903138    14266.741    7358.0729    7024.6243    7813.7872   -584.07146   -438.18088   -807.51103   -6925.8736 
 8945000    218.92144   -9276.6657   -8442.0373   -9276.6657            0    9009.0175     24.96916    24.820024    22.909328    14197.715    8171.5429    10077.908    8777.6019    367.74467   -18.789163    491.29455   -6576.6381 
 8946000    225.00807   -9279.5379   -8421.7045   -9279.5379            0     9170.166    24.818709    24.967948    22.862706    14167.384    9520.9375     9098.196    8891.3643   -24.220234   -1160.9586    724.88045   -6526.9945 
 8947000    214.06736    -9265.509   -8449.3866    -9265.509            0    7667.8133    24.847098    24.930844    22.981961    14236.386    7177.7425    8787.7712    7037.9262    167.23465   -100.71978     1847.734   -6857.3716 
 8948000    227.54417   -9286.7165   -8419.2143   -9286.7165            0    9250.6021    24.734745     24.82827    23.090666    14180.461    10442.368    9662.7802    7646.6585    869.63777     438.3709   -71.126476   -6506.1206 
 8949000    225.33418   -9282.0046    -8422.928   -9282.0046            0     7597.076    24.870905    24.929209    22.980537    14248.209     7781.194    6815.2948    8194.7391   -91.900888   -110.40459    380.93229   -6844.2897 
 8950000    220.30785   -9291.3125   -8451.3985   -9291.3125            0    8570.2837    24.793225    25.111316    22.835422    14217.117    9192.3732     7341.423     9177.055   -424.43033   -516.73751   -268.01602   -6674.4182 
 8951000    218.62761   -9238.4611    -8404.953   -9238.4611            0    8638.9069    24.848846    24.993787    22.888087     14215.03    7973.8169    9099.7399    8843.1639   -272.84171   -1626.9964    573.78017   -6614.0071 
 8952000    213.69765   -9265.4838   -8450.7709   -9265.4838            0    8601.1182    24.856585     24.86406     22.98063    14202.848    9636.5765    8286.6307    7880.1474   -84.627219    117.19486   -533.94103   -6669.1871 
 8953000    213.68999   -9303.6872   -8489.0035   -9303.6872            0    8588.5934    25.023615     24.78215    22.930924     14220.36    6702.9973    9475.4602    9587.3226    1016.3173   -56.788193    1140.6209   -6707.8205 
 8954000    226.51645   -9289.1173   -8425.5333   -9289.1173            0    7998.5221    24.900214    24.893081    22.940269    14219.366    6878.2198    9191.5819    7925.7645   -301.25919   -566.74912   -97.865531   -6766.8408 
 8955000    215.93988   -9301.0607   -8477.7994   -9301.0607            0     6915.306    24.908413    25.053939    22.889687    14284.398    7450.7383    5785.2754    7509.9042   -359.21485    85.459544    675.19404   -7037.1801 
 8956000    214.65087   -9330.7971   -8512.4501   -9330.7971            0    7747.7658    24.780487     25.06123    22.889739    14215.203     8729.152    6816.8887    7697.2565   -474.80772    527.49054   -310.80789   -6906.2286 
 8957000      222.271   -9292.2831   -8444.8847   -9292.2831            0    8808.3826    24.838448    24.930485    22.921858    14194.006    9145.1147    8108.9152    9171.1179   -562.95845   -996.31057    441.06377   -6621.5053 
 8958000    217.48945   -9283.1303   -8453.9614   -9283.1303            0    6630.5612    25.067911    24.798634    22.987894    14290.424    5269.4139    8151.3122    6470.9576   -695.69679    581.83579    718.28779   -7072.0783 
 8959000    227.46872   -9280.9794   -8413.7649   -9280.9794            0    8685.6033    24.910591    24.859783    22.968375    14223.669    10009.294    7606.5792    8440.9368   -316.24714    38.969576    244.56345    -6612.044 
 8960000    223.75469   -9293.0555   -8440.0006   -9293.0555            0    9123.2574    24.854105    24.907865    22.949361    14207.093    9422.2771    7986.9825    9960.5125   -174.10614    118.03933   -412.85565   -6549.6992 
 8961000    225.51102   -9286.6628    -8426.912   -9286.6628            0    8040.0202    24.832438    24.971182    22.973635    14245.844    8388.6501    7440.7377    8290.6727    451.65194   -419.72795    51.143593   -6756.5092 
 8962000    221.95366   -9294.6537   -8448.4652   -9294.6537            0    8114.4191    24.867082    24.852027    23.030796    14232.972    8420.8738    9095.3093    6827.0743   -1417.3254   -205.32724    452.40914   -6764.1285 
 8963000    215.54555    -9268.646    -8446.888    -9268.646            0    9628.6125    24.855996    24.754413    22.994639      14148.5    9736.9156    10862.762    8286.1602    39.628161   -796.01745   -330.65301    -6460.107 
 8964000    216.63782   -9262.4287   -8436.5065   -9262.4287            0    8526.6683    24.908258     24.89072    22.961535    14235.795    8763.6566    8293.6401    8522.7081    369.96833    -417.9553     919.9209   -6666.2468 
 8965000    223.89572   -9307.4445   -8453.8519   -9307.4445            0    9810.4717    24.908971    24.815289    22.867722    14135.072    9260.3484    9110.1333    11060.933    518.69201   -89.813824   -833.12497    -6431.467 
 8966000    215.47696   -9302.8761   -8481.3796   -9302.8761            0    7662.2751    24.900752    25.037046    22.867429    14256.499    8019.9936     7131.167    7835.6648    -306.4709   -70.008616    296.74868   -6888.2668 
 8967000    216.96908   -9236.5254   -8409.3404   -9236.5254            0    9994.9268    24.852928     24.86695    22.887199    14144.667    9392.8787    10824.254    9767.6476   -90.530637   -375.84386   -243.34482   -6347.5322 
 8968000    217.26103    -9281.241   -8452.9429    -9281.241            0    7622.3895    24.971491    24.854962    22.967989    14255.437    8341.9022    8337.9936    6187.2727    50.081859   -109.63723    349.20113    -6868.241 
 8969000    211.85307   -9277.8686   -8470.1881   -9277.8686            0    8589.7784    24.951962    24.839542    22.936665    14216.038     8397.178    9038.7592    8333.3979     161.3155    264.23819    868.93147   -6689.3009 
 8970000    216.06951   -9280.4237   -8456.6682   -9280.4237            0    8006.0645    24.766905    25.001213    23.006011    14245.383    9074.7787    7023.9527    7919.4621   -649.07852   -698.01012    -740.3497   -6793.3738 
 8971000    218.72595   -9280.5737   -8446.6906   -9280.5737            0    8436.7511    24.794723    24.962113    22.940389    14198.465    8936.3023    8492.7488    7881.2021    879.59602    157.38486    178.60284   -6699.6922 
 8972000    218.49602   -9297.3801   -8464.3736   -9297.3801            0    8701.0705    24.945765    24.888971    22.864083    14195.724    7404.5232    9654.1597    9044.5285   -134.96816    872.57921    756.05293   -6662.9903 
 8973000    224.98923   -9303.4973   -8445.7357   -9303.4973            0    8260.5283    24.965106    24.831585    22.934538    14217.651    7887.6686    8777.0923     8116.824   -29.115114    1196.5904    422.09728   -6732.9163 
 8974000    227.46648    -9257.668    -8390.462    -9257.668            0    9451.4647    24.861826    24.844699    22.975441    14191.575    9117.8534    10493.921      8742.62   -517.82483   -354.17718    1034.6568   -6434.2964 
 8975000    220.10485   -9304.4537   -8465.3136   -9304.4537            0    6864.7986    24.803659    24.936782    23.100214    14288.023    8066.6915    5737.6012     6790.103    228.62212    -183.4815    727.67452   -7034.8532 
 8976000    221.76154   -9288.6196   -8443.1635   -9288.6196            0     9702.986    24.745652    24.849309    23.005621    14146.441    10226.499     9521.436    9361.0229   -542.47906   -320.46609   -462.66877   -6441.3276 
 8977000    225.61503   -9285.5824    -8425.435   -9285.5824            0    6936.2177    24.927126    24.968682    22.932476    14273.115    7266.2044    6415.1434    7127.3053   -283.75232    728.76575    984.41054   -6981.6006 
 8978000    224.47739   -9280.7626   -8424.9524   -9280.7626            0    8432.1385    24.841704    24.932422    22.953712    14216.699    8339.1553     8428.006    8529.2543   -148.78834   -929.72428   -881.68418   -6676.6667 
 8979000    222.62729   -9308.3502   -8459.5935   -9308.3502            0    8199.1474    24.843421    24.850451     23.01986    14211.776    8849.0024    7602.4279    8146.0119     461.0252    740.84283   -241.90858   -6760.2039 
 8980000    217.82001   -9267.1976   -8436.7684   -9267.1976            0    8671.9023    24.956431    24.753043    23.006323    14212.101    8248.6837    10437.098    7329.9247   -828.16666    526.45192   -1004.2752   -6639.3526 
 8981000    224.91006   -9275.0082   -8417.5485   -9275.0082            0     8145.834    24.946229    24.891839    22.916977    14230.469    7914.3521    8098.4137    8424.7362   -731.59865    378.36015   -834.72664   -6726.9882 
 8982000    222.11397    -9277.753   -8430.9533    -9277.753            0    7534.2091    24.773557    25.002672    23.006066    14250.075    8892.1901      6043.96    7666.4772    207.31823    820.68254   -590.36549   -6865.1734 
 8983000    220.33488   -9258.0755   -8418.0585   -9258.0755            0    8438.6399    24.767303    24.953885    22.999126    14214.389    8982.6208    7723.0391    8610.2599    863.81146   -216.20824    327.38619   -6668.7091 
 8984000    224.14993   -9282.0654   -8427.5037   -9282.0654            0    8054.9396    24.930091    24.839236    22.987495    14234.878    6428.9563    8982.3763    8753.4862    360.13964   -334.49479    1293.3988   -6755.2894 
 8985000     221.5875   -9308.8313   -8464.0387   -9308.8313            0    8869.8426    24.878724    24.996064    22.795571    14175.886    9189.5632    8096.2125    9323.7522   -1271.2836    663.36215   -661.36625   -6630.2807 
 8986000    218.65925   -9264.6409   -8431.0121   -9264.6409            0    8605.5164    24.903624    24.950391    22.882127    14217.928    8987.4075    7739.1543    9089.9873   -162.47319    -346.4486    438.53585   -6646.6248 
 8987000    216.97425   -9291.0255   -8463.8207   -9291.0255            0    8563.0589      24.9743    24.963549    22.805034    14217.734    7725.0515    8974.8717    8989.2536   -343.81868    437.87967   -495.98494   -6688.2613 
 8988000    230.21696   -9269.4551    -8391.763   -9269.4551            0    8113.3666    24.896205    24.995588    22.880504     14238.43    7828.2023    7892.1756    8619.7218    124.88071   -387.38028    364.80985    -6706.999 
 8989000    222.46121   -9288.4957   -8440.3721   -9288.4957            0    7546.1335    25.043439    24.882696    22.854122    14241.507     6682.535    8417.7755      7538.09    -269.4571    746.58286   -862.96473    -6873.057 
 8990000    228.14982   -9280.8269   -8411.0157   -9280.8269            0    8394.2639      24.9468    24.847536    22.910916     14201.71    6922.8107     9576.392    8683.5891   -44.152973   -507.51233    1056.6434   -6672.4179 
 8991000    226.73625    -9289.066   -8424.6441    -9289.066            0     8692.516    24.812285    24.888204    23.036072    14225.539    9530.4938    8213.7842      8333.27   -269.80907   -183.58335   -753.86143   -6621.2521 
 8992000    223.70978    -9269.902   -8417.0183    -9269.902            0    9072.3635    24.822371    24.974823    22.908458     14201.74    10627.589      6963.67    9625.8317   -359.07758   -309.67202   -613.33791   -6537.9703 
 8993000    219.71766   -9289.4908   -8451.8269   -9289.4908            0    8388.1173    24.772618    25.045928    22.898415    14207.395     9017.564    7138.5457    9008.2423   -1175.8722    13.415439    664.28674   -6713.8066 
 8994000    218.95222   -9306.1004   -8471.3547   -9306.1004            0     7177.407    24.914251    24.919063    22.979182    14266.391    6676.3459    7802.8266    7053.0483    168.83145    730.66821    437.91615   -6978.0186 
 8995000    222.10346   -9280.9679   -8434.2082   -9280.9679            0    9753.4781    24.950394    24.789881    22.864532    14142.108    8775.3721    10669.986    9815.0762   -49.925382    909.25975      223.992   -6422.5714 
 8996000    220.73156   -9299.8295   -8458.3001   -9299.8295            0    8936.6247    24.887252    24.840169    22.933843    14177.783    9227.0103    9611.2865    7971.5772   -266.10445    8.0433113   -716.85735   -6610.4884 
 8997000     230.2687   -9285.1736   -8407.2843   -9285.1736            0    7658.0085    24.848615    24.994564    22.986716    14276.596    8492.1582    6657.0691     7824.798   -759.38442   -849.61465    345.41436   -6812.8141 
 8998000    219.01749   -9314.3612   -8479.3666   -9314.3612            0    8143.2866     24.80644    25.000078    22.911516    14208.873    8372.0895    7558.1301      8499.64   -819.79493   -394.72098   -782.55696   -6791.8998 
 8999000    214.62061   -9310.8225   -8492.5908   -9310.8225            0    9137.9792    24.774648    24.918207    22.936113    14159.376    10243.618    8360.7912    8809.5287   -173.25149   -747.39219    1423.5608   -6605.5983 
 9000000    222.64355   -9267.1371   -8418.3183   -9267.1371            0    9092.0591    24.881833    24.820248    23.009014    14209.752    9607.5545    8925.7385    8742.8844   -703.72449    307.66833    913.19087   -6534.1286 
Loop time of 528.615 on 64 procs for 250000 steps with 1920 atoms

Performance: 81.723 ns/day, 0.294 hours/ns, 472.934 timesteps/s
380.2% CPU use with 16 MPI tasks x 4 OpenMP threads

MPI task timing breakdown:
Section |  min time  |  avg time  |  max time  |%varavg| %total
---------------------------------------------------------------
Pair    | 76.352     | 78.406     | 83.967     |  23.5 | 14.83
Bond    | 1.5996     | 1.8363     | 2.3117     |  17.4 |  0.35
Kspace  | 250.08     | 257.63     | 262.23     |  18.2 | 48.74
Neigh   | 3.2643     | 3.4125     | 3.6122     |   5.1 |  0.65
Comm    | 69.29      | 73.335     | 77.89      |  28.7 | 13.87
Output  | 0.59122    | 0.59163    | 0.59354    |   0.1 |  0.11
Modify  | 79.296     | 90.024     | 96.125     |  46.3 | 17.03
Other   |            | 23.38      |            |       |  4.42

Nlocal:        120.000 ave         125 max         116 min
Histogram: 1 2 2 3 0 3 3 1 0 1
Nghost:        4140.19 ave        4174 max        4106 min
Histogram: 3 0 3 1 1 2 2 0 0 4
Neighs:        42765.7 ave       44326 max       41474 min
Histogram: 1 3 3 1 1 2 1 2 1 1

Total # of neighbors = 684251
Ave neighs/atom = 356.38073
Ave special neighs/atom = 2.0000000
Neighbor list builds = 6766
Dangerous builds = 0

unfix		3
unfix		2
unfix		1

write_data	data.final.${pid}
write_data	data.final.0
System init for write_data ...
PPPM initialization ...
  extracting TIP4P info from pair style
  using 12-bit tables for long-range coulomb (../kspace.cpp:340)
  G vector (1/distance) = 0.37464268
  grid = 30 30 30
  stencil order = 5
  estimated absolute RMS force accuracy = 0.0032469432
  estimated relative force accuracy = 9.7780731e-06
  using double precision FFTW3
  3d grid and FFT values/proc = 7920 1800
Last active /omp style is kspace_style pppm/tip4p/omp
WARNING: Not all mixed pair coeffs generated from mixing. Use write_data with 'pair ij' option to store all pair coeffs. (../write_data.cpp:312)

write_restart   restart.lmp.${pid}
write_restart   restart.lmp.0
System init for write_restart ...
PPPM initialization ...
  extracting TIP4P info from pair style
  using 12-bit tables for long-range coulomb (../kspace.cpp:340)
  G vector (1/distance) = 0.37464268
  grid = 30 30 30
  stencil order = 5
  estimated absolute RMS force accuracy = 0.0032469432
  estimated relative force accuracy = 9.7780731e-06
  using double precision FFTW3
  3d grid and FFT values/proc = 7920 1800
Last active /omp style is kspace_style pppm/tip4p/omp
Total wall time: 0:08:48
