LAMMPS (30 Jul 2021)
  using 1 OpenMP thread(s) per MPI task
package omp 0
using multi-threaded neighbor list subroutines
echo both

include		in.partitions
variable        pid world 0
include		in.temp
variable        temperature equal 269.26
variable	tempDamp equal 100.0
include		in.pressure
variable        pressure equal 11250.0
variable        pressureDamp equal 1000.0 # This is 1 ps
include		in.seed
variable        seed world 745823

units		real
atom_style	full
read_restart	restart.lmp.${pid}
read_restart	restart.lmp.0
Reading restart file ...
  restart file = 30 Jul 2021, LAMMPS = 30 Jul 2021
  restoring atom style full from restart
  orthogonal box = (0.67677722 1.8886854 0.82566663) to (17.530795 21.740492 21.387529)
  4 by 4 by 4 MPI processor grid
  restoring pair style lj/cut/tip4p/long/omp from restart
  restoring bond style harmonic/omp from restart
  restoring angle style harmonic/omp from restart
  864 atoms
  576 bonds
  288 angles
Finding 1-2 1-3 1-4 neighbors ...
  special bond factors lj:    0        0        0       
  special bond factors coul:  0        0        0       
     2 = max # of 1-2 neighbors
     1 = max # of 1-3 neighbors
     1 = max # of 1-4 neighbors
     2 = max # of special neighbors
  special bonds CPU = 0.084 seconds
  read_restart CPU = 0.103 seconds
include 	in.setup
variable	out_freq equal 1000
variable	out_freq2 equal 10000
variable	out_freq3 equal 1000

timestep	2.0

neigh_modify    delay 7 every 1

include		in.tip4p
# This is TIP4P/Ice

# create groups ###
group ox type 2
288 atoms in group ox
group hy type 1
576 atoms in group hy

# set charges - beside manually ###
set group ox charge -1.1794
Setting atom values ...
  288 settings made for charge
set group hy charge 0.5897
Setting atom values ...
  576 settings made for charge

# ### TIP3P Potential Parameters ###
pair_style lj/cut/tip4p/long/omp 2 1 1 1 0.1577 8.5
pair_coeff 1 1*2 0.000 0.000
pair_coeff 2 2 0.21084 3.1668
bond_style  harmonic
bond_coeff  1 450 0.9572
angle_style harmonic
angle_coeff 1 55 104.52
kspace_style pppm/tip4p/omp 1.0e-5
pair_modify tail yes

thermo          ${out_freq}
thermo          1000
thermo_style    custom step temp pe etotal epair emol press lx ly lz vol pxx pyy pzz pxy pxz pyz enthalpy

restart 	${out_freq3} restart.lmp.${pid} restart2.lmp.${pid}
restart 	1000 restart.lmp.${pid} restart2.lmp.${pid}
restart 	1000 restart.lmp.0 restart2.lmp.${pid}
restart 	1000 restart.lmp.0 restart2.lmp.0


include         in.dump
dump            myDump all atom ${out_freq2} dump.water.${pid}
dump            myDump all atom 10000 dump.water.${pid}
dump            myDump all atom 10000 dump.water.0
dump            myDump2 all dcd ${out_freq2} dump.dcd
dump            myDump2 all dcd 10000 dump.dcd
dump_modify     myDump append yes
dump_modify     myDump2 append yes


variable natoms 	equal  "count(all)"                        # NUMBER ATOMS
variable H      	equal  "enthalpy/v_natoms"                 # ENTHALPY-per-atom
variable Vol      	equal  "vol/v_natoms"                 # volume-per-atom
fix AVG all 		ave/time ${out_freq} 1 ${out_freq} v_Vol v_H file vol_enthalpy.dat
fix AVG all 		ave/time 1000 1 ${out_freq} v_Vol v_H file vol_enthalpy.dat
fix AVG all 		ave/time 1000 1 1000 v_Vol v_H file vol_enthalpy.dat


timer           timeout 23:50:00 every 1000
New timer settings: style=normal  mode=nosync  timeout=23:50:00

fix 		1 all shake 1e-6 200 0 b 1 a 1
       0 = # of size 2 clusters
       0 = # of size 3 clusters
       0 = # of size 4 clusters
     288 = # of frozen angles
  find clusters CPU = 0.015 seconds
fix             2 all nph iso ${pressure} ${pressure} ${pressureDamp}
fix             2 all nph iso 11250 ${pressure} ${pressureDamp}
fix             2 all nph iso 11250 11250 ${pressureDamp}
fix             2 all nph iso 11250 11250 1000
fix             3 all temp/csvr ${temperature} ${temperature} ${tempDamp} ${seed}
fix             3 all temp/csvr 269.26 ${temperature} ${tempDamp} ${seed}
fix             3 all temp/csvr 269.26 269.26 ${tempDamp} ${seed}
fix             3 all temp/csvr 269.26 269.26 100 ${seed}
fix             3 all temp/csvr 269.26 269.26 100 745823

run             250000
PPPM initialization ...
  extracting TIP4P info from pair style
  using 12-bit tables for long-range coulomb (../kspace.cpp:340)
  G vector (1/distance) = 0.37485058
  grid = 24 24 24
  stencil order = 5
  estimated absolute RMS force accuracy = 0.0030944496
  estimated relative force accuracy = 9.3188432e-06
  using double precision FFTW3
  3d grid and FFT values/proc = 2535 216
Last active /omp style is kspace_style pppm/tip4p/omp
Neighbor list info ...
  update every 1 steps, delay 7 steps, check yes
  max neighbors/atom: 2000, page size: 100000
  master list distance cutoff = 10.8154
  ghost atom cutoff = 10.8154
  binsize = 5.4077, bins = 4 4 4
  1 neighbor lists, perpetual/occasional/extra = 1 0 0
  (1) pair lj/cut/tip4p/long/omp, perpetual
      attributes: half, newton on, omp
      pair build: half/bin/newton/omp
      stencil: half/bin/3d
      bin: standard
Per MPI rank memory allocation (min/avg/max) = 9.236 | 9.240 | 9.245 Mbytes
Step Temp PotEng TotEng E_pair E_mol Press Lx Ly Lz Volume Pxx Pyy Pzz Pxy Pxz Pyz Enthalpy 
17000000    274.42317   -3823.5983   -3353.2464   -3823.5983            0    11280.459    16.854018    19.851807    20.561863    6879.6437    11528.649    10627.445    11685.283   -515.34074   -545.70447   -655.59754   -2221.4492 
17001000    272.18699   -3826.9496   -3360.4305   -3826.9496            0    12239.842    16.766927    19.749226    20.455612    6773.5453    13227.492    13048.428    10443.605    1826.4773    56.790556    1121.3343   -2151.3151 
17002000    277.19528   -3873.8572    -3398.754   -3873.8572            0    10394.749    16.844562    19.840669    20.550326    6868.0703    8878.3267    12324.835    9981.0867    1188.2758    -780.4923    785.15987   -2357.5768 
17003000    267.01219   -3855.2206   -3397.5708   -3855.2206            0    13133.822    16.778569    19.762938    20.469815    6787.6644    13758.402    12707.512    12935.553    -5.965344   -1725.6115     1279.835    -2097.439 
17004000    243.29524   -3875.6278   -3458.6281   -3875.6278            0    9664.3228    16.824541    19.817087    20.525901    6843.6106    8525.7356    10083.628    10383.604   -1411.4189    151.29103   -599.59404   -2494.0606 
17005000    266.51348   -3872.6465   -3415.8515   -3872.6465            0    9666.7482    16.850657    19.847848    20.557762    6875.5282    9412.9485    8372.9217    11214.374   -152.01135   -1885.4094    359.36264   -2446.5422 
17006000    277.32703   -3861.4491   -3386.1201   -3861.4491            0    10390.901    16.805088    19.794174    20.502169    6819.8998    10132.216    9345.8496    11694.638    1235.9717   -741.50676    919.96327   -2352.6281 
17007000    275.94091   -3849.0098   -3376.0565   -3849.0098            0    11400.692    16.741895     19.71974    20.425072    6743.2521    12440.702    11148.822    10612.552   -1280.7007    1998.1924   -2246.2276   -2254.8735 
17008000    270.64821   -3835.6564   -3371.7746   -3835.6564            0    10684.069    16.797304    19.785005    20.492672    6810.4268    10329.277    11101.213    10621.715   -709.21696    469.51787    607.35299   -2310.5999 
17009000    282.40316   -3817.4851   -3333.4558   -3817.4851            0    11957.992    16.734604    19.711153    20.416178    6734.4465    10128.936    11492.528    14252.512    210.92846    143.30707   -751.63261   -2159.0016 
17010000    274.79773   -3836.1231   -3365.1292   -3836.1231            0    8658.8219    16.854444    19.852309    20.562382    6880.1655    9258.8596    8197.7017    8519.9043   -1732.4013    651.34022    849.21038   -2496.3016 
17011000    274.92686   -3858.5569   -3387.3417   -3858.5569            0    11111.734      16.7778    19.762032    20.468877    6786.7312    11721.947    10251.279    11361.974   -121.26086   -1000.7489   -605.94076   -2287.5299 
17012000    277.93477   -3819.0005   -3342.6298   -3819.0005            0    8190.3264    16.857721    19.856169     20.56638    6884.1795     6702.787    9266.7194    8601.4727   -843.96859    66.244209    1855.6739   -2520.3317 
17013000     268.7399   -3810.4266   -3349.8156   -3810.4266            0    9721.9006    16.837154    19.831944    20.541289    6859.0134    9645.4312    9811.6613    9708.6094     266.6205    962.56344   -240.56571   -2377.3176 
17014000    257.09021   -3861.0838     -3420.44   -3861.0838            0    11481.246     16.81703     19.80824    20.516738    6834.4489     10474.48    11022.454    12946.805   -1715.1013    630.53037   -2010.8669   -2276.0649 
17015000    272.74463    -3847.222   -3379.7471    -3847.222            0    11822.724     16.78293    19.768075    20.475135    6792.9582    12790.952    12421.739     10255.48    401.96357    527.50906   -165.12074   -2208.4896 
17016000     273.3985   -3835.7897    -3367.194   -3835.7897            0     10857.82      16.8065    19.795837    20.503891    6821.6187    12595.744    9439.4072    10538.308    716.20725   -104.91681    1347.7187   -2286.9896 
17017000     272.2997   -3858.5658   -3391.8534   -3858.5658            0    10483.201    16.834929    19.829323    20.538574    6856.2948    9102.1801    12176.216    10171.206   -303.49414   -646.42624    283.41597   -2343.6169 
17018000    260.58137   -3873.1008   -3426.4732   -3873.1008            0    9691.9089    16.846208    19.842608    20.552335    6870.0847    10383.688    9433.4514    9258.5868    439.44509   -630.09929   -225.65234   -2455.4105 
17019000    260.65738   -3851.2245   -3404.4666   -3851.2245            0    10498.582    16.871829    19.872786    20.583592    6901.4781     10953.01    9980.7122    10562.025    -352.0399    169.87248   -1164.3571    -2347.774 
17020000    272.22487   -3876.2826   -3409.6985   -3876.2826            0    11230.619    16.815612    19.806569    20.515007    6832.7195    12484.566    11456.388    9750.9027   -316.99062   -1131.4219   -14.027153   -2290.5874 
17021000    261.70677   -3850.8257   -3402.2693   -3850.8257            0    11893.975    16.814795    19.805607     20.51401    6831.7238    10570.014     12761.95    12349.961   -179.08872    1685.6141    1929.9324   -2217.2287 
17022000     278.8739   -3822.7517   -3344.7714   -3822.7517            0    10140.848    16.810302    19.800315    20.508529    6826.2489    9840.1815     10899.74    9682.6225    220.03377    1349.4372    2454.9614    -2335.211 
17023000    262.78636   -3829.4781   -3379.0712   -3829.4781            0    11038.881    16.733472     19.70982    20.414797    6733.0801    10393.282    10432.527    12290.835   -103.87637    -250.4087    318.29101   -2295.1076 
17024000    287.80686    -3808.797   -3315.5058    -3808.797            0    8472.1316    16.826275    19.819129    20.528016    6845.7261    7674.4513    9428.7602    8313.1832   -481.50802    401.30935   -169.93413   -2469.6661 
17025000    261.90428   -3810.3588   -3361.4638   -3810.3588            0    9247.4926    16.873359    19.874588    20.585459    6903.3557    9327.1282    9988.0168    8427.3326   -466.23228    15.549676   -1413.9632   -2430.4414 
17026000    281.19162   -3807.9337   -3325.9809   -3807.9337            0    11452.712    16.823095    19.815384    20.524137    6841.8459    12292.837    12184.943    9880.3559    457.55791   -56.300905   -1356.6477   -2183.2143 
17027000    274.13237   -3824.7298   -3354.8763   -3824.7298            0    10869.535    16.860065    19.858929    20.569239    6887.0508    9549.4155    12002.675    11056.514   -67.411439    1191.2478    135.29702    -2263.134 
17028000    270.82371   -3854.0544   -3389.8718   -3854.0544            0    13368.236    16.776587    19.760603    20.467397    6785.2589    13026.174    13554.655    13523.879    1386.5219   -522.85386    481.33396   -2067.0041 
17029000    264.56939   -3858.6738   -3405.2109   -3858.6738            0    11108.968     16.78385    19.769158    20.476257    6794.0747    9952.0994    11098.299    12276.505     1612.884   -1238.4393   -1653.0353   -2304.4832 
17030000    273.61107   -3819.0952   -3350.1351   -3819.0952            0     8403.403    16.858564    19.857162    20.567409    6885.2127    7840.8399    8095.6337    9273.7353   -275.09845    626.03372   -1562.7097   -2506.3178 
17031000    275.47765   -3813.7248   -3341.5656   -3813.7248            0    10444.858    16.865315    19.865114    20.575645    6893.4873    10524.602    9688.8677    11121.105    480.35755   -744.43255   -2264.0145   -2291.4975 
17032000    282.77771   -3844.7554   -3360.0841   -3844.7554            0    11566.486    16.834742    19.829102    20.538346    6856.0658    11022.345     11924.24    11752.873    290.92597    811.65648   -938.78637   -2203.5664 
17033000    276.24395   -3832.0369   -3358.5642   -3832.0369            0    10488.708    16.878116    19.880191    20.591262    6909.1955    12600.162    10158.434     8707.529   -1497.3322   -1514.9531   -782.75601    -2301.685 
17034000    264.12403   -3846.6296   -3393.9301   -3846.6296            0    12578.285     16.80027    19.788498     20.49629    6814.0347    11054.488    13344.541    13335.825   -1135.7702   -667.82202    171.77192   -2143.9542 
17035000    266.56918   -3857.7642   -3400.8737   -3857.7642            0    13070.366    16.812405    19.802793    20.511095    6828.8119    12672.094    14625.458    11913.546   -260.11879    600.03572   -544.84673   -2099.1801 
17036000     261.6739   -3835.0409   -3386.5408   -3835.0409            0    10873.002    16.794721    19.781963     20.48952    6807.2854    10981.303    9500.4862    12137.216    345.96654   -906.64695    662.96406   -2307.0988 
17037000    276.02842   -3839.2118   -3366.1086   -3839.2118            0    13509.723     16.79565    19.783057    20.490654    6808.4155    13835.455    13041.606    13652.109    253.35458    103.50277    327.19399   -2024.6774 
17038000    273.52854   -3833.4149   -3364.5963   -3833.4149            0    14007.387    16.747491    19.726332      20.4319    6750.0166    13400.695     14153.43    14468.036     645.2355   -2005.3805   -2525.5006   -1985.6802 
17039000    265.19821   -3850.8685   -3396.3278   -3850.8685            0    9720.1864    16.870367    19.871064    20.581809    6899.6841    9074.4891    10300.422    9785.6478    1642.8346   -165.70485   -206.93046   -2418.2358 
17040000    269.70672   -3853.0479   -3390.7798   -3853.0479            0    10542.681    16.825564    19.818292    20.527149    6844.8584    8067.4722    11447.347    12113.224    741.93405    82.801126   -1254.6346   -2338.3542 
17041000    263.44772   -3843.8586   -3392.3182   -3843.8586            0    10178.635    16.852156    19.849614    20.559591    6877.3638    10483.868    9946.8067     10105.23    1642.1539   -95.747481    1359.5313   -2371.4083 
17042000    270.67454    -3845.997   -3382.0701    -3845.997            0    12261.747    16.791477    19.778141    20.485562    6803.3412    11607.184    11882.598    13295.459    1963.9227    1137.1646    746.82406   -2165.4626 
17043000    263.56449    -3815.026   -3363.2854    -3815.026            0    12137.583    16.840728    19.836153    20.545648    6863.3816    13501.733    10344.302    12566.713    884.57073    1688.8668   -259.18506   -2148.3695 
17044000    276.59728   -3834.8929   -3360.8146   -3834.8929            0    11849.008    16.818638    19.810134    20.518699    6836.4096    11269.951    12897.045    11380.027   -794.41015   -140.87875   -959.44796   -2179.4446 
17045000    263.98545   -3869.9519   -3417.4898   -3869.9519            0    9866.5833    16.814829    19.805648    20.514053     6831.766     10244.91    9527.3822    9827.4578   -1184.9842    182.74726   -2133.1835   -2434.4397 
17046000    285.34825    -3868.509   -3379.4318    -3868.509            0    10304.854    16.835729    19.830265     20.53955    6857.2717    13009.676    9389.2309     8515.657    492.53587    989.57401   -1153.7048   -2348.8817 
17047000     252.0207   -3814.7093   -3382.7544   -3814.7093            0    12366.614    16.823296    19.815621    20.524382    6842.0913    12630.176    11434.689    13034.979   -584.67181   -1064.7044   -496.24929   -2148.7532 
17048000    265.11443   -3819.9746   -3365.5775   -3819.9746            0    11713.823    16.803985    19.792875    20.500822    6818.5564    12602.238    12134.458    10404.774    830.67314    2.0301888    -100.4296   -2200.7357 
17049000    288.16943   -3856.1899   -3362.2773   -3856.1899            0    9139.3576    16.864622    19.864297    20.574799    6892.6371    10764.822    8450.9009    8202.3499     116.7667   -2641.1243   -1125.5471   -2443.5704 
17050000    269.11151   -3846.8505   -3385.6026   -3846.8505            0    11816.497     16.77987    19.764471    20.471402    6789.2435     11319.09    11060.711    13069.692    371.89763   -567.38609    244.61341   -2215.6021 
17051000    266.38011   -3795.7882   -3339.2218   -3795.7882            0    11876.788    16.828834    19.822143    20.531138    6848.8497    13779.264    12411.176    9439.9237    1396.4375     901.2756    527.30512   -2152.9273 
17052000    262.51877   -3831.1586   -3381.2104   -3831.1586            0    11244.742    16.831456    19.825232    20.534337    6852.0521    13709.947    9383.9825    10640.297    1072.9326   -210.10127    142.07379   -2257.5216 
17053000    255.18258   -3808.5847   -3371.2104   -3808.5847            0    11519.417    16.777285    19.761425    20.468248    6786.1057    14055.672    10540.453    9962.1263   -607.39222   -720.34284   -932.21705   -2231.1523 
17054000    279.90184   -3837.2294   -3357.4872   -3837.2294            0    11411.429    16.773339    19.756778    20.463434    6781.3186     10926.34    11266.554    12041.395    1764.0426   -396.73541    240.76989    -2228.913 
17055000    266.38426   -3833.1323   -3376.5588   -3833.1323            0    10695.397    16.782593    19.767678    20.474724    6792.5488    9483.1083    10936.663    11666.418    412.83961     -354.906    465.91473   -2317.0476 
17056000    272.99266   -3799.5771    -3331.677   -3799.5771            0    10451.583    16.812611    19.803035    20.511346     6829.062     8487.705    11682.107    11184.938   -1788.2627   -1022.4898    410.87573    -2290.753 
17057000    281.19809   -3856.9562   -3374.9923   -3856.9562            0    9352.6763    16.821952    19.814037    20.522742    6840.4509    11327.905    9158.3682    7571.7558   -423.77229   -1162.0498    325.08875   -2441.9603 
17058000    278.23831   -3818.0759    -3341.185   -3818.0759            0    10490.976    16.800032    19.788219       20.496    6813.7458    10051.588    10157.768    11263.571    346.55222      651.253    1441.1876    -2298.681 
17059000    273.88906   -3823.0375    -3353.601   -3823.0375            0    11590.812    16.806065    19.795325     20.50336    6821.0891    11530.591    10767.609    12474.234     1173.868    437.96616    326.83878   -2200.5635 
17060000    276.05768   -3857.9113   -3384.7579   -3857.9113            0    11932.474    16.777776    19.762004    20.468847    6786.7016    12523.032    10875.338    12399.051   -236.72641    1015.6658     188.9729   -2203.7165 
17061000     274.3457   -3848.6444   -3378.4252   -3848.6444            0    8444.9906    16.820292    19.812082    20.520717    6838.4262    7110.3632    8031.5281     10193.08    237.26077    441.99873   -1255.8203   -2536.1942 
17062000    265.56989   -3796.6915   -3341.5137   -3796.6915            0    11976.638     16.80561    19.794789    20.502805    6820.5353    12599.385    10753.175    12577.355    651.78118    332.85938   -420.50013   -2150.1914 
17063000    282.12042   -3823.5624   -3340.0177   -3823.5624            0    10617.218    16.804689    19.793704    20.501681    6819.4136    11424.344    10121.594    10305.718    1116.5631   -2146.5933    895.90407   -2284.0912 
17064000    272.09452   -3858.2224   -3391.8617   -3858.2224            0    11594.149    16.815851    19.806852    20.515299    6833.0117    10643.331    12880.737    11258.378    694.50649    1020.1523    291.45731   -2236.4762 
17065000    262.72712   -3855.3152   -3405.0099   -3855.3152            0    10315.848    16.886846    19.890473    20.601912    6919.9218    9542.4075    11163.951    10241.186   -98.448459   -389.60301    1225.9754   -2363.9349 
17066000    285.33913    -3810.186   -3321.1245    -3810.186            0    11267.113    16.855278    19.853291    20.563399    6881.1864    10728.067    9978.8521     13094.42    2283.4202    228.28208    49.952289   -2190.4129 
17067000    249.19815   -3827.5226   -3400.4055   -3827.5226            0    12184.275     16.84097    19.836438    20.545944    6863.6782    12332.412    10937.791    13282.621    297.29651    279.19544   -1079.8352   -2180.7632 
17068000    265.84899   -3842.1759   -3386.5198   -3842.1759            0    11270.908    16.884245     19.88741     20.59874    6916.7254    11176.802    11458.182    11177.739    1517.9105    524.36906   -774.58577   -2249.5857 
17069000    257.87624   -3837.3475   -3395.3565   -3837.3475            0    11164.299     16.84255    19.838299    20.547872    6865.6099     10292.46    11760.718    11439.718    659.09099   -77.685467    588.22582   -2277.4989 
17070000    271.49688    -3810.112   -3344.7756    -3810.112            0    13297.132      16.7736    19.757086    20.463753    6781.6357     10916.79    14965.077    14009.528   -872.08503   -2358.3975    1114.4359   -2029.6467 
17071000    262.04446   -3832.6289   -3383.4936   -3832.6289            0    10199.772    16.782863    19.767996    20.475054    6792.8771    9466.6515     10356.44    10776.224   -162.57725    1200.9612    1278.3285   -2373.0314 
17072000    275.13991   -3793.2206   -3321.6402   -3793.2206            0    12453.684     16.81287     19.80334    20.511663    6829.3785    10862.887    12996.146    13502.019    364.50916   -1169.1484   -532.87325   -2081.2598 
17073000    254.47418   -3840.9896   -3404.8296   -3840.9896            0    14013.818    16.734489    19.711017    20.416037    6734.3075    15197.686    11986.858     14856.91    2028.9415    625.00165   -1560.8393   -2028.4909 
17074000    274.87548   -3860.3526   -3389.2254   -3860.3526            0    10907.856    16.804837    19.793878    20.501862    6819.5938    8635.8289    12528.103    11559.637    1419.9091    886.09046    106.51668   -2304.3652 
17075000      275.493   -3841.7417   -3369.5561   -3841.7417            0     12182.26    16.771294    19.754369     20.46094    6778.8389    10523.397    13444.209    12579.175    -479.1152   -370.39045    796.06712   -2165.1884 
17076000    273.82677   -3870.3834   -3401.0537   -3870.3834            0    12130.452     16.77333    19.756767    20.463423    6781.3073    11479.289    12432.769    12479.298    629.29021   -405.42182   -29.128019   -2201.3713 
17077000    266.91616   -3868.9569   -3411.4718   -3868.9569            0    11124.607    16.793666     19.78072    20.488233    6806.0027    11768.965    10774.446    10830.411   -2083.9482    1806.5521   -242.07338   -2307.2592 
17078000    285.73228   -3818.6726   -3328.9372   -3818.6726            0    12921.579    16.777878    19.762124    20.468972    6786.8252    13518.369    13526.324    11720.043   -8.1147724   -784.10617   -749.50941   -2049.9738 
17079000    268.07386   -3844.6093   -3385.1398   -3844.6093            0    12065.753    16.782419    19.767473    20.474512    6792.3376    13688.299    11425.014    11083.945    545.57942   -1253.1009    208.10801   -2189.9151 
17080000    281.55218   -3834.0544   -3351.4836   -3834.0544            0    10419.816    16.843704    19.839658    20.549279    6867.0209    10493.767    12251.979    8513.7001   -331.52459    73.527477    1841.1683   -2307.9552 
17081000    274.38239   -3849.4868   -3379.2048   -3849.4868            0    11523.402    16.805729    19.794928     20.50295    6820.6793    9517.1612    12268.248    12784.796   -168.96621   -537.09174      1059.29   -2232.9419 
17082000    267.75592   -3884.6996   -3425.7751   -3884.6996            0      11252.8    16.782733    19.767843    20.474895    6792.7188    12859.647    9014.6217    11884.132    37.257628    621.85635    1497.2753   -2311.0183 
17083000    257.20043   -3871.7547   -3430.9219   -3871.7547            0    12682.907    16.754938    19.735104    20.440985    6759.0253    11562.649    13495.145    12990.927    48.248457   -426.03178    954.50431    -2180.724 
17084000    275.70858   -3825.9192   -3353.3641   -3825.9192            0    9073.6066    16.862152    19.861388    20.571786    6889.6095    9187.2944    8489.2728    9544.2525   -1417.9499   -359.26156   -399.97752   -2441.6673 
17085000    271.79798    -3873.531   -3407.6785    -3873.531            0    12417.028    16.769077    19.751758    20.458235    6776.1511     11712.66    13334.293     12204.13   -90.949478    535.26052   -24.051011    -2180.588 
17086000     263.6792   -3849.7586   -3397.8215   -3849.7586            0    10511.361    16.819113    19.810693    20.519278    6836.9884    10167.154    10111.225    11255.704   -1157.0431    202.33408   -118.27066   -2349.7288 
17087000    259.11296   -3857.3899   -3413.2792   -3857.3899            0    11302.179    16.833558    19.827708    20.536901    6854.6192    12753.236    11658.641      9494.66    -1089.899    31.538183    2579.5587   -2283.4276 
17088000    270.04178   -3813.2855   -3350.4431   -3813.2855            0    12386.139    16.775545    19.759377    20.466126    6783.9954    12510.405    11909.643    12738.368   -2353.8342   -120.84215   -902.50357   -2124.9881 
17089000    258.62435   -3867.6417   -3424.3684   -3867.6417            0    13274.709    16.777497    19.761675    20.468507    6786.3626    13755.092    15188.313    10880.721   -805.93675   -197.67315   -603.22998   -2110.5422 
17090000    266.43066   -3837.0868   -3380.4337   -3837.0868            0    13703.176    16.817813    19.809162    20.517693    6835.4034     15109.77    13564.097    12435.662    -478.6218    1183.9498     966.6437   -2014.4004 
17091000     269.1786   -3865.9702   -3404.6073   -3865.9702            0     11327.43    16.818701    19.810208    20.518776    6836.4861    11788.726    11764.852    10428.713    1260.5088     -920.544   -1118.5883   -2275.2269 
17092000    280.59706   -3847.8409   -3366.9072   -3847.8409            0    12962.974     16.77383    19.757356    20.464033    6781.9139    11632.892    12818.328    14437.702    1319.8244    492.52863    396.53048   -2084.7749 
17093000    270.37293   -3897.9993   -3434.5893   -3897.9993            0    9639.8727    16.816607    19.807742    20.516221    6833.9329    10300.862    9736.7774    8881.9787    1471.5236    1654.6749   -212.99876   -2473.8227 
17094000    267.60586   -3889.8622    -3431.195   -3889.8622            0    10405.881    16.804309    19.793256    20.501217    6818.9505    11213.437    11638.658    8365.5468   -1857.5566     314.7257    922.15898   -2396.3572 
17095000    252.63759   -3856.6134   -3423.6012   -3856.6134            0    14236.136    16.805323    19.794451    20.502455    6820.1854      14685.5    13670.552    14352.355   -606.79613    2089.1794    1293.8016   -2007.5981 
17096000    268.78877    -3841.747   -3381.0522    -3841.747            0    11355.097    16.834746    19.829107    20.538351    6856.0709    11332.049    10484.375    12248.866    -723.5549    1697.4284   -1106.3996   -2245.6701 
17097000    280.50249   -3885.7073   -3404.9357   -3885.7073            0    13500.294    16.823619    19.816001    20.524776    6842.4853    13210.643    14533.223    12757.014     308.1958     410.2812   -1169.6932   -2057.7329 
17098000    247.70251   -3878.3223   -3453.7686   -3878.3223            0    9254.1281    16.888191    19.892059    20.603554    6921.5763    9453.1935    7303.5399    11005.651    24.081505    16.484002   -1250.4198   -2519.6191 
17099000    274.03252   -3868.8812   -3399.1988   -3868.8812            0     10704.85    16.851519    19.848863    20.558813    6876.5835    9391.8768    11096.257    11626.415    130.13432    997.61186    -105.4864   -2325.6318 
17100000    272.70661   -3881.7183   -3414.3085   -3881.7183            0    12331.772    16.804901    19.793954     20.50194    6819.6719    14462.065    9362.4042    13170.847    947.91867    49.264944   -166.58974    -2187.816 
17101000    265.51352   -3888.1673   -3433.0862   -3888.1673            0    10479.635    16.830184    19.823734    20.532785    6850.4986    9556.6525    9634.1692    12248.084    123.50763    443.18582   -870.02569   -2386.0921 
17102000    276.92379   -3830.9065   -3356.2686   -3830.9065            0    11403.247     16.80733    19.796815    20.504904    6822.6298    11174.141    11015.855    12019.744   -1005.3427     -867.244   -1246.0713   -2221.6335 
17103000    263.02714   -3818.1594   -3367.3399   -3818.1594            0    11295.082    16.785245    19.770802     20.47796    6795.7701    11217.625    10965.957    11701.663    868.87023   -2181.7536    1286.2076   -2247.8918 
17104000    270.74697   -3814.2176   -3350.1665   -3814.2176            0     8810.815    16.796182    19.783683    20.491302    6809.0617    8105.7562    9049.7838     9276.905   -144.51608   -1588.4872    198.42519   -2475.2246 
17105000    271.24012   -3791.7835   -3326.8872   -3791.7835            0    13495.046    16.717941    19.691527    20.395849      6714.35    12617.358    14476.562    13391.218    1085.3568   -230.78903   -501.36035   -2005.4266 
17106000    258.22696   -3845.6745   -3403.0823   -3845.6745            0    12170.451    16.765696    19.747775     20.45411     6772.053    10014.228    13761.473    12735.652    -53.98313    739.34527   -241.98182   -2201.0866 
17107000    269.24574    -3871.475    -3409.997    -3871.475            0    10706.089    16.810444    19.800483    20.508703    6826.4226    10886.274    9715.0569    11516.935    381.40785    1893.0496    291.36928   -2344.1377 
17108000      260.834   -3823.4552   -3376.3947   -3823.4552            0    11928.653    16.778138     19.76243    20.469289    6787.1405    11615.006    13680.384     10490.57     319.7198   -117.97166    777.81837   -2195.6551 
17109000    277.77584   -3872.2372   -3396.1389   -3872.2372            0    10490.373    16.778858    19.763279    20.470168    6788.0151     8803.291    11086.939     11580.89   -937.00054    746.84713    410.91302   -2357.6314 
17110000    271.55032   -3853.7602   -3388.3323   -3853.7602            0    11552.199    16.810561     19.80062    20.508845    6826.5644    11230.426    13153.128    10273.043    1047.6862   -357.01127   -956.42761   -2238.2134 
17111000    271.79993    -3853.556   -3387.7002    -3853.556            0    9459.9792    16.841427    19.836977    20.546502    6864.2369    10372.983    8761.5951    9245.3591    1092.8076    -93.25086   -215.50588    -2440.682 
17112000    276.12264   -3876.4125   -3403.1477   -3876.4125            0    10797.246    16.781009    19.765812    20.472792    6790.6261    10474.545    11413.052     10504.14    297.92854    240.95697   -546.56314   -2333.8499 
17113000    268.39703   -3862.5743    -3402.551   -3862.5743            0    10516.018    16.782522    19.767594    20.474637    6792.4624    12113.328    9269.1042    10165.623    612.42004   -346.07072    204.43653   -2360.8227 
17114000    271.41521    -3798.215   -3333.0186    -3798.215            0     10336.67    16.834587     19.82892    20.538157    6855.8766    12147.575      10153.6    8708.8369   -854.49399    845.40027    607.40551    -2299.497 
17115000    281.51161   -3834.7496   -3352.2483   -3834.7496            0    11749.819    16.809617    19.799508    20.507693    6825.4144    11223.258    11073.357     12952.84    2544.6902    638.85564    893.75061   -2182.6517 
17116000    263.81833     -3809.19   -3357.0144     -3809.19            0    12582.836    16.771977    19.755174    20.461773    6779.6675     11390.31    12763.393    13594.805      1272.88    139.08939    194.12707   -2112.8929 
17117000    251.09666   -3831.4515   -3401.0804   -3831.4515            0    10659.025    16.772398    19.755669    20.462286    6780.1775    9880.5158    11552.961      10543.6    -966.8218    1116.2624   -1447.1691   -2347.0954 
17118000    279.04614   -3859.4001   -3381.1245   -3859.4001            0    10076.692    16.793539    19.780571    20.488079    6805.8486    11333.767    10470.705    8425.6047   -1029.9817    435.77102   -1128.5401   -2380.9491 
17119000    263.11488   -3815.6001   -3364.6302   -3815.6001            0    10352.069    16.829499    19.822927     20.53195    6849.6627    12512.186    10367.402    8176.6189    1372.4236   -384.17536   -944.35731   -2330.5071 
17120000    249.75055   -3824.5516   -3396.4877   -3824.5516            0    12092.256    16.831741    19.825568    20.534685       6852.4    14533.883    12313.637    9429.2468     156.8242   -642.46803    146.06677   -2188.0454 
17121000    272.23379   -3851.6361   -3385.0367   -3851.6361            0     10083.98    16.809426    19.799284    20.507461    6825.1826    9650.6031    10868.534    9732.8021    628.43227   -2069.8587    1671.8126   -2381.2946 
17122000    270.50395   -3799.9506   -3336.3161   -3799.9506            0    11554.976     16.83214    19.826037    20.535171    6852.8872    10485.198    13856.491     10323.24    -1051.748    109.70935    184.20396   -2181.4848 
17123000    261.31488   -3832.6615   -3384.7767   -3832.6615            0    13389.419      16.7339    19.710324    20.415319    6733.5967    15422.031    10810.267    13935.959   -101.04244    314.51536    881.19057    -2069.901 
17124000    270.32972   -3816.4798   -3353.1439   -3816.4798            0    11588.922    16.746418    19.725069    20.430591    6748.7198    10192.765    11837.246    12736.754   -1229.6491    64.555565    -2437.202   -2212.5257 
17125000    276.52747   -3796.0669   -3322.1083   -3796.0669            0    10229.727    16.801408    19.789839    20.497678    6815.4198    11266.763    8910.4168    10512.001     326.1437   -1273.5795    1093.5851   -2305.3153 
17126000    269.22905   -3825.9641   -3364.5147   -3825.9641            0     12877.46    16.727746    19.703075    20.407811    6726.1699    14525.151    12533.457    11573.773    -1932.788    433.85846    804.59991   -2101.3094 
17127000    273.94232   -3836.7666   -3367.2388   -3836.7666            0    11448.906    16.785754    19.771401    20.478581    6796.3878    11618.756    11606.894    11121.069    220.67657   -939.66508    1344.7461   -2232.4422 
17128000    265.19151   -3804.0988   -3349.5696   -3804.0988            0     13069.14    16.692946    19.662086    20.365355    6684.2789    13486.644    12407.718    13313.059   -987.55836    -293.1078    604.33173    -2075.546 
17129000    272.74465   -3829.6926   -3362.2176   -3829.6926            0    10387.742    16.826173    19.819009    20.527892     6845.602    11777.141    9197.8718    10188.214    124.42844    1506.8535    73.355375   -2325.1461 
17130000     256.6565   -3847.6135    -3407.713   -3847.6135            0    12501.228    16.763378    19.745045    20.451282    6769.2446    12481.187    12108.286     12914.21   -1505.1918   -826.91914    343.56292   -2173.5607 
17131000    271.57799   -3880.2572   -3414.7818   -3880.2572            0    12254.506    16.754862    19.735015    20.440893    6758.9335     12476.82    11572.704    12713.993    770.50958    230.48312    1038.7105   -2206.8292 
17132000    275.08233   -3829.4464   -3357.9647   -3829.4464            0    10005.342    16.881466    19.884137    20.595349    6913.3104    12693.092    9742.0112    7580.9227   -481.62087    590.35853   -9.9235729   -2349.1907 
17133000    280.67638   -3878.0101   -3396.9404   -3878.0101            0    10647.887    16.801664     19.79014     20.49799    6815.7311    11403.519    11812.324    8727.8164    1427.1499   -647.20326    320.15465   -2338.5357 
17134000    266.43518    -3895.203   -3438.5422    -3895.203            0    10110.021    16.830645    19.824276    20.533347    6851.0611    7443.9047    13043.473    9842.6859   -286.12823   -352.63413   -1334.2392   -2428.3923 
17135000    254.95059   -3864.4466     -3427.47   -3864.4466            0    9579.3238    16.834448    19.828756    20.537988    6855.7071    10038.079    9035.9823    9663.9104    1564.4904   -560.86277   -1197.4543   -2469.6961 
17136000    275.72916   -3856.4699   -3383.8796   -3856.4699            0    10667.958    16.793132    19.780091    20.487582    6805.3533    9002.5669    11387.431    11613.877    16.538306   -51.281405    68.988006   -2325.0943 
17137000     251.9629   -3835.2246   -3403.3688   -3835.2246            0    11292.043    16.839192    19.834343    20.543774    6861.5038    10619.376    11033.708    12223.045    1678.6337     335.9067    421.50232   -2273.3968 
17138000    278.75718   -3843.4603   -3365.6801   -3843.4603            0    11483.614    16.770566    19.753511    20.460051    6777.9556    9167.5972    12035.611    13247.633    1414.2381   -655.82157   -2015.9237   -2230.5302 
17139000     244.2982   -3856.5953   -3437.8766   -3856.5953            0    11571.878    16.772272    19.755521    20.462132    6780.0243    11846.335    9757.3806     13111.92   -754.07285    961.66478    1176.9554   -2293.6527 
17140000    264.29627   -3824.7456   -3371.7509   -3824.7456            0    11354.051    16.847415     19.84403    20.553807    6871.5611    10889.826    10203.989    12968.337    13.596895   -6.7854623    884.51097   -2233.9084 
17141000    258.59181   -3812.0236   -3368.8061   -3812.0236            0    9150.2731    16.796124    19.783615    20.491232    6808.9912    7611.2381    9186.0864    10653.495    242.41702    366.05575   -1121.5105   -2460.1643 
17142000    247.20311   -3799.7494   -3376.0517   -3799.7494            0    10548.932    16.831664    19.825477    20.534591    6852.3065    10771.177      9831.45    11044.169   -931.75168    594.16571    82.496985   -2321.8562 
17143000    261.26642   -3819.0195   -3371.2178   -3819.0195            0    10963.146    16.813843    19.804486    20.512849    6830.5634    10758.025    11243.727    10887.686   -684.56209    348.96656   -65.949634   -2279.1047 
17144000      259.061   -3824.8397   -3380.8181   -3824.8397            0    10773.494    16.850686    19.847882    20.557797    6875.5637    11208.932    9872.6066    11238.944   -487.88239       170.16    2003.5153    -2300.527 
17145000    292.52608   -3840.6774   -3339.2977   -3840.6774            0     10917.88    16.848765     19.84562    20.555454     6873.213    8351.0788    11543.419    12859.141   -1115.1542    929.37358   -778.39667   -2244.9029 
17146000    265.28692   -3848.1972   -3393.5045   -3848.1972            0    11792.243    16.788545    19.774688    20.481985    6799.7783    12877.982    9667.5587    12831.188    151.36106    3.3310023    159.15213   -2224.0938 
17147000     264.7358    -3848.875   -3395.1269    -3848.875            0    12959.389    16.731112     19.70704    20.411918    6730.2318    12274.975    15353.531    11249.662    -197.6951    547.60503    237.09155   -2123.1171 
17148000    255.42601   -3853.4575   -3415.6661   -3853.4575            0    12470.824    16.772653     19.75597    20.462598     6780.487     10252.11    13495.811    13664.551    499.55109    628.78721    642.79119   -2182.4706 
17149000    276.93839   -3806.2812   -3331.6183   -3806.2812            0    12363.564    16.795064    19.782367    20.489939     6807.703    14243.023    11064.175    11783.495   -687.23047   -2127.2624    498.47081    -2104.122 
17150000    265.62868    -3851.208   -3395.9295    -3851.208            0    10055.632    16.835524    19.830024      20.5393    6857.0217    8478.6205    10815.392    10872.882     -67.3988   -503.19265    1789.0789   -2390.3399 
17151000    281.01063   -3804.4252   -3322.7826   -3804.4252            0    12299.064    16.779019    19.763468    20.470364    6788.2099    14412.052    12049.868    10435.272   -1353.4244    820.68273    644.05514   -2105.1866 
17152000    256.78268   -3833.1434   -3393.0267   -3833.1434            0    10216.642    16.874218      19.8756    20.586507    6904.4102    11964.459     7224.182    11461.286   -73.119653    249.48147    832.42527   -2364.2748 
17153000    265.75033   -3824.5285   -3369.0415   -3824.5285            0     12742.67    16.815319    19.806224    20.514649    6832.3622     11113.26    14995.305    12119.445    321.00998   -1066.7748    1399.8784   -2099.3237 
17154000    257.06149   -3828.1325   -3387.5379   -3828.1325            0    10047.878    16.808651     19.79837    20.506515    6824.2378     8840.798    10932.938    10369.899    357.16408    -1205.935   -808.65078   -2387.5277 
17155000    274.75983   -3883.0852   -3412.1563   -3883.0852            0    11344.266    16.806544    19.795889    20.503944     6821.672    10940.139    11976.839    11115.819   -280.56611   -120.43162   -59.589846   -2283.5483 
17156000    256.27905   -3897.8993   -3458.6457   -3897.8993            0     7848.042    16.900461    19.906511    20.618524    6936.6739     7250.463    8599.2037    7694.4593   -771.30548    55.367994    -1290.264   -2664.7043 
17157000    260.73806    -3854.637   -3407.7409    -3854.637            0    10778.925    16.804135    19.793052    20.501006    6818.7396    10806.441    9372.8335    12157.502   -547.93494    2319.9909    1315.9461    -2335.838 
17158000     260.4573   -3847.0962   -3400.6813   -3847.0962            0    12083.986    16.789032    19.775262    20.482579    6800.3698     12419.21    12276.763    11555.986   -27.243734    869.23668     1967.922   -2202.2348 
17159000    264.45339   -3837.6349   -3384.3709   -3837.6349            0    13005.734    16.756614    19.737078     20.44303    6761.0535    11658.911    14308.509    13049.782    -2588.394    801.26403   -671.91149   -2101.9661 
17160000    274.87346   -3826.6081   -3355.4844   -3826.6081            0    13150.488    16.783177    19.768366    20.475437    6793.2583    13290.186    13988.514    12172.763    153.73276   -8.9344413    964.27851   -2052.6301 
17161000    259.17273   -3864.0018   -3419.7887   -3864.0018            0    10172.051    16.818115    19.809518    20.518061     6835.772    13046.157    8368.6852    9101.3104   -700.56638   -475.94711    273.06472   -2405.7092 
17162000    260.17969   -3818.4208   -3372.4817   -3818.4208            0    10297.509    16.811688    19.801948    20.510221    6827.9382     10198.67    8428.9996    12264.857    692.22943    450.42025    56.667482   -2347.0715 
17163000    265.89887   -3807.8948   -3352.1533   -3807.8948            0    14488.435    16.735339    19.712019    20.417075    6735.3344    16213.603    13600.517    13651.186     -588.023    1952.1248   -69.798633   -1928.9841 
17164000    262.87295   -3832.9939   -3382.4387   -3832.9939            0    12061.285    16.765887       19.748    20.454343    6772.2845     11798.16    11580.713     12804.98   -645.76917   -850.48727   -6.7294965   -2191.1839 
17165000    263.80617   -3805.0844   -3352.9297   -3805.0844            0    15547.359     16.73947    19.716885    20.422115    6740.3234     13937.28    17000.963    15703.834    1421.0572   -613.60097    3224.6363   -1824.6134 
17166000    279.86189   -3836.8565   -3357.1828   -3836.8565            0    11434.806    16.813643     19.80425    20.512605    6830.3195    13851.479    10336.215    10116.724   -1068.0727   -885.75287     1677.895   -2218.1252 
17167000    254.41879   -3875.2503   -3439.1852   -3875.2503            0    10137.045     16.80188    19.790395    20.498254     6815.994    10803.021    9405.0965    10203.018   -580.78779    257.28165    -1438.831   -2431.5196 
17168000    286.83729   -3868.3212   -3376.6919   -3868.3212            0    10931.981    16.803448    19.792242    20.500168    6817.9031    10378.358    10700.413    11717.172   -1292.6788   -74.157368   -310.17932   -2289.7018 
17169000    279.49784   -3839.3777    -3360.328   -3839.3777            0    10816.492    16.804027    19.792924    20.500873    6818.6072    9471.3552    10389.546    12588.574    -28.44898   -482.99503   -1052.3558   -2284.7102 
17170000    271.00412    -3867.639   -3403.1472    -3867.639            0    12184.325    16.827965     19.82112    20.530079    6847.7898    11235.249    13463.207    11854.519   -1147.1174    699.00042    390.39052   -2186.3231 
17171000     274.1072   -3863.3482   -3393.5378   -3863.3482            0    11321.048    16.795882     19.78333    20.490937    6808.6972    11198.599    10965.888    11798.658    156.09349    2135.1307    19.163116   -2269.3819 
17172000    262.32298   -3864.2065   -3414.5939   -3864.2065            0    11462.293    16.755257    19.735479    20.441374     6759.411    12585.034    9792.2041     12009.64    1628.8398    74.133616    -406.9297   -2284.6516 
17173000    268.26535   -3877.8392   -3418.0416   -3877.8392            0    10272.563    16.772766    19.756102    20.462735    6780.6235    11259.656    9107.9313    10450.101    98.222838    1250.0572   -1838.7059   -2402.2039 
17174000    252.75827   -3845.9622   -3412.7432   -3845.9622            0    11480.909    16.793746    19.780815    20.488331    6806.1001    12368.931    10842.547     11231.25   -178.28021      1006.72   -900.79766   -2273.1483 
17175000    263.97457   -3831.1792   -3378.7358   -3831.1792            0    12506.302    16.740022    19.717534    20.422787    6740.9893    10418.592    14832.204     12268.11   -1253.3829   -1804.2804   -719.31323   -2149.2361 
17176000    268.08834   -3880.1196   -3420.6254   -3880.1196            0    13368.337    16.755155    19.735359     20.44125    6759.2876    13161.785    13925.973    13017.253   -1267.0345    1382.9822    1134.2262   -2102.8111 
17177000    274.25476   -3856.3364   -3386.2731   -3856.3364            0    10715.548    16.819643    19.811318    20.519926    6837.6354    10795.433    12276.419    9074.7915   -1191.6691    845.55086    1731.8686   -2317.7198 
17178000    269.53046   -3848.4396   -3386.4736   -3848.4396            0    11441.538    16.821872    19.813943    20.522644    6840.3533    11502.345    11398.398    11423.871   -322.60158   -1695.7204   -1466.6234   -2245.0711 
17179000    269.93232   -3852.5458    -3389.891   -3852.5458            0    9931.5948    16.816719    19.807874    20.516358    6834.0694    9367.0545    11783.487    8644.2427    601.19304   -379.28882    1822.3527   -2400.0299 
17180000    261.07205   -3845.6514   -3398.1828   -3845.6514            0    10112.365    16.812301    19.802669    20.510967    6828.6841    12356.585    8454.7246    9525.7852    243.73568    -630.8277    1791.6832    -2391.099 
17181000    270.47728   -3836.1807   -3372.5919   -3836.1807            0        12762    16.776222    19.760173    20.466951    6784.8156    14173.861     11671.26    12440.878    47.888274   -926.81665   -585.89883   -2109.7975 
17182000    275.86703   -3824.1583   -3351.3316   -3824.1583            0     12232.51    16.806095     19.79536    20.503397    6821.1257    15139.527    10113.816    11444.189   -443.18911   -1505.1521    1638.7244   -2134.4522 
17183000    281.14986   -3880.6861   -3398.8048   -3880.6861            0    12061.053    16.793587    19.780627    20.488137    6805.9068    12454.231    11005.851    12723.076   -958.19117   -127.84094   -1514.0983   -2201.6589 
17184000    266.86524   -3877.8226   -3420.4247   -3877.8226            0    10336.994    16.844211    19.840256    20.549899    6867.6418    9362.1071    10906.492    10742.381   -246.30048    493.18907   -281.51351   -2385.0972 
17185000    261.01481   -3813.4856   -3366.1151   -3813.4856            0    10705.252    16.846891    19.843412    20.553167    6870.9195    11347.395    11132.376    9635.9848    308.57254   -1119.7948    1621.9094    -2293.392 
17186000    271.19274   -3802.4804   -3337.6653   -3802.4804            0    12919.755    16.796666    19.784254    20.491893     6809.651    14515.173    13800.521    10443.572    313.21553   -261.79494   -760.03414   -2054.5814 
17187000    257.12503   -3826.8781   -3386.1746   -3826.8781            0    11610.914    16.786239    19.771972    20.479172     6796.977    14153.941    10640.335    10038.466    1127.6363    1700.4298   -880.46871   -2235.2203 
17188000    287.92532   -3834.5628   -3341.0686   -3834.5628            0    13411.582    16.733885    19.710306    20.415301    6733.5786    13902.712    11993.321    14338.714   -1762.3226    1698.1935   -927.98143   -2024.0199 
17189000    252.29589   -3857.8408   -3425.4143   -3857.8408            0    9974.9129    16.813933    19.804592    20.512959    6830.6734    8821.9654    11926.879     9175.894    38.607041   -1614.7767   -659.69409   -2431.7298 
17190000     272.6166   -3803.1122   -3335.8567   -3803.1122            0    10046.061    16.820885    19.812781    20.521441    6839.1502    10857.215    9124.4092    10156.559   -158.18024   -104.55785    112.44594   -2333.8426 
17191000    270.24868   -3836.3731   -3373.1761   -3836.3731            0    13878.456    16.752112    19.731775    20.437537    6755.6055    15756.183    13003.429    12875.755   -3.6000636   -26.068889    1381.3596    -2005.821 
17192000    270.92142   -3828.5416   -3364.1916   -3828.5416            0    11910.872    16.779873    19.764474    20.471406    6789.2471    12456.376    12047.916    11228.324    476.72757     -1575.34   -46.982315   -2184.8461 
17193000    278.14235   -3808.1244    -3331.398   -3808.1244            0    13560.628    16.761356    19.742663    20.448815    6766.7949    13773.663    14170.085    12738.136   -1080.3681    875.93467   -286.70059   -1993.1435 
17194000    277.92029   -3813.5431   -3337.1972   -3813.5431            0    13546.557    16.784338    19.769734    20.476854    6794.6685    15397.171    13428.667    11813.833    1096.5712    190.14091   -2206.6511   -1994.8246 
17195000    262.06101   -3819.0167    -3369.853   -3819.0167            0    11216.136    16.872005    19.872993    20.583806    6901.6931    13426.567    10381.994    9839.8466    814.64417   -302.16882    145.65189   -2240.9028 
17196000    274.00363   -3816.9419   -3347.3091   -3816.9419            0    12866.487    16.788225    19.774311    20.481595    6799.3893    13159.943     12447.66    12991.859   -926.74691   -2368.7346   -667.99614    -2071.441 
17197000    266.62282   -3795.0305   -3338.0481   -3795.0305            0    11735.197    16.837376    19.832205    20.541559    6859.2847    10588.454    11183.417     13433.72    385.08947    2531.2511   -1054.0671   -2164.1103 
17198000    272.00293   -3834.3655   -3368.1618   -3834.3655            0    12074.103    16.794839    19.782102    20.489665    6807.4293     12150.17    11505.934    12566.205    405.37727    705.71863    368.55025   -2169.4524 
17199000    295.13325   -3848.6467   -3342.7984   -3848.6467            0    13757.363    16.766691    19.748947    20.455324    6773.2588    13006.816     14313.32    13951.952    -1645.596   -1247.7395   -1380.0972   -1983.8319 
17200000    260.70629   -3834.9746    -3388.133   -3834.9746            0    12987.109    16.753167    19.733017    20.438824    6756.8817    14051.036    11489.501    13420.788    1028.7263    1562.4149    931.87529   -2108.3548 
17201000    279.37904   -3892.8047   -3413.9586   -3892.8047            0    10047.608    16.820308    19.812101    20.520736    6838.4456    8538.1233    10145.519    11459.182    113.29171    694.35857    162.88542   -2411.8934 
17202000    275.51699   -3880.7879   -3408.5612   -3880.7879            0    11138.701    16.801235    19.789636    20.497468    6815.2097    11883.177    10635.664    10897.261    1211.8412    529.20835   -561.44317   -2301.4541 
17203000    263.94427   -3885.9222   -3433.5308   -3885.9222            0    11099.483    16.749216    19.728364    20.434004    6752.1023     11902.95    9770.5732    11624.927   -868.74048   -966.26327    394.41998    -2340.537 
17204000     253.4165    -3865.402   -3431.0548    -3865.402            0    12983.752    16.756846    19.737352    20.443313     6761.335    13716.213    12644.033     12591.01   -651.64454    1848.6595    1869.4268   -2150.7642 
17205000     252.2688   -3853.1775   -3420.7974   -3853.1775            0        10593    16.835306    19.829767    20.539034     6856.755     12658.28      10644.4    8476.3203   -510.01325   -1408.9947   -137.75334   -2361.5107 
17206000     258.3063   -3873.2926   -3430.5645   -3873.2926            0    10551.434    16.817277    19.808531    20.517039    6834.7498    11599.656    9782.8584    10271.787   -1198.6032   -1093.6905   -12.919226   -2378.8206 
17207000    270.17713   -3863.1548   -3400.0804   -3863.1548            0    10926.173    16.895546    19.900721    20.612526    6930.6227    11557.407    10522.353    10698.759   -1060.7555   -869.89734   -641.27144   -2295.7063 
17208000    271.78216   -3817.7333    -3351.908   -3817.7333            0    11955.819    16.819646    19.811322    20.519929    6837.6391    11766.424     12174.98    11926.053   -284.43105   -510.36216    2261.6468   -2159.6743 
17209000    273.98445   -3843.7397   -3374.1397   -3843.7397            0    13933.089    16.719247    19.693064    20.397442     6715.923    12190.226    15157.327    14451.713    934.33586   -965.34091   -448.69835   -2009.4655 
17210000    281.69115   -3858.7075   -3375.8986   -3858.7075            0    10315.986    16.843938    19.839933    20.549564    6867.3069    11316.457    9025.9786    10605.523    1541.0516    -324.2108   -645.75387   -2342.7254 
17211000    277.67136   -3876.0497   -3400.1305   -3876.0497            0    12352.443     16.77933    19.763834    20.470743    6788.5874    10913.521    13778.275    12365.531    1568.3871   -627.81618   -355.59373   -2177.1821 
17212000    272.96881    -3846.465   -3378.6058    -3846.465            0    13769.221    16.781873     19.76683    20.473846    6791.6748    12933.342    14511.355    13862.967     195.6494    765.33578   -1111.4391   -2014.7698 
17213000    280.59677   -3828.1645   -3347.2313   -3828.1645            0    10029.944     16.87947    19.881786    20.592914    6910.8589    7615.8194      11631.2    10842.812    723.43714   -908.68715    341.58884   -2336.3354 
17214000    272.04125   -3848.5288   -3382.2594   -3848.5288            0    12042.693    16.838442     19.83346     20.54286    6860.5871    11315.857    13602.923    11209.299   -217.50144   -334.95857    197.99318   -2177.3323 
17215000    253.78723   -3872.5694   -3437.5868   -3872.5694            0    11173.731    16.800537    19.788814    20.496616    6814.3603    11679.347    10168.808    11673.038    1007.0261    156.51379   -2021.2186   -2327.1363 
17216000    286.92576   -3864.5637   -3372.7827   -3864.5637            0    12456.983    16.766702    19.748961    20.455338    6773.2727    12412.404    12075.158    12883.389   -101.87266   -1119.5181    58.150979   -2142.2666 
17217000    260.99229   -3817.5478    -3370.216   -3817.5478            0     10108.27    16.785373    19.770952    20.478115    6795.9245    11964.219    8115.4198     10245.17   -1446.5472    2409.0972   -902.68696   -2368.3693 
17218000    273.15903   -3826.6898   -3358.5046   -3826.6898            0    10171.033    16.834328    19.828614     20.53784    6855.5597    9805.7596    10178.885    10528.453    949.13845    -7.450889    325.21566   -2341.5914 
17219000    274.04933   -3823.4776   -3353.7664   -3823.4776            0    10465.901    16.818278    19.809711     20.51826    6835.9709    11331.682    9450.6187    10615.402   -514.73465   -1966.7466    935.31158   -2310.3619 
17220000    267.54959    -3848.614   -3390.0431    -3848.614            0    13427.909    16.805284    19.794405    20.502408    6820.1382    11635.198    14590.556    14057.972    32.172682    887.78292     -954.179   -2054.4399 
17221000    279.40868   -3855.4865   -3376.5896   -3855.4865            0    12508.041     16.84929    19.846238    20.556094    6873.8554    10766.342     13202.87    13554.911    101.91876    230.03436   -1061.7467   -2122.6819 
17222000    274.18484   -3881.6899   -3411.7465   -3881.6899            0    9416.4521    16.848395    19.845184    20.555003    6872.7602    8678.7203    10542.075    9028.5613   -1606.4137   -409.96531   -85.082369   -2467.9152 
17223000    271.63896   -3860.3439    -3394.764   -3860.3439            0    12166.109    16.801965    19.790495    20.498358    6816.0978    12104.156    12420.941    11973.229    347.12985   -618.74381    -168.4339   -2185.3823 
17224000    256.84974    -3817.277   -3377.0453    -3817.277            0    10356.106    16.853917    19.851688    20.561739    6879.5197    11854.411    10572.214    8641.6938   -265.46571    755.81118    -593.9646   -2338.0096 
17225000    271.86938   -3829.8593   -3363.8844   -3829.8593            0    10535.512    16.821592    19.813614    20.522303    6840.0125    9844.1684    9953.3735    11808.994    756.31338   -1172.3285   -1242.3271    -2312.919 
17226000    268.74315   -3783.1838   -3322.5673   -3783.1838            0    13817.591     16.74154    19.719323     20.42464    6742.8239    13806.822    14770.555    12875.395    1036.0482   -1654.1772   -1068.6076   -1963.7845 
17227000    304.70541   -3821.5477   -3299.2931   -3821.5477            0    11421.029     16.83091    19.824589    20.533671    6851.3857    9005.4437    12227.476    13030.168    1811.9424   -601.72016    844.82042   -2158.0989 
17228000    272.40019   -3802.2192   -3335.3346   -3802.2192            0     13144.32    16.798016    19.785844    20.493541    6811.2932      12456.4    13688.511    13288.048    23.569537    1010.3596   -354.19909   -2029.6341 
17229000     277.2631   -3806.6366   -3331.4172   -3806.6366            0    11763.608    16.772432    19.755709    20.462328    6780.2185    13328.999     12386.82    9575.0063   -1296.7875    346.94965    40.865092   -2168.2018 
17230000    263.31877    -3793.824   -3342.5047    -3793.824            0    9978.0277    16.874276    19.875668    20.586577    6904.4807    9925.4613    10219.657     9788.965   -1772.5448    1007.5284    784.85828   -2337.7695 
17231000    287.73858   -3840.8429   -3347.6688   -3840.8429            0    13305.138    16.818039    19.809429    20.517969    6835.6794     11958.27    13090.785    14866.358    734.39742    1079.3634    893.35535   -2021.2613 
17232000    268.19505   -3831.8822    -3372.205   -3831.8822            0    11945.265    16.838091    19.833048    20.542432    6860.1589    11478.342    11877.006    12480.448    -945.3818   -80.731056    272.93052   -2177.1006 
17233000    267.25999   -3800.5781   -3342.5036   -3800.5781            0    13843.974    16.725364     19.70027    20.404905    6723.2976    14829.429    14238.187    12464.305   -2718.1469    378.47106    67.161691   -1985.0688 
17234000    278.99003   -3798.1544    -3319.975   -3798.1544            0     11529.12      16.8365    19.831173     20.54049    6858.2136    11668.176    10843.673     12075.51    465.06344   -120.16423    184.29562   -2166.8324 
17235000    259.12217    -3799.552   -3355.4254    -3799.552            0    11066.601    16.866299    19.866273    20.576846    6894.6943    12519.095    10689.502    9991.2067    418.92574   -9.4650076   -923.58177   -2242.6561 
17236000    268.10722   -3843.9956    -3384.469   -3843.9956            0    11527.416    16.839758    19.835011    20.544465    6862.1961    12421.924    11270.039    10890.287   -394.86356   -922.56735   -495.12702   -2230.8272 
17237000     272.7424   -3863.5966   -3396.1255   -3863.5966            0    9091.9384    16.853136    19.850768    20.560786    6878.5632    9743.1509    7874.6852     9657.979   -1538.5728    730.60061   -812.88452   -2484.0514 
17238000    274.69415   -3863.8288   -3393.0124   -3863.8288            0    10503.681    16.917968    19.927132    20.639882    6958.2527    9328.8537    11092.221    11089.968    148.19717   -1239.8666    290.66841   -2327.1096 
17239000    262.01051   -3866.6027   -3417.5257   -3866.6027            0    11251.367    16.887753    19.891542    20.603019    6921.0374    7998.2361    12319.312    13436.554   -437.61832   -993.09717    3508.8633   -2281.8551 
17240000    261.17788   -3837.5609   -3389.9109   -3837.5609            0      10224.4    16.881236    19.883866    20.595068    6913.0275    10101.621    8200.7326    12370.846    1214.5266   -78.012666    647.03724   -2359.0929 
17241000     261.4283   -3860.9718   -3412.8927   -3860.9718            0    11854.456    16.777265    19.761402    20.468224    6786.0819    11949.844      10574.1    13039.426    387.29358    460.54504    428.15845   -2239.6803 
17242000    259.51785   -3810.5745   -3365.7698   -3810.5745            0    11348.395    16.834836    19.829213     20.53846    6856.1804    11127.083    13766.898    9151.2034   -401.74891   -33.471938    897.96371   -2231.0397 
17243000    281.13942    -3800.753   -3318.8897    -3800.753            0    15679.449    16.717539    19.691052    20.395358     6713.865    16922.783    15481.604    14633.959     223.1221    -1275.419    25.414033    -1783.639 
17244000    273.32807   -3852.1078   -3383.6328   -3852.1078            0    13579.514    16.783217    19.768413    20.475486    6793.3071    15222.397    13065.967    12450.177   -1654.0882    1653.3177    45.034379    -2038.264 
17245000    286.83766   -3846.3939    -3354.764   -3846.3939            0    11368.863     16.86794    19.868206    20.578848    6896.7066    13020.624    9954.2425    11131.723   -1166.8938    20.603236    1121.7892   -2211.2679 
17246000    273.39883   -3868.3049   -3399.7086   -3868.3049            0    11226.388    16.852177    19.849638    20.559616    6877.3894    11907.616    10968.049    10803.497    -307.7309   -139.72707   -1455.6814   -2273.7057 
17247000    269.77154   -3850.8871   -3388.5079   -3850.8871            0    10786.635    16.780293    19.764969    20.471918    6789.7567    10400.654      10923.6    11035.652    1137.9209    225.67821    1263.9855   -2320.3976 
17248000      278.334   -3842.8784   -3365.8235   -3842.8784            0    10807.614    16.814381     19.80512    20.513505    6831.2194    10369.242    11142.539     10911.06   -1149.9955    3144.7665   -1558.4824   -2289.1006 
17249000    268.96879   -3875.1882   -3414.1848   -3875.1882            0    11239.182    16.778606    19.762981     20.46986    6787.7085    11931.127    12168.074    9618.3435      1657.89    1810.2565   -1151.7162   -2301.5984 
17250000    277.31168   -3836.2617    -3360.959   -3836.2617            0    8708.7328    16.835454    19.829942    20.539215    6856.9363    10464.657    8326.8227    7334.7189    174.10567    529.61725     549.5984   -2490.0737 
Loop time of 407.023 on 64 procs for 250000 steps with 864 atoms

Performance: 106.136 ns/day, 0.226 hours/ns, 614.215 timesteps/s
99.1% CPU use with 64 MPI tasks x 1 OpenMP threads

MPI task timing breakdown:
Section |  min time  |  avg time  |  max time  |%varavg| %total
---------------------------------------------------------------
Pair    | 22.347     | 27.468     | 32.08      |  47.5 |  6.75
Bond    | 0.28392    | 0.29473    | 0.31054    |   0.8 |  0.07
Kspace  | 170.92     | 177.94     | 190.42     |  28.5 | 43.72
Neigh   | 5.4158     | 5.9593     | 7.5533     |  20.5 |  1.46
Comm    | 82.325     | 94.744     | 99.584     |  40.3 | 23.28
Output  | 1.2976     | 1.3032     | 1.3071     |   0.3 |  0.32
Modify  | 93.501     | 95.117     | 96.75      |   8.8 | 23.37
Other   |            | 4.195      |            |       |  1.03

Nlocal:        13.5000 ave          19 max           7 min
Histogram: 1 1 3 8 8 25 3 7 4 4
Nghost:        2301.75 ave        2352 max        2257 min
Histogram: 1 4 11 9 17 3 8 5 4 2
Neighs:        4496.77 ave        7052 max        2114 min
Histogram: 1 5 4 9 21 8 7 4 4 1

Total # of neighbors = 287793
Ave neighs/atom = 333.09375
Ave special neighs/atom = 2.0000000
Neighbor list builds = 14779
Dangerous builds = 0

unfix		3
unfix		2
unfix		1

write_data	data.final.${pid}
write_data	data.final.0
System init for write_data ...
PPPM initialization ...
  extracting TIP4P info from pair style
  using 12-bit tables for long-range coulomb (../kspace.cpp:340)
  G vector (1/distance) = 0.37494118
  grid = 24 24 24
  stencil order = 5
  estimated absolute RMS force accuracy = 0.0030843254
  estimated relative force accuracy = 9.2883544e-06
  using double precision FFTW3
  3d grid and FFT values/proc = 2535 216
Last active /omp style is kspace_style pppm/tip4p/omp
WARNING: Not all mixed pair coeffs generated from mixing. Use write_data with 'pair ij' option to store all pair coeffs. (../write_data.cpp:312)

write_restart   restart.lmp.${pid}
write_restart   restart.lmp.0
System init for write_restart ...
PPPM initialization ...
  extracting TIP4P info from pair style
  using 12-bit tables for long-range coulomb (../kspace.cpp:340)
  G vector (1/distance) = 0.37494118
  grid = 24 24 24
  stencil order = 5
  estimated absolute RMS force accuracy = 0.0030843254
  estimated relative force accuracy = 9.2883544e-06
  using double precision FFTW3
  3d grid and FFT values/proc = 2535 216
Last active /omp style is kspace_style pppm/tip4p/omp
Total wall time: 0:06:47
