LAMMPS (30 Jul 2021)
  using 1 OpenMP thread(s) per MPI task
package omp 0
using multi-threaded neighbor list subroutines
echo both

include		in.partitions
variable        pid world 0
include		in.temp
variable        temperature equal 249.70
variable	tempDamp equal 100.0
include		in.pressure
variable        pressure equal 6750.0
variable        pressureDamp equal 1000.0 # This is 1 ps
include		in.seed
variable        seed world 745823

units		real
atom_style	full
read_restart	restart.lmp.${pid}
read_restart	restart.lmp.0
Reading restart file ...
  restart file = 30 Jul 2021, LAMMPS = 30 Jul 2021
  restoring atom style full from restart
  orthogonal box = (0.55762168 1.7483360 0.68029714) to (17.649951 21.880842 21.532899)
  4 by 4 by 4 MPI processor grid
  restoring pair style lj/cut/tip4p/long/omp from restart
  restoring bond style harmonic/omp from restart
  restoring angle style harmonic/omp from restart
  864 atoms
  576 bonds
  288 angles
Finding 1-2 1-3 1-4 neighbors ...
  special bond factors lj:    0        0        0       
  special bond factors coul:  0        0        0       
     2 = max # of 1-2 neighbors
     1 = max # of 1-3 neighbors
     1 = max # of 1-4 neighbors
     2 = max # of special neighbors
  special bonds CPU = 0.111 seconds
  read_restart CPU = 0.216 seconds
include 	in.setup
variable	out_freq equal 1000
variable	out_freq2 equal 10000
variable	out_freq3 equal 1000

timestep	2.0

neigh_modify    delay 7 every 1

include		in.tip4p
# This is TIP4P/Ice

# create groups ###
group ox type 2
288 atoms in group ox
group hy type 1
576 atoms in group hy

# set charges - beside manually ###
set group ox charge -1.1794
Setting atom values ...
  288 settings made for charge
set group hy charge 0.5897
Setting atom values ...
  576 settings made for charge

# ### TIP3P Potential Parameters ###
pair_style lj/cut/tip4p/long/omp 2 1 1 1 0.1577 8.5
pair_coeff 1 1*2 0.000 0.000
pair_coeff 2 2 0.21084 3.1668
bond_style  harmonic
bond_coeff  1 450 0.9572
angle_style harmonic
angle_coeff 1 55 104.52
kspace_style pppm/tip4p/omp 1.0e-5
pair_modify tail yes

thermo          ${out_freq}
thermo          1000
thermo_style    custom step temp pe etotal epair emol press lx ly lz vol pxx pyy pzz pxy pxz pyz enthalpy

restart 	${out_freq3} restart.lmp.${pid} restart2.lmp.${pid}
restart 	1000 restart.lmp.${pid} restart2.lmp.${pid}
restart 	1000 restart.lmp.0 restart2.lmp.${pid}
restart 	1000 restart.lmp.0 restart2.lmp.0


include         in.dump
dump            myDump all atom ${out_freq2} dump.water.${pid}
dump            myDump all atom 10000 dump.water.${pid}
dump            myDump all atom 10000 dump.water.0
dump            myDump2 all dcd ${out_freq2} dump.dcd
dump            myDump2 all dcd 10000 dump.dcd
dump_modify     myDump append yes
dump_modify     myDump2 append yes


variable natoms 	equal  "count(all)"                        # NUMBER ATOMS
variable H      	equal  "enthalpy/v_natoms"                 # ENTHALPY-per-atom
variable Vol      	equal  "vol/v_natoms"                 # volume-per-atom
fix AVG all 		ave/time ${out_freq} 1 ${out_freq} v_Vol v_H file vol_enthalpy.dat
fix AVG all 		ave/time 1000 1 ${out_freq} v_Vol v_H file vol_enthalpy.dat
fix AVG all 		ave/time 1000 1 1000 v_Vol v_H file vol_enthalpy.dat


timer           timeout 23:50:00 every 1000
New timer settings: style=normal  mode=nosync  timeout=23:50:00

fix 		1 all shake 1e-6 200 0 b 1 a 1
       0 = # of size 2 clusters
       0 = # of size 3 clusters
       0 = # of size 4 clusters
     288 = # of frozen angles
  find clusters CPU = 0.143 seconds
fix             2 all nph iso ${pressure} ${pressure} ${pressureDamp}
fix             2 all nph iso 6750 ${pressure} ${pressureDamp}
fix             2 all nph iso 6750 6750 ${pressureDamp}
fix             2 all nph iso 6750 6750 1000
fix             3 all temp/csvr ${temperature} ${temperature} ${tempDamp} ${seed}
fix             3 all temp/csvr 249.7 ${temperature} ${tempDamp} ${seed}
fix             3 all temp/csvr 249.7 249.7 ${tempDamp} ${seed}
fix             3 all temp/csvr 249.7 249.7 100 ${seed}
fix             3 all temp/csvr 249.7 249.7 100 745823

run             250000
PPPM initialization ...
  extracting TIP4P info from pair style
  using 12-bit tables for long-range coulomb (../kspace.cpp:340)
  G vector (1/distance) = 0.37369265
  grid = 24 24 24
  stencil order = 5
  estimated absolute RMS force accuracy = 0.0032265298
  estimated relative force accuracy = 9.7165987e-06
  using double precision FFTW3
  3d grid and FFT values/proc = 2535 216
Last active /omp style is kspace_style pppm/tip4p/omp
Neighbor list info ...
  update every 1 steps, delay 7 steps, check yes
  max neighbors/atom: 2000, page size: 100000
  master list distance cutoff = 10.8154
  ghost atom cutoff = 10.8154
  binsize = 5.4077, bins = 4 4 4
  1 neighbor lists, perpetual/occasional/extra = 1 0 0
  (1) pair lj/cut/tip4p/long/omp, perpetual
      attributes: half, newton on, omp
      pair build: half/bin/newton/omp
      stencil: half/bin/3d
      bin: standard
Per MPI rank memory allocation (min/avg/max) = 9.235 | 9.238 | 9.241 Mbytes
Step Temp PotEng TotEng E_pair E_mol Press Lx Ly Lz Volume Pxx Pyy Pzz Pxy Pxz Pyz Enthalpy 
23250000    262.12306   -3873.4322   -3424.1623   -3873.4322            0    6374.2719    17.092329    20.132506    20.852602    7175.6182      5050.61     8398.503    5673.7028   -245.60438   -1516.4636    726.50237   -2757.1009 
23251000    261.13327   -3900.0989   -3452.5254   -3900.0989            0    8405.2005    17.073395    20.110204    20.829502    7151.7979    9447.2405    6487.9549    9280.4062    264.02926    504.02976     338.1018   -2575.8492 
23252000    241.76266   -3868.1773   -3453.8044   -3868.1773            0     5748.615    17.141737    20.190701    20.912879    7238.0244    7500.0269    4429.4319    5316.3862   -512.32418    632.17922    1882.2165   -2846.9854 
23253000     256.5886   -3907.3699   -3467.5858   -3907.3699            0    5858.6213    17.086757    20.125943    20.845804    7168.6031     7292.657    4714.7119    5568.4949   -195.34703   -167.05575    1096.3161   -2855.0862 
23254000     245.5011   -3921.6509   -3500.8704   -3921.6509            0     5729.961    17.052048     20.08506    20.803459    7125.0059    6978.3165    4500.8428    5710.7236    -329.2979   -915.40682    825.70255    -2905.465 
23255000    258.79014   -3907.3873   -3463.8298   -3907.3873            0    5718.1393    17.053181    20.086394     20.80484    7126.4257    6424.0459     4161.493    6568.8792   -890.49883   -1594.6432    136.78399   -2869.5344 
23256000    256.34102   -3899.0558   -3459.6961   -3899.0558            0    5965.0748     17.07986    20.117819    20.837389    7159.9253    6044.7014    5923.0036    5927.5194   -21.002091   -29.981636   -686.90007    -2836.822 
23257000     248.8489   -3891.6618   -3465.1433   -3891.6618            0    8203.5593    17.053012    20.086195    20.804634    7126.2139    7822.8549    8298.1386    8489.6844    1118.7497    465.73865   -109.21916   -2612.5595 
23258000    255.83867   -3877.2645   -3438.7657   -3877.2645            0    7744.0116    17.014768    20.041149    20.757977    7078.3771    7279.5649     9326.435     6626.035   -2398.6429    -822.1118   -505.11964   -2639.3447 
23259000    261.45818   -3885.2173    -3437.087   -3885.2173            0     8142.481    16.988166    20.009816    20.725523    7045.2286    9386.4842     8423.245    6617.7137    890.13691   -606.19798   -250.87537    -2600.468 
23260000    249.42037   -3883.1616   -3455.6636   -3883.1616            0    8677.1152    16.994004    20.016692    20.732645    7052.4943    8778.8913     9413.591    7838.8633    434.46294   -1360.9547    107.22175   -2563.1929 
23261000    250.28274   -3905.4454   -3476.4693   -3905.4454            0    5534.4155    17.059443    20.093771    20.812481    7134.2802    6215.2358    5567.5606    4820.4501   -1379.5725   -410.00308   -838.83029   -2900.6346 
23262000    264.55985   -3892.3818   -3438.9353   -3892.3818            0    6676.7991    17.045556    20.077413    20.795538    7116.8707    6971.1941    8398.9663    4660.2369    -1877.696   -148.38469   -363.03882   -2745.9353 
23263000    246.34729   -3861.4307   -3439.1998   -3861.4307            0    6070.9005    17.032729    20.062305     20.77989    7100.8167    6628.3071     4816.531    6767.8635    319.79256     161.7565   -524.78219   -2810.5087 
23264000    243.33742   -3887.0627   -3469.9907   -3887.0627            0    5819.7859    17.066298    20.101845    20.820844    7142.8834    7637.3173    4371.9135    5450.1271   -1612.1114     928.0896    95.478316   -2863.7341 
23265000    258.51893   -3888.7799   -3445.6873   -3888.7799            0    7000.7024    17.108237    20.151244     20.87201    7195.6726     6105.398    10032.572    4864.1372    1165.6892   -1313.7954    830.09239   -2711.0231 
23266000    247.21035   -3884.2904   -3460.5803   -3884.2904            0    7843.0873    16.985673    20.006879    20.722481    7042.1273    7081.9752    9112.8574    7334.4293    358.73526    560.49919    365.19936    -2655.078 
23267000    247.24326   -3868.9387   -3445.1722   -3868.9387            0    7137.8048    17.017952    20.044899    20.761861    7082.3511    8063.5397    6273.1152    7076.7597   -1920.5952    1168.0372   -1873.5957   -2707.9168 
23268000    242.76696   -3922.8002   -3506.7059   -3922.8002            0    5936.5279    17.050883    20.083688    20.802037    7123.5453    4059.5113    7247.4149    6502.6575   -2016.6914   -5.4185343    172.49635   -2889.9624 
23269000    250.27005   -3906.5957   -3477.6414   -3906.5957            0    6217.2092    17.045335    20.077153    20.795269    7116.5942     7607.957    4642.6217    6401.0489   -460.81491   -299.75781    157.63812   -2832.3682 
23270000    243.64455   -3906.6153   -3489.0169   -3906.6153            0    5145.7639    17.101807    20.143669    20.864164    7187.5616    6613.7436    5033.3636    3790.1844   -41.067447   -632.97098    752.98847   -2949.6214 
23271000    246.11385   -3916.9288   -3495.0981   -3916.9288            0    6342.4213    17.053221    20.086442     20.80489    7126.4767    6240.6765    6889.5892    5896.9983    1858.3198    501.77421    1425.1962   -2835.9153 
23272000    258.77923   -3879.1126   -3435.5739   -3879.1126            0    6679.4303     17.00136    20.025356    20.741619    7061.6557    5277.8484    7571.0527    7189.3898    1728.6796    563.10735   -268.46173   -2747.6793 
23273000    241.63378   -3898.8468   -3484.6947   -3898.8468            0    7923.1539    17.024349    20.052435    20.769666    7090.3414    8522.9115    8036.7687    7209.7814     5.920503   -368.34238    69.807758   -2665.3982 
23274000    262.00552   -3877.0766   -3428.0081   -3877.0766            0    6523.9568    17.117272    20.161885    20.883032    7207.0784    6245.1787    7379.6111    5947.0805    1080.4904   -911.28855     -287.216   -2742.2891 
23275000    244.65445   -3871.7782   -3452.4489   -3871.7782            0    5848.1443    17.066053    20.101556    20.820545    7142.5758    5940.0442    6585.5044    5018.8842   -1160.1509   -553.48472     1572.939   -2843.2644 
23276000    261.50597   -3873.2392   -3425.0269   -3873.2392            0    6661.2548    17.057659    20.091669    20.810304    7132.0416     6206.616     6799.054    6978.0946   -967.33279   -147.10926   -58.154815   -2732.1664 
23277000    255.61112   -3886.7762   -3448.6674   -3886.7762            0    5263.1314    17.078835    20.116612    20.836139    7158.6368    5653.7791    5728.9834    4406.6317    455.91978    -1013.384   -1407.1481   -2899.1893 
23278000    240.60307   -3902.1841   -3489.7987   -3902.1841            0    6010.2391    17.065144    20.100486    20.819436     7141.435    7494.8911     4275.231    6260.5953    1729.1815    1711.4646    -576.1665   -2863.8292 
23279000    247.71253   -3941.9024   -3517.3316   -3941.9024            0    4885.0747    17.110037    20.153363    20.874205     7197.943    4263.1547    4887.3491    5504.7204   -1214.4236    849.72814    -929.5676   -3004.5228 
23280000    255.76448   -3911.4604   -3473.0888   -3911.4604            0    7673.2263    17.077518     20.11506    20.834532    7156.9806    6895.3851    9692.4048    6431.8891   -2047.9653    13.299986    682.00526   -2672.1788 
23281000    254.71801   -3880.5844   -3444.0064   -3880.5844            0    5479.9436    17.143623    20.192923     20.91518    7240.4141    5203.9415    6199.7102    5036.1792   -48.272014    134.16709     -496.076   -2865.3572 
23282000    254.53492    -3924.854   -3488.5899    -3924.854            0    6096.3058    17.100895    20.142595    20.863052    7186.4118    5040.0917    7565.4511    5683.3745   -1448.4347   -586.40008   -255.75656   -2849.6578 
23283000    248.06984   -3900.2055   -3475.0223   -3900.2055            0     7874.651    17.011166    20.036907    20.753583    7073.8825    8668.4723    9339.5672    5615.9136    535.35757   -347.74568   -530.26853   -2662.6314 
23284000    240.25996   -3889.7009   -3477.9036   -3889.7009            0    7389.7068    17.018609    20.045673    20.762663    7083.1714    7313.7785    7515.5365    7339.8053    -463.3226   -18.314237    1316.0784    -2714.541 
23285000    245.49149   -3947.6117   -3526.8477   -3947.6117            0    7406.7588    17.049425     20.08197    20.800258    7121.7181    7549.2098    7151.3149    7519.7517   -498.54652   -159.33348    247.77645   -2757.5599 
23286000    243.22063   -3925.3038    -3508.432   -3925.3038            0    5292.3107    17.060008    20.094436     20.81317    7134.9883    5213.6198     5852.481    4810.8313   -254.58203    12.576841    -939.7636   -2957.7327 
23287000    251.83679   -3882.8592   -3451.2195   -3882.8592            0    9374.8753    16.929572    19.940799    20.654038    6972.5798    9962.3586    8563.1326    9599.1347    658.66494   -1507.7017    870.12356   -2497.9079 
23288000    256.63457   -3905.1469    -3465.284   -3905.1469            0    5870.9832    16.989879    20.011833    20.727612    7047.3594    7044.3438    5895.1519     4673.454    1660.1423   -282.27305    1936.6544   -2861.8731 
23289000    245.36256   -3893.5004   -3472.9573   -3893.5004            0    6341.9391    17.045796    20.077696    20.795832    7117.1721    6980.6854    6164.6386    5880.4934   -1272.4138    2233.2732   -147.22505   -2814.6853 
23290000    239.66633   -3888.6954   -3477.9155   -3888.6954            0    6827.7053    17.026405    20.054856    20.772174    7092.9098    5698.7267    7673.7302    7110.6588    573.30769   -541.62349   -597.52891   -2771.6384 
23291000    246.25051   -3884.9317   -3462.8668   -3884.9317            0    8237.7555    17.028829    20.057711    20.775132    7095.9401    10981.898    5058.1435    8673.2254    2816.2495    9.0802143    1415.1337   -2610.3661 
23292000    253.73286   -3917.1071   -3482.2176   -3917.1071            0    7321.8138    16.991264    20.013465    20.729303    7049.0836      8640.63    6219.4723    7105.3392    -1574.421   -1335.6957    2263.1856   -2729.5084 
23293000    264.72044   -3917.6266   -3463.9048   -3917.6266            0    6278.4606    17.041452    20.072579    20.790531    7111.7317    5381.6603    5991.3354    7462.3861    925.53846   -545.06917   -745.62498   -2812.7197 
23294000    242.61932   -3891.2151   -3475.3738   -3891.2151            0    6910.9042    17.070391    20.106666    20.825838    7148.0245    6997.5401    5100.5072    8634.6652    319.59166     812.0878    -340.9633   -2754.9355 
23295000    231.73204   -3925.9221   -3528.7414   -3925.9221            0    6822.8255    17.076881     20.11431    20.833754    7156.1792    8617.3038    5761.2986    6089.8742    189.05212    784.95513   -1795.9951   -2816.6735 
23296000    260.81528   -3915.4936   -3468.4652   -3915.4936            0    5298.7908    17.134689    20.182401    20.904281    7229.1012    5386.5793    4010.7044    6499.0886    1074.6478   -1174.6505   -1062.3347   -2909.8188 
23297000    236.65879   -3905.1611   -3499.5361   -3905.1611            0    5782.3189    17.074694    20.111734    20.831086    7153.4304    5425.8906    4995.5817    6925.4846   -595.92118    -136.2561    105.00638   -2896.2931 
23298000    262.58659   -3933.8874    -3483.823   -3933.8874            0    6687.5599    17.070654    20.106976    20.826159    7148.3549    6449.7046    7558.3814    6054.5938   -560.37039   -162.15732    1088.8105   -2786.6353 
23299000    260.11987   -3924.5625    -3478.726   -3924.5625            0    6601.3754    17.079625    20.117543    20.837103    7159.6304    6991.3068      6626.14    6186.6794    184.76574    574.98987   -884.38244   -2789.4376 
23300000    261.42972    -3950.143   -3502.0614    -3950.143            0     8141.074    17.043031     20.07444    20.792458    7113.7091    8912.7309    6330.3868    9180.1045    170.59917   -598.21606   -603.34083   -2657.4563 
23301000    253.62486   -3876.6951   -3441.9908   -3876.6951            0    5392.6194    17.137669     20.18591    20.907916    7232.8725    5566.7173    4037.0506    6574.0904    1932.5211    304.07887    164.14999   -2873.1556 
23302000    246.48264   -3932.4922   -3510.0294   -3932.4922            0    5673.1369    17.172064    20.226424    20.949878    7276.5097    5912.9123    5405.9481    5700.5504   -461.40586   -1670.9523   -26.289585   -2907.9937 
23303000    245.29752   -3929.4441   -3509.0126   -3929.4441            0    7212.6508    17.117456    20.162102    20.883256    7207.3102    7054.8076    8007.2201    6575.9246    1203.3768   -1018.6267    -1071.646    -2750.882 
23304000    256.59096   -3927.3013   -3487.5132   -3927.3013            0     5664.142    17.133269    20.180728    20.902549    7227.3038    7467.3282    3643.5199    5881.5777    554.97894    312.57998    1775.2226   -2890.4967 
23305000    242.47305   -3903.5795    -3487.989   -3903.5795            0    8030.0215    17.033343    20.063028    20.780638    7101.5843    7705.7024    5575.4481    10808.914    313.24245   -931.91193    19.798076   -2656.3251 
23306000    255.60042   -3899.3512   -3461.2608   -3899.3512            0    7498.3298    17.088557    20.128063       20.848    7170.8687    6699.8468    7603.4109    8191.7317   -654.10321   -402.20758    1518.4824   -2677.0872 
23307000    257.53989   -3935.0538   -3493.6392   -3935.0538            0    5781.0069    17.124545    20.170452    20.891904    7216.2685    6514.0332    5111.6433    5717.3442   -1040.4456   -483.34082    1126.5723   -2885.2352 
23308000    247.11471   -3909.8544   -3486.3082   -3909.8544            0     6905.663     17.15278    20.203709    20.926351    7252.0224    6789.6846    4389.4335    9537.8709   -334.45958   -942.46332    287.30763   -2755.9424 
23309000     249.6015   -3884.5168   -3456.7083   -3884.5168            0    7303.2188    17.130586    20.177568    20.899275     7223.909    7948.9611     7368.772    6591.9233      536.404   -467.64137    331.16476   -2687.2901 
23310000    244.34897   -3919.7137   -3500.9079   -3919.7137            0    6252.1748    17.074753    20.111803    20.831158    7153.5044    5896.7252    7096.6008    5763.1983    176.56006    729.62943   -446.84246   -2848.6403 
23311000     239.3443   -3886.1105   -3475.8826   -3886.1105            0    7577.4602    17.074793     20.11185    20.831207    7153.5547    5897.3661    9202.4851    7632.5294   -396.61863    8.0372833   -1237.5036   -2685.3469 
23312000    250.35097   -3905.0022   -3475.9092   -3905.0022            0    6241.9239    17.126979    20.173319    20.894875    7219.3467    5949.5207    7594.3251     5181.926   -671.66396   -1129.3268    1029.2429   -2818.7172 
23313000    256.08458   -3878.3594   -3439.4392   -3878.3594            0    5717.9892    17.055309    20.088901    20.807437    7129.0942    5584.1546    6001.4552    5568.3578    140.75752    1115.3173   -938.67375   -2844.9369 
23314000    250.19416   -3900.7651   -3471.9409   -3900.7651            0    6135.8684    17.077677    20.115248    20.834726    7157.1809    6077.3092    5429.0461    6901.2499    2702.6564    631.90061    780.75681   -2831.4781 
23315000    242.63766   -3908.1024   -3492.2297   -3908.1024            0    6799.1384    17.010615    20.036258    20.752911    7073.1951    5498.7856    7259.1027     7639.527    2629.3598    826.10602   -376.70471   -2790.8626 
23316000    254.10384   -3877.6379   -3442.1126   -3877.6379            0    5104.7492    17.120364    20.165527    20.886804    7210.9846    5334.0904    6170.8866    3809.2706    -144.6344     327.8164    550.64355   -2905.2726 
23317000    236.36328   -3927.3341   -3522.2155   -3927.3341            0    6637.5866    17.039218    20.069948    20.787806    7108.9351    7697.2397    5418.4993    6797.0207   -428.50856   -204.71509   -955.35122   -2834.0536 
23318000    256.89483   -3931.2065   -3490.8976   -3931.2065            0    5761.7467    17.095124    20.135797    20.856011    7179.1383    5829.3956    6550.1739    4905.6706   -856.04696   -2390.8011   -450.12326   -2887.6406 
23319000    238.29843   -3918.5167   -3510.0814   -3918.5167            0    6741.8454    17.035851    20.065982    20.783698    7104.7216    7938.6566    7041.1361    5245.7436   -684.08478   -244.23034    920.25569   -2811.5245 
23320000    232.51735   -3866.8867   -3468.3599   -3866.8867            0     7425.806    17.024119    20.052164    20.769386    7090.0544    8368.6063    6478.3491    7430.4626   -116.30171    736.16181    762.93436   -2700.5229 
23321000    251.60298   -3924.0669    -3492.828   -3924.0669            0    4389.3689    17.151362    20.202039    20.924621     7250.224    2992.1819    5009.4982    5166.4267   -342.46114   -435.50522   -153.39241    -3028.709 
23322000    277.65884   -3909.6027   -3433.7049   -3909.6027            0    9277.3154    17.019348    20.046544    20.763565    7084.0949    8394.5497    8217.3694    11220.027    236.53045     265.2303     86.75308    -2475.226 
23323000    243.36276   -3942.2356   -3525.1201   -3942.2356            0    7935.1375    16.977972    19.997809    20.713086    7032.5535    7851.5581    7842.0096    8111.8447     1430.025   -494.51377    620.12561    -2711.272 
23324000     255.2993   -3941.0512   -3503.4769   -3941.0512            0    7279.4612    16.995924    20.018953    20.734987    7054.8845     6714.073     7181.741    7942.5695    464.20835    95.912652   -127.53082   -2754.5059 
23325000     253.5212   -3935.9673   -3501.4407   -3935.9673            0    6176.2478    17.013599    20.039773    20.756552    7076.9186    5402.9397    6932.7707    6193.0328   -251.92136    36.679611   -2103.1292   -2863.9926 
23326000    238.65753   -3900.5209   -3491.4701   -3900.5209            0    8134.5443    16.960324    19.977022    20.691556    7010.6459    8203.4842    6819.9138     9380.235   -417.49926    842.84539    1275.4744   -2659.7692 
23327000    250.47117   -3939.5318   -3510.2327   -3939.5318            0    9524.4238    16.971045     19.98965    20.704636    7023.9494    10111.467    11692.822    6768.9819    1266.1848     1371.205    343.23737   -2534.5784 
23328000    260.28863   -3901.5492   -3455.4234   -3901.5492            0    7865.0071    17.053995    20.087353    20.805834    7127.4464    8331.9619    8763.6947    6499.3649    1842.5886    1636.1765     1226.463   -2637.8835 
23329000     249.6861    -3926.994   -3499.0405    -3926.994            0    6164.0284    17.090787     20.13069    20.850721    7173.6766    6401.5792    5633.7304    6456.7755   -52.891439    269.20882   -681.57921   -2854.1555 
23330000    262.07959   -3912.6296   -3463.4342   -3912.6296            0    5747.8066    17.117816    20.162527    20.883696     7207.766    5096.1567    6679.7023    5467.5609   -1575.9665    703.03446    -1596.763   -2859.2369 
23331000    254.09563   -3938.1212     -3502.61   -3938.1212            0    6885.2545    17.057197    20.091124     20.80974    7131.4616    7824.3888    4766.2167    8065.1581   -593.71033   -186.25064    684.42186   -2786.5087 
23332000    247.04103   -3933.0242   -3509.6043   -3933.0242            0    8675.9678    17.024049    20.052081      20.7693    7089.9658    7920.9813     8498.567     9608.355    196.47033    1218.0802   -1317.6744   -2612.5103 
23333000    236.05779   -3923.3669   -3518.7719   -3923.3669            0    6245.2642    17.136219    20.184202    20.906147    7231.0367    6921.1841    5421.4107    6393.1977    800.21184    173.93204    28.364831   -2860.1635 
23334000     262.4326   -3899.5817   -3449.7812   -3899.5817            0    7790.8692    17.052151    20.085182    20.803585    7125.1353    8335.8119    7757.1178    7279.6779    885.03253   -959.96864      929.202   -2640.2103 
23335000    251.40378   -3921.8429   -3490.9455   -3921.8429            0    8324.7733    17.059918     20.09433     20.81306     7134.876    7790.5234    7304.4418    9879.3547    676.59061    187.11962    147.52831   -2624.7124 
23336000    254.92335   -3916.8191   -3479.8892   -3916.8191            0    5984.9348    17.052555    20.085657    20.804077    7125.6412    6210.4106    4766.0032    6978.3905   -1214.7706    511.05055   -1650.8134   -2857.9337 
23337000    260.03779   -3936.9047   -3491.2088   -3936.9047            0    9124.7657    16.957452    19.973639    20.688052    7007.0854    7922.4472    9086.9096     10364.94    508.92112    1116.4861   -314.05787   -2558.7385 
23338000    260.15044   -3887.2013   -3441.3123   -3887.2013            0    7363.4833    17.035101    20.065099    20.782784    7103.7842    6639.4937    8438.7495    7012.2068   -77.941164    1320.8648   -217.66628   -2678.4451 
23339000    235.07026   -3920.0708   -3517.1684   -3920.0708            0    6517.5759    17.107517    20.150395    20.871131    7194.7636    6419.8519    7016.2367    6116.6391   -1131.0136   -217.04606   -763.16705   -2833.2906 
23340000     248.2178   -3911.4026   -3485.9657   -3911.4026            0    8138.4333     17.08464    20.123449    20.843221    7165.9389    9227.5952    9403.3293    5784.3754   -1188.9811    420.40753    15.213275   -2635.4354 
23341000    247.17867   -3932.1509   -3508.4951   -3932.1509            0    5917.1663    17.062858    20.097793    20.816647    7138.5651    6004.3399    6052.3407    5694.8184   -436.32813   -1334.7432    306.65637   -2892.4669 
23342000    250.30322   -3905.2384   -3476.2272   -3905.2384            0    7443.2146    17.072499    20.109149    20.828409    7150.6724    7278.7726    6607.0718    8443.7995   -871.05327   -216.56571   -2863.8165   -2700.0099 
23343000     243.5788   -3944.6476   -3527.1618   -3944.6476            0    5249.6348    17.089728    20.129443    20.849429    7172.3432    5427.4258    5065.0442    5256.4344    1027.8458    694.82924    1844.0826   -2978.0434 
23344000    249.83721   -3937.3493   -3509.1369   -3937.3493            0    6757.7316    17.037174    20.067541    20.785313    7106.3775    7132.3595    5356.7285    7784.1069   -1470.7281    1275.7056   -749.72434   -2808.7708 
23345000    245.46525   -3937.3012   -3516.5821   -3937.3012            0    6076.2877    17.053773    20.087092    20.805563    7127.1681    5432.0801    5621.6198    7175.1631    852.58626      1791.82    41.428629    -2884.998 
23346000    252.77092   -3903.8315   -3470.5908   -3903.8315            0    7402.9433    17.078681     20.11643    20.835951    7158.4429     7400.909    8641.2687    6166.6522    1002.3711    656.51613   -49.172882   -2697.7342 
23347000    255.62593   -3936.2783   -3498.1442   -3936.2783            0    6158.3118    17.085977    20.125025    20.844853    7167.6217    6168.9088    7409.7094    4896.3173   -1810.1448     173.9458    542.93126    -2854.401 
23348000    246.77729   -3960.4335   -3537.4656   -3960.4335            0    6246.8563    17.077478    20.115013    20.834483    7156.9304     7745.152     6132.658    4862.7588    79.009799    -278.3123    469.46009   -2885.4407 
23349000    245.92418   -3916.2524   -3494.7467   -3916.2524            0     5776.019     17.09983     20.14134    20.861752    7185.0688    5879.2305    5478.7224    5970.1041    164.77168    514.87148    737.89357   -2889.4958 
23350000    247.97641   -3937.7742   -3512.7511   -3937.7742            0    7714.3876    16.992178    20.014541    20.730417    7050.2211    6668.0862    6879.9619    9595.1148   -573.04587    1317.8847    144.17004   -2719.5559 
23351000    247.56605   -3947.1166   -3522.7969   -3947.1166            0    5977.2812    17.080134    20.118142    20.837724    7160.2706    3965.6395    6830.4653    7135.7388   -384.31931    536.24964   -921.95645   -2898.6181 
23352000    255.95098   -3915.4095   -3476.7183   -3915.4095            0    6353.7557    17.067106    20.102797     20.82183    7143.8983    5940.3623    7788.7505    5332.1543   -534.03007    208.90433     888.3582   -2814.7432 
23353000    257.84008   -3936.8384   -3494.9093   -3936.8384            0    6536.0666    17.072127    20.108711    20.827955    7150.2053    6961.0795    6759.6161    5887.5041    1339.6865    243.82054   -24.310225   -2813.3387 
23354000    249.02874   -3940.3071   -3513.4804   -3940.3071            0    4906.6189    17.081351    20.119575    20.839209    7161.8011    5831.8581    3820.6498    5067.3488    465.90407   -1006.9129   -82.468432   -3000.9962 
23355000     257.7237   -3912.6897   -3470.9601   -3912.6897            0    6631.0252     17.07487    20.111942    20.831302    7153.6525    5325.3409    7933.3333    6634.4014    711.86701    319.61123    919.75241    -2779.154 
23356000    245.63015   -3941.7694   -3520.7678   -3941.7694            0    3896.5383    17.117552    20.162215    20.883374    7207.4323    3146.1788    4551.6615    3991.7746   -480.94189     214.1787   -807.60285   -3111.1909 
23357000    240.69311   -3941.9885   -3529.4487   -3941.9885            0    6371.2069    17.077964    20.115585    20.835076     7157.541    6368.1192    8318.5342    4426.9673    914.63099     1292.181   -102.16833   -2864.3878 
23358000    257.23788   -3917.7443   -3476.8473   -3917.7443            0    8190.5194    17.066103    20.101615    20.820606    7142.6387     9057.437    8768.1915    6745.9296   -1761.9443    1047.3652    347.62293   -2623.6568 
23359000    251.50211   -3933.4867   -3502.4207   -3933.4867            0    5880.3481    17.111845    20.155493     20.87641    7200.2251    4324.4831     6823.822    6492.7393    1069.2901    36.493514    971.28743   -2884.9377 
23360000    239.24443   -3886.3616   -3476.3048   -3886.3616            0     6187.787    17.074959    20.112046     20.83141    7153.7635    6662.5253    5920.4296    5980.4063    1059.5295    1519.3184   -375.86691   -2830.7311 
23361000    251.16008   -3896.8028    -3466.323   -3896.8028            0    5806.7026    17.111916    20.155576    20.876497    7200.3148    4411.8179    6759.0283    6249.2615     1339.937    -1005.321   -986.20296   -2856.5658 
23362000    257.03254   -3929.6573   -3489.1123   -3929.6573            0    5402.1349    17.114249    20.158325    20.879344     7203.261    5403.3562    5719.5133    5083.5352    628.78599    -90.04999    1731.8166   -2921.6063 
23363000    243.68201   -3886.7863   -3469.1237   -3886.7863            0    7601.7124    17.075297    20.112445    20.831823    7154.1893    8274.7988    6925.2028    7605.1357   -786.64379    330.08487    456.84486   -2675.9875 
23364000    264.53968   -3889.6211   -3436.2092   -3889.6211            0    8078.6015    17.122199    20.167688    20.889042    7213.3031    6997.7662    7472.7509    9765.2874   -5.1278146   -198.66191    -232.0604   -2586.3514 
23365000    265.45611    -3924.833   -3469.8503    -3924.833            0     6787.763    17.098097      20.1393    20.859638    7182.8851    6748.4716    5919.8547    7694.9628   -393.31009     -1115.21    -387.9386   -2758.7981 
23366000    240.52681    -3910.528   -3498.2732    -3910.528            0     7747.459    17.037581     20.06802     20.78581    7106.8873    8564.5527    8274.1732    6403.6512   -2376.0914     634.6484    305.71622    -2695.275 
23367000    235.47705   -3934.1981   -3530.5985   -3934.1981            0    6481.1682    17.071341    20.107785    20.826996    7149.2174    7239.4287    5736.1168    6467.9592    1339.5474   -227.40484    1069.9243    -2854.846 
23368000    236.51036    -3892.541   -3487.1704    -3892.541            0    5534.6779     17.07796    20.115581    20.835071    7157.5365    6061.9693    5693.9007    4848.1636    1015.7972    159.68451    1167.5688   -2909.4312 
23369000    247.94107   -3906.7814   -3481.8189   -3906.7814            0    6066.5913    17.078387    20.116084    20.835592    7158.0729    5568.2931    5386.7586    7244.7222   -50.405574    98.847968    895.02408   -2848.5083 
23370000    242.95827   -3923.8527   -3507.4305   -3923.8527            0     6465.834    17.118123    20.162888     20.88407    7208.1533    5628.5405    8083.1239    5685.8374   -137.61331    -1327.626    321.62684   -2827.7193 
23371000    253.37488   -3931.7129    -3497.437   -3931.7129            0    7094.9398    17.014949    20.041362    20.758198    7078.6025    6077.0071    7995.3142    7212.4979      149.472   -1040.9371    160.12055   -2764.9969 
23372000    247.29516   -3896.6477   -3472.7923   -3896.6477            0    6150.0504     17.08865    20.128173    20.848114    7170.9861    4962.8101    6927.7625    6559.5786   -1604.6569     338.6354    249.89778    -2829.611 
23373000    242.64617   -3940.0683   -3524.1811   -3940.0683            0     4226.083    17.116381    20.160836    20.881944    7205.9526    2737.2999    4471.7769    5469.1721    856.45784    815.39919    12.649767    -3080.056 
23374000    255.83357   -3902.8243   -3464.3343   -3902.8243            0    8120.3303    17.027538    20.056191    20.773557    7094.3265    8656.9323    9039.7194    6664.3392    896.53309   -37.806474    -91.51078   -2624.1767 
23375000    249.98186   -3860.5622   -3432.1018   -3860.5622            0    8845.7273    17.063968    20.099101    20.818002    7139.9588    9810.7048    8003.9354    8722.5418   -1483.9135    -744.5478    1090.5276   -2511.0053 
23376000    251.35212   -3900.5564   -3469.7474   -3900.5564            0    7748.9421    17.112865    20.156695    20.877655    7201.5132    8379.0008    5802.6062    9065.2193    305.54588   -20.328581     -490.589   -2655.9017 
23377000    251.88919   -3902.3189   -3470.5894   -3902.3189            0    7050.8591    17.112898    20.156733    20.877695    7201.5544    6678.9078    6826.6885     7646.981    824.92367   -2374.4653   -149.14267   -2730.0569 
23378000    258.83243   -3914.9083   -3471.2784   -3914.9083            0    6067.9793    17.079956    20.117933    20.837507    7160.0469    5345.6647    6638.2956    6219.9776    87.660891    452.06207   -839.66513   -2837.6482 
23379000    266.02871   -3925.0374   -3469.0733   -3925.0374            0    7311.1558    17.129023    20.175726    20.897368    7221.9312    7939.6972    5990.3861    8003.3841   -1022.3996   -578.06997   -552.83422   -2699.0298 
23380000    253.76388   -3965.8005   -3530.8578   -3965.8005            0    7043.5847    17.068611     20.10457    20.823666    7145.7884    5678.2582    6784.6595    8667.8363    45.286733    -1282.043   -717.11711   -2796.8177 
23381000    251.83244   -3945.7081   -3514.0759   -3945.7081            0    5638.0308    17.109276    20.152467    20.873276    7196.9828    4964.4224    7832.9986    4116.6715    427.41589     748.9348    760.69228   -2922.3047 
23382000    254.45799     -3900.77   -3464.6377     -3900.77            0    4317.6359    17.101284    20.143053    20.863526    7186.9021    4672.7696    3998.5503    4281.5877   -391.74778   -253.33863   -1324.3771   -3012.0907 
23383000    249.67656    -3935.219   -3507.2819    -3935.219            0    5289.5379    17.081719    20.120008    20.839657    7162.2633     5322.514    5882.6307     4663.469    421.20005    142.77312    1566.0587   -2954.7672 
23384000    240.00282   -3955.4661   -3544.1094   -3955.4661            0    5896.1745    17.125142    20.171155    20.892633    7217.0237    5279.8584    6558.1717    5850.4935   -1924.0395   -709.02221    1176.1219     -2923.52 
23385000    244.69212   -3967.8768   -3548.4828   -3967.8768            0    5816.4251    17.116623    20.161121    20.882241    7206.2591    5960.1843    5285.1184    6203.9728    353.11027    1552.6888   -1018.6169   -2937.2004 
23386000    249.21445   -3899.1365   -3471.9914   -3899.1365            0    8397.7948    17.025421    20.053698    20.770974    7091.6811    9122.6762    6732.6852     9338.023   -425.48797   -696.35926   -1035.3775   -2603.4504 
23387000    256.16648   -3945.1764   -3506.1158   -3945.1764            0    7885.2739    17.089299    20.128936    20.848904    7171.8021    8903.5414    5863.0496    8889.2307    310.60496    5.6453781   -629.38089   -2681.3684 
23388000    244.55708   -3893.4105    -3474.248   -3893.4105            0    10181.987    17.003962    20.028421    20.744794    7064.8991    8631.7066    11453.857    10460.397   -301.27649   -1722.1108   -1809.2108   -2425.1541 
23389000    236.31924   -3926.4111    -3521.368   -3926.4111            0    6172.2451    17.026627    20.055117    20.772445    7093.1874    5259.3894    7582.4785    5674.8673   -420.84507    731.94052   -711.28406   -2882.8686 
23390000    242.29949    -3891.534   -3476.2409    -3891.534            0    8408.2186    17.007826    20.032972    20.749508    7069.7166    7221.9697    9192.4367    8810.2496    294.63963    576.54541   -1720.0874   -2609.3152 
23391000    242.20069   -3945.8731   -3530.7494   -3945.8731            0    3983.7388    17.224888    20.288643    21.014323    7343.8668    4981.4729    1951.3631    5018.3805     576.1055   -727.57634   -534.48017     -3104.08 
23392000    242.79658   -3950.4202   -3534.2752   -3950.4202            0    7039.8754    17.129331    20.176089    20.897744    7222.3212    7548.0462    7535.4571     6036.123    1341.5508    288.97417    -870.5108   -2792.7641 
23393000    247.88824    -3925.164    -3500.292    -3925.164            0    8098.8887     17.08915    20.128761    20.848723    7171.6151    10376.326    7456.0036    6464.3366    359.16143    114.08336    355.15686    -2653.224 
23394000      242.259     -3939.89   -3524.6664     -3939.89            0    4940.6567    17.172347    20.226756    20.950223    7276.8686    5611.7077    6392.9519    2817.3105     -740.001    472.62653    1164.5634   -3000.3359 
23395000    268.02167   -3932.2348   -3472.8548   -3932.2348            0    6000.4538    17.114897    20.159088    20.880134    7204.0786    8069.9192     5094.162    4837.2801   -76.558511    594.62317    1491.0088   -2842.4226 
23396000    240.21172   -3934.0228   -3522.3081   -3934.0228            0    6223.8753    17.097298    20.138359    20.858664    7181.8785    5722.3379    6756.4439     6192.844    2188.5381    838.41847    319.02591   -2870.4174 
23397000    243.23148   -3941.2614    -3524.371   -3941.2614            0    8394.5416    17.041412    20.072532    20.790483    7111.6815    9448.4205    7893.7414    7841.4629    69.709326   -368.42827   -377.20561   -2653.7178 
23398000    237.59866   -3948.6331   -3541.3971   -3948.6331            0    5819.0438    17.112785      20.1566    20.877558    7201.4122    6326.0233    6660.1932    4470.9149    800.47875    -1107.301     -853.249   -2930.2508 
23399000    250.24786   -3895.7532   -3466.8369   -3895.7532            0    5774.3616    17.122495    20.168037    20.889403    7213.6771    7648.8508    5898.9152    3775.3189   -247.12427   -825.98048    1175.9751   -2859.3505 
23400000    241.16779   -3903.6685   -3490.3151   -3903.6685            0    5912.8245    17.095497    20.136238    20.856467    7179.6091    6749.2204    6628.4319     4360.821   -253.70617    1367.6917    218.65341   -2871.1996 
23401000    267.32129   -3929.8598   -3471.6802   -3929.8598            0    6418.9853    17.043312     20.07477    20.792801     7114.061    8957.7031    4610.4738     5688.779    188.27178   -138.77924    -773.2982   -2805.7023 
23402000    230.79019   -3919.3357   -3523.7692   -3919.3357            0     5301.704    17.058637    20.092821    20.811497    7133.2685    7756.1317    4080.1252     4068.855    1240.0217     376.8632   -1280.1661   -2972.2255 
23403000     246.8367   -3928.6579   -3505.5883   -3928.6579            0    7744.5485    17.020188    20.047534     20.76459     7085.144    7234.8229    9380.3758    6618.4467   -790.78394   -73.624416   -453.86364   -2705.3475 
23404000     243.0348   -3946.4918   -3529.9385   -3946.4918            0     5049.692    17.090197    20.129994        20.85    7172.9328     6199.505    3525.7805    5423.7903    407.47273    329.36318    1191.2116   -3001.6909 
23405000    246.63493    -3944.665   -3521.9412    -3944.665            0    6368.4665    17.056387    20.090171    20.808752    7130.4464    8102.0821    5694.4059    5308.9114    45.236453   -180.55346    90.362122   -2859.6828 
23406000    234.28809   -3974.9297   -3573.3679   -3974.9297            0     5109.405    17.130841    20.177868    20.899586    7224.2313    4995.9351    5056.6555    5275.6242    797.18764    472.49556   -414.06828   -3035.0512 
23407000    254.86854   -3976.6834   -3539.8475   -3976.6834            0    6893.1463    17.102293    20.144242    20.864758    7188.1748    8270.0623    5682.4729    6726.9036   -2891.6008    940.52723   -317.51395   -2817.2241 
23408000    248.24277   -3955.5877   -3530.1081   -3955.5877            0    6332.4057      17.1209    20.166158    20.887458    7211.6616    7754.3702    3223.2528    8019.5942    454.50894    463.31861    1017.9462   -2864.0993 
23409000    243.86834   -3939.3127   -3521.3307   -3939.3127            0    5295.2055    17.121232     20.16655    20.887863    7212.0818    4907.8697    5450.7841    5526.9627    1238.3515   -397.52672    817.61236   -2964.3767 
23410000    265.18057   -3925.0768   -3470.5664   -3925.0768            0    7577.3977    17.050016    20.082667     20.80098    7122.4596    7795.2398    8473.2744    6463.6789    1242.4915    774.22017    200.28833   -2683.4736 
23411000    243.73965   -3955.7519   -3537.9905   -3955.7519            0    6027.6661    17.111663    20.155279    20.876189    7199.9964    5138.8315    5728.3037    7215.8631   -82.708599    221.20194    186.53716   -2905.0581 
23412000    256.52307   -3961.0391   -3521.3673   -3961.0391            0    7367.4436    17.038005     20.06852    20.786327    7107.4178    6272.6522    5564.8103    10264.868   -945.08331    -813.4504    637.45304   -2757.6994 
23413000    263.18087   -3948.5962   -3497.5132   -3948.5962            0    7902.4574    17.060987    20.095589    20.814364    7136.2168    8408.4931    8149.5987    7149.2803    1080.2715   -70.232233   -835.93156   -2675.0697 
23414000    256.62221   -3965.0963   -3525.2546   -3965.0963            0      5423.66    17.045098    20.076874     20.79498    7116.2978      4744.54    4725.4258    6801.0141    269.37753   -730.64343    1562.6312    -2962.366 
23415000    248.03237   -3930.1958   -3505.0768   -3930.1958            0    7557.6381    17.049502    20.082061    20.800353    7121.8149    8281.7628    8261.1919    6129.9596   -1453.6375    1647.0284    104.41391   -2720.1075 
23416000    257.90815   -3926.1271   -3484.0813   -3926.1271            0    7677.3288    16.983689    20.004542    20.720061    7039.6597    8290.9991     6565.985    8175.0021    841.74185    837.99938   -489.60386    -2695.879 
23417000    237.81254   -3958.5025   -3550.8999   -3958.5025            0    6082.4566    17.099902    20.141426    20.861841    7185.1605    5550.1104    6333.5058    6363.7535    1166.2126   -478.71555    825.88851   -2913.5303 
23418000    256.41273   -3921.2764   -3481.7937   -3921.2764            0    5857.6153    17.101518    20.143329    20.863812     7187.197    5858.0286     4923.554    6791.2633    285.56187    462.79278   -177.36426   -2867.8108 
23419000    255.57394    -3922.733    -3484.688    -3922.733            0    7086.0945    17.092649    20.132883    20.852992    7176.0214    6489.6223    7710.2861    7058.3752    316.96398   -319.69247   -661.04718   -2743.0934 
23420000     245.5837   -3897.9529   -3477.0309   -3897.9529            0    7251.1369    17.092005    20.132124    20.852206    7175.2097    5470.9807    7449.8161    8832.6139   -289.57307   -1447.8497   -290.78536   -2718.2496 
23421000    258.51078   -3957.0689   -3513.9903   -3957.0689            0    7629.9601    17.083351     20.12193    20.841648    7164.3162     6799.299    7127.4913    8963.0901    331.10166   -490.31567    755.50539     -2716.78 
23422000    256.33669   -3957.6134    -3518.261   -3957.6134            0    5446.7418    17.101991    20.143887    20.864389    7187.7941    4251.1758    5964.8253    6124.2242    708.04213    508.56455    305.39247   -2947.2976 
23423000    252.71282    -3965.745   -3532.6039    -3965.745            0    6344.5314    17.110346    20.153728    20.874582    7198.3336    5788.8824    6516.4891    6728.2227    1298.9863    -353.3829     1395.224    -2866.553 
23424000    251.95913   -3953.6892   -3521.8399   -3953.6892            0     7782.077    17.047453    20.079648    20.797853    7119.2472    6666.1605    8948.4194     7731.651   -17.940158   -95.227629    1232.7204   -2713.8508 
23425000    246.19394   -3928.1153   -3506.1473   -3928.1153            0    7081.7951    17.091611     20.13166    20.851725    7174.7136    6362.8692     7037.655    7844.8611    1326.3582   -313.45352   -144.95423   -2765.1378 
23426000      249.554   -3934.3344   -3506.6074   -3934.3344            0    7257.6915    17.057705    20.091723     20.81036     7132.099    7213.4253    7271.7776    7287.8717    212.32224   -299.66692     905.8667   -2751.7033 
23427000    246.58716   -3905.5979   -3482.9559   -3905.5979            0    6642.3446     17.07122    20.107642    20.826848    7149.0652    5867.3559    7268.9803    6790.6978   -1027.7558     104.6858   -260.21476   -2790.4132 
23428000    244.24347   -3908.2295   -3489.6046   -3908.2295            0    6421.5112    17.181854    20.237954    20.961821    7288.9613    6103.4442    6110.7791    7050.3102    895.02629   -43.141283   -331.81679   -2806.9849 
23429000    242.78852   -3906.8381   -3490.7069   -3906.8381            0     6039.978    17.171142    20.225337    20.948753    7275.3366    6011.9023    6029.4754    6078.5564   -427.43734     236.7312   -720.62465   -2849.8451 
23430000    247.76879   -3940.4405   -3515.7732   -3940.4405            0    4876.3937    17.187169    20.244215    20.968306     7295.728    4961.4675    4455.1117    5212.6021    700.14188    841.61828    1121.4696   -2996.9215 
23431000    265.98688   -3930.0833   -3474.1909   -3930.0833            0    6902.9343    17.068589    20.104543    20.823638    7145.7599    7084.1665    7415.7461    6208.8903    786.21376    468.21753   -2206.8699   -2754.8114 
23432000    261.32364   -3910.6263   -3462.7266   -3910.6263            0    7308.6556    17.148381    20.198528    20.920985    7246.4444    7584.2556    8534.2439    5807.4672    1195.8456    1110.8681   -210.61069   -2690.3335 
23433000    251.82149   -3944.4783   -3512.8649   -3944.4783            0    6375.3702     17.08705    20.126288    20.846161    7168.9716    4568.7753    6919.0651    7638.2703   -51.518269    943.96623   -861.63921   -2846.3065 
23434000    237.49612   -3917.8954   -3510.8351   -3917.8954            0    7796.3448    17.105392    20.147892    20.868538    7192.0826    7346.4965    8954.6261    7087.9118    497.11561    958.32971   -1795.8214   -2693.0832 
23435000     257.1535   -3920.8942   -3480.1419   -3920.8942            0    6845.7618    17.135901    20.183828    20.905759    7230.6348    7474.1803     6589.931    6473.1741   -1400.0711   -1280.0626   -515.92507   -2758.2468 
23436000    264.34483   -3928.6774   -3475.5994   -3928.6774            0    5704.5214    17.144075    20.193456    20.915732    7240.9872    5457.1482    4569.8836    7086.5324   -753.04544    2034.9362   -747.19138   -2873.1884 
23437000    238.12528   -3920.3604   -3512.2218   -3920.3604            0     6943.811    17.179622    20.235326    20.959099    7286.1219    8375.7088    5870.7674    6584.9569   -200.95515    284.15998   -1179.4679   -2774.3682 
23438000    256.59917   -3912.9688   -3473.1666   -3912.9688            0    5828.1652    17.109325    20.152525    20.873336    7197.0446    4960.1912     7222.466    5301.8383   -86.119889    243.15022   -538.31849   -2861.4336 
23439000    244.78591   -3943.1871   -3523.6324   -3943.1871            0    4457.6439    17.056961    20.090848    20.809453    7131.1668    3817.1739    5876.2388    3679.5189   -616.24784    1033.0628   -297.80652   -3060.0341 
23440000    244.23186   -3872.5886   -3453.9835   -3872.5886            0    7015.7786    17.105846    20.148427    20.869092    7192.6556     6229.235    8475.8322    6342.2685   -595.99858      746.724   -1204.0459   -2718.0459 
23441000     250.8496   -3915.0113   -3485.0636   -3915.0113            0    7454.1946    17.068735    20.104715    20.823816    7145.9433    7110.0047    6773.1506    8479.4285   -667.96465    370.76927    -211.1964   -2708.2154 
23442000    244.45958   -3894.5428   -3475.5475   -3894.5428            0    7842.5717    17.077134    20.114608    20.834064    7156.4978    8446.5013    6392.7861    8688.4279    43.923469   -674.75246   -556.36152   -2657.0169 
23443000    240.32491   -3896.4656   -3484.5569   -3896.4656            0    7246.8405    17.110056    20.153386    20.874228    7197.9674    5466.5693    7760.0585    8513.8936   -1676.5456    -642.0346    619.82014     -2723.82 
23444000    258.86501   -3899.1931   -3455.5074   -3899.1931            0    7090.8993     17.04766    20.079892    20.798106    7119.5073    8054.1614    6571.9646     6646.572   -430.53451    1624.9679    1310.4585   -2719.2542 
23445000    246.65735   -3908.0627   -3485.3005   -3908.0627            0    7154.1133    17.100738     20.14241     20.86286    7186.2139    6413.3128    8138.8351    6910.1921    232.04157   -217.05071    540.54164   -2735.5239 
23446000    258.35628   -3930.6112   -3487.7974   -3930.6112            0    5872.3685    17.150794     20.20137    20.923928    7249.5034    5035.8273    7175.8298    5405.4482   -561.45439   -254.59587   -74.186958    -2866.932 
23447000    248.24918   -3912.8255   -3487.3349   -3912.8255            0    6941.2631    17.095259    20.135957    20.856176    7179.3091    6242.7397    7995.7456    6585.3039    1475.3713    151.75578   -636.97099   -2760.5648 
23448000    244.76667   -3902.0463   -3482.5246   -3902.0463            0    5584.8223    17.208959    20.269881     20.99489    7323.5118    5017.4341    7135.4689    4601.5639   -456.70595   -860.05428    87.156176   -2886.0325 
23449000    254.76938   -3904.6926   -3468.0266   -3904.6926            0    6372.0392    17.160189    20.212436     20.93539    7261.4235     6137.536    6732.0647    6246.5168   -526.09609    -352.6689   -549.60998    -2793.225 
23450000    244.80457   -3898.8953   -3479.3087   -3898.8953            0    6735.6205    17.101699    20.143542    20.864032    7187.4253     7797.867    5792.8302    6616.1644   -95.485448     1204.337   -761.35743   -2773.2727 
23451000    246.68125   -3912.3929   -3489.5896   -3912.3929            0    7364.3382    17.103867    20.146096    20.866678    7190.1596     5389.832    7484.9737     9218.209   -771.41902   -480.74601    197.75737    -2717.357 
23452000    248.02184   -3912.7645   -3487.6635   -3912.7645            0    6775.7378    17.112577    20.156355    20.877304    7201.1493    6990.3686    6676.5384    6660.3063    559.81674   -422.80067    148.46194   -2776.0662 
23453000     243.0572   -3940.3501   -3523.7583   -3940.3501            0     4607.896    17.162439    20.215086    20.938135    7264.2803    4156.9953     3652.004    6014.6888   -2123.8452   -195.87643   -146.23641   -3035.5883 
23454000    242.48204   -3922.2792   -3506.6732   -3922.2792            0    6926.7973    17.103958    20.146203    20.866789    7190.2741     7051.574    9325.7541    4403.0637    1040.2754    919.52749    943.38735   -2780.3101 
23455000    239.16194   -3918.8054     -3508.89   -3918.8054            0    6776.8133    17.074287    20.111255    20.830591    7152.9197    6857.2831    7871.7181    5601.4385    -543.7739    449.88365    271.65173   -2801.9464 
23456000    249.56845   -3940.1057   -3512.3539   -3940.1057            0    4981.6682    17.044605    20.076293    20.794378      7115.68    4709.1911    5753.0502    4482.7634    381.51931    32.758893    116.58837   -2995.3818 
23457000     246.5491   -3929.4469   -3506.8702   -3929.4469            0    5363.3095     17.05799    20.092059    20.810708    7132.4571    4885.7434      5381.99    5822.1953   -1051.3872   -519.00093   -1041.4415   -2948.9811 
23458000    249.94132    -3892.243   -3463.8521    -3892.243            0    7461.6232      16.9907      20.0128    20.728614    7048.3812    8136.0721    6753.6581    7495.1393    1244.3227   -393.98182   -1127.6548   -2696.8464 
23459000    250.76833   -3925.1299   -3495.3215   -3925.1299            0    5836.9167     17.05398    20.087336    20.805816     7127.428    6703.3025    5710.3179    5097.1298   -286.46864    1030.3243    1577.5781   -2888.5961 
23460000       257.47   -3908.5529   -3467.2582   -3908.5529            0    7051.0972     17.09415    20.134651    20.854823    7177.9116    5823.9349    7148.9582    8180.3986    2209.0156   -228.53907   -1684.4664   -2729.1318 
23461000    253.53374    -3917.467   -3482.9189    -3917.467            0    6177.7742    17.026985    20.055539    20.772881    7093.6346    5018.5832    6594.3549    6920.3845    2051.6436   -876.63043   -655.28875   -2843.8072 
23462000    249.65057   -3905.2922   -3477.3996   -3905.2922            0    5940.3675    17.119195     20.16415    20.885378    7209.5075    6309.2318    6773.4173    4738.4534   -772.41379    1138.6258   -1649.4961     -2852.81 
23463000    253.76466   -3883.9652   -3449.0213   -3883.9652            0     7900.717    17.058821    20.093038    20.811722    7133.4999    9052.5639    7871.2298    6778.3572   -285.45775    802.58709   -74.205297    -2627.072 
23464000     247.0458    -3926.701    -3503.273    -3926.701            0    6742.5713    17.059968    20.094388    20.813121    7134.9378    7540.3464    7076.8152    5610.5523   -25.328571    431.32964   -711.86585   -2801.6697 
23465000    242.70901   -3944.7984   -3528.8034   -3944.7984            0    6557.6105     17.09759    20.138703     20.85902    7182.2468    6668.9494    6275.0762     6728.806    236.31549    68.596963    344.36451   -2841.9219 
23466000    245.60924   -3907.9125   -3486.9466   -3907.9125            0    4777.6298    17.187962    20.245149    20.969274    7296.7383     3572.533    4156.8134     6603.543   -497.09041    68.916313   -1298.0577    -2978.533 
23467000     246.5323   -3934.9791   -3512.4311   -3934.9791            0     5537.148    17.138523    20.186916    20.908957    7233.9537    6764.2282    5872.6384    3974.5775    624.50294   -252.15453   -1036.8607   -2928.2631 
23468000    245.25598   -3879.8783    -3459.518   -3879.8783            0    7237.8985    17.119899     20.16498    20.886237    7210.3971    7714.5286    6848.2236    7150.9433   -1761.4381     1150.377    1751.9188   -2698.4077 
23469000    254.61817   -3888.8034   -3452.3966   -3888.8034            0     5291.055    17.171856    20.226179    20.949625    7276.2453    6112.3767    4149.7736    5611.0147    107.09728    1202.6088      81.6476   -2890.9279 
23470000    241.25937   -3905.9191   -3492.4088   -3905.9191            0     9247.976    17.040804    20.071816    20.789741    7110.9202     9676.658    8688.1008    9379.1692   -498.89051    100.02947   -860.50667   -2533.3431 
23471000    255.87889   -3914.3142   -3475.7465   -3914.3142            0    7021.1227    17.167464    20.221005    20.944266    7270.6637    7740.9751    6712.2928    6610.1003   -194.18878    153.28808    518.62646   -2731.2606 
23472000    251.35141   -3933.9942   -3503.1865   -3933.9942            0    7501.6945    17.104354     20.14667    20.867272    7190.7741     7297.689    7933.9444    7273.4502    1315.0713   -831.59873    78.426356   -2716.4833 
23473000    235.29625   -3903.9313   -3500.6416   -3903.9313            0    3989.4758    17.190673    20.248343    20.972581    7300.1917    2689.0462    2362.1884    6917.1928    251.74287   -1476.6236    6.3415881   -3075.8989 
23474000     261.0391   -3936.8986   -3489.4865   -3936.8986            0    7583.8217    17.093288    20.133635    20.853771    7176.8261     7597.788    8288.9103    6864.7668   -1099.2487   -608.29133    301.37954   -2695.7133 
23475000    241.20355   -3904.5153   -3491.1006   -3904.5153            0    6622.2938    17.066127    20.101644    20.820636    7142.6693    7662.1894     6364.976    5839.7161    -24.44526   -657.15988   -314.88922   -2801.2662 
23476000    248.57421   -3892.5226   -3466.4749   -3892.5226            0    5347.6694    17.129201    20.175937    20.897586    7222.1571    5954.4159     5936.474    4152.1183   -11.415445   -1439.2538     200.9364   -2903.2169 
23477000    251.67882   -3842.8801   -3411.5112   -3842.8801            0    6636.4672    17.142627     20.19175    20.913964    7239.1518    5735.2545    6361.0786    7813.0684    674.82933   -67.321437   -54.077967   -2710.8622 
23478000    248.71658   -3882.0329   -3455.7412   -3882.0329            0    7732.3262    17.057446    20.091418    20.810044    7131.7747    8538.6059    8394.4792    6263.8936    1900.1737   -522.48438    1346.0045   -2651.5049 
23479000    248.54583   -3895.6326   -3469.6336   -3895.6326            0    5593.1792    17.148279    20.198408    20.920861    7246.3153    6111.1328    5924.4146    4743.9902    72.602452    -89.98942   -1084.7451    -2878.546 
23480000     248.8812   -3870.3354   -3443.7615   -3870.3354            0    4861.6899    17.094898    20.135531    20.855735    7178.8536    5161.2055    4996.5507    4427.3134   -181.87938    1343.7834   -1331.4798    -2934.761 
23481000     240.7426   -3865.4518   -3452.8272   -3865.4518            0    9514.8907    16.989192    20.011024    20.726774    7046.5047    8284.8702    10236.805    10022.997    716.23401   -869.39524    1023.8886   -2475.0195 
23482000    245.34782   -3884.3052   -3463.7874   -3884.3052            0    8131.0299    17.022993    20.050837    20.768011    7088.6466    7435.1124     7828.982    9128.9952   -1314.5566    88.101275   -969.96761   -2623.1963 
23483000    241.21621   -3923.8563     -3510.42   -3923.8563            0    5476.3774     17.05239    20.085463    20.803876    7125.4345    2976.5322    7986.4515    5466.1485   -1171.5735   -302.92319    297.60778   -2941.3304 
23484000    257.93402   -3904.7939   -3462.7039   -3904.7939            0    7039.6287    17.037787    20.068263    20.786061    7107.1451    5387.9368    9012.5609    6718.3883   -584.49537    -344.5932   -1573.7467   -2733.0434 
23485000    241.37828   -3928.8444   -3515.1303   -3928.8444            0    6345.0382    17.056899    20.090775    20.809378     7131.089    7417.7846    6885.3729     4731.957   -211.84288   -1031.8767    404.65114   -2855.2488 
23486000    254.06172   -3946.3457   -3510.8926   -3946.3457            0    7598.1796    17.023249    20.051139    20.768324    7088.9666    7159.0008    7033.5947    8601.9433   -1454.2802    122.99168   -956.77958   -2725.3525 
23487000    257.45944    -3955.419   -3514.1423    -3955.419            0    7164.5587    17.073274    20.110061    20.829354    7151.6456    7919.1827    5906.7515    7667.7418   -328.41486    556.76018   -414.70928    -2766.883 
23488000    251.58643   -3934.8057   -3503.5952   -3934.8057            0    7345.8743    17.126541    20.172803     20.89434    7218.7922    6791.4459     6958.221    8287.9559   -902.28129   -154.07152     723.1755   -2730.2312 
23489000    254.89256   -3943.9037   -3507.0266   -3943.9037            0    5664.6084    17.135195    20.182996    20.904898    7229.7409    6691.3012    5638.3694    4664.1545   -852.01033    1275.8065   -326.39908   -2909.7596 
23490000    239.68472   -3906.1396   -3495.3282   -3906.1396            0     6710.237    17.078687    20.116438    20.835959    7158.4511    5603.3307    7512.5166    7014.8637    129.75474    619.39306   -355.91957   -2794.7884 
23491000    238.99311   -3917.8635   -3508.2375   -3917.8635            0    6430.6658    17.090781    20.130682    20.850713    7173.6687    7810.7202    5385.7006    6095.5768    -584.3922   -806.86047   -190.21665   -2835.4573 
23492000      240.401   -3904.9189   -3492.8798   -3904.9189            0    6802.1633    17.079548    20.117451    20.837008    7159.5327    6344.8802    7248.6299    6812.9799   -303.03395   -872.98272    68.338673   -2782.6357 
23493000    253.55762   -3906.7921   -3472.2031   -3906.7921            0    5687.6114    17.094833    20.135455    20.855656    7178.7724    5177.1218    5910.3566    5975.3557    1686.2494   -239.89232   -351.99034   -2876.7384 
23494000     252.9241   -3910.9005   -3477.3973   -3910.9005            0    7643.5254    17.055806    20.089487    20.808044    7129.7179    5497.9156    7085.1977    10347.463    751.38565    534.72574    353.11833   -2682.6264 
23495000    259.47992   -3894.1756   -3449.4359   -3894.1756            0    7488.3996     17.11295    20.156795    20.877759    7201.6207    6656.3992    6045.5203    9763.2794   -1414.0953    257.44166   -518.58321   -2662.9424 
23496000    254.71973   -3914.8389    -3478.258   -3914.8389            0    7135.1653    17.066587    20.102186    20.821197    7143.2467    5045.3741    6867.9916    9492.1301   -375.28265   -904.73354    1486.4106   -2734.9384 
23497000     243.0245   -3910.1435   -3493.6079   -3910.1435            0    6133.0182    17.124738    20.170679     20.89214    7216.5125    3545.4018    6813.6946    8039.9583   -1302.4043   -81.205947   -516.83061   -2848.1357 
23498000    251.63799   -3898.2205   -3466.9216   -3898.2205            0    6999.6541    17.117238    20.161845     20.88299    7207.0355    6835.6287    8239.3303    5924.0033    32.773834   -501.29079    1246.2213   -2731.2074 
23499000    228.82681   -3905.3954    -3513.194   -3905.3954            0    6633.9733    17.065442    20.100837    20.819799    7141.8087    4889.0875    7006.2399    8006.5925    653.29661    945.07307    361.74352   -2822.2262 
23500000    248.91616   -3884.9268    -3458.293   -3884.9268            0     6236.899     17.11665    20.161153    20.882273     7206.293    6373.3578    5808.1564    6529.1829     648.8037   -385.36338    875.69081   -2802.8174 
Loop time of 494.803 on 64 procs for 250000 steps with 864 atoms

Performance: 87.308 ns/day, 0.275 hours/ns, 505.252 timesteps/s
99.0% CPU use with 64 MPI tasks x 1 OpenMP threads

MPI task timing breakdown:
Section |  min time  |  avg time  |  max time  |%varavg| %total
---------------------------------------------------------------
Pair    | 21.151     | 26.448     | 30.994     |  49.9 |  5.35
Bond    | 0.27382    | 0.28256    | 0.2939     |   0.8 |  0.06
Kspace  | 211.7      | 222.06     | 238.16     |  42.6 | 44.88
Neigh   | 5.1706     | 6.1038     | 7.8838     |  30.5 |  1.23
Comm    | 95.641     | 113.12     | 123.34     |  66.9 | 22.86
Output  | 1.8534     | 1.8564     | 1.8687     |   0.3 |  0.38
Modify  | 115.87     | 119.71     | 122.07     |  15.4 | 24.19
Other   |            | 5.221      |            |       |  1.06

Nlocal:        13.5000 ave          19 max           8 min
Histogram: 3 2 11 5 11 12 5 9 2 4
Nghost:        2211.86 ave        2248 max        2176 min
Histogram: 3 6 9 7 4 10 11 6 4 4
Neighs:        4284.27 ave        6822 max        2367 min
Histogram: 2 5 8 16 13 9 5 3 2 1

Total # of neighbors = 274193
Ave neighs/atom = 317.35301
Ave special neighs/atom = 2.0000000
Neighbor list builds = 12732
Dangerous builds = 0

unfix		3
unfix		2
unfix		1

write_data	data.final.${pid}
write_data	data.final.0
System init for write_data ...
PPPM initialization ...
  extracting TIP4P info from pair style
  using 12-bit tables for long-range coulomb (../kspace.cpp:340)
  G vector (1/distance) = 0.37357502
  grid = 24 24 24
  stencil order = 5
  estimated absolute RMS force accuracy = 0.0032402305
  estimated relative force accuracy = 9.7578579e-06
  using double precision FFTW3
  3d grid and FFT values/proc = 2535 216
Last active /omp style is kspace_style pppm/tip4p/omp
WARNING: Not all mixed pair coeffs generated from mixing. Use write_data with 'pair ij' option to store all pair coeffs. (../write_data.cpp:312)

write_restart   restart.lmp.${pid}
write_restart   restart.lmp.0
System init for write_restart ...
PPPM initialization ...
  extracting TIP4P info from pair style
  using 12-bit tables for long-range coulomb (../kspace.cpp:340)
  G vector (1/distance) = 0.37357502
  grid = 24 24 24
  stencil order = 5
  estimated absolute RMS force accuracy = 0.0032402305
  estimated relative force accuracy = 9.7578579e-06
  using double precision FFTW3
  3d grid and FFT values/proc = 2535 216
Last active /omp style is kspace_style pppm/tip4p/omp
Total wall time: 0:08:15
