LAMMPS (30 Jul 2021)
Processor partition = 1
  using 2 OpenMP thread(s) per MPI task
using multi-threaded neighbor list subroutines
variable        pid world 0 1
variable        phase world IceVI Liquid

shell cd ${phase}
shell cd Liquid
include Restart.lmp
echo both
log log.lammps
#include		in.partitions
include		in.temp
variable        temperature equal 283.05
variable	tempDamp equal 100.0
include		in.pressure
variable        pressure equal 11375.0
variable        pressureDamp equal 1000.0 # This is 1 ps
include		in.seed
variable        seed equal 745823

units		real
atom_style	full
read_restart	restart.lmp.${pid}
read_restart	restart.lmp.1
Reading restart file ...
  restart file = 30 Jul 2021, LAMMPS = 30 Jul 2021
  restoring atom style full from restart
  orthogonal box = (0.73119918 1.9527873 0.89206130) to (17.476373 21.676390 21.321135)
  2 by 4 by 4 MPI processor grid
  restoring pair style lj/cut/tip4p/long/omp from restart
  restoring bond style harmonic/omp from restart
  restoring angle style harmonic/omp from restart
  864 atoms
  576 bonds
  288 angles
Finding 1-2 1-3 1-4 neighbors ...
  special bond factors lj:    0        0        0       
  special bond factors coul:  0        0        0       
     2 = max # of 1-2 neighbors
     1 = max # of 1-3 neighbors
     1 = max # of 1-4 neighbors
     2 = max # of special neighbors
  special bonds CPU = 0.002 seconds
  read_restart CPU = 0.008 seconds
include 	in.setup
variable	out_freq equal 1000
variable	out_freq2 equal 10000
variable	out_freq3 equal 1000

timestep	2.0

neigh_modify    delay 7 every 1

include		in.tip4p
# This is TIP4P/Ice

# create groups ###
group ox type 2
288 atoms in group ox
group hy type 1
576 atoms in group hy

# set charges - beside manually ###
set group ox charge -1.1794
Setting atom values ...
  288 settings made for charge
set group hy charge 0.5897
Setting atom values ...
  576 settings made for charge

# ### TIP3P Potential Parameters ###
pair_style lj/cut/tip4p/long/omp 2 1 1 1 0.1577 8.5
pair_coeff 1 1*2 0.000 0.000
pair_coeff 2 2 0.21084 3.1668
bond_style  harmonic
bond_coeff  1 450 0.9572
angle_style harmonic
angle_coeff 1 55 104.52
kspace_style pppm/tip4p/omp 1.0e-5
pair_modify tail yes

thermo          ${out_freq}
thermo          1000
thermo_style    custom step temp pe etotal epair emol press lx ly lz vol pxx pyy pzz pxy pxz pyz enthalpy

restart 	${out_freq3} restart.lmp.${pid} restart2.lmp.${pid}
restart 	1000 restart.lmp.${pid} restart2.lmp.${pid}
restart 	1000 restart.lmp.1 restart2.lmp.${pid}
restart 	1000 restart.lmp.1 restart2.lmp.1


include         in.dump
dump            myDump all atom ${out_freq2} dump.water.${pid}
dump            myDump all atom 10000 dump.water.${pid}
dump            myDump all atom 10000 dump.water.1
dump            myDump2 all dcd ${out_freq2} dump.dcd
dump            myDump2 all dcd 10000 dump.dcd
dump_modify     myDump append yes
dump_modify     myDump2 append yes


variable natoms 	equal  "count(all)"                        # NUMBER ATOMS
variable H      	equal  "enthalpy/v_natoms"                 # ENTHALPY-per-atom
variable Vol      	equal  "vol/v_natoms"                 # volume-per-atom
fix AVG all 		ave/time ${out_freq} 1 ${out_freq} v_Vol v_H file vol_enthalpy.dat
fix AVG all 		ave/time 1000 1 ${out_freq} v_Vol v_H file vol_enthalpy.dat
fix AVG all 		ave/time 1000 1 1000 v_Vol v_H file vol_enthalpy.dat


timer           timeout 23:50:00 every 1000
New timer settings: style=normal  mode=nosync  timeout=23:50:00

fix 		1 all shake 1e-6 200 0 b 1 a 1
Finding SHAKE clusters ...
       0 = # of size 2 clusters
       0 = # of size 3 clusters
       0 = # of size 4 clusters
     288 = # of frozen angles
  find clusters CPU = 0.001 seconds
fix             2 all nph iso ${pressure} ${pressure} ${pressureDamp}
fix             2 all nph iso 11375 ${pressure} ${pressureDamp}
fix             2 all nph iso 11375 11375 ${pressureDamp}
fix             2 all nph iso 11375 11375 1000
fix             3 all temp/csvr ${temperature} ${temperature} ${tempDamp} ${seed}
fix             3 all temp/csvr 283.05 ${temperature} ${tempDamp} ${seed}
fix             3 all temp/csvr 283.05 283.05 ${tempDamp} ${seed}
fix             3 all temp/csvr 283.05 283.05 100 ${seed}
fix             3 all temp/csvr 283.05 283.05 100 745823

run             250000
PPPM initialization ...
  extracting TIP4P info from pair style
  using 12-bit tables for long-range coulomb (../kspace.cpp:340)
  G vector (1/distance) = 0.37538265
  grid = 24 24 24
  stencil order = 5
  estimated absolute RMS force accuracy = 0.0030354252
  estimated relative force accuracy = 9.141093e-06
  using double precision FFTW3
  3d grid and FFT values/proc = 3549 432
Last active /omp style is kspace_style pppm/tip4p/omp
Neighbor list info ...
  update every 1 steps, delay 7 steps, check yes
  max neighbors/atom: 2000, page size: 100000
  master list distance cutoff = 10.8154
  ghost atom cutoff = 10.8154
  binsize = 5.4077, bins = 4 4 4
  1 neighbor lists, perpetual/occasional/extra = 1 0 0
  (1) pair lj/cut/tip4p/long/omp, perpetual
      attributes: half, newton on, omp
      pair build: half/bin/newton/omp
      stencil: half/bin/3d
      bin: standard
Setting up Verlet run ...
  Unit style    : real
  Current step  : 5750000
  Time step     : 2
  Walltime left : 23:49:59.93
Per MPI rank memory allocation (min/avg/max) = 10.20 | 10.20 | 10.20 Mbytes
Step Temp PotEng TotEng E_pair E_mol Press Lx Ly Lz Volume Pxx Pyy Pzz Pxy Pxz Pyz Enthalpy 
 5750000    285.42236   -3758.4426   -3269.2384   -3758.4426            0    12847.162    16.745174    19.723603    20.429073    6747.2156    14482.014    13711.781     10347.69    708.07227   -854.61106     1250.316    -2005.062 
 5751000    297.84068   -3838.3649   -3327.8762   -3838.3649            0     9584.357    16.827958    19.821111    20.530069    6847.7805    8795.1815    9467.9193     10489.97    501.90917   -120.41288   -838.55273    -2370.707 
 5752000     287.9749     -3814.55   -3320.9709     -3814.55            0    11337.638      16.7919     19.77864    20.486079     6803.856     13792.34    11106.333    9114.2395    372.56273   -772.34015    603.29424   -2195.9681 
 5753000    292.50163   -3803.4684   -3302.1306   -3803.4684            0    11021.121    16.847857     19.84455    20.554346    6872.1019     12012.62    13135.935    7914.8084   -386.29823    -968.8229   -1883.8621   -2197.5656 
 5754000    268.95189   -3811.7646   -3350.7903   -3811.7646            0    10350.774    16.841758    19.837366    20.546905    6864.6411    11537.521    9730.0708    9784.7304    997.48176    189.81713    368.39918   -2314.5355 
 5755000    283.59197   -3769.6213   -3283.5543   -3769.6213            0    10544.091    16.861044    19.860083    20.570435    6888.2516    10891.228    10350.502    10390.544   -346.38291    1774.0405     1567.539   -2224.3151 
 5756000    281.70854   -3735.6404   -3252.8016   -3735.6404            0    10517.256    16.836966    19.831722    20.541059    6858.7832    11913.417     8278.539    11359.812    1964.2801   -940.02795   -614.75639   -2200.7782 
 5757000    283.09087   -3768.8731    -3283.665   -3768.8731            0    12604.288    16.812796    19.803253    20.511572    6829.2883    11335.661    14190.237    12286.965   -546.66571   -657.72417    761.24536   -2028.3011 
 5758000    291.97891   -3778.2501   -3277.8082   -3778.2501            0    11494.071    16.896947    19.902372    20.614236    6932.3476    10897.845    11631.552    11952.817   -372.64332   -615.40356   -55.484906   -2115.7441 
 5759000    294.14828   -3764.0502   -3259.8902   -3764.0502            0    12420.109    16.891499    19.895954    20.607589    6925.6436    14141.358    11051.661    12067.309   -1221.8646    1467.9934   -501.88706   -2005.4168 
 5760000     282.7782   -3760.3145   -3275.6424   -3760.3145            0    12854.337    16.828159    19.821348    20.530315    6848.0261    12232.475    12435.882    13894.654   -2049.8566    355.19525    1166.9229   -1991.8613 
 5761000     289.7836   -3762.7183   -3266.0391   -3762.7183            0    11764.975    16.824498    19.817036    20.525848    6843.5575    13730.708    9858.7341    11705.482    128.07629   -1561.1584   -118.22826   -2091.8209 
 5762000    294.01998   -3761.9513   -3258.0111   -3761.9513            0    9668.8343    16.863783    19.863309    20.573776    6891.6083    7461.9047    12150.253     9394.345   -1247.2912   -895.35802   -1526.9947   -2286.2252 
 5763000    282.95028   -3755.2871     -3270.32   -3755.2871            0     11534.95    16.840018    19.835317    20.544783    6862.5146    12515.009    13197.017    8892.8255   -405.85416   -1306.8147    1861.7719   -2115.8706 
 5764000    272.02566   -3808.9034   -3342.6607   -3808.9034            0    11591.223     16.82299     19.81526    20.524008    6841.7176    12154.269    11371.307    11248.092   -71.943167    1101.5175   -1417.6076   -2186.0951 
 5765000    282.69532   -3782.4418   -3297.9117   -3782.4418            0    10040.838    16.831594    19.825394    20.534505    6852.2202    6868.8726    12160.144    11093.496   -1857.0496    -595.5827    1754.7141   -2294.5047 
 5766000    293.16448   -3800.2273   -3297.7534   -3800.2273            0    9101.3514    16.894051    19.898961    20.610703     6928.784    9055.5802    10546.592     7701.882   -637.04733   -1015.1571   -1386.1778   -2378.0691 
 5767000    291.60174   -3815.5635   -3315.7681   -3815.5635            0    11444.428    16.817801    19.809148    20.517678    6835.3887    9587.2355    9311.2163    15434.832     1409.986    718.82194   -116.68657   -2174.9059 
 5768000    269.70961   -3810.6518   -3348.3787   -3810.6518            0    10247.862    16.832755    19.826762    20.535922    6853.6384    8407.1307    9154.9793    13181.476    -138.9875   -1194.8723    747.97719   -2324.0713 
 5769000    280.25509   -3796.4335   -3316.0858   -3796.4335            0    11496.625    16.826912     19.81988    20.528793    6846.5041    9673.4591    12388.759    12427.657    1042.1664   -193.79738   -584.13579   -2168.1565 
 5770000    286.04494   -3830.0876   -3339.8164   -3830.0876            0    12001.448    16.831934    19.825795     20.53492    6852.6357    10733.844    12721.209     12549.29   -785.12404    256.68175    1476.7078   -2140.4077 
 5771000    285.67319   -3817.4212   -3327.7872   -3817.4212            0    11545.851    16.774515    19.758163    20.464869    6782.7455    9955.2619    12343.748    12338.543   -54.057133   -889.32671    780.77653   -2185.6786 
 5772000    283.86305   -3770.1259   -3283.5944   -3770.1259            0    12147.865    16.812013     19.80233    20.510616    6828.3332    13404.608    9801.5575    13237.429    1123.1394   -1312.4233   -208.01556   -2073.8585 
 5773000    281.70998   -3780.4698   -3297.6286   -3780.4698            0    13544.909    16.765303    19.747312    20.453631    6771.5768    13325.306    13779.429    13529.993   -581.91117   -1487.9345    457.25423   -1959.9807 
 5774000     293.9889   -3721.3049    -3217.418   -3721.3049            0    11477.921    16.820268    19.812054    20.520687    6838.3969    10740.625     12448.44    11244.697   -2272.1471   -1846.6315    268.77724   -2072.7135 
 5775000     283.6107   -3781.4235   -3295.3245   -3781.4235            0     11439.89    16.829171    19.822541     20.53155     6849.262    11693.441    12362.597    10263.632   -1361.5572   -1643.5511    2.4635191      -2152.6 
 5776000    287.60509   -3743.6206   -3250.6754   -3743.6206            0    11480.008    16.829927    19.823431    20.532471    6850.1846    11193.637    11833.763    11412.625   -1392.0706    251.34041   -752.86686   -2103.7891 
 5777000    280.34167   -3724.0042   -3243.5082   -3724.0042            0    12385.064    16.813178    19.803703    20.512038    6829.7537    13332.111    12004.909     11818.17    1072.6149    312.87209    897.15555   -2009.8945 
 5778000    288.69668   -3804.1467   -3309.3305   -3804.1467            0    11411.132     16.83314    19.827215    20.536391    6854.1083    9380.2267    12618.521    12234.649   -1715.8393   -549.59991     1078.461   -2168.6721 
 5779000      287.779   -3822.2044    -3328.961   -3822.2044            0    12126.676    16.781025    19.765831    20.472811    6790.6449    11602.279     10734.95    14042.798   -337.36046    672.56209     1360.227   -2128.0006 
 5780000    277.88863   -3757.0935   -3280.8019   -3757.0935            0    10136.813    16.834678    19.829027    20.538268    6855.9874    9450.7751    9690.1034    11269.561   -1851.1316    217.77513    336.84881   -2267.2468 
 5781000    286.78799   -3774.2555   -3282.7107   -3774.2555            0    11280.511    16.820101    19.811857    20.520484    6838.1934    9930.4188    11512.215    12398.899    112.44942   -211.20401   -615.69672   -2157.7275 
 5782000    280.85659   -3781.1175   -3299.7389   -3781.1175            0    13327.233    16.825753    19.818514    20.527379    6845.0892    14312.908    12611.032    13057.759    -957.3817    332.59854   -877.80273   -1969.2999 
 5783000    281.77891   -3773.5365   -3290.5771   -3773.5365            0    10202.113    16.840198    19.835528    20.545002    6862.7337    8379.3289    11097.222    11129.788    2467.1051   -72.081409    1210.2898   -2269.4891 
 5784000     278.3318   -3803.9267   -3326.8756   -3803.9267            0    10632.641    16.793057    19.780002     20.48749    6805.2618    6664.5437    11498.389    13734.991   -809.82815    -584.2539   -1181.8303   -2271.6097 
 5785000    267.29788   -3794.0378   -3335.8984   -3794.0378            0    11609.346    16.833143    19.827219    20.536395    6854.1121    9310.8422    13509.665    12007.529    509.81781    1458.4752   -514.75917   -2175.4259 
 5786000    279.73533   -3805.5344   -3326.0776   -3805.5344            0    13932.704    16.756566    19.737021    20.442971    6760.9956    14608.328    13880.407    13309.379    1412.2912    1576.9127    485.11553   -1952.2825 
 5787000    280.39651   -3782.5064   -3301.9163   -3782.5064            0    10150.614     16.80881    19.798558    20.506709    6824.4317    10826.631    11923.515    7701.6941     206.6461    696.10957   -1236.6501   -2291.6528 
 5788000    286.12211   -3803.7959   -3313.3924   -3803.7959            0    9141.3771    16.821337    19.813313    20.521991    6839.7006    9485.2642    9700.5397    8238.3275    1451.7659   -218.42435    216.63579   -2401.5399 
 5789000    276.90943   -3788.1613    -3313.548   -3788.1613            0    10997.004    16.809265    19.799094    20.507264    6824.9862    11698.598    11317.357    9975.0583    83.769533   -559.06152   -158.88483   -2218.9565 
 5790000    284.19871   -3802.0709    -3314.964   -3802.0709            0    12755.935    16.753884    19.733862    20.439699    6757.7492    13747.114    12982.278    11538.414   -171.54483   -720.08793    -1069.703   -2057.8048 
 5791000    273.45286     -3781.31   -3312.6212     -3781.31            0    10362.777    16.787188    19.773091    20.480331    6798.1304    11633.094    8893.9035    10561.334   -39.527678   -58.049266   -309.00853   -2285.2165 
 5792000    274.60161   -3799.6454   -3328.9877   -3799.6454            0    11947.782    16.778899    19.763327    20.470218    6788.0648    13644.359    11101.799    11097.187    601.57576   -1311.0076   -1110.9821   -2146.1936 
 5793000    288.31257    -3794.364   -3300.2061    -3794.364            0    10424.395    16.837841    19.832753    20.542127    6859.8531    8637.2851     12834.38    9801.5202   -167.24234   -318.67079    1921.4917   -2257.3087 
 5794000    283.97076   -3784.1441   -3297.4279   -3784.1441            0    12127.612    16.793665    19.780719    20.488232     6806.002    12519.193    11023.387    12840.257   -617.65157      1236.45   -550.58252   -2093.6586 
 5795000    268.37228   -3825.9913   -3366.0104   -3825.9913            0    11664.054    16.822903    19.815157    20.523902    6841.6112    11641.499     11866.44    11484.223    1438.5756    410.81001   -260.93833   -2202.1958 
 5796000    282.85939   -3792.2252   -3307.4139   -3792.2252            0    11210.206    16.880962    19.883543    20.594734    6912.6911    12485.542    9816.2201    11328.856   -450.10196    824.36406    325.28534   -2177.2625 
 5797000    284.90069   -3788.2606   -3299.9505   -3788.2606            0    13841.705    16.803343    19.792119     20.50004    6817.7754    13175.203    13240.089    15109.822   -400.61839    794.85348   -435.14277   -1923.6662 
 5798000    296.97038   -3778.3432   -3269.3462   -3778.3432            0    12021.189     16.83216    19.826061    20.535195    6852.9113    12072.971    13169.735    10820.861    152.99739    193.27155   -1681.0898   -2067.9163 
 5799000    295.78944   -3793.2069   -3286.2339   -3793.2069            0    11662.258    16.849296    19.846245    20.556102    6873.8633    13138.483    9268.8161    12579.473    1354.5677    749.80557    627.95271    -2117.113 
 5800000     275.0887   -3795.7382   -3324.2456   -3795.7382            0    11198.594    16.904079    19.910773    20.622937    6941.1296    10823.678    10567.587    12204.518     1001.182   -162.60533   -984.83183   -2190.6202 
 5801000    301.72238   -3778.4031   -3261.2613   -3778.4031            0    10337.765    16.889259    19.893316    20.604856    6922.8886    10764.368    9661.9204    10587.007   -2032.2538    130.62095    -756.2419   -2217.5272 
 5802000    271.89448   -3780.8486   -3314.8308   -3780.8486            0    10684.296    16.799763    19.787901    20.495671    6813.4179    11225.823    10577.527    10249.539   -534.57251    646.55056    145.72798   -2253.1674 
 5803000     275.3089   -3797.2993   -3325.4293   -3797.2993            0    13424.441    16.767652     19.75008    20.456497    6774.4241    12453.913    14926.096    12893.314    994.73993   -781.66896   -1360.6792    -1999.121 
 5804000    292.12535   -3790.6782   -3289.9854   -3790.6782            0    12054.716    16.808811    19.798559     20.50671    6824.4326    13871.092    11003.948    11289.109   -428.44657   -3209.9704    808.89071   -2090.2114 
 5805000    275.15188   -3772.2117   -3300.6108   -3772.2117            0    10992.221    16.840224    19.835559    20.545033    6862.7653    10538.513    10142.421    12295.728    18.605929    2254.2733   -355.65383   -2200.4391 
 5806000    298.89728   -3776.5176   -3264.2179   -3776.5176            0    13736.723    16.815971    19.806992    20.515445    6833.1571      15912.3    12964.095    12333.775   -2352.8829    994.70646    1154.6862   -1895.2904 
 5807000    293.88436   -3797.1821   -3293.4743   -3797.1821            0    12732.347    16.794542    19.781752    20.489302    6807.0682    13140.534     13938.47    11118.037   -2881.1023   -456.14345   -1088.8836    -2029.482 
 5808000    287.53656   -3801.5022   -3308.6744   -3801.5022            0    11289.639    16.847935    19.844643    20.554442     6872.198     12353.91    10801.372    10713.635   -745.08109    871.76299     -1157.32   -2177.1821 
 5809000    277.86611   -3774.4119   -3298.1589   -3774.4119            0    11044.262    16.855374    19.853404    20.563517    6881.3045    12429.851    9193.0328    11509.903   -847.93932    488.18239    241.47463   -2189.7925 
 5810000    274.72913   -3799.8401   -3328.9638   -3799.8401            0    10154.485    16.908321    19.915769    20.628113    6946.3566    12194.697    8632.6766    9636.0823   -182.57216   -760.66271    275.77536   -2300.2587 
 5811000    283.25481   -3774.3048   -3288.8157   -3774.3048            0    10265.313    16.860848    19.859852    20.570195    6888.0107    10404.179    9889.7667    10501.994   -727.19635    1078.9097    144.14589   -2257.6181 
 5812000    286.68713   -3780.0018   -3288.6299   -3780.0018            0    9755.3053    16.884722    19.887972    20.599321    6917.3112    9324.3847    10514.676     9426.855   -1379.6412    560.07312   -438.38632   -2304.4963 
 5813000    303.53207    -3763.258   -3243.0145    -3763.258            0    12911.333    16.828285    19.821497    20.530468      6848.18    13528.771     12912.73    12292.499   -811.68573   -635.47838    1576.7675   -1953.5121 
 5814000    282.74979   -3808.6006   -3323.9771   -3808.6006            0    10524.662    16.858864    19.857514    20.567774    6885.5792    12911.982    8058.3211    10603.683   -94.146456   -76.706195   -1039.1054   -2267.0999 
 5815000    267.11228   -3809.6337   -3351.8124   -3809.6337            0    10663.242    16.844128    19.840158    20.549797      6867.54    10805.168    11337.366    9847.1913     1054.511   -1565.0533   -929.50689   -2283.8245 
 5816000    297.53772   -3803.4099   -3293.4404   -3803.4099            0    7490.0987    16.944968    19.958934    20.672822    6991.6209    8741.3995    7336.8725    6392.0241   -1115.6059   -729.02341   -221.15142   -2529.7079 
 5817000    262.12281   -3791.7616   -3342.4921   -3791.7616            0    13002.268    16.778515    19.762874    20.469749    6787.5984    13218.569    11822.144    13966.091   -1175.7984     -3016.87    1283.2833   -2055.3955 
 5818000    278.57645   -3786.8584   -3309.3878   -3786.8584            0    9516.7455    16.924714    19.935078    20.648112    6966.5797     10283.15    10101.147    8165.9401    601.06057    668.82498    1921.7782   -2342.4825 
 5819000    280.46966   -3829.5196   -3348.8041   -3829.5196            0    10091.017    16.833512    19.827654    20.536846    6854.5636    12680.834    9930.3621    7661.8561    -1092.526   -244.24558    514.55243   -2340.0376 
 5820000    300.61847   -3829.8447   -3314.5949   -3829.8447            0     11342.03    16.889855    19.894018    20.605584     6923.622    10308.807    12636.156    11081.126    569.06598   -1384.1107   -809.44231   -2169.3457 
 5821000    284.49496   -3823.5537   -3335.9391   -3823.5537            0    10077.042    16.848326    19.845102    20.554918    6872.6755    10811.237    8938.1651    10481.724   -75.195294    809.85889   -44.021293   -2325.9079 
 5822000    299.77854   -3755.4438   -3241.6337   -3755.4438            0    12175.069    16.800744    19.789058    20.496869    6814.6123    12671.632    11030.573    12823.003   -508.47104   -1062.8592     1348.278    -2031.625 
 5823000    272.96484   -3788.6708   -3320.8184   -3788.6708            0    13379.081    16.756319    19.736731     20.44267    6760.6968    13655.767    12545.321    13936.156    34.264806    210.33434   -480.59119   -2001.6701 
 5824000    296.51205   -3817.1021   -3308.8906   -3817.1021            0    11547.529    16.771941    19.755131    20.461729    6779.6237     11435.76    11714.972    11491.856   -126.54241    1174.0773    -546.8552   -2167.1419 
 5825000    289.10985   -3815.8399   -3320.3155   -3815.8399            0    11164.923    16.801527     19.78998    20.497824    6815.5648    11296.882    10531.115    11666.772   -368.25685    1538.5231   -79.689547   -2210.5442 
 5826000    276.24659   -3817.3329   -3343.8557   -3817.3329            0    12466.986    16.826559    19.819463    20.528362    6846.0726    13919.782     11577.66    11903.517   -600.58123   -452.07468   -1112.3169   -2099.1151 
 5827000    274.45251   -3827.2512    -3356.849   -3827.2512            0    13529.079    16.794508    19.781712     20.48926    6807.0261    12728.628    11681.391    16177.216   -925.81156   -1097.4091    1426.4199   -2013.7701 
 5828000    303.18242    -3789.724   -3270.0797    -3789.724            0    13566.532    16.819635    19.811308    20.519915    6837.6251     15123.55    12469.966     13106.08    896.87105   -702.79605   -3125.5693   -1917.2285 
 5829000      282.885    -3816.631   -3331.7758    -3816.631            0    13703.959    16.842294    19.837997    20.547559    6865.2967    11149.737    16443.268    13518.872   -921.58147   -907.65914     179.9493   -1959.6901 
 5830000    286.04578   -3767.4477    -3277.175   -3767.4477            0    13546.309    16.895666    19.900863    20.612673     6930.771    14133.133     13408.43    13097.365   -1357.0834    739.78897    269.22138   -1907.9386 
 5831000    278.77361   -3825.6068   -3347.7984   -3825.6068            0    10426.416    16.888862    19.892848    20.604372    6922.4008      10089.5    10029.618    11160.131   -1525.9394    821.89204    152.83453   -2295.1879 
 5832000    283.03696   -3848.1364   -3363.0208   -3848.1364            0    9393.9143    16.862859     19.86222    20.572648    6890.4757    10866.041    8635.4508    8680.2514   -820.86541    1846.7247   -1207.5374   -2419.0214 
 5833000    268.88864   -3794.0857   -3333.2198   -3794.0857            0    11532.939     16.79763    19.785389    20.493069    6810.8232    13614.395    11703.104    9281.3164   -1127.7364     634.4065   -1564.2794    -2187.666 
 5834000    290.39174   -3750.8185    -3253.097   -3750.8185            0    10805.203     16.85603    19.854177    20.564317    6882.1077    11651.872    9630.9411    11132.797   -227.57256   -885.90541   -1759.0694   -2168.5952 
 5835000    285.38291   -3790.1437   -3301.0072   -3790.1437            0    10462.797    16.830474    19.824076    20.533139     6850.853    10315.306    11845.949    9227.1345   -734.31525    11.029322    510.14709   -2255.6413 
 5836000    281.48041   -3772.7864   -3290.3386   -3772.7864            0    11302.155    16.874185    19.875561    20.586466    6904.3693    12414.123    10895.494    10596.847   -636.31616    302.18565   -2510.9246   -2152.2892 
 5837000    291.89927        -3812   -3311.6946        -3812            0    11948.588    16.831058    19.824763    20.533852    6851.5663    11574.829    13740.705    10530.232    84.325165    -262.8674   -2976.2291    -2117.755 
 5838000    288.61039   -3775.1818   -3280.5134   -3775.1818            0    12089.526    16.859619    19.858404    20.568696    6886.5047    9621.6132    12675.412    13971.553    648.39008   -1306.1403   -1533.4029   -2066.3308 
 5839000    290.47135   -3845.8978   -3348.0399   -3845.8978            0    11230.581    16.821676    19.813713    20.522406    6840.1149     10957.27    10620.277    12114.197    2093.7889   -830.66738    1092.2428   -2227.7214 
 5840000    277.16932    -3797.798   -3322.7392    -3797.798            0    13663.015    16.771156    19.754206    20.460771    6778.6709    14482.727    13996.448     12509.87    207.60695   -656.45538   -856.58509   -1972.0141 
 5841000    279.43191    -3826.719   -3347.7823    -3826.719            0    12334.338    16.786947    19.772807    20.480037    6797.8376    11372.908    12020.905    13609.202    1836.5937   -1034.5473   -1806.8333   -2124.9623 
 5842000    297.91999   -3793.5513   -3282.9266   -3793.5513            0    12479.883    16.759352    19.740303    20.446371    6764.3688    12945.259    14098.044    10396.347   -657.92844     67.35754     -859.266   -2051.7689 
 5843000    266.22686   -3791.4181   -3335.1144   -3791.4181            0    12706.438    16.823355     19.81569    20.524454    6842.1631    12686.417     12477.04    12955.859   -75.742279    37.457719    1480.0981   -2067.1906 
 5844000    287.52544   -3827.8055   -3334.9967   -3827.8055            0    10684.456    16.893234    19.897998    20.609706    6927.7786     9693.372    10647.642    11712.355   -890.73061     268.6728   -273.78825   -2255.4975 
 5845000     293.7211   -3834.0828   -3330.6549   -3834.0828            0     10359.07    16.828166    19.821356    20.530323    6848.0341    9581.4911    12073.345    9422.3747   -2525.0529   -907.09046    3198.3929   -2296.0785 
 5846000    278.31456   -3754.2522   -3277.2306   -3754.2522            0    10960.773      16.8823    19.885119    20.596366    6914.3347    12220.982    10809.749    9851.5877   -704.82263    1862.8855    -1801.649   -2171.9629 
 5847000    289.62584   -3757.1317   -3260.7229   -3757.1317            0    11448.914    16.780316    19.764995    20.471946    6789.7842    10779.868    11633.107    11933.768   -470.67156    199.19243    258.58888   -2127.0281 
 5848000    288.27665    -3836.124   -3342.0277    -3836.124            0    8456.8706    16.863521       19.863    20.573456    6891.2876    9078.2856    9403.6654    6888.6606    78.730707    1534.6404   -22.715584   -2492.0922 
 5849000    278.82515    -3771.361   -3293.4643    -3771.361            0    13417.024    16.797074    19.784734    20.492391    6810.1467    13410.925    11176.442    15663.705   -194.88416    325.42806   -299.72221   -1960.8989 
 5850000    274.80234   -3810.1178    -3339.116   -3810.1178            0    10884.236    16.803253    19.792013     20.49993    6817.6658    11360.877    10523.342    10768.488   -947.79581   -473.57761   -563.44896    -2256.911 
 5851000    262.24996   -3808.9031   -3359.4157   -3808.9031            0    9268.1004    16.876314    19.878069    20.589064    6906.9828    10029.077    9494.9604    8280.2639   -993.09802     234.6391    734.17086   -2425.8282 
 5852000    289.67382   -3758.2132   -3261.7222   -3758.2132            0    13973.509     16.82771     19.82082    20.529767    6847.4784    14342.788     16450.92    11126.819    564.20373    -475.6414   -1799.7785   -1866.2794 
 5853000    288.00658   -3762.6264    -3268.993   -3762.6264            0     12914.09    16.779444    19.763969    20.470882     6788.726     12884.02    12314.728    13543.522    283.44416   -520.83605    1705.6969   -1990.4127 
 5854000    269.56325   -3739.3262    -3277.304   -3739.3262            0     11237.13    16.812816    19.803277    20.511597    6829.3125     12065.16    10648.741    10997.489    1037.5971     -2896.77    750.96123   -2158.1025 
 5855000    307.06598   -3816.0274   -3289.7268   -3816.0274            0    9367.5473    16.889681    19.893814    20.605372    6923.4086    9665.1988    8393.0618    10044.381    884.32362    -1402.679   -1646.0297    -2343.878 
 5856000    279.95854   -3791.4712   -3311.6318   -3791.4712            0    10644.639    16.862054    19.861273    20.571667    6889.4895     9525.767    9537.9773    12870.172   -897.80878   -1694.2503   -960.07285   -2242.0996 
 5857000    285.11118   -3823.1702   -3334.4994   -3823.1702            0    10446.703    16.800156    19.788364    20.496151    6813.8962    10244.015    11812.746    9283.3486     488.3249    343.87731     114.6837    -2296.372 
 5858000     284.0844   -3781.9709   -3295.0599   -3781.9709            0    10476.647    16.788942    19.775156     20.48247    6800.2606    12335.408    10840.854    8253.6793    612.17417   -1451.9551   -1308.0905   -2256.0403 
 5859000    290.08457   -3794.0483   -3296.8533   -3794.0483            0    12143.095    16.815408     19.80633    20.514759    6832.4716    14046.116    11181.759     11201.41   -534.65829   -830.31458   -2034.4726   -2086.8596 
 5860000    274.27493   -3797.9689    -3327.871   -3797.9689            0    10353.264     16.88344    19.886463    20.597758    6915.7363    10966.684    10480.272    9612.8344    129.12871    1847.0101   -1624.9439    -2283.652 
 5861000    291.78059   -3795.9208   -3295.8189   -3795.9208            0    11258.006    16.859777    19.858591    20.568889     6886.699    10468.272    11451.416    11854.331     686.7097    969.01715    155.53435    -2165.116 
 5862000    283.73695   -3759.6113   -3273.2959   -3759.6113            0    10863.602    16.857427    19.855823    20.566022    6883.8196    11396.389    9443.4952    11750.922    794.40217    4.6489674   -289.56081   -2182.6614 
 5863000    276.35716   -3765.1574   -3291.4907   -3765.1574            0    10800.928    16.874364    19.875771    20.586684    6904.5884    11135.613     12077.67    9189.5003    1049.0179   -853.97049   -499.35027   -2203.8768 
 5864000    285.55917   -3733.7316   -3244.2929   -3733.7316            0    11685.208    16.867084    19.867197    20.577803    6895.6559    12770.778    11421.921    10862.924    85.009637   -394.13906   -345.30732   -2069.1575 
 5865000    287.11254   -3763.8733   -3271.7722   -3763.8733            0     10130.86    16.876265    19.878011    20.589004    6906.9224     9220.682    10506.763    10665.136   -990.24103    1260.4155   -791.04294   -2251.2868 
 5866000    273.87737   -3791.7744   -3322.3579   -3791.7744            0    11963.314    16.901911    19.908218    20.620291    6938.4583    12898.152    10426.015    12565.777   -1011.8209   -1065.7296    553.42488   -2111.7866 
 5867000    279.44584   -3813.4236    -3334.463   -3813.4236            0    12379.406    16.789913      19.7763    20.483655     6801.441    11845.861    12609.294    12683.061   -47.800145    482.42114    -92.04072   -2106.5245 
 5868000    290.19543    -3839.165     -3341.78    -3839.165            0    10842.174    16.842291    19.837994    20.547555    6865.2927    9209.8111    10557.641     12759.07    -258.7999   -440.08593   -216.91641   -2256.2263 
 5869000    282.35298    -3755.287   -3271.3437    -3755.287            0    14915.738     16.83737    19.832198    20.541552    6859.2774    15211.919    13936.767    15598.528   -1336.5366    234.39351    1193.1166     -1779.24 
 5870000     290.0903   -3818.6013   -3321.3965   -3818.6013            0    9895.3242    16.881773    19.884499    20.595724     6913.688    9103.2876    11159.685    9422.9995    514.87938     283.1027    833.64408   -2323.6603 
 5871000    273.29114   -3789.5022   -3321.0905   -3789.5022            0    11984.353    16.789326    19.775608    20.482938    6800.7272    9730.0566    13536.899    12686.104   -312.84238   -592.90403    1040.6378   -2132.4628 
 5872000    279.08771   -3772.0481   -3293.7013   -3772.0481            0    11819.154    16.800696       19.789    20.496809     6814.553    12899.004    11678.589    10879.868     -483.818    -580.9443   -1841.9267   -2119.0752 
 5873000    257.87183   -3782.9375    -3340.954   -3782.9375            0    10263.204    16.806052    19.795309    20.503344    6821.0726    9459.8365    9875.8428    11453.932    1232.1694   -1303.3543   -1063.9846   -2319.9875 
 5874000    286.05306   -3770.2504   -3279.9652   -3770.2504            0    11059.552    16.815429    19.806354    20.514784     6832.497    12946.775    11160.148    9071.7313    777.67403    1425.3757    127.60907   -2177.9366 
 5875000    280.63059   -3724.3431   -3243.3518   -3724.3431            0    10044.968     16.84515    19.841361    20.551043    6868.7895    9612.0443    9794.0887     10728.77    737.91812   -256.76159    480.45399   -2237.1047 
 5876000    302.50156   -3800.2151   -3281.7378   -3800.2151            0    12378.203      16.7877    19.773694    20.480955    6798.7524    14734.074     11550.78    10849.756    1055.1101    1511.2431   -679.81482   -2054.4039 
 5877000    303.29216   -3810.1151   -3290.2827   -3810.1151            0     12176.81    16.822992    19.815263    20.524011    6841.7206    12425.284    10568.034    13537.111   -1414.9693   -28.315106   -964.21927   -2075.2869 
 5878000     293.9435   -3805.5434   -3301.7343   -3805.5434            0    11460.835    16.853307    19.850969    20.560995    6878.7727    10795.864    10546.484    13040.157    2734.8815    349.64476    190.36052   -2151.9851 
 5879000    291.33638    -3768.085   -3268.7444    -3768.085            0    10664.852    16.864081     19.86366     20.57414    6891.9741        10066    10833.311    11095.245    788.34004    747.12854    -2021.889   -2196.7949 
 5880000    273.72218   -3795.9304     -3326.78   -3795.9304            0    11945.147    16.793813    19.780893    20.488412    6806.1813    13047.343    11274.737     11513.36    543.73414   -168.32762   -665.10993   -2141.0907 
 5881000    285.81526   -3819.7214   -3329.8438   -3819.7214            0    11526.038    16.775483    19.759303     20.46605    6783.9194    10733.772    11048.157    12796.185   -359.37426    1102.8335    1043.0782   -2189.4978 
 5882000    299.28057   -3802.1394   -3289.1827   -3802.1394            0    11250.148    16.844226    19.840273    20.549916    6867.6592    12475.443    10402.692    10872.308    18.706945    1228.4943    718.68188   -2162.3931 
 5883000    282.42766   -3783.1727   -3299.1014   -3783.1727            0    11697.936    16.838462    19.833484    20.542885    6860.6123    11468.537    11767.784    11857.487   -477.36661   -832.48177   -972.21707   -2128.6645 
 5884000    276.24757   -3778.2789      -3304.8   -3778.2789            0    12269.623    16.781086    19.765903    20.472886    6790.7197     14110.84    11561.046    11136.983    349.03246    761.05882   -231.59691   -2089.6695 
 5885000    261.84387    -3798.739   -3349.9475    -3798.739            0    9044.8195    16.858871    19.857524    20.567784    6885.5889    9517.8633    8230.0584    9386.5367   -189.47042     -838.333    129.34012   -2441.6735 
 5886000    291.92024   -3821.0215   -3320.6801   -3821.0215            0    9111.4269    16.889071    19.893094    20.604627    6922.6576    10341.127    9237.1583    7755.9955    813.01026    853.61036    194.13878   -2400.7918 
 5887000    276.52551   -3787.9021   -3313.9468   -3787.9021            0    12548.286    16.829595     19.82304    20.532067    6849.7799    15860.183    11461.951    10322.726    208.21731    701.76029   -1603.1575   -2060.4105 
 5888000    297.59479   -3810.9877   -3300.9204   -3810.9877            0    12856.693    16.785725    19.771367    20.478545    6796.3525    12479.672    13550.172    12540.235   -439.07993   -445.85085    1767.3548   -2026.5929 
 5889000      266.941    -3808.687   -3351.1593    -3808.687            0    10220.016    16.856847    19.855139    20.565313    6883.1081    11205.842    11108.996     8345.212    -1941.858   -1675.7889    920.71289   -2325.2426 
 5890000    284.32639   -3782.6945   -3295.3688   -3782.6945            0    9612.5925     16.87318    19.874377     20.58524    6903.1351    9831.3064    10661.852    8344.6196   -1804.4729    98.356427   -54.882437   -2327.6196 
 5891000    280.81669   -3796.9368   -3315.6266   -3796.9368            0    11166.356    16.838347    19.833348    20.542744    6860.4709    10613.305     12650.22    10235.544    355.08947   -994.84066   -1882.8949   -2198.3999 
 5892000    281.26581    -3813.316    -3331.236    -3813.316            0    12140.404    16.865893    19.865794     20.57635    6894.1956    13868.248      12142.2    10410.765   -1236.4299    -296.5306    2016.5494   -2110.5818 
 5893000     266.7852   -3778.7229   -3321.4622   -3778.7229            0    10783.792    16.884778    19.888038    20.599389    6917.3798    11357.486    9969.0899    11024.799    852.60366    133.60541   -886.81951   -2233.5621 
 5894000    286.17148   -3756.0125   -3265.5243   -3756.0125            0      13507.9    16.816108    19.807154    20.515613    6833.3249     13435.79    14135.868    12952.042    -1621.575    958.37517     1303.258   -1919.3671 
 5895000     282.5977     -3757.64   -3273.2772     -3757.64            0    9822.8836    16.876455    19.878235    20.589235    6907.1558    8566.1891     9218.341    11684.121   -2005.1795   -515.18314    -907.0856    -2283.781 
 5896000    282.17321   -3811.8029   -3328.1677   -3811.8029            0    10738.692    16.810378    19.800405    20.508622    6826.3419    12684.314    10058.971    9472.7901   -1152.0248   -1060.1398    161.18028   -2259.0751 
 5897000    268.71373   -3816.2307   -3355.6646   -3816.2307            0    12812.322    16.826928    19.819899    20.528813    6846.5236    13957.705    10895.968    13583.293   -653.84733   -224.87183   -838.92211   -2076.3604 
 5898000    270.59683   -3798.0214   -3334.2277   -3798.0214            0     12372.65    16.837259    19.832067    20.541417    6859.1416    11460.568     14025.32    11632.062   -776.58732    1314.3212    923.36552   -2096.5477 
 5899000    283.22386   -3748.4541   -3263.0181   -3748.4541            0    11513.552    16.864752     19.86445    20.574958    6892.7963    13674.322    8402.2529    12464.082    1388.1808    1881.3279   -113.29962   -2105.6255 
 5900000    269.03468   -3779.2561   -3318.1398   -3779.2561            0    9850.8741    16.937497    19.950134    20.663707    6982.3771      10549.7    9024.2952     9978.627    1658.5219   -1272.6525     152.2214   -2315.0174 
 5901000    286.36219   -3768.4435   -3277.6285   -3768.4435            0    11033.603    16.824792    19.817383    20.526207    6843.9168    10799.272    11943.842    10357.693    184.20073   -403.69118    1438.9759    -2176.348 
 5902000    278.30978   -3835.9543   -3358.9409   -3835.9543            0    9631.0934    16.911775    19.919837    20.632325    6950.6133    7428.2428    10648.919    10816.118   -212.21938    -371.4325   -2121.6225   -2382.6604 
 5903000    276.68119   -3788.7145   -3314.4924   -3788.7145            0    10867.118     16.88802    19.891856    20.603345    6921.3653    10697.748    10721.389    11182.218    289.70819   -504.98715    497.19108   -2217.5545 
 5904000     266.2823   -3788.4597   -3332.0609   -3788.4597            0    11679.207    16.842738    19.838521    20.548101    6865.8403    13709.153    11436.279    9892.1891    1604.9859   -605.05795   -629.04784   -2162.6075 
 5905000    289.86999   -3821.1319   -3324.3046   -3821.1319            0     11966.11    16.826582    19.819491    20.528391    6846.1012     11987.72    11677.858    12232.753   -2529.3486    912.83141    -732.1704   -2129.5679 
 5906000     261.1493   -3804.2508   -3356.6499   -3804.2508            0    10211.001    16.880126    19.882559    20.593714    6911.6644    10808.773    12417.753    7406.4765   -240.52836    1827.9717     1402.921   -2327.3857 
 5907000    279.89324   -3807.6845   -3327.9571   -3807.6845            0    10454.504      16.8733    19.874518    20.585386    6903.2827    10753.553    9115.0474    11494.912    55.270663   -516.47425    643.90663   -2275.4259 
 5908000    281.01303   -3796.8061   -3315.1594   -3796.8061            0    12352.771    16.841852    19.837477     20.54702    6864.7563    13931.221    9797.9001    13329.191    273.46394    273.30933    680.40316   -2078.4564 
 5909000     269.8878   -3794.1579   -3331.5795   -3794.1579            0    10561.521    16.925412    19.935899    20.648963     6967.441     10623.48    10875.316    10185.768    876.87703    -219.9031   -353.38881   -2258.3918 
 5910000     300.4288   -3795.2606    -3280.336   -3795.2606            0    11208.968    16.863706    19.863218    20.573682    6891.5143    11116.873    10648.991     11861.04   -555.57774   -802.98064    99.361754   -2153.7712 
 5911000    278.38354    -3809.333   -3332.1931    -3809.333            0    9639.7176    16.878974    19.881202    20.592309    6910.2498     9647.926    9604.3264    9666.9003   -1784.2173    446.62717    703.53326   -2360.7129 
 5912000    266.79567   -3796.2999   -3339.0213   -3796.2999            0    10393.715    16.842375    19.838092    20.547658    6865.3954    8759.6419    11918.866    10502.638    911.62325    163.13687   -190.88294   -2298.3532 
 5913000    281.63249   -3806.0432   -3323.3348   -3806.0432            0     11325.72    16.800586    19.788871    20.496675    6814.4193    10906.012    10659.335    12411.814   -644.01113   -1212.6664   -328.19913   -2197.7698 
 5914000    287.71557   -3817.9807   -3324.8461   -3817.9807            0    10637.037    16.853036     19.85065    20.560665    6878.4415    11591.261    9065.7248    11254.126   -44.000972   -745.17765    348.71528   -2257.7915 
 5915000    280.26406   -3809.9434   -3329.5804   -3809.9434            0    11051.574    16.802916    19.791616    20.499518    6817.2554    10542.721    12525.553    10086.448   -374.69186    581.42768     1398.407   -2230.8033 
 5916000    287.87708   -3787.0417   -3293.6302   -3787.0417            0    9649.9981    16.837118    19.831901    20.541244     6858.969    10524.019    8819.3104    9606.6644   -322.40667   -438.23792    795.72692    -2328.331 
 5917000    269.12667   -3813.2496   -3351.9757   -3813.2496            0    11182.864    16.865443    19.865264    20.575801    6893.6441    9931.3934    11891.255    11725.943    353.91191   -87.688371   -1417.4467   -2227.6871 
 5918000    294.55294   -3802.0524   -3297.1987   -3802.0524            0    11010.614    16.855823    19.853933    20.564064    6881.8539    11335.129    9103.9599    12592.752   -1757.6989    1217.8864     530.1004   -2192.1209 
 5919000    299.08496   -3777.4589   -3264.8375   -3777.4589            0    10517.635    16.911509    19.919524    20.632002    6950.2865    10176.947    9844.3453    11531.613    811.10743    1044.0373    351.01314   -2198.7406 
 5920000    278.11967   -3756.7105   -3280.0229   -3756.7105            0    11998.539    16.811727    19.801993    20.510267    6827.9849    12783.531     11538.76    11673.326    1244.2375    914.73898    47.922737   -2085.2185 
 5921000     280.0853   -3765.3227   -3285.2661   -3765.3227            0    12613.904    16.831376    19.825138     20.53424    6851.9548    14930.534     9676.979    13234.199     72.48135   -383.52528    812.72233   -2024.7747 
 5922000    287.70947   -3803.3181   -3310.1939   -3803.3181            0    12174.361    16.787978     19.77402    20.481294    6799.0892    12708.081    12201.235    11613.766   -1278.3452    313.17045    106.04202   -2103.0118 
 5923000    275.86473   -3776.6345   -3303.8118   -3776.6345            0    11578.005    16.831142    19.824861    20.533953    6851.6679    12243.864    11019.439    11470.712    321.74171    2406.2472    -999.8491   -2146.8849 
 5924000    284.68956   -3780.1728   -3292.2246   -3780.1728            0    12063.987    16.813482    19.804061    20.512408    6830.1235    13102.689     11093.66    11995.614    -1330.651     758.9256   -999.05863   -2090.5267 
 5925000    284.90589   -3777.9456   -3289.6267   -3777.9456            0    12258.317    16.796136     19.78363    20.491247    6809.0067     13093.57    12553.806    11127.575    -626.4699    622.57399    106.24244   -2072.3466 
 5926000    271.56773   -3785.2123   -3319.7545   -3785.2123            0    9926.8363    16.822209     19.81434    20.523055    6840.7643    10423.139    8964.7396     10392.63    407.51719   -696.34944    1765.9304   -2329.3984 
 5927000    294.76507   -3771.6601   -3266.4429   -3771.6601            0    8961.5916    16.875394    19.876985    20.587941    6905.8534    11123.514    7902.1946    7859.0659    511.77547   -6.9302003   -1604.0184   -2363.8781 
 5928000    285.79968   -3796.2932   -3306.4424   -3796.2932            0    12435.988    16.858012    19.856512    20.566736    6884.5362     13130.83    13219.808    10957.327   -1051.2674   -1623.7154    43.832408   -2057.8207 
 5929000    271.25721   -3782.0235   -3317.0979   -3782.0235            0     8434.955    16.927588    19.938462    20.651618    6970.1289    8430.8928    9704.6595    7169.3128   -404.23289   -315.48793    -564.8451   -2459.6663 
 5930000    276.29008   -3791.9691   -3318.4174   -3791.9691            0    11429.435    16.827263    19.820293    20.529222    6846.9327     11587.61    14283.528    8417.1674   -116.76016   -680.58005   -1628.7871   -2177.1255 
 5931000    285.53161    -3777.599   -3288.2076    -3777.599            0    13596.846    16.749948    19.729227    20.434898    6752.9885    12922.824    13452.928    14414.787   -1887.6388   -1725.0177    1375.7434   -1949.1166 
 5932000    303.33841   -3790.1578   -3270.2461   -3790.1578            0    11106.842    16.836775    19.831496    20.540826    6858.5495    11485.001    11219.417     10616.11    1734.5091   -483.11426    -1367.211   -2159.2852 
 5933000    294.11779   -3820.3851   -3316.2772   -3820.3851            0    13143.707    16.761223    19.742507    20.448653    6766.6346    14322.783    13323.933    11784.404   -1381.7498   -299.10365    182.78758   -2019.1981 
 5934000    280.05254    -3845.055   -3365.0546    -3845.055            0    10860.499     16.79383    19.780913    20.488433    6806.2019    10413.704    11829.166    10338.628   -340.07483    1734.1823   -1244.7977   -2287.0254 
 5935000    295.37466   -3801.5074   -3295.2454   -3801.5074            0    11635.438    16.774702    19.758383    20.465097    6782.9722    13239.185    11748.454     9918.675   -1046.1848    645.38045    784.44403   -2144.2365 
 5936000      295.595   -3771.7095   -3265.0698   -3771.7095            0    14211.074    16.710517    19.682782    20.386792    6705.4092    16623.775    12066.746    13942.702   -1291.2755    1356.5259    875.64559   -1875.3473 
 5937000    273.72822   -3789.5526   -3320.3918   -3789.5526            0    11925.596    16.796504    19.784063    20.491696    6809.4543    10705.115    12831.634    12240.039    -178.3879    -486.6592    1094.2237   -2136.0739 
 5938000    286.60053   -3752.5309   -3261.3074   -3752.5309            0    10769.709    16.828429    19.821667    20.530645    6848.3562    14217.412     8656.608    9435.1069    699.60889    1253.7011   -21.335779   -2185.6692 
 5939000    264.84295    -3801.619   -3347.6873    -3801.619            0    12362.523    16.777246     19.76138    20.468201    6786.0591    11352.887    12469.332    13265.351   -431.59609   -1439.6462    1760.6001   -2124.1966 
 5940000     287.5841   -3762.6542   -3269.7449   -3762.6542            0    11356.163    16.838015    19.832958    20.542339    6860.0656     14030.26    8549.2008    11489.027   -754.42482   -1212.0545   -6.1608217   -2133.5946 
 5941000    291.65301   -3803.8412   -3303.9579   -3803.8412            0    11059.994    16.834681     19.82903    20.538271    6855.9909      11341.4    10307.303    11531.277   -130.34254   -349.87813   -1725.2973   -2198.0957 
 5942000    283.15646   -3767.4368   -3282.1164   -3767.4368            0    13340.733    16.797434    19.785159     20.49283    6810.5851    14827.082    13964.535    11230.584    54.779325    2143.2799   -402.15643   -1957.0427 
 5943000    279.79881   -3739.9715   -3260.4059   -3739.9715            0    11180.988    16.796067    19.783548    20.491162    6808.9219    10579.593    12119.361    10844.009    876.79156   -1941.2626   -509.33749   -2150.1211 
 5944000    296.34091   -3768.8882     -3260.97   -3768.8882            0    13141.806    16.751616    19.731191    20.436932    6755.0053     12822.27    12212.457    14390.691    492.24046    344.84476   -480.80839   -1966.3073 
 5945000    279.77901   -3780.9268   -3301.3951   -3780.9268            0    10300.921    16.830767     19.82442    20.533496    6851.2105    11049.182    9916.1251    9937.4543   -1295.7485     1111.075    496.15304    -2272.149 
 5946000    284.78766   -3779.1497   -3291.0334   -3779.1497            0    11548.646    16.801448    19.789887    20.497727    6815.4688    11146.798    11274.177    12224.962   -359.06067   -1354.5192   -800.98926   -2143.1371 
 5947000     276.1786   -3782.1081   -3308.7474   -3782.1081            0    11697.874    16.849813    19.846854    20.556732    6874.4957     13449.13    10768.607    10875.883   -39.287976   -791.67284    777.05576   -2135.9482 
 5948000    278.07404   -3769.1371   -3292.5277   -3769.1371            0    13488.778    16.816608    19.807743    20.516222    6833.9339    11260.689    14389.961    14815.683    49.522712    552.88109   -396.49668   -1948.1563 
 5949000    290.75483   -3804.0516   -3305.7078   -3804.0516            0    11567.439     16.85315    19.850784    20.560803    6878.5804    12017.351    11926.426     10758.54    2351.2111   -89.899486   -1093.4976   -2145.2965 
 5950000    283.34103    -3787.529   -3301.8922    -3787.529            0    13356.699    16.774217    19.757812    20.464506    6782.3839    12903.472    12408.005     14758.62   -240.99752   -1997.7893     755.9247   -1980.7261 
 5951000    276.61547   -3802.5052   -3328.3958   -3802.5052            0    12342.138    16.822074    19.814181    20.522891    6840.6004    10448.184    12271.129    14307.102    996.02727    626.28813    635.44208   -2097.1053 
 5952000    274.16279   -3783.3489   -3313.4433   -3783.3489            0    9597.4004    16.921401    19.931175    20.644069    6962.4888    10761.615    9455.5441    8575.0419     477.1903    209.79796    354.33216    -2338.916 
 5953000    285.37228   -3818.6219   -3329.5036   -3818.6219            0    11802.056    16.842927    19.838743    20.548332    6866.0712    11736.075    10434.934     13235.16    1178.2711   -404.80019    553.25866   -2147.7093 
 5954000    276.58843    -3819.194   -3345.1309    -3819.194            0    10933.293    16.847676    19.844337    20.554125    6871.8804    9834.2299    9792.0774    13173.572    761.97877    2654.7729   -539.58987   -2249.4036 
 5955000    255.05348   -3786.4888   -3349.3359   -3786.4888            0    12444.402     16.80084     19.78917    20.496985    6814.7286    11614.045    12684.608    13034.553   -3201.2413    937.72268   -142.10602   -2112.5387 
 5956000    270.88093   -3780.5751   -3316.2944   -3780.5751            0    11878.997    16.857004    19.855324    20.565506    6883.3013    12921.769    9397.5281    13317.695   -625.51492   -743.40629   -168.17882   -2123.8107 
 5957000    283.98882   -3805.4598   -3318.7127   -3805.4598            0    11835.081    16.824394    19.816913    20.525721    6843.4305    10892.107    13100.028    11513.108   -996.39384   -203.24931   -677.27487   -2137.5194 
 5958000    298.69514   -3794.9719   -3283.0187   -3794.9719            0    8884.5619    16.870358    19.871053    20.581797    6899.6722    9652.4969    9643.4642    7357.7248    -91.74956   -120.53392    1100.6075   -2389.0128 
 5959000    280.83758   -3789.8806   -3308.5346   -3789.8806            0    9821.3089    16.874593    19.876042    20.586964    6904.8702    8732.9364    9525.1343    11205.856    2252.6653   -278.64399     373.0318   -2319.5244 
 5960000    291.95159   -3752.0348   -3251.6397   -3752.0348            0    10754.571     16.87619    19.877922    20.588912    6906.8301    12581.286    10852.802    8829.6247   -1242.5695    -860.3142   -644.58487   -2168.3422 
 5961000     291.4801   -3813.6826   -3314.0957   -3813.6826            0    11890.493    16.797746    19.785525     20.49321     6810.964    10352.484    13667.471    11651.523   -1152.7781   -343.33025   -20.047766    -2133.002 
 5962000    282.82391    -3833.876   -3349.1255    -3833.876            0    11989.193    16.859452    19.858207    20.568491    6886.2996    11140.313     12677.35    12149.917    1238.4464    305.17737    2931.6742   -2145.0554 
 5963000    290.06664   -3785.8638   -3288.6995   -3785.8638            0    11248.417    16.823619    19.816001    20.524775    6842.4847    9861.5611    13098.922    10784.767   -236.83796    488.96446    37.191966    -2166.213 
 5964000    274.62029     -3806.73   -3336.0403     -3806.73            0    10096.152    16.860888    19.859899    20.570244      6888.06    9877.3221    9484.2363    10926.897    1121.7128    12.472822   -408.31153   -2321.8284 
 5965000    271.03259   -3847.3974   -3382.8568   -3847.3974            0     11600.25    16.794139    19.781278     20.48881     6806.578    9476.4566    15645.132    9679.1603    812.18527   -404.09306    764.76951   -2231.3353 
 5966000    296.24009   -3815.7978   -3308.0524   -3815.7978            0    11431.132    16.780164    19.764817    20.471761    6789.6006    11665.821    11021.915    11605.658   -340.02368   -1066.1001   -777.28833   -2176.1491 
 5967000    285.85652   -3809.7353    -3319.787   -3809.7353            0    11248.426    16.790825    19.777374    20.484768    6802.5498     10979.67    12898.112     9867.496   -1053.7344    -535.4552    1204.2673   -2203.8508 
 5968000    267.69664   -3748.9448   -3290.1219   -3748.9448            0    12012.197    16.854178    19.851996    20.562058    6879.8402    12007.547    11498.612    12530.433    106.01493    377.98843   -511.64753   -2084.8731 
 5969000    284.75625   -3774.2734    -3286.211   -3774.2734            0    12601.156    16.779523    19.764061    20.470979    6788.8218    13174.133    14212.104     10417.23    1507.1075    2391.4754   -616.81483   -2038.5957 
 5970000    277.87984   -3818.8031   -3342.5266   -3818.8031            0    12922.678    16.752318    19.732018    20.437789    6755.8549    11670.264     12957.43    14140.339    -948.9098    -1317.048    1652.9338   -2069.2912 
 5971000    287.42847   -3809.3009   -3316.6583   -3809.3009            0    10365.211    16.827351    19.820397    20.529329      6847.04    11705.052    8835.7643    10554.818     1213.879   -449.61119   -805.10424   -2281.6188 
 5972000    273.64727   -3820.2318   -3351.2098   -3820.2318            0    10174.312    16.845453    19.841719    20.551413    6869.1606    11594.294    8697.0783    10231.563   -1228.1057     499.6531   -586.92767   -2331.9506 
 5973000    280.22023    -3816.648   -3336.3601    -3816.648            0    10024.547    16.863301    19.862741    20.573188    6891.0174    9671.8948     9598.317    10803.428    1464.7812    11.863069    -817.9177    -2328.909 
 5974000    281.99128   -3763.9592   -3280.6358   -3763.9592            0    9529.2806      16.8554    19.853435    20.563549    6881.3362    8788.5125    10388.898    9410.4317   -1126.0312     629.1941     863.5433   -2324.3036 
 5975000    281.19963   -3802.2186    -3320.252   -3802.2186            0    11225.877    16.835873    19.830434    20.539725    6857.4476    11468.091    11034.626    11174.913    905.27311    941.97111    -251.6648   -2197.5651 
 5976000    280.65281   -3775.0211   -3293.9918   -3775.0211            0    10728.222     16.89056    19.894849    20.606444    6924.4893    10193.113    10355.788    11635.765    -1383.651    68.414264   -1407.9409   -2210.5854 
 5977000    297.81807   -3728.1317   -3217.6817   -3728.1317            0    11251.285    16.854476    19.852347    20.562422     6880.205    10123.567    11859.737    11770.552    1211.6592   -613.89039    286.05118   -2088.7195 
 5978000    288.41545   -3766.3025   -3271.9683   -3766.3025            0    11429.378    16.854403     19.85226    20.562332    6880.1149    10899.103    10959.751    12429.279    1722.8811   -742.52201    1294.7824   -2125.1512 
 5979000    289.87675   -3795.2357   -3298.3969   -3795.2357            0    10170.093    16.862178    19.861418    20.571818    6889.6411    9281.1583    12061.111    9168.0094   -1036.3036    1087.7944    1546.6672   -2276.5227 
 5980000    279.88781   -3728.8388   -3249.1207   -3728.8388            0     11790.03    16.826064    19.818881    20.527759     6845.469    11290.089     12618.04    11461.962   -978.93312    6.9472738    1219.0232   -2072.0731 
 5981000    289.47123   -3793.1323   -3296.9885   -3793.1323            0    10294.692    16.842204    19.837892     20.54745    6865.1868    9509.9905     11160.71    10213.375   -30.462386    435.78351   -1095.2637   -2266.2664 
 5982000    273.89219   -3762.3433   -3292.9015   -3762.3433            0    12893.038    16.793247    19.780227    20.487722    6805.4933    13745.961    11947.513    12985.641    77.486249   -218.16873   -891.00764   -2013.2527 
 5983000    269.19159   -3756.0959   -3294.7107   -3756.0959            0    12739.156    16.772921    19.756286    20.462925    6780.8122    12124.825    13445.359    12647.284   -255.74538   -553.97483   -898.92403   -2034.9205 
 5984000    285.37144   -3772.0505   -3282.9336   -3772.0505            0    11995.328    16.834179    19.828439    20.537659    6855.3782    12700.547    12335.617    10949.819    1806.8903   -475.21307    449.99639   -2083.6569 
 5985000    272.14493   -3796.0188   -3329.5717   -3796.0188            0    10786.925    16.860998    19.860028    20.570378    6888.1944    12171.382    12266.962    7922.4308    1246.2662   -837.62439    936.41215   -2245.9469 
 5986000    284.85133   -3799.0122   -3310.7868   -3799.0122            0    10545.368     16.82717    19.820183    20.529108    6846.8184    11619.646    10946.076    9070.3818   -1540.2158   -668.30675    -1606.744   -2257.7915 
 5987000    283.16063   -3804.1952   -3318.8676   -3804.1952            0    13070.436    16.797483    19.785216     20.49289    6810.6447    11421.938     14422.55     13366.82    -789.9506   -185.96848    1907.6013     -2020.63 
 5988000     290.6581   -3794.1706   -3295.9926   -3794.1706            0    10979.937     16.92243    19.932387    20.645325    6963.7598    10125.475    10208.193    12606.144     450.6635   -681.21056    194.57996   -2180.8779 
 5989000    283.54554   -3791.0788   -3305.0914   -3791.0788            0    9686.1821    16.868147    19.868449      20.5791    6896.9602    9218.6258    10259.857    9580.0632    602.62336    1576.1657   -1274.2336    -2330.806 
 5990000    278.42547   -3759.1992   -3281.9875   -3759.1992            0    12822.784    16.824175    19.816656    20.525454    6843.1637    10526.074    14968.786    12973.492    488.63022   -886.78754   -1137.1239   -2002.2669 
 5991000    280.99017   -3809.3629   -3327.7554   -3809.3629            0    10239.504    16.839224    19.834382    20.543814    6861.5436    9897.8064    12090.524    8730.1811    251.52743    43.920803    -1305.962   -2303.1028 
 5992000    278.18677   -3761.3854   -3284.5828   -3761.3854            0      10115.8    16.900854    19.906974    20.619003    6937.1577    10585.451    10140.176    9621.7749   -239.52043    -1851.788   -350.46113   -2261.1538 
 5993000    290.66829   -3775.2768   -3277.0813   -3775.2768            0    10627.342    16.871557    19.872466     20.58326    6901.1441    11511.773    10706.823    9663.4303    430.16094    495.12834   -1005.0338   -2207.4807 
 5994000    300.39964    -3775.393   -3260.5183    -3775.393            0     13396.29    16.730307    19.706092    20.410935    6729.2602     13670.65    13018.006    13500.213   -1551.0229   -332.03516    616.92422    -1945.815 
 5995000    280.16107   -3739.3403   -3259.1538   -3739.3403            0    11524.814    16.840441    19.835815    20.545298    6863.0308    11331.349    11585.672    11657.421    393.14595    94.989265    1326.1271   -2105.6321 
 5996000    277.21912   -3759.1869   -3284.0429   -3759.1869            0    11616.221    16.854935    19.852887    20.562981    6880.7663    11148.287    11571.557    12128.819    2031.8286    273.74926    -732.1939   -2118.3677 
 5997000    280.42189   -3789.0881   -3308.4546   -3789.0881            0    10154.459    16.900723     19.90682    20.618843    6936.9963    10395.171     9325.089    10743.115    -1096.383     827.2538   -1814.3283   -2281.1384 
 5998000    300.19598   -3774.8034   -3260.2778   -3774.8034            0    10953.907     16.87093    19.871727    20.582495     6900.374    11034.077    10226.049    11601.595   -69.040673   -585.60928    684.08212   -2157.9327 
 5999000    278.63489   -3807.5223   -3329.9516   -3807.5223            0    9783.6269    16.836767    19.831487    20.540816    6858.5401    11056.132    10067.778    8226.9707   -552.86729    -1777.655    432.91029   -2351.3465 
 6000000    298.07661   -3788.8282   -3277.9351   -3788.8282            0    12940.997    16.861532    19.860657     20.57103    6888.8491    12141.557    13149.947    13531.486   -1620.0765   -195.30509     907.0747   -1977.7946 
Loop time of 518.059 on 64 procs for 250000 steps with 864 atoms

Performance: 83.388 ns/day, 0.288 hours/ns, 482.570 timesteps/s
184.5% CPU use with 32 MPI tasks x 2 OpenMP threads

MPI task timing breakdown:
Section |  min time  |  avg time  |  max time  |%varavg| %total
---------------------------------------------------------------
Pair    | 26.733     | 34.59      | 40.845     |  54.1 |  6.68
Bond    | 0.83377    | 1.1634     | 1.576      |  15.7 |  0.22
Kspace  | 226.59     | 235.9      | 243.96     |  22.5 | 45.53
Neigh   | 5.6974     | 6.0714     | 6.5756     |  10.3 |  1.17
Comm    | 110.28     | 114.74     | 120.85     |  24.1 | 22.15
Output  | 0.59259    | 0.5929     | 0.5957     |   0.1 |  0.11
Modify  | 93.299     | 98.346     | 103.43     |  32.8 | 18.98
Other   |            | 26.66      |            |       |  5.15

Nlocal:        27.0000 ave          31 max          22 min
Histogram: 2 2 2 2 3 8 5 2 2 4
Nghost:        2641.62 ave        2687 max        2607 min
Histogram: 4 5 1 3 8 4 3 0 2 2
Neighs:        8948.66 ave       11101 max        6585 min
Histogram: 2 4 1 6 2 3 4 5 2 3

Total # of neighbors = 286357
Ave neighs/atom = 331.43171
Ave special neighs/atom = 2.0000000
Neighbor list builds = 16063
Dangerous builds = 1

unfix		3
unfix		2
unfix		1

write_data	data.final.${pid}
write_data	data.final.1
System init for write_data ...
PPPM initialization ...
  extracting TIP4P info from pair style
  using 12-bit tables for long-range coulomb (../kspace.cpp:340)
  G vector (1/distance) = 0.37481392
  grid = 24 24 24
  stencil order = 5
  estimated absolute RMS force accuracy = 0.0030985543
  estimated relative force accuracy = 9.3312043e-06
  using double precision FFTW3
  3d grid and FFT values/proc = 3549 432
Last active /omp style is kspace_style pppm/tip4p/omp
WARNING: Not all mixed pair coeffs generated from mixing. Use write_data with 'pair ij' option to store all pair coeffs. (../write_data.cpp:312)

write_restart   restart.lmp.${pid}
write_restart   restart.lmp.1
System init for write_restart ...
PPPM initialization ...
  extracting TIP4P info from pair style
  using 12-bit tables for long-range coulomb (../kspace.cpp:340)
  G vector (1/distance) = 0.37481392
  grid = 24 24 24
  stencil order = 5
  estimated absolute RMS force accuracy = 0.0030985543
  estimated relative force accuracy = 9.3312043e-06
  using double precision FFTW3
  3d grid and FFT values/proc = 3549 432
Last active /omp style is kspace_style pppm/tip4p/omp
Total wall time: 0:08:38
