LAMMPS (30 Jul 2021)
Processor partition = 0
  using 2 OpenMP thread(s) per MPI task
using multi-threaded neighbor list subroutines
variable        pid world 0 1
variable        phase world IceIh IceIII

shell cd ${phase}
shell cd IceIh
include Restart.lmp
echo both
log log.lammps
#include		in.partitions
include		in.temp
variable        temperature equal 250.22
variable	tempDamp equal 100.0
include		in.pressure
variable        pressure equal 1431.5
variable        pressureDamp equal 1000.0 # This is 1 ps
include		in.seed
variable        seed equal 745823

units		real
atom_style	full
#include		in.box
read_restart	restart.lmp.${pid}
read_restart	restart.lmp.0
Reading restart file ...
  restart file = 30 Jul 2021, LAMMPS = 30 Jul 2021
  restoring atom style full from restart
  orthogonal box = (-0.0040055271 0.0029935990 0.082226652) to (18.211578 23.626184 22.130969)
  2 by 4 by 4 MPI processor grid
  restoring pair style lj/cut/tip4p/long/omp from restart
  restoring bond style harmonic/omp from restart
  restoring angle style harmonic/omp from restart
  864 atoms
  576 bonds
  288 angles
Finding 1-2 1-3 1-4 neighbors ...
  special bond factors lj:    0        0        0       
  special bond factors coul:  0        0        0       
     2 = max # of 1-2 neighbors
     1 = max # of 1-3 neighbors
     1 = max # of 1-4 neighbors
     2 = max # of special neighbors
  special bonds CPU = 0.003 seconds
  read_restart CPU = 0.009 seconds
include 	in.setup
variable	out_freq equal 1000
variable	out_freq2 equal 10000
variable	out_freq3 equal 1000

timestep	2.0

neigh_modify    delay 7 every 1

include		in.tip4p
# This is TIP4P/Ice

# create groups ###
group ox type 2
288 atoms in group ox
group hy type 1
576 atoms in group hy

# set charges - beside manually ###
set group ox charge -1.1794
Setting atom values ...
  288 settings made for charge
set group hy charge 0.5897
Setting atom values ...
  576 settings made for charge

# ### TIP3P Potential Parameters ###
pair_style lj/cut/tip4p/long/omp 2 1 1 1 0.1577 8.5
pair_coeff 1 1*2 0.000 0.000
pair_coeff 2 2 0.21084 3.1668
bond_style  harmonic
bond_coeff  1 450 0.9572
angle_style harmonic
angle_coeff 1 55 104.52
kspace_style pppm/tip4p/omp 1.0e-5
pair_modify tail yes

thermo          ${out_freq}
thermo          1000
thermo_style    custom step temp pe etotal epair emol press lx ly lz vol pxx pyy pzz pxy pxz pyz enthalpy

restart 	${out_freq3} restart.lmp.${pid} restart2.lmp.${pid}
restart 	1000 restart.lmp.${pid} restart2.lmp.${pid}
restart 	1000 restart.lmp.0 restart2.lmp.${pid}
restart 	1000 restart.lmp.0 restart2.lmp.0


include         in.dump
dump            myDump all atom ${out_freq2} dump.water.${pid}
dump            myDump all atom 10000 dump.water.${pid}
dump            myDump all atom 10000 dump.water.0
dump            myDump2 all dcd ${out_freq2} dump.dcd
dump            myDump2 all dcd 10000 dump.dcd
dump_modify     myDump append yes
dump_modify     myDump2 append yes


variable natoms 	equal  "count(all)"                        # NUMBER ATOMS
variable H      	equal  "enthalpy/v_natoms"                 # ENTHALPY-per-atom
variable Vol      	equal  "vol/v_natoms"                 # volume-per-atom
fix AVG all 		ave/time ${out_freq} 1 ${out_freq} v_Vol v_H file vol_enthalpy.dat
fix AVG all 		ave/time 1000 1 ${out_freq} v_Vol v_H file vol_enthalpy.dat
fix AVG all 		ave/time 1000 1 1000 v_Vol v_H file vol_enthalpy.dat


timer           timeout 23:50:00 every 1000
New timer settings: style=normal  mode=nosync  timeout=23:50:00

fix 		1 all shake 1e-6 200 0 b 1 a 1
Finding SHAKE clusters ...
       0 = # of size 2 clusters
       0 = # of size 3 clusters
       0 = # of size 4 clusters
     288 = # of frozen angles
  find clusters CPU = 0.001 seconds
fix             2 all nph aniso ${pressure} ${pressure} ${pressureDamp}
fix             2 all nph aniso 1431.5 ${pressure} ${pressureDamp}
fix             2 all nph aniso 1431.5 1431.5 ${pressureDamp}
fix             2 all nph aniso 1431.5 1431.5 1000
fix             3 all temp/csvr ${temperature} ${temperature} ${tempDamp} ${seed}
fix             3 all temp/csvr 250.22 ${temperature} ${tempDamp} ${seed}
fix             3 all temp/csvr 250.22 250.22 ${tempDamp} ${seed}
fix             3 all temp/csvr 250.22 250.22 100 ${seed}
fix             3 all temp/csvr 250.22 250.22 100 745823


run             250000
PPPM initialization ...
  extracting TIP4P info from pair style
  using 12-bit tables for long-range coulomb (../kspace.cpp:340)
  G vector (1/distance) = 0.37118166
  grid = 24 27 25
  stencil order = 5
  estimated absolute RMS force accuracy = 0.0032118298
  estimated relative force accuracy = 9.6723302e-06
  using double precision FFTW3
  3d grid and FFT values/proc = 4410 672
Last active /omp style is kspace_style pppm/tip4p/omp
Neighbor list info ...
  update every 1 steps, delay 7 steps, check yes
  max neighbors/atom: 2000, page size: 100000
  master list distance cutoff = 10.8154
  ghost atom cutoff = 10.8154
  binsize = 5.4077, bins = 4 5 5
  1 neighbor lists, perpetual/occasional/extra = 1 0 0
  (1) pair lj/cut/tip4p/long/omp, perpetual
      attributes: half, newton on, omp
      pair build: half/bin/newton/omp
      stencil: half/bin/3d
      bin: standard
Setting up Verlet run ...
  Unit style    : real
  Current step  : 750000
  Time step     : 2
  Walltime left : 23:49:59.93
Per MPI rank memory allocation (min/avg/max) = 10.19 | 10.21 | 10.22 Mbytes
Step Temp PotEng TotEng E_pair E_mol Press Lx Ly Lz Volume Pxx Pyy Pzz Pxy Pxz Pyz Enthalpy 
  750000     272.2393   -4244.4683   -3777.8595   -4244.4683            0    45.372431    18.215583    23.623191    22.048742    9487.7988    653.01323   -1148.8829    631.98699    288.54741   -86.321371    388.59564   -3771.5813 
  751000    244.66826    -4242.461    -3823.108    -4242.461            0    642.14892     18.11297    23.497968    22.146397     9425.905   -457.48984    1159.9127    1224.0239    83.887515   -436.29212    318.43044   -3734.8336 
  752000    242.66821   -4242.6923   -3826.7673   -4242.6923            0    1804.6189    18.015686    23.357686     22.18229    9334.4124    1016.6085    2311.1207    2086.1275   -387.64185   -842.74207    425.49289   -3581.0995 
  753000    252.77497   -4260.2592   -3827.0116   -4260.2592            0    2808.3274    18.138428    23.473412    21.711545    9244.1415    1436.9816    2280.7246     4707.276    98.289082   -922.46203   -82.440625   -3448.4032 
  754000    240.44142   -4281.7997   -3869.6913   -4281.7997            0    1044.2582     17.95216    23.514251    22.234169    9385.7452    1099.8688    2148.4553   -115.54967    543.48275     938.0596    266.22976   -3726.7517 
  755000    252.33002   -4244.4491   -3811.9641   -4244.4491            0    788.41226    18.016433    23.555222    22.039337    9353.0775    916.60408    76.720688     1371.912   -720.84038    -383.3584   -284.81748   -3704.4207 
  756000    254.86754    -4244.355   -3807.5208    -4244.355            0    1675.6428    18.252018    23.606198    21.773368      9381.29    532.60068    2932.7206    1561.6071    -343.7766     229.1467   -538.03964   -3578.2652 
  757000    250.72145   -4253.0738   -3823.3458   -4253.0738            0    1295.8067    17.955296    23.456598     22.29184    9388.6578    3255.3164    538.19627    93.907429   -157.56075   -75.670341    28.105437   -3645.9188 
  758000    256.87901   -4248.3495   -3808.0677   -4248.3495            0    1250.0538    18.189059    23.352842     22.06642    9373.0698    327.38371    708.62511    2714.1525    1019.2971   -186.17996    194.99205   -3637.1896 
  759000    251.71174   -4227.6434    -3796.218   -4227.6434            0    1610.4322    18.274573    23.347495     21.98711    9381.1412    1134.7791    641.04428    3055.4733   -553.66504   -440.05708   -975.83062   -3575.8879 
  760000    255.18188   -4253.6504   -3816.2774   -4253.6504            0      2488.04    18.019151    23.394145     22.15647    9339.8969     3700.273    3485.8319    278.01499   -718.39705    175.62928   -775.90736   -3477.3745 
  761000    256.03276   -4267.2271   -3828.3957   -4267.2271            0     982.4314    18.018266    23.876542    21.832762    9392.7573    777.85605    346.51241    1822.9257   -111.32398    1095.9731   -338.04808   -3693.8186 
  762000    252.71431   -4212.3349   -3779.1913   -4212.3349            0    2094.9183    18.050189    23.554889    22.000052    9353.7664     1857.253    1659.1217    2768.3802    424.20181   -471.09258    1128.5118   -3493.4128 
  763000     248.9973   -4221.1885   -3794.4156   -4221.1885            0    943.24137    18.098773    23.418576    22.193327    9406.5862    1195.2078    688.47199     946.0443   -661.98115   -956.93822   -100.00467   -3665.0167 
  764000    252.76255   -4278.1048   -3844.8784   -4278.1048            0    1347.1391    18.097576    23.380161    22.111971     9356.111     2921.697    1006.9048    112.81558     598.1974   -60.736791    62.728859   -3661.0623 
  765000    248.82044   -4251.5641   -3825.0943   -4251.5641            0    1101.1667    18.054168    23.724001     21.95941    9405.5907    1067.0138    956.71727    1279.7691    578.97597    219.84017    221.13123   -3674.0463 
  766000    252.00158   -4256.4535   -3824.5314   -4256.4535            0     726.9336    17.998785    23.601921     22.24158    9448.3542    2018.1473   -410.30583    572.95937   -299.63685    914.43676    203.16164   -3724.3639 
  767000    249.29514   -4243.0239   -3815.7405   -4243.0239            0    2519.7241    18.117698    23.287838    22.062468    9308.6409     2889.699    2078.5743     2590.899   -611.22668    95.671081   -101.24981   -3473.6704 
  768000    237.67867   -4258.6191    -3851.246   -4258.6191            0     891.3455    18.198943    23.430707    22.087305    9418.3383    1842.2033   -301.01061    1132.8438    1243.8403    207.37053   -202.68953   -3728.8136 
  769000    255.83146   -4257.2125   -3818.7262   -4257.2125            0    2076.5479    17.949147     23.36703    22.230607    9323.9222    2283.2055    2570.4006    1376.0377    90.486432   -164.53091    -68.55848   -3536.3575 
  770000    250.94799   -4275.4309   -3845.3147   -4275.4309            0    2112.2106    18.023526    23.658495    21.920325    9347.0347    1727.3661    2592.4655    2016.8004   -528.05575   -456.41764   -566.25426   -3557.3846 
  771000    241.83313   -4256.0583   -3841.5646   -4256.0583            0    1217.5956    17.985983    23.761171     21.95709    9383.7582    1454.2443    602.13581    1596.4066    753.55465   -57.588758    -65.17693   -3674.9336 
  772000     256.9393   -4246.7163   -3806.3311   -4246.7163            0    1765.5904    17.982319    23.434157    22.198817    9354.5924     1337.306    2625.6682     1333.797   -114.01829   -852.86173    572.00933   -3565.4567 
  773000    238.25408   -4258.8612   -3850.5019   -4258.8612            0     1123.257    18.235362     23.43061    21.985816    9393.7844   -239.64798    1353.4654    2255.9537   -1422.8349     44.85415    493.51169   -3696.6171 
  774000    267.23031   -4224.6974   -3766.6738   -4224.6974            0    2706.9283    18.175061      23.0685    22.217058    9314.9768    2930.3534    3005.3902    2185.0413   -34.164419   -15.706642    96.209648   -3398.9393 
  775000    242.28311   -4227.2156   -3811.9506   -4227.2156            0    1393.3861    18.044802    23.422218       22.089    9335.8997    1484.0146    2752.8035   -56.659891   -10.950074    537.44443    761.49267   -3622.2348 
  776000    260.56827   -4232.3108   -3785.7057   -4232.3108            0    1607.6671    17.944633    23.889145    21.926938    9399.6822    2241.7819    842.94965    1738.2698    883.23877    75.656996   -277.98543   -3565.3191 
  777000    256.36917   -4240.3367   -3800.9287   -4240.3367            0    659.11919    17.984213    23.592956    22.159266    9402.1932    1603.1311    347.14847    27.078027    194.65058    -337.7746    83.807526   -3710.5494 
  778000    240.11958   -4250.2054   -3838.6486   -4250.2054            0     2171.841     18.28196      23.1291    22.029693    9315.1517    1566.5831    2539.1085    2409.8313    3.8314671   -537.11845    651.74136   -3543.5998 
  779000    250.74727   -4280.7084   -3850.9362   -4280.7084            0    2201.3165    18.138111    23.261949    22.049552    9303.3194    573.93442    2442.7018    3587.3132   -203.40045    258.82629   -399.64121    -3552.263 
  780000    255.51322   -4238.1911   -3800.2502   -4238.1911            0    1286.6393    18.081817    23.455494     22.13842    9389.3015    1930.2302    309.87821    1619.8096    379.59711    -370.9795    199.91759   -3624.0664 
  781000    262.26617   -4247.0189   -3797.5037   -4247.0189            0      437.319    18.093368    23.902655    21.898454    9470.6332    2159.5565   -805.04273   -42.556739   -33.168185   -250.09032   -121.86632   -3737.1014 
  782000    265.56356   -4263.8766   -3808.7097   -4263.8766            0     577.6999    18.033082    23.639696    22.048695     9399.283    1043.3645   -274.56692    964.30208    986.43781    249.68694   -1106.0847   -3729.5193 
  783000    255.29456   -4258.4996   -3820.9335   -4258.4996            0    1495.9432    17.867089    23.487775    22.392913    9397.3687    3026.9957    1801.0565   -340.22268    346.19085   -170.79303   -609.97523    -3615.913 
  784000    246.99192    -4275.513   -3852.1773    -4275.513            0    407.02965    18.345105    23.391617    21.957468    9422.4254   -380.92815    513.51408     1088.503      185.832   -816.78227    806.18836   -3796.2448 
  785000    247.83813   -4287.6721    -3862.886   -4287.6721            0    2718.8037    18.101864    23.190075    22.076048    9267.1626    3007.7008    2799.1363    2349.5739   -1152.0063   -203.67418    215.43501   -3495.4341 
  786000    229.84012   -4240.5182   -3846.5801   -4240.5182            0    2392.8043    18.000309    23.335283    22.077898     9273.651     1487.525    2190.2211    3500.6667   -309.89801   -193.18196    573.42948   -3522.9613 
  787000    250.32379   -4242.8776   -3813.8312   -4242.8776            0    1649.1407    18.033418    23.619821    21.883528    9321.2037    2371.2971    1356.4088    1219.7161   -125.13777    256.30678    794.98569   -3589.6467 
  788000    261.47431   -4268.5681   -3820.4101   -4268.5681            0    2335.2485    17.780359    23.561608    22.267525    9328.6202    3218.3923    1720.5179    2066.8353    493.80216   -14.540253    397.61036   -3502.7034 
  789000    255.39294   -4259.8227    -3822.088   -4259.8227            0    1409.9561    18.021709    23.569433    22.202489    9430.7613    1659.7073    2286.2014    283.95971    102.78398    70.856622   -345.50159   -3628.1655 
  790000    243.54264   -4253.3787   -3835.9549   -4253.3787            0    550.12657    18.261667    23.534727    21.846896    9389.4321   -738.39306    343.49737    2045.2754   -202.00132   -430.31136    261.91281   -3760.6232 
  791000    253.31445   -4265.0866   -3830.9144   -4265.0866            0     1742.832    18.046756    23.348418     22.08286    9304.9043     2467.242    1575.5034    1185.7506     939.8033    68.523926   -47.423004   -3594.4077 
  792000    242.62806   -4251.3019   -3835.4457   -4251.3019            0    1514.0749    18.192552    23.349042     22.04818    9365.5963    1212.2917    2883.0404    446.89269    236.83851   -464.65592   -121.94528   -3628.6418 
  793000    252.35517   -4251.8883   -3819.3602   -4251.8883            0    1044.2996    18.230951    23.332332    22.027106    9369.6829    1718.7366    686.46106    727.70099    379.61438    163.15204     537.4223   -3676.6596 
  794000    240.83648   -4230.2218   -3817.4363   -4230.2218            0     1360.913    17.858281    23.482107    22.351342    9373.0369    2156.8865    954.09304     971.7594    -278.4825    69.397838    96.268406   -3631.4048 
  795000    244.51277    -4292.252   -3873.1655    -4292.252            0    1899.8047    17.840223    23.749828    22.009995    9325.6838    2770.5147    387.06001    2541.8393    429.63417    125.61619    669.82973   -3614.7816 
  796000    253.23063   -4246.2394   -3812.2107   -4246.2394            0    1312.7936    18.026334    23.524856    22.061383    9355.5027     1831.654    1226.8778    879.84909    420.76917   -163.59979   -114.78943   -3633.0926 
  797000    240.98822   -4256.7532   -3843.7077   -4256.7532            0    1258.1158    18.227878    23.272741    22.157366    9399.4361     1338.221    1213.0196     1223.107   -660.62996    96.973597   -1092.1548   -3671.2437 
  798000      265.009   -4267.3502   -3813.1338   -4267.3502            0    719.05215    18.485759    23.196067    21.915184    9397.1631   -1631.1337    1892.2655    1896.0247      276.384    226.74114    396.72679   -3714.5892 
  799000    256.38563   -4252.9686   -3813.5324   -4252.9686            0    1292.9862    18.080537    23.485841    22.170841    9414.5507     1544.678    1795.5308    538.74991     665.2104   -233.10395    716.39774   -3636.0034 
  800000    240.12095   -4250.7122   -3839.1531   -4250.7122            0    2544.6696    17.893916    23.439309    22.241028    9328.3548     2819.383    3430.8936    1383.7321    228.07991   -529.51268    452.20244   -3492.9648 
  801000    261.81238     -4241.74   -3793.0026     -4241.74            0    1121.1544    17.786714    23.841061    22.017117    9336.4492    1954.8815    29.172954    1379.4086    2029.4402    -1274.873    284.54226   -3640.3433 
  802000    253.69845   -4267.5428   -3832.7123   -4267.5428            0    708.23124    17.992807    23.667918    22.063993    9396.0015     19.54494    1028.4177    1076.7311    1047.8326    675.91769   -84.992961   -3735.6626 
  803000    244.31242   -4263.4313   -3844.6882   -4263.4313            0    2169.3422    18.215972    23.162061    22.234036    9380.9721    1058.6621    2597.9815    2851.3831    102.94902    -2.900549   -582.03674   -3547.8965 
  804000     245.1979   -4229.2013   -3808.9405   -4229.2013            0    2064.8619    18.261291    23.279081    21.964359    9337.1824    978.17394    2147.8114    3068.6005   -700.87276       470.92    940.51948   -3527.7616 
  805000     250.8854   -4257.5216   -3827.5126   -4257.5216            0    345.67095    18.428742    23.223719    22.130345    9471.4318   -851.97437    1041.9991    846.98812   -70.365625    -1163.194     230.4848   -3779.7647 
  806000    270.20262   -4255.1572   -3792.0391   -4255.1572            0   -392.63465    18.058517    23.558583    22.222936    9454.3721    529.81884   -1708.4146   0.69181777   -35.601391    129.27681    28.204827   -3846.1765 
  807000    257.67102   -4267.7499   -3826.1106   -4267.7499            0    2264.7248    17.842353    23.653785     22.06125    9310.7116    2541.2049    2104.2577    2148.7118   -251.19257    -1345.639   -378.92078     -3518.59 
  808000    248.23656   -4247.4856   -3822.0166   -4247.4856            0    1086.8654    17.992296    23.739941    22.039384    9413.8149    1211.4423    1642.1301    407.02382   -393.13162   -543.01891   -105.57572   -3672.7999 
  809000    251.10348    -4250.706   -3820.3232    -4250.706            0    1234.0372    18.183818    23.314085    22.027437    9338.2914    814.94311    825.92743    2061.2412   -631.86749    693.07007   -202.83491   -3652.2604 
  810000    248.43285   -4285.3991   -3859.5937   -4285.3991            0    787.56598    18.419169     22.95819    22.080203    9337.0727   -1472.1276    2722.4537    1112.3719   -174.17297    141.48012    231.31905   -3752.3496 
  811000    252.15342    -4253.368   -3821.1857    -4253.368            0    2124.9208    18.135497    23.383363    22.023736    9339.5821    2730.1288    945.85292    2698.7806    337.93586     756.9966   -176.85675    -3531.754 
  812000    255.59784   -4244.9717   -3806.8858   -4244.9717            0    2128.8128    17.845807    23.811559    22.020932    9357.4973      2636.48    484.45464    3265.5037    481.71712   -1076.3058   -332.68063   -3516.3678 
  813000    256.97555   -4223.8408   -3783.3935   -4223.8408            0    1578.3261    17.871233    23.651851    22.119805      9349.77    3125.4974    287.38059    1322.1003   -329.04394   -239.46455    -630.1312    -3568.178 
  814000     241.5252    -4235.074    -3821.108    -4235.074            0     2800.887    18.205044     23.40535    21.882243     9323.924    2006.6346    1902.6433    4493.3831   -420.68397   -255.49562    667.37789   -3440.2438 
  815000    244.43366   -4275.8072   -3856.8562   -4275.8072            0    1097.6332    18.157435    23.274216    22.219804    9390.0905    1990.1972    1655.1754   -352.47291   -604.09726   -646.65479    660.53831    -3706.541 
  816000    265.40668   -4248.8409   -3793.9429   -4248.8409            0    1249.8162    18.106358     23.37249    22.206167    9397.4426    1822.7558    1305.7137    620.97922    732.64966    355.28814   -3.2229188    -3622.653 
  817000    236.27103   -4263.6061   -3858.6457   -4263.6061            0    1394.0458    18.086944    23.557228    21.877444    9321.5033    861.66306     715.3155    2605.1589    314.38527   -470.78615   -157.61681   -3669.1327 
  818000    249.10074     -4256.61   -3829.6598     -4256.61            0     1444.116    17.722838    23.755514     22.21493     9352.822    1133.9323    848.88999    2349.5256   -837.20969    55.366926    1087.8636   -3632.6805 
  819000    244.23716   -4279.6406   -3861.0265   -4279.6406            0    1386.5022    17.913354    23.592496    22.141914    9357.6317    1540.7452    752.40606    1866.3554    604.32273    501.91168   -28.501167   -3671.8085 
  820000     249.4277   -4249.7558   -3822.2453   -4249.7558            0    1783.8526    18.158691    23.440156    21.820752    9287.8403    1472.6265    1508.5103    2370.4209   -641.16912    86.642068    458.06747    -3580.616 
  821000    245.56257   -4250.1668   -3829.2809   -4250.1668            0    1654.4154    18.085626     23.33178    22.196267    9366.1548    1117.1208    1385.6018    2460.5234   -119.53047    -453.1485     283.3324   -3603.2948 
  822000    262.61806   -4213.3238   -3763.2055   -4213.3238            0    2438.3104    18.280061    23.274056    21.968165     9346.381    956.57978    3173.5897    3184.7616   -510.36237   -494.26072   -59.888738   -3430.8458 
  823000    246.17091   -4280.6949   -3858.7663   -4280.6949            0    306.20527    18.183044    23.509514     21.94774    9382.0999    461.94427   -653.75752    1110.4291   -763.32985   -433.44865    168.30012   -3816.8688 
  824000    251.63051   -4270.3178   -3839.0317   -4270.3178            0    530.60132    17.965151    23.474551    22.284003    9397.6957    406.19655    1218.1317   -32.524282   -298.39946     141.8028    635.57111   -3766.3097 
  825000    240.53019   -4236.2172   -3823.9566   -4236.2172            0    643.79182     18.12123    23.491656    22.097529    9406.8672   -247.18536    1535.0976    643.46325    -14.89503    450.08911    571.26108   -3735.6352 
  826000    245.54475   -4257.1479   -3836.2926   -4257.1479            0     1491.867    18.144064    23.481105    22.029716    9385.5993    2247.6727    1409.7866     818.1417    138.02058     432.1141    -240.3648   -3632.0869 
  827000    254.67146   -4282.3622    -3845.864   -4282.3622            0     988.2408    17.945334    23.481404    22.245247    9373.7384    1725.7176    2316.1675   -1077.1627   -982.50129   -234.59583   -122.62924   -3710.7652 
  828000    253.26038   -4207.4455   -3773.3659   -4207.4455            0    3854.4583    18.259543    23.326232    21.725124    9253.3024    2695.2079    4108.1431     4760.024    572.41282  -0.69936176    -279.5654    -3253.207 
  829000    248.64275    -4262.813   -3836.6478    -4262.813            0    1360.0937    18.101238    23.356549    22.106929    9346.4217    2025.7409    871.28264    1183.2577   -523.24758    161.50568    976.83529   -3651.2562 
  830000    261.51855   -4238.9015   -3790.6676   -4238.9015            0    335.52942    18.288385    23.411145    22.100552    9462.3962    914.84278    603.85127   -512.10579   -336.69625   -1378.5187    389.50445   -3744.3648 
  831000    237.43986   -4235.9144   -3828.9506   -4235.9144            0    1747.0917    18.175495    23.511637    21.971228     9389.089    1270.3562    1027.1766    2943.7422    874.12436    -578.0481   -121.74364   -3589.7209 
  832000    251.08866   -4280.0059   -3849.6485   -4280.0059            0    1534.9411    17.885193     23.27254    22.420065    9331.9907    1118.7897    918.97506    2567.0585    27.865393    200.48915     609.6935   -3640.7469 
  833000    245.71586   -4269.4462   -3848.2976   -4269.4462            0    1914.0197    18.017702    23.634281    21.908458    9329.3975    3213.3119    1946.4451    582.30207   -203.01589     58.71879    526.85587   -3587.8767 
  834000    266.49195   -4238.6783   -3781.9202   -4238.6783            0    537.62999    18.192419    23.626508    21.944063    9432.0705    371.62583    190.46225    1050.8019   -1303.8047   -32.441347   -774.07388   -3707.9654 
  835000    246.97305   -4256.6725   -3833.3691   -4256.6725            0    484.15887     18.01365    23.412783    22.445371    9466.3278    2015.0035   -95.392997   -467.13394   -513.50833   -952.70383    207.60888   -3766.5278 
  836000     249.0935   -4250.3565   -3823.4187   -4250.3565            0     2520.809    18.036228    23.398922    21.985734    9278.6019    2232.8591    1251.5241    4078.0437    1121.3455   -238.24263   -105.40298   -3482.3057 
  837000     246.2499   -4265.7746   -3843.7107   -4265.7746            0     291.3061    18.300266    23.393136    21.993432    9415.4019     651.2652    758.39299   -535.73989    318.18047   -119.17403    651.29277   -3803.7103 
  838000     254.8427   -4232.6792   -3795.8875   -4232.6792            0    2501.0576    18.222499    23.300615    21.945493    9317.9565     1958.421    3032.7485    2512.0032   -664.03641   -186.07644    31.280313   -3456.0117 
  839000     242.4328   -4279.8554   -3864.3339   -4279.8554            0    1396.2877    17.940859    23.519191     22.05192    9304.9068    2163.0856    1176.8393    848.93816    1540.6513   -535.79424     420.6565   -3674.8541 
  840000    250.52345    -4252.403   -3823.0144    -4252.403            0    2375.9749    17.988567    23.715331    21.884917    9336.2115    2933.9394    945.24303    3248.7424   -37.506428    -538.1727   -345.84024   -3499.5039 
  841000     239.0694   -4259.7176   -3849.9608   -4259.7176            0    614.73024    18.041774     23.54221    22.171485    9417.1876    772.78594    1186.2934   -114.88858   -1075.4423   -82.599226   -351.69064   -3765.5337 
  842000    256.06274   -4253.2744   -3814.3916   -4253.2744            0    2032.0219    18.029435    23.460912    22.112818    9353.4342    2671.4994    1368.3431    2056.2233     2.729636    -409.5598   -700.24621    -3537.203 
  843000    240.68256   -4257.9069   -3845.3852   -4257.9069            0    1757.5243    18.042224    23.375951    22.180266     9354.619    3182.4115    1426.3835    663.77778   -1396.4586    -386.6252    603.42806   -3605.6106 
  844000    248.46652   -4265.3192    -3839.456   -4265.3192            0    749.35808    18.091952    23.691177     21.86512    9371.8197    599.35708    -575.3395    2224.0567   -87.046095   -346.20412    -54.76045    -3737.035 
  845000    247.65748   -4265.4907   -3841.0143   -4265.4907            0     2916.655     17.87723    23.652488    22.029818    9315.1096    3518.6925    1750.4452    3480.8274   -230.16505   -69.282252    -293.6284   -3444.7829 
  846000    257.07637    -4248.164   -3807.5439    -4248.164            0    1000.7589    17.800901    23.513262    22.376187    9365.7153     2693.047    837.16799   -527.93841    95.605424    576.58234    199.94087   -3670.8509 
  847000     240.0795    -4232.723   -3821.2349    -4232.723            0    1173.7747    18.194165    23.360518    22.002727    9351.7115    2158.6079    410.03959    952.67669    920.93901    101.29355    179.10938   -3661.1495 
  848000    248.44799   -4277.9037   -3852.0723   -4277.9037            0    2101.1206    18.184388    23.149444    21.987626    9255.8773    3099.4866    2137.5117    1066.3636    83.612994    610.73617    375.15136   -3568.4474 
  849000    247.55931   -4245.8322    -3821.524   -4245.8322            0     1853.762    18.014002     23.34046    22.035876    9265.0964    3083.3781    1588.8816    889.02632    145.15421    216.19696   -461.25782   -3571.0401 
  850000    243.92736   -4260.4165   -3842.3334   -4260.4165            0    2027.1045    17.933462    23.568246    21.947986    9276.5411    2454.2328    1994.1373    1632.9435   -386.57464    547.65298   -362.38897   -3568.0887 
  851000    248.31822   -4281.6003   -3855.9914   -4281.6003            0    539.71598    17.929271    23.494451     22.33952    9410.2632    2217.7309   -61.953093   -536.62991    270.22289    601.67152    139.66669   -3781.9213 
  852000    253.38486    -4250.248   -3815.9551    -4250.248            0    1964.5923    18.078089     23.42224    22.144197    9376.5031    2099.9397    3118.6562    675.18094    924.19424    -128.8563    358.81328   -3547.3036 
  853000    243.06278   -4231.6121   -3815.0108   -4231.6121            0    695.54798    18.230827     23.33861    22.081077    9395.1045     1645.437    45.180313    396.02663   -321.33805   -766.15694    236.20667   -3719.7082 
  854000    236.73231   -4220.4828   -3814.7317   -4220.4828            0    1423.1222    18.331122    22.957437    22.129467    9312.8674    2062.0997    1439.8185    767.44847   -41.769856   -1032.7154    996.99876   -3621.4452 
  855000    263.43567   -4250.9213   -3799.4015   -4250.9213            0     960.7506    18.174066    23.420894    22.122191    9416.3742    612.83018     1458.651    810.77066   -1018.2743   -345.05262    1236.0603   -3667.4634 
  856000    235.90005   -4262.4851   -3858.1605   -4262.4851            0    1806.3504    17.797389    23.722473    22.111505    9335.4351    2758.1181     1132.187    1528.7461     1185.093   -799.55888    7.3790633   -3612.2299 
  857000    234.78268   -4250.4566   -3848.0472   -4250.4566            0    826.12486    18.037824    23.557228    22.104806    9392.7991   -458.24843    1262.0446    1674.5784   -868.55376   -682.36618   -9.7929221    -3734.881 
  858000     255.8414   -4259.7207   -3821.2173   -4259.7207            0    1702.5455    18.050025    23.603356    21.897884    9329.4001    1344.2268    1124.8514    2638.5583    222.38433    1094.3735    305.46055   -3589.5695 
  859000    239.80025   -4245.2301   -3834.2207   -4245.2301            0    651.45958    18.043595    23.434323    22.302635    9430.4336    574.92588    1666.9136   -287.46074   -949.51504   -353.90601    144.86286   -3744.6234 
  860000    240.13745   -4243.8954    -3832.308   -4243.8954            0    1555.4812    17.940306    23.418714    22.225619    9337.8468    1853.0086    2924.8378   -111.40291    -244.3693   -192.15813    411.40741   -3620.4781 
  861000     255.8171   -4254.8351   -3816.3734   -4254.8351            0    1082.4691    18.219615    23.497119    21.900892     9375.957    1047.8985   -287.77326    2487.2821    121.43031   -199.66665      479.629   -3668.3579 
  862000    247.11815   -4253.1928   -3829.6408   -4253.1928            0    2369.6647    18.128968    23.194853    22.126337    9304.0972    2289.2288    1733.2265    3086.5386   -955.82424     174.5913   -506.17709   -3508.0993 
  863000    243.51196   -4253.0103   -3835.6391   -4253.0103            0    999.56949    18.027336    23.429684    22.203515     9378.205     1706.546    603.67437    688.48807   -56.118866    21.251304   -667.64889   -3698.9265 
  864000    251.28774   -4220.1372   -3789.4386   -4220.1372            0    130.55126    18.104358    23.973595    21.781591     9453.789    -179.0673    301.91421    268.80686    331.00182   -202.36079   -977.95397    -3771.439 
  865000     255.2155   -4244.9888   -3807.5581   -4244.9888            0    2949.4975     17.99997    23.356356    22.129023    9303.3443    3747.6883    2634.8837    2465.9206   -316.34103    122.42841    600.16027   -3407.3711 
  866000    250.47001   -4272.4921    -3843.195   -4272.4921            0    1768.8413    18.085227    23.229192    22.288131    9363.3602    2447.2029    2486.6829    372.63807    155.61727   -166.54784    239.14707   -3601.6509 
  867000     251.4266   -4294.6339   -3863.6973   -4294.6339            0    1992.0791    18.241672    23.494121    21.763825    9327.3672    829.29287    1007.1344      4139.81   -763.54696    400.35795   -1038.9712   -3592.7147 
  868000    238.40544   -4253.0524   -3844.4336   -4253.0524            0    984.33719    17.912239    23.421037    22.307433    9358.4861    2477.5554    1221.9996   -746.54333    364.51577     409.6156   -293.49255   -3710.0874 
  869000    261.69382   -4265.0499   -3816.5157   -4265.0499            0    2628.5924    17.947245    23.458521    22.179854    9338.0693    3769.7898     3733.671     382.3163     575.5276   -291.23116   -286.94077   -3458.5378 
  870000    237.17889   -4248.8019   -3842.2854   -4248.8019            0    1997.4915     18.13663    23.638625     21.78434     9339.491    1913.1952    1749.5827    2329.6965   -1149.0092    530.31411   -1117.0311   -3570.2133 
  871000    243.81311   -4263.1713    -3845.284   -4263.1713            0    647.54592     17.98041    23.247041    22.414437    9369.0407    641.52868    2272.0668   -970.95778    318.52248     20.76429    23.427377   -3756.8047 
  872000     261.2367   -4248.2289   -3800.4781   -4248.2289            0   -224.05594    18.173922    23.420047    22.166981     9435.023   -527.33319   -71.790362   -73.044254   -84.246955    11.693908    33.428068   -3831.3082 
  873000     238.7598   -4268.5001    -3859.274   -4268.5001            0    304.49402     18.30476    23.580356    21.888306    9447.7101    952.08503   -1330.2313    1291.6283    305.71645   -508.12345     228.6955   -3817.3192 
  874000    247.26403   -4231.5033   -3807.7012   -4231.5033            0    2298.7959    17.898625    23.443861    22.231705    9328.7094    2531.8079    2969.9024    1394.6775   -914.81944   -692.09289   -109.30322   -3494.9508 
  875000    263.80209   -4246.2205   -3794.0727   -4246.2205            0      735.884    18.006025    23.779658    22.105607    9465.1152     2142.332   -808.58613    873.90611    1120.7301   -616.86639    116.68844    -3692.492 
  876000      259.497   -4273.4358   -3828.6669   -4273.4358            0    1040.9761    18.158367    23.537445    22.030267    9415.7704    1025.8833    1356.4101    740.63491   -220.81248    367.21787     390.2158   -3685.7207 
  877000    249.10924    -4246.799   -3819.8343    -4246.799            0    2385.8693    18.025636    23.157221    22.334768    9323.0606    3412.9927    665.91001    3078.7053    350.62672    730.74547    1097.2796   -3495.4342 
  878000    259.15436   -4269.6554   -3825.4737   -4269.6554            0    1844.9071    18.222851     23.46555    21.849292    9342.9588     2154.257    2764.9846    615.47968   -339.17116    154.92143    195.22204   -3574.0913 
  879000    255.85527   -4241.6822    -3803.155   -4241.6822            0    1470.6905    18.084449    23.484095    22.068612    9372.4717    1512.8029    1099.3727    1799.8959    -627.3992    721.55076   -529.00264   -3602.1294 
  880000    247.70589   -4273.9805   -3849.4211   -4273.9805            0    2260.9159    17.677672    23.515579    22.484999    9347.0297    4195.4474    1852.1095    735.19074     385.0968   -1008.8515    9.9116704   -3541.2202 
  881000    242.93925   -4278.5328   -3862.1433   -4278.5328            0    1305.3397    18.077524    23.621077      21.9845    9387.6141    1598.5039    2459.0506   -141.53538   -942.83919    179.50279   -495.71847   -3683.4309 
  882000    239.23133   -4205.0919   -3795.0576   -4205.0919            0    481.71163    18.050523    23.635963    22.128752    9441.0439    -90.48005      67.6178    1467.9971    828.53116   -261.80971    431.79506   -3728.7317 
  883000    242.98966   -4258.5219    -3842.046   -4258.5219            0    2509.3141    18.016081     23.35908    22.204638    9344.5792    2337.5088    1855.1885    3335.2452    170.63892   -328.94248   -291.05225   -3500.0739 
  884000    237.70563   -4262.6466   -3855.2273   -4262.6466            0    2219.8932    18.405969     23.43034    21.629136    9327.7405   -241.92003    2398.8246    4502.7751   -1119.4013   -402.47276    525.20004    -3553.243 
  885000    227.68644   -4257.5055   -3867.2587   -4257.5055            0    827.23984     18.09307    23.385871    22.212428    9398.5711    1042.7152    777.58946    661.41489   -39.022678   -82.056313   -95.621194   -3753.8702 
  886000     241.0881   -4241.9935   -3828.7767   -4241.9935            0    526.88724    17.955009     23.52148    22.256397    9399.5084    676.00652    537.68751    366.96768    423.02426   -315.40074    494.45241   -3756.5499 
  887000    247.45222   -4271.4701   -3847.3454   -4271.4701            0    3124.1193    17.970127    23.590469    21.870778    9271.5414    5051.1345    2810.9566    1510.2668   -801.78164   -334.57751    -481.3556   -3424.9148 
  888000    252.13889   -4258.9214    -3826.764   -4258.9214            0    1882.4158    18.082339    23.271732    22.279352    9375.3149    2548.6386    2955.3039    143.30492    1073.8401    427.84219    672.96123   -3569.3825 
  889000    229.75195   -4275.6297   -3881.8428   -4275.6297            0    818.97343    18.300039    23.440463    21.906103    9396.8723    415.97087    235.71674    1805.2327    41.661302   -665.41499    213.31655   -3769.6076 
  890000    248.74499   -4260.8013   -3834.4609   -4260.8013            0    822.41228    18.139875    23.489232    22.092182    9413.2961    1093.5403    112.42484    1261.2718    723.61456   -646.43173    331.39843   -3721.5574 
  891000    233.27104   -4261.0933   -3861.2748   -4261.0933            0    660.06209    17.911297     23.39542    22.387956    9381.5014    1196.6787    1381.3924   -597.88482   -173.74812    663.33628    212.09548   -3770.9653 
  892000    238.21467   -4253.4001   -3845.1083   -4253.4001            0    1378.3099    18.120082    23.709393    21.768177    9351.9604    3033.5965   -1488.6094    2589.9426   -677.18658    1038.4808   -595.48246   -3657.1223 
  893000    247.37052   -4271.0349   -3847.0503   -4271.0349            0     617.6296    18.015727    23.551654    22.252014    9441.5334    1250.0571    773.37179   -170.54011    256.36601    404.12925   -52.930933   -3762.0057 
  894000      246.859   -4260.0762   -3836.9684   -4260.0762            0    1818.7117    18.102317    23.381628    22.135856    9369.2587    2083.0433    2776.7484    596.34347    162.35246   -262.59641    196.57559   -3588.4577 
  895000    259.76597    -4252.155    -3806.925    -4252.155            0    1675.7365    18.356662    23.647226    21.629106    9388.8517    494.04398    1897.3089    2635.8565    -3.810764   -366.41245      49.6692   -3577.4718 
  896000    248.45757   -4271.9016   -3846.0539   -4271.9016            0    608.05904    18.059251      23.4169     22.26507    9415.7126    1311.6041    67.593659    444.97935    519.70171   -181.70714    236.59763   -3762.5561 
  897000    246.97492   -4283.8658   -3860.5593   -4283.8658            0    2130.9627    18.075744    23.271935    22.270615    9368.3022    3498.6871    2087.9567    806.24432    796.98471    166.81097    687.39866   -3569.4121 
  898000    231.88363   -4260.7351   -3863.2945   -4260.7351            0    2153.0186    18.072863    23.499453    21.902397    9302.0006    1503.2033    2128.1631    2827.6896   -26.437616   -814.60047    73.963531   -3571.2157 
  899000     263.7374   -4246.3153   -3794.2784   -4246.3153            0    1632.7247    17.895628    23.603023    22.070359    9322.3194    2676.6531    1165.1547    1056.3663    118.24067    183.91695    535.27448    -3572.299 
  900000    243.86469   -4252.1285   -3834.1528   -4252.1285            0     520.9601    18.013944    23.571358    22.179683    9417.7843     967.2824   -168.18863    763.78653    487.77404   -132.13383   -18.533441   -3762.5996 
  901000    265.44545   -4268.4712   -3813.5068   -4268.4712            0    356.46007    18.149268    23.523289     22.06913    9421.9841     211.3337     1265.977   -407.93053    814.26926    -276.3924     307.5866   -3764.5256 
  902000    231.31783   -4255.8991   -3859.4283   -4255.8991            0    318.82114    18.212544    23.140864    22.398133    9439.7833    1203.6446     1368.932   -1616.1131   -236.04162    105.35946    48.345053   -3815.5363 
  903000    255.89456    -4261.488   -3822.8935    -4261.488            0    415.95536    18.230067    23.415778    22.090986     9430.006     568.9853    1353.9698   -675.08899    136.73508   -1303.1252    52.388065   -3765.6884 
  904000    244.29044   -4270.3206   -3851.6152   -4270.3206            0    37.457033    18.158967    23.659189    21.923572    9418.9461   -331.70341    74.852046    369.22247    720.35522   -87.576651    230.00533   -3846.4699 
  905000    252.11566   -4269.8244   -3837.7068   -4269.8244            0    1183.1662    17.814771       23.611    22.144346    9314.4556    2005.1143    882.32573    662.05872   -921.55175    129.73374   -257.19054   -3676.9834 
  906000    240.43454   -4294.7632   -3882.6667   -4294.7632            0    2196.9718    17.955338    23.567357     21.94269    9285.2656      2530.22    849.44216    3211.2531   -733.76412    271.71105    908.61529   -3585.1614 
  907000    248.97176    -4275.579   -3848.8499    -4275.579            0    1140.7297     18.09414    23.446853    21.987225    9328.0947    802.95414   -149.44113    2768.6761    119.81247    592.74741   -147.90043   -3693.6642 
  908000    243.75625   -4257.1275   -3839.3376   -4257.1275            0    1725.2271     18.09583    23.147261     22.34175    9358.2642    380.36529    3256.1856    1539.1305    1337.7136    341.59481    478.67028   -3603.8775 
  909000     245.1122   -4260.8345   -3840.7205   -4260.8345            0    2201.5378    18.122558    23.303036    21.963371    9275.3651    2689.3644     1928.581     1986.668   -1111.8296    -550.3193   -264.46337   -3542.9148 
  910000    253.45208   -4231.2764   -3796.8682   -4231.2764            0    1231.4761    18.075187    23.389795    22.212279    9390.7946    2308.1199    625.13427    761.17416    -440.2929   -256.54833    253.48762   -3628.2113 
  911000    244.19997   -4281.7397   -3863.1893   -4281.7397            0    2468.0557    18.011105    23.716369    21.780392    9303.6687    3200.5835    1510.3731    2693.2105    103.52656    128.50726    183.88922   -3528.3125 
  912000    235.61868   -4251.8092   -3847.9668   -4251.8092            0    2525.5281    17.960203    23.615735     21.96448    9316.0893    5264.1679   -139.69963     2452.116    227.67742    343.16486    75.797714   -3504.8344 
  913000    247.50579   -4255.1037   -3830.8873   -4255.1037            0    1575.9849    17.942573    23.529832    22.215748     9379.172    2527.5134    2277.8658   -77.424493     306.0805    150.13745   -699.35983   -3615.3152 
  914000    249.05444   -4268.4328    -3841.562   -4268.4328            0    885.27274    18.043692    23.640714    22.051131    9406.2572    260.69906    908.77829    1486.3409   -758.78037    611.72873   -171.77788   -3720.1197 
  915000    246.66499   -4257.5694   -3834.7941   -4257.5694            0    2306.1785    18.076244    23.460896    22.014539    9336.0332    1619.6575    2806.7999     2492.078   -295.61795    529.82581   -541.04764   -3520.7929 
  916000    255.89127   -4254.7093   -3816.1204   -4254.7093            0    1633.4437    18.337252    23.050434     22.17874    9374.5458    1878.9144    3506.1216   -484.70491    -746.4298    -399.7573     65.48912   -3592.7991 
  917000    242.72224   -4273.1402   -3857.1225   -4273.1402            0    1346.4106    18.195052    23.426766    21.917362    9342.3026    861.50495    1010.2284    2167.4984    338.03301    216.46764    721.95196   -3673.6769 
  918000    261.11152   -4246.1161   -3798.5799   -4246.1161            0    2150.4082    17.852616    23.631227    22.113751    9329.3318    3770.7433    2848.6192   -168.13788   -595.79498    780.77142    76.062417   -3505.9981 
  919000    263.51328   -4255.4976   -3803.8449   -4255.4976            0     1297.613    17.954691    23.619524    22.126793    9383.5583    1686.4346    1958.0687    248.33562   -179.13937    264.51578    92.305346   -3626.2671 
  920000    252.52451   -4257.2217   -3824.4033   -4257.2217            0    2343.1092     17.98146    23.442792    22.012734    9279.1514    1528.7663    1841.4609    3659.1003    175.79701    127.28843    532.13925   -3507.3176 
  921000    245.21016   -4254.9473   -3834.6654   -4254.9473            0    963.65225    18.262204    23.435845    21.916628    9380.1018    423.92665    866.50182    1600.5283   -513.04843    665.05445      81.3618   -3702.8386 
  922000     244.1307    -4262.344   -3843.9124    -4262.344            0    2483.6318    18.138645    23.261683    22.139197    9341.3114    1866.0274    2463.2556    3121.6125   -1205.0115    522.94208    8.2921466   -3505.5587 
  923000    250.24091   -4277.0443     -3848.14   -4277.0443            0    1834.9362    18.017912    23.425316    22.090154    9323.7082     1339.016    1811.1217     2354.671   -20.798388   -226.20758    772.90718   -3598.6314 
  924000    243.74609   -4265.6082   -3847.8357   -4265.6082            0    2728.6394    17.930595    23.768871     21.78158    9283.0915    3630.5333     1450.862    3104.5228   -838.45784    172.61699   -49.017113   -3478.4206 
  925000    264.57711   -4276.3319   -3822.8558   -4276.3319            0     485.3475    17.947881    23.705863    22.127729    9414.6848    1281.5944   -463.68137    638.12948   -205.03774    306.99294    417.33702   -3756.2159 
  926000    239.97609   -4256.5866   -3845.2758   -4256.5866            0    998.95025    18.172638    23.260404    22.113187    9347.3083    809.45781    2382.4241   -195.03112    798.84106   -165.95024   -832.00689    -3709.098 
  927000    253.75511   -4234.2522   -3799.3247   -4234.2522            0     2790.417    18.145387    23.237217     22.03017    9288.9835    2078.3309    3892.7439    2400.1762   -991.30763    43.904277    173.71315    -3421.306 
  928000     255.3953   -4253.1896   -3815.4508   -4253.1896            0    845.74032    18.287609    23.240283    22.090398    9388.6226    323.08361    1989.7926    224.34473    17.420088   -477.76394     195.2464   -3699.6491 
  929000    245.44934   -4254.4499   -3833.7581   -4254.4499            0    1175.7345    18.002201     23.51132    22.079866    9345.4249    1266.0675    1437.3511    823.78487    375.82901    481.51262    774.06528   -3673.5132 
  930000    241.60351   -4251.6579   -3837.5577   -4251.6579            0    1860.7011    17.796687    23.738287    22.000799     9294.521    3662.9408    365.39493    1553.7677    601.95339    566.79496    -389.0144   -3585.3377 
  931000      253.533   -4256.8331   -3822.2862   -4256.8331            0    1351.0955    18.033061    23.635903    22.026403    9388.2625    2510.7326    947.35733    595.19667   -314.21535   -387.20407    276.48609   -3637.2967 
  932000    252.46354   -4228.2535   -3795.5396   -4228.2535            0    1989.0049    18.022212    23.520242    22.250686    9431.7717    1841.6893    2188.0226    1937.3029    -1027.874   -148.15034    1094.6246   -3521.9466 
  933000    237.76929   -4257.1115   -3849.5831   -4257.1115            0     1255.951    18.227799    23.299629    22.086579    9380.1909    752.71643    749.46391    2265.6726    299.04911    199.90081   -268.70793   -3677.7684 
  934000    255.36902    -4289.756   -3852.0622    -4289.756            0    2519.6647    18.159939    23.140713    22.061198    9270.8642    1197.9051    4019.6871    2341.4018   -303.52793   -44.009246   -46.346596   -3511.3883 
  935000    260.49802   -4259.1952   -3812.7105   -4259.1952            0    727.02217    18.209933    23.520448    21.996303    9421.1436    1838.4879   -29.801768    372.38036   -671.48462    293.38093   -606.79955   -3712.8193 
  936000    246.06946   -4228.7898   -3807.0351   -4228.7898            0    3148.0061    17.824511    23.463696    22.227741    9296.2839    3829.1458    3077.5062    2537.3663    254.64453    -501.7832    779.14322   -3380.2386 
  937000    243.38273   -4254.9307    -3837.781   -4254.9307            0    802.75474    17.992165    23.771589    22.053265    9432.2334    2203.9699   -246.22311    450.51746    224.40289   -56.119815   -224.51165   -3727.3545 
  938000    258.63795   -4247.8408   -3804.5442   -4247.8408            0     1354.541    18.029293    23.779333    22.016079    9438.8337    1851.4432      363.915    1848.2649    324.29218     227.1037   -464.15762   -3618.0839 
  939000    233.39165   -4263.2303    -3863.205   -4263.2303            0    664.93094    18.133335    23.342612    22.181759     9389.082    1398.1194    544.69673    51.976666    -531.4072    181.53788    306.26313    -3772.156 
  940000    261.73742   -4235.9017   -3787.2927   -4235.9017            0    1305.5434    18.333915    23.290185    21.996294    9392.4234    980.14718    1517.3818    1419.1011    463.93199   -500.60173   -521.11841   -3608.4609 
  941000    256.36718    -4251.645   -3812.2404    -4251.645            0    1124.0288     18.18116     23.49108    22.081349    9430.8361    1539.4823    1715.2226    117.38156   -1729.1247   -32.110488   -461.24287   -3657.6425 
  942000    253.81218   -4259.4813   -3824.4559   -4259.4813            0    1745.7179    17.935759    23.292588    22.198701    9273.9566    1097.1196    1296.8509    2843.1833   -661.05395   -1066.9919    -687.8979   -3588.3456 
  943000     246.0544   -4243.6984   -3821.9696   -4243.6984            0    3437.5534    18.009135    23.618474    21.799463    9272.3642     2406.447    2625.6742     5280.539    736.56777   -694.89369      808.462   -3357.1164 
  944000    258.93815   -4247.6352   -3803.8241   -4247.6352            0    2081.1175    17.939164    23.554992    22.072298    9326.8008    123.80751    2839.6772    3279.8679     374.1848   -739.81423    211.84391   -3520.7467 
  945000     249.9231   -4262.6622   -3834.3025   -4262.6622            0    338.09281    18.111975    23.650163     21.99688    9422.3893   -21.378612   -99.448764    1135.1058    310.42844   -623.30189   -7.3365043   -3787.8432 
  946000     247.6185   -4249.5118   -3825.1022   -4249.5118            0     1110.465    18.161518    23.427372    22.009165    9364.3851    271.19966    1688.9971    1371.1982   -161.60296   -200.53405    229.92298   -3673.4461 
  947000    253.46815   -4264.0702   -3829.6345   -4264.0702            0    1330.1746    18.037101    23.421463    22.135813    9351.3916    2672.1089    58.889506    1259.5254   -1113.9427    844.69609    319.60963   -3648.2246 
  948000    247.79369   -4247.1208   -3822.4109   -4247.1208            0     1921.458    17.784041    23.513407    22.262053    9309.1752    2938.6864    1952.5509    873.13683    428.69905    420.99842   -744.13125   -3561.5446 
  949000    269.88929   -4270.4266   -3807.8456   -4270.4266            0    2080.8016    17.995807    23.560597    21.920226    9293.9997    1114.2742    3744.0892    1384.0415    90.302289   -553.03134   -872.94519   -3525.8066 
  950000    248.35517   -4255.9328   -3830.2605   -4255.9328            0    1428.8435    17.955811    23.489723     22.05983    9304.3295     1305.472     1747.578    1233.4804    989.73453   -181.65835    848.28718   -3636.3749 
  951000    252.08962   -4260.1081   -3828.0352   -4260.1081            0    2492.9126    18.014551    23.345055    22.056016    9275.6729    3078.3351     2379.129    2021.2736   -736.43949    500.81511   -20.166873   -3490.8035 
  952000    248.26785   -4250.6786    -3825.156   -4250.6786            0    411.48625    18.311824    23.361622     22.09138    9450.5578   -842.83513    177.07087     1900.223   -451.68031   -127.40515    1200.0084   -3768.4422 
  953000    244.04207   -4269.7057    -3851.426   -4269.7057            0     1141.087    18.218463     23.40397    21.991804    9376.9613   -305.02858    1144.2658    2584.0237   -394.04905   -553.05651   -39.642788   -3695.3785 
  954000    246.52632   -4274.5602   -3852.0225   -4274.5602            0    2561.6412    17.885096    23.611759    22.020741    9299.3277    2756.6134    1947.8674    2980.4427    475.04394   -565.59192   -480.79983   -3504.6097 
  955000    240.21993   -4270.8672   -3859.1385   -4270.8672            0     851.7882    17.935731    23.618102    22.051624    9341.2428    915.23845    816.09187    824.03427    541.85792   -33.439378   -711.98807   -3743.0973 
  956000    240.94515   -4267.4782   -3854.5064   -4267.4782            0    1245.3618    17.991538    23.723962    22.042819    9408.5487    2106.5026    651.60774    977.97503   -689.34256   -309.77965    335.78612   -3683.6253 
  957000    248.75207   -4264.6718   -3838.3193   -4264.6718            0    1758.9868    18.193464    23.440029    22.045353    9401.3578    1381.7214    1435.5083    2459.7305   -548.12953   -941.61091    430.84162   -3597.1461 
  958000    251.39728   -4242.8486   -3811.9622   -4242.8486            0    965.54746    18.320871    23.051153    22.273332    9406.4115    617.51494    2002.6844    276.44306   -189.60185    590.23326    678.41516   -3679.5057 
  959000    249.39427   -4261.6236   -3834.1704   -4261.6236            0    2059.9262    18.149331    23.242538    22.072561    9311.0122   -303.22958    3594.5818    2888.4265   -37.856588    71.757559    -77.43273   -3554.4498 
  960000    251.61136   -4233.0269   -3801.7736   -4233.0269            0    1660.7407    17.910839    23.533333    22.143831    9333.6629     3108.002    953.96698    920.25324   -26.596693    1059.7756    60.199823   -3575.7105 
  961000    257.11786   -4281.3304   -3840.6392   -4281.3304            0    848.35034     17.96286    23.714131    22.065091    9399.1468    1468.9134    1439.6446   -363.50701   -355.44579   -738.47045    390.48885     -3724.35 
  962000     248.6829   -4255.7926   -3829.5586   -4255.7926            0   -412.73847    18.156801      23.5926    22.122841    9476.6761    244.16858   -1098.9718   -383.41213   -65.124129    372.80247   -510.73275   -3886.6022 
  963000    260.70895   -4257.0168   -3810.1705   -4257.0168            0    2498.1274    18.141934     23.23716    22.088976    9311.9841    1247.3708    3267.1625    2979.8489   -801.82803    134.97749    223.82607   -3470.9105 
  964000     243.2103   -4244.7849   -3827.9307   -4244.7849            0    261.08088     18.23985    23.235342    22.212146    9413.7107   -1087.3654    1209.2917    661.31636   -328.05872   -41.562961    110.12352   -3792.0871 
  965000    236.36814   -4293.7041   -3888.5772   -4293.7041            0    1205.4843    18.042878     23.41297     22.05365    9316.2856    3382.1597   -359.04716    593.34046   -859.05713    -90.62815    97.713886   -3724.7899 
  966000    240.19651   -4249.8208   -3838.1322   -4249.8208            0     1716.856    17.871473    23.766862    21.856223    9283.4052    3389.5635     223.6307    1537.3737    845.42423   -551.86903   -25.537182   -3605.6889 
  967000    241.28765   -4269.6286   -3856.0699   -4269.6286            0     283.5988    18.000737    23.645045    22.200709    9449.2483    1134.1863   -553.88716    270.49727    663.03838   -1342.9027   -338.80515   -3816.9878 
  968000    266.06364   -4282.8379    -3826.814   -4282.8379            0    77.499264    18.120781    23.520047    22.132196    9432.7777    73.629717    623.28692   -464.41885   -826.54234    108.89328   -58.439941   -3816.1526 
  969000    244.36697   -4232.4238   -3813.5872   -4232.4238            0    2297.1004    18.253684    23.461175    21.880903    9370.5598    710.77314    2833.8931    3346.6349   -249.50984   -35.686409    413.84923   -3499.6654 
  970000     243.4043   -4268.7937   -3851.6071   -4268.7937            0    2854.1049    18.102816    23.000821    22.260676    9268.8919    2697.4388    3963.3336    1901.5425    801.90388   -422.66668   -150.58477   -3465.7969 
  971000    258.45291   -4278.0376   -3835.0582   -4278.0376            0    1637.3052    18.036578    23.438435    22.148118    9363.0987    2018.4091    1149.2206    1744.2859    1246.5904   -360.78584    213.34531   -3611.4822 
  972000    248.39227    -4274.149   -3848.4132    -4274.149            0    1074.7388    18.010119    23.762789     21.95377    9395.5695    1282.4464   -195.60738    2137.3773   -915.02229    140.23616      -79.539   -3701.1473 
  973000    238.50573   -4256.4621   -3847.6714   -4256.4621            0    1359.1036    17.942457    23.802289    21.958502    9377.8512    2168.0024   -472.58008    2381.8884    745.39914    175.43257   -470.85488   -3661.7918 
  974000    251.53291   -4265.6159   -3834.4971   -4265.6159            0    1792.7157    18.044777    23.377436    22.159327    9347.7038    530.41463    2103.2784     2744.454   -1722.8773   -173.06308    1285.6309   -3590.1021 
  975000     257.6532   -4287.9928   -3846.3841   -4287.9928            0    1844.8266    18.362333    23.356493    21.788155    9344.4975    2240.3069    1597.8466    1696.3262   -282.08605    96.955608   -879.07069   -3594.9713 
  976000    257.67988   -4269.1591   -3827.5046   -4269.1591            0    311.62216    18.104017    23.406613    22.157783    9389.4429    632.40937    403.08167   -100.62455    843.80206   -487.32358   -421.66936   -3784.8325 
  977000    262.05983   -4220.5734   -3771.4118   -4220.5734            0    1205.3333    18.038376    23.437457    22.240905     9402.869    2092.7271    1021.4011    501.87169    980.88605    76.386663    991.45238    -3606.123 
  978000    253.39181   -4242.4644   -3808.1595   -4242.4644            0    152.66235    18.248518    23.856874    21.718383     9455.154   -1823.5457   -2240.3439    4521.8767    821.87738   -96.261433   -389.53832   -3787.1083 
  979000    246.58062   -4238.9927    -3816.362   -4238.9927            0    1752.0227     17.93193     23.55406    22.113368    9340.0181    3534.6512    1479.1097     242.3071   -279.47101   -69.370454    533.31225    -3577.711 
  980000    254.59075   -4225.3037   -3788.9438   -4225.3037            0    2532.1491    17.838248    23.442846    22.137454    9257.4247    2425.3716    3812.7673    1358.3083   -493.91073   -246.69356    217.63906   -3447.0783 
  981000    259.21899   -4257.5685   -3813.2761   -4257.5685            0    1840.0751    18.154029    23.426252    21.976864    9346.3396    2307.2007    1403.8004    1809.2243    238.86858   -274.07403     889.8607   -3562.4613 
  982000    240.60384   -4232.2018   -3819.8151   -4232.2018            0     1571.705    18.246635    23.258386    22.062725      9363.14    1953.9727    2018.9393    742.20289    622.40231     61.69156    879.19454    -3605.196 
  983000    241.36746   -4257.8754   -3844.1799   -4257.8754            0    2543.1481    18.033051    23.431207    22.061916    9321.9572    1414.8798    3242.5138    2972.0507   -475.76257   -231.86607    560.15877   -3498.4359 
  984000    262.35901   -4255.7357   -3806.0613   -4255.7357            0    2364.7132    17.859939    23.785657    22.037597    9361.7997    2898.0635    2072.7652    2123.3109   -1052.4693      355.449     98.60631   -3483.2017 
  985000      254.297   -4288.5719   -3852.7155   -4288.5719            0    435.29937    18.036923    23.698018    22.120188    9455.0385    1223.7522    -203.4269     285.5728    458.15479    388.41384    66.205587   -3792.6912 
  986000    264.35189   -4289.5138   -3836.4237   -4289.5138            0    2691.0265    17.952151    23.501964    22.047876    9302.2371     1897.326    3125.4698    3050.2837    820.06223   -135.46552   -391.96939   -3471.3494 
  987000    251.79603   -4268.2484   -3836.6786   -4268.2484            0    3257.1088    17.811572    23.468113    22.216063    9286.4027    3450.9365    3257.3884    3063.0015    525.62671   -491.07078    -2.770247   -3395.5597 
  988000    247.48224   -4241.3562   -3817.1801   -4241.3562            0    2636.7901    18.170745    23.409677    21.930978    9328.8077    1767.1761    1620.3628    4522.8315    552.15644    -231.3183    149.87085   -3458.4419 
  989000     251.1215   -4254.2884   -3823.8747   -4254.2884            0   -295.26294     18.18889    23.385801    22.119275    9408.6936    -737.2919    1297.0445   -1445.5414    818.86236   -47.426062   -800.36363   -3864.3896 
  990000    248.45936   -4254.8588   -3829.0079   -4254.8588            0    2494.5293    17.758623    23.548778    22.312276     9330.857    3625.5582    1180.1803    2677.8495   -291.37285    1175.2269    178.35611   -3489.5499 
  991000     239.8301   -4268.6878   -3857.6272   -4268.6878            0    1608.7774    17.963522    23.658205    22.064046    9376.8816    1816.4555    1621.2487    1388.6281   -202.11851    137.24828   -480.55401   -3637.6233 
  992000    251.10978   -4256.5064   -3826.1128   -4256.5064            0    667.96022    18.067288    23.535134    22.177173    9430.0899   -73.417826    1268.3981    808.90042   -168.50909   -596.33158   -309.89136   -3734.2495 
  993000    261.11173   -4247.9367   -3800.4002   -4247.9367            0    876.23685    18.126679    23.330651    22.186842    9382.9759     2380.573    1253.4517   -1005.3141   -707.76848   -194.15675    -128.1863    -3680.495 
  994000    251.47239   -4246.1849   -3815.1699   -4246.1849            0    1488.4695    18.327509    23.271286     22.01742    9390.5333    478.78669    379.75292    3606.8688   -73.931744       1111.8   -563.18056    -3611.322 
  995000     253.6281   -4226.6896   -3791.9797   -4226.6896            0    2419.0185    18.080679    23.407888    22.064692    9338.4505    4460.1561    1366.6686    1430.2309    1550.2791    810.98506   -13.867915   -3462.5294 
  996000     247.0392   -4258.9151   -3835.4984   -4258.9151            0    2158.8878    17.859627    23.482246    22.129836    9280.9024    1755.0954    1180.2635    3541.3045     958.9133     39.99578    662.07851   -3543.2876 
  997000    241.10053    -4245.175   -3831.9369    -4245.175            0    3915.7062    17.850501    23.682958    21.869494    9245.3867    4053.9695     1507.066    6186.0832    455.88014    -651.0866    923.31161   -3303.9647 
  998000    266.82255   -4254.3856   -3797.0608   -4254.3856            0    1244.6357    18.028025     23.51716    22.203578    9413.6059    859.94855    502.55465     2371.404   -129.36719    -102.2407    28.104305   -3626.1876 
  999000    241.47727   -4263.2737     -3849.39   -4263.2737            0    863.59168    18.126386    23.247845    22.401974    9440.1785      2164.75    457.38985   -31.364861   -625.60264    1001.6408    507.52369   -3730.4947 
 1000000    241.00821   -4208.5487   -3795.4689   -4208.5487            0    1506.3123    18.331896     23.34714    21.954818     9396.604    725.48376    1219.6019    2573.8511   -207.03802    215.75381   -662.03536   -3589.0441 
Loop time of 331.46 on 64 procs for 250000 steps with 864 atoms

Performance: 130.332 ns/day, 0.184 hours/ns, 754.239 timesteps/s
195.1% CPU use with 32 MPI tasks x 2 OpenMP threads

MPI task timing breakdown:
Section |  min time  |  avg time  |  max time  |%varavg| %total
---------------------------------------------------------------
Pair    | 17.341     | 24.622     | 33.417     | 102.8 |  7.43
Bond    | 0.95111    | 1.1869     | 1.4181     |  10.6 |  0.36
Kspace  | 165.55     | 174.24     | 181.88     |  41.0 | 52.57
Neigh   | 1.5053     | 1.6181     | 1.735      |   4.7 |  0.49
Comm    | 50.997     | 52.915     | 55.963     |  17.5 | 15.96
Output  | 0.59084    | 0.59119    | 0.59277    |   0.0 |  0.18
Modify  | 61.279     | 62.956     | 66.171     |  16.3 | 18.99
Other   |            | 13.34      |            |       |  4.02

Nlocal:        27.0000 ave          37 max          18 min
Histogram: 3 5 4 4 1 0 7 2 1 5
Nghost:        2095.41 ave        2210 max        1996 min
Histogram: 9 6 1 0 0 0 0 4 9 3
Neighs:        6475.28 ave        8878 max        4122 min
Histogram: 2 5 5 2 3 0 7 0 3 5

Total # of neighbors = 207209
Ave neighs/atom = 239.82523
Ave special neighs/atom = 2.0000000
Neighbor list builds = 5982
Dangerous builds = 0

unfix		3
unfix		2
unfix		1

write_data	data.final.${pid} nocoeff
write_data	data.final.0 nocoeff
System init for write_data ...
PPPM initialization ...
  extracting TIP4P info from pair style
  using 12-bit tables for long-range coulomb (../kspace.cpp:340)
  G vector (1/distance) = 0.37157832
  grid = 24 27 25
  stencil order = 5
  estimated absolute RMS force accuracy = 0.0031591273
  estimated relative force accuracy = 9.513618e-06
  using double precision FFTW3
  3d grid and FFT values/proc = 4410 672
Last active /omp style is kspace_style pppm/tip4p/omp

write_restart   restart.lmp.${pid}
write_restart   restart.lmp.0
System init for write_restart ...
PPPM initialization ...
  extracting TIP4P info from pair style
  using 12-bit tables for long-range coulomb (../kspace.cpp:340)
  G vector (1/distance) = 0.37157832
  grid = 24 27 25
  stencil order = 5
  estimated absolute RMS force accuracy = 0.0031591273
  estimated relative force accuracy = 9.513618e-06
  using double precision FFTW3
  3d grid and FFT values/proc = 4410 672
Last active /omp style is kspace_style pppm/tip4p/omp
Total wall time: 0:05:31
