LAMMPS (30 Jul 2021)
Processor partition = 0
  using 2 OpenMP thread(s) per MPI task
using multi-threaded neighbor list subroutines
variable        pid world 0 1
variable        phase world IceII IceVI

shell cd ${phase}
shell cd IceII
include Restart.lmp
echo both
log log.lammps
#include		in.partitions
include		in.temp
variable        temperature equal 72.99
variable	tempDamp equal 100.0
include		in.pressure
variable        pressure equal 8385.3
variable        pressureDamp equal 1000.0 # This is 1 ps
include		in.seed
variable        seed equal 745823

units		real
atom_style	full
box tilt large
read_restart	restart.lmp.${pid}
read_restart	restart.lmp.0
Reading restart file ...
  restart file = 30 Jul 2021, LAMMPS = 30 Jul 2021
  restoring atom style full from restart
  triclinic box = (-10.486560 -9.1766609 0.26445196) to (12.466560 12.166659 21.595547) with tilt (-9.0988549 1.6462826 2.6678208)
  2 by 4 by 4 MPI processor grid
  restoring pair style lj/cut/tip4p/long/omp from restart
  restoring bond style harmonic/omp from restart
  restoring angle style harmonic/omp from restart
  1296 atoms
  864 bonds
  432 angles
Finding 1-2 1-3 1-4 neighbors ...
  special bond factors lj:    0        0        0       
  special bond factors coul:  0        0        0       
     2 = max # of 1-2 neighbors
     1 = max # of 1-3 neighbors
     1 = max # of 1-4 neighbors
     2 = max # of special neighbors
  special bonds CPU = 0.002 seconds
  read_restart CPU = 0.008 seconds
include 	in.setup
variable	out_freq equal 1000
variable	out_freq2 equal 10000
variable	out_freq3 equal 1000

timestep	2.0

neigh_modify    delay 7 every 1

include		in.tip4p
# This is TIP4P/Ice

# create groups ###
group ox type 2
432 atoms in group ox
group hy type 1
864 atoms in group hy

# set charges - beside manually ###
set group ox charge -1.1794
Setting atom values ...
  432 settings made for charge
set group hy charge 0.5897
Setting atom values ...
  864 settings made for charge

# ### TIP3P Potential Parameters ###
pair_style lj/cut/tip4p/long/omp 2 1 1 1 0.1577 8.5
pair_coeff 1 1*2 0.000 0.000
pair_coeff 2 2 0.21084 3.1668
bond_style  harmonic
bond_coeff  1 450 0.9572
angle_style harmonic
angle_coeff 1 55 104.52
kspace_style pppm/tip4p/omp 1.0e-5
pair_modify tail yes

thermo          ${out_freq}
thermo          1000
thermo_style    custom step temp pe etotal epair emol press lx ly lz vol pxx pyy pzz pxy pxz pyz enthalpy

restart 	${out_freq3} restart.lmp.${pid} restart2.lmp.${pid}
restart 	1000 restart.lmp.${pid} restart2.lmp.${pid}
restart 	1000 restart.lmp.0 restart2.lmp.${pid}
restart 	1000 restart.lmp.0 restart2.lmp.0


include         in.dump
dump            myDump all atom ${out_freq2} dump.water.${pid}
dump            myDump all atom 10000 dump.water.${pid}
dump            myDump all atom 10000 dump.water.0
dump            myDump2 all dcd ${out_freq2} dump.dcd
dump            myDump2 all dcd 10000 dump.dcd
dump_modify     myDump append yes
dump_modify     myDump2 append yes


variable natoms 	equal  "count(all)"                        # NUMBER ATOMS
variable H      	equal  "enthalpy/v_natoms"                 # ENTHALPY-per-atom
variable Vol      	equal  "vol/v_natoms"                 # volume-per-atom
fix AVG all 		ave/time ${out_freq} 1 ${out_freq} v_Vol v_H file vol_enthalpy.dat
fix AVG all 		ave/time 1000 1 ${out_freq} v_Vol v_H file vol_enthalpy.dat
fix AVG all 		ave/time 1000 1 1000 v_Vol v_H file vol_enthalpy.dat


timer           timeout 10:00:00 every 1000
New timer settings: style=normal  mode=nosync  timeout=10:00:00

fix 		1 all shake 1e-6 200 0 b 1 a 1
Finding SHAKE clusters ...
       0 = # of size 2 clusters
       0 = # of size 3 clusters
       0 = # of size 4 clusters
     432 = # of frozen angles
  find clusters CPU = 0.001 seconds
fix             2 all nph tri ${pressure} ${pressure} ${pressureDamp}
fix             2 all nph tri 8385.3 ${pressure} ${pressureDamp}
fix             2 all nph tri 8385.3 8385.3 ${pressureDamp}
fix             2 all nph tri 8385.3 8385.3 1000
fix             3 all temp/csvr ${temperature} ${temperature} ${tempDamp} ${seed}
fix             3 all temp/csvr 72.99 ${temperature} ${tempDamp} ${seed}
fix             3 all temp/csvr 72.99 72.99 ${tempDamp} ${seed}
fix             3 all temp/csvr 72.99 72.99 100 ${seed}
fix             3 all temp/csvr 72.99 72.99 100 745823


run             250000
PPPM initialization ...
  extracting TIP4P info from pair style
  using 12-bit tables for long-range coulomb (../kspace.cpp:340)
  G vector (1/distance) = 0.37124742
  grid = 30 40 32
  stencil order = 5
  estimated absolute RMS force accuracy = 0.0037365676
  estimated relative force accuracy = 1.1252562e-05
  using double precision FFTW3
  3d grid and FFT values/proc = 7752 1200
Last active /omp style is kspace_style pppm/tip4p/omp
Neighbor list info ...
  update every 1 steps, delay 7 steps, check yes
  max neighbors/atom: 2000, page size: 100000
  master list distance cutoff = 10.8154
  ghost atom cutoff = 10.8154
  binsize = 5.4077, bins = 7 5 4
  1 neighbor lists, perpetual/occasional/extra = 1 0 0
  (1) pair lj/cut/tip4p/long/omp, perpetual
      attributes: half, newton on, omp
      pair build: half/bin/newton/tri/omp
      stencil: half/bin/3d/tri
      bin: standard
Setting up Verlet run ...
  Unit style    : real
  Current step  : 1500000
  Time step     : 2
  Walltime left : 9:59:59.95
Per MPI rank memory allocation (min/avg/max) = 10.65 | 10.66 | 10.66 Mbytes
Step Temp PotEng TotEng E_pair E_mol Press Lx Ly Lz Volume Pxx Pyy Pzz Pxy Pxz Pyz Enthalpy 
 1500000    82.925807   -6825.2169   -6611.8953   -6825.2169            0    7490.2699    22.953121     21.34332    21.331095    10450.014    7865.9989    7003.1177     7601.693    1180.7563    424.33027    199.79933   -5470.3577 
 1501000    71.755668   -6819.0675   -6634.4804   -6819.0675            0     8708.011    23.164454    21.081947    21.332019    10417.529    8045.9151    9393.9995    8684.1185   -44.759046   -123.82048   -324.12185   -5311.4812 
 1502000    71.834299   -6817.7058   -6632.9164   -6817.7058            0    8891.0518    22.932849    21.356589    21.273861    10419.244    9338.1283    8935.2471    8399.7799    662.58606   -298.49777   -438.05768   -5281.8856 
 1503000    69.911263   -6815.8241   -6635.9816   -6815.8241            0    8157.4908    23.132717    21.179334    21.309306    10440.186    8268.3409    7636.2112    8567.9202   -535.53324   -1037.6053   -297.62571   -5393.9269 
 1504000    71.126796   -6831.7919   -6648.8226   -6831.7919            0    8205.1239    23.089995    21.169734    21.359826    10440.876    8374.8363    8216.8027    8023.7327   -392.56816    256.95031    106.23178   -5399.4327 
 1505000     71.91261   -6823.1975   -6638.2067   -6823.1975            0     8344.097    23.023051    21.202661    21.361549    10427.639    8059.9215    8658.9326    8313.4369    1218.5501   -27.251696    233.64507   -5369.2663 
 1506000    73.024599   -6815.1945   -6627.3432   -6815.1945            0    8640.0986    23.123723    21.049214    21.405785     10418.97    8592.1865    9388.1695    7939.9398   -101.44201    509.81018   -74.396355   -5314.4802 
 1507000    72.875796   -6826.7001   -6639.2316   -6826.7001            0    8651.7712    22.961171    21.240283    21.346815    10410.879    9146.4158    8719.4658    8089.4321    729.89217   -224.37595   -264.82724   -5325.6159 
 1508000    74.534585   -6825.8862   -6634.1505   -6825.8862            0    8383.6682    23.201169    21.088393    21.326644    10434.602    7995.2093    8785.1376    8370.6577   -1190.4544   -285.08738   -429.49118    -5358.341 
 1509000    74.212181   -6812.1964   -6621.2901   -6812.1964            0    8689.7998    22.986958    21.304218    21.261983    10412.401    9367.9502    7414.0654    9287.3838   -230.37064   -522.25539   -557.91844   -5301.7077 
 1510000     74.48101   -6822.8137   -6631.2158   -6822.8137            0    8394.7825    23.162071     21.10467    21.314629    10419.185    7891.9725     9624.159    7668.2159   -385.12453   -169.70933   -896.63361   -5355.6024 
 1511000    73.498169   -6825.4323   -6636.3628   -6825.4323            0     7964.829    23.015445    21.292387    21.290458    10433.469     8627.001    7442.5113    7824.9746    298.85691   -20.805219     -212.926   -5424.4229 
 1512000     74.18319   -6817.5479   -6626.7161   -6817.5479            0    7416.1859    23.170879    21.157046    21.345964    10464.375     6841.999    7373.4119    8033.1467   -284.86591    265.52639    737.25173   -5494.9159 
 1513000    75.122647   -6821.5178   -6628.2694   -6821.5178            0     8843.823    22.994081    21.231452    21.326675    10411.634    8415.9029    9045.4641     9070.102    658.20398    127.47886    178.97266   -5285.3967 
 1514000    68.921946   -6823.0715    -6645.774   -6823.0715            0    8261.6833    23.085593    21.102881    21.403067    10426.986    7993.0996    8083.7846    8708.1658    655.03507    316.61176    572.63962   -5389.4455 
 1515000    74.705945   -6821.6558   -6629.4793   -6821.6558            0    9329.4603    23.020989    21.125263    21.376201    10395.769    9850.0271    8935.7425    9202.6113    243.11418   -32.518632    808.93368   -5215.0247 
 1516000    73.033645   -6822.0163   -6634.1417   -6822.0163            0    9010.1327    23.028443    21.194421    21.316473    10404.027    8485.6621    8859.4801    9685.2559    409.07281    -388.7598    260.77543   -5267.0157 
 1517000    76.744013   -6832.6872   -6635.2679   -6832.6872            0    8575.2919    23.081778    21.150553    21.346577    10421.236    8792.8062    8127.8913    8805.1784   -352.16108   -108.44772    534.71489    -5331.969 
 1518000    71.714374   -6836.4713   -6651.9904   -6836.4713            0    6993.0851    22.969201    21.287967    21.415736    10471.601    7236.7816    7239.0999    6503.3738    365.00935     161.0253   -942.20001   -5584.0235 
 1519000    72.765516   -6824.1891   -6637.0042   -6824.1891            0     8406.928    23.105651    21.026469      21.4596    10425.723    8332.5408    10103.363    6784.8799    46.481067   -347.35465   -576.75393   -5358.7437 
 1520000    73.374992   -6824.9082   -6636.1555   -6824.9082            0    9226.7888    22.886701    21.205005    21.427188    10398.884    9912.3037    9314.0071    8454.0557    247.20768    74.106558   -277.35001   -5236.8479 
 1521000    71.679151   -6828.6034   -6644.2131   -6828.6034            0    8797.0983    23.062159    21.050779    21.456109    10416.435    8666.7224    9432.0567    8292.5159    58.152681   -55.580892    178.44342   -5307.8194 
 1522000    71.726756   -6822.0629   -6637.5502   -6822.0629            0    7938.5638     23.00469    21.228165    21.398665    10449.981      8288.23    7353.0445    8174.4169     215.4904    122.79786    755.57665   -5427.6951 
 1523000    71.817813   -6824.7631   -6640.0161   -6824.7631            0    8317.2289    23.038158    21.159962    21.392498    10428.555    8694.6097      8492.55    7764.5272   -202.03877   -229.00983     84.01654   -5375.0506 
 1524000    76.258239   -6810.2841   -6614.1144   -6810.2841            0    8913.4435    23.083227    21.111668    21.379687    10418.865    9425.8062    9047.6241    8266.9001     132.1184   -796.21078   -668.08057   -5259.7304 
 1525000    74.721992   -6818.3933   -6626.1755   -6818.3933            0    8460.3722    23.009949    21.211265    21.368152    10429.157    8942.0789    8643.7997    7795.2382   -719.93393    810.14841   -858.33937   -5339.3651 
 1526000    72.736076    -6817.896   -6630.7869    -6817.896            0    7986.8747    23.169115    21.126653    21.365405    10458.064     7493.226    8733.4712    7733.9269    555.73866   -837.50243   -302.00255   -5412.6277 
 1527000    71.094934   -6812.4042   -6629.5168   -6812.4042            0    8556.9793    22.981303    21.314123    21.317272    10441.761    8343.2096    8991.6197    8336.1086   -279.33586    529.25708   -619.09852   -5326.4397 
 1528000     72.28698   -6830.0157   -6644.0618   -6830.0157            0    8733.2414    23.089366    21.150992    21.318428    10411.131    8523.5552    9163.1754    8512.9935   -237.50297    191.02177   -695.40985   -5318.0442 
 1529000    71.012134   -6825.7234    -6643.049   -6825.7234            0     8537.727    22.959502    21.243197    21.347458    10411.864     9711.841    7905.5587    7995.7814    -433.6394   -367.98872   -770.68321   -5346.6262 
 1530000    77.038215   -6821.9435   -6623.7674   -6821.9435            0    8221.4692    23.027849    21.152319    21.409094    10428.207    8878.0058    8132.7129    7653.6887   -589.03723      280.653   -101.75561   -5373.4076 
 1531000    73.535023    -6817.219   -6628.0546    -6817.219            0    8446.4147    23.097062    21.057854    21.438661     10427.22     8833.296    8966.6318    7539.3164   -430.81492    325.02399   -202.76846   -5343.6058 
 1532000    76.533723   -6831.1857   -6634.3073   -6831.1857            0    7723.1412    23.035101    21.222648    21.383163    10453.498    8249.6887    7567.0459    7352.6889    235.45415   -62.829807   -17.312596   -5456.8871 
 1533000     71.69824   -6821.9677   -6637.5284   -6821.9677            0    8210.7798    23.107342     21.10788    21.404642     10440.05     7584.513     9052.745    7995.0814    277.49706   -7.2954388    101.37191   -5387.3762 
 1534000    73.898861   -6827.1798   -6637.0795   -6827.1798            0    9109.3128     22.92404    21.271561    21.318972    10395.773     9445.908    8972.7138    8909.3165    388.16099     46.15954    304.32403   -5256.0013 
 1535000     73.12396   -6829.1302   -6641.0233   -6829.1302            0    8537.6319    23.128749    21.135298    21.280255    10402.491     8275.452    8478.3653    8859.0784   -610.74621   -604.85534   -277.14417    -5345.782 
 1536000    70.325168   -6821.1123   -6640.2051   -6821.1123            0    8724.2714     23.04684    21.240502    21.273059    10413.725    9050.9529    8126.0786    8995.7827   -213.02008    629.48359    -291.4298   -5315.2195 
 1537000    73.941799   -6827.9082   -6637.6974   -6827.9082            0    7655.5003    23.156575    21.167422    21.330316    10455.374    6933.1952    7662.4843    8370.8215   -41.974409    589.38414    291.78342   -5470.3798 
 1538000     71.18276   -6818.6998   -6635.5865   -6818.6998            0    8167.6553     23.03836    21.272391    21.285959    10431.844    8199.5397    7602.2881    8701.1383    243.44168   -495.67093    916.34009   -5392.9778 
 1539000    72.926725   -6818.7499   -6631.1504   -6818.7499            0    9253.3741    23.110261    21.108374    21.297655    10389.423    8270.2642    9570.5122    9919.3461   -37.917444    302.31713    503.78365   -5229.0876 
 1540000    72.634248    -6826.969   -6640.1218    -6826.969            0    8586.8753    23.056871    21.216068    21.278962    10409.161    7791.8996    8510.9656    9457.7608    459.05673    447.99091    1062.4411   -5336.5746 
 1541000    72.240202   -6826.4388   -6640.6052   -6826.4388            0    8556.3774    23.045751    21.244379    21.264774    10411.078    8374.2134    8376.0455    8918.8733   -315.02977    11.825037    440.08673   -5341.4486 
 1542000    74.436443   -6832.6677   -6641.1845   -6832.6677            0    8030.2448    23.167237    21.164363    21.281089    10434.539    8092.4077    7803.3659    8194.9607   -301.07742   -825.31234   -384.03839   -5419.1655 
 1543000    74.542158   -6824.6775   -6632.9224   -6824.6775            0    8498.4057    23.063801    21.252511    21.275455    10428.455    8563.8334    8113.1467     8818.237    -434.1632    151.89794   -243.17587   -5340.4141 
 1544000    72.632129   -6822.5029   -6635.6611   -6822.5029            0    7660.4046    23.167185    21.168031    21.318925    10454.879    6763.0796    8004.0241    8214.1101     474.7495   -470.28575    675.56033    -5467.651 
 1545000    66.037693   -6824.3259   -6654.4479   -6824.3259            0    8223.0984    23.048601    21.226802     21.30778     10424.79    7893.5173    8220.3638    8555.4142   -595.45755    681.64941   -138.66848   -5404.2502 
 1546000    73.723344   -6818.1009   -6628.4521   -6818.1009            0    9047.2075    23.029713    21.186515    21.305812    10395.518    9406.7166    8253.4615    9481.4445    550.44986   -538.80808    1151.8421   -5256.8233 
 1547000    71.696101   -6826.7322   -6642.2983   -6826.7322            0    8092.9666    23.075393    21.146863    21.353248    10419.791    8030.8674    8114.7756    8133.2569   -931.92939    292.35644    114.70508   -5412.4752 
 1548000    73.326227   -6819.0068   -6630.3796   -6819.0068            0    8316.8103    23.078595    21.150122    21.356339    10424.351    8028.0328    7894.1278    9028.2702     732.5557   -53.214822    281.42725   -5365.9877 
 1549000    74.813583   -6820.4099   -6627.9565   -6820.4099            0    8690.8681    23.099135    21.180798    21.304699    10423.497    8084.9006    8583.0248     9404.679   -388.60627    571.16927    589.49671   -5306.8055 
 1550000    72.491353   -6822.6415   -6636.1619   -6822.6415            0    8844.2841    23.018876    21.225453    21.331912    10422.475    9460.9813    8396.3089    8675.5622   -232.64775   -500.26129   -612.90955   -5291.8209 
 1551000    73.950996   -6820.5034   -6630.2689   -6820.5034            0    7967.2055    23.004178    21.241095    21.360953    10437.686    8594.8849     8477.643    6829.0886   -410.87114    183.38961   -856.29398   -5417.4774 
 1552000    71.802359   -6827.0926   -6642.3854   -6827.0926            0     8608.819    23.051393    21.120319    21.420544    10428.651    9246.3055    8112.7816    8467.3698    96.075775   -777.95912    69.240834   -5333.0599 
 1553000    72.450787   -6827.5838   -6641.2086   -6827.5838            0    8871.1082     22.85732    21.177952    21.529542    10421.832    9105.5301    9195.9362    8311.8584    112.12913   -264.26427    86.732489   -5292.8736 
 1554000    74.385074    -6826.143   -6634.7919    -6826.143            0     8258.142    23.040014    21.100694    21.474043    10439.827     8153.786    8729.0265    7891.6135    111.49348    560.57515     352.1723   -5377.4554 
 1555000    75.437618   -6828.9972   -6634.9385   -6828.9972            0    7945.9784    23.004863      21.1523    21.457244    10441.218     7757.046    8243.7289    7837.1603   -86.077285    140.53734   -92.651168    -5424.969 
 1556000    73.749629   -6818.1754    -6628.459   -6818.1754            0    7727.5062    23.053604    21.171247    21.427925    10458.403    7480.4444    7533.3202    8168.7541    366.51746    208.56253    199.39474   -5449.8205 
 1557000    73.809426   -6830.2585   -6640.3882   -6830.2585            0    7792.8105    23.072957    21.192756    21.397521    10462.951    8088.6645    7622.1299    7667.6373   -178.12422     16.18255   -118.19484   -5451.2723 
 1558000    72.927097   -6828.9951   -6641.3945   -6828.9951            0    8160.0672    23.000318     21.24709    21.381773    10449.055    8344.7872    8507.8397    7627.5746    184.97869   -823.68542   -876.84631   -5397.8921 
 1559000    73.887067   -6825.7882   -6635.7182   -6825.7882            0    8423.9901      23.0802     21.12784    21.415721     10443.05    8119.8407      8818.51    8333.6196   -100.40494   -304.06527   -55.506535   -5352.7346 
 1560000    73.985399   -6839.2011   -6648.8782   -6839.2011            0    8171.3496     22.99391    21.192063    21.398949    10427.459    8410.3909    8069.1025    8034.5555   -328.55974    791.12876    539.00363     -5406.23 
 1561000    73.219545   -6827.8725   -6639.5197   -6827.8725            0    8344.8539    23.127326    21.046136    21.435169    10433.372    7712.3204    9170.7856    8151.4559    1049.7062    -135.3651    611.37129   -5369.7665 
 1562000    73.352209   -6818.0805   -6629.3864   -6818.0805            0    8481.4028    23.010886    21.191012    21.355979    10413.687    8630.8685    8131.6637    8681.6763   -203.81764    943.67663   -80.432136   -5341.2908 
 1563000    77.000775   -6820.5261   -6622.4463   -6820.5261            0    8373.2861    23.055339    21.195016    21.338052    10427.016    8504.7114    7422.2295    9192.9173   -123.12321   -714.90603    448.01198    -5349.143 
 1564000    73.264222   -6833.8065   -6645.3387   -6833.8065            0    7711.2224     23.09438    21.251524     21.29908    10453.392    7461.9983    7915.9705    7755.6985    -239.3335   -128.02734    175.83419   -5469.7475 
 1565000    69.810437   -6829.0472   -6649.4641   -6829.0472            0    8414.4578    23.145597    21.188949    21.257658    10425.412    8137.0428    8560.4182    8545.9125    284.80232    137.27031   -929.97328   -5370.0968 
 1566000    76.554044   -6822.9381   -6626.0075   -6822.9381            0    8458.3938    23.065103     21.16783    21.337829    10417.943    8919.4614    8036.0531    8419.6669   -401.11639   -380.42979   -373.22167   -5340.8813 
 1567000    70.701914   -6829.9982   -6648.1218   -6829.9982            0    8831.0761    23.080095     21.11429     21.36294    10410.584    9256.7654    8954.7894    8281.6734   -283.69666    23.573474   -752.57902     -5307.32 
 1568000    69.436559   -6820.9403   -6642.3189   -6820.9403            0    8696.2503    22.961785     21.18671     21.39884    10410.208    8754.5995    9156.4631    8177.6884   -110.54765   -371.03457    551.48254   -5322.0351 
 1569000    70.909566   -6834.5608   -6652.1502   -6834.5608            0    7862.4695    23.044968    21.148838    21.401778    10430.677    7768.2867    8447.9668    7371.1548    157.87608   -83.381667     628.1792   -5456.1057 
 1570000    72.314988   -6826.1206   -6640.0947   -6826.1206            0    8040.7052    23.045413    21.155771     21.39478    10430.885    8026.3473    8755.1377    7340.6304   -492.91562    505.29337     146.5031   -5416.9124 
 1571000    74.761464   -6825.7827   -6633.4634   -6825.7827            0    8242.7247    23.003648    21.214415    21.361263    10424.488    9146.8838    7494.9188    8086.3716    447.82231   -67.125178    360.74634   -5380.3182 
 1572000     76.03281   -6817.2259   -6621.6361   -6817.2259            0      8349.06    23.155769    21.091881    21.372908    10438.501    8469.1358    7952.7387    8625.3054    135.49087    101.39788    184.73338   -5350.6183 
 1573000    73.166813   -6836.4958   -6648.2786   -6836.4958            0    7786.4865    23.008402    21.292879    21.315761    10442.913    7791.7395    7670.1068    7897.6132    46.361418    550.25571   -498.52543   -5462.4031 
 1574000    74.091659    -6827.844   -6637.2477    -6827.844            0    8460.3622    23.119826    21.130923    21.349778     10430.29     8264.235    8227.3953    8889.4565   -800.09611    104.10004    285.35375    -5350.299 
 1575000    71.478625   -6817.2991   -6633.4247   -6817.2991            0     9289.706    22.970085    21.216231    21.335266    10397.499    9133.3471    8866.3138     9869.457    607.04932    -642.2995    25.851817   -5224.7628 
 1576000    73.713239   -6828.3161   -6638.6933   -6828.3161            0      8354.07    23.052052    21.152458    21.400785    10435.184    7975.9781    8850.2337    8235.9982    2.1460056    849.53963    514.96805    -5367.317 
 1577000    72.052758   -6826.4092   -6641.0579   -6826.4092            0    8934.9901    23.113121    21.083865    21.357519    10407.817    8415.9441    9183.3588    9205.6673    1085.1222   -182.61272    410.07172   -5284.8396 
 1578000     75.37736   -6821.1574   -6627.2538   -6821.1574            0    8345.1329    23.039481    21.211283    21.343213    10430.363    8819.1416    7479.5107    8736.7464   -389.66943    1064.3742    96.194342   -5357.8243 
 1579000    72.495526   -6827.1498   -6640.6595   -6827.1498            0    8929.1832    23.140214    21.030479    21.361053    10395.352    8297.9746     10078.18    8411.3947    230.58267   -22.652459   -533.03146   -5286.9458 
 1580000    75.322192   -6819.2961   -6625.5344   -6819.2961            0    8785.3387    22.975653    21.271139    21.304705    10411.999    8437.9415    8376.2458    9541.8288    311.61636    77.088137   -98.841357   -5291.4954 
 1581000    68.456953   -6817.3226   -6641.2212   -6817.3226            0    8302.3277    23.106987    21.128218    21.364098    10430.155    7697.9307    8934.0042    8275.0483    33.108524    -183.2639    83.041177   -5378.3284 
 1582000    72.207801   -6825.6217   -6639.8716   -6825.6217            0    8581.1893    23.012524     21.26343    21.278155    10411.937    8533.3249    8801.5302    8408.7129    423.24596   -430.00034   -475.31611   -5336.8401 
 1583000    73.878052   -6832.2841   -6642.2373   -6832.2841            0     7641.682     23.10592    21.190828     21.33927    10448.424    7615.0166    8023.4929    7286.5365    598.71869   -1257.9902   -81.437018   -5477.8013 
 1584000    74.847173   -6814.0734   -6621.5336   -6814.0734            0    8304.0208    23.109251    21.178736    21.331524    10440.175    8008.1408    8314.9225     8588.999   -482.26701     379.1042   -363.63948   -5357.1697 
 1585000    70.472987    -6818.961   -6637.6736    -6818.961            0    8926.2292    23.011138    21.238378    21.304175     10411.76    8619.6969     8648.792    9510.1988    470.36195    112.85381    124.61702   -5282.2716 
 1586000     73.29844   -6828.2006   -6639.6448   -6828.2006            0    8799.8899    23.090607    21.112956     21.35999     10413.23    8674.4674     9119.287    8605.9152   -177.66383   -305.84258    202.83649   -5303.2384 
 1587000    72.449538    -6831.266   -6644.8939    -6831.266            0    8391.9042    22.941026    21.260512    21.355713    10415.992    8313.0123    8045.0751    8817.6252    111.70901    882.41718    409.72831   -5370.1086 
 1588000    73.130675   -6820.6437   -6632.5195   -6820.6437            0    8935.4519     23.13658    21.048151    21.377869    10410.643    8494.6251    10008.821    8302.9099    152.73239   -321.88736   -138.30239   -5275.8628 
 1589000    68.547226    -6827.229   -6650.8954    -6827.229            0    8409.1169    22.994568    21.191018    21.382763    10419.357    8349.6122    8489.4452    8388.2933    155.61983       322.58   -290.11038   -5373.0827 
 1590000     74.22285   -6835.4663   -6644.5325   -6835.4663            0    7885.9441    23.005577    21.220135    21.395212    10444.745    8718.7206    7228.4606    7710.6511   -90.679353   -184.07211    371.62348    -5443.299 
 1591000    73.075068   -6838.1997   -6650.2185   -6838.1997            0    8067.1322    23.116793     21.14127    21.392775    10455.042    8075.3491    8713.7961    7412.2515     739.5554   -760.22696    46.399445   -5420.1739 
 1592000    70.581873   -6819.2555   -6637.6879   -6819.2555            0    8466.7253     23.03222    21.212734    21.373442    10442.559    8723.9342    8496.0818    8180.1599   -923.13663   -83.660725   -852.91716   -5348.2564 
 1593000    70.179753   -6820.1265   -6639.5934   -6820.1265            0    8884.5936    23.089593      21.1524    21.341943    10423.412    8804.4357      9273.62    8575.7251    119.91018   -401.99879    32.336855   -5289.0039 
 1594000    75.608891   -6827.7015   -6633.2022   -6827.7015            0    8151.9941    22.942128    21.215968    21.419858     10425.89    8756.2021    7497.9301    8201.8501   -331.75836   -85.307292   -296.71479   -5393.6841 
 1595000    72.612876   -6837.9778   -6651.1856   -6837.9778            0    7711.0855     23.11797    21.038362    21.480172    10447.187    8004.3782    7623.7766    7505.1018    -188.5166    -179.8733    253.60111    -5476.313 
 1596000    75.237125   -6824.3507   -6630.8078   -6824.3507            0    8103.3998    22.902761    21.282883    21.431874    10446.683    9297.0388    6954.3452    8058.8154    574.90502    39.095851    443.91996   -5396.2211 
 1597000    72.495383   -6830.2152   -6643.7252   -6830.2152            0    7157.5078    23.116415    21.113063    21.451926    10469.792     7106.983     7510.128    6855.4124   -485.49613   -22.072606     231.0238    -5550.837 
 1598000    72.336473   -6832.4693   -6646.3882   -6832.4693            0    8518.8002    22.930097    21.245735    21.345145    10398.645    9007.6646    8136.1327    8412.6034    -634.5991    183.31835   -253.38264   -5354.4817 
 1599000     73.09661   -6824.6703   -6636.6337   -6824.6703            0     8352.955    23.076071     21.16508     21.34754    10426.285    8541.7585    8339.0079    8178.0987    234.53991    -531.2742   -207.54314   -5366.5111 
 1600000    70.521351   -6828.8491   -6647.4372   -6828.8491            0    7631.1264    23.160401    21.167014    21.347913    10465.526    7035.5366     8178.564    7679.2788   -693.78911    230.64081   -410.92713   -5482.7062 
 1601000    71.024792    -6831.128   -6648.4211    -6831.128            0    7931.8072    22.978889    21.369762    21.265005    10442.253    8657.9056    7262.7295    7874.7863   -162.82039   -65.096908   -563.48888   -5440.4897 
 1602000    72.494313   -6823.0107   -6636.5235   -6823.0107            0    8826.8577    23.093281    21.095364     21.37291    10412.052     8516.386    9696.1991     8267.988   -321.08278   -550.39395    196.21518   -5296.1732 
 1603000    72.385105    -6812.501   -6626.2947    -6812.501            0    8800.4487    22.948693    21.244078    21.360688    10413.844    8675.8821    9099.9693    8625.4947   -325.31009    645.26466    253.26836   -5289.7245 
 1604000    73.396624   -6824.7831   -6635.9748   -6824.7831            0    8497.8898    23.185075    21.071084    21.344889    10427.718    7982.8652    8882.7968    8628.0074    80.642678   -382.58743     322.5465   -5343.6363 
 1605000    75.112255   -6827.2459   -6634.0242   -6827.2459            0    8144.4228    22.996877    21.268282    21.332324    10433.727    8321.9633    7684.4656    8426.8395    598.35751   -255.18838    599.45014   -5394.7264 
 1606000    73.169972   -6829.1275   -6640.9022   -6829.1275            0    8607.9844    23.060439    21.184022    21.322751    10416.438    8633.5512    8721.3562    8469.0457   -275.19091   -112.89788    -711.2517   -5333.2369 
 1607000    71.956932   -6823.2146   -6638.1097   -6823.2146            0    8911.0736    23.104671    21.139482    21.323919    10415.045    8661.2933    8929.7945     9142.133   -313.99953   -368.85172   -64.761245   -5284.5823 
 1608000    73.302943   -6830.5693   -6642.0019   -6830.5693            0    8295.6545    23.001507    21.284395    21.312582    10434.068    8478.4568    8229.1649    8179.3418   -184.99586    359.83075   -497.39354   -5379.6507 
 1609000    73.853937   -6834.3038   -6644.3191   -6834.3038            0    8188.8599    23.178163    21.035137    21.392425    10430.001    7418.6488    9405.0518    7742.8791   -384.51649   -545.56483    127.57428   -5398.7044 
 1610000    69.601056   -6817.4062   -6638.3617   -6817.4062            0    9086.7342    22.876805    21.252016    21.397839    10403.163    9132.1488     9444.568    8683.4857    328.49568    905.64148   -453.55652   -5259.7273 
 1611000    71.323028   -6820.7612   -6637.2871   -6820.7612            0    8409.2262    23.072878    21.048379    21.471613    10427.618    8892.7827    9076.2471    7258.6488   -358.45997    -671.7503    133.68358   -5358.4447 
 1612000    71.586744   -6823.3139   -6639.1613   -6823.3139            0     7800.679    22.973965    21.254513    21.421693    10460.222    7926.3305    7360.5107    8115.1959    -213.2982    -64.53076    47.575102   -5449.1552 
 1613000    75.536273   -6831.2481   -6636.9357   -6831.2481            0    8011.1594    23.068397    21.161669    21.410909    10452.073    7982.1066    8156.7606    7894.6108    -894.0853    113.80202   -444.04183   -5415.7725 
 1614000    76.079904   -6830.5284   -6634.8174   -6830.5284            0    8329.5165    23.051059    21.125391    21.434548    10437.824    8443.9274     8326.886     8217.736    35.691267   -29.943196    29.095408   -5366.8572 
 1615000    72.593168   -6822.3833   -6635.6418   -6822.3833            0    8021.7082    22.997563    21.239019    21.385205    10445.511     7772.587    7540.5498    8751.9878   -316.10498    222.71391    355.20344   -5413.6383 
 1616000    70.255863   -6829.5689     -6648.84   -6829.5689            0    8689.2996    23.129765    21.043261    21.405569     10418.64    8969.5461    9252.2763    7846.0764   -390.18627   -131.62666   -94.422067   -5328.5428 
 1617000    70.550846   -6836.6963   -6655.2086   -6836.6963            0    8762.5599    23.022724    21.191031    21.334414    10408.533    9241.3922    8748.0784    8298.2091    173.00147   -237.40639   -210.36673   -5325.0715 
 1618000    70.700352   -6827.0576   -6645.1853   -6827.0576            0    8256.8437    23.125653     21.20404    21.249447    10419.821    8040.6008    7919.9869    8809.9435    127.15335    636.13749   -164.47615   -5390.4555 
 1619000    73.955497   -6825.5401   -6635.2941   -6825.5401            0    8720.2427    23.162519    21.110183    21.260884    10395.829    8848.5246    7994.3963    9317.8073    23.509118    224.71694    958.94708   -5313.1963 
 1620000    75.843911   -6831.1765   -6636.0727   -6831.1765            0    8891.8004    23.027623     21.24077    21.242873    10390.408    8366.4297    8676.3438    9632.6277    271.45556      294.411    220.34805   -5288.6675 
 1621000    71.852833   -6824.2531   -6639.4161   -6824.2531            0    8633.2884    23.199923    21.088491    21.291743    10417.014    7710.8592    9501.2759    8687.7302    448.67767    117.28332   -395.16778   -5327.8342 
 1622000     75.00033   -6819.9229   -6626.9891   -6819.9229            0    8246.6501    23.048112    21.256735    21.292258    10431.666    7413.0566    8058.8374    9268.0564    374.99095    716.87657   -438.29399   -5372.3838 
 1623000      70.5388   -6820.4779   -6639.0211   -6820.4779            0    8857.1453     23.11594    21.159456    21.293805    10415.241     8061.156    9498.8016    9011.4783    202.84694    35.684203    38.288037   -5293.6597 
 1624000    73.702537   -6821.4617   -6631.8664   -6821.4617            0      9045.82    22.995892     21.20241    21.346866    10408.056    9306.8565    8674.8286    9155.7748    453.33194   -70.282309    5.4559297    -5258.794 
 1625000    75.870441    -6825.803   -6630.6309    -6825.803            0    8326.7319    23.019429    21.168201    21.394932    10425.321    8139.2445    8907.5456    7933.4057     122.0418    197.45426    562.38196   -5364.6128 
 1626000    71.998555   -6825.1138   -6639.9019   -6825.1138            0    7842.8382    23.046207    21.100439    21.468751    10439.934    8736.1963    6633.9343     8158.384   -574.70656    782.09379    216.53905   -5445.7849 
 1627000    71.570292   -6823.3997   -6639.2894   -6823.3997            0     8549.603    23.000878    21.175825    21.405313    10425.727    8301.9292    8748.3918    8598.4879     151.1113      219.599   -223.15906   -5339.3349 
 1628000    74.088967   -6828.3689   -6637.7796   -6828.3689            0    8529.4899    23.089263     21.08264    21.417422    10425.629    9018.4506     8593.004    7977.0152    605.71589   -533.84769   -96.322712   -5340.8953 
 1629000    73.537791   -6816.9428   -6627.7713   -6816.9428            0    7910.0095    22.974003    21.296793    21.372833    10457.141    8866.9151    7322.1681    7540.9454   -53.210777    111.37096   -1187.8795   -5421.4421 
 1630000     71.25099   -6835.6308    -6652.342   -6835.6308            0    8222.8836    23.134952    21.091026    21.410538    10447.055    7470.9919    9801.1123    7396.5466   -500.69125   -51.749379   -821.45216   -5399.5068 
 1631000    70.150524   -6830.3649   -6649.9069   -6830.3649            0    8583.8183    22.903053    21.257971    21.406425    10422.199    9685.2469    7858.1161    8208.0919   -56.691449    473.22363   -102.09436   -5345.1917 
 1632000    73.006132    -6815.184   -6627.3802    -6815.184            0     8571.408    23.050331    21.070686     21.46014    10422.896    8797.1277    8258.9292    8658.1671   -362.62692   -88.495792    843.49483   -5324.4641 
 1633000    73.449547    -6823.797   -6634.8525    -6823.797            0    8543.3855    23.008312    21.122098    21.459962    10429.194    9337.0073     8141.985    8151.1642    390.89528   -172.62783    367.64602   -5335.4113 
 1634000    71.906938   -6830.6927   -6645.7165   -6830.6927            0    8432.7505    23.005191     21.19478     21.37188    10420.714    8002.4697    8717.2158     8578.566    382.93277    122.67974     301.6404   -5364.1456 
 1635000    72.987622   -6837.7091   -6649.9529   -6837.7091            0    8090.6216    23.147691    21.104093    21.371386    10440.158    6937.5994    7833.9709    9500.2944   -378.26975    815.46968    431.13196    -5418.083 
 1636000    75.795568   -6824.3582   -6629.3788   -6824.3582            0    8286.4226    22.964056    21.282478     21.32783    10423.593    8403.4754    7564.5004    8891.2919    -380.1804    297.48706    388.59517   -5369.6982 
 1637000    72.054939   -6821.5677   -6636.2107   -6821.5677            0    9324.9061      23.1474    21.052457    21.327837    10393.261    8783.9533    9922.5263    9268.2386   -86.861373    52.212717    211.66236   -5222.7876 
 1638000    71.098652   -6826.6171   -6643.7201   -6826.6171            0    8805.4351    22.940101    21.272251     21.35041    10418.735    8544.9346    8836.5077    9034.8628    197.75833   -49.580314    210.02819   -5305.7645 
 1639000    73.181637    -6831.776   -6643.5207    -6831.776            0    8813.7784    23.075405    21.129104     21.37169    10420.037    8346.7707    9190.4195     8904.145    691.02979    63.797064   -216.43911     -5304.13 
 1640000     70.67637   -6826.1033   -6644.2926   -6826.1033            0    7298.7735    23.109005    21.139595    21.421985    10464.962    7370.5117    7779.7247    6746.0841    -241.7689     36.01103   -372.64252   -5530.3485 
 1641000    72.795483   -6832.9394   -6645.6775   -6832.9394            0    7993.4928    22.942829    21.245139     21.42804    10444.532    8638.0037    7666.0258     7676.449   -14.585005   -734.32824   -275.21168   -5428.0863 
 1642000    74.237894   -6831.3677   -6640.3952   -6831.3677            0    7931.0423    23.077138    21.109813    21.441058    10445.098    8026.8872    8664.9915    7101.2482   -310.38453   -339.75777   -129.38389   -5432.2513 
 1643000    73.713944   -6827.2553   -6637.6306   -6827.2553            0    8653.4167    22.934174    21.206601    21.444277    10429.551     9284.963    8556.6408    8118.6462    -157.0315    161.39577   -268.49674   -5321.4088 
 1644000     71.37914   -6820.8395    -6637.221   -6820.8395            0    9456.7342    23.068553    21.043541    21.437425     10406.67    9626.3178    9441.9355    9301.9493   -376.50499   -516.25948   -500.62108   -5201.9667 
 1645000    76.160201   -6824.5969   -6628.6794   -6824.5969            0    8127.1321    22.963991    21.247368    21.403092     10443.09    7890.5311     8339.515    8151.3503    60.062244     661.9052    -407.6054   -5390.9029 
 1646000    72.810848   -6831.9665   -6644.6651   -6831.9665            0    8384.1376    23.058603    21.118764     21.42171    10431.713    8079.6064    8723.3467    8349.4597    44.697603    789.88485   -20.864455   -5369.1373 
 1647000    71.704897   -6827.7121   -6643.2556   -6827.7121            0    8654.4611    22.970643    21.138403    21.451055    10415.833    8637.3181    8594.1582    8731.9071    140.83513    1053.7197    191.45174   -5328.6063 
 1648000    72.021238   -6832.9155   -6647.6452   -6832.9155            0    8238.1209    22.967845    21.212889    21.409159     10430.85    8430.3169      7271.36    9012.6859    802.79679   -242.24649    964.88178   -5394.4356 
 1649000    71.729168   -6816.0514   -6631.5325   -6816.0514            0    8458.0733    23.075078    21.093892    21.464511    10447.705    7912.3884    9595.3305    7866.5009    676.20432    410.87036    400.02374   -5342.7838 
 1650000    71.682679    -6830.207   -6645.8077    -6830.207            0    7921.8703    23.011412    21.204195    21.411718    10447.601    7822.2022    8033.0429    7910.3659    28.035213    766.47848    374.90787   -5438.7718 
 1651000    75.953641    -6824.318   -6628.9319    -6824.318            0    8782.8939    23.128302    21.062157    21.378707    10414.251     8686.313    8944.5881    8717.7805    175.45385   -419.88929   -233.65844   -5294.9757 
 1652000    71.357665   -6828.9784   -6645.4151   -6828.9784            0    8405.0315    22.969026    21.282804    21.309403    10417.001    8605.8355    8383.2399    8226.0193   -492.85314   -129.22339     -313.849    -5368.512 
 1653000    72.350128   -6818.4001   -6632.2838   -6818.4001            0    7694.5674    23.131103    21.189054    21.360335     10469.26    7783.9313    7450.4485    7849.3225   -462.69003    -896.3559    -465.6394    -5457.451 
 1654000    71.812129   -6824.1516   -6639.4193   -6824.1516            0    8116.1532    23.049872    21.233139    21.338365    10443.447    8283.2143    7566.8346    8498.4108   -969.06528    166.23641   -101.56614   -5403.2727 
 1655000    70.821239   -6829.8038   -6647.6205   -6829.8038            0    8225.7463    23.145102    21.041175    21.407033    10425.228    8506.8611    8801.4761    7368.9017   -252.64893    574.39808   -619.44331   -5396.9676 
 1656000    70.670875   -6834.4134   -6652.6169   -6834.4134            0    8430.7691    23.024976    21.132994    21.397616    10411.795    8465.8449    8920.6135     7905.849   -331.64514    377.18075   -131.72413   -5372.4437 
 1657000     73.00984   -6828.6354    -6640.822   -6828.6354            0    8983.5644    23.012374    21.167776    21.360915    10405.346    9045.2582     9114.461    8790.9741    319.86163   -74.774683    61.545275   -5277.5544 
 1658000    73.059145   -6834.8196   -6646.8794   -6834.8196            0    7990.7114     23.08456    21.176956     21.33852    10431.564    8345.1386    8030.6876    7596.3079   -340.15566   -316.80112   -306.49683   -5431.2233 
 1659000    72.926454   -6823.7745   -6636.1756   -6823.7745            0    8221.8988    23.047601      21.2225    21.318437    10427.438    7956.0801    7677.0842    9032.5321    467.88054     221.6708    341.45197   -5385.8428 
 1660000    73.044277    -6824.085   -6636.1831    -6824.085            0    8886.0085    23.085815    21.150819    21.289896    10395.513     8915.101    7977.4886    9765.4361   -61.402766   -296.72532    678.93521    -5288.994 
 1661000     72.11734   -6831.0542   -6645.5367   -6831.0542            0    8211.9338    23.131971    21.167479    21.259582    10409.659    7239.2092    8911.6075    8484.9847    370.23539    240.06615    -251.0206   -5398.8486 
 1662000    72.884319   -6824.5618   -6637.0713   -6824.5618            0    8051.6518    23.143487    21.144649    21.310332    10428.443    7610.6238    7674.8442    8869.4874    396.68028    497.31239    173.46341   -5412.5105 
 1663000    71.854775   -6825.6412   -6640.7991   -6825.6412            0    8131.5312    23.110485    21.151268    21.347525    10435.013    7520.0996    8613.4905    8261.0034    166.86101    482.36585    96.511328   -5403.3105 
 1664000    71.027826   -6826.2484   -6643.5337   -6826.2484            0    8693.6736    22.969549     21.23786    21.328848    10404.725    9128.9543    8354.5107    8597.5558   -449.58117    201.35958   -627.63178   -5324.3361 
 1665000    69.230177   -6817.8741   -6639.7837   -6817.8741            0    7765.5406    23.122727    21.161856    21.353128    10448.509    7477.8686    8402.7588    7415.9945    -511.0019    -839.3763   -756.86932   -5456.4646 
 1666000    75.337546   -6820.6373    -6626.836   -6820.6373            0    9030.3616    23.041402    21.202776    21.301519     10406.68    9048.4885    8707.3112    9335.2851    38.675063    409.28468   -147.88516   -5256.2912 
 1667000    71.136173   -6822.9498   -6639.9563   -6822.9498            0    8981.7168    23.107372    21.105278    21.342748    10408.592    8729.1285    8758.5451    9457.4768    122.78477    144.69494   -198.00185    -5276.544 
 1668000    75.631908   -6827.0261   -6632.4676   -6827.0261            0    7352.6052    23.099338    21.282595    21.270179    10456.715     7054.233    6856.9092    8146.6734   -224.49299    625.13787   -132.16742    -5511.192 
 1669000    77.865313   -6823.5506   -6623.2468   -6823.5506            0    8348.2391    23.049089    21.209724    21.331747    10428.341    7646.5951     8318.853    9079.2692    -236.6215   -76.180977    230.30397   -5353.5911 
 1670000    71.836574   -6826.0375   -6641.2423   -6826.0375            0    8458.1157    23.001519    21.181914     21.39559    10424.278    8740.4461    8264.5673    8369.3337   -259.66056    117.74753    417.48087   -5355.3769 
 1671000    72.135445   -6823.8684   -6638.3043   -6823.8684            0     8990.664      22.9426    21.191256    21.409129    10408.744    9260.9934    9015.3006     8695.698    481.45573    31.811033    588.10862   -5273.5139 
 1672000    73.533773   -6826.6491    -6637.488   -6826.6491            0    8298.0676     23.08443    21.099596     21.40761    10427.051    8115.6907    8674.9929    8103.5192   -99.380513   -10.065956   -306.49931   -5375.6187 
 1673000    71.537008   -6829.0348   -6645.0102   -6829.0348            0    7719.7193    22.979486    21.267934    21.393212    10455.423    8097.4529    7475.5664    7586.1385   -225.97979    605.86842   -122.45613   -5467.8949 
 1674000    71.819197   -6830.6115    -6645.861   -6830.6115            0    8594.1613    23.091442    21.095593    21.400222     10424.64    8557.4645    8710.3451    8514.6745    672.05003   -849.47582    -387.5096   -5339.2676 
 1675000    73.984515   -6830.0577    -6639.737   -6830.0577            0    8102.8888    23.003135    21.266682    21.359838    10449.241    8458.0735    7378.7802    8471.8125   -173.28212    269.54046    349.71566    -5404.926 
 1676000    70.843019   -6829.0337   -6646.7944   -6829.0337            0    8366.7801    23.136461    21.080285    21.419831    10446.948    7885.0994    8273.0257    8942.2152   -2.3855095   -741.15595    73.967094   -5372.0483 
 1677000    74.491514   -6812.6856   -6621.0607   -6812.6856            0    9344.2655     22.91898    21.184844    21.419445     10399.89    9786.4328    9658.1088    8588.2549     100.5796    799.83932   -263.96399   -5203.7998 
 1678000     73.83653   -6818.8716   -6628.9316   -6818.8716            0    9373.4145    22.997917    21.108955     21.41135    10394.397    9556.8647    9222.3269     9341.052    278.47577   -701.80415   -86.508463   -5208.0005 
 1679000    71.559463   -6824.5644    -6640.482   -6824.5644            0    8136.1576    22.997474    21.187114    21.437209    10445.283    8877.4266    7391.8658    8139.1804   -129.89855   -12.694713    993.40416   -5401.0708 
 1680000    71.407673   -6819.4836   -6635.7918   -6819.4836            0    8227.5766    22.895766    21.239377    21.468974    10440.186    8620.6123    8049.8132    8012.3042    402.30157    383.23654    608.02278   -5383.0658 
 1681000    73.237413   -6825.8907   -6637.4919   -6825.8907            0     9409.461     23.05939    21.055653    21.407257    10393.876    9297.4428    9175.9014     9755.039   -124.15249    311.07888    118.15295   -5211.1679 
 1682000     71.62269   -6815.3864   -6631.1414   -6815.3864            0    8631.9159    22.883484    21.245779     21.45439     10430.64    9305.7813    9153.7594    7436.2071    385.26062    242.75201   -640.54656   -5318.0527 
 1683000     72.23329   -6831.4741   -6645.6583   -6831.4741            0    8289.1076    23.130411     21.05456    21.441397    10441.974    8184.4297    9105.6337    7577.2593   -487.88027    653.20717   -427.81951   -5383.3476 
 1684000    71.103151   -6825.6403   -6642.7318   -6825.6403            0    8963.7761    22.933105    21.233545    21.396039    10418.825    9448.9138    8927.5523    8514.8622    574.30959    13.675078   -611.43308    -5280.705 
 1685000    72.529697   -6820.4329   -6633.8546   -6820.4329            0    8127.6822    23.144577    21.044882     21.44606    10445.838    8427.7909    8206.7494    7748.5063   -171.57202   -332.13278    458.73198   -5395.6687 
 1686000    74.736169   -6822.8248   -6630.5705   -6822.8248            0     8555.587    22.962484    21.219738    21.395794    10425.269    8309.2112    8398.3093    8959.2405    684.40342   -358.39873    798.86544   -5329.7632 
 1687000    72.079584   -6832.6039   -6647.1836   -6832.6039            0    8748.5667    22.985045    21.195838    21.380017    10416.073    8701.2257    8816.3668    8728.1077    61.010421    195.80228    354.36708   -5318.2086 
 1688000    72.776266   -6818.3911   -6631.1786   -6818.3911            0     8361.322    23.091685    21.104139    21.412051    10434.738    7668.2812    8959.0528    8456.6319    416.37864    109.85601    243.06969   -5358.7531 
 1689000    67.835857   -6827.8857   -6653.3821   -6827.8857            0    7634.9464    23.036448    21.203088    21.381898    10443.857     7848.171    7577.0997    7479.5686    181.33545    661.14125    378.38822    -5490.481 
 1690000    76.744162   -6818.3465   -6620.9268   -6818.3465            0    8313.9058    23.134154    21.116819    21.348533     10429.18    8625.1669    8167.7944    8148.7561   -254.97604   -559.48556   -43.182024    -5356.391 
 1691000    74.188689   -6823.5312   -6632.6853   -6823.5312            0    8444.0548    22.967088    21.298643    21.333344    10435.585     9590.618    6991.7886    8749.7579   -439.02382    -559.9333   -668.73905   -5347.5652 
 1692000    72.409528   -6823.6051    -6637.336   -6823.6051            0    7839.7918    23.157347    21.102421    21.386725    10451.181    7413.3906     8730.196    7375.7888   -372.64823    211.76752   -956.08055   -5442.3969 
 1693000    72.605669   -6830.2468   -6643.4731   -6830.2468            0    8152.3582    23.031425    21.202839    21.382963    10441.976    7804.0131      8483.21    8169.8514    756.69801   -36.884986    -136.4992   -5401.9871 
 1694000    71.278232   -6818.9356   -6635.5767   -6818.9356            0    8933.1951    23.032175    21.140384    21.391777    10415.849     9012.245    8698.5272     9088.813   -169.38986    386.58366    681.86557   -5278.5844 
 1695000    74.413635   -6822.1635    -6630.739   -6822.1635            0    8416.7253    22.995295    21.184632    21.379935    10415.168    8155.0715     8858.079    8237.0255    221.10128   -653.90415    426.43192   -5352.2843 
 1696000    72.519748   -6822.0735   -6635.5209   -6822.0735            0    9317.3005    23.030711    21.156944    21.312406    10384.671    9122.3291    8937.7341    9891.8384    329.74638    585.64285    720.74814   -5224.4178 
 1697000    70.085623   -6817.4119   -6637.1209   -6817.4119            0    8163.5636    23.163598    21.128762    21.309973    10429.488    7434.8054     7594.594    9461.2914    -279.1662    423.71805    745.60013   -5395.4152 
 1698000    70.290194   -6814.5806   -6633.7633   -6814.5806            0    8259.7607    23.051846    21.232622    21.320004      10435.1    8334.6774    7678.7048       8765.9   -447.40339    30.492921   -639.77349   -5376.7497 
 1699000     71.99539   -6817.1404   -6631.9367   -6817.1404            0    8110.5386    23.187098    21.095517    21.335753    10436.252    8428.9743     7816.342    8086.2994   -235.11536   -297.49693    -145.7067   -5397.4962 
 1700000    75.654158   -6835.1466   -6640.5309   -6835.1466            0     8742.911    22.932104    21.301986    21.302494    10406.254    9178.3731    7856.1402    9194.2197      506.555   -52.104202   -263.14568    -5313.667 
 1701000     72.24046   -6824.8597   -6639.0255   -6824.8597            0    8433.4206    23.137328    21.097973    21.365298    10429.486     8795.254    8699.3631    7805.6447    113.31824   -804.86438    212.90184   -5356.2739 
 1702000    73.945594   -6827.9665    -6637.746   -6827.9665            0     8777.886     22.91105    21.260634     21.36256    10405.777    8871.4524    8526.8555    8935.3501    168.21123    120.02356    307.56059   -5305.6353 
 1703000    69.954585   -6832.9377   -6652.9838   -6832.9377            0    8349.1397    23.081616    21.104865     21.38108     10415.46    8193.5391    8752.3056    8101.5743   -108.70632   -55.748004   -694.01586   -5384.7595 
 1704000    70.687312   -6820.9343   -6639.0955   -6820.9343            0    8741.4527    23.041774    21.159545    21.376345     10422.11    8267.9904    8935.8924    9020.4754    339.40546    350.06323    127.63272   -5310.4315 
 1705000    70.586728   -6827.3487   -6645.7687   -6827.3487            0    7984.6392    23.064322    21.151359    21.392939    10436.369    8142.3753    7334.5107    8477.0316    200.74796   -151.37408    -14.23434   -5430.4767 
 1706000    70.121802   -6822.6792   -6642.2951   -6822.6792            0    9288.6924    23.028409    21.157352    21.321784    10388.403    9728.2112    9338.0982    8799.7679   -419.90451    -22.43448   -764.46257   -5235.0192 
 1707000    72.316004   -6832.0337   -6646.0052   -6832.0337            0    8744.8098    22.972793    21.259955    21.310896    10408.253    8916.7501    7861.5698    9456.1096    546.16658   -330.49341     34.19155   -5318.5982 
 1708000     74.00527   -6829.8295   -6639.4555   -6829.8295            0    7747.3749    23.180552    21.086807    21.377037    10449.177    7190.9873    7940.3818    8110.7556   -446.47453    403.08048   -391.47823   -5458.8289 
 1709000    73.948446   -6824.3042   -6634.0763   -6824.3042            0    8078.5776    22.885422    21.314298    21.402102    10439.661    8469.2298    7854.2571     7912.246    393.74375    1282.9336   -418.73775   -5404.0988 
 1710000    72.091102   -6828.6769   -6643.2269   -6828.6769            0    7604.7196    23.166234    21.072878    21.421979    10457.765     7377.943    8202.2076    7234.0081   -294.41457   -643.30803    -321.7261   -5483.3873 
 1711000    70.018798   -6814.1704   -6634.0513   -6814.1704            0    8147.5607     22.93673    21.290939     21.36649    10434.209    8435.6269     8426.238    7580.8171    170.90371    631.69931   -174.12708   -5394.2189 
 1712000     70.19259   -6823.3558   -6642.7896   -6823.3558            0    8378.1935    23.096988    21.122157    21.368487    10424.792    7858.9132     8343.642    8932.0253   -199.09941    558.36918    568.42401   -5369.0118 
 1713000    71.070611   -6822.3986   -6639.5738   -6822.3986            0    8882.8916    23.134457    21.119266    21.314752     10414.02    7947.7656    8768.9191    9931.9902    325.36089     327.8319      316.947   -5290.4597 
 1714000    73.703773   -6829.1453   -6639.5469   -6829.1453            0    8538.9797    23.064279     21.20256    21.306207    10419.199    8496.7728    8326.7049    8793.4613   -730.47561    608.49804   -761.38804   -5342.0205 
 1715000    71.584281   -6833.2322    -6649.086   -6833.2322            0    8132.0483    23.120749    21.144486    21.320065    10422.875    8064.2072     8080.532    8251.4056     377.4851   -177.30794    56.062611   -5412.9581 
 1716000    70.810251   -6817.7656   -6635.6106   -6817.7656            0    8790.8727     22.89728    21.357298    21.275134    10404.052    9214.4532     8045.713    9112.4517     -7.38592    50.860263   -165.59919   -5301.7501 
 1717000    74.324103   -6830.1379   -6638.9436   -6830.1379            0    8691.2807    23.150496    21.076575    21.337726    10411.384    8697.0997    8215.4641    9161.2783   -440.13791   -373.44685    382.96535   -5319.2651 
 1718000    74.543242   -6825.3077   -6633.5497   -6825.3077            0    8240.1424    22.998436    21.250869    21.349435    10434.253    8244.1398    7799.8005    8676.4868    401.27222   -356.30075    367.29317   -5379.6235 
 1719000    74.764819    -6831.586    -6639.258    -6831.586            0    8452.1199    23.248295    20.990412    21.346088    10416.705    7526.1883    9092.0749    8738.0965    1044.6707   -367.91315    200.01812   -5355.2377 
 1720000    70.466823   -6832.8162   -6651.5446   -6832.8162            0    7942.2359    23.046974    21.269458    21.290957    10436.756    8137.0112    7094.5563    8595.1403   -248.32057    436.08663   -340.34711   -5442.6618 
 1721000    72.747339    -6828.561   -6641.4229    -6828.561            0     8432.688    23.097871    21.200124    21.274934    10417.862    8431.5394    7820.9885    9045.5362    481.21953   -353.61734    280.08097   -5360.2124 
 1722000    71.525891   -6831.4839   -6647.4879   -6831.4839            0    7795.8217    23.052837    21.195589    21.355958    10434.915    7693.8083    7752.9336    7940.7232   -63.467417   -476.49921    623.39884      -5461.1 
 1723000    70.439154   -6823.5494   -6642.3489   -6823.5494            0    8487.5183    22.991962    21.226199    21.337841    10413.549     8869.852    8693.7182    7898.9847    847.31384     22.50428   -235.28583   -5353.3417 
 1724000    74.912087   -6817.9908    -6625.284   -6817.9908            0    9061.7441    23.157029    21.010575    21.385872    10405.136    8532.5164    10487.832    8164.8841   -512.03794   -460.77368   -722.28374   -5250.1804 
 1725000    72.142676   -6828.9006    -6643.318   -6828.9006            0    8567.9067     22.98364    21.250397     21.33457    10420.049    9398.8982    7157.2486    9147.5733   -56.895634    -617.3888   -59.232478   -5341.2899 
 1726000     72.61668   -6828.9824   -6642.1804   -6828.9824            0     8165.228    23.207067    21.073453    21.328575    10430.804    7336.5678     8574.631    8584.4852    104.13693   -723.78675   -162.21859   -5400.0649 
 1727000    77.084435   -6818.6339   -6620.3389   -6818.6339            0    8885.6971    23.002522    21.245157     21.29448    10406.446    8864.9721    8604.9312    9187.1878   -904.05732    1134.8505    23.963799   -5271.7802 
 1728000    77.240082   -6826.2635   -6627.5681   -6826.2635            0    8058.7243    23.104574    21.162508     21.35392    10441.015    8466.2004    7676.0576    8033.9148   -571.22399   -622.13959   -440.36569   -5400.4542 
 1729000    75.946832   -6829.8003   -6634.4317   -6829.8003            0    8765.2749    23.066343    21.177075    21.328825    10418.655    8734.0497    8807.1335    8754.6415    263.34618   -130.27532   -584.47446   -5302.5885 
 1730000    76.140645   -6827.1888   -6631.3217   -6827.1888            0     8213.902    23.054553     21.18655    21.360949     10433.68    8305.5019    8353.9484    7982.2558    523.64456   -170.91015   -590.96185   -5381.4572 
 1731000    76.592242   -6825.4426   -6628.4137   -6825.4426            0     8252.957    23.138005    21.141328    21.315561    10426.894    8108.2167    8397.9276    8252.7265   -893.16787   -430.31541    -23.79659   -5373.4233 
 1732000    71.582842   -6816.6783   -6632.5358   -6816.6783            0    8407.8621    22.967666    21.266371    21.312783    10409.993    8922.4648    7649.9999    8651.1216   -410.95112   -258.64106    440.00213    -5356.062 
 1733000    72.027063   -6827.9494   -6642.6641   -6827.9494            0    8483.0817    23.088452     21.12612    21.373008      10425.1     8390.284    8561.7255    8497.2356   -441.82791   -292.43204    610.74728   -5352.9016 
 1734000    69.250848   -6816.1629   -6638.0194   -6816.1629            0    8093.3651    22.973875    21.241563    21.380641    10433.775    8546.4143    7937.1771    7796.5039   -202.35056    506.43082   -98.885552   -5406.4851 
 1735000    74.441169    -6833.119   -6641.6237    -6833.119            0    8451.4087    23.081907    21.123316    21.394121    10431.055    8005.0136    9176.9538    8172.2588    550.16352   -336.70682    -326.8351   -5355.9426 
 1736000    72.657873   -6830.3454   -6643.4375   -6830.3454            0     7926.721    23.077078    21.158489    21.401274     10449.73    7946.0196    7260.8604     8573.283   -580.35643   -178.64328   -64.990624   -5435.4163 
 1737000    72.587601   -6831.9811   -6645.2539   -6831.9811            0     8126.902    22.990737    21.213894    21.399758    10437.156    8076.6298    8693.1428    7610.9335   -96.489594    167.57473   -392.81568   -5408.2158 
 1738000    76.829478   -6827.3744   -6629.7352   -6827.3744            0    8475.3467    23.032102    21.104441    21.485278    10443.557    8829.8868     8423.201    8172.9523   -766.30963   -3.9232906     551.3438   -5338.8673 
 1739000    71.729849   -6824.5303   -6640.0096   -6824.5303            0     8398.713    22.873515    21.237216    21.456302    10422.823    8928.6348    8084.5818    8182.9223    416.30942    217.53534    154.61427   -5363.3533 
 1740000    73.148486   -6823.3001   -6635.1301   -6823.3001            0    8303.1543    23.054476    21.067308    21.473616    10429.644      8033.34    9083.6065    7792.5166    326.88711    86.953738    138.32947   -5372.1733 
 1741000    74.007988   -6827.9848   -6637.6037   -6827.9848            0    8703.2881    22.986034    21.064977    21.486678    10403.855    8780.8333    9874.6098    7454.4211    580.54759    269.60117    76.006039   -5317.0577 
 1742000    72.719633   -6830.1722   -6643.1053   -6830.1722            0    8689.4187    23.032023    21.103004    21.456678    10428.908    9122.8899    8612.2998    8333.0664    515.12617   -281.95802    444.66765   -5321.4888 
 1743000    74.284828   -6830.9108   -6639.8176   -6830.9108            0    7843.6661    23.060518    21.183501    21.411047     10459.35    7668.3614    8143.8584    7718.7785   -105.94683   -546.49628    76.870834   -5443.3535 
 1744000    73.520404   -6831.7511   -6642.6244   -6831.7511            0    7089.8225    22.969381    21.328144     21.38911    10478.402    7800.3931    6622.1618    6846.9127   -557.64413    -525.3803   -90.510712   -5559.1808 
 1745000    79.394181   -6828.4316   -6624.1949   -6828.4316            0    8826.1461    23.007135    21.173635    21.409152    10429.355    8281.2913    9449.4344    8747.7125   -591.26737   -321.02193   -634.94441   -5281.7253 
 1746000    73.431906    -6835.638   -6646.7389    -6835.638            0    8055.3501    23.065115    21.151504    21.413061    10446.616     7472.341    8459.9995    8233.7099    947.64614    495.16445    101.68642   -5419.4807 
 1747000    73.008201   -6829.4256   -6641.6165   -6829.4256            0    7482.9561     23.01412    21.147972    21.510514     10469.21    7868.6108    7875.7343    6704.5231    276.12252    602.41348    334.38265   -5499.0987 
 1748000    75.909578    -6828.709   -6633.4363    -6828.709            0    8998.0279    23.028304    21.101859    21.422229    10409.918     8997.168    8887.5529    9109.3628    144.43408      421.874   -340.98637   -5267.3739 
 1749000    72.578904   -6828.4296   -6641.7248   -6828.4296            0    8767.3415    22.998618    21.192171    21.362884     10412.07    9015.2235    8960.5261    8326.2749    -624.3191    123.24259   -536.89374   -5310.4097 
 1750000    76.525489   -6823.1996   -6626.3424   -6823.1996            0    7541.9987    23.038057    21.207488    21.433526    10471.978    7430.9955    8129.5615    7065.4392   -510.01111   -65.335375    -831.1381   -5474.5054 
Loop time of 609.689 on 64 procs for 250000 steps with 1296 atoms

Performance: 70.856 ns/day, 0.339 hours/ns, 410.045 timesteps/s
197.2% CPU use with 32 MPI tasks x 2 OpenMP threads

MPI task timing breakdown:
Section |  min time  |  avg time  |  max time  |%varavg| %total
---------------------------------------------------------------
Pair    | 37.437     | 49.163     | 60.657     |  87.0 |  8.06
Bond    | 0.8424     | 1.092      | 1.342      |  11.7 |  0.18
Kspace  | 320.64     | 337.5      | 354.64     |  48.0 | 55.36
Neigh   | 0.62916    | 0.72063    | 0.79704    |   7.7 |  0.12
Comm    | 76.245     | 87.48      | 100.99     |  73.1 | 14.35
Output  | 0.82539    | 0.82581    | 0.82783    |   0.0 |  0.14
Modify  | 114.93     | 118.61     | 124.48     |  25.1 | 19.45
Other   |            | 14.29      |            |       |  2.34

Nlocal:        40.5000 ave          50 max          29 min
Histogram: 2 3 1 3 5 4 6 1 1 6
Nghost:        3166.19 ave        3199 max        3134 min
Histogram: 1 2 4 4 6 6 1 6 0 2
Neighs:        13343.2 ave       16507 max        9611 min
Histogram: 2 3 1 3 5 4 6 2 3 3

Total # of neighbors = 426983
Ave neighs/atom = 329.46219
Ave special neighs/atom = 2.0000000
Neighbor list builds = 1362
Dangerous builds = 0

unfix		3
unfix		2
unfix		1

write_data	data.final.${pid}
write_data	data.final.0
System init for write_data ...
PPPM initialization ...
  extracting TIP4P info from pair style
  using 12-bit tables for long-range coulomb (../kspace.cpp:340)
  G vector (1/distance) = 0.36936856
  grid = 27 40 32
  stencil order = 5
  estimated absolute RMS force accuracy = 0.0041275933
  estimated relative force accuracy = 1.2430125e-05
  using double precision FFTW3
  3d grid and FFT values/proc = 6783 1120
Last active /omp style is kspace_style pppm/tip4p/omp
WARNING: Not all mixed pair coeffs generated from mixing. Use write_data with 'pair ij' option to store all pair coeffs. (../write_data.cpp:312)

write_restart   restart.lmp.${pid}
write_restart   restart.lmp.0
System init for write_restart ...
PPPM initialization ...
  extracting TIP4P info from pair style
  using 12-bit tables for long-range coulomb (../kspace.cpp:340)
  G vector (1/distance) = 0.36936856
  grid = 27 40 32
  stencil order = 5
  estimated absolute RMS force accuracy = 0.0041275933
  estimated relative force accuracy = 1.2430125e-05
  using double precision FFTW3
  3d grid and FFT values/proc = 6783 1120
Last active /omp style is kspace_style pppm/tip4p/omp
Total wall time: 0:10:09
