LAMMPS (30 Jul 2021)
  using 1 OpenMP thread(s) per MPI task
package omp 0
using multi-threaded neighbor list subroutines
echo both

include		in.partitions
variable        pid world 0
include		in.temp
variable        temperature equal 262.98
variable	tempDamp equal 100.0
include		in.pressure
variable        pressure equal 6875.0
variable        pressureDamp equal 1000.0 # This is 1 ps
include		in.seed
variable        seed world 745823

units		real
atom_style	full

read_restart	restart.lmp.${pid}
read_restart	restart.lmp.0
Reading restart file ...
  restart file = 30 Jul 2021, LAMMPS = 30 Jul 2021
  restoring atom style full from restart
  orthogonal box = (0.096372465 0.016375304 -0.014748948) to (19.903629 19.983626 20.714747)
  4 by 4 by 4 MPI processor grid
  restoring pair style lj/cut/tip4p/long/omp from restart
  restoring bond style harmonic/omp from restart
  restoring angle style harmonic/omp from restart
  972 atoms
  648 bonds
  324 angles
Finding 1-2 1-3 1-4 neighbors ...
  special bond factors lj:    0        0        0       
  special bond factors coul:  0        0        0       
     2 = max # of 1-2 neighbors
     1 = max # of 1-3 neighbors
     1 = max # of 1-4 neighbors
     2 = max # of special neighbors
  special bonds CPU = 1.572 seconds
  read_restart CPU = 1.885 seconds
include 	in.setup
variable	out_freq equal 1000
variable	out_freq2 equal 10000
variable	out_freq3 equal 1000

timestep	2.0

neigh_modify    delay 7 every 1

include		in.tip4p
# This is TIP4P/Ice

# create groups ###
group ox type 2
324 atoms in group ox
group hy type 1
648 atoms in group hy

# set charges - beside manually ###
set group ox charge -1.1794
Setting atom values ...
  324 settings made for charge
set group hy charge 0.5897
Setting atom values ...
  648 settings made for charge

# ### TIP3P Potential Parameters ###
pair_style lj/cut/tip4p/long/omp 2 1 1 1 0.1577 8.5
pair_coeff 1 1*2 0.000 0.000
pair_coeff 2 2 0.21084 3.1668
bond_style  harmonic
bond_coeff  1 450 0.9572
angle_style harmonic
angle_coeff 1 55 104.52
kspace_style pppm/tip4p/omp 1.0e-5
pair_modify tail yes

thermo          ${out_freq}
thermo          1000
thermo_style    custom step temp pe etotal epair emol press lx ly lz vol pxx pyy pzz pxy pxz pyz enthalpy

restart 	${out_freq3} restart.lmp.${pid} restart2.lmp.${pid}
restart 	1000 restart.lmp.${pid} restart2.lmp.${pid}
restart 	1000 restart.lmp.0 restart2.lmp.${pid}
restart 	1000 restart.lmp.0 restart2.lmp.0


include         in.dump
dump            myDump all atom ${out_freq2} dump.water.${pid}
dump            myDump all atom 10000 dump.water.${pid}
dump            myDump all atom 10000 dump.water.0
dump            myDump2 all dcd ${out_freq2} dump.dcd
dump            myDump2 all dcd 10000 dump.dcd
dump_modify     myDump append yes
dump_modify     myDump2 append yes


variable natoms 	equal  "count(all)"                        # NUMBER ATOMS
variable H      	equal  "enthalpy/v_natoms"                 # ENTHALPY-per-atom
variable Vol      	equal  "vol/v_natoms"                 # volume-per-atom
fix AVG all 		ave/time ${out_freq} 1 ${out_freq} v_Vol v_H file vol_enthalpy.dat
fix AVG all 		ave/time 1000 1 ${out_freq} v_Vol v_H file vol_enthalpy.dat
fix AVG all 		ave/time 1000 1 1000 v_Vol v_H file vol_enthalpy.dat


timer           timeout 02:55:00 every 1000
New timer settings: style=normal  mode=nosync  timeout=02:55:00

fix 		1 all shake 1e-6 200 0 b 1 a 1
       0 = # of size 2 clusters
       0 = # of size 3 clusters
       0 = # of size 4 clusters
     324 = # of frozen angles
  find clusters CPU = 0.180 seconds
fix             2 all nph aniso ${pressure} ${pressure} ${pressureDamp}
fix             2 all nph aniso 6875 ${pressure} ${pressureDamp}
fix             2 all nph aniso 6875 6875 ${pressureDamp}
fix             2 all nph aniso 6875 6875 1000
fix             3 all temp/csvr ${temperature} ${temperature} ${tempDamp} ${seed}
fix             3 all temp/csvr 262.98 ${temperature} ${tempDamp} ${seed}
fix             3 all temp/csvr 262.98 262.98 ${tempDamp} ${seed}
fix             3 all temp/csvr 262.98 262.98 100 ${seed}
fix             3 all temp/csvr 262.98 262.98 100 745823


run             250000
PPPM initialization ...
  extracting TIP4P info from pair style
  using 12-bit tables for long-range coulomb (../kspace.cpp:340)
  G vector (1/distance) = 0.37280002
  grid = 24 24 25
  stencil order = 5
  estimated absolute RMS force accuracy = 0.0033601146
  estimated relative force accuracy = 1.0118885e-05
  using double precision FFTW3
  3d grid and FFT values/proc = 2366 288
Last active /omp style is kspace_style pppm/tip4p/omp
Neighbor list info ...
  update every 1 steps, delay 7 steps, check yes
  max neighbors/atom: 2000, page size: 100000
  master list distance cutoff = 10.8154
  ghost atom cutoff = 10.8154
  binsize = 5.4077, bins = 4 4 4
  1 neighbor lists, perpetual/occasional/extra = 1 0 0
  (1) pair lj/cut/tip4p/long/omp, perpetual
      attributes: half, newton on, omp
      pair build: half/bin/newton/omp
      stencil: half/bin/3d
      bin: standard
Per MPI rank memory allocation (min/avg/max) = 9.229 | 9.232 | 9.239 Mbytes
Step Temp PotEng TotEng E_pair E_mol Press Lx Ly Lz Volume Pxx Pyy Pzz Pxy Pxz Pyz Enthalpy 
11500000    273.66756   -4668.7383   -4140.9474   -4668.7383            0    6950.3555    19.807256     19.96725    20.729496    8198.4419    6224.4623    8642.2039    5984.4004   -393.60504    1547.9252   -424.40417   -3309.9222 
11501000    268.03169   -4707.6159   -4190.6942   -4707.6159            0    7860.7986     19.67985    20.106683     20.55655    8134.1551    8088.7008    7551.7185    7941.9764   -400.09428    699.37506   -960.73518    -3258.181 
11502000    255.15454    -4682.855    -4190.768    -4682.855            0     6191.973    20.113554    19.881188    20.621133    8246.0063    4286.9911     7028.162    7260.7657    -259.8725   -929.10362   -403.89208   -3446.1241 
11503000    260.40715   -4704.0246   -4201.8075   -4704.0246            0     6053.968    19.820367    20.020974    20.774527    8243.8113    7343.3121    4492.8067    6325.7851   -152.16406    356.25996   -1311.7769   -3473.9539 
11504000    256.23222   -4708.7191   -4214.5537   -4708.7191            0    9291.9181    19.823045    19.843037    20.541271    8079.8968    7398.2099    9781.4728    10696.071    284.05574   -206.62962    1287.1753   -3119.6219 
11505000    270.08717   -4705.0145   -4184.1286   -4705.0145            0      5922.65    19.865146     20.06187    20.539267    8185.5547    5478.8403     6067.621    6221.4886    -53.43757    170.42811   -52.743108    -3477.095 
11506000    268.75795   -4690.4052   -4172.0829   -4690.4052            0    5730.0527    19.915157    19.893105    20.828221    8251.6059    4878.6986    6633.1311    5678.3283   -350.10721    444.85894    957.18268   -3482.5214 
11507000    271.06896   -4696.0401   -4173.2608   -4696.0401            0    7539.5196    20.016664    19.843197    20.526275    8152.9257    6607.4307    8365.6377    7645.4905    717.88871    1713.6833    53.589902   -3276.7964 
11508000    265.07957   -4696.6609   -4185.4326   -4696.6609            0    6948.8235    20.159721    19.968298    20.428308    8223.5241    5690.4778    6165.9448     8990.048   -591.31174   -276.04538    986.61709   -3352.0487 
11509000    273.47139   -4687.3968   -4159.9842   -4687.3968            0    7185.4024     19.83608     20.01827    20.495997    8138.6328    7815.2824    6990.4664    6750.4585   -195.40613   -747.49936    180.75878   -3307.1228 
11510000    275.12832   -4695.5849   -4164.9768   -4695.5849            0       7582.7    19.779106    20.000698    20.700883    8189.1847     8315.938    6583.7755    7848.3866     826.7341   -145.17359    1126.0444   -3259.3684 
11511000    265.86952   -4711.7258    -4198.974   -4711.7258            0    6483.9075    20.191109    19.982103    20.489842    8266.8482    5885.7746    7276.6757    6289.2722   -823.67133    358.13447   -55.396021   -3417.2515 
11512000     269.6468    -4660.523   -4140.4865    -4660.523            0     6496.126    20.138361    19.922163    20.502953    8225.7785    6657.6372    6224.0096    6606.7312    211.52233    999.99001    806.27904   -3361.1817 
11513000    275.45076   -4676.0192   -4144.7893   -4676.0192            0    8841.1629    19.898265    19.906962    20.522223    8129.1401    8201.2695    9545.0182     8777.201   -1140.7502    69.644302   -15.430916   -3096.6237 
11514000    260.78298   -4701.8811   -4198.9392   -4701.8811            0     7772.341    19.687387    20.204444    20.505781    8156.6398    10525.778    6223.8477    6567.3975   -591.39856    942.00196    226.59406   -3274.3709 
11515000    262.30377   -4695.8776   -4190.0027   -4695.8776            0    7185.4921    20.018212     19.78632    20.695622    8197.2616    6508.4109    8512.7418    6535.3235    304.53947   -405.03431    38.390252   -3330.9868 
11516000    260.40429   -4686.6751   -4184.4635   -4686.6751            0    7970.1044    19.846266    19.937139    20.646457    8169.3444    9344.6079    6560.8062    8004.8991   -535.88706   -1655.7353    403.70167   -3234.8933 
11517000    269.69221   -4705.3666   -4185.2425   -4705.3666            0    7396.5874    19.908623    20.094183    20.455571    8183.2003    9254.6541    6298.9004    6636.2078     332.5906   -526.05758    37.831594   -3302.5072 
11518000    256.07316    -4717.103   -4223.2444    -4717.103            0    5050.2516    20.053054    19.949136    20.547664    8219.9097    6360.0504    4239.0477    4551.6567    573.56011   -2282.5752    859.05341   -3617.8255 
11519000    255.64983   -4689.1007   -4196.0585   -4689.1007            0    6980.5582    19.904846    20.046269    20.594709    8217.6572    7239.3479    7506.1321    6196.1945   -418.21639    528.75583   -1480.6795   -3359.4659 
11520000    255.78728   -4689.1309   -4195.8236   -4689.1309            0    7409.7849    20.084511    19.820772    20.603537    8202.0729    7712.0827    7188.1008    7329.1712   -161.91573    139.26952    464.23733   -3309.4739 
11521000    267.90834   -4717.8278    -4201.144   -4717.8278            0    7972.6225     19.85514    19.867693    20.566371    8112.9361    9073.8731    7777.1463    7066.8482   -611.29599    62.076326   -10.688552   -3257.8325 
11522000     272.1441   -4712.9914   -4188.1386   -4712.9914            0    6998.5282    19.900056    19.948419    20.615782    8183.9431    6436.0967    5464.4064    9095.0813   -643.33297   -652.64285   -99.224017   -3352.8334 
11523000    253.10564   -4690.6803   -4202.5448   -4690.6803            0    8815.4272    19.849774      19.7811    20.663592    8113.5667    7699.0028    9500.1067    9247.1722      432.908   -655.90574   -715.45245   -3159.4325 
11524000    274.26112   -4670.7749   -4141.8393   -4670.7749            0    6677.1447    20.070919    19.947771    20.640639    8263.8947    7694.8456    7208.9363    5127.6523   -207.93339   -1945.7025    769.05276   -3337.1069 
11525000    270.23854   -4670.2747   -4149.0969   -4670.2747            0    7943.6263    20.111691    19.746342    20.489448    8137.0226    6815.5514    8730.1536     8285.174   -380.10347    320.53767    360.26325   -3206.4258 
11526000    279.99859     -4689.63   -4149.6291     -4689.63            0    7475.0786    19.795757    20.069737    20.691021    8220.4519    6999.0286     8178.327    7247.8801    386.54097    649.82716   -1216.7173   -3253.4654 
11527000      269.405   -4671.8068   -4152.2366   -4671.8068            0    6131.9532    19.946228    19.990019    20.610899    8218.0906    6314.0773    5934.4725    6147.3098    1104.8612     -916.786   -635.51776   -3417.3071 
11528000    257.20155   -4697.8918   -4201.8569   -4697.8918            0    7399.7121    20.056719    20.018431    20.376003    8181.0475     6508.275     6155.583    9535.2782   -839.76964    2350.0375   -1892.5121   -3318.9811 
11529000     273.7941   -4702.4587   -4174.4237   -4702.4587            0     7190.306    19.816667    19.912434    20.803863    8209.1646     6956.694    7751.1044    6863.1195     484.7366   -160.53145    168.87667   -3313.5842 
11530000    266.14883   -4678.3772   -4165.0868   -4678.3772            0    6832.0762    19.846507    19.939896    20.815975    8237.6575    5900.2504     7469.831    7126.1473     373.6839    876.04582   -549.32609   -3344.2963 
11531000    262.69327   -4657.3462   -4150.7201   -4657.3462            0    9438.2091    19.936603    19.973844    20.408143     8126.739    9588.8699    10274.785    8450.9727    13.977138    697.19591    638.70166   -3032.1021 
11532000    270.13295   -4703.3706   -4182.3965   -4703.3706            0    6557.5176    20.007577    20.093377    20.487399    8236.3403    6207.7258     6817.491    6647.3361    70.696059   -2817.0777    11.623191   -3394.7168 
11533000    265.73959   -4684.3291    -4171.828   -4684.3291            0    8049.2448    19.972178    19.757552    20.607282    8131.6614    7748.3094    8681.7824    7717.6428   -673.89659   -667.39462   -917.63966   -3217.2524 
11534000     257.7853   -4704.7905   -4207.6299   -4704.7905            0    6846.3484    19.758874    19.933987    20.683643    8146.7313    7365.9059    6890.0505    6283.0888   -394.43425    2038.2975   -864.66029   -3394.2035 
11535000    257.55979   -4740.3842   -4243.6585   -4740.3842            0    5119.6552    19.956168    19.993225    20.728541    8270.4422    4781.7632    5411.9151    5165.2872    587.11149    151.07012   -835.41885   -3626.1466 
11536000    258.84807   -4713.5282   -4214.3179   -4713.5282            0     8189.281    19.919808    19.817873    20.585321    8126.4308    6995.4142    9290.0122    8282.4165    489.97856    685.99289   -1737.4358   -3243.7599 
11537000    261.74909   -4695.7718   -4190.9667   -4695.7718            0    6379.7185    20.155541    19.628321    20.744122    8206.7778    5299.9895    7401.0456    6438.1204    400.82292     1703.131    970.00638   -3427.3946 
11538000    262.08128   -4672.2631   -4166.8173   -4672.2631            0    8176.3665    19.833571    19.946304    20.681909    8181.8963    7913.3164     8722.467    7893.3162   -521.93416    -1507.778    323.50296    -3191.176 
11539000    256.77271   -4696.8069   -4201.5991   -4696.8069            0    8740.6747    20.069268    19.907839    20.339492    8126.3543    8423.3452    7097.4415    10701.237   -470.15601   -174.28906   -886.25105    -3165.702 
11540000     266.2421   -4704.2123    -4190.742   -4704.2123            0     6528.018    19.962571    20.115202    20.483507     8225.176     7143.844    5808.1977    6632.0123    564.22803     1493.941    679.27394   -3407.6687 
11541000    254.93333   -4677.7914    -4186.131   -4677.7914            0     7187.365    20.117063    19.873881    20.620713    8244.2462    6753.1055    8240.2018    6568.7877    317.03515    107.65347    622.64555   -3321.9663 
11542000    271.40878   -4704.7478   -4181.3131   -4704.7478            0    6796.0934    19.547943    20.062159    20.814787    8163.0168    8080.9514    7176.3316    5130.9973   -189.19117    546.77468    -40.57828   -3372.2434 
11543000    266.93264   -4678.8902   -4164.0882   -4678.8902            0    7715.0596    20.039239     19.86693    20.523572     8170.807    7279.6394    7685.5988    8179.9406    1199.9842    246.82327      928.313   -3244.7398 
11544000    246.74311   -4696.9455   -4221.0807   -4696.9455            0    5727.6293    19.916404    20.010267    20.562182    8194.6992    6559.7473    4846.0226    5777.1179   -792.41017    275.98659    219.10474   -3536.5643 
11545000    256.13153    -4712.705   -4218.7338    -4712.705            0    6668.9443    19.766017    20.021578    20.490802    8109.1705     7162.317    7094.5917    5749.9241   -281.34352   -287.11398    509.33062   -3430.0383 
11546000    250.52199     -4690.04   -4206.8872     -4690.04            0    6915.3855    19.940639    19.919343    20.611826    8187.1082    6669.6285     7631.464    6445.0641   -181.20492    321.51086   -1041.7111   -3381.1862 
11547000    264.28791   -4704.5375    -4194.836   -4704.5375            0    6863.6895     20.16863    19.797303    20.473357    8174.6934    5299.6482    7974.7246    7316.6958    638.04705   -371.10388   -557.17148   -3376.5503 
11548000    258.69941   -4717.1243   -4218.2007   -4717.1243            0    7532.6156    19.973379    20.038199    20.419253    8172.4083     7642.268    7529.6834    7425.8954    198.80399   -146.06256    379.28253   -3320.4169 
11549000    273.47202   -4709.4044   -4181.9906   -4709.4044            0    7697.6554    19.873176    19.958868    20.604906    8172.8556    8899.9304    7191.1465    7001.8894   -983.08382    821.50589   -421.24643   -3264.4862 
11550000    266.32975   -4728.7313    -4215.092   -4728.7313            0    6552.2382    20.030221     19.96002    20.556003     8218.364    7099.7838    6609.1356    5947.7952     284.3252    1710.8902   -223.99709   -3429.7642 
11551000    281.76429   -4665.4891   -4122.0829   -4665.4891            0    6282.1523    20.146874    20.139564    20.351025    8257.4134    6292.6421    5257.9814    7295.8335    -654.0591     782.3661    56.735693   -3365.5491 
11552000     262.4108   -4714.4679   -4208.3866   -4714.4679            0    6632.5152    20.059163    19.716674    20.645903    8165.4542    7111.8275    6052.1843    6733.5339    319.42832   -593.13084   -1451.3806   -3418.5551 
11553000    253.29231   -4714.4557   -4225.9601   -4714.4557            0    7575.3174    19.732884    20.047572    20.650963    8169.4468    9609.7437    5462.2067    7654.0018   -727.24902   -404.82204    950.02669   -3323.4141 
11554000    274.70231   -4693.2466   -4163.4601   -4693.2466            0    6344.0428    20.016796     19.85934     20.74275    8245.6653    5679.7813     7045.919    6306.4282   -200.80402     -164.105   -284.81462     -3400.56 
11555000    266.52771    -4704.785   -4190.7639    -4704.785            0    6642.5172    19.845351    20.020701    20.723688    8233.8912    9023.2151    5394.4639    5509.8726   -190.57608   -1450.2437   -617.08676   -3393.1115 
11556000    277.21795   -4671.4935   -4136.8554   -4671.4935            0    5738.7431    20.203715    19.972801    20.249601    8171.2156    4660.5504    5224.9168    7330.7621    495.76735   -555.61653    -368.3881   -3452.9763 
11557000    256.54909   -4713.4453   -4218.6688   -4713.4453            0    5946.5419    19.858211    20.097519    20.554233    8203.2105    5198.8699    6478.3036    6162.4523     662.1146    561.59822   -137.35478   -3507.2518 
11558000    273.56768   -4717.5022   -4189.9039   -4717.5022            0    5279.2115    20.036536    19.892117    20.718405    8257.7166    2802.4803    7564.2786    5470.8755   -259.59425   -855.49135    507.32514   -3554.1268 
11559000    259.93476   -4687.0418   -4185.7357   -4687.0418            0    7311.9429    19.801453     20.00119    20.579447    8150.5441    7250.5563    8748.8778    5936.3946      1155.72    1401.3546    132.25347   -3316.5846 
11560000    262.83502   -4698.6548   -4191.7553   -4698.6548            0    6104.4717    20.265756     19.91732    20.334311    8207.7318    5345.2246    6007.5444    6960.6462     440.1967    236.83388   -1126.8591   -3461.0418 
11561000     252.8033   -4659.7054    -4172.153   -4659.7054            0    7976.8385    19.835891    19.954697     20.70513     8195.488    9647.6318    8580.5706    5702.3132   -737.84257   -881.62558   -112.47744    -3218.739 
11562000    279.53527   -4676.0109   -4136.9036   -4676.0109            0    5524.2241    20.059333    19.932623    20.565546    8222.8277    4239.7945    5551.7594    6781.1184   -565.32592    780.97028    -949.9897   -3474.4303 
11563000    268.77223   -4685.9237   -4167.5739   -4685.9237            0    6488.9534    19.701313    20.200547    20.760893    8262.3641    7723.0006    5104.5089    6639.3507    299.41207   -66.502581   -1365.8683   -3385.6673 
11564000    270.81683   -4713.2155   -4190.9225   -4713.2155            0    5644.8656    20.029825    19.777591    20.742439    8216.9448    5983.4775    6025.9302    4925.1893    379.90859    202.47746   -444.86908    -3514.466 
11565000    263.67586   -4700.7907   -4192.2696   -4700.7907            0    6303.9829    20.017086    19.959626     20.46595    8176.8336    5596.4339    6496.7241    6818.7909   -783.64356    725.14869   -1226.8292    -3440.515 
11566000    267.35052    -4660.538     -4144.93    -4660.538            0    6525.8781     19.90881    20.065777    20.669931    8257.3427    7689.8191    5949.8608    5937.9545   -847.10442    1276.2988     242.9136    -3359.052 
11567000    249.30515   -4698.6492   -4217.8432   -4698.6492            0    7933.1006    20.210411    19.824611    20.557749    8236.7403     6272.493    9312.1723    8214.6363   -126.77178    197.63641    248.85729   -3264.8842 
11568000    260.07289   -4695.3728   -4193.8004   -4695.3728            0    7722.5577    19.883239    19.880663    20.619448    8150.7024    7887.6797    7666.8126    7613.1807   -158.60193    139.88891    331.71206   -3275.8228 
11569000    254.31989    -4707.832   -4217.3548    -4707.832            0    8523.2453    19.876945    19.991758    20.450622    8126.5673    8633.8136    8362.8091    8573.1134   -585.42415    343.75249    394.19192   -3207.1998 
11570000    269.16643   -4703.4428   -4184.3327   -4703.4428            0    3579.7635    20.052193    20.105153    20.663414    8330.5051    2708.3018    3776.5517     4254.437    126.80358   -387.95107    904.28684   -3749.4206 
11571000    259.84916    -4694.316    -4193.175    -4694.316            0      6418.44    20.164041    19.852127    20.592729    8243.2511    5303.6742    7324.2528     6627.393    201.35987   -612.85723    522.42905   -3421.5543 
11572000     275.9718   -4668.4737   -4136.2388   -4668.4737            0    6580.0129    20.066562    20.059899    20.529384    8263.7591    7210.8806    5836.7771    6692.3811    496.55579   -1067.2061    1555.1051   -3343.2259 
11573000    257.65582   -4718.2799    -4221.369   -4718.2799            0    6434.0066    20.068144    20.010204    20.357955     8175.096    6790.6891    5283.2798    7228.0508    376.07591   -646.38427    379.56914    -3454.272 
11574000    257.01663   -4713.5272   -4217.8491   -4713.5272            0    4775.1521    19.859367    20.043119    20.603556     8201.115    5682.5399    3984.1448    4658.7716   -514.92465    420.64402   -933.19863   -3646.7177 
11575000    262.40547   -4703.8157   -4197.7446   -4703.8157            0    6826.1245    19.760331    20.073201    20.589135    8166.7441    8304.1532    5595.5421    6578.6782    108.97062    -93.54361   -138.86255   -3384.7287 
11576000    258.15616   -4684.2483   -4186.3724   -4684.2483            0     7957.816    19.805137    19.819263    20.772033     8153.505    6246.5505    9454.0655    8172.8321   -496.06195   -385.31671   -401.21413   -3240.1045 
11577000    254.75904   -4720.4842     -4229.16   -4720.4842            0    8228.0174     20.01308    19.942564    20.440752    8158.1523    8630.1466    6613.6706     9440.235   -234.47672   -804.07776   -60.366912   -3250.2046 
11578000    267.85276   -4660.1298   -4143.5532   -4660.1298            0    6612.0695    20.024369    19.783917     20.65835    8184.0216    6001.0473    8250.9625    5584.1986   -208.37255   -624.25889    1196.2889    -3354.366 
11579000    255.27285   -4705.3164   -4213.0013   -4705.3164            0    6296.2105    19.812422    20.094807     20.65334    8222.6483    7670.5583    4028.2884    7189.7847    55.741725   -886.97592    662.15905   -3457.9667 
11580000    265.87219   -4667.1338    -4154.377   -4667.1338            0    7068.8637    20.357483    19.837732    20.235783    8172.1456    6481.4337    7321.4716    7403.6858    765.48424   -49.354327   -850.16192   -3311.8931 
11581000    262.11018    -4690.091   -4184.5895    -4690.091            0    6795.0756    19.957004    20.025638      20.5995    8232.6263    6331.0163     7038.906    7015.3045   -388.98762    1269.9585   -1504.9971   -3368.7428 
11582000    259.92726   -4721.8413   -4220.5497   -4721.8413            0    6471.9507    20.145719    19.704693     20.72339    8226.4646    7195.8465    5947.1443    6272.8614    185.49265    704.45101    1447.1854   -3444.0804 
11583000    263.99951   -4685.7098   -4176.5646   -4685.7098            0    7478.5927    19.906808    20.046007    20.526569    8191.1684    8162.4423    7435.6956    6837.6401   -507.49932   -457.82324   -120.09862   -3283.1735 
11584000    270.52992    -4674.333   -4152.5933    -4674.333            0    7545.9153    19.912741    19.786159    20.797317    8194.0732    8076.3341    7987.6003    6573.8115   -470.74043   -1.2775146    952.57297   -3250.8402 
11585000    251.68256   -4694.4179   -4209.0269   -4694.4179            0    5879.8058    19.954505    19.965857    20.594767    8205.1366    4476.8793    7119.5652    6042.9729   -305.21702    155.02648    622.41858   -3505.4288 
11586000     253.3607   -4693.6087   -4204.9813   -4693.6087            0    7055.1393    19.883601    19.985144    20.718981    8233.2384    7653.9767    7648.4596    5862.9816    382.86148   -656.75892    803.05132   -3357.8471 
11587000    264.85655   -4704.5434   -4193.7452   -4704.5434            0     5992.269    20.160204     20.01093     20.23111    8161.7239    6271.3142    3984.3575    7721.1354    190.52544   -71.632963    -32.20264   -3480.4832 
11588000    260.29812   -4693.7402   -4191.7334   -4693.7402            0    5167.5623    19.916682    20.200539    20.598487    8287.3424    5150.2822    5841.2074    4511.1974   -691.29479   -106.24275    1804.1072   -3567.1695 
11589000    256.27198    -4736.443    -4242.201    -4736.443            0    6779.3061    19.914251    19.857831    20.698546    8185.3192    7868.6075    5457.2063    7012.1045    225.31579   -74.808509   -47.359881   -3432.9248 
11590000    256.28829   -4695.7776    -4201.504   -4695.7776            0    6470.1867    20.049207    19.899219    20.621114     8227.073     7898.484    5088.9945    6423.0816    265.19389   -90.035196    467.53646   -3425.1889 
11591000    266.20878   -4710.5364   -4197.1303   -4710.5364            0    7216.4299     20.17992    20.011229    20.268249    8184.8257    5481.9937    6698.9706    9468.3255   -74.908919     643.8572    91.183613   -3335.7247 
11592000    272.42797   -4724.0796   -4198.6793   -4724.0796            0     6512.406    20.076564    19.905261    20.386284    8146.9554    8408.9627    4143.0062    6985.2491   -311.26205    -5.432438    74.940528   -3424.9079 
11593000    285.06234   -4710.4294   -4160.6627   -4710.4294            0    7349.3991    19.955041    19.824207    20.678132    8180.1214    7984.3205    6891.0056    7172.8712    159.20018   -78.869415    314.70754   -3283.8891 
11594000    263.44193   -4695.1453   -4187.0754   -4695.1453            0    6466.6521    20.152511    19.786304    20.629819    8226.0107    5235.6422    7141.8854    7022.4288   -75.967043   -904.19254   -319.10595   -3411.2845 
11595000    247.11139   -4707.0828   -4230.5077   -4707.0828            0    7192.5227    19.962528    19.967766    20.518866    8178.9651    7637.6348    7116.6166    6823.3167    371.57157   -1092.4576    308.16934   -3372.5706 
11596000     266.5925   -4692.8933   -4178.7472   -4692.8933            0    8099.9247    20.055502     20.05085     20.44313    8220.7926    7488.8588    7797.7166    9013.1987   -478.53113   -1278.1949   -1068.4769   -3207.6325 
11597000    269.42638   -4697.4664    -4177.855   -4697.4664            0    7844.9579    19.900859     19.65375    20.733321    8109.3511    8622.3276    8544.4682    6368.0779   -465.72659   -570.12401   -129.17595   -3250.0587 
11598000     268.0397    -4700.324   -4183.3869    -4700.324            0    8243.8622    19.795121    19.978182    20.590014    8142.7441    8098.1673    9358.5146    7274.9047    535.24099    109.11595    555.34082   -3204.3989 
11599000    259.44761   -4700.8017   -4200.4352   -4700.8017            0    6200.3576    20.076214     20.11654    20.262388    8183.2484    4767.2687    6100.5246    7733.2795    -207.4249   -266.39914   -103.01215   -3460.4579 
11600000    264.77315   -4694.2922   -4183.6549   -4694.2922            0    8748.5511    19.904942    19.868801    20.711279    8191.0488    8726.3453    9313.9175    8205.3904    857.58845    842.59171    839.30255   -3138.5701 
11601000     253.2012   -4722.6815   -4234.3617   -4722.6815            0    5955.9504    20.207277    19.593265    20.816201    8241.6861    2941.6438    8981.5689    5944.6384   -243.20534    617.59165   -999.64824   -3518.4771 
11602000    254.87235   -4684.5403   -4192.9975   -4684.5403            0    5338.6032    19.994562    20.139462    20.548818    8274.5922    7083.7713    3064.2016    5867.8367    489.61425    633.06262   -222.37676   -3548.7539 
11603000    277.68614   -4697.5176   -4161.9765   -4697.5176            0    7791.3723    19.984094    19.793887    20.519067    8116.5817    9978.4799    6162.1294    7233.5076    -1021.852   -679.73598   -510.96969   -3239.6961 
11604000    272.87063   -4688.8155   -4162.5615   -4688.8155            0    8213.4175    19.630308    19.842538    20.860698    8125.5574    9190.4419    9924.4151    5525.3955    360.56789    80.661917    1756.7967   -3189.2475 
11605000     274.6984   -4670.5706   -4140.7916   -4670.5706            0    6949.9187    20.024112    19.745656    20.684348    8178.3685    8015.3962    6493.3882    6340.9716    794.22805    21.188282   -594.60426   -3311.8532 
11606000    254.97197     -4709.85   -4218.1151     -4709.85            0    7391.2496    19.814089    19.871452    20.767962     8177.068    8030.7946    8321.3837    5821.5704   -148.25644   -1686.0963    1058.4756   -3336.6779 
11607000     271.0062    -4707.393   -4184.7347    -4707.393            0    6224.8392    20.120406    19.917528    20.476914    8206.0978    6096.4378    5077.4092    7500.6706    759.98233    680.28456   -1131.2339   -3439.7614 
11608000    265.34599   -4686.2465   -4174.5045   -4686.2465            0    7158.9378    20.092946    19.920538    20.541835    8222.1223    5111.3413    9627.8874    6737.5846   -45.665998       340.93   -704.39212   -3316.0675 
11609000    268.44289   -4711.7515   -4194.0368   -4711.7515            0    5641.4276    19.890846    19.901058     20.77907    8225.3721    6134.5479    5068.0332    5721.7015   -549.55583   -1455.6001    204.34583    -3517.299 
11610000    272.56937   -4691.9562   -4166.2832   -4691.9562            0    7831.3573    19.842602     19.93378    20.723761    8197.0363    7510.3347    7259.2767    8724.4604   -685.23976   -1001.3396   -410.64141   -3230.0808 
11611000    275.88319   -4688.3511   -4156.2871   -4688.3511            0    7914.2092     20.14568    19.884207    20.434262    8185.5747    6252.0417    8891.4596    8599.1263    478.07132   -656.85351   -100.15533    -3211.503 
11612000    267.27417   -4684.8183   -4169.3576   -4684.8183            0    7561.8751    20.190632    19.819816    20.311485    8128.1402    9323.3625    5194.6311    8167.6318    10.577436    248.89288    187.57309   -3272.9684 
11613000     259.3243   -4720.5711   -4220.4424   -4720.5711            0    6620.6376    20.057136    19.905608    20.494397    8182.3773    5034.1235    7609.4082    7218.3811    31.736021    1707.8776    864.27489   -3430.3912 
11614000    265.62471   -4689.7034   -4177.4238   -4689.7034            0    7409.4814    19.977893    19.924851     20.56628     8186.542    6519.8055    8623.8408    7084.7978   -87.936996    796.12972   -1004.8962   -3292.7886 
11615000    258.67581   -4688.8402   -4189.9622   -4688.8402            0    6102.3329    19.668409    20.083615    20.917326    8262.6105    7172.9956    6066.5524    5067.4506    316.87805     676.6506   -130.89958   -3454.6207 
11616000    248.15286   -4711.3713   -4232.7877   -4711.3713            0    4539.9467    20.069319    19.947473    20.727157    8297.7485    3782.8795     5058.797    4778.1634    33.058607     1804.172   -169.91987   -3683.3899 
11617000    250.80393   -4713.2038   -4229.5074   -4713.2038            0    6883.2823    19.989867    20.001346    20.512576    8201.4251    6066.2056    7907.6149    6676.0265    380.64101    695.76575    756.88786   -3406.2023 
11618000    249.24743   -4687.0088   -4206.3142   -4687.0088            0    7983.4964     20.02608    20.024306    20.400916    8180.9379     9369.052    6741.2069    7840.2304   -96.253622    380.43298   -176.20946   -3253.7985 
11619000    252.75448   -4701.3951   -4213.9369   -4701.3951            0    8173.6953    19.833474    19.908119    20.732327    8186.1002    9278.0494    6650.6042    8592.4323    -814.9764    479.38547   -527.64512   -3238.1131 
11620000     267.8551   -4697.5221    -4180.941   -4697.5221            0    8177.0013    19.831568    19.744952    20.916637    8190.3981    9869.1319    8102.2894    6559.5825   -323.10857    291.21529   -1023.4634     -3204.21 
11621000    255.63477   -4711.7532     -4218.74   -4711.7532            0    7224.0106    20.157524    19.693092    20.541908    8154.3974    6466.8223    6975.4616    8229.7481    561.66212    750.80658    328.56357   -3359.6353 
11622000    280.03143   -4701.7073   -4161.6432   -4701.7073            0    7312.8704    19.885762    19.987142    20.623068    8196.8353    8403.0293    6831.7255    6703.8565    289.99553    11.720307    1599.5774   -3287.4448 
11623000    273.78632   -4717.9392   -4189.9193   -4717.9392            0    6802.2761     19.94363    20.000132    20.583083    8210.0817    8010.0378    5427.8824    6968.9082    219.45052    531.26597    1069.5455   -3375.4445 
11624000    251.83027   -4672.5429    -4186.867   -4672.5429            0    6169.0133    20.153399     19.87708     20.58915    8247.8227    4625.5333    8513.6994    5367.8071    546.87433   -120.31623   -841.62522   -3444.8209 
11625000    265.05462   -4675.8262   -4164.6461   -4675.8262            0     6427.485    19.885899    20.071173    20.640367     8238.258    6608.5036    6113.4596    6560.4919    113.02444   -1296.5359    887.94826    -3392.406 
11626000    254.94144   -4709.7191   -4218.0431   -4709.7191            0    6499.3161     20.05953    19.803188    20.554061    8164.9491    6491.4187    6066.6875    6939.8421   -153.41433    609.58444    581.13318   -3444.1214 
11627000    255.73805   -4696.3093    -4203.097   -4696.3093            0    5526.9035    20.034092    20.165638    20.517818    8289.2031     6696.459    4349.8333    5534.4182    312.14839   -312.18322   -159.67071   -3534.9522 
11628000    253.24296   -4686.4686   -4198.0683   -4686.4686            0    6373.8499    19.931911      20.0083    20.471909    8164.2722     5457.556    5190.3602    8473.6336    1257.9371    1073.7633    141.05197   -3439.1497 
11629000    265.19362   -4648.7555   -4137.3073   -4648.7555            0    8795.8659    19.908301    19.904831    20.602922    8164.3482    10140.701    7645.9967    8600.8998    178.51831    268.18364    1125.2432   -3089.9955 
11630000    250.50244   -4717.8056   -4234.6906   -4717.8056            0    7398.5961    19.915148    19.839481    20.635458    8153.1975    6788.8743    7459.0157    7947.8982    45.105798    911.85526    898.45651   -3354.9529 
11631000    247.84743   -4702.9808   -4224.9862   -4702.9808            0    8138.4417    19.817602    20.014594    20.679129    8202.1956    9124.8805    6648.1376    8642.3069    759.98538    1381.6025   -140.41055   -3251.4608 
11632000    269.96361   -4669.7228   -4149.0753   -4669.7228            0    6511.5804    20.067833    19.984339    20.502009    8222.1745    7692.5334    4442.0511    7400.1567   -256.26846   -711.44945   -1009.6113   -3368.2588 
11633000    268.37991   -4665.1288   -4147.5356   -4665.1288            0    7450.3408    19.856229    20.003926    20.570175    8170.5258    7632.4922     8153.321    6565.2092   -358.64608   -615.79009    578.50642   -3259.7624 
11634000    256.88264   -4704.1569   -4208.7371   -4704.1569            0    5840.5246    20.054414    19.886588    20.537373    8190.5892    5807.1674    5658.4167    6055.9896    518.48573    252.34307   -35.218075   -3511.0786 
11635000    256.71097   -4689.4339   -4194.3452   -4689.4339            0    6708.6948    19.948595    19.881374    20.673643    8199.2803     8195.075    6953.6935    4977.3158    572.46508    214.61488    694.65047   -3392.1323 
11636000     266.2834   -4702.1136   -4188.5637   -4702.1136            0    5514.5728    20.115874    19.997841     20.54839    8266.0841    5143.0438    5861.8877     5538.787    11.712797     514.8976   -797.75457   -3523.7689 
11637000    260.63043   -4705.6578   -4203.0101   -4705.6578            0    7377.4375     19.99188    19.937315    20.437774    8146.1781    2896.2602    10980.569    8255.4837    560.31116      143.041    -688.2262   -3326.5436 
11638000    271.21594    -4726.517   -4203.4543    -4726.517            0     6753.392    19.896115    19.889174    20.733847    8204.7419    7446.6946    7183.3505    5630.1308    229.64923    329.77044    800.15124   -3395.3586 
11639000    245.63348   -4720.1453   -4246.4205   -4720.1453            0    5415.6405    20.231489    19.893843    20.468571    8238.2324    4011.9469    6254.6274    5980.3471   -575.79829    -354.6524    294.02577   -3595.7521 
11640000    260.32929   -4682.1375   -4180.0706   -4682.1375            0    6136.6885    20.044038    20.059802     20.58001    8274.7989    6188.9356    7811.7931    4409.3368   -88.064285   -284.96534   -1111.2062   -3439.4983 
11641000    252.35898   -4686.8287   -4200.1332   -4686.8287            0    6588.7896    19.839131    19.929565    20.681821    8177.2866    7421.2813     7183.979    5161.1087    467.98715    334.77682   -177.80277   -3414.3717 
11642000     259.8944   -4699.1695   -4197.9413   -4699.1695            0     5010.341    20.023544     19.79889    20.705801    8208.6892    4518.3466    5405.5597    5107.1168   -120.12948    379.16573    159.22371   -3598.1267 
11643000    258.28431   -4690.4998   -4192.3768   -4690.4998            0    6373.0299    20.053199    19.875505    20.542393    8187.5294    3677.2093    9447.1683     5994.712    80.524315    696.31685   -51.146936   -3431.3942 
11644000     272.3564   -4708.4406   -4183.1784   -4708.4406            0    8128.2469    19.747418    20.020039      20.6948    8181.5664    8443.1498    8789.7392    7151.8518    547.92722    239.63744    418.98075   -3213.3179 
11645000    270.90454   -4714.1656   -4191.7034   -4714.1656            0    7305.3885    20.034343    20.036104    20.449383    8208.5901    4351.6677    10066.027    7498.4712   -1004.1565    736.19772    511.28237   -3317.1471 
11646000    248.41687   -4693.4188    -4214.326   -4693.4188            0    6895.1948    20.049352      19.9165    20.586772     8220.564     6973.217     5745.144    7967.2234    264.20829    111.64549     7.212989   -3387.6715 
11647000    266.28609    -4739.835   -4226.2799    -4739.835            0    6294.0716     19.86533    19.933062    20.686351    8191.3161    5939.1799    7615.4504    5327.5845   -116.41432    -695.0028   -1350.5894   -3474.3779 
11648000    261.61747   -4724.0408   -4219.4895   -4724.0408            0     6371.773    20.175848    19.927503     20.45953    8225.8413    5893.3743    6910.1548      6311.79    -358.5615   -703.63208   -1349.2169   -3455.0969 
11649000    266.50235   -4678.7269   -4164.7547   -4678.7269            0    7248.4021    19.901944    20.024374    20.447008    8148.6232    7501.0744    6406.0936    7838.0382    665.10158   -75.364273   -594.64288   -3303.3596 
11650000    257.73728   -4696.4903   -4199.4223   -4696.4903            0    7310.6183    19.836587     20.03759    20.603692    8189.5021    7052.6284    7139.1586    7740.0678   -738.44802   -1133.0313   -1069.2661    -3326.275 
11651000    282.18916   -4699.6135    -4155.388   -4699.6135            0    7338.4969    20.179449    19.588406    20.740521    8198.3799    5983.0872    9734.4388    6297.9646   -87.124272    293.73555     236.5548   -3277.9609 
11652000     270.5352   -4691.0735   -4169.3236   -4691.0735            0    7566.8867    19.942047    20.006339    20.453745    8160.3763    8612.1999    6044.4312     8044.029   -911.85034    826.71359    800.75327    -3268.783 
11653000    254.71784   -4694.7854   -4203.5406   -4694.7854            0    5775.0859    19.895616    20.118597    20.572301    8234.5135    5720.0793    7339.4821    4265.6965    429.67834   -140.63584   -727.99033   -3509.9994 
11654000     271.8578   -4713.1479   -4188.8472   -4713.1479            0    6841.6036    19.836118    19.905012    20.597459    8132.6631    6577.5597    7978.1038    5969.1472   -523.86574    107.77148   -1638.5902   -3377.3882 
11655000    259.41053   -4691.5801   -4191.2851   -4691.5801            0     6955.216    19.777823    20.007157    20.707402    8193.8778    7656.6272    6385.7536    6823.2672   -90.453931    1361.7032   -1390.8914   -3360.1416 
11656000    249.14658   -4694.0135   -4213.5134   -4694.0135            0    7049.8414    20.139163    20.057839    20.237572    8174.9286    7252.3967    6164.3856    7732.7418   -394.68453    1357.1106    1996.0112   -3373.0105 
11657000    270.29381   -4717.5905   -4196.3062   -4717.5905            0    4615.8465    20.057426    20.108899    20.548924    8288.0541      4101.37    4596.4188    5149.7508    251.28286   -1494.2563    1269.0492    -3638.376 
11658000    250.64636   -4704.7516    -4221.359   -4704.7516            0    6266.4263    20.212585    19.785238    20.494978    8196.1633    4564.9984    6670.9906      7563.29     -133.727    911.44316   -499.24101   -3472.3166 
11659000    259.93011   -4713.6972   -4212.4001   -4713.6972            0    5195.4039    19.902728    19.830854    20.824232    8219.0766    4370.1556    7216.9407    3999.1153   -373.38813    554.62681    229.57361   -3589.6436 
11660000    263.56338   -4693.5539   -4185.2497   -4693.5539            0     7858.463     20.00857    19.951633      20.5055    8185.8703    7614.8256    7207.0738    8753.4896    4.1495528   -109.30925      -327.63   -3247.0866 
11661000    250.31225   -4685.6962    -4202.948   -4685.6962            0    6420.4953    19.785069    20.309937    20.397763    8196.5047     6277.481    5047.7451    7936.2597    617.33357   -600.46991    788.08772   -3435.4573 
11662000    264.83407    -4701.014   -4190.2592    -4701.014            0    5734.6327    20.133406    19.785347    20.628077    8217.1207    7460.5977    5475.3013    4267.9992    741.71516    1156.0691   -618.99256   -3503.0307 
11663000    272.02238   -4707.6574   -4183.0393   -4707.6574            0    6193.1418    20.100421    19.801385    20.641103    8215.4929    3835.4777    9621.2587    5122.6889    256.27303    652.28788    996.27685   -3441.0109 
11664000    258.76499   -4707.2561   -4208.2061   -4707.2561            0     6827.566     20.01697    19.955032    20.483758    8182.0172    6803.6618    5409.3332    8269.7031    701.78865    2082.9659     558.6494   -3393.4977 
11665000    261.83415   -4705.4396   -4200.4704   -4705.4396            0    7026.6517    19.919284    20.053318     20.57616    8219.1007    6587.1571    6679.4455    7813.3524    556.40737    1446.6581    392.58609   -3358.2057 
11666000    266.32197   -4680.4235   -4166.7992   -4680.4235            0    7553.7446    19.947415    19.760736    20.695288    8157.5774    7790.3276    7780.3913    7090.5149   -62.177553    548.48288    1079.5487    -3268.131 
11667000    263.68658   -4698.0596   -4189.5179   -4698.0596            0    7017.8197     20.13369    20.022962    20.273418    8172.9467    4675.9349    7305.3507    9072.1736   -256.43522    904.17143   -589.00217   -3353.0356 
11668000    260.94773   -4665.7848   -4162.5252   -4665.7848            0    7445.5732    19.953707    20.098899    20.447734    8200.5136    7175.8797    8499.2566    6661.5833     103.9654   -63.764786    750.28404   -3272.0638 
11669000    266.89021   -4671.9949   -4157.2747   -4671.9949            0    7149.0063     19.84193    19.883825    20.720616    8174.9766    6775.0643     7775.124    6896.8307    453.94013     -463.023     -708.077   -3304.9441 
11670000    268.91494   -4692.8987   -4174.2736   -4692.8987            0    5342.0245    19.832786    19.865998    20.704685    8157.6065    6376.9724     5424.038     4225.063   -53.410318     480.8669    717.16188   -3538.7312 
11671000    260.95546   -4673.8472   -4170.5727   -4673.8472            0    6701.1069    19.818268    19.793583    20.830036    8171.0926    6144.4126    7318.3507    6640.5573   -137.74025   -28.266142    519.84436   -3372.0218 
11672000    256.19771   -4703.8735   -4209.7747   -4703.8735            0    5355.4208    20.015592    19.980474    20.562906    8223.5383     5260.099    4969.9282    5836.2351    485.61729    300.81318   -40.454827    -3567.489 
11673000    260.74599   -4728.4327   -4225.5622   -4728.4327            0    5770.1705     19.88006    19.949158    20.703603    8210.8516    6816.2246    4836.7423    5657.5447    960.89124   -1627.5053   -433.90219   -3534.6024 
11674000    269.70764   -4699.4221   -4179.2683   -4699.4221            0    7766.5723    20.126109    19.723003    20.572975    8166.3874    6642.7121    9137.7055    7519.2992    73.861004   -1796.6996   -258.44411   -3254.2821 
11675000    261.96754   -4706.4603   -4201.2338   -4706.4603            0    5974.1452    20.055545    20.172916     20.36216    8238.0988    5099.7203     6095.753    6726.9622    611.79828     480.7918   -620.28587   -3483.4748 
11676000    260.78423   -4716.9625   -4214.0182   -4716.9625            0    7053.1499    19.949404    19.841398    20.659289    8177.4437    5062.7707    8770.6039    7326.0751    174.33438    374.59701    -313.4992   -3372.8622 
11677000    269.21203   -4704.3171   -4185.1191   -4704.3171            0    6410.2105    19.835255    20.034531    20.567925    8173.4886    7633.1124    4827.2553    6770.2639    357.28546    354.57347   -1235.4348   -3421.0095 
11678000    263.43662   -4703.5352   -4195.4755   -4703.5352            0    6130.9202    19.979046    19.963475    20.556604    8199.0257    4779.6842    7102.4675     6510.609   -331.60677    307.07169     1468.804   -3462.3746 
11679000    267.68921   -4671.2083   -4154.9471   -4671.2083            0    6577.1475    19.851515    19.813373    20.833073    8194.1781    7290.1302    6474.7947    5966.5175     925.7911   -1304.5115   -248.88006   -3368.9538 
11680000    273.49543    -4709.419   -4181.9601    -4709.419            0    6533.1142    19.851507    20.093844     20.52961    8189.1196    7465.6658    5738.6439    6395.0329   -531.08468    958.11988   -1.3075224   -3401.7109 
11681000    260.70377   -4704.2035   -4201.4143   -4704.2035            0    6124.1687    19.996735    19.765492    20.898217    8259.9218    4814.8808     8443.859    5113.7664    645.18344     1174.707    266.75038   -3463.6817 
11682000    257.75152   -4683.1924   -4186.0969   -4683.1924            0    6950.3442    19.792067    19.920329    20.672298    8150.3528    5813.9147    8126.0125    6911.1054   -77.641686    302.69041   -974.07089   -3359.9474 
11683000    254.98953   -4704.1107   -4212.3419   -4704.1107            0    7780.9214    19.887492    20.029087    20.403943    8127.4677    7368.5323    6675.9512    9298.2807    677.04847   -507.70622   -67.542053   -3290.0632 
11684000    258.15252    -4727.162   -4229.2931    -4727.162            0    5226.5643    19.813714    20.009796    20.904867    8288.1188    6942.4934    4589.5496      4147.65   -449.05328   -1245.7681   -247.14653   -3597.5389 
11685000    271.37456   -4688.4488   -4165.0801   -4688.4488            0    6018.9182    20.098369     19.78179    20.736355    8244.3955    4592.4618    7723.3697     5740.923   -18.318318    236.75221    960.35271   -3441.3892 
11686000    268.44614   -4677.3729   -4159.6519   -4677.3729            0    6729.4241     20.10378    19.857521    20.543989     8201.391    7884.1082    5795.7639    6508.4002   -437.63507   -1107.9629    560.44849    -3354.753 
11687000    253.02698   -4693.9444   -4205.9605   -4693.9444            0    9117.9407    19.934029    19.878172    20.610217    8166.8407    10365.046    7865.7693    9123.0069    670.94317   -1035.1927   -317.74837   -3119.9682 
11688000    269.96976   -4696.6587   -4175.9993   -4696.6587            0    6826.0136    19.746966    20.013492      20.7234     8190.007    7453.8047    6911.7237    6112.5124   -565.67632    395.56587    1045.0708   -3360.6808 
11689000    248.96724   -4700.6658   -4220.5116   -4700.6658            0    8338.9892    20.100263    19.626343    20.542123    8103.7576    9610.2771    9111.5508    6295.1398    176.12848    1676.6414   -278.84166   -3234.9682 
11690000    273.18327   -4690.7313   -4163.8744   -4690.7313            0    7635.4985    19.938747     19.98491    20.579404    8200.3589    8434.3952    6940.2585    7531.8418    13.111824    616.97989    399.54967   -3250.7159 
11691000    261.06063   -4692.4043   -4188.9269   -4692.4043            0    8266.8447    19.867165    19.774388     20.90153    8211.3963     8401.351    8545.3401    7853.8429    93.129275    131.29649   -940.97377   -3198.9327 
11692000    264.82648   -4694.6895   -4183.9494   -4694.6895            0    5293.7702    19.945158    20.064021    20.604884     8245.664    6911.0338    3188.0042    5782.2726    395.94595   -414.53112    149.46688   -3547.3494 
11693000    264.37905   -4692.2368   -4182.3596   -4692.2368            0    6275.9548    20.015591    20.092887    20.437001    8219.1692    5286.1024    6374.7447    7167.0172   -628.05434    873.22255    514.72179   -3430.0725 
11694000     268.7853   -4687.9734   -4169.5984   -4687.9734            0    5814.2965    20.062407     19.94455    20.480561    8195.0034    4811.3745    6013.0551    6618.4599   -62.978852    -549.8652   -532.36105   -3474.6985 
11695000    257.30825   -4681.2599   -4185.0193   -4681.2599            0    6359.3344     19.68681     20.02638    20.675162    8151.2974    8292.7518    5361.6274    5423.6239   -507.62281   -1828.0362    833.63871   -3429.0323 
11696000    261.32604   -4700.9517   -4196.9625   -4700.9517            0    6597.6474    20.024526    19.840725    20.706071    8226.5451    6047.8007    5878.7617    7866.3797    455.72478   -80.244724   -1399.2903    -3405.405 
11697000    262.21219   -4692.9721   -4187.2739   -4692.9721            0    5828.4733    19.606186    19.944579     20.89602    8171.1195    5872.0945    6989.0738    4624.2517    431.41916     665.1456   -422.03194   -3492.7099 
11698000    268.53798   -4708.5808   -4190.6827   -4708.5808            0     5016.041    19.984168    20.021237    20.721505    8290.8347    4955.1682    5166.2213    4926.7334   -206.88902    439.37288   -95.792852   -3584.1765 
11699000    262.86405   -4681.5339   -4174.5785   -4681.5339            0    5374.5175     20.03231    20.106528    20.642937    8314.5663    5486.3146    5928.5257    4708.7122   -364.09203    1931.2247    495.64888   -3522.8676 
11700000     254.9166   -4692.7584   -4201.1303   -4692.7584            0    7044.1393    20.056249    20.107561    20.284889    8180.5359    6150.2698    7006.3422    7975.8058    -306.1916     157.5131   -605.60402   -3360.7312 
11701000    239.61536   -4660.8746   -4198.7562   -4660.8746            0    6882.1231    20.043545    19.920638    20.557622    8208.2519     7367.419    6338.1185     6940.832   -252.87166   -1051.7676   -982.55466   -3374.9046 
11702000    267.93804   -4704.4803   -4187.7393   -4704.4803            0    7874.8381    19.911723    19.862018    20.543457    8124.6702    7357.4027    8142.5445     8124.567   -833.31682    99.898166    1357.3626   -3254.6498 
11703000    263.93413   -4717.3357   -4208.3165   -4717.3357            0    5773.7773    19.879457    19.857449    20.759656    8194.9841    6153.1678    6849.6903    4318.4738    184.90254   -234.63503     437.3886    -3518.261 
11704000     257.5002   -4715.6227   -4219.0119   -4715.6227            0    5788.5335    19.975788    20.095494    20.439804    8205.0143    8779.2044      1959.39    6627.0061   -83.202481    2012.4058    495.83017    -3526.346 
11705000    248.28055   -4710.3083   -4231.4784   -4710.3083            0    8503.3625    20.113434    19.946215    20.402296    8185.1333    10425.754    6465.8469    8618.4871     -248.199    -386.7092    573.37438   -3216.4169 
11706000    266.38959   -4735.8789   -4222.1242   -4735.8789            0    5856.4644    19.747709    20.145707    20.547844    8174.5813    4897.1509    6997.5087    5674.7337    337.75057   -542.38295    333.14308   -3523.9289 
11707000    270.58057   -4719.3806   -4197.5432   -4719.3806            0    6941.3161    20.143428    19.736449     20.66452    8215.3808    6075.5835    6918.8955    7829.4692    555.92388    334.12605   -156.69731    -3365.884 
11708000    256.67925   -4663.2131   -4168.1856   -4663.2131            0    7932.8289    19.860013    20.113188    20.399653     8148.604       7407.8    5911.1597    10479.527    17.911705   -1171.5511   -118.25282   -3225.4559 
11709000    258.32282   -4697.4809   -4199.2836   -4697.4809            0    7218.8745    20.113755    19.863966     20.54203    8207.3407    6418.3035    8620.4767    6617.8435   -400.83706    1399.2737    235.28647   -3335.2157 
11710000    266.17678   -4670.0289   -4156.6846   -4670.0289            0    7966.6239    19.919248    19.913978    20.653411    8192.6185    8041.0112    9866.0057    5992.8546    419.90142    503.42565   -1307.8751   -3204.8249 
11711000    260.67467    -4690.708    -4187.975    -4690.708            0    9219.6812    20.013209    20.027354    20.418328    8183.9034    7031.3723    10872.913    9754.7579    469.14174    920.32873   -404.03654   -3087.5707 
11712000    263.25353   -4694.5314   -4186.8249   -4694.5314            0    7911.3165     20.02293    19.936108    20.416111    8149.6884    8411.1381    7210.0338    8112.7775    30.433183   -697.17491   -595.18807   -3246.5266 
11713000    276.04773   -4697.7578   -4165.3765   -4697.7578            0    5325.8466    20.008951    19.947364    20.546263    8200.5443    4384.7345    5752.8784    5839.9269     823.6816   -337.22946    143.35263   -3528.4237 
11714000    270.25584   -4702.0451   -4180.8339   -4702.0451            0    6523.9432    19.857336    20.191452    20.506624    8222.0992    6868.3598    5980.0234    6723.4465   -114.32581    930.08742   -580.67725   -3398.5421 
11715000    257.69117   -4734.7616   -4237.7825   -4734.7616            0    7412.2405     20.16723    19.758176    20.615051    8214.4316    7097.5982    7630.7699    7508.3534   -405.25593   -671.42218    532.66522    -3349.803 
11716000    265.60529    -4712.368   -4200.1259    -4712.368            0    8539.0324    19.827525    20.265052    20.250651    8136.8294    8522.3308    7733.4205    9361.3459     406.7521     1136.051   -1575.6148   -3186.8219 
11717000    258.88073   -4740.1302   -4240.8569   -4740.1302            0    4646.1331    20.003563    19.981859    20.619675    8241.8568    3618.9144    4491.8643    5827.6206    453.48376    116.95437   -819.90331   -3682.3963 
11718000    269.00967    -4691.553   -4172.7453    -4691.553            0    7283.8187    20.182087    19.915075    20.357782    8182.3581    7060.7256    6969.1641    7821.5664   -1154.3706    437.87401    627.55026   -3303.5577 
11719000    257.07967   -4678.1421   -4182.3424   -4678.1421            0    6623.3601    20.055311    20.071771    20.420063    8220.0068    6685.8044    6135.7738    7048.5022   -481.92256     -1179.32    -722.1276   -3388.3315 
11720000    250.66906   -4699.9636   -4216.5273   -4699.9636            0    6108.0115    19.968836    19.927818    20.474397    8147.4855    6235.7341     6479.958    5608.3423    391.41644    -317.0249    -389.2157   -3490.7567 
11721000    249.24105   -4668.9405   -4188.2582   -4668.9405            0     8080.207    19.894949    19.840276    20.670053    8158.9097    10321.553    8687.6255    5231.4428    555.62961     858.3497    311.11293   -3226.7998 
11722000    255.10684   -4710.2373   -4218.2423   -4710.2373            0    7375.0908    19.982005    19.820143    20.644459    8176.1596     5620.701    10080.511    6424.0602   -873.96541    690.76016    238.80356   -3338.8298 
11723000    253.02236   -4690.2362   -4202.2613   -4690.2362            0    7965.7688     19.81522    19.932798    20.558761    8120.1508    6994.5757    10297.545    6605.1856    -94.10426    284.97464    799.54958   -3258.9225 
11724000    259.37049   -4691.1229   -4190.9051   -4691.1229            0    6495.9225     20.16532    19.755743    20.633274    8219.9017    6777.4119    6773.2308    5937.1249    195.17451   -1378.3461   -799.06499   -3412.1815 
11725000    252.16998   -4701.9592   -4215.6282   -4701.9592            0    7181.0219    19.610604    20.116258    20.763922    8191.2007    8713.3319    6086.6703    6743.0635    78.255854    812.65121   -210.57543   -3357.7815 
11726000    263.61184    -4703.584   -4195.1864    -4703.584            0    7450.0262     19.91964    20.002755     20.62536    8218.1268    6674.9216    7747.4026    7927.7544     271.5407    480.22883    1441.4166   -3302.2787 
11727000    274.44305   -4661.5465     -4132.26   -4661.5465            0    7362.6614    20.124201    19.936054    20.599914    8264.6274    7504.0858    7626.7636    6957.1349    585.63355    466.23028   -1007.8483   -3244.8302 
11728000    268.84168   -4679.4201   -4160.9363   -4679.4201            0    8570.0837    19.691629    19.961749    20.735548    8150.7159    9624.4727    7646.7312    8439.0471    320.46829    424.03771   -1615.1577   -3142.2119 
11729000    269.83702    -4702.113   -4181.7096    -4702.113            0     5580.235    20.032797    19.896235     20.72221    8259.4009    5184.0143    5203.0643    6353.6265    38.413553    697.08465    1290.8284    -3509.543 
11730000    278.47389   -4683.5805   -4146.5202   -4683.5805            0    6855.0127     20.02278     19.95124    20.563627    8214.7433    8487.4916     5408.116    6669.4305    127.09114     -343.203    -423.1604    -3325.265 
11731000    270.09851   -4695.1057    -4174.198   -4695.1057            0    7835.7854    19.958448     20.08467    20.633841    8271.2576    9087.8947    6139.2581    8280.2033    404.59553   -437.73465     548.9259   -3228.9844 
11732000    265.36429   -4703.5223   -4191.7449   -4703.5223            0    7744.0249     19.98254     19.88508    20.534591    8159.5105    7438.4934    9069.6314    6723.9498    112.76521   -544.01018    474.05995   -3270.2208 
11733000    263.71982   -4715.9786   -4207.3728   -4715.9786            0    5151.9721    19.887107    19.997599    20.853029    8293.1325    6518.8704    4794.7523    4142.2936   -534.40354    87.311853   -1980.5487   -3584.2581 
11734000     272.6379   -4696.0923   -4170.2871   -4696.0923            0     8337.034    20.039685    19.842936     20.53914    8167.3103    10309.122    7277.9371     7424.043    124.81276    845.40047    2237.2262   -3177.2477 
11735000    247.76136   -4691.1061   -4213.2775   -4691.1061            0    6225.1597    19.940373    19.897851    20.728534     8224.472    4169.6542    8137.6204    6368.2046   -607.48962    563.83016   -1335.6459   -3466.5977 
11736000    258.19872   -4713.3546   -4215.3967   -4713.3546            0    4904.7794    19.992053    20.036593    20.621556    8260.4307    5446.6255     4388.355    4879.3578   -26.031526    506.98045   -30.315429   -3624.5184 
11737000    253.26789   -4685.0137   -4196.5653   -4685.0137            0    7073.3387    19.999444    20.034898    20.500912    8214.4452    6492.1408     6494.451    8233.4243   -679.58165    717.86292   -964.20532   -3349.1846 
11738000     253.2108   -4657.1218   -4168.7835   -4657.1218            0    7531.1466    20.032182    19.735912    20.606269    8146.7582    7202.0956      8843.96    6547.3842   -524.50413    569.59816   -635.77693   -3273.9921 
11739000    254.02384   -4685.6724   -4195.7661   -4685.6724            0    7795.6965    19.850942    19.905407    20.734058    8192.8783    8471.8571    7584.7647    7330.4676    947.34346   -103.52156   -273.18783   -3264.2994 
11740000    267.15203   -4681.3381    -4166.113   -4681.3381            0    8164.5511    19.971488    19.806285    20.468294    8096.4586    6861.6841    8874.3178    8757.6514    284.37791     1170.994    -1239.649   -3202.0546 
11741000    259.60334   -4704.8067   -4204.1399   -4704.8067            0    8574.8142     19.88286    20.081316    20.363558    8130.6394    8402.1301    7817.3236    9504.9888    443.27755    303.98274   -2049.5897   -3187.3638 
11742000    260.32093   -4696.8486   -4194.7978   -4696.8486            0    6546.6973    20.036643    20.119473    20.520539    8272.3771    6488.2815    7232.5251    5919.2854   -438.27081    828.30904    -1166.872   -3404.9772 
11743000    267.90929   -4695.1502   -4178.4646   -4695.1502            0    5431.2107    20.141706    19.939399    20.578556     8264.626    5005.9042    5963.9448     5323.783   -24.592197    582.21633    1130.2359   -3523.8348 
11744000    261.32726   -4680.3871   -4176.3955   -4680.3871            0    6805.7979    19.971159    19.905007     20.72562    8238.9737    7362.1939    6925.7001    6129.4996    768.23996   -286.44163    241.00913   -3358.6314 
11745000    282.79041   -4690.1682   -4144.7831   -4690.1682            0    6947.7399     20.07453    19.695738    20.850675    8243.9961    7140.3928    7208.1592    6494.6677    31.715359   -201.84321   -694.95238   -3309.4547 
11746000    267.38959   -4693.7906   -4178.1073   -4693.7906            0    6434.0198    19.919637    19.958356    20.658961    8213.2429    5818.1233    8447.5685    5036.3677   -513.98616    308.67306   -438.27795   -3407.4293 
11747000    256.77028   -4696.7632   -4201.5601   -4696.7632            0    6217.7797    20.019666    20.014154    20.582158    8246.7909    5829.4439    6677.0012    6146.8939    249.28297    35.083434    599.65614   -3453.7416 
11748000    267.93495   -4685.6535   -4168.9185   -4685.6535            0    6829.2413    19.638098    19.912882    20.833137    8146.8216    9818.6658    5590.2811    5078.7769    251.16063   -375.82405    516.72378   -3357.5156 
11749000    250.85316   -4693.0153   -4209.2239   -4693.0153            0    5654.0556    20.240401    19.829324    20.472956    8216.8923    6121.3455    5164.0497    5676.7716     499.0319   -1592.8621   -599.04987   -3531.6704 
11750000    274.61055   -4685.4432   -4155.8336   -4685.4432            0     5462.387    19.967955    20.003619    20.616058    8234.6999     5810.719    4350.3992    6226.0428    -939.9631    1794.3953   -633.13288   -3499.8302 
Loop time of 515.416 on 64 procs for 250000 steps with 972 atoms

Performance: 83.816 ns/day, 0.286 hours/ns, 485.045 timesteps/s
99.0% CPU use with 64 MPI tasks x 1 OpenMP threads

MPI task timing breakdown:
Section |  min time  |  avg time  |  max time  |%varavg| %total
---------------------------------------------------------------
Pair    | 20.947     | 28.927     | 37.683     |  77.8 |  5.61
Bond    | 0.27548    | 0.2837     | 0.29785    |   0.9 |  0.06
Kspace  | 213.55     | 231.02     | 252.44     |  56.6 | 44.82
Neigh   | 3.4513     | 4.1687     | 5.3296     |  23.8 |  0.81
Comm    | 96.256     | 114.14     | 125.78     |  68.4 | 22.14
Output  | 1.1237     | 1.1241     | 1.1298     |   0.1 |  0.22
Modify  | 124.22     | 127.3      | 132.31     |  15.7 | 24.70
Other   |            | 8.452      |            |       |  1.64

Nlocal:        15.1875 ave          20 max          11 min
Histogram: 3 5 9 7 15 4 8 9 3 1
Nghost:        2238.61 ave        2274 max        2200 min
Histogram: 2 0 5 7 15 16 6 10 2 1
Neighs:        4775.30 ave        6457 max        3294 min
Histogram: 3 8 11 3 11 8 6 7 5 2

Total # of neighbors = 305619
Ave neighs/atom = 314.42284
Ave special neighs/atom = 2.0000000
Neighbor list builds = 8027
Dangerous builds = 0

unfix		3
unfix		2
unfix		1

write_data	data.final.${pid}
write_data	data.final.0
System init for write_data ...
PPPM initialization ...
  extracting TIP4P info from pair style
  using 12-bit tables for long-range coulomb (../kspace.cpp:340)
  G vector (1/distance) = 0.37150316
  grid = 24 24 24
  stencil order = 5
  estimated absolute RMS force accuracy = 0.0035954599
  estimated relative force accuracy = 1.0827621e-05
  using double precision FFTW3
  3d grid and FFT values/proc = 2197 216
Last active /omp style is kspace_style pppm/tip4p/omp
WARNING: Not all mixed pair coeffs generated from mixing. Use write_data with 'pair ij' option to store all pair coeffs. (../write_data.cpp:312)

write_restart   restart.lmp.${pid}
write_restart   restart.lmp.0
System init for write_restart ...
PPPM initialization ...
  extracting TIP4P info from pair style
  using 12-bit tables for long-range coulomb (../kspace.cpp:340)
  G vector (1/distance) = 0.37150316
  grid = 24 24 24
  stencil order = 5
  estimated absolute RMS force accuracy = 0.0035954599
  estimated relative force accuracy = 1.0827621e-05
  using double precision FFTW3
  3d grid and FFT values/proc = 2197 216
Last active /omp style is kspace_style pppm/tip4p/omp
Total wall time: 0:08:39
