LAMMPS (30 Jul 2021)
  using 1 OpenMP thread(s) per MPI task
package omp 0
using multi-threaded neighbor list subroutines
echo both

include		in.partitions
variable        pid world 0
include		in.temp
variable        temperature equal 218.92
variable	tempDamp equal 100.0
include		in.pressure
variable        pressure equal -375.0
variable        pressureDamp equal 1000.0 # This is 1 ps
include		in.seed
variable        seed world 745823

units		real
atom_style	full
read_restart	restart.lmp.${pid}
read_restart	restart.lmp.0
Reading restart file ...
  restart file = 30 Jul 2021, LAMMPS = 30 Jul 2021
  restoring atom style full from restart
  orthogonal box = (-0.18402728 0.87477145 -0.22451285) to (18.391600 22.754406 22.437709)
  4 by 4 by 4 MPI processor grid
  restoring pair style lj/cut/tip4p/long/omp from restart
  restoring bond style harmonic/omp from restart
  restoring angle style harmonic/omp from restart
  864 atoms
  576 bonds
  288 angles
Finding 1-2 1-3 1-4 neighbors ...
  special bond factors lj:    0        0        0       
  special bond factors coul:  0        0        0       
     2 = max # of 1-2 neighbors
     1 = max # of 1-3 neighbors
     1 = max # of 1-4 neighbors
     2 = max # of special neighbors
  special bonds CPU = 1.394 seconds
  read_restart CPU = 1.737 seconds
include 	in.setup
variable	out_freq equal 1000
variable	out_freq2 equal 10000
variable	out_freq3 equal 1000

timestep	2.0

neigh_modify    delay 7 every 1

include		in.tip4p
# This is TIP4P/Ice

# create groups ###
group ox type 2
288 atoms in group ox
group hy type 1
576 atoms in group hy

# set charges - beside manually ###
set group ox charge -1.1794
Setting atom values ...
  288 settings made for charge
set group hy charge 0.5897
Setting atom values ...
  576 settings made for charge

# ### TIP3P Potential Parameters ###
pair_style lj/cut/tip4p/long/omp 2 1 1 1 0.1577 8.5
pair_coeff 1 1*2 0.000 0.000
pair_coeff 2 2 0.21084 3.1668
bond_style  harmonic
bond_coeff  1 450 0.9572
angle_style harmonic
angle_coeff 1 55 104.52
kspace_style pppm/tip4p/omp 1.0e-5
pair_modify tail yes

thermo          ${out_freq}
thermo          1000
thermo_style    custom step temp pe etotal epair emol press lx ly lz vol pxx pyy pzz pxy pxz pyz enthalpy

restart 	${out_freq3} restart.lmp.${pid} restart2.lmp.${pid}
restart 	1000 restart.lmp.${pid} restart2.lmp.${pid}
restart 	1000 restart.lmp.0 restart2.lmp.${pid}
restart 	1000 restart.lmp.0 restart2.lmp.0


include         in.dump
dump            myDump all atom ${out_freq2} dump.water.${pid}
dump            myDump all atom 10000 dump.water.${pid}
dump            myDump all atom 10000 dump.water.0
dump            myDump2 all dcd ${out_freq2} dump.dcd
dump            myDump2 all dcd 10000 dump.dcd
dump_modify     myDump append yes
dump_modify     myDump2 append yes


variable natoms 	equal  "count(all)"                        # NUMBER ATOMS
variable H      	equal  "enthalpy/v_natoms"                 # ENTHALPY-per-atom
variable Vol      	equal  "vol/v_natoms"                 # volume-per-atom
fix AVG all 		ave/time ${out_freq} 1 ${out_freq} v_Vol v_H file vol_enthalpy.dat
fix AVG all 		ave/time 1000 1 ${out_freq} v_Vol v_H file vol_enthalpy.dat
fix AVG all 		ave/time 1000 1 1000 v_Vol v_H file vol_enthalpy.dat


timer           timeout 23:50:00 every 1000
New timer settings: style=normal  mode=nosync  timeout=23:50:00

fix 		1 all shake 1e-6 200 0 b 1 a 1
       0 = # of size 2 clusters
       0 = # of size 3 clusters
       0 = # of size 4 clusters
     288 = # of frozen angles
  find clusters CPU = 0.316 seconds
fix             2 all nph iso ${pressure} ${pressure} ${pressureDamp}
fix             2 all nph iso -375 ${pressure} ${pressureDamp}
fix             2 all nph iso -375 -375 ${pressureDamp}
fix             2 all nph iso -375 -375 1000
fix             3 all temp/csvr ${temperature} ${temperature} ${tempDamp} ${seed}
fix             3 all temp/csvr 218.92 ${temperature} ${tempDamp} ${seed}
fix             3 all temp/csvr 218.92 218.92 ${tempDamp} ${seed}
fix             3 all temp/csvr 218.92 218.92 100 ${seed}
fix             3 all temp/csvr 218.92 218.92 100 745823

run             250000
PPPM initialization ...
  extracting TIP4P info from pair style
  using 12-bit tables for long-range coulomb (../kspace.cpp:340)
  G vector (1/distance) = 0.37225721
  grid = 24 25 27
  stencil order = 5
  estimated absolute RMS force accuracy = 0.0030760379
  estimated relative force accuracy = 9.2633969e-06
  using double precision FFTW3
  3d grid and FFT values/proc = 2730 384
Last active /omp style is kspace_style pppm/tip4p/omp
Neighbor list info ...
  update every 1 steps, delay 7 steps, check yes
  max neighbors/atom: 2000, page size: 100000
  master list distance cutoff = 10.8154
  ghost atom cutoff = 10.8154
  binsize = 5.4077, bins = 4 5 5
  1 neighbor lists, perpetual/occasional/extra = 1 0 0
  (1) pair lj/cut/tip4p/long/omp, perpetual
      attributes: half, newton on, omp
      pair build: half/bin/newton/omp
      stencil: half/bin/3d
      bin: standard
Per MPI rank memory allocation (min/avg/max) = 9.205 | 9.214 | 9.223 Mbytes
Step Temp PotEng TotEng E_pair E_mol Press Lx Ly Lz Volume Pxx Pyy Pzz Pxy Pxz Pyz Enthalpy 
17500000    231.38272   -4076.1379   -3679.5559   -4076.1379            0   -167.95898    18.575627    21.879635    22.662221    9210.5599   -946.55442   -153.77681    596.45429   -264.48333    -142.1675    42.184788   -3702.1172 
17501000     228.4685   -4117.2352    -3725.648   -4117.2352            0   -1600.3116    18.658883      21.9777    22.763794    9334.9617   -1141.4886   -1487.0389   -2172.4074   -378.68127   -998.76149    531.78124   -3943.5158 
17502000    219.23406   -4105.1347   -3729.3751   -4105.1347            0    767.91559    18.538112    21.835447    22.616453    9154.8684    577.71156    344.83344    1381.2018    103.68615   -324.32653    -190.3926   -3626.8473 
17503000    212.39164   -4100.4531   -3736.4211   -4100.4531            0   -1003.6295    18.602079    21.910792    22.694493    9249.9637   -1162.5893    -1185.601   -662.69822   -468.77967   -294.21681    1003.7446   -3871.8119 
17504000    213.11263   -4130.5102   -3765.2425   -4130.5102            0   -1478.4648    18.638408    21.953583    22.738814    9304.2644    -2777.295   -693.09833   -965.00092    353.71343   -1457.0449    287.79542     -3965.86 
17505000    215.38094   -4086.9138   -3717.7582   -4086.9138            0   -444.77218    18.593405    21.900575     22.68391    9237.0302   -505.61139   -1109.4617    280.75657     272.2173    167.23742    252.39829   -3777.6746 
17506000    231.14618   -4108.2987    -3712.122   -4108.2987            0   -552.36363    18.637843    21.952917    22.738125    9303.4177   -826.40691    326.90459   -1157.5886   -523.91503    191.45678   -2577.1337   -3787.0672 
17507000     210.2799   -4084.8741   -3724.4616   -4084.8741            0    714.36287    18.600992    21.909512    22.693167    9248.3429    688.87786    19.589493    1434.6212    255.48538   -98.716369    741.91402     -3628.11 
17508000     230.9564   -4112.5219   -3716.6705   -4112.5219            0   -361.28522    18.596274    21.903954    22.687411    9241.3071    -658.3174   -1283.8703    858.33203   -10.924295    650.35649  -0.76205999   -3765.3627 
17509000     224.9758   -4085.2127   -3699.6118   -4085.2127            0   -667.00679    18.639291    21.954623    22.739892    9305.5873    -717.1222   -435.22908   -848.66911   -524.59401    257.58665    138.56199    -3790.133 
17510000      213.322   -4084.7687   -3719.1421   -4084.7687            0   -385.21824    18.573289    21.876881     22.65937    9207.0831    -190.0532   -989.73921    24.137699   -337.50276    283.43565    -752.8579   -3770.8676 
17511000    227.52509   -4124.9447   -3734.9745   -4124.9447            0   -1229.9015     18.62445    21.937142    22.721786     9283.377   -1007.5576   -1532.1685   -1149.9785   -1001.6913    1346.7887   -168.79916    -3901.489 
17512000    228.47875   -4080.4337   -3688.8289   -4080.4337            0    -577.7569    18.586668    21.892639    22.675691    9226.9931   -1124.0425   -978.22379    368.99562    52.944431    1069.7937     446.2949   -3766.5755 
17513000    223.44994   -4090.2103   -3707.2247   -4090.2103            0   -305.92632    18.623228    21.935702    22.720294    9281.5486   -456.84205    -680.2325    219.29558    977.48476    177.63173   -1347.0804   -3748.6355 
17514000     222.7247   -4125.9907   -3744.2482   -4125.9907            0    609.96837    18.597588    21.905502    22.689013    9243.2656    1571.9013    85.995811    172.00798      1309.32    156.04932    128.96048   -3662.0223 
17515000    209.80096    -4085.067   -3725.4754    -4085.067            0   -438.62476    18.634318    21.948765    22.733824    9298.1403   -272.32555   -899.32306   -144.22569    713.74815    -24.21965    87.501455   -3784.9546 
17516000    226.88745   -4119.2636   -3730.3862   -4119.2636            0    463.39609    18.618509    21.930145    22.714538    9274.4958    383.72519   -28.549705    1035.0128     1561.833   -535.39173    213.49751   -3667.7077 
17517000    210.32237   -4083.0704    -3722.585   -4083.0704            0    58.449483    18.591783    21.898664    22.681931    9234.6126   -1452.3287     1857.404   -229.72685   -206.16056   -819.29955   -166.84523   -3714.7132 
17518000    203.91145   -4107.2056   -3757.7083   -4107.2056            0    409.01398    18.548819    21.848058    22.629515    9170.7393    281.43187    91.300634    854.30945   -392.57104    329.00143    606.27518   -3703.0044 
17519000    215.24922    -4098.854   -3729.9243    -4098.854            0   -345.35877    18.603819    21.912842    22.696616    9252.5601    898.13126    -775.0105   -1159.1971   -160.01542     337.1719    1004.0353   -3776.5267 
17520000    206.98921   -4107.0503   -3752.2779   -4107.0503            0   -214.32742    18.638185     21.95332    22.738542    9303.9305   -242.73902     169.0168   -569.26004    1732.7501   -553.63846    853.43082   -3781.3596 
17521000    224.08051   -4127.6613    -3743.595   -4127.6613            0     189.8952    18.606282    21.915742     22.69962    9256.2347   -108.97343    1232.8276   -554.16859    1221.1061    411.35783    -141.7864   -3717.9605 
17522000    226.55246   -4096.6426   -3708.3395   -4096.6426            0   -432.30811    18.617522    21.928981    22.713333    9273.0201    744.81764   -437.18387   -1604.5581     580.6737    441.42202    778.63034   -3766.8037 
17523000    205.29367    -4101.552   -3749.6856    -4101.552            0    977.33401    18.522022    21.816495    22.596824    9131.0511    1105.8122    392.81261    1433.3772    783.11589     -829.675   -273.43045    -3619.537 
17524000    223.29767    -4065.582   -3682.8574    -4065.582            0   -267.69643    18.649507    21.966656    22.752355     9320.896   -768.68414   -581.71478    547.30963   -5.9214538     91.54711     751.6106   -3719.2469 
17525000    221.05005   -4099.7295   -3720.8573   -4099.7295            0    143.12496    18.598745    21.906865    22.690426    9244.9919   -86.502743    818.75484   -302.87722    188.26475    526.81632    534.09063     -3701.56 
17526000    226.37593   -4086.4203   -3698.4197   -4086.4203            0    912.31301    18.562322    21.863963    22.645989    9190.7825    268.48005    1563.6446    904.81437    807.63401   -344.23661    130.03692    -3576.135 
17527000    221.46471   -4092.2133   -3712.6304   -4092.2133            0    260.88437    18.646015    21.962543    22.748095     9315.661   -4.8914328    366.39958    421.14496   -60.716798    360.13675    325.74952   -3677.1868 
17528000    214.28653   -4112.5169   -3745.2371   -4112.5169            0    548.74544    18.555832    21.856319    22.638072     9181.146    2271.4571   -63.735837   -561.48496    685.77268   -808.89756    827.85027   -3671.7614 
17529000    210.22526   -4121.4391   -3761.1202   -4121.4391            0    83.567852    18.557084    21.857794    22.639599    9183.0042    172.00774   -362.93745    441.63326    485.26953    539.51959    246.11748   -3749.9284 
17530000    219.26518   -4076.5911   -3700.7781   -4076.5911            0    963.70111    18.589096    21.895499    22.678653    9230.6096    645.05201    1413.5781    832.47325   -1091.6303   -1453.4598    976.99233   -3571.0456 
17531000    235.90081   -4100.5949   -3696.2689   -4100.5949            0   -491.95614    18.592528    21.899542    22.682841    9235.7235   -1007.4199    227.63912   -696.08766   -374.00167     153.8514    455.22673   -3762.5323 
17532000    218.89421   -4089.6462    -3714.469   -4089.6462            0   -690.60275    18.573282    21.876873    22.659361    9207.0722    164.11252   -1211.8498    -1024.071    2.0735271    671.77083   -908.59795   -3807.2002 
17533000    214.76291   -4079.6275   -3711.5312   -4079.6275            0    247.12247     18.50248    21.793478    22.572983    9102.1803    281.39965    564.12803   -104.16027    426.40386   -589.51447    1256.4504   -3678.7267 
17534000    219.45101   -4118.3995    -3742.268   -4118.3995            0   -335.52809    18.532541    21.828886    22.609657    9146.6174     618.3309   -674.58672   -950.32847    37.494501    289.28997    1694.6102   -3787.0254 
17535000    209.75286   -4118.6152   -3759.1059   -4118.6152            0    -2062.983    18.659004    21.977842    22.763941    9335.1427   -1675.0661    -1205.921    -3307.962   -176.78636   -1154.7092   -264.03486   -4039.9676 
17536000    208.21434   -4092.1003    -3735.228   -4092.1003            0    16.080352    18.592444    21.899443    22.682738    9235.5984    930.15972    264.78054   -1146.6992   -534.05638    792.82959    37.242657   -3733.0621 
17537000    223.12731   -4094.8749   -3712.4423   -4094.8749            0   -383.56541    18.638606    21.953816    22.739056    9304.5608   -486.22513   -1143.9054    479.43434    276.74398    357.17566    494.43478   -3764.4912 
17538000     213.8363   -4076.5606   -3710.0525   -4076.5606            0   -640.84398    18.656814    21.975263     22.76127    9331.8564    478.56665   -1347.3087   -1053.7899    914.87906   -443.42714    725.48926   -3797.2685 
17539000    225.57315   -4093.4162   -3706.7915   -4093.4162            0   -837.69348    18.590183    21.896779    22.679979    9232.2287   -807.05512   -809.84733   -896.17799    1271.5898    634.82188   -355.96975   -3819.5807 
17540000    225.83362   -4116.3479   -3729.2768   -4116.3479            0   -276.37753    18.610486    21.920695     22.70475    9262.5114    692.62038   -909.32262   -612.43035    1477.5182   -630.69712   -515.72528    -3766.611 
17541000    211.77337   -4077.4009   -3714.4286   -4077.4009            0   -906.28968    18.640702    21.956285    22.741613    9307.6999   -373.45643   -1031.5401   -1313.8725    227.89956    481.49613    -258.7548   -3837.4513 
17542000    216.91208   -4102.9654   -3731.1855   -4102.9654            0    2367.6182    18.518331    21.812147     22.59232    9125.5929    2845.4691     651.7254      3605.66    -144.9727   -861.66895   -502.96172   -3416.0854 
17543000    215.57064   -4082.0006   -3712.5199   -4082.0006            0   -573.79452     18.64745    21.964232    22.749845    9317.8113    12.183438   -610.19018   -1123.3768   -145.81205    540.18859    142.42913   -3790.4932 
17544000    217.44485   -4086.4379   -3713.7448   -4086.4379            0    589.72849    18.584166    21.889693    22.672639     9223.268    744.85391   -248.91201    1273.2436    94.757254    143.78797     47.31802   -3634.4193 
17545000    211.94557   -4131.4194   -3768.1519   -4131.4194            0   -1858.3059    18.633782    21.948134    22.733171    9297.3384   -1858.4549   -2290.8592   -1425.6037    849.96541    -52.85839   -1042.2925   -4020.1236 
17546000     224.5368   -4098.9792   -3714.1308   -4098.9792            0   -852.44271    18.633708    21.948047    22.733081    9297.2278   -296.82901    -713.0255   -1547.4736    12.139957    529.88547   -364.13083   -3829.7139 
17547000    212.65452   -4105.2599   -3740.7773   -4105.2599            0     1095.108    18.570221    21.873268    22.655627    9202.5213     998.0564    1902.2926    384.97499    357.33365    358.55602    405.94028   -3593.8036 
17548000    216.24588   -4091.0484   -3720.4104   -4091.0484            0   -969.89627    18.650428    21.967741    22.753479    9322.2769   -892.94331   -1622.4301   -394.31536    230.97257     323.1103    978.88316   -3852.2734 
17549000    231.46646   -4105.6786    -3708.953   -4105.6786            0    732.95677    18.596355     21.90405     22.68751    9241.4285   -151.56362    925.80843    1424.6255    -170.0255    120.02348     101.3036   -3610.1675 
17550000    222.06103   -4117.2583   -3736.6533   -4117.2583            0    315.88429    18.613165     21.92385    22.708018    9266.5117    131.02488    568.98641    247.64158    236.52757    1210.0047   -237.16713   -3693.9639 
17551000    213.01276   -4069.2558   -3704.1592   -4069.2558            0   -1304.8862    18.676616    21.998587    22.785428    9361.6016   -817.06452   -1146.6935   -1950.9007    71.734306   -16.357936    1223.4379   -3882.3144 
17552000    218.50008   -4098.1186   -3723.6169   -4098.1186            0   -54.142607    18.607273     21.91691    22.700829    9257.7141   -534.33089     504.4377   -132.53464    171.58338   -804.39935   -274.80216    -3730.927 
17553000    215.87312   -4106.1924   -3736.1933   -4106.1924            0   -1059.2508    18.685842    22.009453    22.796683    9375.4814   -1087.4646   -759.47381   -1330.8139   -209.22495    53.080599    1185.3257   -3881.0265 
17554000    222.62539   -4087.2099   -3705.6376   -4087.2099            0   -832.60595      18.7066    22.033904    22.822009     9406.763   -567.17268   -1408.0505   -522.59471    260.41514     540.8369   -616.81645   -3819.8611 
17555000    215.24994   -4096.3884   -3727.4574   -4096.3884            0   -501.34044    18.686361    22.010065    22.797316    9376.2629   -458.84617    173.96386    -1219.139    247.43277   -922.21844    1204.9129   -3796.0123 
17556000    226.47491   -4080.9655   -3692.7953   -4080.9655            0   -1304.5436    18.672425     21.99365    22.780315    9355.3008    -1633.358   -1105.2507   -1175.0221   -201.49656    431.59833    -803.6262   -3870.7839 
17557000    220.54486   -4100.3471   -3722.3408   -4100.3471            0   -191.09165      18.5801    21.884903    22.667679    9217.2152   -97.580028    498.39781   -974.09275   -763.61894    509.97225    989.70328    -3748.028 
17558000    225.72958   -4111.7898    -3724.897   -4111.7898            0    405.56032    18.606425    21.915911    22.699795    9256.4486    373.67218    164.90264    678.10613    392.79423   -427.59766    -289.8034   -3670.1481 
17559000      225.842    -4109.001   -3721.9155    -4109.001            0    83.230558    18.605485    21.914803    22.698648    9255.0455    888.48465   -812.77667     173.9837    166.60883   -881.80639   -11.964025   -3710.6815 
17560000     215.4162   -4131.4983   -3762.2823   -4131.4983            0     70.07741    18.571453    21.874719    22.657129    9204.3525    643.98149    358.95147   -792.70073    689.31315   -68.911976   -145.38516   -3752.8754 
17561000    222.61368   -4108.5471   -3726.9949   -4108.5471            0   -424.16627    18.641017    21.956655    22.741997    9308.1713   -464.21096   -524.89416   -283.39371    43.942689    387.38965    -576.7226   -3784.5755 
17562000    225.20425   -4095.1852   -3709.1928   -4095.1852            0   -1414.4324    18.656816    21.975265    22.761272    9331.8589   -2035.3856   -1193.7152   -1014.1965   -135.61174   -26.245373   -217.56869   -3901.6909 
17563000     225.1817   -4081.6136   -3695.6598   -4081.6136            0    372.18737    18.628018    21.941345    22.726139    9288.7135   -403.65225   -4.4906163     1524.705   -43.187835   -462.43044    -347.4545    -3645.241 
17564000    224.47811   -4112.8431   -3728.0953   -4112.8431            0   -512.67781    18.636664    21.951528    22.736686    9301.6524   -322.62517   -788.14813   -427.26013    197.22041     393.9413    942.41217   -3797.6427 
17565000    215.18097   -4120.1851   -3751.3722   -4120.1851            0     -405.773    18.645615    21.962072    22.747607    9315.0616   -902.82381   -624.65502    310.15984    -851.8208    466.88496     -921.053   -3806.4968 
17566000    221.29937   -4077.5734   -3698.2738   -4077.5734            0    465.69209    18.608621    21.918498    22.702474     9259.727    1.5544627    1198.8702    196.65161   -448.78635   -283.87607    432.46839   -3635.3851 
17567000    208.01238   -4118.4605   -3761.9344   -4118.4605            0   -1345.7228    18.664762    21.984624    22.770966     9343.787   -1079.8666   -1723.2918   -1234.0099   -154.90365    -519.5469   -130.97201   -3945.3154 
17568000    221.19048   -4108.7399    -3729.627   -4108.7399            0   -428.05509    18.608408    21.918247    22.702215    9259.4093   -405.97334    820.02607    -1698.218   -517.95039    542.15831   -639.03408   -3787.4311 
17569000    209.13225   -4117.7479   -3759.3023   -4117.7479            0   -82.755451    18.594491    21.901855    22.685236    9238.6497    -583.9344    1191.4388   -855.77077    869.56888    1267.0733   -239.53349   -3770.4525 
17570000    211.83747   -4090.4932    -3727.411   -4090.4932            0    922.17987    18.574838    21.878706    22.661259    9209.3865    2023.2358   -484.43434    1227.7382    380.71481   -728.86993   -607.81651   -3603.5535 
17571000    214.69705   -4092.8874    -3724.904   -4092.8874            0   -281.37047    18.610203    21.920361    22.704404    9262.0884   -737.05195   -4.2976755   -102.76178   -292.27396   -82.544831    401.66427    -3762.911 
17572000    243.30943   -4091.8439   -3674.8199   -4091.8439            0    1399.1425    18.594565    21.901942    22.685326    9238.7597    1024.9296    2893.8812    278.61677    2.6752236    995.36898    14.370747   -3486.3025 
17573000    208.30388   -4113.3585   -3756.3328   -4113.3585            0    482.66829    18.606831    21.916389     22.70029     9257.054    864.78715    547.43986    35.777872    211.88427    528.18828      721.917   -3691.1703 
17574000    218.87676   -4102.9893   -3727.8421   -4102.9893            0    211.63298    18.630641    21.944434    22.729338     9292.637   -491.62181     908.8651    217.65564    18.000832    442.04461    563.51771   -3699.1608 
17575000    214.51703   -4087.8878    -3720.213   -4087.8878            0   -742.65789    18.668675    21.989233    22.775739    9349.6649   -608.88156   -424.47891   -1194.6132    595.17512    -1337.338    683.76295   -3821.4783 
17576000    212.68097   -4092.3583   -3727.8304   -4092.3583            0   -672.15385     18.63611    21.950876     22.73601    9300.8228   -822.11809   -1575.4888    381.14536    816.07099    66.598068   -62.037687   -3819.0033 
17577000    216.51258    -4115.605   -3744.5098    -4115.605            0   -488.86288    18.603193    21.912103    22.695851    9251.6252   -383.28288   -711.48305   -371.82272    -414.5873   -305.15262    331.91888   -3810.4699 
17578000    230.97634   -4079.0631   -3683.1775   -4079.0631            0   -291.09971    18.631743    21.945732    22.730683    9294.2865   -895.27686   -31.219857    53.197586    898.88842   -658.68485   -859.79738   -3722.6354 
17579000    217.74968   -4108.9433   -3735.7278   -4108.9433            0   -135.17307    18.642504    21.958407    22.743811    9310.3994   -748.19021    223.10904    119.56196    415.87099    412.27724    67.056486    -3754.082 
17580000     224.7745    -4081.915   -3696.6592    -4081.915            0   -892.82996    18.614009    21.924844    22.709047    9267.7721   -1083.3725   -1359.1242   -235.99314    243.00689    1238.7211    1128.6229   -3817.3349 
17581000    219.16567   -4103.3655    -3727.723   -4103.3655            0   -681.70723    18.636803    21.951692    22.736856    9301.8605    242.25464   -1633.8216   -653.55473   -357.79962    80.908977   -877.93782   -3820.2021 
17582000    213.65626   -4121.5649   -3755.3653   -4121.5649            0    1337.9336    18.577697    21.882073    22.664746    9213.6388    95.142856    2942.7335    975.92434   -415.65528    959.54764   -242.34481   -3575.5852 
17583000    202.32571   -4096.6822   -3749.9028   -4096.6822            0   -922.71015    18.611153     21.92148    22.705563     9263.507    -1174.775   -831.84006   -761.51539   -366.57516   -356.59824    501.64154   -3874.5598 
17584000    223.83623   -4076.7498   -3693.1022   -4076.7498            0   -156.47365     18.64724    21.963985    22.749589    9317.4967    -776.8574    -45.54106    352.97752    272.98036   -128.39472   -464.84744   -3714.3648 
17585000    218.15191   -4108.5833   -3734.6784   -4108.5833            0   -271.34684    18.612558    21.923134    22.707277    9265.6046   -1123.5627    1595.6018   -1286.0795    751.31256    436.31853   -1357.3679   -3771.3453 
17586000    222.43679   -4108.3377   -3727.0887   -4108.3377            0   -1479.2209    18.684664    22.008066    22.795247    9373.7094   -1035.9672   -1070.8559   -2330.8396   -432.45438    -133.2411    290.33246    -3929.307 
17587000    213.79072   -4108.0981   -3741.6681   -4108.0981            0    561.41818    18.622401    21.934728    22.719285    9280.3121    298.09217    1726.2113   -340.04894   -62.608275   -311.90633    764.26662   -3665.6836 
17588000    222.34411   -4085.5817   -3704.4915   -4085.5817            0   -1042.1596    18.646351    21.962939    22.748505    9316.1649   -1071.4576   -1034.8397   -1020.1816   -157.78024   -142.85107    188.61227   -3846.0863 
17589000    212.72756   -4125.0148    -3760.407   -4125.0148            0    257.72104    18.593373    21.900538    22.683872     9236.983    478.83596    354.32816   -60.000994     1555.888   -1214.9636   -148.73303    -3725.689 
17590000    210.40379   -4084.6875   -3724.0626   -4084.6875            0    1992.6582    18.545715    21.844402    22.625729    9166.1366    2313.9743    1934.2497    1729.7507    49.287619    151.14052    -419.2037   -3457.6866 
17591000    209.38576   -4110.4158   -3751.5358   -4110.4158            0   -226.57754     18.62752    21.940758    22.725531     9287.968   -1746.1209    542.34476    524.04358    830.05806   -53.367017    1306.2633   -3782.2269 
17592000    226.81562   -4100.8166   -3712.0624   -4100.8166            0   -355.53439    18.629449     21.94303    22.727885     9290.854   -908.84342    -1593.379    1435.6192    375.54505   -374.38497    166.98492   -3760.2364 
17593000    212.74931   -4112.0645   -3747.4195   -4112.0645            0    549.08542    18.635254    21.949868    22.734967    9299.5419   -3.7561458     898.8754      752.137    460.82229    288.95053    649.43135   -3672.9502 
17594000    211.02953   -4080.3207   -3718.6233   -4080.3207            0    1233.1953     18.60338    21.912324     22.69608    9251.9049    2555.9059    1662.4334   -518.75328    442.88333   -133.39735    297.73126   -3552.2288 
17595000    215.14494    -4103.173   -3734.4219    -4103.173            0   -38.057107     18.58005    21.884845    22.667617    9217.1407   -994.14016    736.17767    143.79117    915.27042   -300.86901      216.388   -3739.5376 
17596000    222.85388   -4077.5426   -3695.5787   -4077.5426            0    179.29789    18.608919    21.918849    22.702838     9260.172   -971.03583    -126.4043    1635.3338    415.98129   -17.911749    96.723139   -3671.3645 
17597000    206.04111   -4071.9342   -3718.7868   -4071.9342            0   -1062.4851    18.678864    22.001234     22.78817     9364.982   -2478.9038   -1182.0732    473.52172    1270.0492   -896.65163   -1393.8928   -3863.8996 
17598000    210.47663   -4112.8321   -3752.0824   -4112.8321            0   -1511.8059    18.718328    22.047718    22.836316    9424.4655   -1492.8852   -2078.8871   -963.64549    230.99827   -856.87142   -883.15261   -3959.8743 
17599000    217.74108   -4091.1701   -3717.9693   -4091.1701            0   -669.27846    18.697184    22.022813    22.810521    9392.5648   -1572.2155   -1250.3866    814.76667    378.79971   -605.79687   -391.48493   -3809.6477 
17600000    215.63925   -4106.4597   -3736.8614   -4106.4597            0     628.0205    18.644513    21.960774    22.746263    9313.4103   -912.09034    715.50826    2080.6436    320.65251    362.24934    478.32638   -3651.5595 
17601000    212.82766   -4114.4006   -3749.6213   -4114.4006            0   -691.52604    18.666026    21.986113    22.772508    9345.6861   -1383.6301   -626.76991   -64.178151    58.289904   -1266.5189   -185.79574   -3843.8744 
17602000    221.14017   -4092.3023   -3713.2756   -4092.3023            0   -63.884864    18.613979    21.924809    22.709011    9267.7274    365.24494    459.21018   -1016.1097   -190.85964   -822.22268     1159.712   -3721.9103 
17603000    211.61923    -4068.787   -3706.0789    -4068.787            0    126.17404    18.614295     21.92518    22.709396    9268.1988    194.80572   -107.86689     291.5833    969.05257   -332.45805    242.73355   -3689.0243 
17604000    212.77402   -4090.9547   -3726.2673   -4090.9547            0   -111.63629    18.642558    21.958471    22.743877    9310.4807   -770.19973    1253.1828   -817.89195    121.45831   -1084.3609     984.8655   -3741.4257 
17605000    223.21571   -4079.9326   -3697.3485   -4079.9326            0   -1617.3978    18.749071    22.083929    22.873822     9470.978   -1873.3329    -1216.472   -1762.3886    1317.5114    62.796014     302.2448   -3920.7508 
17606000    218.17914   -4122.4181   -3748.4665   -4122.4181            0   -595.13388    18.652639    21.970345    22.756176     9325.593   -715.28245   -874.27063   -195.84855    38.656875    318.05641   -324.67338   -3829.4073 
17607000    216.92982   -4113.2849   -3741.4746   -4113.2849            0   -156.10258    18.648877    21.965914    22.751587     9319.952   -767.82513   -349.72428    649.24165    577.18751   -1306.6486   -1080.8674   -3762.6924 
17608000    216.82822   -4088.2573   -3716.6211   -4088.2573            0    -875.2039    18.640023    21.955484    22.740784    9306.6823   -1236.9173   -1089.8108   -298.88357    1.6008579   -207.03161   -135.09261   -3835.4112 
17609000    229.54929   -4127.1451   -3733.7054   -4127.1451            0   -663.53988    18.698231    22.024046    22.811798    9394.1421    -1362.591   -808.10192     180.0733    355.93879    466.67942   -335.53042    -3824.613 
17610000    210.42996   -4095.9669   -3735.2972   -4095.9669            0   -536.78955    18.741229    22.074693    22.864256       9459.1   -1507.6081   -50.237044   -52.523522    690.11764   -269.03345    780.57719    -3809.348 
17611000    219.31466   -4087.0844   -3711.1866   -4087.0844            0   -701.43768    18.648118     21.96502     22.75066    9318.8132   -565.10175    428.86605   -1968.0773    910.73454    755.34648    -112.5661   -3806.5157 
17612000    217.87364   -4103.8253   -3730.3973   -4103.8253            0   -1840.0429    18.698634    22.024521     22.81229    9394.7508   -2394.2121   -1613.6913   -1512.2254   -482.97688    579.93042    579.51575   -3982.5067 
17613000    209.88677   -4095.8252   -3736.0864   -4095.8252            0   -1011.4941     18.70592    22.033103    22.821178    9405.7362   -1655.6088    945.57867   -2324.4521    1001.5156    26.571138    958.94135   -3874.8361 
17614000     228.5097   -4082.8872   -3691.2294   -4082.8872            0   -365.43303    18.690276    22.014677    22.802094    9382.1584   -490.97042    105.18166   -710.51034    141.18327   -798.74572   -947.39738   -3741.2313 
17615000    222.47416   -4097.1465   -3715.8334   -4097.1465            0   -224.49556     18.69764     22.02335    22.811077    9393.2513   -430.10429    633.47548   -876.85786    206.31176     -526.532    798.88509   -3746.5872 
17616000    216.82228     -4117.81   -3746.1841     -4117.81            0    169.01091    18.675959    21.997812    22.784626    9360.6131   -463.84488   -691.71411    1662.5917   -295.68655    293.33973    235.99292   -3723.1115 
17617000    208.02197   -4112.7544   -3756.2118   -4112.7544            0   -916.21208    18.703904    22.030728    22.818719    9402.6951   -2545.2955   -247.27114    43.930402    618.21317   -74.003697    486.56946   -3881.8508 
17618000     216.7237   -4110.8823   -3739.4253   -4110.8823            0    393.12612    18.646749    21.963407     22.74899     9316.761   -709.94793    1811.0628    78.263531    963.18336    50.029987    213.66145   -3686.0091 
17619000    226.63078   -4108.8619   -3720.4245   -4108.8619            0    432.91896    18.618034    21.929584    22.713958     9273.785   -169.86096    2179.7467   -711.12887    1706.9084   -758.38036    -864.7068   -3661.8728 
17620000    211.63546   -4104.4483   -3741.7124   -4104.4483            0   -109.42246    18.667861    21.988275    22.774747    9348.4429    217.13947   -487.84755   -57.559301     1816.332   -1084.9068    397.19741   -3756.6308 
17621000    210.42763   -4110.4109   -3749.7452   -4110.4109            0    308.46155    18.630213     21.94393    22.728816    9291.9965    -848.7668    1493.1101    281.04138    342.36983   -308.37779    766.57077   -3707.9442 
17622000    238.06174   -4118.2572   -3710.2276   -4118.2572            0   -603.98137     18.66206    21.981442     22.76767    9339.7307   -987.03435     578.3888   -1403.2985    312.76423    273.17993    636.53313   -3792.4961 
17623000    211.20515   -4120.1898   -3758.1914   -4120.1898            0   -1012.4509    18.635201    21.949806    22.734902    9299.4626   -1211.0645   -883.06134   -943.22676    880.38034    109.60589    24.890861   -3895.5032 
17624000    224.58693   -4098.5742   -3713.6399   -4098.5742            0    53.644715    18.614889     21.92588    22.710121    9269.0865   -728.41009    -132.4198     1021.764   -117.38841   -493.17869   -1147.1169   -3706.3882 
17625000    236.03128   -4102.8979   -3698.3484   -4102.8979            0   -1.7574427    18.593725    21.900952    22.684301    9237.5076   -101.82642     397.5371   -300.98301   -790.74514   -587.98155    102.94652   -3698.5852 
17626000    223.89774   -4114.2497   -3730.4967   -4114.2497            0    1041.7667    18.607212    21.916838    22.700755    9257.6234    138.04071    784.17472    2203.0847    128.56832    304.60195   -331.61771   -3589.8447 
17627000    222.06983   -4103.2169   -3722.5969   -4103.2169            0   -511.33796      18.6313     21.94521    22.730143    9293.6233     -268.901   -297.61347   -967.49942   -100.12589    75.512514   -106.14337   -3791.9026 
17628000     207.5213   -4082.2479   -3726.5635   -4082.2479            0    8.6130281    18.650762    21.968134    22.753886    9322.7774   -1051.5279    836.57549    240.79146    874.24635   -73.585151   -373.09753   -3725.3924 
17629000    221.69648   -4079.7054   -3699.7252   -4079.7054            0   -633.21284    18.689078    22.013265    22.800631    9380.3535   -1185.1718   -758.27507    43.808313    272.93589    561.15194    555.28775   -3786.3505 
17630000    217.83548   -4128.9329   -3755.5704   -4128.9329            0    -333.8372    18.648314    21.965251      22.7509    9319.1073   -90.870065   -1818.5609    907.91932   -184.91737    -294.1419    228.47517    -3800.942 
17631000    212.83614   -4121.3875   -3756.5936   -4121.3875            0   -1916.4813    18.702724    22.029338    22.817279    9400.9156   -1498.6703   -2166.4982   -2084.2754    302.16087   -251.81502   -118.74231   -4019.3484 
17632000    219.48866   -4083.3299   -3707.1339   -4083.3299            0   -818.03341    18.632374    21.946475    22.731453    9295.2303   -607.40081   -649.14646    -1197.553    864.57768   -687.21814    163.52305   -3818.0276 
17633000    220.04457   -4117.1654   -3740.0165   -4117.1654            0   -759.31634    18.612454    21.923012    22.707151    9265.4498   -2457.7723    1263.7024   -1083.8791    542.55273    223.38489    361.13128   -3842.6207 
17634000    209.06074   -4110.8013   -3752.4784   -4110.8013            0   -576.80494    18.708035    22.035594    22.823759    9408.9267   -1882.5191   -67.701087    219.80537    666.19617   -190.32406    290.65209   -3831.6273 
17635000    205.84939   -4123.9778    -3771.159   -4123.9778            0    914.65201      18.6015     21.91011    22.693787    9249.1005   -973.48299    2689.8664    1027.5726    91.747987    98.746652   -540.74774   -3647.7828 
17636000    210.30849   -4090.5689   -3730.1074   -4090.5689            0    8.7976948    18.622971      21.9354    22.719981     9281.165   -207.72653     733.4655   -499.34589   -206.77189    126.53423   -394.21702   -3728.9165 
17637000    204.24742   -4096.7485   -3746.6755   -4096.7485            0   -1461.4825    18.690391    22.014812    22.802234    9382.3313   -2449.9408   -597.52835   -1336.9784      633.927    456.42402    205.96072   -3946.6526 
17638000    215.09015   -4101.8738   -3733.2167   -4101.8738            0   -640.90951    18.631831    21.945836     22.73079     9294.418   -1011.9269    -1234.984    324.18235   -539.83553    785.66823    -314.0038   -3820.0917 
17639000    205.14424    -4127.467   -3775.8568    -4127.467            0   -980.74538    18.620793    21.932835    22.717324    9277.9091   -2115.3054   -358.96553   -467.96522     222.8938     368.9845    456.63577   -3908.5603 
17640000    216.29288   -4103.2855   -3732.5669   -4103.2855            0   -390.02757    18.644714    21.961011    22.746508    9313.7116   -1749.5846   -167.71701    747.21891    818.13743    143.33153   -349.34979   -3785.5447 
17641000    212.22006   -4119.1787   -3755.4408   -4119.1787            0   -1618.0814    18.679531     22.00202    22.788984    9365.9861    -2358.738   -1211.5896   -1283.9166    890.22984    121.71888    537.06159   -3976.4598 
17642000     218.5717   -4116.8079   -3742.1835   -4116.8079            0   -987.54313    18.598102    21.906108    22.689641    9244.0331   -1588.0177   -166.74063   -1207.8711   -569.59058   -594.12562   -9.3768828   -3875.3189 
17643000    210.45458   -4111.4093   -3750.6974   -4111.4093            0    525.85291    18.595293    21.902799    22.686214    9239.8451     166.7634    642.67689    768.11844    448.72349    410.83572    816.17717   -3679.8368 
17644000    209.93329   -4097.2698   -3737.4513   -4097.2698            0     173.6215    18.588406    21.894686    22.677811    9229.5814   -944.69415    177.35577    1288.2029    257.21015    459.06794    105.51945   -3714.0812 
17645000    228.90492   -4106.7626   -3714.4274   -4106.7626            0   -1069.6798    18.657104    21.975604    22.761623    9332.2912   -1178.2356   -1047.3454   -983.45848    164.33832   -242.42504   -305.04699   -3860.0129 
17646000    211.94328   -4119.8668   -3756.6033   -4119.8668            0   -329.00435    18.615911    21.927084    22.711368    9270.6133   -828.06451    134.92483   -293.87338    249.26488    109.32003   -343.18267   -3801.0855 
17647000     209.8955   -4125.8121   -3766.0584   -4125.8121            0    614.57888    18.555107    21.855465    22.637187    9180.0692   -15.830847     2143.288   -283.72055    960.45051     515.0043     222.9915   -3683.7774 
17648000    205.60357   -4126.3612   -3773.9637   -4126.3612            0    245.39138    18.500144    21.790726    22.570132    9098.7326   -296.12624   -181.46146    1213.7618    1385.4242   -264.84893    316.36783   -3741.4013 
17649000    228.40334   -4093.3528   -3701.8773   -4093.3528            0   -474.64615    18.649327    21.966444    22.752136    9320.6267     -1346.43    355.79286   -433.30133    391.13462    932.01346    140.53297   -3766.3968 
17650000    214.94617    -4110.196   -3741.7857    -4110.196            0   -1191.3157    18.680689    22.003384    22.790397    9367.7277    -1288.734   -786.49204   -1498.7212    1129.3501    1080.2704    175.36077   -3904.5417 
17651000    225.82314   -4098.3779   -3711.3247   -4098.3779            0    -217.7258    18.631394    21.945322    22.730258    9293.7647   -675.50711    60.024036    -37.69433   -346.10849    629.74276    275.94194   -3740.8353 
17652000    205.37495   -4113.9602   -3761.9546   -4113.9602            0   -1530.9375    18.685726    22.009317    22.796542    9375.3079   -1571.0017   -474.27013   -2547.5408   -430.53199    118.30257      46.9077   -3971.2785 
17653000    229.88161   -4118.8063   -3724.7971   -4118.8063            0   -1536.7582    18.683894    22.007159    22.794307    9372.5499   -2752.4317    -795.2847   -1062.5582    413.96304   -181.29113   -717.84911    -3934.855 
17654000    210.71431   -4116.1888   -3755.0316   -4116.1888            0    421.22245    18.593956    21.901224    22.684583     9237.852    1110.9598   -404.67165    557.37923    674.87564    195.34327    191.29207   -3698.2826 
17655000    217.74752   -4113.7185   -3740.5067   -4113.7185            0    60.447506    18.581596    21.886666    22.669504    9219.4421   -1944.7845    1205.8483    920.27866   -356.64575   -383.85431   -583.55577   -3732.3791 
17656000    213.89894   -4142.7086   -3776.0931   -4142.7086            0   -1030.7464     18.66064    21.979769    22.765938    9337.5988   -1465.2891   -724.59873   -902.35136    -29.99903   -236.80643    593.42294   -3916.4594 
17657000     218.6957   -4130.8412   -3756.0043   -4130.8412            0    -4.379874    18.628562    21.941986    22.726803    9289.5272   -1457.5522    165.62863    1278.7839    322.70519    714.84704   -223.06527   -3756.5977 
17658000    216.35951   -4121.5784   -3750.7456   -4121.5784            0   -233.86394      18.5991    21.907283    22.690858    9245.5205   -673.19801     199.4672     -227.861   -117.74616    931.99664   -855.69095    -3782.279 
17659000     219.4562   -4117.7696   -3741.6292   -4117.7696            0   -40.099977    18.626759    21.939862    22.724603    9286.8302   -878.12391   -499.84042    1257.6644   -199.35697    529.81274    89.928942   -3747.0603 
17660000    228.86062   -4105.8613    -3713.602   -4105.8613            0    255.59884    18.550954    21.850573     22.63212    9173.9067   -544.91643    908.06339    403.64956    847.31229   -179.16697    264.27324   -3679.4049 
17661000    213.32429   -4125.1669   -3759.5364   -4125.1669            0   -936.28827    18.641778    21.957552    22.742926    9309.3121   -1654.4387    38.228294   -1192.6544    354.51565    372.32069   -718.59139   -3886.6532 
17662000    214.24642    -4109.888    -3742.677    -4109.888            0   -376.97519    18.588688    21.895019    22.678156     9230.002   -1229.6903    45.331356    53.433395     973.6744    1129.7825   -224.20268   -3793.4216 
17663000     229.5679   -4122.8508   -3729.3793   -4122.8508            0   -1065.4236    18.629445    21.943025    22.727879    9290.8475   -1491.3183   -426.35054   -1278.6018    306.68835    725.59182    -174.7635   -3873.7415 
17664000    218.12329   -4113.8987   -3740.0429   -4113.8987            0   -22.220842    18.672782     21.99407     22.78075     9355.837    1.8604616   -201.32237    132.79938    285.54308   -37.381019    1258.0518   -3743.0748 
17665000    217.32846   -4103.7792   -3731.2857   -4103.7792            0   -246.42044    18.681002    22.003753    22.790779    9368.1986   -771.00483    711.23447   -679.49095    437.25201   -767.24586   -861.05008    -3764.953 
17666000    217.83556   -4092.0595   -3718.6968   -4092.0595            0   -179.53846    18.661742    21.981067    22.767282     9339.253     -1182.15     1536.129   -892.59439   -707.72732   -124.00202    1456.6651   -3743.1505 
17667000    211.65692   -4117.3975   -3754.6248   -4117.3975            0   -401.84273    18.586365    21.892283    22.675322    9226.5424   -1021.9314     289.8683   -473.46506    930.70779    493.51879    259.99584   -3808.6966 
17668000     224.8666   -4086.9519   -3701.5383   -4086.9519            0    250.87949    18.572328     21.87575    22.658197    9205.6542   -731.59243     834.6124    649.61851   -150.12797    87.841112    399.28563   -3667.8564 
17669000    230.47399   -4096.5983   -3701.5738   -4096.5983            0   -700.45179     18.62379    21.936364     22.72098    9282.3889   -2859.4706     5.744625    752.37064   -84.210229    -863.0564    439.62221   -3796.3969 
17670000    220.64605   -4101.5169   -3723.3371   -4101.5169            0   -1934.2326     18.60628     21.91574    22.699618    9256.2327   -3462.2343   -1741.1921   -599.27134       1231.3    525.32973    379.15327   -3984.4443 
17671000    221.00298   -4113.7692   -3734.9776   -4113.7692            0    343.90531    18.604382    21.913504    22.697302    9253.3994     -42.3691    434.29685    639.78817   -347.56419    146.09792   -306.07127   -3688.5672 
17672000    223.77061   -4126.1963   -3742.6611   -4126.1963            0    -156.9113    18.588931    21.895305    22.678452    9230.3642      520.214    206.71002   -1197.6579    1089.6298    171.12321    1006.4677   -3763.7838 
17673000    210.33223     -4101.89   -3741.3877     -4101.89            0    139.30635    18.589932    21.896485    22.679674     9231.856   -104.86909    855.31482   -332.52668    34.551715    -477.8565    1459.8038   -3722.6319 
17674000    217.77237   -4126.2297   -3752.9753   -4126.2297            0   -1178.8038    18.633739    21.948083    22.733118    9297.2731   -2322.3058   -932.36447   -281.74121    453.64042   -1116.3081   -475.14837   -3912.8107 
17675000    221.47862   -4103.2595   -3723.6527   -4103.2595            0   -25.921195    18.577473    21.881809    22.664473    9213.3058   -1952.2524    541.87891    1332.6099     423.3301   -163.15109    268.98123   -3727.1356 
17676000    226.83069   -4136.7569   -3747.9769   -4136.7569            0   -154.44549    18.570474    21.873566    22.655935    9202.8972   -1248.2327   -154.76569    939.66187    509.59137   -144.98307    705.04196   -3768.7058 
17677000    216.74392   -4084.9256   -3713.4339   -4084.9256            0   -926.72875    18.640408    21.955939    22.741255    9307.2604   -1085.2988   -912.94128   -781.94617    48.187317    433.00079   -11.150857   -3839.2252 
17678000    214.00741   -4082.3225   -3715.5211   -4082.3225            0   -533.40134    18.638005    21.953108    22.738323    9303.6608   -1388.3807   -762.76574    550.94242    574.54265    -660.3205   -342.45326   -3787.8953 
17679000    212.68038   -4092.3244   -3727.7975   -4092.3244            0   -1411.0615    18.696415    22.021908    22.809583    9391.4063   -2596.9126   -469.97054   -1166.3013    1113.1282    164.19788      477.112   -3921.0621 
17680000    212.27194   -4106.3854   -3742.5586   -4106.3854            0    245.56683    18.615032    21.926048    22.710295    9269.2998   -106.55813    1130.7697   -287.51109     944.7389    473.55443   -304.27863    -3709.362 
17681000    216.40258    -4101.777   -3730.8704    -4101.777            0    350.39455    18.615089    21.926116    22.710365    9269.3857   -1874.9348    656.03554    2270.0829    429.04362    56.818401   -499.37089   -3683.5025 
17682000    232.05745   -4098.8414   -3701.1029   -4098.8414            0    818.53599    18.575799    21.879837    22.662431    9210.8153   -407.38772    1404.4487     1458.547    191.16189    430.42122     -245.807   -3591.1487 
17683000    216.37479   -4116.8337   -3745.9747   -4116.8337            0   -13.511444    18.579719    21.884455    22.667214    9216.6483    -848.3792    1109.3473   -301.50244   -10.833373   -809.76382    134.93427   -3747.7908 
17684000    211.04762    -4111.595   -3749.8666    -4111.595            0    360.88389    18.597401    21.905282    22.688786     9242.987    -661.1324    1645.5046    98.279458   -1009.0562   -234.47428   -702.75111   -3701.2196 
17685000    229.66809   -4113.7421   -3720.0989   -4113.7421            0    158.43766    18.607973    21.917735    22.701684    9258.7595   -341.49178    451.16472    365.64002    392.38581   -320.60527    -647.0458   -3698.7051 
17686000    216.85676   -4088.0337   -3716.3486   -4088.0337            0   -948.52124    18.570699    21.873831     22.65621    9203.2321   -1121.5282   -1144.1486   -579.88688    875.90732    906.15273    174.87647   -3843.6589 
17687000    214.64263   -4115.4735   -3747.5833   -4115.4735            0   0.18447254    18.571047     21.87424    22.656634    9203.7486   -795.42631    302.30417    493.67556   -95.423715    1096.4126   -1203.6688   -3747.5586 
17688000    232.45389   -4103.2769   -3704.8589   -4103.2769            0   -392.31509    18.615799    21.926953    22.711232    9270.4467   -1851.2396    263.17848    411.11585    1222.6787    142.41491   -446.34585   -3757.8998 
17689000    212.00216    -4114.241   -3750.8765    -4114.241            0    435.94586    18.519802     21.81388    22.594115    9127.7679     -429.439    1236.3154    500.96115   -349.57563   -503.52643    28.973243   -3692.8438 
17690000    232.29266   -4095.1976   -3697.0559   -4095.1976            0    157.72646    18.550177    21.849659    22.631173    9172.7547   -1439.8698     915.9519    997.09728    275.17731    117.53203   -584.67943    -3675.956 
17691000    213.67104   -4090.5651   -3724.3402   -4090.5651            0   -1028.4924    18.598712    21.906826    22.690385     9244.942     -2617.45    -745.0885    277.06126    1409.7617   -633.67113   -1097.9895   -3863.0098 
17692000    229.93472   -4114.6054   -3720.5051   -4114.6054            0   -1016.7141    18.618776    21.930458    22.714863    9274.8939   -2362.7966   -573.08189   -114.26393    1623.9811    255.75436   -729.16155   -3858.0308 
17693000    228.87779   -4124.9277    -3732.639   -4124.9277            0    71.881632    18.534439    21.831121    22.611973     9149.428   -1254.4135    1127.2336    342.82474   -506.42068    93.648653   -702.80959   -3723.0474 
17694000    211.83964   -4077.9711   -3714.8852   -4077.9711            0   -1317.6874    18.597863    21.905826    22.689349    9243.6761   -2760.7592   -454.81141   -737.49155    -1663.688    533.56356   -390.07401    -3892.522 
17695000    218.26136   -4121.8908   -3747.7983   -4121.8908            0    308.43839    18.595091    21.902561    22.685968    9239.5437    689.84709    205.75859    29.709471    1197.4873   -150.81701    -958.6661   -3706.2365 
17696000    223.63704   -4112.5024   -3729.1962   -4112.5024            0   -1733.6738    18.634602    21.949099    22.734171    9298.5652   -2106.7751   -1479.2674    -1614.979    290.67404    -203.7655    255.92629   -3964.2998 
17697000    219.98625   -4110.1969    -3733.148   -4110.1969            0   -860.25241    18.630479    21.944244    22.729141    9292.3951   -2277.7924    1255.9437   -1558.9085    941.58396    325.88832    7.4627122   -3849.7295 
17698000    221.10078   -4108.7461   -3729.7869   -4108.7461            0    164.63444    18.596874    21.904661    22.688143    9242.2016   -1273.5406    1987.9918   -220.54786    664.05981   -810.99203   -227.75483   -3707.5962 
17699000    228.47252   -4107.6386   -3716.0446   -4107.6386            0   -1295.8339    18.633334    21.947607    22.732624    9296.6681   -1707.4139   -1675.3701   -504.71768   -347.14868    145.58286    16.297353   -3891.7368 
17700000    215.44696   -4110.1989   -3740.9302   -4110.1989            0    110.89631    18.616713    21.928029    22.712347    9271.8122   -1640.4675   -141.61823    2114.7746    677.88068   -457.32369    355.12696   -3725.9348 
17701000    213.89775   -4108.2017   -3741.5883   -4108.2017            0   -735.26906    18.592799    21.899861    22.683171    9236.1274   -635.83413   -1340.7216   -229.25147    618.81844    508.41444    57.670528   -3840.6286 
17702000    219.45412   -4100.0684   -3723.9315   -4100.0684            0   -388.34681    18.654935    21.973049    22.758977    9329.0361    -2459.449    894.15081    400.25772    846.40455    429.45086   -213.62172   -3776.7678 
17703000    212.77709   -4127.2749   -3762.5823   -4127.2749            0    65.503714     18.58953    21.896011    22.679183    9231.2561   -1068.1961   -96.121705    1360.8289    677.24281   -261.24779    336.80534   -3753.7636 
17704000    204.54698   -4106.4994   -3755.9129   -4106.4994            0   -1067.1054    18.632518    21.946645    22.731628     9295.446   -2113.8133   -72.737166   -1014.7659   -495.30639     867.8283   -845.38535   -3900.5745 
17705000    208.24648   -4120.8878   -3763.9604   -4120.8878            0    518.22921    18.557601    21.858403     22.64023    9183.7725   -1260.8463    2289.9328    525.60121     619.8531    28.791164   -376.68949   -3694.5509 
17706000    216.00011   -4130.8178    -3760.601   -4130.8178            0   -209.43074    18.592343    21.899324    22.682614    9235.4471   -1274.7902   -210.52026    857.01823    441.60492     450.5831    630.42981   -3788.8092 
17707000    200.38656   -4080.1377    -3736.682   -4080.1377            0   -149.36819    18.670693     21.99161    22.778202    9352.6974   -118.27117    355.18835   -685.02175     690.8995   -1151.2492   -531.02589   -3757.0558 
17708000     224.0139   -4111.5576   -3727.6054   -4111.5576            0   -241.90869    18.606006    21.915417    22.699284    9255.8235    646.19663    463.22057   -1835.1433    -214.4389    432.52747   -71.077374   -3760.2599 
17709000    212.53136   -4112.1746   -3747.9031   -4112.1746            0   -898.36699    18.621568    21.933747    22.718269    9279.0671   -1942.9973   -331.32268   -420.78101   -990.17078    287.66815    683.84166   -3869.4752 
17710000    220.19647   -4087.2191   -3709.8099   -4087.2191            0    337.17315    18.599696    21.907985    22.691586    9246.4096    -184.2894     574.1914    621.61744    1087.9093    1426.0952   -547.80296   -3664.3423 
17711000    213.56728   -4123.4272   -3757.3802   -4123.4272            0   -232.13375    18.611899    21.922359    22.706473     9264.621   -306.32042    -44.87059   -345.21024    1377.6303   -468.66856    115.77952    -3788.745 
17712000    222.45607    -4121.004   -3739.7219    -4121.004            0   -603.89056    18.627962    21.941279    22.726071    9288.6295   -622.07288    -1283.183    93.584174    916.90977    594.08684   -268.89115    -3821.528 
17713000    231.72726   -4117.4173   -3720.2447   -4117.4173            0   -1421.0157    18.684672    22.008076    22.795256    9373.7212   -1920.2417   -766.52991   -1576.2756    162.33814   -550.38407   -219.06809   -3914.5063 
17714000    213.14095   -4107.1895   -3741.8732   -4107.1895            0   -665.98997    18.646076    21.962614    22.748169    9315.7519   -2731.5435    316.24363    417.32999   -271.25604   -159.52821   -1022.1009    -3832.355 
17715000    209.14205   -4139.9153    -3781.453   -4139.9153            0   -402.19204    18.644877    21.961202    22.746706    9313.9552   -731.11444    277.89713    -753.3588    881.53994    288.46711    220.10707   -3836.0846 
17716000    221.14916   -4128.6123   -3749.5702   -4128.6123            0   -920.86278    18.623239    21.935715    22.720307    9281.5649   -2554.6991   -273.05104    65.161746   -538.02494   -369.05359   -1002.9817   -3874.2201 
17717000    200.66195   -4106.0433   -3762.1156   -4106.0433            0   -439.06327    18.656584    21.974992    22.760989    9331.5112   -1399.2694    105.37961   -23.300024    26.397697   -351.48506   -468.28635   -3821.8679 
17718000     223.7052   -4114.1701   -3730.7471   -4114.1701            0   -1301.4007    18.694481    22.019629    22.807223    9388.4911   -2616.3494   -589.43915   -698.41363   -603.10336    1523.1743    428.22253   -3908.9368 
17719000    222.22002   -4109.7153   -3728.8378   -4109.7153            0   -202.42124    18.579144    21.883777    22.666512    9215.7922   -577.76662    635.68533   -665.18244   -70.027802   -159.69587   -53.570074   -3756.0438 
17720000     216.3511   -4129.9501   -3759.1317   -4129.9501            0    413.33117    18.524587    21.819516    22.599952    9134.8445   -486.38967    1031.2903    695.09286    -755.6869   -29.613279   -1018.3118   -3704.0668 
17721000    219.40183   -4113.9808   -3737.9336   -4113.9808            0    -627.6351    18.653442    21.971291    22.757156    9326.7975   -1386.0372   -153.57804   -343.29005    195.79712   -550.80152     272.4992   -3823.3056 
17722000     212.0551   -4117.6427   -3754.1875   -4117.6427            0   -79.205789    18.637627    21.952662    22.737861    9303.0939    71.965463   -106.76959   -202.81324    -126.9285   -540.56221    118.47292   -3764.9338 
17723000    216.42024    -4123.424   -3752.4871    -4123.424            0   -319.59907    18.637609    21.952642    22.737839    9303.0676   -81.052923   -792.60999   -85.134312    809.68497    103.15849    347.76791   -3795.8489 
17724000    224.91512   -4132.0081   -3746.5113   -4132.0081            0   -412.72053    18.631697    21.945679    22.730627    9294.2181   -120.49885   -983.59946   -134.06328   -958.78135   -150.62518    380.68468   -3802.4542 
17725000    212.93382   -4128.7897   -3763.8284   -4128.7897            0   -540.26707    18.577177    21.881461    22.664113    9212.8659    -717.8241   -340.13442   -562.84271    100.38549   -286.32807    897.45956   -3836.4188 
17726000    220.46577   -4126.3875   -3748.5167   -4126.3875            0   -875.21217    18.642841    21.958804    22.744222    9310.9045   -1575.5564    -712.2041   -337.87597    1125.3396   -351.09992   -366.18145   -3867.3618 
17727000    227.33622   -4084.9669   -3695.3203   -4084.9669            0   -1041.1648    18.670127    21.990943    22.777511    9351.8469   -2015.4233   -936.58794   -171.48326    321.17024   -151.18577   -4.1061169   -3837.3218 
17728000    219.00859   -4100.4623    -3725.089   -4100.4623            0     663.4075    18.602944     21.91181    22.695548    9251.2538   -384.08409    1214.4256     1159.881    430.16558   -154.24702   -72.555845   -3635.5821 
17729000    215.85785   -4103.1587   -3733.1858   -4103.1587            0   -279.81112    18.628198    21.941556    22.726358    9288.9818   -809.93922   -346.22708    316.73295   -301.93312   -137.11448   -658.24766   -3771.0918 
17730000    226.06992   -4095.8442   -3708.3681   -4095.8442            0    205.87239    18.643825    21.959963    22.745423    9312.3788   -1294.6628   -66.364368    1978.6444    486.83745   -797.24668    244.74265   -3680.4083 
17731000    218.40766   -4100.4837   -3726.1405   -4100.4837            0    -647.9164     18.57356      21.8772      22.6597    9207.4858   -1854.5357    -167.1923    77.978742   -151.38746    2.6918033    -524.7462   -3813.1438 
17732000    221.79541   -4121.1739   -3741.0241   -4121.1739            0    36.189634    18.599451    21.907697    22.691287    9246.0445   -1532.5362    957.69307    683.41204    222.37385   -514.08227   -872.68145   -3736.1442 
17733000    222.30385   -4137.1304   -3756.1092   -4137.1304            0   -170.54099    18.598618    21.906715     22.69027    9244.8014     198.7887   -524.65812   -185.75355   -329.05624   -460.52137   -388.33509   -3779.1026 
17734000    223.02081   -4106.9708   -3724.7208   -4106.9708            0   -916.84725    18.636091    21.950853    22.735987    9300.7939   -1489.0549   -996.33142   -265.15547   -2.2690465      1263.05    169.54302   -3849.0843 
17735000    216.64587   -4137.7294   -3766.4058   -4137.7294            0   -559.12259    18.635941    21.950676    22.735804    9300.5694   -1539.3862   -817.54188    679.56031    394.30546    283.63275    -591.8809   -3842.2447 
17736000    219.29171   -4118.7373   -3742.8788   -4118.7373            0   -518.51143    18.621385    21.933532    22.718046    9278.7939   -1757.8856    59.394608    142.95669    1.9742503    275.07964    20.018854   -3813.0447 
17737000    215.62212   -4117.5837   -3748.0148   -4117.5837            0   -979.17173    18.693576    22.018563    22.806118    9387.1276   -2514.3933    600.90796   -1024.0299    543.67006   -226.74894     827.7683    -3882.065 
17738000    220.10766   -4097.8754   -3720.6184   -4097.8754            0   -965.30897     18.63039    21.944138    22.729032    9292.2614   -2350.7616   -471.68694    -73.47834    1014.8611     -237.344   -331.99189   -3851.4353 
17739000    214.84705   -4106.6934   -3738.4529   -4106.6934            0    -960.8033    18.649308    21.966421    22.752112    9320.5968   -2836.2099   -735.13125    688.93122   -59.873151   -215.50938      -249.99   -3869.0561 
17740000     218.2299   -4114.5759   -3740.5373   -4114.5759            0    108.84339    18.557732    21.858557    22.640389    9183.9658   -622.58298   -346.32393    1295.4371   -482.67311   -121.90289   -615.57641    -3725.959 
17741000    212.45897   -4138.7566   -3774.6092   -4138.7566            0   -352.31018    18.572493    21.875943    22.658398    9205.8982   -272.71828    629.81144   -1414.0237     608.0817    560.00068   -158.92609   -3821.9099 
17742000    219.95659    -4121.518   -3744.5199    -4121.518            0    -902.8785    18.602111    21.910829    22.694532    9250.0115   -1734.1936   -687.21329   -287.22859    284.29936    394.81997   -337.13387   -3866.3199 
17743000    218.75823   -4092.6156   -3717.6715   -4092.6156            0    573.81742    18.627584    21.940834    22.725609    9288.0638   -330.68398     1870.844    181.29223    1013.9163   -623.65135   -864.77352    -3639.944 
17744000    224.32301   -4114.5483   -3730.0663   -4114.5483            0   -118.67822    18.636525    21.951364    22.736516    9301.4439   -926.98859    715.47488   -144.52095    64.729136     146.6902   -49.289339   -3746.1652 
17745000    217.24241   -4082.8866   -3710.5405   -4082.8866            0   -492.58598    18.666164    21.986276    22.772677    9345.8938   -1480.8451    36.401098   -33.313903   -82.273931    244.37197    359.93369   -3777.6801 
17746000    215.49877   -4114.5039   -3745.1464   -4114.5039            0   -1368.6599    18.677776    21.999953    22.786843    9363.3463   -2232.3205   -70.823989   -1802.8353    444.66815    326.40096   -866.01726   -3932.0435 
17747000    214.69019   -4116.9291   -3748.9574   -4116.9291            0    1723.0863    18.540011    21.837685    22.618771    9157.6825    279.14386    2222.8764    2667.2386   -349.55257    227.30139    552.61505   -3518.8299 
17748000    221.56183   -4091.3219   -3711.5725   -4091.3219            0   -1087.3248    18.722154    22.052224    22.840984    9430.2462   -2561.4989   -1826.2223    1125.7467   -13.701783    393.91441    334.84535   -3861.1128 
17749000    211.04541   -4122.7872   -3761.0626   -4122.7872            0   -652.79293    18.603997    21.913051    22.696833    9252.8258   -2572.1888    717.92119   -104.11122   -17.036713     255.4662   -146.40289   -3849.1524 
17750000     225.1915   -4095.0039   -3709.0334   -4095.0039            0   -1214.5637    18.623486    21.936007     22.72061    9281.9351   -1431.4553   -1183.1079    -1029.128    219.87523   -827.89123   -199.11382   -3873.4459 
Loop time of 438.103 on 64 procs for 250000 steps with 864 atoms

Performance: 98.607 ns/day, 0.243 hours/ns, 570.642 timesteps/s
99.0% CPU use with 64 MPI tasks x 1 OpenMP threads

MPI task timing breakdown:
Section |  min time  |  avg time  |  max time  |%varavg| %total
---------------------------------------------------------------
Pair    | 14.807     | 19.753     | 25.761     |  67.1 |  4.51
Bond    | 0.27067    | 0.27733    | 0.28963    |   0.7 |  0.06
Kspace  | 204.44     | 217.19     | 229.31     |  40.0 | 49.58
Neigh   | 1.9584     | 2.5842     | 3.0873     |  20.1 |  0.59
Comm    | 79.79      | 90.037     | 102.98     |  58.6 | 20.55
Output  | 0.93499    | 0.93546    | 0.93669    |   0.0 |  0.21
Modify  | 93.475     | 96.803     | 102.28     |  21.9 | 22.10
Other   |            | 10.52      |            |       |  2.40

Nlocal:        13.5000 ave          19 max           9 min
Histogram: 2 3 12 10 5 9 6 10 4 3
Nghost:        1791.11 ave        1839 max        1748 min
Histogram: 4 7 8 8 5 9 7 10 4 2
Neighs:        3321.64 ave        4864 max        2156 min
Histogram: 5 7 10 8 8 8 9 6 2 1

Total # of neighbors = 212585
Ave neighs/atom = 246.04745
Ave special neighs/atom = 2.0000000
Neighbor list builds = 6661
Dangerous builds = 0

unfix		3
unfix		2
unfix		1

write_data	data.final.${pid}
write_data	data.final.0
System init for write_data ...
PPPM initialization ...
  extracting TIP4P info from pair style
  using 12-bit tables for long-range coulomb (../kspace.cpp:340)
  G vector (1/distance) = 0.37204439
  grid = 24 25 27
  stencil order = 5
  estimated absolute RMS force accuracy = 0.0030996168
  estimated relative force accuracy = 9.3344038e-06
  using double precision FFTW3
  3d grid and FFT values/proc = 2730 384
Last active /omp style is kspace_style pppm/tip4p/omp
WARNING: Not all mixed pair coeffs generated from mixing. Use write_data with 'pair ij' option to store all pair coeffs. (../write_data.cpp:312)

write_restart   restart.lmp.${pid}
write_restart   restart.lmp.0
System init for write_restart ...
PPPM initialization ...
  extracting TIP4P info from pair style
  using 12-bit tables for long-range coulomb (../kspace.cpp:340)
  G vector (1/distance) = 0.37204439
  grid = 24 25 27
  stencil order = 5
  estimated absolute RMS force accuracy = 0.0030996168
  estimated relative force accuracy = 9.3344038e-06
  using double precision FFTW3
  3d grid and FFT values/proc = 2730 384
Last active /omp style is kspace_style pppm/tip4p/omp
Total wall time: 0:07:20
