#include		in.partitions
include		in.temp
variable        temperature equal 263.08
variable	tempDamp equal 100.0
include		in.pressure
variable        pressure equal 4000.0
variable        pressureDamp equal 1000.0 # This is 1 ps
include		in.seed
variable        seed equal 745823

units		real
atom_style	full

read_restart	restart.lmp.${pid}
read_restart	restart.lmp.0
Reading restart file ...
  restart file = 30 Jul 2021, LAMMPS = 30 Jul 2021
  restoring atom style full from restart
  orthogonal box = (-0.17819977 0.058535920 0.066559446) to (20.178201 19.941465 20.633439)
  4 by 2 by 4 MPI processor grid
  restoring pair style lj/cut/tip4p/long/omp from restart
  restoring bond style harmonic/omp from restart
  restoring angle style harmonic/omp from restart
  972 atoms
  648 bonds
  324 angles
Finding 1-2 1-3 1-4 neighbors ...
  special bond factors lj:    0        0        0       
  special bond factors coul:  0        0        0       
     2 = max # of 1-2 neighbors
     1 = max # of 1-3 neighbors
     1 = max # of 1-4 neighbors
     2 = max # of special neighbors
  special bonds CPU = 0.002 seconds
  read_restart CPU = 0.008 seconds
include 	in.setup
variable	out_freq equal 1000
variable	out_freq2 equal 10000
variable	out_freq3 equal 1000

timestep	2.0

neigh_modify    delay 7 every 1

include		in.tip4p
# This is TIP4P/Ice

# create groups ###
group ox type 2
324 atoms in group ox
group hy type 1
648 atoms in group hy

# set charges - beside manually ###
set group ox charge -1.1794
Setting atom values ...
  324 settings made for charge
set group hy charge 0.5897
Setting atom values ...
  648 settings made for charge

# ### TIP3P Potential Parameters ###
pair_style lj/cut/tip4p/long/omp 2 1 1 1 0.1577 8.5
pair_coeff 1 1*2 0.000 0.000
pair_coeff 2 2 0.21084 3.1668
bond_style  harmonic
bond_coeff  1 450 0.9572
angle_style harmonic
angle_coeff 1 55 104.52
kspace_style pppm/tip4p/omp 1.0e-5
pair_modify tail yes

thermo          ${out_freq}
thermo          1000
thermo_style    custom step temp pe etotal epair emol press lx ly lz vol pxx pyy pzz pxy pxz pyz enthalpy

restart 	${out_freq3} restart.lmp.${pid} restart2.lmp.${pid}
restart 	1000 restart.lmp.${pid} restart2.lmp.${pid}
restart 	1000 restart.lmp.0 restart2.lmp.${pid}
restart 	1000 restart.lmp.0 restart2.lmp.0


include         in.dump
dump            myDump all atom ${out_freq2} dump.water.${pid}
dump            myDump all atom 10000 dump.water.${pid}
dump            myDump all atom 10000 dump.water.0
dump            myDump2 all dcd ${out_freq2} dump.dcd
dump            myDump2 all dcd 10000 dump.dcd
dump_modify     myDump append yes
dump_modify     myDump2 append yes


variable natoms 	equal  "count(all)"                        # NUMBER ATOMS
variable H      	equal  "enthalpy/v_natoms"                 # ENTHALPY-per-atom
variable Vol      	equal  "vol/v_natoms"                 # volume-per-atom
fix AVG all 		ave/time ${out_freq} 1 ${out_freq} v_Vol v_H file vol_enthalpy.dat
fix AVG all 		ave/time 1000 1 ${out_freq} v_Vol v_H file vol_enthalpy.dat
fix AVG all 		ave/time 1000 1 1000 v_Vol v_H file vol_enthalpy.dat


timer           timeout 02:55:00 every 1000
New timer settings: style=normal  mode=nosync  timeout=02:55:00

fix 		1 all shake 1e-6 200 0 b 1 a 1
       0 = # of size 2 clusters
       0 = # of size 3 clusters
       0 = # of size 4 clusters
     324 = # of frozen angles
  find clusters CPU = 0.001 seconds
fix             2 all nph aniso ${pressure} ${pressure} ${pressureDamp}
fix             2 all nph aniso 4000 ${pressure} ${pressureDamp}
fix             2 all nph aniso 4000 4000 ${pressureDamp}
fix             2 all nph aniso 4000 4000 1000
fix             3 all temp/csvr ${temperature} ${temperature} ${tempDamp} ${seed}
fix             3 all temp/csvr 263.08 ${temperature} ${tempDamp} ${seed}
fix             3 all temp/csvr 263.08 263.08 ${tempDamp} ${seed}
fix             3 all temp/csvr 263.08 263.08 100 ${seed}
fix             3 all temp/csvr 263.08 263.08 100 745823


run             250000
PPPM initialization ...
  extracting TIP4P info from pair style
  using 12-bit tables for long-range coulomb (../kspace.cpp:340)
  G vector (1/distance) = 0.3712101
  grid = 24 24 24
  stencil order = 5
  estimated absolute RMS force accuracy = 0.0036327844
  estimated relative force accuracy = 1.0940022e-05
  using double precision FFTW3
  3d grid and FFT values/proc = 3211 432
Last active /omp style is kspace_style pppm/tip4p/omp
Neighbor list info ...
  update every 1 steps, delay 7 steps, check yes
  max neighbors/atom: 2000, page size: 100000
  master list distance cutoff = 10.8154
  ghost atom cutoff = 10.8154
  binsize = 5.4077, bins = 4 4 4
  1 neighbor lists, perpetual/occasional/extra = 1 0 0
  (1) pair lj/cut/tip4p/long/omp, perpetual
      attributes: half, newton on, omp
      pair build: half/bin/newton/omp
      stencil: half/bin/3d
      bin: standard
Per MPI rank memory allocation (min/avg/max) = 10.18 | 10.18 | 10.18 Mbytes
Step Temp PotEng TotEng E_pair E_mol Press Lx Ly Lz Volume Pxx Pyy Pzz Pxy Pxz Pyz Enthalpy 
 8000000    265.66097    -4646.824   -4134.4744    -4646.824            0    4872.3757    20.356401    19.882929    20.566879    8324.3388    4439.3682    4271.9985    5905.7604   -146.03952    768.11707   -739.37223   -3542.9586 
 8001000    256.68144   -4673.2415   -4178.2098   -4673.2415            0    4419.7555    20.064514    20.036855    20.797137     8361.068    4487.8538    4294.5199    4476.8928   -121.09042   -23.611523   -2087.5748   -3639.2754 
 8002000    256.89792   -4670.0663   -4174.6171   -4670.0663            0    3534.7809    20.149052    19.999765    20.865099    8408.1407    3147.4345    3920.5864    3536.3219    762.78798    103.14693    726.90302   -3741.1677 
 8003000     260.8694   -4690.8738   -4187.7652   -4690.8738            0    1627.9021    20.085323     19.98245    20.997074    8427.2586    858.78009    1846.1532     2178.773    106.34143   -19.962611    42.280341   -3987.6913 
 8004000    248.54988   -4703.0048   -4223.6555   -4703.0048            0     4006.442    20.132527    20.290324    20.541627     8391.162    4378.6462    2165.7741    5474.9055  -0.85949565   -11.755811    56.565989   -3733.3612 
 8005000    258.05909   -4674.9758   -4177.2872   -4674.9758            0    3035.9271    20.141828    20.106699    20.721965    8392.0987    2435.4219    2948.1885    3724.1708   -515.14679    119.16795   -684.47725   -3805.7196 
 8006000     265.7755   -4673.1171   -4160.5467   -4673.1171            0    4216.6667    20.046784    20.021793    20.949703    8408.6358    4097.9039    4208.2657    4343.8306   -635.01609    1274.5568    487.74427   -3643.4513 
 8007000    264.53519   -4682.0727   -4171.8943   -4682.0727            0     5504.894    20.025511    19.875588    20.949015    8338.1019    5353.2369    6796.8163    4364.6288    1049.0765   -401.94366     1550.838   -3502.4846 
 8008000    262.66986   -4674.2791   -4167.6982   -4674.2791            0    4822.6916    20.087824    20.103976    20.704779    8361.5241    4847.6302    4929.4697     4690.975    1186.0749     2186.033    778.00394   -3579.5986 
 8009000    282.56101   -4689.2919   -4144.3492   -4689.2919            0    5131.2813    20.072651    19.951002     20.73032    8301.8608    5128.4392     5520.721    4744.6837   -641.36827   -928.83993   -642.73363   -3523.0838 
 8010000    270.91711   -4676.8408   -4154.3544   -4676.8408            0     4995.329    20.167865    20.179304    20.669785    8412.0542     4481.146    3823.0362    6681.8048    -332.7373    299.16186   -950.32644   -3541.5215 
 8011000    260.05316   -4687.7024    -4186.168   -4687.7024            0    4198.7575    20.272466    20.011798    20.708023    8401.0062    3161.3175    4761.9909    4672.9643    723.71353    175.96745    1109.0772    -3671.736 
 8012000    270.47537   -4649.9715    -4128.337   -4649.9715            0    5028.5393    19.952937    20.082023    20.849717    8354.3846    6628.6752    4531.3424    3925.6004   -5.7643408   -212.77289    387.17106   -3515.6591 
 8013000      273.716   -4662.0239   -4134.1395   -4662.0239            0    3290.8052    20.156013    19.986125    20.709563    8342.6531    4535.8924    986.83789    4349.6854    193.80402    1400.1962   -441.60979   -3733.7504 
 8014000    268.08239   -4704.9795   -4187.9601   -4704.9795            0    4163.1151    20.086328    20.026803    20.794395    8364.8561     3883.996    4189.8324    4415.5168    954.69997    515.54228   -962.58226   -3680.0899 
 8015000     265.2095    -4696.658   -4185.1791    -4696.658            0     3685.823    20.093908    20.024758    20.973432    8439.1982    3143.8526    5128.1396    2785.4767   -114.73615    4.4420343    1553.0738   -3731.5389 
 8016000    260.62473   -4665.4133   -4162.7766   -4665.4133            0    4825.2728    19.979503    20.040944    20.880582    8360.7542     4102.022    5304.7778    5069.0186   -219.78271   -1555.1187    1050.9981   -3574.4165 
 8017000    248.25529   -4650.2917   -4171.5105   -4650.2917            0    4136.1094    20.227098    20.138889    20.615611    8397.7954    2094.4294     4621.552    5692.3468    -372.1185   -336.02298    44.334499   -3664.9478 
 8018000    254.27109    -4694.671   -4204.2879    -4694.671            0     1995.907    20.278162    20.322779    20.422832    8416.4246    3482.4223   -394.90564    2900.2044    257.44537   -492.65631   -559.04333   -3959.3004 
 8019000    261.63545   -4691.6498   -4187.0638   -4691.6498            0      3216.12    20.100883    19.975698    20.932058    8404.8322    3140.2537    2921.3066    3586.7996    172.07834    -690.8148    156.32197   -3792.8452 
 8020000     269.1805    -4710.482   -4191.3448    -4710.482            0     5375.646    19.916949    19.972666    20.931695    8326.5145    5971.7096    6035.5849    4119.6433    -292.2343    1484.6922    1204.8687   -3538.5603 
 8021000    262.99853   -4721.8995   -4214.6847   -4721.8995            0    3098.1635    20.265927    20.219916    20.662061    8466.8033    3511.5051    1841.3992    3941.5863    510.58939   -1548.1748   -729.67054   -3832.1246 
 8022000    265.62396   -4690.3693   -4178.0912   -4690.3693            0    2611.7337    20.394198    20.001045    20.649571     8423.069    872.05194     3882.235    3080.9141    282.21042    -472.9395    539.41433   -3857.2611 
 8023000    260.14093   -4707.2022   -4205.4985   -4707.2022            0    4313.8446    19.982262    20.064324    20.738816    8314.8252    6643.0495    2606.5072    3691.9771   -16.397171    941.77448   -941.88893    -3682.388 
 8024000    281.45449   -4673.3028   -4130.4942   -4673.3028            0     4189.772    19.948695    20.126089    21.024586     8441.144    3857.9858    5895.3684    2815.9617   -445.65831   -598.85203    117.69844   -3614.7105 
 8025000    266.65711   -4656.2568   -4141.9861   -4656.2568            0    5648.4322    20.185744      19.8948      20.8557    8375.4687    6526.0909    4892.3538    5526.8519   -179.60173   -1466.0326    2368.0377   -3452.0436 
 8026000    279.18881   -4686.4929   -4148.0538   -4686.4929            0    4251.4842    20.046604    20.106249    20.781221    8376.1208    4257.0065    4131.0152    4366.4309    131.37857    73.928862    601.57526   -3628.7047 
 8027000    269.02901   -4661.1673   -4142.3222   -4661.1673            0    4077.7783    20.087955    20.295782    20.620206    8406.8733     4589.363    2054.3271    5589.6449   -463.03552    865.18331   -498.24358   -3642.3637 
 8028000    251.05877   -4676.6977   -4192.5097   -4676.6977            0    3457.5443    19.990005      20.0661    20.924727    8393.3566    3280.7199    4452.3377    2639.5752   -453.43905    333.98989    1286.4891   -3769.2769 
 8029000    253.99498   -4659.9256   -4170.0749   -4659.9256            0    3159.0469    20.008299     20.02986    21.012647    8421.1004    4984.7859    2831.2217    1661.1331   -2.7663233    21.631483    586.16336   -3782.1026 
 8030000    268.29883   -4675.2968   -4157.8599   -4675.2968            0    3739.6436    20.358613    20.034636    20.668711    8430.3002    2595.0066    3217.6916    5406.2325   -147.28228    701.51431   -1517.5479   -3698.0809 
 8031000    274.65394   -4678.8357   -4149.1425   -4678.8357            0     2745.304    20.239989    20.126109    20.675325    8422.1398    4392.9405    2051.8954    1791.0762     184.8327    150.49624   -242.62993   -3811.9416 
 8032000    264.63473   -4677.3652   -4166.9949   -4677.3652            0     4398.558     19.83056     20.03686    21.216069    8430.0385    7124.1232    3303.3465    2768.2042      430.846   -286.17721    111.84388   -3626.2209 
 8033000    264.66241   -4683.4557    -4173.032   -4683.4557            0    4045.9123    20.084886    20.066393     20.87516    8413.3411    5379.1296    3649.5351    3109.0721    245.40025   -775.80046     381.5906   -3676.5988 
 8034000    254.79582   -4688.7997   -4197.4045   -4688.7997            0      6078.45    19.970829    20.012892    20.708562     8276.675     7870.232    3940.2673    6424.8507   -220.61092   -176.10594    322.45117   -3463.6942 
 8035000    265.62197    -4724.909   -4212.6347    -4724.909            0     5685.293        20.22    19.794917    20.837754    8340.3781    3721.2883     7420.818    5913.7728     515.4849    364.69624    -420.1347   -3521.0992 
 8036000    262.40896   -4707.2967    -4201.219   -4707.2967            0    5401.5048    19.908527    20.155574     20.67319     8295.485    4703.6684    5605.8757    5894.9702    396.40583    -123.8125    390.75837   -3547.7388 
 8037000    267.58218   -4690.6584   -4174.6036   -4690.6584            0    3861.0105    20.322641    20.020308    20.676157    8412.4159    1522.6721    6110.7791    3949.5804    600.59898    1473.6423    734.46785   -3700.9099 
 8038000    260.94537   -4671.8135   -4168.5585   -4671.8135            0    2319.8687    20.220994    20.169051    20.859826    8507.4352    1453.7086    1959.5774      3546.32    266.75942   -2569.7312    1036.7311   -3880.7272 
 8039000    252.49994   -4686.8354    -4199.868   -4686.8354            0    3643.3267    20.023451    19.990987    20.871285    8354.5365    3312.7014    3948.5865    3668.6922    229.07768    283.21706   -771.68446   -3755.9565 
 8040000    255.00638   -4676.1821   -4184.3808   -4676.1821            0    3044.8434    20.314202    19.801246      20.9057    8409.2451    2482.6885    4531.5812    2120.2605    509.32716   -779.96737    736.56573   -3810.9606 
 8041000     254.5171   -4669.6204   -4178.7628   -4669.6204            0    3631.0177    20.125405    20.253851    20.785272    8472.4292    5394.6602    2888.9917    2609.4013    217.51386    1310.5325    1127.3726   -3730.1081 
 8042000    265.70645   -4708.5009   -4196.0637   -4708.5009            0    5085.9548    20.082504    20.165239    20.669462    8370.4805    3461.1159    5941.6421    5855.1063    552.95684    70.243415    1139.5308   -3575.1964 
 8043000    263.21812   -4658.1419   -4150.5036   -4658.1419            0    6189.7325     20.15644    19.939146    20.669194    8306.9946    5373.7307    6062.2886    7133.1781   -46.965188   -426.35034   -1256.9218   -3400.6237 
 8044000    259.52022   -4708.3721   -4207.8655   -4708.3721            0    4277.6431    19.933347    20.116641    20.985721     8415.106      5166.24    3363.4481    4303.2412    -817.1057    385.41966     504.5478   -3682.8888 
 8045000      255.496   -4714.1858   -4221.4402   -4714.1858            0    3582.9621    20.042694      20.0598    20.918305    8410.2554    4566.2353    2138.4957    4044.1552   -232.78213   -1083.4707    1368.3446   -3781.9722 
 8046000    265.25949   -4703.5428   -4191.9675   -4703.5428            0    3990.0567    19.986227    20.271969    20.605967     8348.717    4471.4815    2893.6777    4605.0108   -39.305672   -682.99061    1372.1814   -3706.1483 
 8047000    265.41937   -4699.3353   -4187.4517   -4699.3353            0    3166.4482     20.08658    20.120404    20.813737    8411.8744    1241.0601    4488.1997    3770.0849   -135.08298   -819.50999     617.0651   -3798.9964 
 8048000    248.06377    -4684.621   -4206.2091    -4684.621            0     2813.844    19.958121    20.098379    20.834213    8357.1417    2642.4765    2152.4402    3646.6153   -464.26598   -1071.6653    641.41409   -3863.2568 
 8049000    264.23189   -4678.5585   -4168.9651   -4678.5585            0    3824.0291    20.006724    20.272701    20.705191    8397.8251    4346.9353    2931.6557    4193.4963     642.4311    1111.9196    508.33654   -3700.6222 
 8050000    259.92657   -4704.3023    -4203.012   -4704.3023            0    2955.5294    20.259433    20.155618    20.670155    8440.4798    2362.3086    3070.9312    3433.3486   -281.04086   -968.02253     174.4639   -3839.1989 
 8051000    281.90356   -4653.4703   -4109.7955   -4653.4703            0    4051.4123    20.033653    20.309475    20.565377    8367.4962    3541.4801     4305.967    4306.7898   -105.10767   -140.06478   -1699.4846   -3615.3962 
 8052000    264.53679   -4709.8238   -4199.6423   -4709.8238            0    4419.0898    20.115442    19.939402    20.770417    8330.8039     2455.879    5723.5619    5077.8284    157.12334     694.4565   -888.41341   -3662.7396 
 8053000    252.35146   -4696.2105   -4209.5295   -4696.2105            0    4525.0546    20.032215    20.053415    20.842365    8372.6765    5358.7915    5069.6968    3146.6756   -1263.0927    336.45041    957.74025   -3656.9891 
 8054000    265.10002   -4658.5739   -4147.3062   -4658.5739            0    3321.3565    20.049066    20.123523    20.842873    8409.2204    3788.1864    2577.3267    3598.5563   -65.480172    1608.7543   -1095.7382   -3739.9755 
 8055000    262.51254   -4676.3475     -4170.07   -4676.3475            0    4420.7391    20.183598    20.036535    20.703219    8372.5756    4701.9336    3356.8123    5203.4715    263.31472    793.64446   -733.35651   -3630.2737 
 8056000    268.61347   -4654.5288   -4136.4852   -4654.5288            0    5355.4468    19.986015    20.034166    20.872012    8357.2189    6768.1485    4954.9932    4343.1987    -879.5412    831.77087    995.03103   -3483.7554 
 8057000    246.43861   -4691.0702   -4215.7926   -4691.0702            0    3785.0823    20.122685    19.947299    20.930121    8401.2087    3254.3647    5628.9324    2471.9497    -159.5709    587.53615   -602.93546   -3752.0329 
 8058000    263.97018   -4689.5183   -4180.4296   -4689.5183            0    2728.1499    20.113222    20.221675    20.756255    8442.0474    3565.2445    1949.5294    2669.6759    560.63788    289.48597     125.4637   -3844.5436 
 8059000    263.69339   -4689.9625   -4181.4076   -4689.9625            0    4233.0831     19.99876     20.30456    20.623247    8374.3999    6944.3815    969.19817    4785.6697    44.377507   -628.92201    301.05849   -3664.4125 
 8060000    260.05997   -4689.8499   -4188.3024   -4689.8499            0    3368.9711    20.144441    20.077807    20.861787    8437.6792    4289.7737    2913.0762    2904.0634    491.64359    2635.2495   -498.57983    -3773.734 
 8061000    253.32577   -4658.4996   -4169.9395   -4658.4996            0    3605.3982    20.056315    20.118508    20.794425    8390.6158    3441.5921    3505.4537    3869.1489    596.92745   -676.46163    239.32214   -3728.7522 
 8062000    282.42669    -4676.519   -4131.8354    -4676.519            0    3432.0355    20.211613    20.238079    20.611497    8431.0138     4227.316    1547.9325     4520.858   -142.45394   -393.51096     48.98434   -3709.8402 
 8063000    278.45289   -4674.4576   -4137.4378   -4674.4576            0    3308.6966    20.231085    20.072358    20.610368    8369.5734    1954.0917    4191.6602    3780.3378     145.6461    -124.7791   -1299.3396   -3733.5728 
 8064000    260.19637   -4684.2745   -4182.4639   -4684.2745            0    3396.2426    20.107083    20.061253    20.948605    8450.1074    4262.8464    2546.5402    3379.3413   -21.189378   -547.05069    125.98058   -3763.9241 
 8065000    255.70955    -4686.995   -4193.8376    -4686.995            0    2822.8908     20.22164    20.094671      20.8653    8478.5561    3488.9877    2271.8377    2707.8471    -348.0396    1536.7457    861.90863   -3844.7843 
 8066000    273.06484   -4661.8125    -4135.184   -4661.8125            0    2800.9132    20.022562    20.201113     20.79149     8409.701    2440.1298    3116.8394    2845.7705    56.857113    883.98291    467.73013   -3791.6607 
 8067000    266.63423   -4714.1454   -4199.9189   -4714.1454            0    4805.5213     20.22836    20.329066    20.382487    8381.7613    5223.5711    4082.2436    5110.7491    77.472683    420.35437    216.06343   -3612.4949 
 8068000    265.20439   -4696.6397   -4185.1707   -4696.6397            0    2690.4932    20.007652    20.246743    20.799513    8425.6701    1660.2451    3583.8166     2827.418   -139.14908    447.63431   -30.023463   -3854.5635 
 8069000    241.93627    -4676.677   -4210.0826    -4676.677            0    5170.3893    19.858992    20.089384     20.73118    8270.8063    6033.2018    4546.2539    4931.7121   -23.704401    1550.2849   -35.518188   -3586.4239 
 8070000    265.47299   -4679.8044   -4167.8175   -4679.8044            0    4479.1439     20.00032    20.115553    20.690278    8324.0609    3917.4156    3646.7138    5873.3023    248.84974   -1410.1074    1101.5269   -3624.0588 
 8071000    270.11873   -4687.1296   -4166.1829   -4687.1296            0      4451.55    19.954986    20.124157     20.84509    8370.9147    5309.7693    4193.3221    3851.5587   -267.65768    580.41369   -136.55147   -3622.7323 
 8072000    274.57331   -4647.8869   -4118.3491   -4647.8869            0    3825.9844    20.252481    20.059615    20.777685     8441.079    2813.9469    5447.0333    3216.9729   -708.93735    502.91834   -16.463688   -3647.3533 
 8073000     255.0582    -4706.198   -4214.2968    -4706.198            0    2675.3051    20.287809    20.173712    20.649947    8451.6187    3600.3385    628.16668    3797.4103    742.84045    89.508827    136.33699   -3884.5435 
 8074000    247.42729   -4690.0281   -4212.8438   -4690.0281            0      3796.13    20.153921    20.094452    20.753677     8404.866    5923.5444    1968.4296    3496.4159    239.48281    854.35158   -131.43371    -3747.528 
 8075000    262.81588   -4692.1762   -4185.3137   -4692.1762            0    6078.4039    20.196996    19.895285    20.705091     8319.823     4997.554    5893.2221    7344.4356    150.86033    1067.0236   -685.50392   -3447.7839 
 8076000    264.68484    -4683.927     -4173.46    -4683.927            0    5464.4243    20.161736    20.117048    20.419889    8282.1971    5246.5639    4561.7987    6584.9104   -307.32355   -58.568808   -1009.5431   -3513.4267 
 8077000    254.34077    -4710.981   -4220.4634    -4710.981            0    4710.6076    20.113823    20.032733    20.629472    8312.3334    4709.4857    3526.9081    5895.4291   -244.39825    -969.1613    288.73244   -3649.4113 
 8078000    284.36933   -4692.3455   -4143.9153   -4692.3455            0    3320.5969    20.229347    19.997608    20.926908     8465.741    2111.6575     3072.374    4777.7591   -193.29122    2208.6166    1102.0566   -3733.9406 
 8079000    255.96028    -4701.132   -4207.4911    -4701.132            0    3196.8404    20.241621    20.068339    20.864606    8475.5307    4014.7793    1998.7339    3577.0081   -861.29521   -331.77518   -1375.7472   -3812.3395 
 8080000    261.66116   -4647.3719   -4142.7364   -4647.3719            0    3353.7233    19.958271    20.223776    20.844657    8413.5621    3928.7104    1602.3423    4530.1172   -6.3431828   -603.38797   -2292.7664   -3731.2239 
 8081000    260.35071   -4677.8209   -4175.7126   -4677.8209            0    3377.6591    20.166991    19.876659    20.874838    8367.7288    5184.5436    2443.7162    2504.7175    595.10572     286.8004    636.96305   -3763.5209 
 8082000    255.10795   -4701.7726   -4209.7755   -4701.7726            0    3207.2768    20.359686     19.98602     20.54626    8360.4603    1688.0812    5469.9012    2463.8479   -203.73691    1780.4577    157.81802   -3818.7163 
 8083000    268.54416   -4691.6123   -4173.7023   -4691.6123            0    5027.8944    20.124704    20.074188    20.715686    8368.8696     4616.615    3970.0211     6497.047    224.00107   -582.26016    248.06951   -3560.0409 
 8084000    270.61301   -4664.5671   -4142.6672   -4664.5671            0    2203.8968    20.307785    20.053254    20.781603     8463.041   -382.16051     4805.017    2188.8339   -171.16172   -1103.5735    1217.1795   -3870.6517 
 8085000    263.64789   -4695.9054   -4187.4383   -4695.9054            0    5017.8728    20.084732    20.007331     20.60528    8280.0645    2449.5005    6938.8289    5665.2891   -195.05967   -145.00854    270.40579   -3581.4988 
 8086000    256.28169    -4689.829   -4195.5682    -4689.829            0    3189.1374    20.230659    19.871032    20.963035     8427.226    4254.8042    1309.5511    4003.0569   -71.765519     408.4594   -370.49836   -3803.6154 
 8087000    271.72881   -4721.0567   -4197.0048   -4721.0567            0    4961.7371    20.196915    19.887484    20.716813    8321.2356      4972.71    5321.8513      4590.65    487.63986    472.20246    258.59143   -3594.8649 
 8088000    256.68432   -4665.4317   -4170.3944   -4665.4317            0    4265.6444    20.146002    19.942811    20.819536    8364.6214    4609.4911    4771.7059    3415.7362   -502.30055    1599.1148   -161.26962   -3650.0309 
 8089000    254.74457   -4718.2281   -4226.9318   -4718.2281            0    2478.0782    20.231809     20.11194    20.721277    8431.5067    2654.3835    1876.0967    2903.7546   -91.100647    967.49792   -1218.6877   -3922.2152 
 8090000    260.71209   -4692.9854   -4190.1802   -4692.9854            0    2522.8821    20.266295    20.126787    20.750783    8464.1489    1382.9427    2723.9569    3461.7466   -360.47753   -529.92556    1051.8111   -3878.7533 
 8091000    262.89221   -4685.9925   -4178.9828   -4685.9925            0    4825.4373    19.949036    19.917542    20.875816     8294.708     4073.964    6385.4792    4016.8686   -744.41561     -65.1449     17.05258   -3595.2506 
 8092000    255.58723   -4671.0793   -4178.1579   -4671.0793            0    4367.0767    20.174991    19.990385    20.714383    8354.2318    5087.0802     3784.939     4229.211   -495.86677    1321.6419   -649.03825   -3646.0824 
 8093000    261.47827    -4649.557   -4145.2741    -4649.557            0    4501.0459    20.089204    20.491309    20.406553    8400.4406    6997.4058     2292.213     4213.519    240.36775     894.0938   -682.45309   -3593.8428 
 8094000    259.27318   -4686.3636   -4186.3335   -4686.3636            0    4431.7229    20.336837    19.836617    20.751751    8371.5479    4437.8894    5075.4982    3781.7813    232.03551   -235.63227   -107.93315   -3645.2625 
 8095000    253.75001   -4707.9243    -4218.546   -4707.9243            0    4830.7547    19.947807    20.067166    20.855817    8348.4993    7628.5078    1800.2554    5063.5009   -144.76193    -1535.696    686.45372   -3630.3809 
 8096000    267.03144   -4680.9497   -4165.9571   -4680.9497            0    3301.8565    20.016835    20.058694     20.95448    8413.4661    3844.5077    2837.7896    3223.2722    199.38015    1599.2887    1286.9972   -3760.8135 
 8097000    271.30047   -4707.4487    -4184.223   -4707.4487            0    3603.9652    20.160782    19.860899    20.890089    8364.6268    2384.9526    4192.3537    4234.5893   -636.53555    196.68319   -750.48263    -3744.577 
 8098000    267.54906   -4693.5487   -4177.5579   -4693.5487            0    5199.7706    19.967824    20.163286    20.656485    8316.6508    7873.1839    2682.3207    5043.8073    95.813655   -756.63471    584.32179   -3546.8786 
 8099000    249.17106   -4670.0929   -4189.5456   -4670.0929            0    4467.8866    20.103027    20.037168    20.782449    8371.3312    4343.5253    4592.8109    4467.3236   -335.87094    746.40974    671.83421   -3644.0735 
 8100000    265.73333   -4686.9336   -4174.4445   -4686.9336            0    3653.7942    20.151586    19.860288    20.866198    8350.9924     3881.086    3747.9702    3332.3264    389.67327    770.85099   -55.381764   -3729.4465 
 8101000    245.85714   -4691.3073   -4217.1511   -4691.3073            0     5895.022    20.123647    20.027825    20.563547    8287.7855    6207.7086    4651.7072    6825.6503   -1194.0788    1856.7288    874.00531   -3504.6266 
 8102000    261.78414   -4671.5188   -4166.6461   -4671.5188            0    5273.6238    20.069309    20.072905     20.65813    8322.1141    3589.6245    5851.7474    6379.4997    293.03329    -292.2802    84.717209    -3526.589 
 8103000    266.08297    -4673.519   -4160.3556    -4673.519            0    3018.1667    20.303952    19.903774    20.752021     8386.416    1757.1917    4399.3062    2898.0021    92.015656    200.43409    277.38873   -3791.2119 
 8104000    270.32886   -4686.4346   -4165.0827   -4686.4346            0    2870.2969    20.031393    20.094418    20.933857    8426.2788    4227.5754    3128.8392     1254.476    352.50959   -142.66819   -929.98348   -3812.3558 
 8105000    281.46847   -4676.5885   -4133.7529   -4676.5885            0     4127.285    20.308495    19.936704     20.71598    8387.5783    1485.2333    6388.3243    4508.2975   -82.188087    215.69887    -10.27108   -3628.8859 
 8106000    240.21362    -4670.354   -4207.0818    -4670.354            0    4366.9235    20.140774    20.199076    20.595172    8378.6315    4554.7053     3929.857    4616.2083     552.3441    1548.9349    624.46688   -3673.4711 
 8107000    260.34559   -4686.1046   -4184.0062   -4686.1046            0    3847.9731    20.285071    19.867133     20.72915     8353.976    2131.3903    4010.4438    5402.0853   -446.86089     333.9795    219.66901   -3715.1916 
 8108000    266.12125   -4668.6715   -4155.4343   -4668.6715            0    4967.0176    20.018184    20.099215    20.714264    8334.3797    5267.9059    5629.1972    4003.9498    262.38052   -263.19143   -885.01334   -3551.7013 
 8109000    261.44538    -4689.368   -4185.1486    -4689.368            0    2619.7942    20.194381    20.080707    20.791047    8431.1322    3381.9874    1456.6839    3020.7111   -508.79535    147.41284    1170.9599   -3863.0202 
 8110000    263.50414   -4664.8749    -4156.685   -4664.8749            0    2588.1712    20.108711    20.406654    20.599629    8453.0887    4710.9833   0.50050905    3053.0297    -472.7227   -315.51444    657.20076   -3837.6162 
 8111000    270.52381   -4668.4545   -4146.7266   -4668.4545            0    5085.0448    20.018528    20.006461    20.804466    8332.1864    5972.0649    4618.7573    4664.3122    59.858039   -132.64836   -339.66492   -3528.8103 
 8112000    277.63512   -4700.1537    -4164.711   -4700.1537            0    3763.0215    19.977744    19.798901    21.221817    8394.0219    3702.7612    5966.3506    1619.9526   -694.04997    615.74758   -235.01506   -3704.0487 
 8113000    257.44956   -4709.5216   -4213.0085   -4709.5216            0     3245.504    20.189986    20.027995    20.815173     8416.926    4109.8357    3274.3152    2352.3611   -506.55852   -1983.6077   -413.96338   -3814.6156 
 8114000    265.54142   -4686.0325   -4173.9136   -4686.0325            0    3377.2316     20.11634    20.171904    20.821078    8448.8782    3834.0798    2882.5049    3415.1101   -714.70184    1146.1886   -89.594483   -3757.7771 
 8115000    272.25661   -4706.4651   -4181.3953   -4706.4651            0    5527.7961    20.068627    20.075781    20.595513    8297.7954    4987.9689    6433.0346    5162.3848    263.48675    515.46802    -822.1532     -3512.45 
 8116000    258.56159   -4717.8025   -4219.1448   -4717.8025            0    4533.0739    20.008475    20.021989    21.065073    8438.8673    4804.2382    5265.2706     3529.713   -1130.8521    1616.8087   -713.01375   -3661.2493 
 8117000    251.85139   -4688.3292   -4202.6126   -4688.3292            0    4868.5707    20.039829    20.015233    20.740571    8319.0811    5865.4809    4232.5446    4507.6867    219.33169    111.92828    -440.6467    -3611.932 
 8118000    248.63041   -4669.8213   -4190.3167   -4669.8213            0    5023.9947    20.256134    20.073911    20.486307    8330.1389    5097.5059    4140.1469    5834.3314    224.01847     493.4275   -1644.5875    -3579.969 
 8119000    266.21728   -4717.5793   -4204.1569   -4717.5793            0    4787.5994    19.979051    20.057251    20.663457    8280.3604    6570.5636    3501.2894    4290.9452   -135.62725   -1313.4068   -26.995046   -3626.0037 
 8120000    262.09194   -4679.4035   -4173.9371   -4679.4035            0    4643.8128     20.01395    20.156462    20.866469    8417.7511     4827.948    3972.2597    5131.2307   -881.13346   -241.73223    880.73737   -3603.8429 
 8121000     256.4145   -4719.2157   -4224.6988   -4719.2157            0    2884.6842    20.210189    20.140237    20.659433    8409.1742    3029.6672    1820.2041    3804.1813   -339.65495   -976.86602   -532.58139   -3870.9235 
 8122000    266.79587   -4671.3688   -4156.8305   -4671.3688            0    4085.2491    20.071424    20.024515    20.816364     8366.524    4686.2004     4361.821     3207.726    239.08677    1679.8295   -120.44302     -3658.36 
 8123000    253.98358    -4670.669   -4180.8403    -4670.669            0    4312.1957    20.175425     20.22082    20.600492    8404.2519    4055.7741    4267.4671     4613.346    106.30978    1380.6662   -230.91036   -3652.3058 
 8124000    252.76031    -4656.758   -4169.2885    -4656.758            0    4955.5148    20.120858    20.098558     20.59142    8327.1746    5981.8731     4239.151    4645.5202    788.19463    -1301.419    -510.3802   -3567.4744 
 8125000    274.31565   -4675.3785   -4146.3377   -4675.3785            0    2863.1354    20.150118     20.07138    20.867226    8439.5553    1805.8135    5031.7553    1751.8376    254.41464    1179.6401    15.058593   -3793.9365 
 8126000    256.65038   -4701.1516   -4206.1798   -4701.1516            0    3927.3907     19.99992    20.065093    20.807633     8350.108    4276.8789    3524.3346    3980.9586   -373.15584   -62.030901    156.00911   -3727.9109 
 8127000    263.79655   -4694.4295   -4185.6757   -4694.4295            0     3822.532    20.152825    19.947075    20.958782     8425.219    3159.9882    6423.5389     1884.069   -76.690163    991.99962   -682.29297    -3715.989 
 8128000    262.56542   -4696.8815    -4190.502   -4696.8815            0    3102.4262    20.088941    20.015801    20.824184    8373.3262     3943.323    3003.4264    2360.5292   -809.56319    1436.4459   -1149.4999   -3811.6449 
 8129000    276.84515    -4668.225   -4134.3059    -4668.225            0    3935.2793    20.205826    20.185835    20.575752    8392.2621      3075.07    4133.6818     4597.086   -576.39188   -586.61179   -644.56537   -3652.6571 
 8130000    245.38047   -4687.5152   -4214.2784   -4687.5152            0    4447.9396    20.137351    20.092806    20.569841    8322.8841    4458.0971    4012.5786     4873.143   -67.849863   -67.282622    43.007069   -3674.3842 
 8131000    250.12001   -4707.3374   -4224.9599   -4707.3374            0    2991.8891    20.088998    20.060089    20.967561    8449.6561    2460.9275    3094.0349     3420.705   -453.87965    1102.8816     80.97813   -3856.2707 
 8132000    270.27785   -4657.4907   -4136.2371   -4657.4907            0    2782.7567     19.95279    20.285237    20.818969     8426.417    3335.8222     1120.811    3891.6368   -610.05986      571.409   -825.71329   -3794.2624 
 8133000     286.1576   -4684.2801   -4132.4011   -4684.2801            0    3698.7163    20.123854    20.316448    20.467716    8368.1277    3379.6484     4218.335    3498.1654   -1369.6816    388.36343    169.68931   -3681.0077 
 8134000     249.7264   -4674.6983   -4193.0799   -4674.6983            0    5053.7356    20.174761    20.035503    20.708888    8370.7704    4878.7385     5322.142    4960.3263   -137.16032    1448.5143   -1061.1661   -3576.1244 
 8135000    264.52041   -4694.1087   -4183.9589   -4694.1087            0      5461.77    19.878687    20.045806    20.964963    8354.2088    5394.9429    5200.5589    5789.8081    774.85125   -1403.4817   -1157.0077   -3518.5101 
 8136000    269.45065   -4684.4736   -4164.8153   -4684.4736            0    2984.5696    20.206006    19.934399     20.85738    8401.2394    1251.0779    3572.6251    4130.0059     -923.071    413.62994    719.46896   -3799.1355 
 8137000     260.0925   -4692.7966   -4191.1863   -4692.7966            0    2222.2937    19.990372    20.150453     20.84956    8398.5168    2932.3779     2006.894    1727.6094    -72.54158   -808.18691   -455.53564   -3918.9915 
 8138000    266.50723   -4706.9956    -4193.014   -4706.9956            0    3384.5666    20.252097    20.037292    20.797465    8439.5525    1738.0724    4379.1343     4036.493   -676.07493    34.251043   -472.08567    -3776.434 
 8139000    250.45927   -4707.6987   -4224.6669   -4707.6987            0    3616.7228    20.192384    20.208454    20.590046    8401.9096    2282.1758    4605.3728    3962.6198   -637.09544    979.73143     42.01715   -3781.4982 
 8140000    274.04053   -4697.1812    -4168.671   -4697.1812            0     3794.819    20.077506     20.10609    20.665691    8342.3292    2224.0326    4204.3521    4956.0723    298.97087    778.01876    491.04227   -3706.9769 
 8141000    246.85635   -4665.1656   -4189.0823   -4665.1656            0    3642.3355    20.126804    20.034322    20.858721    8410.7969    4407.0077    3705.1922    2814.8067   -57.630283   -996.04024   -182.67826   -3742.3031 
 8142000    257.72698   -4671.0845   -4174.0364   -4671.0845            0    2228.9886    20.311952    19.975078    20.926905    8490.7323    1012.5972    3553.0383    2121.3302    926.82991   -72.303655     346.7566   -3898.0238 
 8143000    266.86409   -4703.8688   -4189.1989   -4703.8688            0    2390.8674    20.104987    20.127864    20.870997    8445.8754    2902.5816    2600.3893    1669.6313     413.0129   -1219.3531   -281.00031   -3894.7052 
 8144000    258.93184   -4664.0029   -4164.6311   -4664.0029            0    3470.2053    20.310931    19.983613    20.643147    8378.7599    2423.3528    4639.4455    3347.8174   -1114.3343    954.57366  -0.39073562   -3740.5872 
 8145000    259.34916   -4672.1802   -4172.0036   -4672.1802            0    4464.5211    20.125601    20.076885    20.645595    8342.0463    4985.5025      3291.27    5116.7906    170.27186    539.90573   -151.11883   -3628.8491 
 8146000    252.06316   -4682.2706   -4196.1456   -4682.2706            0    6268.4425    20.270003    19.741114    20.776056    8313.5898    7357.2835     6621.777    4826.2669    249.56999    830.12556   -873.88428   -3436.1272 
 8147000    250.07334   -4692.7102   -4210.4227   -4692.7102            0    2338.1977    20.148162    20.095237    20.877645    8452.9847    4198.9454    387.07635    2428.5714   -283.39167   -238.86766    255.71017   -3922.1741 
 8148000    248.49076   -4677.5158   -4198.2805   -4677.5158            0     4484.451    20.144454    19.978871    20.833742    8384.8197     2628.678    6421.0181    4403.6568   -318.31853     25.37762    805.77046   -3649.9039 
 8149000    259.39893   -4661.4137   -4161.1411   -4661.4137            0    3102.4922    20.158471    20.115081    20.782959    8427.2671    2975.2531    3419.6642    2912.5591    381.26434   -252.61549   -76.706126   -3779.8354 
 8150000    259.99277    -4691.108   -4189.6901    -4691.108            0    4039.5009     20.09433    20.306159    20.571735    8394.0634    2788.0449    3190.8584    6139.5993    13.185245   -231.78395   -1571.6789   -3695.1792 
 8151000    267.78316   -4659.9527   -4143.5103   -4659.9527            0    3147.8344    20.241863    20.012379    20.726546    8396.0716    2284.3241    3652.3157    3506.8634    -446.9043    313.49289    748.19302    -3758.064 
 8152000    274.65914   -4687.7612    -4158.058   -4687.7612            0    4358.0195     20.04586    19.918702    21.005333    8387.1673    3424.4827    7084.3285    2565.2473   -31.855062    1421.1296    78.625152   -3624.9928 
 8153000    264.64793   -4700.3046   -4189.9088   -4700.3046            0    5425.8702    19.964373    20.003109    20.912345    8351.3352    5968.7862    5146.1188    5162.7054   -100.57216   -233.76649    33.954898   -3529.0614 
 8154000    263.18126    -4683.213   -4175.6458    -4683.213            0    4108.8383    20.011485    20.152793    20.896433    8427.2661    6175.8377    1872.0517    4278.6254    -29.19395   -215.60363    2415.5396   -3670.6571 
 8155000    260.22936   -4694.6274   -4192.7531   -4694.6274            0    4277.3649    20.237347    20.128488    20.597448    8390.3127    5120.6433    3080.8245    4630.6269   -690.06689   -510.75776   -1276.2811   -3669.3572 
 8156000    250.94173   -4689.5009   -4205.5387   -4689.5009            0    3435.0344    20.215723    19.815087    20.851959     8352.801    2942.0723    3952.9613    3410.0697    -509.0641    34.382133   -726.01841    -3787.093 
 8157000    258.69624   -4678.5324   -4179.6149   -4678.5324            0    5725.9204    19.946626    20.107487    20.822433    8351.3888    8314.3736    3984.8153    4878.5724    220.51094      1112.11   -317.93335   -3482.2182 
 8158000    250.74931   -4692.5448   -4208.9537   -4692.5448            0    5025.4832    20.153444    19.929258    20.711705    8318.7151    5054.4454    4517.2608    5504.7434   -285.06738     988.1522   -1836.8403   -3599.2624 
 8159000    250.76602   -4684.1212   -4200.4978   -4684.1212            0    3111.7872    19.986246    20.176573    20.956315    8450.7164    3965.1888    3226.3415    2143.8313   -361.44579     289.9956    1590.3721   -3816.9855 
 8160000    280.03749   -4713.6208    -4173.545   -4713.6208            0    4544.2788    20.271158    19.867335    20.683623    8329.9958    5199.0702    4458.7389    3975.0273   -126.60103    432.95566   -297.09904   -3621.4858 
 8161000    248.72245   -4677.1547   -4197.4726   -4677.1547            0       5077.3    19.896067     20.23155    20.786322    8367.0824    5832.8607     4182.416    5216.6232    35.122868    750.46996   -750.93657   -3577.9134 
 8162000    270.63495   -4690.0918   -4168.1496   -4690.0918            0    4171.8109    19.857464    20.180022    20.880314    8367.2443     5640.495    2979.7488    3895.1889   -339.21213   -93.782629   -283.61167   -3659.0732 
 8163000    258.71214   -4666.6024   -4167.6542   -4666.6024            0    4798.0171    20.061822    20.193075    20.692437    8382.7106    4954.2869    4771.6185    4668.1458    412.11388   -279.53971    -864.4684   -3581.0811 
 8164000    250.41654   -4684.1342   -4201.1848   -4684.1342            0    5244.7039    19.967544    20.281337     20.59885    8341.8849    4875.9598     5266.251    5591.9008   -22.870861    206.71925   -203.63627   -3563.1255 
 8165000    261.34952   -4686.1607   -4182.1262   -4686.1607            0    7328.5917    19.950031    19.784487    20.825182    8219.7229    7062.0782    8689.5639    6234.1331    301.41738    760.31188    189.09371   -3303.6022 
 8166000    262.10215   -4672.7353   -4167.2492   -4672.7353            0    4352.9181    20.129773    20.227563    20.639407    8403.8768    4383.5336      3554.29    5120.9308    538.22697     507.6809    1193.3658   -3633.7472 
 8167000    263.36742   -4684.4115   -4176.4853   -4684.4115            0     5528.201    20.235792    20.150076    20.403677    8319.6553    5447.3592    4126.7066    7010.5372    124.88772   -733.30318    1173.6035   -3505.7286 
 8168000    275.33491   -4678.5479   -4147.5413   -4678.5479            0    3904.6907    20.200424    19.868765    20.848895      8367.86    2590.5048    5554.5688    3568.9985    478.05228   -34.190403   -98.648847   -3671.0259 
 8169000    264.87641   -4663.7189   -4152.8825   -4663.7189            0    3063.3323    20.120416    20.033239    21.055276    8486.8995    4425.4281    1736.5848    3027.9841   -122.35844   -1156.8172   -427.63506   -3773.7255 
 8170000    272.53763   -4698.2357    -4172.624   -4698.2357            0    3128.1026    20.075831    20.077476    20.741365    8360.2634    4279.1257    2341.5205    2763.6617    289.76657   -500.31913    255.06137   -3791.2273 
 8171000    269.92025   -4680.9522   -4160.3883   -4680.9522            0     4227.317      20.2201    19.864398    20.806972    8357.3311    2411.1373    5605.3128    4665.5009    165.17378   -249.98521    217.03359   -3645.1498 
 8172000    253.96694   -4682.4329   -4192.6363   -4682.4329            0    4438.8167    19.920588    20.131696    20.900479    8381.8282    6090.0711    3925.0436    3301.3353    423.38921   -1164.7362   -367.84243   -3650.0337 
 8173000    263.46823   -4712.5023   -4204.3817   -4712.5023            0    4187.8095    20.289351    20.259907    20.336328    8359.4584    3578.5307    4047.3697    4937.5281   -227.33264   -558.18414   -84.520778   -3693.8285 
 8174000    260.52799   -4685.8302   -4183.3801   -4685.8302            0    3582.6744    20.199658     20.09715    20.727989    8414.6422    2218.3429    5339.2756    3190.4048    193.20681    405.57743    4.5892633   -3743.7181 
 8175000    269.32236   -4705.8977   -4186.4869   -4705.8977            0    3806.9079    19.960698    20.204903    20.766965    8375.3991    6332.7096    1786.7343    3301.2799   -43.480884     1004.637   -703.85741    -3721.486 
 8176000    252.41805   -4703.3526   -4216.5431   -4703.3526            0    3072.6532    19.935756    20.133032     20.95628    8411.1637    4070.3938    3163.2529     1984.313   -419.57305    443.07813    33.655079   -3839.6263 
 8177000    263.75508   -4689.2742   -4180.6003   -4689.2742            0    4149.9964    20.170097    20.046235    20.750908    8390.3085    3319.8851    4365.6161     4764.488   -3.8697216   -225.29323    323.89998     -3672.79 
 8178000    259.53916   -4689.7132   -4189.1701   -4689.7132            0    6236.6853    19.980748    20.093631    20.893828    8388.5748    6577.6371    5692.8968    6439.5219    441.98764    263.48945   -607.28691   -3426.1818 
 8179000    268.50296   -4666.4633   -4148.6328   -4666.4633            0    2803.8063    20.321386    19.873574    20.835327    8414.5253    1473.7744    3254.4418    3683.2028    -244.0571   -272.10694    388.27042   -3804.5575 
 8180000     262.3333    -4672.534   -4166.6022    -4672.534            0    3540.4696    19.988493    20.288546    20.788163     8430.379    5323.1751    1537.9721    3760.2616   -487.65826    509.70036   -70.932328    -3731.307 
 8181000    267.10114   -4712.7066   -4197.5796   -4712.7066            0    3670.6787     20.00225    20.292131    20.715131    8408.0288     5038.692    3623.8438    2349.5004   -105.61003    350.37902   -334.87159   -3747.4719 
 8182000    264.01499   -4687.2945   -4178.1194   -4687.2945            0    4098.4301    20.196882    19.931065    20.583704    8285.8749    3379.2677    3272.7013    5643.3212    31.532734   -236.46608    58.585772    -3682.861 
 8183000    259.41021   -4703.7798   -4203.4854   -4703.7798            0    3976.3248    19.799379    20.302455    20.686967    8315.6646    5655.8046    3040.4694    3232.7005   -387.23582    1090.9713   -844.85015   -3721.2549 
 8184000    259.08069   -4710.1863   -4210.5274   -4710.1863            0    4152.1543    20.058856    20.078235     20.81296    8382.3454    3707.5562    4562.5397     4186.367   -945.75431    45.423225   -178.20328   -3702.9353 
 8185000     277.4312   -4694.9302   -4159.8807   -4694.9302            0    4224.7842    20.184115    20.004333    20.729754    8370.0476    4027.6696    4485.9604    4160.7227   -427.03144   -506.41635    20.294155   -3644.1674 
 8186000    266.36415     -4660.05   -4146.3443     -4660.05            0    6034.1535    20.186922    19.879778     20.63515    8281.1235      5787.98    7053.1076    5261.3728    430.90251    1198.1477   -254.69529   -3417.5894 
 8187000     245.7529   -4676.1897   -4202.2346   -4676.1897            0     3307.005    20.113156    20.120488    20.807304    8420.4354    3319.8742    4443.4752    2157.6656   -141.35253    1497.1757    1373.3906   -3796.1231 
 8188000    272.70556   -4693.8012   -4167.8656   -4693.8012            0    4164.1792    20.172594    19.955859    20.821921    8382.1029    4550.7202    3199.7702    4742.0471   -156.41459   -116.57305   -292.81334   -3658.8181 
 8189000    258.39078   -4714.2358   -4215.9074   -4714.2358            0    2401.8197    20.030276    20.264311    20.861632    8467.7312    2125.6291    3116.8847    1962.9453    241.12639   -598.50034   -807.97777   -3919.2991 
 8190000    271.59427   -4668.5483    -4144.756   -4668.5483            0    3803.4528    20.331495     19.93286    20.677234    8379.7558    1969.9029    4521.9379    4918.5176   -975.36601   -101.65038   -1930.7209   -3679.9354 
 8191000    271.38976   -4700.6784   -4177.2804   -4700.6784            0    2967.6534    20.081949     20.10655    20.826748    8409.3977    3954.9968    2108.1369    2839.8265    830.43905    -1178.413   -1016.4219   -3813.3201 
 8192000    270.70121   -4697.4649   -4175.3949   -4697.4649            0    2941.3796    20.018236    20.042342     20.81598    8351.6281    2133.6014    4299.9945    2390.5428    44.646257   -2176.2305   -742.72797    -3817.135 
 8193000    261.61606   -4670.1411   -4165.5926   -4670.1411            0     4738.617    20.061777    20.139125    20.583735    8316.3771    3003.2697    5173.2376    6039.3438    375.32789    733.48067   -285.62417   -3590.8655 
 8194000    272.69623    -4679.425   -4153.5074    -4679.425            0    4186.0996    19.989227     20.17261    20.745377    8365.2594    4590.2562    3395.5824      4572.46   -645.40049   -451.16134   -7.2336513   -3642.8086 
 8195000    266.74319   -4693.6062   -4179.1695   -4693.6062            0    4254.9977    20.135836    20.156473    20.649531    8380.9721    3558.8811    5149.6259    4056.4861   -122.45136    311.21083    175.33587   -3659.0901 
 8196000    261.23986   -4683.0725   -4179.2494   -4683.0725            0    5247.8494    20.187636    20.279152    20.369578    8339.0635    5411.8302     3395.113    6936.6049   -195.36158    886.66419   -764.51869   -3541.0234 
 8197000    269.82791   -4701.8821   -4181.4962   -4701.8821            0    3847.8476    20.044481    20.030773     20.80406    8352.9641    4470.6233    2523.1925     4549.727   -652.74867   -830.92757    583.85359   -3712.7537 
 8198000    264.93546    -4681.218   -4170.2677    -4681.218            0    3402.1426    19.985642     20.01781    21.076284    8431.9637    4867.5798    3420.9361    1917.9121    451.53454    538.49003   -181.47713    -3751.901 
 8199000    281.30831     -4698.05   -4155.5233     -4698.05            0    4161.4498    20.213956    19.968832    20.823074    8405.2148    3111.2515    4841.0601    4532.0377   -495.58265    99.187932   -1875.8088   -3645.4068 
 8200000    260.16289   -4699.1094   -4197.3634   -4699.1094            0    3527.1428    20.386262    20.131184    20.504652    8415.1005    2229.7029    3117.6132    5234.1123    -413.9518   -418.13102    329.20786   -3764.4926 
 8201000    260.58711   -4685.3211    -4182.757   -4685.3211            0    3464.5461    20.218923    19.978077    20.846665    8420.7016    1960.7244    5090.5611    3342.3528   -684.23463   -1027.1686    70.973638   -3757.2854 
 8202000    263.27247   -4687.1026   -4179.3595   -4687.1026            0    3442.0745    20.086903    20.077933     20.98208    8462.1458    2168.6171    5288.8431    2868.7632    473.16929     443.2135   -438.24217   -3754.5672 
 8203000    251.31398   -4690.0469   -4205.3668   -4690.0469            0    4780.8884    19.970361    20.106438     20.71319    8317.0255    5838.7821    3884.9149    4618.9684     275.4571    172.89322    54.292899   -3625.4675 
 8204000    251.54562   -4692.4568   -4207.3299   -4692.4568            0    3336.4452    20.012343    20.277954    20.705731      8402.58    2733.5553    4836.5349    2439.2454     169.3276   -446.64612    -464.3792   -3798.4719 
 8205000    261.62687   -4725.0003   -4220.4308   -4725.0003            0    4512.0694    19.785401    20.143567    20.869462    8317.4939    4987.6301     3850.736    4697.8421    64.282114   -865.28684    329.20747   -3673.1073 
 8206000    243.30178   -4679.8697   -4210.6418   -4679.8697            0    4608.1118    19.833777    20.308157    20.717165    8344.6143    6834.0653    1529.6144    5460.6556   -83.009019    203.52997    56.253101   -3649.8454 
 8207000    261.82021   -4687.4429   -4182.5007   -4687.4429            0    5502.5047    20.163156     19.84533    20.688083    8278.2223    3200.5874    7818.0259    5488.9009   -527.99805    476.75167    769.00311   -3518.1867 
 8208000    260.53806   -4671.3105    -4168.841   -4671.3105            0    3531.3689    20.099794     20.16338    20.670129    8377.1855    4130.7311    3102.4192    3360.9564    158.56617   -421.32415    90.182502   -3737.4042 
 8209000    257.42531   -4687.0012   -4190.5349   -4687.0012            0     3814.637    20.125639    20.105009    20.714397     8381.587    1285.1384    5334.2921    4824.4805    208.50187   -682.69237    41.280409   -3724.2457 
 8210000    269.58412   -4662.6931   -4142.7774   -4662.6931            0    4629.0043    19.982242      19.9491    20.970511    8359.4278    6093.0757    4668.9445    3124.9928   -71.509249    582.07202   -347.72561   -3578.4385 
 8211000    269.49344   -4686.8656   -4167.1249   -4686.8656            0    4877.0118    20.097292    19.924881    20.771366     8317.606    5560.1842    4452.2411    4618.6102     12.20119    196.47816   -1020.9567    -3575.525 
 8212000    263.96961   -4689.7839   -4180.6963   -4689.7839            0    5357.9628    20.180422    20.084171    20.620854    8357.7772    5146.7084    5022.2779    5904.9021   -843.85685   -103.53594   -1063.4766   -3527.6164 
 8213000     276.5399   -4684.8541   -4151.5237   -4684.8541            0    4233.9633    20.004389    20.006324    20.876017    8354.8803    5054.9312    3909.8207    3737.1381    79.202284    13.963747    377.96354   -3635.6264 
 8214000     274.5157   -4693.8744   -4164.4478   -4693.8744            0    4406.7168    20.027035    20.139066    20.745751     8367.296    3299.9508    5012.9861    4907.2136    365.22625     1242.772   -751.66282   -3626.7031 
 8215000     263.4869   -4720.5584   -4212.4018   -4720.5584            0    4365.3401    20.212466    20.119594    20.487151    8331.4402    3867.3979    3932.2742    5296.3483    230.66687   -912.34483    514.40813   -3681.9889 
 8216000    261.67448   -4683.6527   -4178.9914   -4683.6527            0    4333.3454    20.101051    20.007979    20.782877    8358.4867    5451.6113     3327.442    4220.9831   -1108.8517   -646.30844    85.804481   -3650.7568 
 8217000    249.27692   -4690.7146   -4209.9631   -4690.7146            0    4164.2575    20.217868    19.899078    20.772674    8357.1985    4466.3123    5098.3718    2928.0884   -501.36812   -263.85467   -773.61215   -3702.4185 
 8218000    270.78416   -4674.0362   -4151.8062   -4674.0362            0    3925.7658    20.103199    20.147483    20.642804    8360.9314    4798.8468      2586.92    4391.5306    917.98834   -241.47441   -782.39058   -3673.1155 
 8219000    254.83971   -4659.2211   -4167.7413   -4659.2211            0    3786.2584    20.092296    20.310567    20.783607    8481.4975    5485.9183    1146.2184    4726.6386   -143.26448    1108.9231   -50.383385   -3699.4041 
 8220000    254.34843   -4706.4189   -4215.8866   -4706.4189            0    2973.0563      20.0772    20.104766    20.718801      8363.09    3063.3771     2455.638    3400.1537   -428.49172    1501.3092    100.37727   -3853.2716 
 8221000    262.89502    -4688.004   -4180.9889    -4688.004            0    3416.7868    20.136804    20.123998    20.786152    8423.2348    3014.9578    4805.9909    2429.4117    374.04461   -1137.2835    686.28979   -3761.2563 
 8222000    249.94945   -4693.5357   -4211.4871   -4693.5357            0    4570.9853    20.186105    19.926384    20.751886    8347.1571    3970.5674    5034.6558    4707.7329    1057.8431    249.15132    529.76767   -3655.0395 
 8223000     264.8543   -4703.1358    -4192.342   -4703.1358            0    3695.6998    20.021598    19.929276     20.93527    8353.5067    4250.6497    3898.0108     2938.439   -506.95261   -573.58823    651.71786   -3742.1048 
 8224000      268.952   -4691.6195   -4172.9229   -4691.6195            0    4644.3227    20.295992    19.609875    20.797278    8277.3556    3274.7942    7466.8266    3191.3473    309.39364   -585.31012   -770.12141   -3612.2754 
 8225000    257.36023   -4701.1507   -4204.8098   -4701.1507            0    4225.8678    20.094979    20.177557    20.670995    8381.4186    3610.6468    3424.0219    5642.9346    218.71978   -696.84088   -334.40549   -3688.2635 
 8226000    259.48009   -4686.0768   -4185.6476   -4686.0768            0    3661.9114    20.108701    20.126431    20.704605    8379.4932    2130.7564    4239.5837    4615.3942   -867.89178    292.77808    1594.4253   -3738.1389 
 8227000    275.32892   -4648.6202   -4117.6252   -4648.6202            0    4659.9209    20.108068    20.035526    20.927392    8431.1384    5711.3262    3825.5974    4442.8391   -858.73533   -242.71465   -400.36224   -3544.6437 
 8228000     276.3932   -4679.0178   -4145.9703   -4679.0178            0    5285.0203    19.886095    20.188348    20.844963    8368.5734    8148.9027    2468.1711    5237.9872   -123.72886   -162.69037   -359.13524   -3500.9491 
 8229000    271.45141   -4689.3242   -4165.8074   -4689.3242            0     3371.305    20.117034    20.087409    20.915521    8451.9429    3122.1558    3603.2043    3388.5549    530.70464     513.8692   -773.66829   -3750.2505 
 8230000    273.24558   -4677.4202   -4150.4431   -4677.4202            0    2951.8477    20.219736    20.079819    20.785708    8439.1769    3948.0144    1732.0439    3175.4849     34.13512    147.04613    805.63968   -3787.1394 
 8231000    269.07769    -4679.991   -4161.0521    -4679.991            0    3343.0254    20.309544    20.067166    20.675349    8426.3418    2996.7332    3560.8784    3471.4647   -75.893153    945.04034    260.70701   -3750.2292 
 8232000    259.96261   -4678.1747    -4176.815   -4678.1747            0    3938.9447    19.930289    20.179555    20.790586    8361.6484    3547.4624    5081.8466    3187.5251   -643.31506    311.18798    819.84511   -3696.4762 
 8233000    261.62744   -4696.4031   -4191.8325   -4696.4031            0     3924.873    19.932456    19.904611    21.066243    8357.9853    2680.6612    5394.0975    3699.8603   -62.566083    1045.8758   -994.56855   -3713.4194 
 8234000    265.92972   -4677.4127   -4164.5449   -4677.4127            0    4575.0706    20.025326    20.034938    20.949125     8404.918    4059.1827    6216.1263    3449.9028    508.74953    595.46083    512.85673   -3603.7459 
 8235000    251.82739    -4690.229   -4204.5587    -4690.229            0    4586.5811    20.177365    20.031954    20.623762    8335.9608    4154.5932    3806.9603    5798.1899    474.39335   -432.07685    633.88853   -3646.9615 
 8236000    255.44502   -4690.1201   -4197.4729   -4690.1201            0    5140.6088    20.118025    19.953381    20.734432    8323.2697    7281.8849    3253.4623    4886.4793   -821.25742    426.59722    418.89871   -3573.4732 
 8237000    251.40228   -4666.0363   -4181.1858   -4666.0363            0    3412.6025    20.056112    19.930809    21.002472    8395.4136    3598.8908    3958.3912    2680.5255   -310.48592   -613.14176   -856.81783   -3763.3519 
 8238000     265.0536   -4668.4637   -4157.2855   -4668.4637            0    4784.9642     20.02997    19.892259    20.917449    8334.3766    5281.1902    5703.2628    3370.4396    510.15173   -870.61134   -696.28646   -3575.6811 
 8239000     256.3591   -4672.4365   -4178.0264   -4672.4365            0    3466.4614    20.183169    20.144475    20.577449    8366.3655    3091.2157    2060.1286    5248.0399    861.72479    43.880198    680.14669   -3755.0666 
 8240000    264.37905   -4672.3552   -4162.4779   -4672.3552            0    3510.4781    20.202161    20.105999     20.56307    8352.4027    3783.3346    1593.2355    5154.8641   -450.41734    7.4683017     542.7415   -3734.8623 
 8241000    254.09564   -4694.9774   -4204.9326   -4694.9774            0    4722.3705    20.017347    20.116804    20.808873    8379.4221    5613.7205     4674.072     3879.319    536.33039   -26.987651   -771.61463    -3627.834 
 8242000    264.36036   -4691.3573   -4181.5162   -4691.3573            0    3876.2895    19.880956    20.101543    21.188983    8467.9204    3442.8137    4879.7344    3306.3203    110.93967     880.7355    196.67894   -3702.8102 
 8243000    271.86746   -4682.4988   -4158.1795   -4682.4988            0    3640.9006    20.193063    19.912328    20.823035     8372.753    3830.7192    3742.5673    3349.4154    216.27951   -1670.5973   -14.581459   -3713.5964 
 8244000    258.90386   -4652.7148   -4153.3969   -4652.7148            0    5675.9674    20.094476     20.19035    20.556056    8339.8903    6196.8627    4798.5464    6032.4932   -207.41763    101.92588    2495.4235   -3463.0361 
 8245000    277.11064   -4668.4739   -4134.0427   -4668.4739            0    3457.6959     20.25472    20.026768    20.903697    8479.3042    2383.4525    3903.0109    4086.6243    -138.6154   -258.82471     861.1067   -3706.4573 
 8246000    275.24026   -4694.3259   -4163.5019   -4694.3259            0    3408.1467    20.055299    19.992497    20.903112    8381.2174    3532.0562    3405.3437    3287.0401   -112.69236    927.93978   -682.58484   -3746.9192 
 8247000    262.58366   -4689.1261   -4182.7114   -4689.1261            0    4062.5371    20.164423    19.897824    20.921629    8394.3466    4749.3399    3691.2252    3747.0464   -283.12463    336.07667    540.17438   -3685.3637 
 8248000    266.90264   -4660.5922    -4145.848   -4660.5922            0    4524.1558    19.879769    20.024101      21.0642    8385.1209    3352.9961    5180.4685    5039.0029   -605.52434    1162.6011   -14.624426   -3592.5963 
 8249000    254.02887   -4687.3749   -4197.4588   -4687.3749            0    4061.1241    20.081382    20.003298    20.804495    8357.0381    3637.2378    4955.8736    3590.2609    276.51415    959.36725    290.72226   -3702.4937 
 8250000    268.98689   -4651.5972   -4132.8334   -4651.5972            0    4717.6099    20.313017    20.033442    20.590308    8379.0129    1901.5111    7312.0324    4939.2863   -145.93819     269.5362   -1724.1573   -3556.3447 
Loop time of 358.5 on 64 procs for 250000 steps with 972 atoms

Performance: 120.502 ns/day, 0.199 hours/ns, 697.349 timesteps/s
193.4% CPU use with 32 MPI tasks x 2 OpenMP threads

MPI task timing breakdown:
Section |  min time  |  avg time  |  max time  |%varavg| %total
---------------------------------------------------------------
Pair    | 25.314     | 34.745     | 44.277     |  79.2 |  9.69
Bond    | 0.90641    | 1.1569     | 1.821      |  18.5 |  0.32
Kspace  | 151.84     | 161.32     | 170.5      |  36.8 | 45.00
Neigh   | 2.4128     | 2.611      | 2.8321     |   7.0 |  0.73
Comm    | 68.687     | 72.743     | 77.574     |  24.6 | 20.29
Output  | 0.46087    | 0.46118    | 0.46248    |   0.0 |  0.13
Modify  | 69.525     | 72.14      | 76.291     |  16.9 | 20.12
Other   |            | 13.32      |            |       |  3.72

Nlocal:        30.3750 ave          37 max          25 min
Histogram: 5 1 4 2 3 8 4 2 1 2
Nghost:        2584.66 ave        2611 max        2551 min
Histogram: 2 1 1 4 7 3 3 0 7 4
Neighs:        9401.69 ave       11326 max        7526 min
Histogram: 4 3 3 3 3 2 5 3 2 4

Total # of neighbors = 300854
Ave neighs/atom = 309.52058
Ave special neighs/atom = 2.0000000
Neighbor list builds = 8575
Dangerous builds = 0

unfix		3
unfix		2
unfix		1

write_data	data.final.${pid}
write_data	data.final.0
System init for write_data ...
PPPM initialization ...
  extracting TIP4P info from pair style
  using 12-bit tables for long-range coulomb (../kspace.cpp:340)
  G vector (1/distance) = 0.37104859
  grid = 24 24 24
  stencil order = 5
  estimated absolute RMS force accuracy = 0.0036524357
  estimated relative force accuracy = 1.0999201e-05
  using double precision FFTW3
  3d grid and FFT values/proc = 3211 432
Last active /omp style is kspace_style pppm/tip4p/omp
WARNING: Not all mixed pair coeffs generated from mixing. Use write_data with 'pair ij' option to store all pair coeffs. (../write_data.cpp:312)

write_restart   restart.lmp.${pid}
write_restart   restart.lmp.0
System init for write_restart ...
PPPM initialization ...
  extracting TIP4P info from pair style
  using 12-bit tables for long-range coulomb (../kspace.cpp:340)
  G vector (1/distance) = 0.37104859
  grid = 24 24 24
  stencil order = 5
  estimated absolute RMS force accuracy = 0.0036524357
  estimated relative force accuracy = 1.0999201e-05
  using double precision FFTW3
  3d grid and FFT values/proc = 3211 432
Last active /omp style is kspace_style pppm/tip4p/omp
Total wall time: 0:05:58
