#include		in.partitions
include		in.temp
variable        temperature equal 136.68
variable	tempDamp equal 100.0
include		in.pressure
variable        pressure equal 11418.8
variable        pressureDamp equal 1000.0 # This is 1 ps
include		in.seed
variable        seed equal 745823

units		real
atom_style	full
box tilt large
read_restart	restart.lmp.${pid}
read_restart	restart.lmp.0
Reading restart file ...
  restart file = 30 Jul 2021, LAMMPS = 30 Jul 2021
  restoring atom style full from restart
  triclinic box = (-10.528631 -9.0795237 0.23734475) to (12.508631 12.069522 21.622654) with tilt (-8.9860816 1.9581012 2.6450753)
  4 by 4 by 4 MPI processor grid
  restoring pair style lj/cut/tip4p/long/omp from restart
  restoring bond style harmonic/omp from restart
  restoring angle style harmonic/omp from restart
  1296 atoms
  864 bonds
  432 angles
Finding 1-2 1-3 1-4 neighbors ...
  special bond factors lj:    0        0        0       
  special bond factors coul:  0        0        0       
     2 = max # of 1-2 neighbors
     1 = max # of 1-3 neighbors
     1 = max # of 1-4 neighbors
     2 = max # of special neighbors
  special bonds CPU = 0.007 seconds
  read_restart CPU = 0.017 seconds
include 	in.setup
variable	out_freq equal 1000
variable	out_freq2 equal 10000
variable	out_freq3 equal 1000

timestep	2.0

neigh_modify    delay 7 every 1

include		in.tip4p
# This is TIP4P/Ice

# create groups ###
group ox type 2
432 atoms in group ox
group hy type 1
864 atoms in group hy

# set charges - beside manually ###
set group ox charge -1.1794
Setting atom values ...
  432 settings made for charge
set group hy charge 0.5897
Setting atom values ...
  864 settings made for charge

# ### TIP3P Potential Parameters ###
pair_style lj/cut/tip4p/long/omp 2 1 1 1 0.1577 8.5
pair_coeff 1 1*2 0.000 0.000
pair_coeff 2 2 0.21084 3.1668
bond_style  harmonic
bond_coeff  1 450 0.9572
angle_style harmonic
angle_coeff 1 55 104.52
kspace_style pppm/tip4p/omp 1.0e-5
pair_modify tail yes

thermo          ${out_freq}
thermo          1000
thermo_style    custom step temp pe etotal epair emol press lx ly lz vol pxx pyy pzz pxy pxz pyz enthalpy

restart 	${out_freq3} restart.lmp.${pid} restart2.lmp.${pid}
restart 	1000 restart.lmp.${pid} restart2.lmp.${pid}
restart 	1000 restart.lmp.0 restart2.lmp.${pid}
restart 	1000 restart.lmp.0 restart2.lmp.0


include         in.dump
dump            myDump all atom ${out_freq2} dump.water.${pid}
dump            myDump all atom 10000 dump.water.${pid}
dump            myDump all atom 10000 dump.water.0
dump            myDump2 all dcd ${out_freq2} dump.dcd
dump            myDump2 all dcd 10000 dump.dcd
dump_modify     myDump append yes
dump_modify     myDump2 append yes


variable natoms 	equal  "count(all)"                        # NUMBER ATOMS
variable H      	equal  "enthalpy/v_natoms"                 # ENTHALPY-per-atom
variable Vol      	equal  "vol/v_natoms"                 # volume-per-atom
fix AVG all 		ave/time ${out_freq} 1 ${out_freq} v_Vol v_H file vol_enthalpy.dat
fix AVG all 		ave/time 1000 1 ${out_freq} v_Vol v_H file vol_enthalpy.dat
fix AVG all 		ave/time 1000 1 1000 v_Vol v_H file vol_enthalpy.dat


timer           timeout 10:00:00 every 1000
New timer settings: style=normal  mode=nosync  timeout=10:00:00

fix 		1 all shake 1e-6 200 0 b 1 a 1
       0 = # of size 2 clusters
       0 = # of size 3 clusters
       0 = # of size 4 clusters
     432 = # of frozen angles
  find clusters CPU = 0.001 seconds
fix             2 all nph tri ${pressure} ${pressure} ${pressureDamp}
fix             2 all nph tri 11418.8 ${pressure} ${pressureDamp}
fix             2 all nph tri 11418.8 11418.8 ${pressureDamp}
fix             2 all nph tri 11418.8 11418.8 1000
fix             3 all temp/csvr ${temperature} ${temperature} ${tempDamp} ${seed}
fix             3 all temp/csvr 136.68 ${temperature} ${tempDamp} ${seed}
fix             3 all temp/csvr 136.68 136.68 ${tempDamp} ${seed}
fix             3 all temp/csvr 136.68 136.68 100 ${seed}
fix             3 all temp/csvr 136.68 136.68 100 745823


run             250000
PPPM initialization ...
  extracting TIP4P info from pair style
  using 12-bit tables for long-range coulomb (../kspace.cpp:340)
  G vector (1/distance) = 0.37149957
  grid = 30 36 32
  stencil order = 5
  estimated absolute RMS force accuracy = 0.0036917376
  estimated relative force accuracy = 1.1117558e-05
  using double precision FFTW3
  3d grid and FFT values/proc = 4896 600
Last active /omp style is kspace_style pppm/tip4p/omp
Neighbor list info ...
  update every 1 steps, delay 7 steps, check yes
  max neighbors/atom: 2000, page size: 100000
  master list distance cutoff = 10.8154
  ghost atom cutoff = 10.8154
  binsize = 5.4077, bins = 7 5 4
  1 neighbor lists, perpetual/occasional/extra = 1 0 0
  (1) pair lj/cut/tip4p/long/omp, perpetual
      attributes: half, newton on, omp
      pair build: half/bin/newton/tri/omp
      stencil: half/bin/3d/tri
      bin: standard
Per MPI rank memory allocation (min/avg/max) = 9.422 | 9.434 | 9.439 Mbytes
Step Temp PotEng TotEng E_pair E_mol Press Lx Ly Lz Volume Pxx Pyy Pzz Pxy Pxz Pyz Enthalpy 
37500000    139.77705   -6631.0521   -6271.4842   -6631.0521            0    11846.522    23.037263    21.149045    21.385309    10419.268    12785.737    11247.626    11506.203   -1026.8349   -851.65682    654.93049   -4471.3539 
37501000     133.3781   -6633.8321   -6290.7251   -6633.8321            0    12565.082    23.152785    21.093285    21.218818    10362.598    12100.403    13584.127    12010.718     201.7577    -286.3756   -1581.1917    -4391.791 
37502000    133.67362   -6641.4339   -6297.5666   -6641.4339            0    10654.484    23.031199    21.247988    21.320171    10433.381     10899.62    10482.531    10581.301   -848.83369    466.97847    392.65723   -4676.3787 
37503000     137.1755   -6654.1974   -6301.3218   -6654.1974            0    10795.626    23.132691    21.048322    21.420372    10429.672    10541.287    11678.304    10167.287   -467.81673    872.00063    147.09912   -4659.2416 
37504000    133.10518   -6647.8786   -6305.4736   -6647.8786            0    12112.684    23.182169    21.033718    21.235855    10354.756    12245.282    11982.916    12109.854   -52.702064    121.31242   -524.54318   -4476.2949 
37505000    135.60652   -6637.9194   -6289.0798   -6637.9194            0    12340.576    22.978062     21.20615    21.244457    10351.919     12536.97    13224.202    11260.556    1443.9181    -999.6657    -600.9807   -4425.9969 
37506000    138.14022   -6643.9143    -6288.557   -6643.9143            0    10273.295     23.04045    21.166374    21.387457    10430.294    10600.049    9706.6817    10513.153     493.3387    785.32751    367.06675   -4725.8333 
37507000    134.23523   -6655.3046   -6309.9926   -6655.3046            0    9367.8825    23.032792    21.344735    21.256992    10450.551    9255.5842    8803.5557    10044.508   -293.02865    695.98453     56.14557   -4882.2284 
37508000    136.44504   -6646.1477   -6295.1512   -6646.1477            0    10731.746    22.955839    21.219096    21.413492    10430.558    11410.696    11225.372    9559.1694    401.64138    85.885904   -1.3379818   -4662.6488 
37509000    148.35212   -6651.2829   -6269.6561   -6651.2829            0    11307.138    23.096251    21.118396    21.298867    10388.645    11272.618    11303.531    11345.265     564.8636    925.64554     756.8028   -4556.5373 
37510000    142.20653   -6664.4022   -6298.5846   -6664.4022            0    10659.005     22.97318    21.229061    21.389565     10431.67    10176.187    10812.141    10988.688    961.39801   -546.52638   -341.99075   -4676.9746 
37511000    135.95124   -6657.2691   -6307.5428   -6657.2691            0    9885.5729    23.116344    21.239841    21.293972    10455.073    10100.844     9387.649    10168.226    480.94606    466.56916    168.79718   -4800.2251 
37512000    147.42945   -6653.3865   -6274.1332   -6653.3865            0    11515.078    22.940435    21.170532    21.433938    10409.633    11289.343    12302.692    10953.201    211.52423    1381.3281   -367.32555   -4525.9852 
37513000    136.80595   -6641.5601   -6289.6351   -6641.5601            0    10597.825    23.040301    21.245337    21.346726      10449.2    11051.114    10313.114    10429.248   -616.25219   -389.47568    463.05704   -4674.6234 
37514000    138.02487   -6667.7584   -6312.6978   -6667.7584            0    10819.864    23.250522    20.991622    21.327968     10409.46    10673.292    11639.354    10146.944    2.9146665    925.52004   -882.54361   -4670.1203 
37515000    138.64978   -6646.7086   -6290.0405   -6646.7086            0    12228.241     23.05697    21.050246    21.380387    10377.075    13035.351    11644.571      12004.8   -967.93155    30.908919   0.57627804   -4439.4307 
37516000    136.41946   -6646.0171   -6295.0864   -6646.0171            0    11784.984    23.118373    21.094083    21.290241    10382.418    11161.199     12151.19    12042.561    431.04972   -261.29012    81.155662   -4510.6406 
37517000    135.14001   -6643.0014    -6295.362   -6643.0014            0    11431.881     22.97771    21.174031    21.408539    10415.912    11532.063     12266.03    10497.548   -465.10406    950.94651   -668.26706   -4558.7977 
37518000    130.47809   -6645.8151   -6310.1681   -6645.8151            0    12177.071    22.950184     21.36359    21.183895    10386.428    12333.026    11622.449    12575.738   -1209.8475    215.76017   -1021.7443   -4465.6415 
37519000    141.17843   -6667.0882   -6303.9153   -6667.0882            0    11105.309    23.138983    21.076265    21.356027    10414.979    10638.812    11062.223    11614.893     152.0905    646.56095    729.16316   -4617.1101 
37520000     136.2203   -6664.7942   -6314.3757   -6664.7942            0    9933.4081    23.049866    21.216297    21.371529    10451.379    10654.179    8602.7329    10543.313    372.29124   -514.04939    1013.9594   -4800.2994 
37521000      132.469   -6659.4281   -6318.6596   -6659.4281            0    10986.149    23.149939    21.135126    21.309153    10426.076    9750.4683    11311.022    11896.958    478.61683    316.43705   -830.76075   -4648.1758 
37522000    136.13235    -6639.483   -6289.2908    -6639.483            0    12368.867    23.090173     21.08528     21.31731    10378.604    12035.152    13265.981    11805.468   -981.76502    69.388489    220.16772    -4417.123 
37523000    136.46638   -6657.3985   -6306.3471   -6657.3985            0    11442.324    22.959131    21.209594    21.396968    10419.336    12727.148    10231.284    11368.541   -181.44024   -734.14145    369.50055   -4567.6249 
37524000    148.04378   -6630.4684   -6249.6348   -6630.4684            0    13245.753    22.994112    21.127224    21.340266    10367.139    13097.634    13919.985    12719.642    1904.9963   -447.61804   -31.847008   -4246.9553 
37525000    143.46595   -6640.8702   -6271.8128   -6640.8702            0    11831.048    23.022925    21.270038     21.23272    10397.631    11170.646    12383.153    11939.345    990.91426   -1188.1173    652.19665   -4477.7671 
37526000    140.67793   -6640.9338   -6279.0484   -6640.9338            0    11179.674    23.081072    21.078541    21.423896    10423.054    11224.582    10850.426    11464.014   -361.61129    697.32662   -208.23162   -4579.6312 
37527000    138.11264   -6642.2501   -6286.9638   -6642.2501            0    11708.567     23.06556    21.121409    21.342387    10397.523    11493.159    12489.487    11143.055   -675.12362   -785.20773   -730.19026   -4511.5094 
37528000    133.66737   -6657.2824   -6313.4313   -6657.2824            0    11148.135     23.16025    21.122142    21.272243    10406.255    11722.562    10738.156    10983.688    -194.8428   -906.86451   -617.07338   -4621.5394 
37529000    134.73121   -6653.5321   -6306.9443   -6653.5321            0    11992.964    23.012687    21.140709    21.332886    10378.545    12650.336    11850.858    11477.697   -240.09694   -178.67841   -556.02155   -4491.6841 
37530000    139.00411   -6627.9665   -6270.3869   -6627.9665            0    12298.318    22.949484    21.255788    21.270127    10375.767      12997.5    12387.154    11510.298   -553.46276    107.58382   -657.39515   -4409.4065 
37531000    140.59817   -6631.6449   -6269.9647   -6631.6449            0    12674.404    23.034511    21.137506    21.253103    10347.968    12965.902    12125.077    12932.232   -589.95081   -80.889576   -749.41289   -4357.2133 
37532000    143.36157   -6649.6653   -6280.8764   -6649.6653            0    12143.414    23.021011    21.112672    21.355014    10379.286    12504.521    11630.278    12295.443   -944.99376    761.53247   -670.73106   -4442.7128 
37533000     139.2065   -6659.7322   -6301.6319   -6659.7322            0    10032.843    23.158031    21.138143    21.360398    10456.294    9858.0887     10278.03    9962.4109    877.97693   -479.95729    397.45975   -4771.6802 
37534000    135.37865   -6644.9866   -6296.7332   -6644.9866            0    12037.347    23.074538    21.014907    21.408054    10380.964    11628.569    13096.712    11386.761     639.1125   -489.90402    140.75833   -4474.3304 
37535000    134.42817   -6664.4481   -6318.6398   -6664.4481            0    10018.715    23.079917    21.280855    21.287318    10455.487    9809.4236    9227.3205    11019.402   -414.54035    320.43793    611.57475   -4790.9606 
37536000    139.40038   -6672.2271   -6313.6281   -6672.2271            0    10326.451    23.041892    21.189128    21.391661    10444.213    9428.5099    11291.012    10259.832    907.33861    1177.4652   -13.452418   -4740.7223 
37537000    134.87204   -6634.0183   -6287.0682   -6634.0183            0      11695.1    22.954675    21.323005    21.212509    10382.731    12118.148    10935.581     12031.57    56.705709   -391.07366   -564.64011   -4516.1789 
37538000    137.77954   -6655.3037   -6300.8743   -6655.3037            0    10616.997     23.05714      21.2038    21.317685    10422.195    10149.204    10787.778    10914.009   -196.23872    818.00601     74.84425   -4687.1223 
37539000    135.55969   -6643.7637   -6295.0446   -6643.7637            0    11099.959    23.167052    21.034875    21.362867    10410.468     9574.966    12186.404    11538.505    432.78506    841.16847   -59.110168   -4609.7824 
37540000    137.24385   -6658.2544   -6305.2029   -6658.2544            0    11537.609    23.138258    21.183259    21.239683    10410.497    10309.243    10946.322    13357.262   -548.51207   -84.246952    671.09795    -4553.489 
37541000    135.46776   -6654.2282   -6305.7456   -6654.2282            0    11806.999    23.060703     21.03274    21.419047    10388.876    11254.981    12485.332    11680.685   -446.56206    304.39628   -879.87934   -4516.8542 
37542000    133.28925   -6648.7411   -6305.8626   -6648.7411            0    10368.544    23.013933    21.250791    21.337379     10435.35    9911.8339    10073.176    11120.623   -1191.4849    1340.8496    319.06754   -4727.8855 
37543000    137.05279   -6648.3006   -6295.7407   -6648.3006            0    10592.774     23.05667    21.218844    21.338422    10439.521    9973.9161    10639.136    11165.271    503.98885   -949.34208    190.56891   -4682.9938 
37544000    134.11084   -6641.5492   -6296.5573   -6641.5492            0    10573.458    23.038207    21.191821    21.361004    10428.903    10934.798    9945.9817    10839.594   -910.65307    1034.2874   -412.14501   -4688.3888 
37545000    127.32251   -6654.2273   -6326.6979   -6654.2273            0    11701.179    22.990924    21.273945    21.216979    10377.387    12393.714    11494.448    11215.374   -290.14351   -1309.1061    67.780528      -4555.8 
37546000    133.82574   -6633.5809   -6289.3223   -6633.5809            0    11252.676    23.131991    21.048257    21.370121    10404.857    11664.773    10490.763    11602.492   -917.82535    390.91609     -1637.84   -4581.7944 
37547000    135.46896   -6653.2569   -6304.7712   -6653.2569            0    11910.285    22.924231    21.372682     21.18213    10378.233    11559.092    11265.388    12906.375    332.97787    547.30186    875.19603   -4502.0794 
37548000    139.02707   -6644.5032   -6286.8646   -6644.5032            0    11483.312    22.892715    21.269768    21.372561    10406.786    11983.294    10661.367    11805.275    599.08631    224.59326    20.084714   -4544.0159 
37549000    138.51283   -6640.0359   -6283.7201   -6640.0359            0    11808.023    23.026307    21.176886    21.312169    10392.357    11535.655    12856.135    11032.279   -1173.5203    92.901987   -1873.6731   -4494.0742 
37550000    134.86271   -6633.3765   -6286.4504   -6633.3765            0    12655.221    23.037651    21.084807    21.349185    10370.248    13213.591    12088.316    12663.756    62.926047   -534.99559     58.37307    -4372.482 
37551000    138.97637   -6639.3504   -6281.8422   -6639.3504            0    11069.148    23.264591    21.016833    21.318735    10423.753    9713.2443    11481.348    12012.851     -34.2848      911.925    243.93301   -4599.1132 
37552000    134.86469   -6658.9952    -6312.064   -6658.9952            0    10952.726    23.060083    21.216953    21.271075    10407.186    9268.8717    12844.458    10744.848    694.50763   -145.09173   -1019.8654   -4649.6797 
37553000    134.87735   -6643.1302   -6296.1664   -6643.1302            0    12710.854    22.887241    21.173512    21.367854    10354.931    13563.654    13086.331    11482.577    349.15295    832.76044   -368.33015   -4376.6234 
37554000    136.96768   -6644.6178   -6292.2767   -6644.6178            0    10593.212    23.062497    21.217279    21.320686    10432.712    9857.5009    11082.197     10839.94    490.97246    758.23407   -320.85707   -4680.5152 
37555000    144.00004   -6659.5152   -6289.0838   -6659.5152            0    11382.366    22.991297     21.21355    21.316854    10396.806     11353.48    11203.049     11590.57   -198.44218   -782.26577    3.7531736   -4563.2127 
37556000    138.55542   -6631.8535   -6275.4282   -6631.8535            0    10734.477    23.214052    21.015867    21.338171    10410.113    10046.122    11068.193    11089.116     849.3827    834.17249     113.1067    -4645.711 
37557000    135.24161   -6641.1776   -6293.2768   -6641.1776            0    11823.468    22.969414    21.255674    21.288565    10393.724    12031.415    11695.978    11743.009   -1041.8102   -638.50835    229.54103   -4501.0542 
37558000    137.47678   -6648.6865   -6295.0358   -6648.6865            0    12524.079    23.064147    21.151634    21.242722    10363.143    12729.228    12620.838    12222.172   -154.50839   -118.67674   -850.84333   -4402.1989 
37559000    139.34366   -6655.7949   -6297.3418   -6655.7949            0    11015.046    23.088657    21.119947    21.361136    10416.357    9886.9992    11382.912    11775.227   -237.26906    670.85697    445.83551   -4624.0255 
37560000    136.32501   -6664.0772   -6313.3895   -6664.0772            0    12347.663    23.022305    21.183989    21.256886    10367.074    13015.337    11669.404    12358.248    448.97643   -460.52623    104.98412   -4446.5076 
37561000     139.4529   -6653.6067   -6294.8726   -6653.6067            0    11447.744     23.11503    21.137689    21.286594    10400.594    11353.432    11255.401      11734.4     850.1572   -719.19771   -189.42571   -4558.4558 
37562000    141.32694   -6653.8486   -6290.2937   -6653.8486            0    10971.521    22.953447    21.248391    21.362883    10419.187    11337.894    9248.7862    12327.885    1016.5639   -762.11829    1868.7573   -4623.1364 
37563000    139.75232   -6629.1835   -6269.6792   -6629.1835            0    11244.453    23.251377    21.044726    21.233942    10390.168    10525.792    10825.738    12381.828    637.34796    648.98609    375.87884   -4565.8079 
37564000    137.86769    -6659.114   -6304.4578    -6659.114            0    11308.942    23.069994    21.126098    21.373803    10417.142    10971.282    11614.733    11340.811   -222.86714    588.51195    500.59092   -4586.3657 
37565000     129.3949   -6652.0224   -6319.1619   -6652.0224            0    11680.366    23.047348    21.152356    21.283496    10375.826    11622.677    12255.777    11162.644    33.116331   -658.42589   -182.30088   -4551.6798 
37566000    143.85598   -6645.1739   -6275.1132   -6645.1739            0    11270.338    22.897571     21.24658    21.385688    10404.031    11547.014    11681.695    10582.305    293.77621    72.690741    409.31848   -4565.0408 
37567000    126.29554   -6645.8586    -6320.971   -6645.8586            0    10296.181    22.982671    21.337874    21.255351    10423.652    10662.556     8848.676    11377.312   -532.39083   -863.40717     1082.084   -4755.7632 
37568000    136.67335   -6664.6335   -6313.0496   -6664.6335            0    10595.409    22.926781    21.159633    21.466233    10413.748    11783.801    10214.751    9787.6747   -208.64955   -797.65067   -67.377364   -4703.8844 
37569000    130.40523   -6664.5153   -6329.0558   -6664.5153            0     10666.88    23.134481    21.138604    21.274286    10403.778    10210.706    10101.287    11688.646    359.29742     371.6157    241.77906    -4710.587 
37570000    140.16017    -6669.675   -6309.1215    -6669.675            0     10213.78    23.189713    21.132374    21.312014    10444.031    8986.2662    10594.159    11060.914   -38.761425   -254.13051     437.4495   -4753.4047 
37571000    139.25033   -6659.6673   -6301.4543   -6659.6673            0    10578.648    23.098512    21.117161     21.41319    10444.819     9825.341    10431.654    11478.948    523.82025   -148.45913    642.95399   -4690.0409 
37572000    141.76709   -6626.0057   -6261.3185   -6626.0057            0    12644.989    23.074475    21.228763    21.152206    10361.251    13128.981    11843.568    12962.418   -481.59126   -398.87599   -473.68415   -4350.5568 
37573000     130.3745   -6652.4613   -6317.0808   -6652.4613            0    10775.523    22.895591    21.291377    21.394422    10429.324    11875.716    10454.513    9996.3396    414.79827   -571.11546   -789.48927   -4678.1131 
37574000    135.09061   -6645.9097   -6298.3974   -6645.9097            0    11728.028    22.964091    21.225711    21.331116    10397.408    13474.162    11229.335    10480.586   -669.16576    -239.3518   -246.10573   -4520.0117 
37575000     137.2182     -6641.51   -6288.5245     -6641.51            0    12502.708    22.948916    21.229438    21.284187    10369.498    13410.036    11612.514    12485.574   -309.02879    18.726795   -580.60795   -4397.7589 
37576000    135.55653   -6643.1855   -6294.4746   -6643.1855            0    12376.126    23.108262    21.142972    21.202338    10358.982    10419.496    12959.507    13749.375    989.31175    168.43543    277.26398   -4424.7498 
37577000    132.61636   -6655.4883   -6314.3408   -6655.4883            0    10437.967    23.140481    21.043152    21.440239    10440.295    9803.3379    10729.668    10780.894   -523.57142    1149.9441    608.33508   -4725.0456 
37578000    143.09551   -6646.6673   -6278.5628   -6646.6673            0    11256.708    23.053169    21.204838    21.305561    10414.983    11060.015    10406.683    12303.427   -545.04517   -453.26123   -251.98391   -4568.7606 
37579000     128.6166   -6640.3463   -6309.4879   -6640.3463            0    11791.864    22.907013    21.237982    21.331302    10377.652    12616.079    11908.352    10851.162   -835.65435    495.71381    232.05663   -4524.8199 
37580000    144.27286   -6651.2095   -6280.0764   -6651.2095            0    10575.506    23.045706     21.14424     21.40666    10431.122    11085.641    9775.6381     10865.24   -495.79755    1715.0769    512.00579   -4671.2541 
37581000    133.82278   -6647.9191   -6303.6682   -6647.9191            0    12170.937    23.070758    21.175354    21.254657    10383.568    11301.207     13011.74    12199.865   -946.55126    715.37587   -702.81897   -4460.5782 
37582000    137.38668   -6658.9877   -6305.5688   -6658.9877            0    11581.498    23.014511     21.06925     21.44782    10400.016     12467.67    10876.366    11400.458   -380.96978   -1.5324197    64.699278   -4548.9618 
37583000     133.3311   -6646.9477   -6303.9616   -6646.9477            0     10671.54    23.053243    21.254893    21.301326    10437.526    10080.548    11014.773      10919.3    453.47022    310.41189     805.5214   -4679.5332 
37584000    141.27225   -6632.2489   -6268.8347   -6632.2489            0    11520.647    23.026706    21.198988    21.319478    10406.951     11157.49    11008.937    12395.515    407.09488    369.42983    49.611729   -4520.2919 
37585000    138.99408   -6661.0687   -6303.5149   -6661.0687            0    10919.189     23.04766    21.045027     21.45756    10407.746    11349.259    11790.135    9618.1719   -503.91248    818.51306   -51.886315   -4646.1317 
37586000    135.75195   -6660.9024   -6311.6888   -6660.9024            0    10710.725    23.129905    21.202267    21.280323    10436.007    10142.133    11219.075    10770.968   -266.26289   -508.16839   -979.29493   -4681.5329 
37587000    133.50592   -6658.0088    -6314.573   -6658.0088            0    11208.016    23.157062    20.998363    21.388051    10400.163    10458.935     11924.74    11240.372    306.67447    536.80499   -203.57653   -4614.5893 
37588000    142.97657   -6659.7474   -6291.9488   -6659.7474            0    11616.391    22.964515    21.179828    21.376058    10396.983    11935.878    11549.414    11363.882    260.79173    688.33329    1067.5738   -4530.5633 
37589000     133.3366   -6665.1752   -6322.1749   -6665.1752            0    11453.301    23.011477    21.217008    21.272574    10386.008    11032.264     11349.93    11977.711   -136.91965    463.45424   -627.34075   -4587.3516 
37590000    137.51676   -6660.8386   -6307.0851   -6660.8386            0    11772.783    23.007869    21.160027    21.345968    10392.223    11847.873    11394.805     12075.67   -654.77175    834.32747    25.583744   -4522.8032 
37591000    135.35434   -6667.5814   -6319.3906   -6667.5814            0    11023.784    23.044309    21.210909    21.318627    10420.347    10674.422    11233.159     11163.77   -1385.0585   -813.61688    285.40448   -4644.1053 
37592000    134.88832   -6644.1206   -6297.1287   -6644.1206            0    11344.393    23.210251    21.128385    21.221081    10406.714    10891.862    11344.899    11796.418    840.08334   -491.42022    567.31405   -4575.3759 
37593000    138.35981   -6656.3907   -6300.4685   -6656.3907            0    10889.928    23.058893    21.114516    21.402937    10420.606    11108.253      11304.2    10257.332   -315.35621   -1120.1167    371.40273   -4645.4842 
37594000    136.42185   -6641.9295   -6290.9926   -6641.9295            0    11585.051     23.07006     21.18937    21.262082    10393.757    11298.242    10812.227    12644.684    141.84321   -648.48792    661.10523   -4534.9041 
37595000    132.27469   -6668.6739   -6328.4053   -6668.6739            0    10769.369     23.04407    21.181065    21.404066    10447.281    10336.848    11057.193    10914.067    80.062616    1008.7495    833.79697   -4687.5533 
37596000    138.70446   -6633.4369   -6276.6281   -6633.4369            0    12570.885    22.909922    21.277827    21.306414    10386.309    13502.873    12219.808    11989.975   -554.02388   -268.97578    30.484084     -4372.47 
37597000    137.24401   -6650.4183   -6297.3664   -6650.4183            0    11665.338    23.113346    21.105817    21.297068    10389.265    10363.134    13214.542    11418.339    553.41443    224.84147   -203.26966    -4529.872 
37598000     132.9979   -6663.8964   -6321.7674   -6663.8964            0    11365.408    23.176353    21.022046     21.34328    10398.752    10524.288    12418.838    11153.097    766.21017    137.63124    826.18845   -4598.1449 
37599000    140.16569   -6651.7285   -6291.1608   -6651.7285            0    11321.644    23.114157    21.063708    21.333014    10386.402    10129.556    12388.714    11446.663   -227.29606    437.25353      45.7963   -4576.2146 
37600000    132.38778   -6647.9324   -6307.3729   -6647.9324            0    11546.299    23.090526    21.076677    21.330015    10380.712    11210.522    12343.124    11085.252   -759.95681    520.13255   -412.44488   -4559.3552 
37601000    130.15355   -6656.0993   -6321.2873   -6656.0993            0    10918.202    22.877691    21.246427    21.449911    10426.141    11596.791    11091.308    10066.508     1442.113   -68.186341    275.34717   -4661.1248 
37602000    137.86632   -6653.6468   -6298.9941   -6653.6468            0    12036.107    23.020224     21.26761    21.220248    10389.119    12264.633    11849.943    11993.744   -700.35925     1250.196   -187.91017   -4475.3477 
37603000    140.22008   -6647.6458   -6286.9382   -6647.6458            0    10850.946    22.943153    21.234991    21.444477    10447.699    11875.323    10479.509    10198.005    634.81743    319.45875    210.87597   -4633.5907 
37604000    137.69561   -6639.7521   -6285.5385   -6639.7521            0    12666.631    23.072783    21.122703    21.278565    10370.312    13262.283    11714.106    13023.505   -534.16143   -917.48249   -118.08426   -4369.8326 
37605000     137.6907   -6638.2469   -6284.0459   -6638.2469            0    12159.472    23.219539    20.978358    21.290299    10370.671    11043.731    12489.914    12944.773    -469.7886   -91.198967    343.62681   -4444.9793 
37606000    134.36298   -6650.1778   -6304.5372   -6650.1778            0    12549.527    23.053195    21.034342    21.368796    10361.917    12876.417    11315.052    13457.113   -58.992286  -0.63125326    832.67188   -4408.0786 
37607000    133.31217    -6647.212   -6304.2745    -6647.212            0     12078.66    22.985015    21.190204    21.323048    10385.543    11722.818    12354.615    12158.547    7.6559499    309.46898    331.69577   -4474.8106 
37608000    133.15166   -6643.0368   -6300.5123   -6643.0368            0    11588.294    22.844213    21.403342     21.25024    10390.145    10837.548    10603.157    13324.178     960.9027    1295.6035     104.9742   -4544.5426 
37609000    135.35787   -6656.3314   -6308.1315   -6656.3314            0    10771.081    22.907686    21.253435     21.38052     10409.47    11792.083    10076.309    10444.849     356.3751    527.99653    426.89269   -4672.9582 
37610000    135.30366   -6656.4563   -6308.3959   -6656.4563            0    11177.928    23.067577    21.213965    21.251884    10399.711    11369.153    11282.572     10882.06    642.66642   -978.49278   -39.108394   -4613.0494 
37611000    134.88958   -6646.3271   -6299.3318   -6646.3271            0    11371.556    23.104724    21.077643    21.403949    10423.575    10866.567     11134.42    12113.681    901.99474    240.52219    1071.2676   -4570.6603 
37612000    140.38468   -6654.0295   -6292.8985   -6654.0295            0    11740.209    23.261444     21.01952    21.242844     10386.57     10434.15    12631.831    12154.645   -47.539411   -565.51125    519.54143   -4514.5214 
37613000    134.74498   -6640.1897   -6293.5665   -6640.1897            0    11700.095    22.963796    21.252839    21.332244    10411.114    11353.168    12070.191    11676.925   -159.74192   -105.85095    79.714606   -4517.0778 
37614000    136.37563    -6635.258     -6284.44    -6635.258            0    11028.332    22.968497    21.210165    21.349094    10400.544    11358.903    11335.051    10391.041   -557.79302   -418.53458   -573.39815   -4611.6486 
37615000    136.59722   -6639.0162   -6287.6282   -6639.0162            0    12501.127    22.969853    21.231392    21.265834    10370.964    12152.742    12980.653    12369.986   -418.58843    549.13588   -794.74023   -4396.8344 
37616000    130.09952   -6658.5431   -6323.8701   -6658.5431            0    12054.377    22.986003    21.106296    21.419415    10391.616    13102.228    11805.074     11255.83   -188.58606   -632.28178   -126.27727   -4497.0165 
37617000    128.77869   -6652.9328   -6321.6575   -6652.9328            0      13159.5    23.100656     21.14355    21.142981    10326.864    12606.189    13269.672    13602.638    898.20057    182.74656    147.59672   -4339.7484 
37618000    132.76843   -6659.0585   -6317.5198   -6659.0585            0    10717.958    23.044561    21.151927    21.406763    10434.446    9705.5297    11992.798    10455.548    201.60127    461.69048    -160.8659   -4686.5072 
37619000    135.23537   -6650.0634   -6302.1787   -6650.0634            0    11190.464    23.159295    21.123425    21.244438    10392.856    11080.114    10422.444    12068.833    218.53496    1242.7734    739.00362   -4606.0496 
37620000    135.43888   -6662.5906   -6314.1823   -6662.5906            0     10427.65    23.010808    21.173804    21.436949    10444.646    11014.601    9566.4327    10701.916   -662.23825   -256.36831    213.77075   -4725.7962 
37621000    136.44815   -6654.5321   -6303.5276   -6654.5321            0    11188.241    23.072342    21.155615    21.322472    10407.703    10450.157    11288.649    11825.917   -201.56722    719.05529    497.96628   -4605.3129 
37622000    139.04858   -6635.0624   -6277.3684   -6635.0624            0    11500.197    23.100362    21.142192     21.28415    10395.015    11481.281     11412.37    11606.939    864.52415    206.95266    500.72074   -4533.9314 
37623000     130.8296   -6642.8433   -6306.2922   -6642.8433            0    11543.346    22.982936    21.167156    21.398525    10410.027    11689.252    10840.234    12100.551    41.560799    746.50145    139.89247   -4553.7865 
37624000    131.36854   -6628.6836   -6290.7461   -6628.6836            0    12172.385    23.147307    21.150292     21.19962    10378.747    11626.031    11634.789    13256.334    -360.2556      529.551    163.19953   -4448.2927 
37625000    135.32691   -6634.3872   -6286.2669   -6634.3872            0    11504.175    22.943583    21.170601    21.446178     10417.04    12716.234     12015.78    9780.5101   -1396.0159   -920.50897   -888.96076   -4538.5315 
37626000    141.32322   -6660.8813   -6297.3359   -6660.8813            0    12237.703    23.097989    21.127673    21.257929    10374.013    11290.885     12373.56    13048.664    939.78446    216.78157    1112.6365   -4445.8407 
37627000    131.17675   -6641.8779   -6304.4337   -6641.8779            0    11499.538    23.111212    21.119192    21.362173    10426.665    11127.814    11451.469    11919.329   -891.48741    213.47235    49.422507   -4555.7885 
37628000    133.95154   -6641.0497   -6296.4676   -6641.0497            0    11602.045    23.026587    21.264766    21.217894    10389.448    12012.008    11273.915     11520.21   -748.26544    489.21221    -117.3917   -4538.5323 
37629000    146.17359    -6659.319   -6283.2964    -6659.319            0    10593.623    22.874047    21.310388    21.412687    10437.718     10738.12    10549.922    10492.828   -241.32632     129.3543    137.45278   -4670.6989 
37630000    131.00353   -6655.7374   -6318.7388   -6655.7374            0    12652.994    22.995504    21.194623    21.238239    10351.115    13172.465    12573.787    12212.731    447.92086    689.88592   -148.24409   -4408.6379 
37631000    131.94299   -6657.5717   -6318.1564   -6657.5717            0    11319.151     23.02204    21.255924    21.233864    10390.892    12417.507    9832.6955    11707.249   -943.43536   -592.63013    374.92592   -4602.8466 
37632000    139.92398   -6637.3833   -6277.4374   -6637.3833            0    11428.074    23.193417     20.98929    21.345599    10391.322    10826.185    12634.589    10823.448   -349.76775    680.47466    198.92975   -4545.5496 
37633000    136.47231   -6646.0574   -6294.9907   -6646.0574            0    10950.934    23.179995    21.012433    21.431354    10438.529    10491.754     11748.52    10612.528    -884.0382   -1155.0082   -271.21738   -4627.8727 
37634000    131.89668   -6656.1286   -6316.8324   -6656.1286            0    11462.669    23.088295    21.153058     21.25671    10381.523    11869.928    10889.687    11628.393   -605.46232   -216.09412   -353.54738   -4581.3401 
37635000    129.54069   -6656.3397   -6323.1042   -6656.3397            0    10846.519    23.009342    21.262423    21.326375    10433.595    10995.098    10243.757    11300.701    242.89218    144.58182    -1101.086   -4672.6622 
37636000     136.1903   -6633.6035   -6283.2622   -6633.6035            0    11276.623    22.899399    21.396169     21.25395    10413.573    11159.411    10680.705    11989.754     47.99917   -224.99199    1156.0872    -4570.667 
37637000    133.08679   -6644.3467   -6301.9891   -6644.3467            0    12046.868    22.960514    21.234763     21.28969    10380.024    12459.718    11531.799    12149.086   -328.87524   -374.55774    740.70182   -4478.3101 
37638000    132.31742   -6660.6329   -6320.2544   -6660.6329            0    9807.2768    23.102191    21.149183    21.395044    10453.458    10520.001    9801.5301    9100.2994   -913.95672   -707.73938    -749.3321   -4825.1061 
37639000    135.26953   -6651.3744   -6303.4018   -6651.3744            0    11839.305    23.196482    20.969861    21.334171    10377.517    11874.231    12609.317    11034.368   -365.07001   -743.52148     464.2637   -4511.5769 
37640000    138.16391   -6651.2943    -6295.876   -6651.2943            0    12170.128    23.059609    21.130815    21.299356    10378.502     12779.87      12316.9    11413.613    261.19009   -204.50327    293.17726   -4453.8079 
37641000    138.42039   -6663.9346   -6307.8565   -6663.9346            0    12381.837    22.980327    21.138892    21.343936    10368.429    12504.224    12300.825    12340.462    1236.1647    -719.4193    26.161294   -4435.5631 
37642000    139.31757   -6656.1227   -6297.7367   -6656.1227            0     10812.08    22.908572    21.301357    21.334649     10410.96    11562.128    9937.6119      10936.5    325.07996    317.80392    33.902066   -4656.1042 
37643000    137.08454   -6655.0297   -6302.3881   -6655.0297            0    10553.618    23.046174    21.215346    21.294199    10411.427    10900.138    10103.795    10656.922   -326.47965   -689.66477    75.824671   -4699.9269 
37644000    133.55064   -6649.3775   -6305.8266   -6649.3775            0    11764.673    23.127752    21.032869     21.38071    10400.496    11236.463    12860.055      11197.5    139.96345   -858.83146   -38.006373   -4521.3544 
37645000    139.57196   -6640.9235   -6281.8831   -6640.9235            0    11123.261    23.229561    21.095659    21.270417    10423.417    9783.0077    11380.998    12205.777    89.434997     -67.8498    17.057187   -4590.9823 
37646000    135.64461   -6649.6871   -6300.7495   -6649.6871            0     11505.04    23.002186    21.232687    21.273994     10390.18    12219.506    10754.014      11541.6    342.23671   -902.22865    234.77747   -4557.3894 
37647000    132.87799   -6655.5699   -6313.7494   -6655.5699            0    11357.303    22.905687    21.261065    21.368848    10406.614    11563.569    11316.211     11192.13   -518.90051    299.07847   -413.30228   -4590.0539 
37648000    132.05352   -6661.9264   -6322.2268   -6661.9264            0    9879.8328    23.031253    21.312382    21.284343    10447.438    10025.316    8733.6748    10880.508   -727.96985    1079.6157   -456.58852   -4816.8844 
37649000    136.37166   -6633.4861   -6282.6784   -6633.4861            0    11966.212    23.009238    21.147695    21.400872      10413.5    12978.047    11509.094    11411.495   -1066.0011   -779.04996   -482.79119   -4465.3672 
37650000     130.6336   -6646.5862   -6310.5392   -6646.5862            0    10518.598    23.155861     21.09238    21.329444    10417.561    10496.834    10628.309     10430.65    74.380491   -342.95202   -151.11406   -4712.4545 
37651000    142.02544   -6649.8792   -6284.5274   -6649.8792            0      11624.2     23.13283    21.053208    21.338055    10392.066    11208.715     11794.49    11869.394    301.66193   -726.37849     1428.719   -4522.7914 
37652000    137.03913   -6667.1677   -6314.6429   -6667.1677            0    11415.174    23.056132    21.106181    21.400643    10414.128     10954.65     11968.09    11322.781    468.81845    574.61012   -654.92288   -4580.9134 
37653000    141.70635   -6644.8177   -6280.2867   -6644.8177            0    11438.092     22.97993    21.242533    21.285071    10390.348    11882.946    11696.857    10734.474    223.51165    -873.7239   -283.48104   -4547.0432 
37654000     130.2112   -6634.1687   -6299.2083   -6634.1687            0     11668.03    22.934451    21.228967    21.328889    10384.497    12906.114    11083.719    11014.256   -944.72819   -488.26823    393.48777   -4532.1175 
37655000    130.29355   -6655.3568   -6320.1845   -6655.3568            0    11291.644    22.983831    21.336407    21.270539     10430.91    11134.652    10966.068    11774.211   -197.36246   -235.91768   -1001.6731   -4602.4531 
37656000    134.24471   -6670.2036   -6324.8673   -6670.2036            0    12074.432    22.989574    21.148434    21.361837    10385.986    12242.754     11855.93    12124.611   -363.69715   -51.587596    165.99576   -4495.9658 
37657000    136.55512   -6661.9582   -6310.6785   -6661.9582            0    10833.576    23.306905    20.985436    21.297488     10416.72    9409.4287    12050.216    11041.084    343.61805    251.91676   -585.56413   -4664.8722 
37658000    134.60883    -6650.061    -6303.788    -6650.061            0    12604.096    23.123998    21.047275    21.294223    10363.837    11532.745    13807.651    12471.892   -859.97711   -194.80761    371.47506   -4398.7301 
37659000    142.88071   -6672.6279   -6305.0759   -6672.6279            0    10368.354    23.002381    21.218801    21.389768    10439.981    11553.225    9573.2427    9978.5955    110.23961    -634.8141   -658.27445   -4726.4275 
37660000     139.4435   -6653.1878   -6294.4779   -6653.1878            0    13282.783    23.059426    21.145767    21.167862    10321.645     12649.44    13518.244    13680.664    731.42044    64.756612   -976.76551   -4295.0124 
37661000    129.29208   -6646.6954   -6314.0994   -6646.6954            0    12373.733    22.936008    21.145616    21.403586    10380.654    12248.393    13056.479    11816.327   -667.29826    712.56649    319.96684   -4440.8252 
37662000    132.37899   -6634.6151   -6294.0782   -6634.6151            0    12066.399    23.071441     21.12585    21.290819    10377.226    12275.411    11629.922    12293.865   -388.60087   -288.30493    408.00312   -4467.9348 
37663000    141.48526   -6661.0308   -6297.0686   -6661.0308            0    11686.038     23.10728    21.144111    21.248679    10381.741    11685.103    11965.969    11407.042    231.88086   -1171.8357   -806.25509   -4527.7202 
37664000    134.94571   -6658.4749   -6311.3353   -6658.4749            0    10944.258    22.955381    21.258945    21.301923    10395.492    10845.389    9809.1754     12178.21   -230.51778   -347.25413    618.54188   -4652.1028 
37665000    134.34156   -6640.2622   -6294.6768   -6640.2622            0    12773.106    23.030161     21.13267    21.271577    10352.638    11970.051    13299.951    13049.316   -1220.0279    112.67385    221.51875   -4366.1601 
37666000    140.79908   -6641.4716   -6279.2746   -6641.4716            0    12703.947    23.122342    21.075844    21.283397    10371.886    12604.175    13065.493    12442.173   -189.35504    144.64454   -326.12007   -4357.6333 
37667000    137.41627   -6663.2481   -6309.7531   -6663.2481            0    10795.037    23.060784    21.208421    21.336449    10435.291    10889.507     10808.01    10687.596   -394.23501   -544.66467     726.4128   -4666.8778 
37668000    139.28845     -6648.31   -6289.9989     -6648.31            0    10175.834    23.139447    21.144503    21.357587    10449.671    10653.151    10333.844    9540.5054    83.629328   -413.59341   -211.99798   -4739.2248 
37669000     144.0084   -6633.5797   -6263.1269   -6633.5797            0    13082.442    22.885159    21.227221    21.304856    10349.651    12505.315    12890.552    13851.459    366.99565    280.61993    195.13133   -4288.4757 
37670000    137.74026   -6656.6534    -6302.325   -6656.6534            0    11395.079    23.027729    21.287445    21.217255    10400.731     12125.79    9895.4638    12163.983    180.87587   -1354.0109    1740.1679    -4573.874 
37671000    134.88479    -6642.643   -6295.6601    -6642.643            0    11601.953    23.070688    21.101497     21.37739    10407.071    12127.316    12334.802     10343.74   -793.80193    640.19047   -755.57645   -4534.7569 
37672000    138.83422   -6654.2242   -6297.0816   -6654.2242            0    11384.921    23.043537    21.145455    21.327197     10392.02     11489.71    11370.974    11294.078   -254.00869   -27.785187   -227.37773   -4571.6178 
37673000    133.56048   -6659.1815   -6315.6053   -6659.1815            0    10198.694    23.116954    21.134604    21.399607    10455.156    10534.163    10523.157    9538.7604    75.426827   -817.54373     536.1156   -4760.5317 
37674000    133.33157   -6654.8533   -6311.8659   -6654.8533            0    10823.695    23.117047    21.239519    21.199396    10408.796    10561.225    10351.514    11558.345    241.62125     206.5362     217.8422   -4668.8116 
37675000    134.69256    -6644.733   -6298.2446    -6644.733            0    10579.456    22.979301    21.208101    21.358834    10409.171    10383.185    10780.599    10574.583    1028.7359   -451.27623    373.32345   -4692.2083 
37676000    131.10304   -6652.0046     -6314.75   -6652.0046            0    10835.142    22.990449    21.262723    21.332431    10428.136    11898.484    9806.7024    10800.239   -487.00582    1220.3374   -945.12123   -4666.9019 
37677000    141.16649   -6635.7588   -6272.6166   -6635.7588            0    11989.757     22.99363    21.242184    21.263833    10385.998    11914.902    11681.797    12372.572   -722.62511    231.42832    657.12093   -4456.5385 
37678000    135.72528   -6640.0267   -6290.8817   -6640.0267            0    11991.478    23.114902    21.094787    21.309791    10390.738    11223.502    12592.941    12157.992    731.21632   -265.38164    -11.59524    -4473.714 
37679000    136.84294   -6654.9624   -6302.9422   -6654.9624            0    10761.654    23.063148     21.16994    21.334163    10416.308    10713.309     10664.61    10907.044    513.13685   -171.96793    399.77606   -4668.1268 
37680000    136.31277   -6641.4329   -6290.7766   -6641.4329            0    11339.545    23.001333    21.168698    21.325009    10383.323    12178.222    11012.789    10827.624   -976.61527   -32.363113    216.34034   -4573.6279 
37681000     133.8537   -6650.7137   -6306.3832   -6650.7137            0    10265.538    23.111822    21.107303     21.40409    10441.519    9537.7908    10810.929    10447.894    354.48171    376.20704   -596.38413   -4743.1589 
37682000    136.83061   -6638.4433   -6286.4549   -6638.4433            0    11462.956    23.008794    21.279298    21.231517    10395.184    10184.607    11990.118    12214.144    263.32832    441.09457    35.986098   -4548.6353 
37683000    137.90233   -6665.1546   -6310.4092   -6665.1546            0     11186.18    22.975445    21.316672    21.223044    10394.198    11991.546     10097.95    11469.044   -284.04372    512.52995   -262.89216   -4614.7105 
37684000    128.44339     -6644.83   -6314.4172     -6644.83            0     11061.73    23.025876    21.211129     21.33908     10422.11    11015.182    10947.413    11222.595   -612.88027    1269.5108   -1212.4503   -4633.0809 
37685000    141.01497   -6650.6508   -6287.8984   -6650.6508            0    11041.018    22.962798    21.228366    21.325214    10395.246    11600.459    10871.539    10651.055    29.116341   -195.40079    686.13527   -4614.0359 
37686000    135.80807    -6646.154    -6296.796    -6646.154            0    9729.6039    23.137461    21.106042    21.437869    10468.974    9377.8009    10732.552    9078.4592    291.34418     847.6494   -71.072644   -4811.2874 
37687000    128.05465   -6647.0974   -6317.6846   -6647.0974            0    12053.862     23.10928    21.139366    21.254423    10383.116    12135.102    11736.102     12290.38    251.20331   -794.61477   -4.8588056   -4492.4034 
37688000    141.28996   -6644.7424   -6281.2826   -6644.7424            0    12320.995    23.067365    21.095146    21.346181    10387.253    11800.522    12576.351    12586.111   -90.065673    374.11728    1050.6969   -4414.8068 
37689000    129.60583   -6657.0057   -6323.6026   -6657.0057            0    11120.884    23.031915    21.187676    21.361556    10424.285    11060.885    10559.002    11742.767   -278.16056   -138.77475    -126.6363   -4632.9223 
37690000    144.41681   -6631.3924   -6259.8889   -6631.3924            0    12637.181    23.014438    21.145598    21.280822    10356.398    13022.676    13073.639    11815.227   -568.78215    32.683526   -11.480104   -4351.2014 
37691000    139.42447   -6645.1587   -6286.4978   -6645.1587            0     11114.37    23.046559    21.157921     21.35829    10414.671    11099.376    11790.071    10453.664    1041.9117   -439.78428   -688.06251   -4598.3662 
37692000     136.8075   -6647.1706   -6295.2417   -6647.1706            0    10919.098    23.066815    21.248372    21.294512    10437.127    10721.639     10345.62    11690.035    860.76492   -1133.6226    568.51656   -4633.1935 
37693000    136.42722   -6657.0446   -6306.0939   -6657.0446            0    11403.612     23.05563    21.152435    21.301329     10388.29     10843.44    11286.323    12081.073   -153.73227    783.10022    505.85989   -4578.4176 
37694000    135.08928   -6646.4518   -6298.9429   -6646.4518            0    11088.471    23.140716     21.11844    21.316554    10417.311     10867.24    11571.049    10827.125   -35.098475    540.82342   -274.58701    -4614.318 
37695000    143.14946   -6657.0839   -6288.8406   -6657.0839            0    10922.071    23.121397    21.057414    21.386093    10412.393    11542.763     10713.92     10509.53   -349.90354   -259.29898   -61.635441   -4630.2796 
37696000    139.39387   -6666.7723     -6308.19   -6666.7723            0    11303.253    23.065068    21.130568    21.337074     10399.22     12505.14    10745.475    10659.145    610.13451   -226.62859    -391.2516   -4593.9166 
37697000    135.00708   -6646.0518   -6298.7543   -6646.0518            0    11602.197    22.944813    21.317494    21.292866    10414.893    11500.243    11208.361    12097.988    731.07394   -400.35558     83.66378   -4536.4904 
37698000    140.07857   -6642.1538   -6281.8102   -6642.1538            0    12671.813    22.964231    21.181422    21.336381    10378.337    13229.432    12635.462    12150.545    518.65309    228.90267   -584.90956   -4363.8374 
37699000    140.11774   -6650.1588   -6289.7145   -6650.1588            0    10948.774    23.054275    21.262098    21.239018     10410.99    10305.997    10614.224      11926.1     -640.169   -20.439934    171.90607   -4627.3227 
37700000     138.5572   -6664.8646   -6308.4346   -6664.8646            0    11414.344    23.023688    21.094192    21.416578    10401.305    11682.786    12068.335    10491.911    692.34082   -1132.6236    428.99931   -4576.9657 
37701000    143.07311   -6660.7373   -6292.6904   -6660.7373            0    11533.274     23.19512    21.029634    21.265325    10372.904    10990.063    11663.669    11946.089     995.5792   -517.20136    574.44872    -4547.958 
37702000    137.97992   -6658.5354   -6303.5904   -6658.5354            0    11362.576     23.03413    21.157028    21.376419     10417.45    10768.511    12323.826    10995.391   -480.01105   -808.35054    793.61557   -4577.2989 
37703000    127.92616   -6649.0475   -6319.9652   -6649.0475            0    12460.459    23.033716    21.093794    21.302207    10350.071    13185.997    13384.684    10810.697   -363.23591    770.94998    324.92852   -4439.1191 
37704000    135.21657   -6654.0547   -6306.2183   -6654.0547            0    10820.702    23.014767    21.293155    21.247978     10412.72      11699.9    9319.5991    11442.606      594.227   -669.22978    743.51249   -4662.9991 
37705000    134.02148   -6661.2314   -6316.4693   -6661.2314            0    10589.383    23.005756    21.265009    21.350338    10444.961    10266.216    11282.425    10219.507   -977.28409    918.72617   -897.39996   -4703.3987 
37706000    139.52051   -6662.6378   -6303.7298   -6662.6378            0    13127.532    23.082352    21.126449    21.149906    10313.712    13498.226    11832.299    14052.069    318.52787    424.84735    1648.7869   -4329.1533 
37707000    128.94923   -6650.5396   -6318.8256   -6650.5396            0    10942.663    23.069732    21.157178    21.336337    10414.062    11023.032    10784.598    11020.359   -699.26124    269.64179   -637.80261   -4656.8713 
37708000    137.75946   -6658.9408   -6304.5629   -6658.9408            0    10238.189    23.088051    21.207075    21.335999    10446.746    9677.2087    10317.176    10720.181    162.24348   -771.68685   -369.33688    -4744.723 
37709000    139.32206   -6640.3133   -6281.9158   -6640.3133            0    11807.812    22.977331    21.155782    21.339187    10373.051    11821.254    12128.624    11473.558    294.94588    374.22145    647.15368   -4495.6263 
37710000    132.92133   -6647.1673   -6305.2353   -6647.1673            0    11382.558    23.000375    21.176507     21.36649    10406.925    11528.464    11223.806    11395.404   -843.11092   -572.88259    533.15941   -4577.6552 
37711000    134.00266   -6640.6333   -6295.9197   -6640.6333            0    10314.208     23.17115    21.129086    21.331207    10443.443    9431.9478    10222.656    11288.021   -575.78482   -345.48503   -686.67674   -4724.9945 
37712000     136.6047   -6652.7622   -6301.3549   -6652.7622            0    12096.686    23.058923    21.117339    21.275371    10359.895     11688.04    11939.327     12662.69   -446.97284    -725.7631    1692.0562   -4473.6855 
37713000    135.75815   -6660.7675   -6311.5379   -6660.7675            0    9831.6059    23.086575    21.135653    21.405768    10444.941    9742.0624    10369.528    9383.2274   -446.43361    828.14117   -247.85958   -4813.9017 
37714000    138.99472   -6664.1457   -6306.5903   -6664.1457            0    10385.948     22.88372    21.302778    21.390777    10427.722    11087.086     9453.902    10616.856   -157.12674    473.92074    73.609154     -4727.12 
37715000     131.0512   -6665.2535   -6328.1323   -6665.2535            0    10419.421    23.010252    21.250562    21.344065    10436.837    9871.1464    10819.491    10567.624    621.92076    104.11262    96.889824   -4742.1864 
37716000    131.70965   -6646.6794   -6307.8643   -6646.6794            0    11045.315    23.105185    21.167622    21.339638    10436.829    12062.922    10340.673     10732.35   -938.11114   -633.35943   -773.18041   -4626.6521 
37717000    140.09882   -6657.9289   -6297.5332   -6657.9289            0    11478.216    23.110799    21.025539    21.364964    10381.599    10719.361    12671.504    11043.782   -43.784083    95.183426    154.89215   -4559.6743 
37718000    141.01667   -6654.8156   -6292.0588   -6654.8156            0    10402.902    23.190445    21.107839     21.29066    10421.782    9386.1893    10823.964    10998.553    622.16424   -238.60949    565.26039   -4710.9114 
37719000    133.25833   -6655.7599    -6312.961   -6655.7599            0    10616.262    23.034587    21.175913    21.415886    10446.207    10281.914    11881.123     9685.749   -41.839568    665.70586   -869.41999   -4695.6031 
37720000    132.13983   -6662.2834   -6322.3617   -6662.2834            0    11929.514    22.891011    21.381968    21.213719    10383.158    12531.592     10274.42    12982.531   -187.48486   -142.84278    1114.5353   -4515.9027 
37721000    135.04805   -6651.2718    -6303.869   -6651.2718            0    12052.762    22.942678    21.193353    21.346961    10379.582    12877.617    11257.162    12023.506    452.02352    564.72776   -520.84317   -4479.3755 
37722000    138.36426    -6669.251   -6313.3174    -6669.251            0    11036.715    23.022192    21.285625    21.233687    10405.393     10251.49    10107.092    12751.564    734.17391   -65.616097    316.23955    -4638.474 
37723000    137.41085   -6659.2274   -6305.7463   -6659.2274            0    12247.536    23.069005     20.97464     21.42175    10365.215    12713.391    12550.568     11478.65   -1036.3639   -1165.8176   -298.68529   -4454.3349 
37724000    140.49387   -6648.1616   -6286.7497   -6648.1616            0     11275.82     23.21543    21.025006    21.343139    10417.683     10109.75    12374.241    11343.469   -625.63105   -434.05125    218.01635   -4573.6006 
37725000    134.58279   -6659.1915   -6312.9855   -6659.1915            0    10786.647    23.098755     21.24051    21.253722      10427.7    10787.465    10515.121    11057.354   -169.23665   -229.70581   -434.35569   -4672.5814 
37726000    135.40352   -6653.1281   -6304.8108   -6653.1281            0     11458.25    22.962333    21.205442    21.348424    10395.112    11044.331     11272.78    12057.638    835.34869    192.33784   -289.23426   -4567.7167 
37727000    148.13243   -6654.6221   -6273.5605   -6654.6221            0    10405.118    22.925869    21.348993    21.332187    10440.915    10767.954    9699.7526    10747.646   -194.62646    1267.2618    191.35145   -4689.1728 
37728000    142.94917   -6645.8735   -6278.1455   -6645.8735            0     11295.21    22.944604    21.224672    21.363728    10403.958    11371.202    11516.143    10998.285    402.09712   -475.27687    -191.4692   -4564.3113 
37729000    136.30779   -6632.1149   -6281.4714   -6632.1149            0    12721.275    23.184611     20.99711    21.263844    10351.448    11993.091    13074.834    13095.899     734.7275    387.99508   -442.64492   -4361.0009 
37730000    141.92153   -6647.0124   -6281.9279   -6647.0124            0    11559.436    23.084419    21.061585    21.431156    10419.709    11039.774    12314.152    11324.381    618.29287    111.94705     272.6671   -4525.3472 
37731000    141.18733   -6642.8864   -6279.6906   -6642.8864            0    11686.633    23.134081    21.113377    21.266489    10387.373    11247.099     11021.61    12791.191   -708.94677    536.18248      236.775    -4509.292 
37732000    139.12125   -6650.6063   -6292.7253   -6650.6063            0    11889.721    22.993409    21.225425    21.275496    10383.397    12824.081    10878.026    11967.055    141.16685     -634.789   -360.60105   -4492.2508 
37733000    134.73413    -6652.764   -6306.1687    -6652.764            0    11830.057    22.805018    21.271694    21.402642    10382.451    12758.947    11960.238    10770.986    516.24244    -141.8465   -253.83046   -4514.8922 
37734000    132.74276   -6628.2501   -6286.7774   -6628.2501            0      13197.2    22.937514    21.243796    21.210362    10335.383    13847.519    11979.227    13764.854     490.1553   -162.85412   -681.00696   -4297.5509 
37735000      136.764   -6656.0006   -6304.1835   -6656.0006            0    11377.607    23.109829    21.132608    21.326765    10415.373    10393.406    12439.569    11299.845   -21.723489    962.77342   -62.177651   -4575.9532 
37736000    132.97889   -6652.6249   -6310.5448   -6652.6249            0    10269.736    23.181998    21.045267    21.401596    10441.225    9169.3686    11723.313    9916.5247   -228.96565   -589.92901    103.43108   -4746.7254 
37737000    131.08045   -6646.3884   -6309.1919   -6646.3884            0     12205.03    23.192472    20.999004    21.309801    10378.274    12611.958    12685.823    11317.311   -1230.1305    198.91198   -264.81387   -4461.8814 
37738000    137.71433   -6648.2637   -6294.0019   -6648.2637            0    9544.2445    23.211547    21.129027    21.366724     10479.04    9606.5745    9129.4417    9896.7173   -387.18999    -503.1302    746.29188   -4835.3927 
37739000    130.84721   -6639.2425    -6302.646   -6639.2425            0    11538.989    23.012512    21.233059    21.291861    10403.757    10674.519    11177.605    12764.843   -305.96745    496.66438    119.05096   -4551.8568 
37740000    140.39109   -6649.3245    -6288.177   -6649.3245            0    12167.582    22.817287    21.319818    21.319534    10371.109    12663.754    12268.126    11570.865   -382.17057    1052.6957   -1084.3617    -4447.806 
37741000    135.04455    -6658.529   -6311.1351    -6658.529            0    10648.503    22.986262    21.266993    21.284622    10404.959    10077.232    10783.951    11084.326    566.13208    847.53342     71.10252    -4695.271 
37742000    133.19358   -6652.7933   -6310.1609   -6652.7933            0    11434.889    23.039738    21.153163    21.338544    10399.624    11589.487    10675.459    12039.722   0.75858777    -657.6647   -54.450046   -4575.8559 
37743000    143.72543   -6663.8867   -6294.1618   -6663.8867            0    10776.305    23.280885    20.998145    21.290035    10407.749    10385.488    11562.035    10381.393   -199.75166   -184.83916   -453.91987   -4658.4658 
37744000    135.65785   -6652.9597   -6303.9881   -6652.9597            0    10921.299    23.103069     21.07579    21.383551    10411.981    10982.237    11379.014    10402.646   -834.64892   -10.998663    968.11839     -4645.61 
37745000    149.24264   -6658.3634   -6274.4458   -6658.3634            0    11825.245    23.119659    21.059291    21.356941    10398.345    11457.369    11473.126     12545.24    49.249238   -4.1723315    86.108311   -4481.1568 
37746000    134.55359   -6656.5535   -6310.4226   -6656.5535            0    10877.902     23.00975    21.263176    21.298218    10420.374    11225.824    10597.123    10810.758    475.62759    170.40478     320.6872   -4657.3029 
37747000    135.95418   -6650.3704   -6300.6365   -6650.3704            0    10662.311     22.93768    21.249741    21.386607    10424.255    10871.475    10381.776    10733.684    1032.4955   -49.713539     697.7823   -4679.6766 
37748000    135.71528   -6646.2016   -6297.0823   -6646.2016            0    11496.357    22.961441    21.297317    21.298989     10415.57    10894.712    12158.138    11436.222   -61.128751    965.75826   -697.47743    -4550.781 
37749000    131.65972   -6642.2913   -6303.6047   -6642.2913            0     13179.23     23.00254    21.236421    21.175606    10344.106    13966.386    12055.075    13516.229   -357.12269   -998.17901   -213.56759   -4315.4101 
37750000    140.39321   -6630.6413   -6269.4883   -6630.6413            0    12109.584    23.063595    21.011471    21.457328    10398.222    12419.081    12006.395    11903.275    379.22646   -88.377141   -301.99591   -4433.1013 
Loop time of 496.112 on 64 procs for 250000 steps with 1296 atoms

Performance: 87.077 ns/day, 0.276 hours/ns, 503.918 timesteps/s
99.2% CPU use with 64 MPI tasks x 1 OpenMP threads

MPI task timing breakdown:
Section |  min time  |  avg time  |  max time  |%varavg| %total
---------------------------------------------------------------
Pair    | 30.811     | 42.021     | 52.945     | 108.7 |  8.47
Bond    | 0.27882    | 0.28633    | 0.29496    |   0.6 |  0.06
Kspace  | 238.84     | 249.93     | 261.07     |  44.7 | 50.38
Neigh   | 1.8517     | 1.8863     | 1.9065     |   1.0 |  0.38
Comm    | 90.306     | 91.074     | 92.357     |   6.1 | 18.36
Output  | 0.57098    | 0.5728     | 0.57442    |   0.1 |  0.12
Modify  | 96.233     | 99.608     | 102.63     |  25.8 | 20.08
Other   |            | 10.73      |            |       |  2.16

Nlocal:        20.2500 ave          26 max          13 min
Histogram: 2 5 8 7 4 2 13 9 8 6
Nghost:        2677.59 ave        2706 max        2647 min
Histogram: 2 2 2 10 12 14 11 9 1 1
Neighs:        6719.20 ave        8698 max        4296 min
Histogram: 2 5 10 5 4 3 12 9 8 6

Total # of neighbors = 430029
Ave neighs/atom = 331.81250
Ave special neighs/atom = 2.0000000
Neighbor list builds = 3512
Dangerous builds = 0

unfix		3
unfix		2
unfix		1

write_data	data.final.${pid}
write_data	data.final.0
System init for write_data ...
PPPM initialization ...
  extracting TIP4P info from pair style
  using 12-bit tables for long-range coulomb (../kspace.cpp:340)
  G vector (1/distance) = 0.37211438
  grid = 30 36 32
  stencil order = 5
  estimated absolute RMS force accuracy = 0.0035752393
  estimated relative force accuracy = 1.0766727e-05
  using double precision FFTW3
  3d grid and FFT values/proc = 4896 600
Last active /omp style is kspace_style pppm/tip4p/omp
WARNING: Not all mixed pair coeffs generated from mixing. Use write_data with 'pair ij' option to store all pair coeffs. (../write_data.cpp:312)

write_restart   restart.lmp.${pid}
write_restart   restart.lmp.0
System init for write_restart ...
PPPM initialization ...
  extracting TIP4P info from pair style
  using 12-bit tables for long-range coulomb (../kspace.cpp:340)
  G vector (1/distance) = 0.37211438
  grid = 30 36 32
  stencil order = 5
  estimated absolute RMS force accuracy = 0.0035752393
  estimated relative force accuracy = 1.0766727e-05
  using double precision FFTW3
  3d grid and FFT values/proc = 4896 600
Last active /omp style is kspace_style pppm/tip4p/omp
Total wall time: 0:08:16
