#include		in.partitions
include		in.temp
variable        temperature equal 136.32
variable	tempDamp equal 100.0
include		in.pressure
variable        pressure equal 8918.8
variable        pressureDamp equal 1000.0 # This is 1 ps
include		in.seed
variable        seed equal 745823

units		real
atom_style	full
box tilt large
read_restart	restart.lmp.${pid}
read_restart	restart.lmp.0
Reading restart file ...
  restart file = 30 Jul 2021, LAMMPS = 30 Jul 2021
  restoring atom style full from restart
  triclinic box = (-10.548455 -9.1176593 0.19559035) to (12.528455 12.107657 21.664409) with tilt (-9.2484118 2.0395208 2.6600489)
  4 by 4 by 4 MPI processor grid
  restoring pair style lj/cut/tip4p/long/omp from restart
  restoring bond style harmonic/omp from restart
  restoring angle style harmonic/omp from restart
  1296 atoms
  864 bonds
  432 angles
Finding 1-2 1-3 1-4 neighbors ...
  special bond factors lj:    0        0        0       
  special bond factors coul:  0        0        0       
     2 = max # of 1-2 neighbors
     1 = max # of 1-3 neighbors
     1 = max # of 1-4 neighbors
     2 = max # of special neighbors
  special bonds CPU = 0.007 seconds
  read_restart CPU = 0.018 seconds
include 	in.setup
variable	out_freq equal 1000
variable	out_freq2 equal 10000
variable	out_freq3 equal 1000

timestep	2.0

neigh_modify    delay 7 every 1

include		in.tip4p
# This is TIP4P/Ice

# create groups ###
group ox type 2
432 atoms in group ox
group hy type 1
864 atoms in group hy

# set charges - beside manually ###
set group ox charge -1.1794
Setting atom values ...
  432 settings made for charge
set group hy charge 0.5897
Setting atom values ...
  864 settings made for charge

# ### TIP3P Potential Parameters ###
pair_style lj/cut/tip4p/long/omp 2 1 1 1 0.1577 8.5
pair_coeff 1 1*2 0.000 0.000
pair_coeff 2 2 0.21084 3.1668
bond_style  harmonic
bond_coeff  1 450 0.9572
angle_style harmonic
angle_coeff 1 55 104.52
kspace_style pppm/tip4p/omp 1.0e-5
pair_modify tail yes

thermo          ${out_freq}
thermo          1000
thermo_style    custom step temp pe etotal epair emol press lx ly lz vol pxx pyy pzz pxy pxz pyz enthalpy

restart 	${out_freq3} restart.lmp.${pid} restart2.lmp.${pid}
restart 	1000 restart.lmp.${pid} restart2.lmp.${pid}
restart 	1000 restart.lmp.0 restart2.lmp.${pid}
restart 	1000 restart.lmp.0 restart2.lmp.0


include         in.dump
dump            myDump all atom ${out_freq2} dump.water.${pid}
dump            myDump all atom 10000 dump.water.${pid}
dump            myDump all atom 10000 dump.water.0
dump            myDump2 all dcd ${out_freq2} dump.dcd
dump            myDump2 all dcd 10000 dump.dcd
dump_modify     myDump append yes
dump_modify     myDump2 append yes


variable natoms 	equal  "count(all)"                        # NUMBER ATOMS
variable H      	equal  "enthalpy/v_natoms"                 # ENTHALPY-per-atom
variable Vol      	equal  "vol/v_natoms"                 # volume-per-atom
fix AVG all 		ave/time ${out_freq} 1 ${out_freq} v_Vol v_H file vol_enthalpy.dat
fix AVG all 		ave/time 1000 1 ${out_freq} v_Vol v_H file vol_enthalpy.dat
fix AVG all 		ave/time 1000 1 1000 v_Vol v_H file vol_enthalpy.dat


timer           timeout 10:00:00 every 1000
New timer settings: style=normal  mode=nosync  timeout=10:00:00

fix 		1 all shake 1e-6 200 0 b 1 a 1
       0 = # of size 2 clusters
       0 = # of size 3 clusters
       0 = # of size 4 clusters
     432 = # of frozen angles
  find clusters CPU = 0.001 seconds
fix             2 all nph tri ${pressure} ${pressure} ${pressureDamp}
fix             2 all nph tri 8918.8 ${pressure} ${pressureDamp}
fix             2 all nph tri 8918.8 8918.8 ${pressureDamp}
fix             2 all nph tri 8918.8 8918.8 1000
fix             3 all temp/csvr ${temperature} ${temperature} ${tempDamp} ${seed}
fix             3 all temp/csvr 136.32 ${temperature} ${tempDamp} ${seed}
fix             3 all temp/csvr 136.32 136.32 ${tempDamp} ${seed}
fix             3 all temp/csvr 136.32 136.32 100 ${seed}
fix             3 all temp/csvr 136.32 136.32 100 745823


run             250000
PPPM initialization ...
  extracting TIP4P info from pair style
  using 12-bit tables for long-range coulomb (../kspace.cpp:340)
  G vector (1/distance) = 0.36899501
  grid = 30 40 32
  stencil order = 5
  estimated absolute RMS force accuracy = 0.0042019007
  estimated relative force accuracy = 1.2653899e-05
  using double precision FFTW3
  3d grid and FFT values/proc = 5168 640
Last active /omp style is kspace_style pppm/tip4p/omp
Neighbor list info ...
  update every 1 steps, delay 7 steps, check yes
  max neighbors/atom: 2000, page size: 100000
  master list distance cutoff = 10.8154
  ghost atom cutoff = 10.8154
  binsize = 5.4077, bins = 7 5 4
  1 neighbor lists, perpetual/occasional/extra = 1 0 0
  (1) pair lj/cut/tip4p/long/omp, perpetual
      attributes: half, newton on, omp
      pair build: half/bin/newton/tri/omp
      stencil: half/bin/3d/tri
      bin: standard
Per MPI rank memory allocation (min/avg/max) = 9.446 | 9.451 | 9.455 Mbytes
Step Temp PotEng TotEng E_pair E_mol Press Lx Ly Lz Volume Pxx Pyy Pzz Pxy Pxz Pyz Enthalpy 
27750000     142.1321   -6643.3919   -6277.7657   -6643.3919            0    9558.7641     23.07691    21.225317    21.468818    10515.743    9206.2191    10528.559    8941.5144    573.26386    389.12678   -102.01822    -4811.821 
27751000     134.5939   -6658.5305   -6312.2959   -6658.5305            0     8038.899    23.247641     21.23873    21.378099    10555.444    7667.8158    7440.9491    9007.9322    494.07614    589.30874    364.97197   -5074.7851 
27752000    138.57104   -6661.9823   -6305.5167   -6661.9823            0    8226.0334    23.127435    21.311773     21.33733    10516.885    8688.0027    7791.1801    8198.9174    48.939386    475.27532    694.44284   -5043.8243 
27753000    135.33541   -6651.8982   -6303.7561   -6651.8982            0    9572.3656     23.02894    21.231565    21.444523    10485.094    9192.7159    10772.542    8751.8387   -20.536295    736.70966   -458.72657    -4840.004 
27754000    131.78107   -6663.9384   -6324.9397   -6663.9384            0    9344.0613    23.011794    21.306961    21.414758      10499.9    9392.1341    8990.5415    9649.5084   -209.77057   -625.54291    790.15024   -4894.0811 
27755000    135.94714   -6662.6831   -6312.9673   -6662.6831            0    8059.0668    23.208253    21.197355      21.3963    10525.987    7580.9655    8536.9499     8059.285    145.48746     646.8699   -5.1420975   -5075.8142 
27756000    141.56259   -6657.2707   -6293.1096   -6657.2707            0    8866.4129    23.098951    21.181055    21.477922    10508.291    8172.9667    9297.5061    9128.7659    372.25099    389.80026    615.63311   -4934.3083 
27757000    136.50227   -6662.4269   -6311.2831   -6662.4269            0    9025.8522    23.091094    21.165533    21.478746    10497.422    9707.2034    9856.7767    7513.5766    299.06537   -555.23093    50.970648   -4929.4781 
27758000    141.47091   -6667.7577   -6303.8324   -6667.7577            0    9237.3908    23.068706    21.263737    21.416809    10505.521    10006.151    8717.0934    8988.9285   -1544.0698    699.92312    15.328342    -4888.551 
27759000    142.67919   -6651.5974   -6284.5639   -6651.5974            0    8935.8489    22.983062    21.309655    21.471012    10515.667    9409.2838    8548.8223    8849.4406   -148.78646     171.3845   -311.62667   -4914.1601 
27760000    140.61876   -6656.4304   -6294.6972   -6656.4304            0    8969.9684     23.11719    21.264187    21.361407    10500.589    8223.0731    9526.0038    9160.8282    1482.5466    110.73241   -15.516442   -4921.0334 
27761000    139.07875   -6668.3973   -6310.6257   -6668.3973            0    7996.7388    23.134656    21.196338    21.503858    10544.847    7903.3282    8034.0632    8052.8251   -278.15469    129.57233    217.33314    -5080.841 
27762000    133.58306   -6629.6629   -6286.0287   -6629.6629            0    7852.5058    23.231597    21.181175    21.444715    10552.355    7436.4486    9194.8146    6926.2543    269.37729   -584.78454    20.674321   -5077.5651 
27763000    138.59751   -6645.5399   -6289.0063   -6645.5399            0    9146.2217    23.250178    21.128363     21.36216    10493.909    9758.3684    8883.1622    8797.1344   -120.56414   -1441.2953    499.03116    -4889.242 
27764000    132.50921   -6668.7257   -6327.8539   -6668.7257            0    8777.4081    23.070243    21.152801     21.60942    10545.403    9124.6762    9174.1276    8033.4205   -242.36697    359.20216   -459.82521   -4977.9422 
27765000     137.1981   -6654.5015   -6301.5677   -6654.5015            0    9138.0099    23.079033    21.289069    21.386518    10507.862    9627.3191     9498.833    8287.8778   -468.52201    99.321123   -449.16857   -4901.2006 
27766000    135.56489   -6648.8486   -6300.1162   -6648.8486            0     9965.102    23.037742    21.189457     21.43759    10464.914    10827.239    9431.1388    9636.9287    358.02512    339.74701   -149.67403   -4779.2419 
27767000    140.94942   -6661.9901   -6299.4063   -6661.9901            0    10044.964    23.014301    21.186981    21.490229    10478.712    10622.735    10410.192    9101.9655   -736.19581   -497.00549    496.92489   -4764.3222 
27768000    133.81339   -6673.7864   -6329.5596   -6673.7864            0    7556.7111    23.290506    21.147153    21.393314    10536.804    6807.7261    8013.0713     7849.336     473.6531   -227.75952   -137.64568   -5168.3313 
27769000    135.74624   -6650.0276   -6300.8287   -6650.0276            0    10906.761    22.951814    21.189424    21.482896      10447.9     10868.61    11599.862    10251.813   -1059.7594    1475.2136    394.29007   -4638.9446 
27770000    134.99506   -6661.3404   -6314.0738   -6661.3404            0    8215.4702    23.097828    21.294417    21.375735    10513.758    9864.9942    6743.7309    8037.6855   -828.44676     718.0086    329.69965   -5054.3763 
27771000    129.49141   -6657.8445   -6324.7357   -6657.8445            0    8586.9554    23.090172    21.315882    21.386897    10526.361    8462.8436    8712.4969    8585.5256    563.43829    -100.5911    349.48231   -5006.4991 
27772000    136.37268   -6650.5691   -6299.7587   -6650.5691            0    9547.0885    22.972185    21.287052    21.449092    10488.823    9522.8418    9546.8205     9571.603    73.797018   -31.850005   -577.21191   -4839.3528 
27773000    138.81019    -6671.923   -6314.8422    -6671.923            0    8690.0802     23.14517    21.157545    21.452006    10504.939    8614.2789    8981.0805    8474.8811   -252.31544     382.3863    158.81577   -4983.4892 
27774000    149.95841    -6656.801   -6271.0422    -6656.801            0    8921.8537    23.205854    21.218661    21.374132    10524.561    8533.9121    8539.4626    9692.1865    609.86727   -1210.8255     581.7694   -4901.6275 
27775000    137.97449   -6636.5849   -6281.6539   -6636.5849            0    8562.1271    23.215402     21.00446    21.584884    10525.372    9611.6778    8009.7969    8064.9067   -1019.3107    469.56543   -163.17639   -4967.3524 
27776000    143.61723   -6658.6893   -6289.2427   -6658.6893            0    8178.7479    23.151921    21.245222    21.411984    10531.863    8198.2871    7486.5228    8851.4337   -345.07815   -156.20561    441.64444   -5033.0163 
27777000    137.19267    -6646.989   -6294.0693    -6646.989            0    9075.6484    23.040964    21.253026    21.481505    10519.283    9339.6578    8810.5182    9076.7693    676.95271    32.483895    82.571461   -4901.7473 
27778000    131.36322    -6657.392   -6319.4681    -6657.392            0    9184.5636    23.044417    21.321483     21.35527    10492.723    9410.1769    8982.7282    9160.7859     554.6767    -503.2631    643.48166   -4913.9948 
27779000    139.43026   -6677.2226   -6318.5467   -6677.2226            0     8557.233     23.02596    21.294963    21.444807    10515.182    8108.7233    8182.0598    9380.9157   -644.60332    1939.0706     458.7688   -5006.2682 
27780000    138.88475   -6638.0869   -6280.8143   -6638.0869            0    9220.3396    23.145904    21.182405    21.437745    10510.624    9707.8986    8756.4218    9196.6984   -472.22069   -278.39602    317.77785   -4867.4592 
27781000    140.12985   -6644.5569   -6284.0814   -6644.5569            0    9462.5537    23.178491    21.142016    21.424419    10498.823    9456.6426    10532.227    8398.7909   -896.66245   -485.59171    546.79662   -4835.2266 
27782000    142.81001    -6659.366    -6291.996    -6659.366            0    9547.2948    23.134153    21.139267    21.434895      10482.5    9803.9823    9517.3988    9320.5033   -394.30746   -495.67832   -691.51182   -4832.4389 
27783000    137.93532    -6659.421   -6304.5908    -6659.421            0     8944.982    23.075429    21.242068    21.422938    10500.878    9662.3919    8211.6277    8960.9265   -63.329668   -559.69226    229.30774   -4934.7157 
27784000    133.46201   -6650.9647   -6307.6418   -6650.9647            0    9547.9965     23.01232    21.328567     21.38836    10497.831    9209.3222    9911.8595    9522.8078   -157.50741     743.1021   -568.07977   -4845.8426 
27785000    134.47424   -6657.2163   -6311.2895   -6657.2163            0    9834.4387    22.995353    21.292412    21.366788    10461.747     10515.51    9489.1919    9498.6143    169.64095   -78.596507    666.51077   -4810.8114 
27786000    136.71098   -6669.1418   -6317.4612   -6669.1418            0    8820.8002    23.075208    21.185319    21.445394    10483.702    8074.8129    8586.7443    9800.8435    285.88385    967.81156    403.79432   -4968.8134 
27787000    140.24535   -6659.2202   -6298.4476   -6659.2202            0      8584.91    23.272359    21.045943    21.471696    10516.595    8059.7862    9064.6978    8630.2459    84.183779   -70.241084    526.47603   -4981.7478 
27788000    137.44246   -6655.7113   -6302.1489   -6655.7113            0    9166.5801     23.22955    21.107325    21.413263    10499.216    7995.7898    10019.741    9484.2091    442.81976    -78.71474   -155.03612   -4898.5595 
27789000    132.38323   -6647.1752   -6306.6274   -6647.1752            0    9180.0604    23.141776    21.189988    21.432341    10509.862    8727.8325     9249.881    9562.4679    796.00946    71.209733    1157.6646   -4899.5485 
27790000    131.28037   -6654.9356   -6317.2249   -6654.9356            0    8280.4181    23.124887    21.315441    21.368638    10532.969    6925.9779    8727.0146    9188.2616   -146.76885    427.06029    1041.7282   -5045.2488 
27791000    137.27296   -6670.5601   -6317.4338   -6670.5601            0    8567.2457    23.023034    21.328808    21.389724    10503.507     9412.893    7388.1801    8900.6641    194.24562    275.33549    384.40155   -5005.0785 
27792000    139.53183   -6671.3246   -6312.3874   -6671.3246            0    9131.7599    22.974292    21.403262    21.380205    10513.177    9779.4337    9065.4406    8550.4056   -637.87671   -441.63426   -182.15273   -4912.2704 
27793000    140.33326   -6659.7631   -6298.7644   -6659.7631            0    8778.2013     23.07693    21.319934    21.395136    10526.378    9365.3253    7697.4732    9271.8055    731.72547   -399.51697   -226.68062   -4951.1663 
27794000    141.87684   -6663.4717   -6298.5022   -6663.4717            0    9334.4307    23.106089    21.145615    21.465894    10488.074    9129.7289    8912.7023    9960.8608   -860.79985    895.97678    791.50725   -4870.7283 
27795000      129.038   -6684.5235   -6352.5811   -6684.5235            0     6926.912     23.28275    21.114745    21.492195    10565.763    6561.7588    6887.9045    7331.0728   -685.33085   -164.84917   -512.48582   -5285.2076 
27796000    133.16978   -6639.4221    -6296.851   -6639.4221            0     9729.501    23.239898    21.067787    21.449987    10502.198    9257.8375    9623.6664    10306.999    8.4886806   -313.24986    556.12051   -4806.6438 
27797000    133.55655   -6664.6319   -6321.0658   -6664.6319            0    8306.6102    23.154509    21.183567    21.453667    10522.918    7675.6912     8292.977    8951.1625   -216.52903    912.47806     1370.524   -5046.2838 
27798000    140.61611   -6659.2433   -6297.5169   -6659.2433            0    8879.1921    23.046657    21.308148    21.420438    10519.182    8119.4262    9794.0107    8724.1394    -126.1397    767.75032    22.853964   -4935.3468 
27799000    135.88296   -6641.5928   -6292.0422   -6641.5928            0     8343.331     23.08811    21.381226    21.343421    10536.225    8151.6124    8086.3275    8792.0529   -62.593831    737.76646   -778.41405   -5010.0057 
27800000    137.91892   -6656.0772   -6301.2892   -6656.0772            0    9422.9226    23.016443    21.200506    21.506635    10494.383    10001.593    9185.1764    9081.9984    299.02984    268.67997    981.88355   -4859.1127 
27801000    139.09788   -6657.2512   -6299.4304   -6657.2512            0    8057.2579    23.218223    21.251404    21.376374    10547.527    7228.7466    9054.3184    7888.7086     754.7818   -977.06746   -610.13315   -5060.0238 
27802000    135.07934   -6664.3076   -6316.8242   -6664.3076            0    9391.2538    23.229401    21.119855    21.376837     10487.51    8513.8204    9320.2723    10339.669    371.46031   -180.77813    78.291406   -4880.4359 
27803000    134.21029    -6661.033   -6315.7852    -6661.033            0    9416.3135    23.092083    21.196791    21.424871    10487.004    9530.4241    9384.7004    9333.8159    247.67457   -212.76955     794.9602   -4875.6335 
27804000    139.81651   -6656.8181   -6297.1487   -6656.8181            0    8756.3693    23.277823    21.202907    21.327326    10526.261    7398.5925    9592.1556    9278.3598    894.04018     218.4605   -761.68135   -4952.9171 
27805000     136.9488   -6649.7746   -6297.4822   -6649.7746            0    8967.7865    23.041982    21.250582    21.437249    10496.868    9048.4504    9350.5821    8504.3271    73.390185    -1009.853     -431.519   -4924.6392 
27806000    138.79406    -6640.431   -6283.3918    -6640.431            0    9845.0423      23.0321    21.160997    21.511328    10484.238    10845.334    9540.7093    9149.0833    883.29703    484.61688    -972.9869   -4778.0665 
27807000    136.60915   -6649.4363   -6298.0176   -6649.4363            0    9811.9977    23.097302    21.352387    21.214325    10462.535    9601.7422    9526.5826    10307.668    55.933439   -531.39452    282.97239   -4800.8506 
27808000    136.99383   -6654.4376   -6302.0293   -6654.4376            0    9787.4819    23.030843     21.25907    21.388536    10472.133    9975.8137    10238.266    9148.3665     310.6774   -236.75373    137.58936    -4807.233 
27809000    138.64991   -6662.5364    -6305.868   -6662.5364            0    8455.4243    23.121292    21.213336    21.472834     10531.99    9355.9275    8726.3112    7284.0343   -239.77343   -207.89896   -235.12778   -5007.1294 
27810000     128.6549   -6661.7959    -6330.839   -6661.7959            0    8357.6711    23.203529    21.242387    21.374834     10535.62    7193.2451    8097.0493    9782.7188   -653.18156    287.01866    1209.0418   -5046.6727 
27811000    131.57499    -6651.079   -6312.6104    -6651.079            0    8101.0175    23.249555    21.007784    21.597693     10548.78    7667.7567    9165.8374    7469.4585    1414.5646    722.58887    307.19618   -5066.3244 
27812000    136.39265   -6649.8292   -6298.9675   -6649.8292            0    8611.8129    23.090121    21.244549    21.470538    10532.141    8311.0445     9028.526    8495.8683   -151.86557   -560.13697   -847.05296   -4976.1889 
27813000    142.26109    -6641.516    -6275.558    -6641.516            0    9643.0585    23.064965    21.263725    21.366223    10479.002    10033.335    9232.6149    9663.2254    66.158669    602.48495    46.293421   -4801.8529 
27814000    136.71539   -6663.0256   -6311.3336   -6663.0256            0    9348.9607    23.017547    21.247343    21.459537    10495.038    10031.095    8569.5883    9446.1985    159.19447   -748.71271    317.45048   -4880.3876 
27815000    137.03281   -6679.7707   -6327.2621   -6679.7707            0    9240.0524    23.064632    21.300048    21.331702    10479.791    8286.7634    9412.0542     10021.34   -731.67032   -92.090375    847.69986   -4915.0402 
27816000    138.28509   -6645.0611   -6289.3311   -6645.0611            0    8978.5239    23.148941    21.169095    21.450654    10511.724    8981.4817    9123.2525    8830.8377   -210.61045    1385.8243   -338.42613    -4912.899 
27817000    134.99651   -6682.4202   -6335.1499   -6682.4202            0    8123.4969     23.14011     21.21428    21.480938    10545.009    7675.2677    9642.8877    7052.3354    209.46554   -1237.1078    167.46871   -5085.8524 
27818000    135.90412    -6664.959   -6315.3539    -6664.959            0     9531.051    23.293321    21.119518    21.322967      10489.7    7777.9609    10857.626    9957.5662    1131.2084    641.90039   -1012.7225   -4857.2794 
27819000    132.50987   -6670.0114   -6329.1378   -6670.0114            0    9027.0261    23.066641    21.171461    21.473215    10486.541    9167.7542    9494.5654    8418.7588   -153.99128   -280.23627    276.77662   -4948.5856 
27820000    136.52433   -6661.1312   -6309.9307   -6661.1312            0    9527.9848    23.005965    21.303885    21.389199    10483.198    10253.782    8621.7806    9708.3922   -538.27754   -351.63499   -797.22185   -4853.2286 
27821000     131.2425   -6642.6302   -6305.0169   -6642.6302            0    8316.0649    23.112203    21.296989    21.400838    10533.928    8204.5101    8330.8016     8412.883    1209.1941   -523.92708   -167.28195   -5027.4487 
27822000    144.75878     -6644.22   -6271.8368     -6644.22            0    9106.3021    23.056519    21.265359    21.402897    10493.951    9180.5158    8536.4324     9601.958    782.47729    -566.7095    747.00488   -4878.1764 
27823000    138.84692   -6679.4853     -6322.31   -6679.4853            0    8273.9864    23.219476    21.226387    21.359256    10527.242    8342.1672    7546.4858    8933.3063    115.86525   -573.49672   -708.86159   -5052.0129 
27824000    135.55644   -6661.6877    -6312.977   -6661.6877            0    8505.2856     23.10633    21.222926    21.471656    10529.355    7615.6297    9595.9161     8304.311   -459.22539   -318.87863   -169.60626   -5006.9068 
27825000    136.74354   -6654.3203   -6302.5559   -6654.3203            0    9345.7362    23.174598    21.140504    21.378534    10473.829     8656.554    9613.2822    9767.3724    1145.0718   -263.32951    393.38482   -4874.9942 
27826000    136.39883   -6667.7058   -6316.8282   -6667.7058            0    7731.0002    23.123814    21.191017    21.523235    10546.754    8164.5215    7421.0449    7607.4341   -199.79717   -134.77468   -89.288912   -5127.6952 
27827000     131.8331    -6649.699   -6310.5664    -6649.699            0    10285.611    23.087897    21.251964    21.316644    10459.292    9640.0536    10274.008    10942.773    252.18654    274.02667    158.78678   -4741.6194 
27828000    139.66313   -6642.3348   -6283.0599   -6642.3348            0    8800.8595    23.061895    21.233278    21.462875    10509.933    9757.0058    8000.8667    8644.7058    658.84311    477.78742    833.69264   -4934.0942 
27829000     132.6403   -6668.0492   -6326.8401   -6668.0492            0    7664.0837     23.07424    21.283338    21.480836    10549.171    8617.6541    7530.9187    6843.6781   -808.19744    462.59165   -302.70654   -5147.7297 
27830000    143.48028   -6650.4808   -6281.3865   -6650.4808            0    9104.4965    23.246965    21.167473    21.327142     10494.65    8812.7123    8988.8404    9511.9367   -414.97893    989.78539   -631.89431   -4887.9096 
27831000    129.39773   -6649.4593   -6316.5915   -6649.4593            0     9426.618    23.035622    21.230522    21.495622    10512.612    10319.953    9384.0432    8575.8581    318.88422    265.11566   -256.64581   -4871.3433 
27832000    142.92028   -6679.0352   -6311.3815   -6679.0352            0    8782.4427    23.125808     21.16388    21.453794     10500.17    9666.4189    8447.7367    8233.1725   -47.814077    304.37663   -132.58743   -4966.4891 
27833000    135.64604   -6659.1713   -6310.2301   -6659.1713            0    7518.6337    23.111434    21.331692    21.378708    10539.831    6613.9423    7765.4187    8176.5402   -40.644746    91.956863    456.62766   -5154.5211 
27834000     144.8252   -6646.8436   -6274.2896   -6646.8436            0    9314.2001    23.058064    21.181553    21.496355     10498.94    10028.464    8725.8494     9188.287    23.473911   -516.64036   -696.97925    -4848.134 
27835000     135.9101   -6661.2614   -6311.6409   -6661.2614            0    8816.2082    23.160624    21.149255    21.415244    10489.828    8062.5292    9217.7253      9168.37    973.22109    -64.60126    78.637445   -4962.9076 
27836000    136.11718   -6661.9764   -6311.8232   -6661.9764            0    9298.4328    23.109778    21.227379    21.371905    10484.202    9109.6411     9270.348    9515.3092   -509.91947   -126.78664    168.53107   -4890.0804 
27837000     134.5858   -6666.0076   -6319.7938   -6666.0076            0     9557.837    22.953061    21.271949    21.463606    10479.742    9629.8116    10191.131    8852.5687   -420.40082    22.691249   -890.30046   -4859.0095 
27838000    134.32335   -6641.7136   -6296.1749   -6641.7136            0    9864.2687      23.0775    21.295593    21.290017    10462.958    9345.1672    9326.4697    10921.169    1161.3745   -158.53363    1013.1266   -4790.9712 
27839000     128.2933   -6668.5167     -6338.49   -6668.5167            0    9066.9957    23.131951    21.192875    21.426134    10503.788    9958.2806    8150.2245    9092.4821   -461.00167   -264.38516    298.60381   -4949.5444 
27840000     136.5381     -6670.95    -6319.714     -6670.95            0    8169.1632     23.16018    21.143089    21.501053    10528.587    8709.7497    8304.7747    7492.9651    -255.2734    722.35968   -344.68949   -5065.3501 
27841000    133.60266   -6665.8969   -6322.2122   -6665.8969            0     9706.045    23.197682    21.199585    21.306926    10478.346    9352.2289    9856.0595    9909.8465    1941.3149   -795.86286    231.54803   -4838.9739 
27842000     137.3275   -6663.2646    -6309.998   -6663.2646            0    8458.1341    23.076708    21.264587    21.465609    10533.532    9248.3315    7823.2612    8302.8096    61.416959     27.00923    219.94607   -5010.6531 
27843000    136.21309   -6653.9145   -6303.5147   -6653.9145            0    9322.8482      22.8337    21.389045    21.463198    10482.434    10510.992    8125.9018    9331.6513   -230.96958    754.36093   -176.55671   -4878.2792 
27844000    141.78991   -6661.3045   -6296.5586   -6661.3045            0    9606.5376    23.045831    21.269295    21.340693    10460.537    8586.0529    10957.752    9275.8074    730.95367    576.60697   -983.29608   -4831.0218 
27845000    133.17438    -6678.639    -6336.056    -6678.639            0    8069.8522    23.120043    21.244491    21.455698    10538.471    7950.0172    8831.3335     7428.206   -320.59184    621.76054    172.72963   -5095.7779 
27846000    140.81855   -6655.0537   -6292.8065   -6655.0537            0    9317.7779    23.204537    21.055053      21.5129    10510.617    9107.5579    9529.4105    9316.3651   -97.669713    308.50515    331.47896   -4864.5164 
27847000    136.03909    -6661.199   -6311.2467    -6661.199            0    7946.3662    23.262668    21.186479    21.381184    10537.803    6611.7694    8764.8682    8462.4611   -513.58983    483.86133  0.032678954    -5090.025 
27848000     127.1495   -6664.7913   -6337.7069   -6664.7913            0    8662.3737    23.152426    21.172577    21.472208    10525.601    8289.9133    9689.5565    8007.6514    371.33355    413.32493   -53.977166   -5007.9884 
27849000    138.42773    -6661.455   -6305.3581    -6661.455            0    8256.8567    23.071333     21.32413    21.401299    10528.928    8149.9865    8072.1432    8548.4403    -78.44499    257.37728   -364.34938   -5037.4879 
27850000    136.43467   -6669.4139    -6318.444   -6669.4139            0    8762.0721    22.925657    21.340467     21.47409    10506.075    9501.4354    8423.4173    8361.3635   -236.27551     896.8725   -276.20545   -4975.9165 
27851000    136.29539   -6670.2769   -6319.6653   -6670.2769            0     10326.73    23.016807    21.254764    21.340331    10440.048    11122.424    9801.1696    10056.597   -549.10512    399.56491   -120.72472   -4747.3442 
27852000    130.86738   -6646.4942   -6309.8459   -6646.4942            0    8907.5383    23.201732    21.140528    21.409754    10501.418    7691.9554    9346.8553    9683.8044    983.19602     148.7391    67.435287    -4945.635 
27853000    137.30858   -6649.2289   -6296.0109   -6649.2289            0    8931.1498    23.234049    21.046682    21.487538    10507.398      8278.32      9556.92    8958.2095    149.35305    -639.4529    536.30973   -4927.4049 
27854000    140.27521   -6665.8911   -6305.0416   -6665.8911            0    9090.3527     23.23109    21.114817    21.417261      10505.6    8577.1128    8811.0757    9882.8697    204.12791    582.55087    238.45485   -4912.2778 
27855000    134.35783   -6648.5822   -6302.9548   -6648.5822            0    8809.9054    23.147438    21.260965    21.397036     10530.27    7788.6407    9666.4382    8974.6373    -601.2871   -352.13406    -113.1656   -4949.9895 
27856000    136.81264   -6665.5355   -6313.5934   -6665.5355            0    9245.7176    22.897189    21.408909    21.401175    10490.938    8392.8777    10061.067    9283.2077    899.46517   -248.46769    1.9235671   -4899.0025 
27857000     134.0908   -6665.0864    -6320.146   -6665.0864            0    7866.2398    22.979994    21.435195    21.392758    10537.659    8151.6309    6543.9264     8903.162   -269.25528    -216.0098    376.61404   -5111.2548 
27858000    131.95724    -6652.477   -6313.0251    -6652.477            0    9164.3896    23.046816    21.271888    21.453898    10517.758    9212.8774    10040.522     8239.769   -142.73208     102.8579   -676.22583   -4907.2928 
27859000    128.57074   -6649.6385   -6318.8981   -6649.6385            0     8971.453    23.172193    21.096442     21.49624    10508.455    9004.9337    8221.8382    9687.5871    160.58314   -224.25331    212.13407   -4943.9778 
27860000      131.302   -6653.8715   -6316.1051   -6653.8715            0    9036.1349    23.257877    21.113857    21.392536    10505.093    8992.3826    8956.7544    9159.2676   -1227.9586   -121.96323    254.10532   -4931.7149 
27861000    135.66342   -6655.0507   -6306.0648   -6655.0507            0    8288.4057    23.282011    21.037977    21.520364    10540.812    8519.0391    8755.7681    7590.4099    402.34419     157.5549    162.02873   -5031.9136 
27862000     140.1438   -6663.9516   -6303.4402   -6663.9516            0    9070.2012    23.119764    21.186012    21.444841    10504.018    8773.8666    9599.4969      8837.24   -445.36684   -119.75233   -682.11387   -4913.9732 
27863000    133.53443   -6645.0035   -6301.4943   -6645.0035            0    9826.6405    23.071117    21.321446    21.312384    10483.766    10212.425    9174.8233    10092.673   -603.86895   -80.129938    600.08796   -4799.0505 
27864000    141.54032   -6663.1173   -6299.0134   -6663.1173            0    8387.2232    22.814061    21.492202    21.447954    10516.455    8416.8188    6869.4976    9875.3533    1411.8085   -246.02391    732.09997   -5012.6506 
27865000    136.05686   -6661.2643   -6311.2663   -6661.2643            0    7966.5425     22.98765    21.434073    21.428816    10558.384    7936.0097    7515.0414    8448.5763    464.74214   -532.27833   -901.08085   -5084.5525 
27866000    129.67585   -6666.5996   -6333.0164   -6666.5996            0    8567.9049    23.088958    21.268553    21.412884    10515.198    7848.5359    9008.0459    8847.1329    427.73368   -270.09585    125.36892   -5019.0993 
27867000    126.00169   -6662.1824   -6338.0507   -6662.1824            0    9981.9607    23.125791    21.107194    21.437062     10463.87    10290.987    10561.645    9093.2501   -730.37117    408.14093   -692.57097   -4814.7555 
27868000    140.11048   -6680.1809   -6319.7552   -6680.1809            0    9205.1683    23.189522    21.099178    21.419802    10480.277    8717.3761     10100.98    8797.1484    -801.1292    394.84206   -908.86106   -4912.7996 
27869000    135.33681   -6656.9329   -6308.7872   -6656.9329            0    9103.2016    23.253558    21.132805    21.338029    10485.783    7185.6237    9912.2424    10211.739    1144.2217    59.913787    389.38051   -4916.6857 
27870000    134.94647   -6658.7447   -6311.6032   -6658.7447            0    9125.5339    23.145234    21.131836    21.434937    10483.855    9323.5873    9599.5248    8453.4897   -827.82296   -689.05841   -1003.2865    -4916.343 
27871000    133.46032   -6661.9108   -6318.5922   -6661.9108            0    8779.1506    23.049915    21.302812    21.449445    10532.278    8301.4655    8529.1937    9506.7928   -854.98946    725.74324   -415.79713    -4970.093 
27872000    139.51376   -6646.3486    -6287.458   -6646.3486            0    8634.8864      23.0203    21.347981    21.391755    10512.698    8596.7179    7873.8702     9434.071    842.08141    489.32655     136.0925   -4963.5838 
27873000    134.50117   -6661.0642   -6315.0681   -6661.0642            0    8728.3203    22.953036     21.38186    21.411954    10508.529    9064.4284    7836.5965     9283.936   -153.19819    267.79596    362.11581   -4977.3996 
27874000    139.16474   -6658.3221   -6300.3293   -6658.3221            0    9356.8776    23.154075    21.199328    21.349024    10479.186    8851.1073    9846.7042    9372.8215   -141.42086   -524.17149   -272.02286   -4870.3347 
27875000     138.2463   -6653.3416   -6297.7114   -6653.3416            0    8100.5615    23.294268    21.064936    21.481319    10540.717    8030.4009    8293.1117    7978.1719    629.86366    212.55523    805.70568   -5052.4481 
27876000    136.17604   -6660.3339   -6310.0294   -6660.3339            0    9199.6852    23.158668    21.165558     21.44078    10509.544    9073.6291    8822.9327    9702.4938    224.07455   -272.88028    198.82518   -4899.9851 
27877000    133.36844   -6654.3909   -6311.3087   -6654.3909            0     9556.652    23.121105    21.300915    21.307408    10493.913    8275.4605    9861.8246    10532.671   -412.57939    306.54377   -814.68592   -4848.7304 
27878000    136.86056   -6660.2508   -6308.1854   -6660.2508            0    8754.7348    22.970332    21.276326    21.499095     10507.13    9527.7551    9046.5224    7689.9268    751.10588    321.25001   -100.10504   -4966.6474 
27879000    144.83276   -6662.5586   -6289.9852   -6662.5586            0    8025.5532    23.035475    21.379177    21.409726    10543.851    8040.9373    7694.0889    8341.6335   -1117.5297    804.48751    201.27006   -5055.8858 
27880000    129.54947   -6664.8058   -6331.5477   -6664.8058            0    9009.1728    23.092704    21.292447    21.322637    10484.344    7551.2381    9808.5258    9667.7544    264.13531   -719.53553   -615.24036   -4954.0145 
27881000    129.89563   -6662.3505   -6328.2019   -6662.3505            0    8944.3269     23.04816    21.121989    21.557828    10494.846     10324.57    8382.7668    8125.6438    211.99534   -924.38818   -197.35011    -4959.214 
27882000    138.97847   -6637.5007   -6279.9871   -6637.5007            0     10502.98    23.184136    21.144227    21.294782    10438.928    9555.2126    10666.613    11287.115   -1020.9299     41.30312    12.343073   -4681.0023 
27883000    140.39879   -6663.6869   -6302.5195   -6663.6869            0     8567.508    23.205446    21.151463    21.412659    10509.956    7759.6768    9417.9006    8524.9466   -526.90733    305.64414   -384.46182   -4989.3182 
27884000    132.64891   -6670.0306   -6328.7993   -6670.0306            0    8628.9289     23.15422    21.102424    21.525202    10517.433    8889.5202    9437.7019    7559.5644   -359.11813   -865.39287   -107.22112   -5005.2427 
27885000    134.10474   -6680.1012    -6335.125   -6680.1012            0    7755.2356    23.244516    21.203801     21.37048    10532.913    7209.9862    8313.3027    7742.4178    645.32844   -644.28603   -391.12395   -5143.8298 
27886000    138.24524   -6647.5817   -6291.9543   -6647.5817            0    9219.2373    22.973597    21.267072    21.493075    10501.111     9957.333    8732.8115    8967.5673   -258.02605    438.38651    396.24467   -4880.0471 
27887000    132.41371   -6659.1011   -6318.4749   -6659.1011            0    8474.2761    23.077549    21.302847    21.421702    10531.284    8273.4199    8582.6834    8566.7251    337.97486    365.22872    379.60988    -5016.928 
27888000    129.14867   -6662.3581    -6330.131   -6662.3581            0    7295.2985    23.074219    21.381695     21.41989    10567.843    7520.7105     5669.803    8695.3821    337.13939   -143.06512    236.85883   -5205.7711 
27889000    132.61247   -6653.0825    -6311.945   -6653.0825            0    10035.749    22.904511    21.288499    21.488964    10478.076    11187.861    9090.9002    9828.4856    137.99163    371.29785    477.90823   -4778.3622 
27890000    134.24574   -6655.6482   -6310.3092   -6655.6482            0       8807.7    23.101779    21.288514    21.347645    10498.826    8648.6767    8443.9793    9330.4438    418.26507   -44.843523    148.02186   -4961.7216 
27891000    135.58976   -6672.4073   -6323.6109   -6672.4073            0    8624.6497    23.251607    21.170945    21.374569    10521.813    7476.8198    9063.2779    9333.8514    1585.5194   -755.28749    82.270868   -5000.1597 
27892000    136.90328   -6656.9538   -6304.7784   -6656.9538            0    9730.2009    23.171084    21.071298    21.479187    10487.102    9447.7851    10634.904    9107.9132   -702.45509    -708.3563   -454.57229   -4816.6062 
27893000     136.3368   -6651.1634   -6300.4453   -6651.1634            0    9946.5857    23.163424    21.132028    21.387377    10468.909    9831.2748    9711.3875    10297.095   -761.00899   -226.89788    111.85222   -4781.8174 
27894000    134.27986   -6657.1492   -6311.7224   -6657.1492            0    8816.7856    23.119084     21.26298    21.393797    10516.776    9199.0327    9148.8829    8102.4412   -707.46982    71.941314   -931.97894   -4959.4356 
27895000    134.32641   -6630.4746   -6284.9281   -6630.4746            0    9658.2272    23.128807    21.243426    21.323005    10476.741    8587.3062    9827.4978    10559.878    106.48738    1469.7544    246.09228   -4809.2232 
27896000    134.70983   -6661.8381   -6315.3052   -6661.8381            0    9164.3599     23.07548     21.18608    21.470277    10496.367    9201.5263    9620.3407    8671.2129   -1121.9825   -577.30581    40.746804   -4912.4365 
27897000    137.60264   -6681.4843   -6327.5099   -6681.4843            0    8492.2985    23.137116    21.257436    21.407623    10529.035    8572.0058    8830.5985    8074.2911   -121.41654   -904.47694   -939.04241   -5023.4735 
27898000    138.32994   -6680.9201   -6325.0748   -6680.9201            0    8350.7062    23.196012    21.163337     21.41147    10510.998    7703.2338    8754.5686    8594.3162    345.60075    156.26966    947.33507   -5044.9773 
27899000    137.38934   -6647.2989   -6293.8732   -6647.2989            0     9305.509    23.069054    21.242771    21.459932    10516.453     9240.869    9347.0275    9328.6305   -156.37893    -62.90089   -241.40705   -4866.6716 
27900000    137.42076   -6675.1523   -6321.6458   -6675.1523            0    7837.7988    23.002254    21.350116    21.490062    10553.786    9089.2237    6840.6981    7583.4746    85.517057   -424.05433   -1691.8127    -5115.282 
27901000    141.06633   -6658.7601   -6295.8756   -6658.7601            0    8027.8292    23.108298    21.362503    21.356515    10542.667    7444.8541    7855.2658    8783.3676   -129.61579    1028.3524    508.46706   -5061.5649 
27902000    132.46376   -6666.9317   -6326.1768   -6666.9317            0    8476.7761    23.004674    21.219524    21.575697    10532.138    8178.0514    9433.6703    7818.6066    740.25273     543.3472   -216.70268   -5024.1403 
27903000    141.10645   -6654.8564   -6291.8686   -6654.8564            0    8677.9025    23.156393    21.198038    21.402318    10505.758    8978.7393    8692.0541    8362.9142    80.501497   -860.84318    426.33854   -4962.2777 
27904000    132.69283   -6648.4532   -6307.1089   -6648.4532            0    8891.0983    23.220773    21.198484    21.338757      10503.9    7615.0665    9244.6439    9813.5846   -668.84782    1278.3436    692.72577    -4945.094 
27905000    132.98384   -6659.8135   -6317.7207   -6659.8135            0    10348.388    23.085945    21.061621    21.503076    10455.385    11262.041    11152.612    8630.5112   -76.161157   -426.62172    572.66551   -4739.7874 
27906000    124.08318   -6652.5543   -6333.3579   -6652.5543            0    10085.349    23.066634    21.246119    21.359959    10468.013    9945.6964    9367.6715    10942.678   -211.14624   -149.91952    -278.5658   -4793.6758 
27907000    132.90567   -6661.9692   -6320.0775   -6661.9692            0    8281.5711    23.101228    21.370305    21.303022    10516.882    8255.3108    8068.2574    8521.1451    469.96306    355.93783    54.135335   -5049.8672 
27908000    136.36515   -6664.7079   -6313.9169   -6664.7079            0    10148.404     22.96566    21.210173    21.468199     10457.28    10598.061    10644.314    9202.8371   -198.67795    534.53551   -1144.2161    -4766.197 
27909000    138.90913   -6665.8192   -6308.4839   -6665.8192            0     8657.023    23.093911    21.297746    21.363145    10507.425    8636.6122    8316.4064    9018.0504    38.228991   -788.34341   -131.50927   -4981.8816 
27910000    139.19786   -6672.3659   -6314.2879   -6672.3659            0    8991.6187    23.190777    21.043431    21.499598    10492.094    8863.6415    9343.1735    8768.0412    210.42777    75.098197    125.85493   -4938.4225 
27911000    133.63559   -6668.2471   -6324.4776   -6668.2471            0    8914.2193    23.201962    21.034713    21.497174    10491.623    8142.5916    10113.328     8486.738    560.65352   -969.44461   -348.96892   -4960.5168 
27912000    134.66289   -6651.0732   -6304.6611   -6651.0732            0    9656.0517    23.222175    21.160921    21.335709    10484.423    8248.5276    10204.543    10515.085    283.26785   -301.81181    63.407765   -4828.2067 
27913000    135.88885   -6657.4186   -6307.8528   -6657.4186            0     9389.949    23.047687    21.107534     21.54314    10480.303    9954.7484    9690.2467    8524.8518    888.79697   -472.89532    571.99309    -4872.651 
27914000    133.74245   -6672.8403    -6328.796   -6672.8403            0    8544.9798    23.177993    21.201565    21.417511    10524.773    8812.8424    7415.7418    9406.3553     482.2833   -148.31007    861.15086   -5017.2013 
27915000    138.44641   -6663.0333   -6306.8883   -6663.0333            0    9355.0955    23.037662    21.312259     21.37796    10496.249    9310.9444    10507.302    8247.0403    888.78642   -665.02492   -1293.1154   -4874.8381 
27916000     136.9328   -6642.8564   -6290.6052   -6642.8564            0    9371.0212    22.971378    21.266464    21.485013    10495.858    10651.893    9055.4865    8405.6843   -346.29164    792.78687   -444.83086   -4856.1706 
27917000    134.44523   -6662.6545   -6316.8024   -6662.6545            0    8705.9513     23.03316    21.357091    21.388542    10521.479    10116.002    7062.7933     8939.059    320.59567   -665.46093    53.766536   -4980.9179 
27918000    139.42339   -6648.9359   -6290.2777   -6648.9359            0    9185.8422    23.068937    21.373509    21.297939     10501.25    9204.0545     8410.665    9942.8071    417.06922   -108.73984   -811.95169   -4883.4664 
27919000    142.45647   -6644.5588   -6278.0982   -6644.5588            0    9720.0619    23.146099    21.141606    21.427302    10485.358    9915.2563     10077.52    9167.4092   -1146.2328    911.79327    -465.4382   -4791.7238 
27920000    134.32232   -6659.9608   -6314.4249   -6659.9608            0    8123.6522    23.194811    21.179054    21.455365    10539.823    8299.8449     8584.006    7487.1055   -314.55408   -367.32644   -438.32514   -5065.7179 
27921000    132.01663   -6652.4292   -6312.8245   -6652.4292            0     8693.956    23.291018    21.103842    21.429574    10533.278    9478.3723    8282.4755    8321.0201   -1253.2294   -273.03187   -141.57897   -4977.2846 
27922000    134.42158   -6647.8408   -6302.0495   -6647.8408            0    9556.2157    23.152251    21.126061    21.412652    10473.268    9273.2313    9722.2198    9673.1961   -257.39328    329.78326    178.10629   -4842.4153 
27923000    132.32298   -6662.3761   -6321.9833   -6662.3761            0    9111.3915    23.142226    21.233089    21.354428    10493.159    8563.2897    10271.643    8499.2419   -811.90283    209.43373   -350.11822   -4927.6492 
27924000     131.5499   -6665.7237   -6327.3196   -6665.7237            0    8383.2999    23.057108    21.292868      21.4859    10548.545    9438.2763    7549.0709    8162.5526    639.49764   -60.506146    452.13669   -5037.6353 
27925000    136.27002   -6649.6157   -6299.0694   -6649.6157            0    9898.8992     22.92936    21.306918    21.401469    10455.773    11217.398    8982.3696    9496.9297    1141.7671   -970.61811    35.299218   -4789.6186 
27926000    128.32397    -6659.555   -6329.4494    -6659.555            0    7886.2563     23.13074    21.310696    21.415146    10556.214    7194.3914    7755.9274      8708.45   -585.76541    282.87418    76.425916    -5115.348 
27927000    135.06964   -6639.8153   -6292.3569   -6639.8153            0     8018.634    23.082828    21.228857    21.571033    10570.282    7496.6029    8418.6214    8140.6778    1130.6009   -29.214528    1042.0702   -5056.2306 
27928000     137.7535   -6652.5148   -6298.1523   -6652.5148            0    9205.1535    23.244664    21.137871    21.342447    10486.455    8262.0033    10531.937    8821.5204    130.53858   -496.89952    25.751368   -4890.3696 
27929000    134.90821   -6658.9335   -6311.8903   -6658.9335            0    8774.3489    23.190837    21.141231    21.457849    10520.415    8014.5562    9721.1238    8587.3668   -603.42076    884.29569    155.96578   -4965.6467 
27930000    132.93275   -6653.0588   -6311.0973   -6653.0588            0    7565.9551    23.195936    21.159231    21.509209    10556.896    7768.8455    7572.5251    7356.4948   -1949.6437    827.50466    812.40261   -5146.2316 
27931000    132.52014   -6650.0315   -6309.1315   -6650.0315            0    10033.927    23.111358    21.242141     21.32324    10468.319    10388.457    9116.5852    10596.738    741.28066   -888.74296    551.14561    -4777.255 
27932000     140.5315   -6661.0851   -6299.5764   -6661.0851            0    9182.9549    23.038618    21.254065    21.455798    10506.138    9204.3484    8297.8335    10046.683    618.94544   -808.76127    651.38766   -4892.5526 
27933000    136.04923   -6673.1879   -6323.2095   -6673.1879            0    8511.0471    23.002739    21.328469    21.409747    10503.904    8553.0204    8642.6283    8337.4926   -120.78651    -657.6759    220.88919   -5019.4135 
27934000    131.93048   -6652.3657   -6312.9825   -6652.3657            0    9483.6654     23.00128    21.422946    21.283868    10487.737    9841.7012    7926.8115    10682.483   -217.97537    710.76536   -80.528998   -4862.4286 
27935000    136.33189   -6644.5244   -6293.8189   -6644.5244            0     9473.306    23.102707    21.151983      21.4463    10480.122     10515.45    9038.1103     8866.358     -266.271    -338.5324   -181.93175   -4845.9015 
27936000    138.66671   -6653.0838   -6296.3721   -6653.0838            0    9484.0915     23.26616    21.098172    21.394919    10502.197    8185.4543    10108.496    10158.325   -290.91779    506.96207   -803.92426   -4843.7529 
27937000    130.77264   -6668.1338   -6331.7291   -6668.1338            0    8645.1328    23.068937    21.144564    21.595946    10534.127    9501.5042    8761.0447    7672.8496    -759.0074   -624.31385   -281.57222   -5003.5822 
27938000    138.76275   -6653.5945   -6296.6358   -6653.5945            0    7960.5217    23.218744    21.323595    21.314834    10553.125    7973.5415     6383.366    9524.6577    403.77168    542.28862     1036.426   -5071.4596 
27939000    126.16994   -6662.5703   -6338.0058   -6662.5703            0    8525.7991    23.084958    21.275421    21.452595    10536.275    7972.5748    8569.3858    9035.4368    804.22238   -89.860247    -1155.888    -5027.925 
27940000    144.52713   -6647.3134   -6275.5261   -6647.3134            0    8560.7268    22.998221     21.34923     21.43289    10523.427    8544.3112    8129.9549    9007.9142    108.24909   -278.03992   -53.869773   -4961.6823 
27941000     139.0317   -6646.5542   -6288.9037   -6646.5542            0     9307.137    23.187114    21.224506    21.306371    10485.612    8859.6744    9450.1321    9611.6045    318.22748    403.29242   -79.073894   -4865.6387 
27942000     137.2978   -6654.9033    -6301.713   -6654.9033            0    9285.1769    23.093639    21.231739     21.42724    10506.164    9093.4066    10215.643    8546.4809   -347.71517   -192.24361   -261.54362   -4879.0232 
27943000    137.52571    -6668.005   -6314.2285    -6668.005            0    8880.7309    23.157755    21.072797     21.49306    10488.585     9387.851    9185.2494    8069.0923    606.41573    245.05699    8.3789213   -4955.7852 
27944000    135.95705   -6659.4159   -6309.6747   -6659.4159            0    8407.4402    23.156434    21.239437    21.391806    10521.124    8231.2465    8329.9101    8661.1641   -309.60316   -424.68812    723.93571   -5019.6387 
27945000    136.76858    -6648.593   -6296.7642    -6648.593            0    8954.4121    23.001322    21.316171    21.432572    10508.392    9340.5055    8280.5842    9242.1465    529.67707    431.98668   -1307.0111   -4924.4636 
27946000    133.90523   -6657.2821   -6312.8191   -6657.2821            0    9557.5338    22.903077    21.362781    21.399649    10470.279    9518.0934    9695.0572    9459.4507    862.50301      706.706    138.33237   -4853.4001 
27947000    132.62203   -6651.3616   -6310.1995   -6651.3616            0    8345.3083    23.061719    21.372072    21.367128     10531.36    8300.6707    8608.8584    8126.3959    608.67575   -584.41937   -1169.9038   -5028.4512 
27948000    142.85479   -6664.8577   -6297.3724   -6664.8577            0    9192.9899    22.991991    21.246154    21.512228    10508.538    9936.6648    9958.7359    7683.5689    339.46116    241.79514   -933.10801   -4888.4893 
27949000    136.49592   -6644.8985    -6293.771   -6644.8985            0    9124.7447    23.207977    21.185276    21.330947    10487.731    8319.2135    8547.0398    10507.981    -481.1079    1123.5808    1065.1404   -4898.1157 
27950000    134.71847   -6661.7979   -6315.2429   -6661.7979            0    9673.2203    23.260998    21.028615    21.435618    10485.159    8993.7151    11152.615    8873.3304   -592.04511   -681.23758   -399.71659   -4836.0596 
27951000    142.00957   -6677.1303   -6311.8194   -6677.1303            0    8501.6394    23.162406    21.115422    21.529672    10529.818    8936.9035    8639.6892    7928.3256   -331.58797   -662.57829   -552.49626   -5006.2516 
27952000    132.29804   -6653.0523   -6312.7237   -6653.0523            0    8645.6398    23.144122    21.275996    21.362504    10519.201    8886.5811    7282.5324    9767.8059   -99.558094   -67.107741    1006.8966   -4986.3809 
27953000    136.74416   -6692.7453   -6340.9793   -6692.7453            0    8286.2756    23.058849    21.249496    21.451342     10510.92    8845.6014     7708.378    8304.8474    495.01113   -299.77087   -54.014379    -5070.768 
27954000    134.16221   -6659.3806   -6314.2564   -6659.3806            0    8659.1108    22.939885    21.426489    21.382823     10510.11    8970.2878    8800.9402    8206.1043    214.45384   -949.77872   -36.312657    -4986.995 
27955000    130.09761   -6654.5965   -6319.9283   -6654.5965            0    8775.8132    23.130949     21.26016    21.345097    10496.829    9013.3036    8294.6377    9019.4983   -328.87702    269.55285   -133.73685   -4976.4788 
27956000    135.13503   -6676.3857   -6328.7591   -6676.3857            0    8793.9005    23.056559    21.229504    21.473375    10510.773     9572.071    8883.6899    7925.9406   -670.17767    93.491932   -150.91345   -4980.7522 
27957000    131.09284   -6657.6534    -6320.425   -6657.6534            0    9228.7467    23.202743    21.242365    21.273217    10485.167    8529.1438    9184.0414    9973.0548    456.62741    56.760875    229.75062   -4909.2074 
27958000    135.28455    -6650.702   -6302.6907    -6650.702            0    10050.979    23.091279    21.167698    21.410055    10465.004      10257.6    10515.816    9379.5206   -483.74833    932.01881   -178.12887   -4768.6967 
27959000     139.4469   -6658.6306   -6299.9119   -6658.6306            0    9566.8906    23.054554    21.183221    21.464161    10482.446    9023.2082    9992.2516    9685.2118   -911.42212    174.33526    121.01157   -4837.3667 
27960000    132.46527   -6652.4166   -6311.6577   -6652.4166            0    9100.9731    23.279138     21.13222    21.321759    10489.023    10167.189    7709.9534    9425.7775   -530.48273   -813.65878    302.89849   -4919.4669 
27961000    131.03268   -6637.7094   -6300.6358   -6637.7094            0    8932.8146    23.060881    21.263514     21.44772    10517.004    9045.9743    9290.3184    8462.1511   -1074.9865    256.27179    1056.2346   -4930.5231 
27962000     138.0456   -6679.1005   -6323.9866   -6679.1005            0    8036.9512    23.087951    21.258259    21.486779    10545.918     8024.498    7660.6503    8425.7054    -328.7646    224.28836   -592.30888   -5087.8923 
27963000    132.78386   -6651.2871   -6309.7087   -6651.2871            0    9606.0747     23.15139    21.262085    21.273394    10471.761    9923.1721    8552.1677    10342.884   -317.09846   -947.22207    495.81044   -4842.6701 
27964000    139.16536   -6663.6154    -6305.621   -6663.6154            0    9743.3938    23.016453    21.209515    21.460551     10476.35     10649.47      9356.86     9223.851    268.99436   -202.36929    1259.3762   -4816.9589 
27965000     133.5637    -6667.967   -6324.3825    -6667.967            0    10025.005    23.060852    21.154812    21.434088    10456.577    10114.633    10103.799     9856.582   -338.69521    297.15537   -619.24909   -4795.5849 
27966000    135.16135   -6658.4309   -6310.7365   -6658.4309            0     8412.963    23.160144    21.265035    21.315376     10497.85    8751.7977    7743.3543    8743.7369   -818.35116    -365.2135   -57.778766   -5022.7088 
27967000    134.49724    -6655.812    -6309.826    -6655.812            0    10338.765    23.114765    21.085085    21.451564    10454.994    10079.067    10266.096    10671.132   -171.01932    740.94178    562.79864    -4733.419 
27968000    141.88067    -6671.128   -6306.1486    -6671.128            0    7396.6715    23.191167    21.239543    21.468002    10574.489    7415.3305    7984.4621    6790.2221   -325.48164   -396.17678    180.77539   -5165.4482 
27969000    132.76625   -6659.5308   -6317.9977   -6659.5308            0    8601.8852    23.150164    21.227493    21.399886    10516.331    7570.2246    9163.0346    9072.3965    950.57976    201.73465   -23.885746   -4998.7275 
27970000    128.71142   -6667.2261   -6336.1238   -6667.2261            0     8139.344    23.042003    21.300067    21.489314    10546.874    7349.7503    9659.4848    7408.7968    317.45562     1463.405   -910.36986   -5084.1679 
27971000    130.06071   -6647.9879   -6313.4146   -6647.9879            0    8747.6107    22.842131    21.438945    21.496627    10527.139    9788.4335    8232.1117    8222.2869    1589.4591   -759.97643    647.82578   -4970.4156 
27972000    133.70721   -6668.9188   -6324.9652   -6668.9188            0    7743.1886     23.14392    21.226682    21.446265    10535.877    7557.5689    7796.0672    7875.9296    38.863434    1469.1217   -816.30217   -5135.1858 
27973000    134.47828   -6662.6769   -6316.7397   -6662.6769            0     9378.825     23.12676    21.194259    21.406349    10492.419    9322.2479    9758.8182    9055.4089    -588.3964   -1713.3537   -559.13296   -4881.5809 
27974000    139.98556   -6649.8118   -6289.7074   -6649.8118            0    9643.4491    23.159923    21.112992    21.447933    10487.509    9732.2477    9335.1337    9862.9659    133.18401   -87.267173    682.17962   -4814.7461 
27975000     133.4872   -6657.4376   -6314.0499   -6657.4376            0    10301.245    23.078958    21.250686    21.323403    10457.929    10639.023     9773.128    10491.583   -410.31816   -832.54416    341.89601    -4742.923 
27976000    134.34509   -6662.5084   -6316.9138   -6662.5084            0    7766.6526    23.034951    21.322482    21.480805    10550.562    8384.5588    7650.6038    7264.7952   -1318.0281   -59.249505   -557.35227   -5121.8658 
27977000    139.00544   -6642.4893   -6284.9063   -6642.4893            0    8440.1281    23.151278    21.253408    21.434473    10546.694    8772.0345    7961.2723    8587.0774    489.66653   -691.43882    473.62788   -4986.7073 
27978000    139.27686   -6637.1774   -6278.8961   -6637.1774            0    9679.0241    23.110921    21.267808    21.306262    10472.425    8559.9705    10609.977    9867.1243    548.13606   -507.94068    15.426738   -4800.6229 
27979000    132.58976   -6645.1351    -6304.056   -6645.1351            0     9085.093    23.076336    21.141226    21.590013    10532.948    9294.6228    9669.9239    8290.7324    520.91802     179.5404    606.17032   -4908.4745 
27980000    141.26723   -6650.3963   -6286.9949   -6650.3963            0    8578.9256    23.039187    21.359562    21.371156    10516.894    8346.4185    8233.0714     9157.287     1011.844   -428.80076    745.96138   -4971.1755 
27981000    141.80866   -6655.5426   -6290.7485   -6655.5426            0     9245.106    23.149301    21.232055    21.353733    10495.514    8631.5136    9604.7179    9499.0865    197.63552   -115.11143   -720.49789   -4875.6342 
27982000    139.51061   -6662.7724   -6303.8898   -6662.7724            0     8592.343    22.981762      21.2689    21.528829    10523.223    9380.9044    7666.6631    8729.4614    139.84381   -170.83784    893.98372   -4985.2194 
27983000    132.40702   -6653.0169    -6312.408   -6653.0169            0    10151.157    23.097618    21.185362    21.385132    10464.417    10581.745    10518.661    9353.0654    1018.3498   -84.188572    374.97859   -4763.2116 
27984000    133.04474   -6652.6347   -6310.3852   -6652.6347            0    8852.0741     23.09232    21.266882    21.437076    10527.783    8988.9042    9025.3994    8541.9187   -122.05071   -898.93879   -614.09753    -4951.265 
27985000    134.62129   -6655.0161   -6308.7111   -6655.0161            0    9936.7348    23.133523    21.121377     21.44235    10476.987    9902.0029    10449.692    9458.5094    16.384495   -81.516793    49.773425   -4790.4167 
27986000    134.48096   -6658.5349   -6312.5908   -6658.5349            0    8505.8426    23.252037    21.064031     21.44442    10503.083     7218.247    9867.6287     8431.652    620.52886    599.08615   -108.81691    -5009.694 
27987000     138.7708   -6680.9054   -6323.9259   -6680.9054            0    8761.1997     23.22941    21.206301    21.341592    10513.079    7285.5841    8678.1211    10319.894   -774.93001    98.597378   -69.908114   -4980.6372 
27988000    137.64332   -6641.1233   -6287.0442   -6641.1233            0    9919.2064    22.970665    21.329562    21.392004    10481.103    10551.463    8403.7403    10802.416    1264.0989   -1563.8451    366.06923   -4770.8327 
27989000    134.94357   -6668.1706   -6321.0365   -6668.1706            0    7525.3459    23.083669    21.311349    21.455598    10554.955    7805.8493    6184.9928    8585.1958     145.4494    328.30274    892.82712    -5162.636 
27990000    137.32854   -6655.3573    -6302.088   -6655.3573            0    8558.7646    23.040087    21.304265    21.415525    10511.856    8769.5614    7908.7305     8998.002    270.06775     27.94195   -301.22921   -4989.9898 
27991000    135.32234   -6660.4185     -6312.31   -6660.4185            0    9573.4693    23.018806    21.255611    21.412235    10476.552    10630.739    9261.4126    8828.2557   -328.58795   -844.06249    50.701398   -4849.5819 
27992000    135.49281   -6655.7806   -6307.2336   -6655.7806            0    10242.784    23.080582    21.182854    21.354381    10440.426    10601.525    11561.033    8565.7938    1020.9797   -620.83528   -578.78778   -4747.6375 
27993000    135.61652   -6648.5956   -6299.7304   -6648.5956            0    8904.7625    23.145038    21.159794    21.404262    10482.614    8806.6999    9389.2114    8518.3763    32.361043   -24.373288   -661.62804   -4938.3866 
27994000    136.36299   -6662.2616   -6311.4761   -6662.2616            0     8522.794    23.229318    21.099126     21.42714    10501.833    8895.5823    8363.2378    8309.5618     -225.573   -100.62708    556.06558   -5006.1381 
27995000    144.85378   -6653.4533   -6280.8257   -6653.4533            0     9927.608    23.140057    21.203192    21.358967    10479.629     8805.978    9774.8844    11201.962   -868.57627    239.81881    237.59907   -4763.5433 
27996000     136.2964   -6665.9886   -6315.3744   -6665.9886            0    9217.5828    23.070006    21.188818    21.457307    10488.893    9149.2272     9465.757    9037.7642   -608.86985   -111.79381   -565.82676   -4905.3632 
27997000    137.39125    -6662.452   -6309.0213    -6662.452            0    8737.5984    22.981903    21.362742    21.392103    10502.591    8335.6674    8236.3961    9640.7318    483.09631    596.34714   -198.27364   -4970.6876 
27998000    138.06966    -6659.045   -6303.8692    -6659.045            0    8410.1057    22.968815    21.378971    21.419617    10518.095    9746.8847    7673.5216    7809.9107    68.594982   -412.02308   -1288.6958   -5013.7958 
27999000    132.51018   -6653.4408   -6312.5664   -6653.4408            0    9600.5921     23.05137    21.232273    21.389152    10468.557    9370.6196    9985.4654    9445.6911    186.98692    530.65608   -190.97336   -4846.8137 
28000000    140.09308   -6644.2357   -6283.8548   -6644.2357            0    8387.2671     23.04678    21.288395    21.489248    10543.247    8352.4414    8818.1397    7991.2201   -139.18987    19.468302    120.62613   -4994.2081 
Loop time of 532.997 on 64 procs for 250000 steps with 1296 atoms

Performance: 81.051 ns/day, 0.296 hours/ns, 469.046 timesteps/s
99.1% CPU use with 64 MPI tasks x 1 OpenMP threads

MPI task timing breakdown:
Section |  min time  |  avg time  |  max time  |%varavg| %total
---------------------------------------------------------------
Pair    | 30.327     | 41.635     | 52.7       | 109.6 |  7.81
Bond    | 0.27972    | 0.28899    | 0.30325    |   0.8 |  0.05
Kspace  | 269.63     | 280.78     | 292.21     |  42.4 | 52.68
Neigh   | 1.9474     | 1.9652     | 1.9903     |   0.8 |  0.37
Comm    | 90.882     | 92.908     | 95.14      |  12.7 | 17.43
Output  | 0.56053    | 0.56199    | 0.56382    |   0.1 |  0.11
Modify  | 103.96     | 105.8      | 107.03     |   8.7 | 19.85
Other   |            | 9.056      |            |       |  1.70

Nlocal:        20.2500 ave          26 max          13 min
Histogram: 2 3 5 17 1 3 12 11 2 8
Nghost:        2635.45 ave        2666 max        2603 min
Histogram: 2 5 2 9 14 8 11 6 5 2
Neighs:        6626.36 ave        8534 max        4203 min
Histogram: 2 3 5 17 1 3 11 12 2 8

Total # of neighbors = 424087
Ave neighs/atom = 327.22762
Ave special neighs/atom = 2.0000000
Neighbor list builds = 3520
Dangerous builds = 0

unfix		3
unfix		2
unfix		1

write_data	data.final.${pid}
write_data	data.final.0
System init for write_data ...
PPPM initialization ...
  extracting TIP4P info from pair style
  using 12-bit tables for long-range coulomb (../kspace.cpp:340)
  G vector (1/distance) = 0.36979494
  grid = 30 40 32
  stencil order = 5
  estimated absolute RMS force accuracy = 0.0040209952
  estimated relative force accuracy = 1.2109107e-05
  using double precision FFTW3
  3d grid and FFT values/proc = 5168 640
Last active /omp style is kspace_style pppm/tip4p/omp
WARNING: Not all mixed pair coeffs generated from mixing. Use write_data with 'pair ij' option to store all pair coeffs. (../write_data.cpp:312)

write_restart   restart.lmp.${pid}
write_restart   restart.lmp.0
System init for write_restart ...
PPPM initialization ...
  extracting TIP4P info from pair style
  using 12-bit tables for long-range coulomb (../kspace.cpp:340)
  G vector (1/distance) = 0.36979494
  grid = 30 40 32
  stencil order = 5
  estimated absolute RMS force accuracy = 0.0040209952
  estimated relative force accuracy = 1.2109107e-05
  using double precision FFTW3
  3d grid and FFT values/proc = 5168 640
Last active /omp style is kspace_style pppm/tip4p/omp
Total wall time: 0:08:53
