#include		in.partitions
include		in.temp
variable        temperature equal 185.10
variable	tempDamp equal 100.0
include		in.pressure
variable        pressure equal 2087.0
variable        pressureDamp equal 1000.0 # This is 1 ps
include		in.seed
variable        seed equal 745823

units		real
atom_style	full
box tilt large
read_restart	restart.lmp.${pid}
read_restart	restart.lmp.0
Reading restart file ...
  restart file = 30 Jul 2021, LAMMPS = 30 Jul 2021
  restoring atom style full from restart
  triclinic box = (-10.653155 -9.2056300 -0.053121768) to (12.633155 12.195628 21.913121) with tilt (-9.0543738 1.9950394 2.8077831)
  4 by 2 by 4 MPI processor grid
  restoring pair style lj/cut/tip4p/long/omp from restart
  restoring bond style harmonic/omp from restart
  restoring angle style harmonic/omp from restart
  1296 atoms
  864 bonds
  432 angles
Finding 1-2 1-3 1-4 neighbors ...
  special bond factors lj:    0        0        0       
  special bond factors coul:  0        0        0       
     2 = max # of 1-2 neighbors
     1 = max # of 1-3 neighbors
     1 = max # of 1-4 neighbors
     2 = max # of special neighbors
  special bonds CPU = 0.002 seconds
  read_restart CPU = 0.008 seconds
include 	in.setup
variable	out_freq equal 1000
variable	out_freq2 equal 10000
variable	out_freq3 equal 1000

timestep	2.0

neigh_modify    delay 7 every 1

include		in.tip4p
# This is TIP4P/Ice

# create groups ###
group ox type 2
432 atoms in group ox
group hy type 1
864 atoms in group hy

# set charges - beside manually ###
set group ox charge -1.1794
Setting atom values ...
  432 settings made for charge
set group hy charge 0.5897
Setting atom values ...
  864 settings made for charge

# ### TIP3P Potential Parameters ###
pair_style lj/cut/tip4p/long/omp 2 1 1 1 0.1577 8.5
pair_coeff 1 1*2 0.000 0.000
pair_coeff 2 2 0.21084 3.1668
bond_style  harmonic
bond_coeff  1 450 0.9572
angle_style harmonic
angle_coeff 1 55 104.52
kspace_style pppm/tip4p/omp 1.0e-5
pair_modify tail yes

thermo          ${out_freq}
thermo          1000
thermo_style    custom step temp pe etotal epair emol press lx ly lz vol pxx pyy pzz pxy pxz pyz enthalpy

restart 	${out_freq3} restart.lmp.${pid} restart2.lmp.${pid}
restart 	1000 restart.lmp.${pid} restart2.lmp.${pid}
restart 	1000 restart.lmp.0 restart2.lmp.${pid}
restart 	1000 restart.lmp.0 restart2.lmp.0


include         in.dump
dump            myDump all atom ${out_freq2} dump.water.${pid}
dump            myDump all atom 10000 dump.water.${pid}
dump            myDump all atom 10000 dump.water.0
dump            myDump2 all dcd ${out_freq2} dump.dcd
dump            myDump2 all dcd 10000 dump.dcd
dump_modify     myDump append yes
dump_modify     myDump2 append yes


variable natoms 	equal  "count(all)"                        # NUMBER ATOMS
variable H      	equal  "enthalpy/v_natoms"                 # ENTHALPY-per-atom
variable Vol      	equal  "vol/v_natoms"                 # volume-per-atom
fix AVG all 		ave/time ${out_freq} 1 ${out_freq} v_Vol v_H file vol_enthalpy.dat
fix AVG all 		ave/time 1000 1 ${out_freq} v_Vol v_H file vol_enthalpy.dat
fix AVG all 		ave/time 1000 1 1000 v_Vol v_H file vol_enthalpy.dat


timer           timeout 10:00:00 every 1000
New timer settings: style=normal  mode=nosync  timeout=10:00:00

fix 		1 all shake 1e-6 200 0 b 1 a 1
       0 = # of size 2 clusters
       0 = # of size 3 clusters
       0 = # of size 4 clusters
     432 = # of frozen angles
  find clusters CPU = 0.001 seconds
fix             2 all nph tri ${pressure} ${pressure} ${pressureDamp}
fix             2 all nph tri 2087 ${pressure} ${pressureDamp}
fix             2 all nph tri 2087 2087 ${pressureDamp}
fix             2 all nph tri 2087 2087 1000
fix             3 all temp/csvr ${temperature} ${temperature} ${tempDamp} ${seed}
fix             3 all temp/csvr 185.1 ${temperature} ${tempDamp} ${seed}
fix             3 all temp/csvr 185.1 185.1 ${tempDamp} ${seed}
fix             3 all temp/csvr 185.1 185.1 100 ${seed}
fix             3 all temp/csvr 185.1 185.1 100 745823


run             250000
PPPM initialization ...
  extracting TIP4P info from pair style
  using 12-bit tables for long-range coulomb (../kspace.cpp:340)
  G vector (1/distance) = 0.36666505
  grid = 30 40 32
  stencil order = 5
  estimated absolute RMS force accuracy = 0.0046611284
  estimated relative force accuracy = 1.403685e-05
  using double precision FFTW3
  3d grid and FFT values/proc = 7888 1280
Last active /omp style is kspace_style pppm/tip4p/omp
Neighbor list info ...
  update every 1 steps, delay 7 steps, check yes
  max neighbors/atom: 2000, page size: 100000
  master list distance cutoff = 10.8154
  ghost atom cutoff = 10.8154
  binsize = 5.4077, bins = 7 5 5
  1 neighbor lists, perpetual/occasional/extra = 1 0 0
  (1) pair lj/cut/tip4p/long/omp, perpetual
      attributes: half, newton on, omp
      pair build: half/bin/newton/tri/omp
      stencil: half/bin/3d/tri
      bin: standard
Per MPI rank memory allocation (min/avg/max) = 10.65 | 10.66 | 10.67 Mbytes
Step Temp PotEng TotEng E_pair E_mol Press Lx Ly Lz Volume Pxx Pyy Pzz Pxy Pxz Pyz Enthalpy 
11250000    188.87276    -6482.655   -5996.7914    -6482.655            0    2836.0807    23.286309    21.401258    21.966243    10947.016    3408.1778    4338.1324    761.93188     100.8559   -102.98346   -824.93786   -5544.0082 
11251000    187.92322   -6522.3231    -6038.902   -6522.3231            0    422.95305    23.402773    21.490633    21.923964    11026.447     713.2311    965.25564   -409.62758    108.69807    267.51335   -726.04107   -5970.8872 
11252000    185.43939   -6506.2717   -6029.2401   -6506.2717            0    3111.4692     23.31527    21.348187    21.894039    10897.511    3701.7172    4488.3429    1144.3475    493.04013   -751.15895   -1830.6134   -5534.7374 
11253000    185.42482   -6510.3597   -6033.3656   -6510.3597            0    2400.9512    23.240874    21.527189    21.864766    10939.176    3303.9256    1714.4967    2184.4313    -219.1091   -831.82957    250.46731   -5650.3259 
11254000    182.80574    -6533.061   -6062.8044    -6533.061            0    1126.6981    23.365445    21.436107    21.906592    10972.228    1928.3054    1415.8743    35.914591   -1224.9225    1063.6034    90.700658   -5882.5116 
11255000    186.44024   -6519.1088   -6039.5026   -6519.1088            0    1021.8441    23.370325    21.329484    22.068556    11000.667    1258.4056    2362.3647   -555.23796   -521.46388    282.84507   -76.656265   -5875.5647 
11256000    185.23693   -6498.5325   -6022.0218   -6498.5325            0    2434.5329     23.11772    21.568484    21.987292    10963.176    3599.9475    2390.2761    1313.3751    655.01727    91.894037    34.838519   -5632.7724 
11257000    187.80564   -6532.5161   -6049.3976   -6532.5161            0    1355.0269    23.330725     21.51892     21.87013    10979.942     1522.697    1663.0869    879.29664    636.78944    179.65193   -205.46671   -5832.4155 
11258000    181.28443   -6491.9309   -6025.5878   -6491.9309            0    2253.6839    23.513787    21.309632    21.869028    10957.917    1964.6892    2990.1195    1806.2429    -1113.083    260.70726     483.3659   -5665.4266 
11259000    194.43844   -6498.0839   -5997.9029   -6498.0839            0    2600.5557    23.283236    21.541439    21.811345    10939.576    2389.5471     2998.213    2413.9069   -70.800483    1296.7294   -882.80585   -5583.0037 
11260000     196.5824   -6531.1474   -6025.4512   -6531.1474            0    1517.6313    23.346083    21.537708    21.822895    10973.012    1328.9024    977.16338    2246.8281    266.30716   -153.25225    48.002083   -5782.5845 
11261000    177.07073   -6492.9728   -6037.4692   -6492.9728            0    3376.5191    23.415803    21.400114    21.751618    10899.755    3928.9322    2785.1932    3415.4321    -688.9036    84.151154 -0.068849133   -5500.7318 
11262000    189.58839   -6491.4053   -6003.7007   -6491.4053            0    887.59515    23.529168    21.469937    21.830444     11028.08    1037.0171   -194.62211    1820.3904    1352.8207   -503.05874    220.94685   -5860.9459 
11263000    189.77529   -6507.4536   -6019.2683   -6507.4536            0    2116.5353    23.284434     21.60233    21.759292    10944.881    1787.7658    2302.7788    2259.0612   -345.30609   -55.659672   -479.95737   -5681.4272 
11264000    176.96134    -6514.376   -6059.1537    -6514.376            0    1565.2859    23.434052    21.475641    21.768416    10955.201    530.72485    1193.0712    2972.0617    -411.0623    812.41159    919.83941   -5809.0674 
11265000    190.87361   -6524.8679   -6033.8572   -6524.8679            0    983.28728    23.432217    21.501493    21.802314    10984.609    771.76762    915.99977    1262.0944   -28.082573    1037.9676   -979.76819   -5876.3353 
11266000    194.35362   -6542.7271   -6042.7642   -6542.7271            0     1661.214    23.409032    21.587556    21.690002    10960.908    610.86771    1676.5859    2696.1885   -1114.9811    90.805929    25.212325   -5777.2132 
11267000    185.56115   -6511.1613   -6033.8165   -6511.1613            0    2555.2956    23.427694    21.447875    21.757663    10932.666    2507.0445    2330.5389    2828.3033    673.22349   -407.23163    867.60593   -5626.3958 
11268000    184.70532   -6536.4269   -6061.2838   -6536.4269            0    2488.8957    23.343245    21.476245    21.757708    10907.688    2186.1484    2227.2394    3053.2992   -238.64275    1182.7754   -641.08537   -5665.3566 
11269000    186.18428   -6516.4743   -6037.5266   -6516.4743            0    1931.9438     23.23777    21.500889    21.856634    10920.289     1733.356    1888.3684    2174.1071   -543.74926    272.83698    1222.1022   -5729.8429 
11270000    183.75152   -6520.5026   -6047.8131   -6520.5026            0    2171.6698    23.483019    21.396405     21.77694    10941.871    1866.6874    2559.4623    2088.8596    132.39575   -642.76443   -621.64271   -5701.2668 
11271000    180.10355   -6520.7666   -6057.4612   -6520.7666            0    2554.8875    23.370466    21.486761    21.753734     10923.76    2618.7044    3088.2895    1957.6686    1136.7307   -1314.2319   -418.40527   -5650.4374 
11272000    190.87647   -6522.5172   -6031.4991   -6522.5172            0    2236.5783    23.352643     21.52623    21.727073    10922.077    3050.5781    1087.4277    2571.7291    186.54256   -1323.2848    1040.9313   -5675.2406 
11273000     187.5759   -6528.2197   -6045.6921   -6528.2197            0    2921.3956    23.402032    21.457421     21.71921    10906.242    1934.2924    3904.2545    2925.6399    143.86672    86.657514   -629.05452   -5581.0256 
11274000    187.27415   -6463.1929   -5981.4416   -6463.1929            0    2441.3261    23.439137    21.510774    21.778011    10980.342    2819.9365    2588.3717    1915.6702    454.61041   -681.98415    -671.3078   -5590.4949 
11275000    188.94824   -6485.0231   -5998.9653   -6485.0231            0    3343.5701    23.312862    21.475282    21.830297    10929.344    3229.4982    4409.5578    2391.6544    1188.3232   -410.32956   -420.50922   -5466.0227 
11276000    194.98603   -6509.7132   -6008.1235   -6509.7132            0    2380.1295    23.204552    21.669038    21.780443    10951.649     3428.536    1217.7132    2494.1393    183.93782    27.146305    427.22079   -5627.9726 
11277000    186.03106   -6497.1251   -6018.5715   -6497.1251            0    2082.5416    23.449178    21.445359    21.858516    10992.124    1562.0361    1563.5463    3122.0424   -291.15338    263.52277    288.87442   -5684.7216 
11278000    179.06573   -6523.0968   -6062.4611   -6523.0968            0    1877.4805    23.346846    21.433502     21.87877    10948.239    2066.1984    1539.9463    2026.2967    215.16471    15.041867    41.821996    -5762.686 
11279000    184.27517   -6525.8679   -6051.8312   -6525.8679            0    1701.3204    23.260337    21.594935    21.842591    10971.653    1862.5615    1753.7818    1487.6178    1007.6272   -777.21584   -121.00534   -5779.6024 
11280000    195.71372   -6508.3233   -6004.8616   -6508.3233            0    2557.8079    23.404936    21.480154    21.783616    10951.531    1974.4637    3933.6073    1765.3527     385.5507   -391.06518   -765.56712   -5596.3366 
11281000    191.84631   -6505.5127   -6011.9997   -6505.5127            0    2065.6288    23.455403    21.437913    21.834423     10979.11     1894.093    1894.3353    2408.4582   -1317.0402    1270.2985    460.47153   -5681.2532 
11282000    191.04533   -6512.5313   -6021.0788   -6512.5313            0    2482.7245    23.145671      21.6026    21.872363    10936.327    3000.8467    2677.0614    1770.2655   -1205.3213    624.95665    78.111293   -5625.0964 
11283000    188.33639   -6521.9167   -6037.4328   -6521.9167            0    1774.3327    23.436228    21.479894    21.788454    10968.475    2245.0679     1687.986    1389.9443   -261.29651   -1210.2032    -627.3679   -5753.6035 
11284000    189.68318   -6534.0931   -6046.1446   -6534.0931            0    2291.9142    23.348475    21.445751    21.817765    10924.713    2302.3896    1640.8307    2932.5224   -93.343954    976.16643    350.82416   -5680.9837 
11285000    182.38003   -6527.7902   -6058.6287   -6527.7902            0    1556.1534    23.280579    21.546194    21.851433    10960.851    2121.2894    1548.4776    998.69313    164.01122   -373.85798    1099.2833   -5809.8733 
11286000    182.87568    -6517.517   -6047.0804    -6517.517            0       777.16    23.363221    21.451323    21.955091    11003.277    1043.4683    1209.9336    78.078058   -903.90799    180.68104   -90.958438   -5922.3684 
11287000    182.95121   -6496.1663   -6025.5355   -6496.1663            0    3111.7946    23.292953    21.303107    22.001815    10917.571    3883.8607    3451.0896    2000.4336   -650.91494   -1047.0941   -344.33343   -5530.0706 
11288000    184.76442   -6514.3691   -6039.0739   -6514.3691            0    1657.8481    23.243463    21.537303    21.981681    11004.063    2925.8361    1134.0448    913.66347   -648.66024    192.83939   -503.78874   -5773.0175 
11289000    186.00197   -6511.2016   -6032.7229   -6511.2016            0     1964.445    23.316258    21.386537    22.012763    10976.753    2101.3024    2720.3991    1071.6336    66.335405    -75.49312   -314.60633   -5718.2453 
11290000     178.5267   -6507.0041   -6047.7551   -6507.0041            0    2808.5291    23.287835    21.309044     22.04719    10940.731     3516.364    4095.5456    813.67754    375.77798    254.44614    -609.0398    -5599.628 
11291000    181.76246   -6516.0686   -6048.4957   -6516.0686            0     1408.985     23.06463    21.658954    22.004386    10992.418    3435.3079     1520.664   -729.01678    8.5294553   -188.89799   -583.21017   -5822.6169 
11292000    181.12716   -6507.0543   -6041.1157   -6507.0543            0    2225.1806    23.312057     21.43168    21.941466     10962.32     3355.965    2130.6825    1188.8943   -34.917254    297.43431   -928.22861   -5685.3668 
11293000    187.19138   -6508.9085     -6027.37   -6508.9085            0    2072.1553    23.405923    21.432098    21.864769      10968.2    841.45484     2882.028    2492.9829   -831.35823    516.27877     923.8341   -5695.9082 
11294000    186.30212   -6508.3158    -6029.065   -6508.3158            0    2623.3001    23.237698    21.492974    21.883452     10929.63    2551.1444    2010.0369    3308.7189   -325.61476    355.34734    1175.5781   -5610.9177 
11295000    173.21078   -6532.8642     -6087.29   -6532.8642            0    2379.6346    23.260559    21.527874    21.835749     10934.26     3124.491    1723.0548    2291.3579   -457.46957    1095.6201   -652.42821   -5707.8217 
11296000    181.02324    -6495.592   -6029.9207    -6495.592            0    3034.7951    23.414366    21.438029     21.76043    10922.819    2288.1326    3031.7484    3784.5044   -661.97589    923.90054    420.39262   -5546.4836 
11297000    180.09199   -6517.1422   -6053.8665   -6517.1422            0    1576.1026    23.361495    21.481135     21.86657    10973.332    1023.1501    2744.7561    960.40178    145.27364   -47.159425    477.02777   -5801.6352 
11298000     194.8366   -6520.0937   -6018.8884   -6520.0937            0    2704.4037    23.223587    21.694933    21.646113    10906.051    2892.1904    1310.1362    3910.8846   -401.19536     1011.237   -327.07532   -5588.7433 
11299000    186.21432   -6499.4979   -6020.4729   -6499.4979            0    1347.3237    23.423398    21.470072    21.860781    10993.832    635.03954    1788.8083    1618.1234    42.678848   -715.99081    711.47858   -5804.4515 
11300000     189.0189   -6519.4273   -6033.1877   -6519.4273            0    1479.7868    23.491362    21.437674    21.831293    10994.243    1016.9669    1778.9327    1643.4608   -79.846873   -1180.5963   -139.04196    -5795.919 
11301000    184.89083   -6486.8295   -6011.2091   -6486.8295            0     1902.717    23.181154    21.669897    21.780377    10941.007    3331.7848    1817.1673    559.19895   -468.99311    836.73796   -284.45969   -5707.6052 
11302000    183.14604   -6527.1291   -6055.9971   -6527.1291            0    1730.0817    23.338237    21.466773    21.873912    10958.756    2344.9058    921.68702    1923.6523    -748.2742    30.997738    71.484373   -5779.4916 
11303000    178.93495   -6508.6732    -6048.374   -6508.6732            0    1780.7783     23.40393    21.444767    21.880287    10981.537    1876.5666    2309.2916    1156.4767   -569.56762    140.65343   -470.48688   -5763.1744 
11304000    182.25778   -6489.9494   -6021.1024   -6489.9494            0    1210.8663    23.185898    21.606488    21.961179      11001.8    2579.6301    743.60389    309.36483    585.95923    654.34825    643.30201   -5826.8189 
11305000    192.00563   -6521.0241   -6027.1013   -6521.0241            0     2610.133    23.373541    21.459803    21.764643    10916.962    2971.2969    2530.0167    2329.0853   -25.556905   -481.39442   -441.24496    -5611.535 
11306000    191.52205   -6499.5226   -6006.8438   -6499.5226            0    1326.6201    23.514626    21.318398    21.956909     11006.87    160.42528    2866.1785    953.25655    67.029738   -409.39563    153.65875   -5793.8896 
11307000    194.23804   -6533.4089   -6033.7434   -6533.4089            0    1805.8796    23.280803    21.538455    21.863449    10963.044    1932.1543    2457.7902    1027.6943   -85.120974    143.46234   -895.37074   -5745.0108 
11308000     183.3195   -6511.0536   -6039.4753   -6511.0536            0    1569.6343    23.243788      21.5736    21.886844    10975.206    1677.8106    1003.9521    2027.1402    65.095487    149.17148   -169.11355   -5788.2363 
11309000    185.82797   -6513.8988   -6035.8676   -6513.8988            0    3011.1774    23.484356    21.265441    21.804898    10889.479    2991.8801    3304.7449    2736.9073   -318.57382    311.27578   -349.60741   -5557.6569 
11310000    179.38058   -6528.1155   -6066.6699   -6528.1155            0    282.01293    23.556939    21.439814    21.800264    11010.362    -259.6826   -113.35233    1219.0737   -185.36929    1041.5711    166.06557   -6021.3857 
11311000    186.05855    -6512.972   -6034.3477    -6512.972            0    1651.0707    23.311444    21.614447    21.738387     10953.19    2343.5416     576.2975    2033.3731   -1027.6316    291.32958    1157.9625    -5770.604 
11312000    190.41416   -6517.5734   -6027.7445   -6517.5734            0    2481.0998     23.31933    21.524388    21.746054     10915.09    2761.3837    2922.8768    1759.0388   -178.39714    178.42914   -597.08198   -5632.7897 
11313000    189.64577    -6489.228   -6001.3758    -6489.228            0    1475.5434    23.608999    21.300446      21.8466    10986.267    83.314004    2243.9571     2099.359    312.39817    860.93885     486.0279   -5764.9592 
11314000     183.4036   -6518.2733   -6046.4788   -6518.2733            0    2229.2481    23.387099    21.550709    21.684791     10929.32    2039.3037    2518.9682    2129.4725   -519.67389   -833.77686   -176.44437   -5691.1524 
11315000    174.52014   -6524.7622   -6075.8198   -6524.7622            0    1022.1012    23.366543    21.638113    21.708005    10975.739     831.4591    391.87974    1842.9646    909.84909    260.36181    206.78169   -5912.2121 
11316000     190.6022   -6498.5097   -6008.1972   -6498.5097            0    2474.8041     23.51188    21.434633     21.70969    10941.001    2352.1201    2313.3126    2758.9797   -119.61719   -103.72575   -288.49018   -5613.3093 
11317000    180.15499   -6533.2167   -6069.7789   -6533.2167            0    2077.2821    23.438953     21.46146    21.715534    10923.655    1978.1389    2192.7069    2061.0006   -1935.7233    469.91834   -334.84679   -5738.8465 
11318000    179.51383   -6512.8778   -6051.0894   -6512.8778            0    3581.5971    23.310023    21.511738    21.689692     10876.06    3094.6866    2278.3993    5371.7053    915.94931    1425.8373    724.51012   -5482.9901 
11319000    174.42498   -6528.6907    -6079.993   -6528.6907            0    1695.4936    23.449504    21.537656    21.648847    10933.693    1682.6397    2137.6994    1266.1416   -175.85931    -505.2983    -1162.433   -5809.6352 
11320000    183.65821   -6515.6035    -6043.154   -6515.6035            0    1518.8177    23.423357    21.499355    21.780612    10968.434    1121.8847    1320.7681    2113.8005    757.15248   -273.24247    584.83362   -5800.1988 
11321000    187.66218    -6512.824   -6030.0745    -6512.824            0    2012.4399    23.475375     21.39991    21.765571    10934.389    1240.1037    3339.5346    1457.6815    19.588327    110.91967   -1148.5685   -5709.1571 
11322000    194.95016   -6491.7552   -5990.2577   -6491.7552            0    1971.8349    23.375628    21.618263    21.706073    10968.957    2553.5883    1494.9445    1866.9718    149.62859     494.6441    458.75816   -5674.8214 
11323000    184.07309   -6530.9711   -6057.4543   -6530.9711            0    1178.9258     23.48536    21.497872    21.759671    10986.137    227.93287    2149.7628    1159.0817   -158.41265   -262.49116   -53.767644    -5868.565 
11324000     188.5808   -6524.1952   -6039.0826   -6524.1952            0     2433.091    23.421471    21.335561    21.858198    10922.765     2167.151    2545.0253    2587.0965    633.41187    497.13269    20.846741   -5651.4977 
11325000    187.94025   -6524.4893   -6041.0245   -6524.4893            0    2024.0548    23.244912    21.614431    21.750536    10928.025    2537.0455    1541.3636    1993.7554   -652.54343    110.01968   -170.71506   -5718.4427 
11326000    184.64589   -6515.0854   -6040.0951   -6515.0854            0    949.84513    23.291379    21.501784    21.957426    10996.415    909.44158    833.90767    1106.1861    276.72436      395.445    402.70177   -5887.7671 
11327000    189.03708    -6540.267   -6053.9806    -6540.267            0    2054.2317    23.420525    21.388262    21.884515    10962.486    2038.7829    2320.6586    1803.2536   -229.11828    816.03614   -1377.7655    -5725.557 
11328000    190.48177   -6500.8331   -6010.8304   -6500.8331            0    2705.3159    23.243439    21.526575    21.845311    10930.337     4252.794    2133.8887    1729.2651   -239.28969   -818.30854    109.34069   -5579.5821 
11329000    175.12558   -6509.8525   -6059.3527   -6509.8525            0    1741.2567    23.225453     21.57249    21.945102    10995.173    2851.1817    1213.4765     1159.112   -480.82243     -144.798   -302.60621   -5780.1364 
11330000    192.62842    -6504.982   -6009.4571    -6504.982            0    1703.2079    23.477712    21.344615    21.920061    10984.641    1679.6175    1495.1215    1934.8848    -127.4091    782.06571    262.75981   -5736.6037 
11331000    183.87674   -6524.2537    -6051.242   -6524.2537            0    2587.9222    23.241015    21.539959    21.845868    10936.272    3310.9242    1797.1236    2655.7189   -122.31561   -713.35668    999.80412   -5638.4832 
11332000     185.6589   -6523.9213   -6046.3251   -6523.9213            0    1735.5913    23.320482    21.520576    21.803928    10942.742    2634.8756    1403.0516    1168.8467    464.86682   -747.56968    71.985653   -5769.3444 
11333000     179.4335   -6503.9481   -6042.3663   -6503.9481            0    2994.3945    23.444721    21.380491    21.711361    10883.029    2246.6667    3315.9621    3420.5547    105.81753    1325.4658    -91.31669   -5567.1026 
11334000    189.82929   -6486.8699   -5998.5456   -6486.8699            0    1780.3735    23.421044    21.490271    21.779932    10962.375    2011.8371    2870.0087    459.27459   -619.74312   -392.42749     539.2163   -5713.9084 
11335000    185.15922    -6526.637   -6050.3262    -6526.637            0    2910.9689    23.369551    21.493604    21.737319    10918.566    2971.7648    2335.7808    3425.3612    1183.9625   -8.7009747    359.65485   -5586.7949 
11336000    183.97947   -6521.3186   -6048.0427   -6521.3186            0     2046.095    23.416325    21.487325    21.801566    10969.549    1257.8651    1398.0933    3482.3267   -507.13185    1198.2227    477.51306   -5720.7092 
11337000    180.36855   -6529.3101    -6065.323   -6529.3101            0    2209.7738    23.286616    21.501229     21.79789    10914.004    2797.0949    1783.3236    2048.9029   -1233.5678    452.58087    293.30078   -5713.5943 
11338000    182.15342   -6497.5707   -6028.9921   -6497.5707            0    1417.2796    23.457182    21.450737    21.861606    11000.188    1161.3421    1098.2343    1992.2623     649.8633   -203.30454   -746.05605    -5801.623 
11339000    185.76742   -6554.4786   -6076.6032   -6554.4786            0    2665.2556     23.25625      21.5087    21.722251    10865.724    3406.5264    2125.3546    2463.8857   -329.54841   -1807.2571    295.94635   -5654.2523 
11340000    182.81575   -6527.4733    -6057.191   -6527.4733            0    1527.7617     23.38033    21.516083    21.756662    10944.756    1592.2501      814.818    2176.2171   -401.97146   -193.72523    628.38277   -5813.3326 
11341000    174.46664   -6508.3411   -6059.5363   -6508.3411            0    464.59588    23.579019    21.408157    21.796474    11002.497   -139.62073    784.26382    749.14454   -155.08821    894.02855    240.40286   -5984.9871 
11342000    190.74859    -6524.746   -6034.0568    -6524.746            0    2572.7845    23.408631    21.521515    21.662631      10913.4    1750.1037    2756.1969     3212.053   -389.94851    1223.9592    234.89031   -5624.5705 
11343000    186.08528   -6524.2705   -6045.5774   -6524.2705            0     2255.309    23.322307    21.514857    21.771928    10924.633    1834.5551    2851.3602    2080.0117   -696.10023    204.82888    533.21252   -5686.2513 
11344000    187.56013   -6511.0421    -6028.555   -6511.0421            0    1644.3527    23.451641     21.42514    21.840012    10973.616    1674.5887    1488.5891    1769.8803    1264.0009    531.18438    880.69706   -5765.3946 
11345000    176.30752   -6525.2862   -6071.7459   -6525.2862            0    3507.2355      23.3016    21.541894    21.646756    10865.819    3410.3023    3225.6206    3885.7835    682.54326   -1004.4846   -605.14629   -5515.9654 
11346000    189.28008    -6502.031   -6015.1195    -6502.031            0    1497.1396    23.351003    21.528811    21.867469    10993.199    2384.9146    1090.8591    1015.6452   -335.14949   -196.10319     807.2372   -5775.0913 
11347000    183.71924   -6514.3967   -6041.7901   -6514.3967            0    2337.5567    23.399101    21.466225    21.780728     10940.25     2342.649    1852.6389    2817.3824     128.7504     88.61095    400.48211   -5668.8275 
11348000    178.70717   -6528.0953    -6068.382   -6528.0953            0    2125.2393    23.315115    21.538925    21.769496    10932.261    2089.9759    1982.1599    2303.5821   -258.03448   -90.815364    76.741326   -5729.5428 
11349000    177.92784   -6493.9385     -6036.23   -6493.9385            0     1450.118    23.344319    21.540507    21.859664    10992.099    2409.7235     661.6192    1279.0112    -448.0833    249.12463   -278.36329   -5803.7638 
11350000    178.55646   -6514.7908   -6055.4652   -6514.7908            0    2102.9668    23.341407    21.503321    21.826005     10954.86    2710.0321     1420.926    2177.9423   -7.8729726   -481.72508   -365.10911   -5719.4839 
11351000    187.41178   -6543.4775   -6061.3721   -6543.4775            0    1549.0828    23.242256    21.508685    21.863277    10929.679    1513.5776    1805.5407      1328.13   -484.02818   -81.303026    1261.9134   -5814.4512 
11352000    192.29171   -6541.0127    -6046.354   -6541.0127            0    1753.9894    23.431158    21.442101    21.781646    10943.388    1468.2882    1247.3523    2546.3277    4.9756793   -244.27047   -118.26149   -5766.4206 
11353000    184.25739   -6488.4456   -6014.4547   -6488.4456            0    1626.9685    23.452128    21.446659    21.833327    10981.504    1538.6777    1320.2154    2022.0124    402.78548    -267.6416    1266.9767   -5753.8892 
11354000    191.39264    -6527.094   -6034.7481    -6527.094            0    1387.1688    23.326171    21.580342    21.783537    10965.544    1743.1836      1545.78     872.5427   -507.72953   -69.896873    48.571303   -5812.9103 
11355000    184.63691   -6502.6885   -6027.7213   -6502.6885            0    2197.8691    23.469709     21.41482    21.788675     10950.98    2016.7234    3425.0178    1151.8661    134.21808   -347.92405   -217.92103   -5676.7023 
11356000    182.88702   -6522.8195   -6052.3538   -6522.8195            0    1525.7026    23.488983    21.477709    21.749592    10972.442    1201.2037    1783.4581    1592.4462    200.00508    49.956293    5.8574562   -5808.2081 
11357000    187.05583   -6529.3409   -6048.1512   -6529.3409            0    2231.3739    23.223038    21.773809    21.585264    10914.675    3313.9233    615.73588    2764.4626    246.02647   -293.87726   -348.01626   -5692.9626 
11358000    182.72867   -6513.4513   -6043.3929   -6513.4513            0     2342.231     23.42559    21.341512    21.905342    10951.302    1098.8247    3312.0037    2615.8644    759.07226    928.21623   -140.19449    -5669.307 
11359000    179.36624   -6512.1315   -6050.7228   -6512.1315            0     2137.813    23.395677    21.420168    21.831998    10940.873    1334.3938    2200.9988    2878.0465    535.55061     88.09777   -553.26651   -5709.6103 
11360000    183.52026   -6523.4024   -6051.3077   -6523.4024            0    2865.3416    23.310416    21.496149    21.775466    10911.341    3516.2495    2652.8491    2426.9263   -859.28338    567.75602     -248.893   -5595.3438 
11361000    186.33801   -6510.8437   -6031.5005   -6510.8437            0    2425.0794    23.348151    21.562972    21.708601    10929.315     2407.125     1714.079    3154.0343    960.08601   -1043.8973    503.76555   -5644.9602 
11362000    181.25577     -6504.99   -6038.7206     -6504.99            0    1652.1071    23.499299    21.455461    21.751199      10966.7    1233.0745    1545.3703    2177.8767    16.566563   -148.25182    5.4685165   -5774.4857 
11363000    183.84813    -6504.646   -6031.7079    -6504.646            0    2127.7399    23.327749    21.491965    21.865873    10962.656    2093.1552    2231.1314     2058.933   -462.11153    1645.0758   -34.387423   -5691.5267 
11364000    189.28003   -6516.8085   -6029.8971   -6516.8085            0    2441.1713    23.312879    21.558935    21.714488     10913.72    2604.9583    2355.0209    2363.5347    669.42989    567.04054   -595.09044   -5641.3471 
11365000    184.04052    -6502.903   -6029.4699    -6502.903            0    1690.8551    23.543128    21.472868    21.711258    10975.876    359.41292    2455.1759    2257.9765    100.90812   -111.95384   -931.26399   -5758.8116 
11366000    186.63106   -6553.3094   -6073.2124   -6553.3094            0    2125.5735    23.354173    21.378293    21.860666    10914.426    2707.9124    3014.2445    654.56348   -117.82661    8.0749623   -50.984132   -5734.8728 
11367000    178.62468   -6545.8092   -6086.3081   -6545.8092            0    1868.0893    23.347346    21.447663    21.857684    10945.148     2060.168    996.31219    2547.7877   -184.63692    722.53597    349.35965   -5788.1167 
11368000    186.61786   -6542.3168   -6062.2537   -6542.3168            0    1477.1202    23.323208    21.527185    21.816153    10953.519    2871.1945    215.41952    1344.7465    854.96483   -922.80304    181.29022   -5826.2899 
11369000    181.98249   -6519.4747   -6051.3358   -6519.4747            0    2114.3576    23.274916     21.51544    21.842007    10937.823    3110.6467    1198.1721    2034.2542    529.13856   -592.74024   -269.02688     -5714.06 
11370000    181.45939   -6510.9316   -6044.1384   -6510.9316            0     2579.739    23.400106    21.433103    21.771115    10919.017    1977.7647    1946.1024    3815.3499   -216.97181    645.14356     708.4051   -5633.3339 
11371000    177.37796   -6505.3034   -6049.0094   -6505.3034            0    1442.6629    23.380946    21.449499    21.880441    10973.251    1559.0608    1124.7296    1644.1983    272.50773    175.02036   -23.124685   -5818.1349 
11372000    190.97312    -6499.095   -6007.8282    -6499.095            0    1903.3906    23.251254    21.615602    21.838875    10975.997    2456.6057    1534.3482    1719.2179   -390.87902   -385.59443   -775.42558   -5703.1455 
11373000    178.07149   -6508.1509   -6050.0728   -6508.1509            0    1040.5435    23.364929    21.490565    21.927011    11010.112     1243.376    1166.0793     712.1753    -9.283239   -1109.2495   -114.72736   -5882.9915 
11374000    191.46033   -6521.6908   -6029.1708   -6521.6908            0    3047.7785      23.2924    21.374939    21.876823    10891.893    3348.2683    3517.7896    2277.2778   -663.91651   -702.61165    334.70007     -5545.04 
11375000    180.73641   -6483.8084    -6018.875   -6483.8084            0    1741.8492    23.292901    21.481154    21.970779    10993.263    1864.8695    1874.6494    1486.0287    527.04721    876.14263   -634.70936   -5739.6122 
11376000    182.26568   -6508.6632   -6039.7959   -6508.6632            0    2122.8397    23.367077    21.442731    21.881097     10963.61    1760.9671    2954.6109    1652.9411   -1200.3931   -402.07714      151.203   -5700.3687 
11377000    187.79374   -6530.2441   -6047.1561   -6530.2441            0    2115.7523     23.31558     21.46222    21.846752    10932.205    2680.3413    2958.9199     707.9955   -284.54172    216.67052   -1141.3586   -5709.8312 
11378000    185.25543   -6518.4532   -6041.8949   -6518.4532            0    991.95538    23.286483    21.577997    21.878847    10993.589     1355.755    452.58189    1167.5293     518.2182    -25.61099    270.09104   -5882.8544 
11379000    187.76447   -6488.6331   -6005.6204   -6488.6331            0     2525.688    23.361771    21.340171     21.92598     10931.07     2783.871     3427.442    1365.7508   -957.92341   -248.33598   -393.33847   -5602.9792 
11380000    173.30765   -6525.2652   -6079.4418   -6525.2652            0    2348.0711    23.186875    21.570754    21.864063    10935.494     2471.799    3218.1402    1354.2742    -223.9246   -448.32371   -951.71807   -5704.9645 
11381000    185.85379   -6550.7641   -6072.6665   -6550.7641            0    2181.2091     23.28565    21.431447    21.862951      10910.6    2053.6253    3797.5799    692.42212    920.26627    327.36383     19.29178   -5725.5927 
11382000     181.3897   -6477.4838   -6010.8699   -6477.4838            0    1179.2525    23.558938     21.42399    21.819677    11012.968     587.1881    878.63234    2071.9371   -55.861869   -110.54857   -200.63322   -5821.4668 
11383000    189.93413   -6514.7973   -6026.2033   -6514.7973            0    2917.5853     23.19128    21.475386    21.898717    10906.474    3926.3004    2594.1578    2232.2978    423.99956   -969.20228    417.47581   -5562.1329 
11384000    182.32141   -6535.2122   -6066.2015   -6535.2122            0    1487.0994     23.33389    21.557823    21.832891    10982.553    2262.4528    1338.2534    860.59211    616.26231   -366.31746   -761.24249   -5828.0138 
11385000    186.88558   -6548.7114   -6067.9597   -6548.7114            0    2869.0937    23.349622    21.240161    21.899685    10861.143    3705.1924    2679.2134    2222.8755   -579.50711   -330.97998    170.06887   -5613.4992 
11386000      189.649   -6510.7665    -6022.906   -6510.7665            0    1403.4347    23.319381    21.492618    21.906342    10979.339    1570.4304    1545.2126     1094.661    92.988099    35.381145    517.38487   -5798.1847 
11387000    187.58262   -6529.7368    -6047.192   -6529.7368            0    2154.6353    23.278622    21.496165    21.876386    10946.967    3567.4239    1551.0031    1345.4789   -78.922697   -306.73686   -379.70559   -5703.2038 
11388000    179.73097   -6524.8507   -6062.5038   -6524.8507            0    1465.7121    23.273152    21.442712    21.988134    10972.947    2331.4272    1012.0737    1053.6355   -854.42992   -366.70973    931.35765   -5827.9471 
11389000    183.49724   -6521.5254   -6049.4899   -6521.5254            0    2301.6152    23.376677    21.350816     21.93185     10946.43    2343.8914    2521.2642    2039.6902   -933.33498    1037.7332   -1595.3585   -5682.0544 
11390000    185.16131   -6518.4706   -6042.1544   -6518.4706            0    1802.5892    23.309993    21.465557    21.902304    10959.081    2786.9438      902.403    1718.4209    634.33698   -316.32654    773.27842   -5754.0521 
11391000    188.49478   -6542.8681   -6057.9767   -6542.8681            0    1168.7293    23.408672    21.439179    21.875649    10978.572    1279.1644    1372.0693    854.95429   -359.45107   -53.463472   -59.904198     -5870.85 
11392000    189.82749   -6530.5343   -6042.2146   -6530.5343            0    2375.2321    23.338749    21.439887    21.823233    10919.912    2332.2092    2606.2095    2187.2777    -1032.756    878.35909   -291.25754   -5663.9453 
11393000    178.92915   -6498.6747   -6038.3903   -6498.6747            0    1136.8252    23.345434    21.630142    21.786816    11001.581    1096.0166    916.34931    1398.1097    41.205677    591.60733    15.158046   -5855.9904 
11394000    182.02105   -6514.3327   -6046.0946   -6514.3327            0    2385.4955    23.421544    21.443141    21.785324    10941.276    2761.1026    1175.1463    3220.2377   -923.16993   -38.341829    865.07975   -5665.4476 
11395000    192.66997   -6510.7885   -6015.1568   -6510.7885            0    2214.4788    23.439159    21.336948    21.848238    10926.743    2851.1045    1965.2646    1827.0672   -690.84639   -123.00645    383.59125   -5662.2677 
11396000    183.34876    -6525.176   -6053.5225    -6525.176            0    1160.0429    23.284878    21.732182    21.747471    11004.899    1702.0854    732.16453    1045.8789   -1264.8154   -234.01642   -1179.9037   -5867.3412 
11397000    185.70351   -6535.8442   -6058.1332   -6535.8442            0     2375.139    23.271133    21.471402    21.808264    10896.801    736.26987    3524.4294    2864.7176    63.125335    669.29263    430.01278   -5680.6793 
11398000    181.18677   -6533.1745   -6067.0826   -6533.1745            0    2854.4934    23.469281    21.300107    21.790344    10892.954    2598.6442    3287.6173    2677.2187    287.35997    290.25626    310.39671   -5613.6105 
11399000    188.62238    -6499.968   -6014.7484    -6499.968            0    1513.5754     23.34741    21.533604    21.893125    11006.854    1664.4806    1364.4921    1511.7534    1039.4161   -1132.3428   -159.21145   -5771.7837 
11400000    185.23826   -6529.1817   -6052.6675   -6529.1817            0    2077.5425    23.166473    21.596243    21.908627    10961.078    3528.1893    1286.6165    1417.8218   -1011.5186    728.99804    79.198687   -5720.5597 
11401000    194.63738   -6521.0257   -6020.3329   -6521.0257            0    1892.0948    23.383495    21.419223    21.882273    10959.875    2427.7702    2095.7238    1152.7903   -166.07798    173.11386     -694.614   -5717.9033 
11402000    183.70655    -6535.244   -6062.6701    -6535.244            0    853.01704    23.405086    21.507067     21.88346    11015.581    1830.7118    589.88488    138.45442    -635.4898    403.43913   -986.65598   -5925.6321 
11403000    181.36094   -6483.4493   -6016.9093   -6483.4493            0    3100.4217    23.340509    21.444598    21.789247    10906.125    3643.1921    2495.9063    3162.1666    138.88608   -717.01583    895.75819   -5523.7729 
11404000    186.22109    -6519.915   -6040.8726    -6519.915            0    1588.1786    23.419619    21.482462     21.78605    10960.803    1858.1515    2283.8948    622.48937   -436.62654   -160.60196     -938.558    -5786.999 
11405000    178.66036   -6519.3549    -6059.762   -6519.3549            0    3320.9467     23.38094    21.422131    21.767044     10902.45    3969.2748    3918.6821    2074.8832   -1169.8496     473.2681   -1034.6297   -5531.7281 
11406000    173.78685    -6531.185   -6084.1289    -6531.185            0    1826.5891    23.344393    21.547566    21.729464    10930.243    1640.2642    1828.7499    2010.7531    -753.7066    415.92138     573.9527    -5792.959 
11407000    178.25914    -6513.844   -6055.2833    -6513.844            0    2380.7599    23.380751    21.572731     21.68945    10939.869    2212.7998    1338.5712    3590.9087    1347.1683   -239.76342   -189.96187   -5675.4407 
11408000    183.20019   -6530.2941   -6059.0228   -6530.2941            0    1373.8479    23.379473    21.444445     21.83961    10949.503    1285.6765    1706.3041    1129.5633   -970.20922    581.17289     760.7539   -5839.6367 
11409000    186.82899   -6518.4317   -6037.8255   -6518.4317            0    2698.8998     23.37265    21.512501    21.752208    10937.101    2783.9228    2451.6897     2861.087   -814.54223    105.77803   -1822.2161   -5607.3337 
11410000    186.24919   -6525.3407    -6046.226   -6525.3407            0    2390.4069    23.267581    21.488472    21.797754    10898.545     2926.949    1785.4338    2458.8379    1005.8033    741.71216    860.72466    -5666.285 
11411000    182.23727   -6538.1822   -6069.3879   -6538.1822            0    1718.4851     23.38066    21.490889    21.784478    10946.072    2164.7397    2285.8486    704.86687    143.95883   -586.71091   -994.73197   -5795.0537 
11412000    183.73605   -6513.5777   -6040.9279   -6513.5777            0    2226.8928    23.375778    21.420216    21.884528    10957.894    1774.9042     2942.852    1962.9223    163.22474    107.42201    291.79035   -5685.0489 
11413000     181.2364   -6505.3562   -6039.1366   -6505.3562            0    1261.5237    23.446536    21.560176    21.735287    10987.437    334.41618    1866.5916    1583.5632    1144.2817    819.87284   -287.52536   -5836.9894 
11414000    184.60094   -6526.5034   -6051.6288   -6526.5034            0    2248.8227    23.363084     21.49689    21.713702    10905.352    1988.2108    3052.3693    1705.8879   -118.78786    1210.3628   -910.77171   -5693.9684 
11415000    185.82176   -6522.8836   -6044.8684   -6522.8836            0    2622.3354    23.410528    21.458995    21.718389    10910.589     3297.793     3110.226    1458.9872   -2163.9115   -137.79386    156.96434   -5627.6031 
11416000    188.35036   -6504.5653   -6020.0455   -6504.5653            0    1656.4467    23.475371     21.51086    21.753931      10985.2    1758.5307    1225.4471    1985.3624   -81.304682     557.2445   -256.65847   -5754.6696 
11417000    182.63709   -6520.2467   -6050.4239   -6520.2467            0    2029.1931    23.249013    21.537615    21.876968    10954.417    2807.1401    1855.9156    1424.5237    792.87337   -475.41143    370.76538   -5726.2422 
11418000    187.22172   -6498.7646   -6017.1482   -6498.7646            0    2288.5257    23.408753    21.507527    21.746207    10948.441    1966.7736    2631.0515    2267.7521   -181.05958   -527.56934   -286.72875   -5651.7352 
11419000    191.54168   -6492.0014   -5999.2721   -6492.0014            0    1688.1581    23.358304    21.450875    21.925697    10986.003    2508.3457    1270.7259    1285.4027    27.960274    632.80928    249.23391   -5728.7961 
11420000    183.92233   -6514.0247   -6040.8957   -6514.0247            0     2259.378    23.247701    21.511719    21.863686    10933.986     3810.477    1681.3808    1286.2762   -398.35717   -506.27688   -714.47307   -5680.6131 
11421000    182.34562   -6511.1242   -6042.0512   -6511.1242            0    2396.4489    23.352602    21.455067    21.834691    10939.871    1768.1327    2723.8976    2697.3164   -389.60333    780.79432   -397.38335   -5659.7054 
11422000    190.83344   -6529.8782   -6038.9708   -6529.8782            0    1538.6528    23.388372    21.358664    21.960735    10970.361    1892.5999     2290.766    432.59239   -105.04799   -306.84052   -434.19953   -5792.7995 
11423000    181.05859   -6514.8665   -6049.1043   -6514.8665            0    1954.5983    23.288973    21.502156    21.888348    10960.878    1279.6102    2529.5864    2054.5983    -68.94418    847.04367   -352.98247   -5736.6556 
11424000    182.19097   -6529.7001   -6061.0249   -6529.7001            0    1407.6735    23.305245    21.514285    21.867927    10964.484     1568.424    1511.2828    1143.3135   -426.53531    481.89567    479.88361   -5835.9298 
11425000    182.59258   -6504.3469   -6034.6386   -6504.3469            0    1451.1682    23.415178    21.513409    21.812738    10987.955    1340.2999    1338.6909    1674.5138    198.85745   -543.63942   -1037.4478   -5802.0917 
11426000    184.35784   -6537.7841   -6063.5348   -6537.7841            0    1289.3121     23.35371    21.443914     21.91023    10972.533    2136.1193    1184.0962    547.72093   -3.1343279   -651.31766    260.95211    -5857.215 
11427000    193.40992   -6497.4384   -5999.9032   -6497.4384            0    1494.2868     23.36947    21.512159    21.910755    11015.145    1775.5844    1452.3902    1254.8858   -35.962223   -1562.2629   -838.36063   -5759.8541 
11428000    194.18357   -6530.0556   -6030.5302   -6530.0556            0    2109.8438    23.305084    21.431204    21.872534    10924.369    2557.6912    2458.2148    1313.6255    56.907276   -148.88378   -245.63098   -5694.3884 
11429000    179.29146   -6501.0899   -6039.8735   -6501.0899            0    1304.4584    23.406532    21.506902     21.88444    11016.671    783.68609    2113.3842    1016.3051   -858.76644    672.61736    296.39735   -5830.2903 
11430000     189.2812   -6515.1361   -6028.2217   -6515.1361            0    3298.5605    23.278692    21.504137    21.782903    10904.263    3189.8591    3493.6621    3212.1605     108.8722    728.11782   -339.49493   -5503.6599 
11431000    191.61523   -6538.7055    -6045.787   -6538.7055            0    2764.8914    23.350282    21.386222    21.847714    10910.187    3384.4326    2438.0894    2472.1522   -377.06374   -917.52434    1792.7979   -5605.8543 
11432000    183.00314   -6497.4037   -6026.6393   -6497.4037            0    1889.8021    23.369488    21.425231    21.926663    10978.607    1948.9086    2107.6558    1612.8418    -1137.736    599.33277    142.08713   -5724.0598 
11433000    181.05874   -6520.8663   -6055.1038   -6520.8663            0    2206.5302    23.313536    21.454271    21.873809     10940.73    2488.0028     2017.484    2114.1038   -917.67394    1175.8263   -135.85053   -5703.0313 
11434000    182.22987   -6529.1858   -6060.4105   -6529.1858            0     2731.241    23.359695    21.397996    21.819195     10906.34    2842.6006    2664.9469    2686.1754    87.279614    83.465768    282.76665   -5625.9854 
11435000    189.96522   -6515.1081   -6026.4342   -6515.1081            0    1299.5488     23.41665    21.566916    21.778461    10998.666    1882.5831    657.61862    1358.4445   -754.35617    660.60352   -7.9630902    -5817.981 
11436000    189.64144    -6509.721   -6021.8799    -6509.721            0    2445.9459    23.327703    21.494142     21.79593    10928.675    2305.3701    3137.0342    1895.4335    147.21449    896.15207    448.79728   -5632.0365 
11437000    178.67054   -6530.4934   -6070.8743   -6530.4934            0    1954.0536    23.410643    21.428454    21.844183    10958.219    1717.2399    1383.1265    2761.7943   -645.80382    28.899227   -170.10714   -5758.5885 
11438000    187.99904   -6502.3002   -6018.6842   -6502.3002            0    3611.4165    23.396879    21.439194    21.728157    10899.065    2663.3369    4839.5684    3331.3443    617.66316    155.53225   -401.19472   -5444.6434 
11439000    181.55477   -6538.8085   -6071.7699   -6538.8085            0    1744.9484    23.363836     21.48389    21.786896    10935.847    967.69202    2462.7995    1804.3537     1102.853   -139.10569   -79.359479   -5793.4714 
11440000    191.94975   -6495.0405   -6001.2615   -6495.0405            0    2624.9689    23.329237    21.554252    21.772348      10948.1    2587.4746    2124.5781     3162.854    202.25145    169.47526   -100.38135   -5582.1411 
11441000    191.96465   -6513.2311   -6019.4138   -6513.2311            0    1302.7386    23.466783    21.371508    21.898092    10982.343    660.19475     2101.771      1146.25    815.85028    441.60835    619.41281   -5810.7591 
11442000    184.89055   -6505.4385   -6029.8189   -6505.4385            0     3382.908    23.240494     21.61418    21.667373    10884.046    3199.5811    2525.1936    4423.9493     -747.506    1010.3954    -594.9056   -5492.8409 
11443000    186.31511   -6533.6277   -6054.3434   -6533.6277            0     1302.575     23.33305    21.548484    21.805696    10963.727    2243.0905    1442.6235    222.01088   -1108.7357   -448.79175   -75.349448   -5846.0686 
11444000    188.25325   -6521.6503   -6037.3803   -6521.6503            0    2408.1148    23.460981    21.400192    21.778961    10934.552    1722.3694    3147.0951      2354.88   -407.34882     513.4027    79.437694   -5653.3601 
11445000    186.60146   -6504.0811   -6024.0603   -6504.0811            0    3155.1518    23.457899    21.384033     21.72042    10895.494     3271.485    2937.3087    3256.6615   -292.65791    37.097017   -183.88202   -5522.7079 
11446000    188.11509   -6532.5049   -6048.5903   -6532.5049            0    2687.7488    23.195314    21.607185    21.772519     10912.07    3228.7326    1198.9592    3635.5546   -859.44518   -278.76372    819.38219   -5620.8584 
11447000    183.58779   -6511.4384   -6039.1699   -6511.4384            0    1198.1594    23.505568    21.499214    21.742076    10987.385    227.09271    1739.9425    1627.4431    588.90072   -162.27321    607.99763   -5847.1772 
11448000    187.82123   -6504.9612   -6021.8025   -6504.9612            0    2972.5484    23.609181    21.281407    21.693512    10899.615    1317.3319    3488.3185    4111.9947   -447.60076     869.6774    377.33383   -5549.2871 
11449000    188.11097   -6510.8541   -6026.9501   -6510.8541            0    2298.8263    23.306986    21.504269    21.827523    10939.948    2121.7459    2139.1999     2635.533   -1321.4033    645.50596   -169.04394   -5660.1772 
11450000    187.82568   -6537.3046   -6054.1344   -6537.3046            0    2307.1844    23.254963    21.558831    21.871861    10965.454    2780.5315    1503.9238    2637.0978    76.848283    583.01976    605.14886   -5685.1697 
11451000    190.57165   -6527.2844   -6037.0504   -6527.2844            0     2975.479    23.398564    21.344232    21.839431    10907.144     3024.257    4164.8675    1737.3127    14.929706   -490.69639   -983.78153   -5563.7424 
11452000    179.49374   -6505.3564   -6043.6197   -6505.3564            0    1548.5702    23.444908    21.502407    21.784786    10982.189    2369.1688    1487.1991    789.34258    82.109032   -1093.4519    1594.3251   -5795.5946 
11453000    180.92189   -6547.4785   -6082.0679   -6547.4785            0    2176.3159    23.348422    21.566006    21.702483    10927.899    2822.1297    1859.3499     1847.468     159.0862    274.17179   -26.029939   -5735.2237 
11454000    182.57138    -6521.899   -6052.2453    -6521.899            0    1896.0234    23.411312    21.476638    21.790963    10956.414    2589.5576    1411.9364    1686.5763    -120.0962    -137.9065    708.76901   -5749.2834 
11455000    181.16698   -6521.5008   -6055.4598   -6521.5008            0    1909.6648    23.544661    21.501698    21.654402    10962.545   -240.24892    2671.0463     3298.197   -512.66988   -195.58042   -392.08986   -5750.1474 
11456000    174.00972   -6511.3379   -6063.7084   -6511.3379            0    1778.8959    23.303872    21.634931    21.714054    10947.741    740.91031    2969.5573    1626.2201    773.49402    1133.9894    5.9975052   -5779.6871 
11457000    182.15539   -6532.1989   -6063.6153   -6532.1989            0    2864.0539    23.411612    21.403793    21.743056    10895.387    3043.1896    2477.7297    3071.2424   -445.90094    34.845924   -128.95114   -5608.5227 
11458000    186.92864   -6519.3514   -6038.4888   -6519.3514            0    167.55717     23.46672    21.576401    21.759425    11017.392   -104.12708   -227.44332    834.24191    385.21061    190.69383    388.72375   -6011.5662 
11459000    186.77505   -6505.0977   -6024.6302   -6505.0977            0    2662.0642     23.30297    21.600281    21.688981    10917.164    2879.4917    2348.9234    2757.7776    1094.4369   -225.50146    774.02871    -5600.788 
11460000    186.69025   -6528.2098   -6047.9605   -6528.2098            0    2124.1937    23.572455    21.402552    21.637622    10916.412    1211.5068     3417.908    1743.1664   -34.914481    716.04478   -1086.7902   -5709.7789 
11461000    183.76835   -6502.2283   -6029.4954   -6502.2283            0    1944.9376    23.430707    21.407901    21.822672    10946.301    552.22593    3460.8039    1821.7831    854.14184    811.63722    196.00258   -5719.0045 
11462000    181.78986    -6526.864   -6059.2207    -6526.864            0    1373.7258    23.274741    21.672586    21.764298    10978.431    1159.7184    900.59393     2060.865   -418.29266    925.62123   -294.47874   -5839.2746 
11463000    185.54866   -6521.8509   -6044.5382   -6521.8509            0    1961.4187    23.475937     21.43148    21.689971    10912.746    1598.3845    1512.7285    2773.1433    337.00351    321.10736    358.75405   -5732.3761 
11464000    190.22034    -6530.244   -6040.9138    -6530.244            0    2335.2771    23.655408    21.275451    21.670344    10906.239    1872.9422    2086.6694    3046.2199   -290.65911    715.15891   -155.84831   -5669.4732 
11465000    172.64844   -6514.3459   -6070.2183   -6514.3459            0    1589.3025    23.357291    21.627594    21.684016    10953.941    1996.1858   -317.28579    3089.0075   -558.06593    477.15368    1265.7126   -5816.3241 
11466000    182.53816   -6516.4913    -6046.923   -6516.4913            0    1428.0678    23.341641    21.649492    21.699546    10965.533    855.72861    1348.2393    2080.2355    774.28519    51.835446    565.84597   -5818.5449 
11467000    186.90889   -6525.6281   -6044.8164   -6525.6281            0    2625.1962    23.572562    21.426189    21.613805    10916.488    357.15634     4104.214    3414.2183   -5.5725057   -363.38265   -462.43041     -5626.87 
11468000    183.29043    -6497.021   -6025.5176    -6497.021            0    2201.2945    23.536875    21.360753     21.73307    10926.635    1497.7045    2120.9484    2985.2306   -118.06199    542.05292    1298.0992    -5674.733 
11469000     187.3554   -6528.8908   -6046.9305   -6528.8908            0    2304.0226    23.352581    21.553169    21.698977    10921.575    1583.5671    2251.6016    3076.8992     339.2769    128.66285   -38.528126   -5679.9458 
11470000    179.92207   -6536.9299   -6074.0914   -6536.9299            0    1686.6915    23.381959    21.504087    21.781559    10951.935    1920.7395    2080.6337    1058.7013   -90.180547   -239.10798    -65.70689   -5804.6884 
11471000    172.94475    -6492.591   -6047.7012    -6492.591            0    2104.6725      23.4493    21.426098    21.762433    10934.034    1550.3011    2571.5532    2192.1632    81.503062   -296.47741    960.03653   -5712.0866 
11472000    189.54237   -6549.6161   -6062.0299   -6549.6161            0     2644.558    23.406653     21.43747    21.738976    10908.171    2206.4724    2401.8816    3325.3201    575.28303   -456.56522   -700.07146   -5641.3217 
11473000    183.52401   -6527.8863   -6055.7819   -6527.8863            0    679.72708    23.341907     21.55753    21.841607    10990.562    642.66733    308.13013    1088.3838    433.40262     325.5432    -113.9661   -5946.8311 
11474000    195.31229    -6514.418    -6011.989    -6514.418            0    4732.9321    23.362472    21.364469    21.711806    10836.944    4446.6394    4688.7557    5063.4013   -5.8441699   -1231.1447   -670.65144   -5263.9694 
11475000    185.43957   -6534.8683   -6057.8363   -6534.8683            0    1420.3752    23.474843    21.495808     21.75759    10979.113    1289.3045    802.41386    2169.4072   -449.99588    1301.9528    931.82709   -5830.4071 
11476000    189.10761   -6529.2922   -6042.8244   -6529.2922            0    3189.5494    23.360875    21.479296    21.663711    10870.312    3810.3553      2582.94    3175.3529    -894.3429    221.35519     42.46537   -5537.1777 
11477000    187.94037   -6486.1597   -6002.6946   -6486.1597            0    567.17604    23.427485    21.632638    21.785207    11040.706    580.46403   -219.51664    1340.5807   -622.00302   -107.68292    1247.1259   -5911.3694 
11478000    191.06714   -6498.6492   -6007.1407   -6498.6492            0    1733.5174    23.463302    21.472949    21.758061    10962.283    2100.0564    2663.2261     437.2698    -990.4148    1244.7832   -1608.4078   -5729.9969 
11479000    192.85223    -6527.481   -6031.3804    -6527.481            0    2720.7956    23.344113    21.489637    21.738096    10905.057    2527.2104    2440.0101    3195.1664    130.04151    743.46589    1233.1883   -5598.6676 
11480000    188.31199    -6500.991   -6016.5699    -6500.991            0    1499.8186    23.266155    21.695955    21.765666    10986.905    1724.5257    1155.7983    1619.1317    324.25244    212.30719   -57.083488   -5776.2499 
11481000    191.60251    -6508.225   -6015.3393    -6508.225            0    2823.5457     23.37919    21.306949    21.907836    10913.152    2412.5404    2553.5123    3504.5843    -276.7108    41.687427    583.67361   -5565.9518 
11482000    186.00905   -6514.7057   -6036.2088   -6514.7057            0    1691.2374    23.428373    21.490784     21.78198    10967.099    2482.6526    633.08003    1957.9794   -625.57082    634.45777    405.66874   -5765.7057 
11483000    185.61083   -6532.7269   -6055.2543   -6532.7269            0    2698.6582    23.363731    21.518313     21.68609     10902.64    2617.9134    2781.5923     2696.469    -568.6887   -403.92564   -421.04428   -5626.1574 
11484000    185.68601   -6522.4576   -6044.7916   -6522.4576            0    1560.7992    23.463825    21.529622    21.684448    10954.274    1743.7144    1624.1191     1314.564    744.64697   -986.15854   -340.81297   -5795.4433 
11485000    182.87529   -6516.0308   -6045.5953   -6516.0308            0    1788.4144     23.40579     21.50718     21.74372    10945.627    1463.5701    1190.9585    2710.7146     146.6662   -472.71623    248.47876   -5760.1094 
11486000    177.42389   -6504.8063   -6048.3941   -6504.8063            0    3590.4322    23.367971    21.392695    21.747953    10871.886    3656.5241    3880.0006    3234.7719    331.42504    53.745229   -95.190086   -5479.1121 
11487000    183.01249    -6529.919   -6059.1305    -6529.919            0    1337.6231    23.508002    21.530408    21.680327    10973.213    890.60651    1271.7695    1850.4933    645.83461   -1209.5203    59.841206   -5845.0666 
11488000    194.20684   -6514.1814   -6014.5961   -6514.1814            0    2780.3508    23.396164    21.470809    21.714224    10907.805    1615.9336    3580.7246    3144.3941    1189.7871   -327.42365    415.44471   -5572.3003 
11489000    180.79174   -6513.5803   -6048.5045   -6513.5803            0    1373.4526    23.380815    21.556181    21.797363    10985.894    2104.9489    508.90506    1506.5037   -724.02863    586.16644     458.3156   -5828.4527 
11490000    191.45939   -6517.4292   -6024.9116   -6517.4292            0    2437.7976    23.404236    21.459877    21.726364     10912.11    2934.6643    1603.4045    2775.3241    353.14574   -924.68532     295.1481   -5636.9557 
11491000    190.05266   -6548.0286   -6059.1297   -6548.0286            0     1610.404    23.439668    21.455786    21.813579    10970.409    1701.2726    2049.6298    1080.3096    587.95364   -726.93664    384.82308   -5801.4777 
11492000    182.59653    -6515.199   -6045.4805    -6515.199            0    1232.6978    23.382486    21.615983    21.746336    10991.369    527.90605    423.28704    2746.9002    496.53153   -508.29758    26.453713   -5847.8818 
11493000    183.91339   -6504.1265   -6031.0206   -6504.1265            0    2987.0894     23.35649    21.453428    21.743005    10894.915    2505.5954    3495.8583    2959.8145    629.15491   -136.40694   -539.36716   -5556.3985 
11494000    181.18284   -6511.6895   -6045.6077   -6511.6895            0    1096.9145    23.510361    21.426127    21.805327    10984.128    289.26748    2100.7595    900.71658    247.23258    156.85945   -260.18467   -5869.8905 
11495000    193.16664   -6497.0825    -6000.173   -6497.0825            0     2107.027    23.440893    21.603981    21.619205    10948.324    2278.3043    1731.8242    2310.9526   -243.34655    907.44468   -687.32062   -5663.7439 
11496000    179.71011   -6514.6644   -6052.3711   -6514.6644            0    1982.2372    23.339916     21.63585     21.66051    10938.101    2230.6853    1144.0965    2571.9297   -72.164451   -501.70844    707.71127   -5736.1627 
11497000    185.80376   -6518.4173   -6040.4485   -6518.4173            0    2100.1862    23.566427    21.377502    21.704393    10934.485    964.61637    2338.6018    2997.3406   -394.68977    631.39987   -12.362553   -5705.5354 
11498000    180.84294   -6496.8847   -6031.6773   -6496.8847            0    2012.8248    23.346363    21.609051    21.772865    10984.252    2318.0327    1387.5834    2332.8583   -60.625813    1241.4094    434.04948   -5709.2348 
11499000    185.85335   -6525.0549   -6046.9584   -6525.0549            0    2469.4105    23.205264    21.643965    21.737736    10917.863    2758.6099    2390.4351    2259.1866   -1113.6254    611.54644   -641.41628   -5653.7645 
11500000    187.26609    -6487.422   -6005.6914    -6487.422            0    2116.0397    23.488261    21.387297    21.877747    10990.295    1942.1072     3317.141    1088.8708   -243.42777   -59.393137   -746.70821    -5666.528 
Loop time of 571.09 on 64 procs for 250000 steps with 1296 atoms

Performance: 75.645 ns/day, 0.317 hours/ns, 437.759 timesteps/s
197.2% CPU use with 32 MPI tasks x 2 OpenMP threads

MPI task timing breakdown:
Section |  min time  |  avg time  |  max time  |%varavg| %total
---------------------------------------------------------------
Pair    | 36.395     | 47.625     | 59.09      |  88.5 |  8.34
Bond    | 0.67872    | 0.98807    | 1.3275     |  15.8 |  0.17
Kspace  | 305.89     | 318.05     | 329.44     |  38.4 | 55.69
Neigh   | 2.2067     | 2.4634     | 2.7627     |   9.2 |  0.43
Comm    | 74.607     | 81.394     | 88.062     |  44.6 | 14.25
Output  | 0.52435    | 0.52727    | 0.52904    |   0.1 |  0.09
Modify  | 105.73     | 109.14     | 111.79     |  12.4 | 19.11
Other   |            | 10.91      |            |       |  1.91

Nlocal:        40.5000 ave          51 max          30 min
Histogram: 5 2 4 2 3 0 4 4 6 2
Nghost:        3021.28 ave        3052 max        2982 min
Histogram: 2 1 1 3 4 5 7 5 1 3
Neighs:        12701.4 ave       15990 max        9272 min
Histogram: 2 4 4 3 2 1 4 5 5 2

Total # of neighbors = 406445
Ave neighs/atom = 313.61497
Ave special neighs/atom = 2.0000000
Neighbor list builds = 5514
Dangerous builds = 0

unfix		3
unfix		2
unfix		1

write_data	data.final.${pid}
write_data	data.final.0
System init for write_data ...
PPPM initialization ...
  extracting TIP4P info from pair style
  using 12-bit tables for long-range coulomb (../kspace.cpp:340)
  G vector (1/distance) = 0.367133
  grid = 30 40 32
  stencil order = 5
  estimated absolute RMS force accuracy = 0.0045368587
  estimated relative force accuracy = 1.3662615e-05
  using double precision FFTW3
  3d grid and FFT values/proc = 7888 1280
Last active /omp style is kspace_style pppm/tip4p/omp
WARNING: Not all mixed pair coeffs generated from mixing. Use write_data with 'pair ij' option to store all pair coeffs. (../write_data.cpp:312)

write_restart   restart.lmp.${pid}
write_restart   restart.lmp.0
System init for write_restart ...
PPPM initialization ...
  extracting TIP4P info from pair style
  using 12-bit tables for long-range coulomb (../kspace.cpp:340)
  G vector (1/distance) = 0.367133
  grid = 30 40 32
  stencil order = 5
  estimated absolute RMS force accuracy = 0.0045368587
  estimated relative force accuracy = 1.3662615e-05
  using double precision FFTW3
  3d grid and FFT values/proc = 7888 1280
Last active /omp style is kspace_style pppm/tip4p/omp
Total wall time: 0:09:31
