LAMMPS (30 Jul 2021)
Processor partition = 1
  using 4 OpenMP thread(s) per MPI task
using multi-threaded neighbor list subroutines
variable        pid world 0 1
variable        phase world IceII IceIh

shell cd ${phase}
shell cd IceIh
include Restart.lmp
echo both
log log.lammps
#include		in.partitions
include		in.temp
variable        temperature equal 87.60
variable	tempDamp equal 100.0
include		in.pressure
variable        pressure equal 2034.3
variable        pressureDamp equal 1000.0 # This is 1 ps
include		in.seed
variable        seed equal 745823

units		real
atom_style	full
#include		in.box
read_restart	restart.lmp.${pid}
read_restart	restart.lmp.1
Reading restart file ...
  restart file = 30 Jul 2021, LAMMPS = 30 Jul 2021
  restoring atom style full from restart
  orthogonal box = (0.19738586 0.14024832 0.13515690) to (18.010187 23.488929 22.078039)
  2 by 4 by 2 MPI processor grid
  restoring pair style lj/cut/tip4p/long/omp from restart
  restoring bond style harmonic/omp from restart
  restoring angle style harmonic/omp from restart
  864 atoms
  576 bonds
  288 angles
Finding 1-2 1-3 1-4 neighbors ...
  special bond factors lj:    0        0        0       
  special bond factors coul:  0        0        0       
     2 = max # of 1-2 neighbors
     1 = max # of 1-3 neighbors
     1 = max # of 1-4 neighbors
     2 = max # of special neighbors
  special bonds CPU = 0.001 seconds
  read_restart CPU = 0.005 seconds
include 	in.setup
variable	out_freq equal 1000
variable	out_freq2 equal 10000
variable	out_freq3 equal 1000

timestep	2.0

neigh_modify    delay 7 every 1

include		in.tip4p
# This is TIP4P/Ice

# create groups ###
group ox type 2
288 atoms in group ox
group hy type 1
576 atoms in group hy

# set charges - beside manually ###
set group ox charge -1.1794
Setting atom values ...
  288 settings made for charge
set group hy charge 0.5897
Setting atom values ...
  576 settings made for charge

# ### TIP3P Potential Parameters ###
pair_style lj/cut/tip4p/long/omp 2 1 1 1 0.1577 8.5
pair_coeff 1 1*2 0.000 0.000
pair_coeff 2 2 0.21084 3.1668
bond_style  harmonic
bond_coeff  1 450 0.9572
angle_style harmonic
angle_coeff 1 55 104.52
kspace_style pppm/tip4p/omp 1.0e-5
pair_modify tail yes

thermo          ${out_freq}
thermo          1000
thermo_style    custom step temp pe etotal epair emol press lx ly lz vol pxx pyy pzz pxy pxz pyz enthalpy

restart 	${out_freq3} restart.lmp.${pid} restart2.lmp.${pid}
restart 	1000 restart.lmp.${pid} restart2.lmp.${pid}
restart 	1000 restart.lmp.1 restart2.lmp.${pid}
restart 	1000 restart.lmp.1 restart2.lmp.1


include         in.dump
dump            myDump all atom ${out_freq2} dump.water.${pid}
dump            myDump all atom 10000 dump.water.${pid}
dump            myDump all atom 10000 dump.water.1
dump            myDump2 all dcd ${out_freq2} dump.dcd
dump            myDump2 all dcd 10000 dump.dcd
dump_modify     myDump append yes
dump_modify     myDump2 append yes


variable natoms 	equal  "count(all)"                        # NUMBER ATOMS
variable H      	equal  "enthalpy/v_natoms"                 # ENTHALPY-per-atom
variable Vol      	equal  "vol/v_natoms"                 # volume-per-atom
fix AVG all 		ave/time ${out_freq} 1 ${out_freq} v_Vol v_H file vol_enthalpy.dat
fix AVG all 		ave/time 1000 1 ${out_freq} v_Vol v_H file vol_enthalpy.dat
fix AVG all 		ave/time 1000 1 1000 v_Vol v_H file vol_enthalpy.dat


timer           timeout 23:50:00 every 1000
New timer settings: style=normal  mode=nosync  timeout=23:50:00

fix 		1 all shake 1e-6 200 0 b 1 a 1
Finding SHAKE clusters ...
       0 = # of size 2 clusters
       0 = # of size 3 clusters
       0 = # of size 4 clusters
     288 = # of frozen angles
  find clusters CPU = 0.000 seconds
fix             2 all nph aniso ${pressure} ${pressure} ${pressureDamp}
fix             2 all nph aniso 2034.3 ${pressure} ${pressureDamp}
fix             2 all nph aniso 2034.3 2034.3 ${pressureDamp}
fix             2 all nph aniso 2034.3 2034.3 1000
fix             3 all temp/csvr ${temperature} ${temperature} ${tempDamp} ${seed}
fix             3 all temp/csvr 87.6 ${temperature} ${tempDamp} ${seed}
fix             3 all temp/csvr 87.6 87.6 ${tempDamp} ${seed}
fix             3 all temp/csvr 87.6 87.6 100 ${seed}
fix             3 all temp/csvr 87.6 87.6 100 745823


run             250000
PPPM initialization ...
  extracting TIP4P info from pair style
  using 12-bit tables for long-range coulomb (../kspace.cpp:340)
  G vector (1/distance) = 0.37205459
  grid = 24 27 25
  stencil order = 5
  estimated absolute RMS force accuracy = 0.0031244088
  estimated relative force accuracy = 9.4090642e-06
  using double precision FFTW3
  3d grid and FFT values/proc = 6300 1296
Last active /omp style is kspace_style pppm/tip4p/omp
Neighbor list info ...
  update every 1 steps, delay 7 steps, check yes
  max neighbors/atom: 2000, page size: 100000
  master list distance cutoff = 10.8154
  ghost atom cutoff = 10.8154
  binsize = 5.4077, bins = 4 5 5
  1 neighbor lists, perpetual/occasional/extra = 1 0 0
  (1) pair lj/cut/tip4p/long/omp, perpetual
      attributes: half, newton on, omp
      pair build: half/bin/newton/omp
      stencil: half/bin/3d
      bin: standard
Setting up Verlet run ...
  Unit style    : real
  Current step  : 30750000
  Time step     : 2
  Walltime left : 23:49:59.96
Per MPI rank memory allocation (min/avg/max) = 12.26 | 12.29 | 12.31 Mbytes
Step Temp PotEng TotEng E_pair E_mol Press Lx Ly Lz Volume Pxx Pyy Pzz Pxy Pxz Pyz Enthalpy 
30750000    89.095509   -4573.1252   -4420.4186   -4573.1252            0    2522.0066    17.812801    23.348681    21.942882    9126.1632    1936.7655     2766.841    2862.4134   -211.48349    224.03331   -263.31017   -4084.7502 
30751000    86.563365   -4582.7903   -4434.4237   -4582.7903            0    1787.0228     17.86637    23.370881    21.963449    9170.8996    1665.5424    1847.2532    1848.2728    417.41008   -660.12846   -458.61691   -4195.4126 
30752000    87.153538    -4582.844   -4433.4658    -4582.844            0    2418.4647    17.904085    23.228654    21.987238    9144.2236    2172.1634    3181.7773    1901.4535   -621.16042    300.57024    378.70442   -4110.9415 
30753000    84.782785   -4579.2213   -4433.9065   -4579.2213            0    1764.1192     17.92383    23.437732    21.851017    9179.4796    1407.3035    1651.1031    2233.9508   -99.180615   -130.06802   -357.26824   -4197.7381 
30754000    87.706255   -4597.3081   -4446.9826   -4597.3081            0    1782.4469    17.940215    23.193459    22.016609    9161.0156     1861.467    2102.8616     1383.012   -249.90519   -285.26953   -391.32305   -4208.8405 
30755000    86.614736    -4578.428   -4429.9733    -4578.428            0    2752.7137    17.980967    23.301399    21.759394    9116.7873     1766.144     3697.367      2794.63    25.953903    13.999208   -416.82464   -4063.9753 
30756000    89.782907   -4581.0052   -4427.1204   -4581.0052            0     1626.564    18.055869    23.320528    21.793951    9176.8313    1594.2102    2518.1719    767.30997   -371.87739    497.82675    105.93757   -4209.4297 
30757000    90.401241   -4585.2927    -4430.348   -4585.2927            0    2818.8185    17.963576    23.284401    21.826516    9129.4006    3397.9586    2619.9859    2438.5111    205.77144    -185.5515   -299.83493   -4055.0422 
30758000    90.906673   -4584.4612   -4428.6503   -4584.4612            0    2145.0017    17.918958    23.354416    21.892176    9161.5866    2556.4336    1912.2967    1966.2747   -384.39126   -98.935246    195.61584   -4142.0516 
30759000    88.951738   -4574.8629   -4422.4027   -4574.8629            0    2189.5125    17.905201    23.253277    21.967362    9146.2123    2343.3074    2721.4237    1503.8063   -275.92711   -237.66562   -4.9120691   -4130.3477 
30760000    89.617437   -4585.6767   -4432.0755   -4585.6767            0    2119.6963    18.002152    23.206051    21.936722    9164.2601    2046.6786    2256.7612    2055.6492   -310.96412    284.94348    22.084062   -4148.7752 
30761000    89.029058   -4586.0879   -4433.4952   -4586.0879            0    2705.1925    17.873102    23.236766    21.956875     9118.978    3315.3998    2002.1535    2798.0242    194.16536    128.58414    223.37027   -4073.7291 
30762000    93.983425   -4578.2952   -4417.2108   -4578.2952            0    1476.2988    17.835168    23.493499    21.877247    9166.7965     2379.628    989.42195    1059.8466   -395.01229     344.6049   -278.04665   -4219.8469 
30763000    87.977661   -4573.9505   -4423.1598   -4573.9505            0    2059.8116    17.748154    23.395769    22.055923    9158.3187    2719.2701    2713.2837    746.88111    106.33654   -218.29308   -429.14253   -4148.0417 
30764000    84.745667   -4586.6744   -4441.4232   -4586.6744            0    2007.1329    17.820845    23.401882    21.978505    9165.9446    2025.0598    2390.1902    1606.1486    106.46703    160.64111   -232.95232   -4173.1179 
30765000    89.505853    -4588.857   -4435.4471    -4588.857            0    1920.3764     17.92147    23.334303     21.95555    9181.4822    2415.0433    2572.4202    773.66579    116.85709    239.28892     78.02025   -4178.3039 
30766000    91.659587   -4589.1625   -4432.0611   -4589.1625            0    1421.6231    17.960007    23.361881    21.900082    9188.8263    1243.7826    1053.2817    1967.8051   -616.01293    233.46301    544.80616     -4241.55 
30767000    89.810744    -4587.899   -4433.9665    -4587.899            0    1450.6102    17.964272    23.312655    21.957211    9195.5673    1073.8975    2311.8612    966.07196   -94.514789    522.24847    237.55455   -4239.4282 
30768000    87.581415    -4592.898   -4442.7864    -4592.898            0    2865.3158    17.927647    23.288066    21.828841    9113.5465    2471.6319    2897.9616    3226.3537    230.79564     90.23804    803.59203   -4061.9524 
30769000    86.808612   -4581.1427   -4432.3557   -4581.1427            0    1414.9582    18.080903     23.36003    21.778541    9198.6122    703.62473    1451.2553    2089.9945   -44.000821   -315.51085    464.85036   -4242.5358 
30770000    84.982604   -4586.0088   -4440.3515   -4586.0088            0     2143.067    18.054099     23.19848    21.867927    9158.8927    1618.9014    2437.1807    2373.1189    73.165732    635.71992   -463.47659   -4154.0955 
30771000    87.173304   -4593.2096   -4443.7975   -4593.2096            0    1740.4561    17.901011    23.225684    22.071965    9176.7115    1952.0618    1630.0865      1639.22   -190.92085    245.95765    238.36711   -4210.8672 
30772000    87.467359   -4574.3262   -4424.4102   -4574.3262            0    2193.7069    17.916883     23.15738    22.037782    9143.6535    2647.9131    2539.3595    1393.8481   -533.86456   -530.76753   -134.07096   -4131.8776 
30773000     84.63541   -4587.4364   -4442.3742   -4587.4364            0    1072.6236    17.990977     23.27548    22.011451    9217.2645    717.26476    1498.4504    1002.1555    302.57627    -664.1017  0.041090362   -4298.1875 
30774000    95.081674   -4576.7338   -4413.7671   -4576.7338            0     2465.296    17.886329    23.340486    21.929855      9155.18    2549.3687    1976.2219    2870.2974   -491.57746   -187.45771     50.22403   -4084.6035 
30775000    87.262977   -4581.3911   -4431.8253   -4581.3911            0    2356.7089    17.787162     23.29981    22.037737    9133.2644    2980.9874    2874.2336    1214.9057    221.78958    125.83783   -20.115609   -4117.9133 
30776000    92.037232   -4578.2561   -4420.5075   -4578.2561            0    2359.7099    17.810463    23.462034    21.896065    9149.7015    2793.4895    2090.8559    2194.7844   -166.41892    124.73096     88.66873   -4105.6301 
30777000     92.66445   -4584.8024   -4425.9787   -4584.8024            0    1551.8973    17.908019    23.359908    21.954055     9184.033     1603.492    1498.1321    1554.0678    126.51207    475.70174   -156.73396    -4218.118 
30778000    85.866826   -4585.6301   -4438.4573   -4585.6301            0    2404.0451    18.023292    23.172022     21.89576    9144.4604    2059.3789    3081.8769    2070.8795    76.775612   -170.91222   -13.774022   -4117.8477 
30779000    85.786615   -4592.6957   -4445.6604   -4592.6957            0    1617.4406    18.027528    23.205978    21.920519    9170.3705    1288.8501    1902.0183    1661.4534    188.64585   -38.941009    15.857144   -4229.3431 
30780000    92.238206   -4583.9815   -4425.8884   -4583.9815            0    1802.1541    17.932073    23.363026    21.862883    9159.3999      1261.38    2300.7859    1844.2962    -86.24807    -497.5229    563.94606   -4185.1558 
30781000    87.822928   -4573.4062   -4422.8807   -4573.4062            0    2158.2896    17.945634    23.332652    21.862956    9154.4397    1720.1544     2313.623    2441.0914    758.85961    379.61498   -307.97959   -4134.7315 
30782000    87.774815   -4576.4616   -4426.0185   -4576.4616            0    3353.2981    17.865068    23.305573    21.832394    9090.0405    3208.8544    3265.0605    3585.9794   -954.59623    296.27466    -542.0426   -3981.4754 
30783000    87.502587   -4580.7989   -4430.8224   -4580.7989            0    2292.5074    17.865436    23.404421    21.903057    9158.3292    1725.8496    2612.9024    2538.7703   -62.894608   -518.01342    342.01738    -4124.624 
30784000    84.700213    -4586.236   -4441.0627    -4586.236            0    2022.9888    17.886344     23.32723    21.975124    9168.8754     2161.193    1771.2463    2136.5272   -396.22891   -471.86629   -258.82534   -4170.5514 
30785000    82.993205   -4589.6398   -4447.3923   -4589.6398            0    1925.4854    17.922389    23.233883    22.019753    9169.1726    1683.3223    2418.4383    1674.6956   -201.41018   -266.59598   -347.64392   -4189.9107 
30786000    86.257279   -4587.4002   -4439.5581   -4587.4002            0    2062.9402    18.078024     23.21777    21.834722    9164.7188    1376.4844     2317.098    2495.2383   -220.48919   -197.93019   -509.58731   -4163.8296 
30787000    89.703286   -4583.0479   -4429.2995   -4583.0479            0    2465.0847    17.963067    23.387623    21.778831    9149.5793    2736.0645    1713.4239    2945.7657   -101.50851   -41.516389  -0.84096703   -4100.3654 
30788000    90.124798   -4588.6281   -4434.1573   -4588.6281            0    1953.6713    17.889421    23.234945    22.005942    9146.9837    2258.9385    1904.6912    1697.3842   -466.74517   -410.70353   -0.7239435   -4173.5388 
30789000     87.44918   -4583.4088   -4433.5239   -4583.4088            0    1617.9945    17.901368    23.372989    21.948541    9183.4558    1414.5389    1368.8201    2070.6245    -680.9454   -35.673838   -215.48336   -4216.8238 
30790000    86.399013   -4583.7078   -4435.6229   -4583.7078            0     1499.715    17.965018    23.249332    21.956198    9170.5479    1295.9099    1619.3461     1583.889    370.74179   -28.805567    409.06096   -4235.0465 
30791000    86.455413   -4583.9212   -4435.7395   -4583.9212            0     2291.202    17.970992     23.27795    21.851524    9141.1015    1681.2422    2508.4416    2683.9221    190.85763     241.1684    3.8933082   -4130.2912 
30792000    86.868004   -4585.9232   -4437.0344   -4585.9232            0    2078.7819    17.828036    23.297509    22.063741    9164.1489    3584.6602     963.9272    1687.7583   -520.52388    655.14268   -471.05031   -4159.2058 
30793000    89.214276    -4579.698   -4426.7878    -4579.698            0    2383.5973     17.92592    23.310404    21.869128    9138.2437    1873.2677    2261.8755    3015.6488   -98.334376   -163.69037    234.98241   -4109.1212 
30794000    87.681337   -4580.4482   -4430.1654   -4580.4482            0    1295.9059    17.902078    23.328271    22.020918    9196.4756    1336.1499    1651.1307    900.43724   -29.110171   -99.871795    23.523223    -4256.357 
30795000    84.675723   -4598.2393    -4453.108   -4598.2393            0    2239.3638     18.02237    23.338545    21.773886    9158.4423    2477.3731    1646.0203    2594.6979    516.03224    578.81437    359.77786   -4154.0041 
30796000    89.119377   -4581.8784   -4429.1309   -4581.8784            0    1734.2598    17.915842    23.249413    22.072045    9193.7309    1432.5012    2008.9196    1761.3585   -773.20692    69.898968    231.13763   -4196.5994 
30797000     88.00557   -4591.1744   -4440.3359   -4591.1744            0    1353.7565    18.053673    23.178281    21.979611    9197.4365    1778.6771    1524.9051    757.68746   -261.80879   -378.05175   -342.36711   -4258.7495 
30798000    88.372879   -4581.4263   -4429.9582   -4581.4263            0    2118.5241    18.007545    23.310723    21.849014    9171.5361    2387.6824    1450.9698    2516.9201   -326.95934   -146.36263   -241.38095   -4146.5898 
30799000    86.356995   -4576.5122   -4428.4993   -4576.5122            0    1913.2847     18.01873    23.215598    21.889182    9156.5863    1556.9839    2702.7016    1480.1685   -60.266783   -166.22511   -317.49338   -4173.0004 
30800000     87.41288   -4587.4194   -4437.5967   -4587.4194            0    2247.7626    17.954086    23.234628    21.953797    9158.1694    2612.6031    2336.2667     1794.418     116.3646    73.639281    203.65017   -4137.3799 
30801000    88.746945   -4576.9042    -4424.795   -4576.9042            0    2018.3172    17.876535    23.329642    21.992868    9172.1951    2776.1951    955.87171    2322.8847   -71.535403   -177.20167    -644.0256   -4154.8107 
30802000    84.072718   -4580.2153   -4436.1176   -4580.2153            0    2156.7054    18.017817    23.268829    21.878689    9172.7173    1464.5705    2300.1833    2705.3623    298.72038    -235.4002   -235.68715    -4147.605 
30803000    85.160032   -4584.9063    -4438.945   -4584.9063            0    2324.0201    17.942186    23.265418    21.927766    9153.3614    2687.4141    2295.9959    1988.6503   -271.99791    168.98884    306.46672    -4128.706 
30804000    91.542022     -4585.11   -4428.2101     -4585.11            0     1298.123    18.105579    23.194273    21.921681    9205.9162    161.96501    1989.5473    1742.8566   -449.60562    52.411615    -206.8731   -4253.9256 
30805000    87.247237   -4583.3436   -4433.8048   -4583.3436            0    1839.8536    18.007704    23.271568    21.940471     9194.538    1778.6359    1431.9626    2308.9624   -402.66145    420.71459   -38.963204   -4187.0935 
30806000    89.574937   -4577.0823   -4423.5539   -4577.0823            0    1343.0467    17.938513    23.213328    22.086437    9197.0698    1701.5938    1517.8786    809.66767   -651.07317   -174.47842    55.760175   -4243.4113 
30807000    87.471235   -4583.6435   -4433.7208   -4583.6435            0    1718.1279    18.014246    23.340498    21.861624    9191.9704    2060.7134    1415.0261    1678.6443   -259.79228    124.99681    364.07738   -4203.3964 
30808000    84.735377    -4578.698   -4433.4645    -4578.698            0    2030.0162    17.756237    23.376857    22.103065    9174.6506     3153.578    1680.5246    1255.9461   -299.42207   -200.96462   -364.15655   -4161.8425 
30809000    87.626014   -4581.9002   -4431.7122   -4581.9002            0    2212.6849    17.961258     23.22493    21.954757    9158.4037    1527.6603    3055.5801    2054.8144    294.50066    317.98616   -148.87918   -4136.1729 
30810000    84.730085   -4590.0803   -4444.8558   -4590.0803            0    1825.0005     17.84071    23.367061    21.974331    9160.7675    2498.4602    1500.6559    1475.8855    -322.9772    138.76575   -77.138601    -4201.035 
30811000    85.063862   -4579.0809   -4433.2843   -4579.0809            0    2244.3744    17.958462    23.160138    21.985183    9144.0878    2454.3143     2059.244    2219.5648    -70.47307    49.669396    164.33908    -4133.981 
30812000    88.193404   -4577.1195    -4425.959   -4577.1195            0     2424.973    17.961519     23.19829    21.955396    9148.2982    3337.0489    2279.6008    1658.2692    220.30797   -265.98945   -45.412279   -4102.4227 
30813000    91.690339   -4577.7376   -4420.5835   -4577.7376            0    2016.2689    18.059096    23.237457    21.867678    9176.7157    1684.9169    2177.9414    2185.9482   -2.6063117   -41.110912     24.98174   -4150.7402 
30814000    87.413816   -4586.0974   -4436.2731   -4586.0974            0    1239.8318    17.992136    23.226514     22.00462    9195.6121    1179.1798    910.02875    1630.2869   -925.82361      83.6654    109.19642    -4270.001 
30815000    84.312968   -4588.2365    -4443.727   -4588.2365            0    1997.8698    17.985381    23.206283    21.970003    9169.7046    2268.4195    2784.9833    940.20663    86.752836   -245.30279    -343.5203   -4176.5504 
30816000    93.199598   -4582.0194   -4422.2785   -4582.0194            0    2669.0274    18.002889    23.215758    21.843837    9129.6471    1926.1176    2744.7322    3336.2326    289.79957   -50.589969    357.66266   -4066.9067 
30817000    79.995733    -4586.163    -4449.053    -4586.163            0     1491.251    17.979556    23.272946    21.978579    9196.6557    1471.7607    1656.0401    1345.9522    -341.5535    343.88524   -126.76818   -4249.0408 
30818000    88.482723   -4585.9925   -4434.3362   -4585.9925            0    1781.0578    18.084031    23.197638    21.853891    9167.8561    1344.0326    1958.0562    2041.0845    92.547114   -256.06666    189.52272    -4196.202 
30819000    86.118866   -4595.3401   -4447.7353   -4595.3401            0    2182.7936    18.033301    23.063275    22.021137    9158.7442    1834.2925    3263.1953    1450.8928   -372.45986   -302.81798   -80.299931   -4156.1776 
30820000    90.790612   -4590.4393   -4434.8273   -4590.4393            0     1938.051     17.93187    23.355747    21.889292    9167.5029    1703.8979    1665.5876    2444.6676   -455.33685   -48.858223      258.432   -4175.7125 
30821000     86.91232    -4584.611   -4435.6462    -4584.611            0    2544.0904    17.854507    23.419435    21.849862    9136.3552    2437.8956    2265.2374    2929.1381   -37.162119    282.37171    295.70759   -4096.6605 
30822000    92.740416   -4573.9421   -4414.9882   -4573.9421            0     1226.444    17.844801    23.342078    22.117922    9212.8823    1552.6048    2139.3265   -12.599304   -190.58193   -286.88638    59.339022   -4250.2026 
30823000    80.314774   -4584.0262   -4446.3695   -4584.0262            0    1201.8636    18.057357    23.257078    21.899985    9197.1478    1184.7052    1582.6057    838.27984   -245.08987    217.76648    20.013637   -4285.1623 
30824000    90.360665   -4589.4076   -4434.5325   -4589.4076            0    2423.0642    17.790001    23.315109    22.015346    9131.4331    3475.8449    2612.3814    1180.9662    445.60461    325.97471     308.9826   -4111.8468 
30825000    85.862618     -4583.26   -4436.0944     -4583.26            0    2257.0806    17.894865    23.343312    21.897002    9146.9344    2754.9931    2482.7615    1533.4871    -120.1202   -233.02765   -177.61683   -4135.0029 
30826000    86.253135    -4583.972   -4436.1371    -4583.972            0    1455.4127    17.838821    23.367395    22.043832    9188.9005     1271.292    1589.7278    1505.2182   -162.10961    467.32593   -194.16635   -4241.0962 
30827000    85.033196   -4585.2217   -4439.4777   -4585.2217            0    2495.8302    17.837639    23.351518    21.940364    9138.9506    2824.5566    2639.2473    2023.6867   -792.36643    -265.7392    116.75864   -4106.8279 
30828000    92.385408   -4578.5178   -4420.1723   -4578.5178            0    1799.8404    17.898964    23.453033    21.832204    9164.8318    1828.7489    1729.6641    1841.1083   -150.88239    -312.3003   -132.31241   -4179.6063 
30829000    87.900198    -4584.481   -4433.8231    -4584.481            0    2759.5405    17.862762    23.304682    21.887107     9111.296    3384.6663      2840.65     2053.305   -203.88501    541.94784   -0.5705064   -4067.1384 
30830000    93.885981   -4584.3195   -4423.4022   -4584.3195            0    1749.0612    17.929956    23.356592    21.903438    9172.7798    1485.6779    1533.9902    2227.5154   -516.83663   -258.61749   -324.87352   -4189.4205 
30831000     91.92694   -4589.5629   -4432.0033   -4589.5629            0    1980.8754     17.90582    23.386904     21.84657    9148.5063    2523.2432    1728.3816    1691.0013    131.82694    102.99391    552.86343   -4167.7118 
30832000    85.822558   -4589.3467   -4442.2498   -4589.3467            0    1766.2192    17.901549    23.354239    21.948702    9176.2484    1848.8054    1781.5628    1668.2893   -110.47661    201.36308    83.804076   -4205.8834 
30833000    84.033822   -4585.0856   -4441.0545   -4585.0856            0    2772.2663    17.946008    23.192565     21.94131    9132.2796     3075.222    3164.5276    2077.0494    -60.80339   -198.10434   -18.818297   -4071.8304 
30834000    91.570784   -4576.6714   -4419.7222   -4576.6714            0    2357.7768    17.986713    23.246893    21.899603    9156.9944    2155.7137    2521.1803    2396.4363    299.38403    153.31676    343.88976    -4104.852 
30835000    87.349813   -4585.8223   -4436.1077   -4585.8223            0    1660.7201    17.844043    23.331608    22.014534    9165.3152     1810.905    1736.5604     1434.695   -397.42641    551.19391     -126.395   -4214.1247 
30836000    87.855565   -4582.1191   -4431.5377   -4582.1191            0    2880.0432    17.816661    23.375068    21.879642    9112.1194    2640.0943    3731.5669    2268.4683    -434.8852   -471.98666    -114.9528   -4048.8061 
30837000     84.76506    -4586.325   -4441.0405    -4586.325            0     1964.297    17.794236    23.435061     21.99714    9173.0056    2255.1994    1728.1073    1909.5842    181.45803    34.835869    97.265285   -4178.2591 
30838000    91.083818   -4578.1286   -4422.0141   -4578.1286            0    1863.2568    17.821103    23.483532     21.92431    9175.3773    658.86067    826.36532    4104.5445   -166.67751    173.82011    28.408433   -4172.6852 
30839000    86.483628   -4594.1772   -4445.9472   -4594.1772            0    1257.8617    17.945635     23.43734    21.866535    9197.0201    1685.4107    1058.3561    1029.8182    90.572856   -91.987515    -602.1065   -4277.2313 
30840000    86.602758   -4577.5866   -4429.1525   -4577.5866            0    3037.5208    17.836746    23.257976    22.015567    9133.0832    3620.3552    2635.1986    2857.0087   -697.44802   -323.74183   -637.88672   -4024.5649 
30841000    83.866549   -4588.6061   -4444.8617   -4588.6061            0    2166.3467    17.958208    23.354362    21.800773    9143.2982    1706.6203    1717.1957     3075.224   -22.012735    72.178485    233.98669   -4155.9888 
30842000    88.875291   -4578.3639   -4426.0347   -4578.3639            0    1938.1037    17.872128    23.374125    21.928946    9160.7155     1420.497    2548.3835    1845.4304    221.89025    288.27741    190.73041   -4167.1047 
30843000    88.322277   -4591.3836   -4440.0022   -4591.3836            0     2730.128    17.930995    23.246129     21.92277    9137.9856    2166.1147    2643.2796    3380.9898    20.519266   -122.85494    4.5807555   -4076.1631 
30844000    86.819029   -4586.1876   -4437.3827   -4586.1876            0    1795.4021    17.997411    23.251285     21.96193    9190.2535    1893.4455    1776.9981    1715.7627   -323.74258   -702.87207     240.3924   -4196.7442 
30845000    83.081337    -4583.997   -4441.5984    -4583.997            0    1897.9817    17.995982    23.265072    21.933597    9183.1107    1619.6929    2073.5629    2000.6894    520.59022   -147.24568   -269.06733   -4187.4088 
30846000    89.165859    -4579.624   -4426.7968    -4579.624            0    2715.6496    17.982446    23.252632    21.783233    9108.4234    2302.4131     2475.231    3369.3046    211.80244    229.48112   -49.939974    -4066.058 
30847000    88.953853   -4586.4881   -4434.0242   -4586.4881            0    1879.2146     17.91539    23.386792    21.877753    9166.4172    1916.2618    1924.8405    1796.5416   -147.35786    39.022903    212.13703   -4182.8056 
30848000     84.19135   -4590.2671    -4445.966   -4590.2671            0    1453.6188    17.913042    23.336959    21.959528    9179.8717    1212.5477    2269.6313    878.67757    170.51384   -346.13949    62.693649   -4251.3569 
30849000    89.290065   -4580.8157   -4427.7756   -4580.8157            0    3628.9888    17.825654    23.341961    21.824072    9080.6844    4005.6931    3243.6053    3637.6681   -417.91798   -233.12919    481.27616   -3947.1796 
30850000    84.697177    -4584.465   -4439.2969    -4584.465            0    2325.6708    17.864004    23.282625    22.021417    9159.1675    3748.1931    2041.1061    1187.7133   -136.11769    741.40196    51.405958   -4128.6406 
30851000    85.623377   -4593.2984   -4446.5429   -4593.2984            0    2315.8996    18.039031    23.204955    21.861183    9150.9797    2330.1009     2131.635     2485.963    452.88403   -482.93655   -457.84587   -4137.4683 
30852000    88.334149   -4579.4278   -4428.0261   -4579.4278            0    1700.9322    18.012246    23.183732    22.017449    9194.2903    1566.5702    2985.2401    550.98648    49.028945   -106.55571    650.37832   -4199.9493 
30853000    88.365533   -4581.9353   -4430.4798   -4581.9353            0    1543.3827    18.045766    23.381859    21.816687    9205.4105    1266.2278    1886.0791    1477.8412   -453.21746    205.76126   -6.5290913   -4223.2784 
30854000    86.580277   -4583.5461   -4435.1505   -4583.5461            0    1621.1323    17.994576    23.177784    22.052231    9197.4208    979.83718    1750.0595    2133.5001    850.81382   -244.73736   -96.743991      -4217.7 
30855000    88.506318   -4579.6411   -4427.9443   -4579.6411            0     1998.345    17.961923     23.24934    21.966902    9173.4411    1593.6616    2541.2006    1860.1729    280.65321    -665.6941    329.06663   -4160.5953 
30856000    81.549951   -4583.5262   -4443.7524   -4583.5262            0    1837.5469    18.043519    23.197608    21.920638    9175.2444    1656.5191    1363.2402    2492.8814   -87.204132   -475.71742    328.18387   -4197.8674 
30857000    84.048635   -4585.9982   -4441.9417   -4585.9982            0    1586.1354    18.014792    23.131454    22.041949    9185.0638    1453.9262    2171.5636    1132.9165    280.67128     204.9505    365.04182   -4229.4714 
30858000    86.603718   -4583.6874   -4435.2516   -4583.6874            0     1983.647    17.963891    23.225386    21.987313    9173.5097    1346.4793    2387.0473    2217.4142   -202.32688    88.689241    310.52306   -4169.8669 
30859000    88.750812   -4588.9382   -4436.8224   -4588.9382            0      2882.98    17.874027    23.317464    21.886547    9121.8091    3611.9746    2332.5437    2704.4217    81.186514    359.84232     188.2693   -4053.2931 
30860000    89.572453   -4592.8989   -4439.3748   -4592.8989            0    1588.4792    18.050894    23.300263    21.809282     9172.779    1739.6742    1058.5593    1967.2039   -887.98252   -244.24729    518.77963    -4226.875 
30861000    85.989333    -4579.712   -4432.3293    -4579.712            0    1449.5527    17.957379    23.264342    22.006717    9193.6717    1257.7912    1183.8943    1906.9724    28.477618    -218.2743    362.93471   -4237.9729 
30862000    90.880385   -4588.1292   -4432.3634   -4588.1292            0    2566.2088    17.988409    23.201476    21.930809    9152.9902    1867.4313    3311.5442    2519.6509   -535.34143   -194.86278    184.55839   -4089.8079 
30863000    84.090117   -4583.6067   -4439.4791   -4583.6067            0    1017.9643    17.994857    23.323656    21.980048    9225.1547    441.30514    1749.1137    863.47396   -138.34654    79.332126    516.48296   -4302.5228 
30864000    94.795804   -4582.4976   -4420.0208   -4582.4976            0    1633.7967    17.965472    23.244509    22.020128    9195.5739    2161.5296    1676.2502    1063.6103   -1179.3954   -778.91713   -502.65595   -4200.9156 
30865000    90.226848   -4580.1208   -4425.4751   -4580.1208            0    2217.1643    18.053707    23.219635    21.868327    9167.2135    1174.0231       2879.1      2598.37   -413.06803   -311.56091   -74.896681   -4129.0526 
30866000    82.215032   -4581.3663   -4440.4525   -4581.3663            0    2031.0228    17.935057    23.414708    21.842835    9172.7702    2349.8409    2049.2065    1694.0211   -305.57595   -58.239418    415.49416   -4168.7515 
30867000    84.187454   -4590.7306   -4446.4362   -4590.7306            0    2727.9439    17.839945    23.423451    21.873693    9140.4279    3832.6773     2296.152    2055.0024    -472.2066   -118.31564   -272.20623    -4082.791 
30868000    88.597574   -4593.1018   -4441.2486   -4593.1018            0     1562.218    17.857947    23.370639    21.971196    9169.7146    1843.7254    509.75718    2333.1713   -436.77727   -427.16574    118.77188   -4232.3318 
30869000    93.928286   -4592.4201   -4431.4302   -4592.4201            0    1903.0429    17.854367    23.417436    21.934202    9170.7669    2494.0613    551.84125    2663.2262   -702.43353    287.41733   -88.571773   -4176.9054 
30870000     86.93823   -4588.6681    -4439.659   -4588.6681            0    2053.5041     17.81991    23.397267     21.97548    9162.3948    2279.1042    1492.9036    2388.5045    335.32027    244.27045     111.4406   -4165.2613 
30871000    87.568535   -4587.8842   -4437.7948   -4587.8842            0    1606.1714    17.837073    23.357138    22.021812    9174.7928    1772.9372     2160.797    884.77986    359.65415   -79.548702    17.052567   -4222.8811 
30872000    91.071451   -4578.8784    -4422.785   -4578.8784            0    1911.9828    17.891492     23.40854    21.904998    9174.1135    2470.0417    1690.7866    1575.1201    258.99182   -111.18648    217.44698   -4166.9712 
30873000    85.458695   -4593.2342    -4446.761   -4593.2342            0      2662.59    17.877205    23.348474    21.901414    9141.7699    2706.6673    3158.6587    2122.4442   -620.70921   -50.897725    223.65356   -4091.7756 
30874000    91.380809    -4584.112   -4427.4884    -4584.112            0    1894.2888     17.89814    23.337322    21.926967    9158.7768    3001.4676    1389.6685    1291.7302    340.33776   -91.149686     882.2956   -4174.4657 
30875000    97.131535   -4588.4093   -4421.9292   -4588.4093            0    2293.9377    17.976528    23.274709    21.886138    9157.1265    1977.7559    1992.8259    2911.2312   -589.42325    33.170165   -678.52337     -4115.58 
30876000    88.333901   -4586.7175   -4435.3162   -4586.7175            0    1837.4232    18.010876    23.342589    21.805794    9167.6027    2481.0216    1524.0861    1507.1619   -213.23333   -216.70382    479.50338   -4189.6525 
30877000    87.018387   -4580.8473   -4431.7008   -4580.8473            0    1960.2448    17.984189    23.194084    21.942352    9152.7423    2173.7826    2054.7276    1652.2243   -137.85062    452.70476    134.56055   -4170.0407 
30878000    89.909296   -4588.0402   -4433.9387   -4588.0402            0    1743.5208    18.012903    23.162862    21.990085    9174.9314    1056.9239    2506.5872    1667.0513    560.10693    120.83708     403.0592   -4200.6435 
30879000     92.91819   -4584.6963   -4425.4377   -4584.6963            0    2169.8987    17.962379    23.359024    21.822511    9156.3686    2223.9094    2079.7621    2206.0247   -909.55842   -345.02446   -373.03062   -4135.6776 
30880000    84.978399   -4589.7289   -4444.0789   -4589.7289            0    1547.6927    17.943929    23.315799    21.948892    9182.9122    2243.2133    1341.7404    1058.1244    149.78761    473.14699    19.566193   -4236.8066 
30881000    84.527561   -4589.7842   -4444.9069   -4589.7842            0    2493.1424    17.857363    23.307011    21.951296    9136.1679    3195.0746    3212.5858    1071.7669    237.03883   -267.63284   -22.292895   -4112.7165 
30882000    86.626287   -4573.7278   -4425.2533   -4573.7278            0    1178.7894    17.942387    23.331159    21.985252     9203.393    1431.4466    885.47193    1219.4497   -108.54354   -490.99323    269.89442   -4267.0337 
30883000    81.618906    -4578.916    -4439.024    -4578.916            0     2028.183    17.896523    23.331234    21.946673    9163.7889    2029.4191    1880.9975    2174.1323    158.15819     358.3152   -162.89676   -4167.9686 
30884000    86.296188   -4591.4954   -4443.5867   -4591.4954            0    2210.3756    17.952179    23.179952    21.982342     9147.526    1324.3351    1967.2288    3339.5629   -1055.6887    151.10156    -77.30855   -4148.7064 
30885000    83.837959   -4591.1029   -4447.4075   -4591.1029            0    1139.1429    17.932083    23.373826    21.921166     9188.068    1043.4917    1061.7944    1312.1428   -79.490119    152.90589    219.63839    -4294.764 
30886000     87.51666    -4582.879   -4432.8784    -4582.879            0    2250.7419    17.842347    23.431074    21.869932    9143.0609    2421.7861    1669.9005    2660.5389    395.91582   -726.21017   -46.519253   -4132.7596 
30887000    83.833254   -4584.1681   -4440.4808   -4584.1681            0    2066.0205    17.901945    23.322428    21.920076    9152.0002    2406.3387    1592.1844    2199.5385    14.047524    275.55386    257.36161   -4164.7238 
30888000    89.639027   -4588.6063   -4434.9681   -4588.6063            0    2244.5894    17.910605    23.283952    21.955613    9156.1423    1417.6089    2239.6421    3076.5173   -20.334599     290.1079   -290.26387   -4135.2415 
30889000    83.870366   -4593.8155   -4450.0645   -4593.8155            0    1770.1265    17.948076    23.379861     21.82585    9158.6403    2087.9391    1102.8631    2119.5772    259.06791   -177.53649   -307.97841   -4213.6298 
30890000    85.371581   -4581.0254   -4434.7014   -4581.0254            0    2809.3556     17.90532    23.294639    21.880683    9126.3885    3016.7723    2845.3682    2565.9262    395.23818    230.89912    318.54529   -4060.7789 
30891000    85.931984   -4594.2951   -4447.0107   -4594.2951            0    1841.5211    17.909274    23.247608     22.02775     9171.205    1966.0759    2855.5115    702.97591   -321.95395   -306.54411   -251.79513   -4200.7024 
30892000     85.24392   -4589.0185   -4442.9134   -4589.0185            0    1750.9974    18.015426    23.288369    21.866192     9173.958    917.42212    1710.1407    2625.4293    -630.1101   -91.076009   -12.893731   -4208.6426 
30893000    81.644185   -4580.6709   -4440.7355   -4580.6709            0    2000.0201    17.937944    23.312735    21.909728    9162.2659    2239.7859    1483.3563    2276.9182   -275.41321    23.453733    147.09635   -4173.4884 
30894000    84.408797   -4582.7466   -4438.0728   -4582.7466            0    2614.0213    17.906429    23.258787    21.950408    9141.9457    2359.8228    2878.0105    2604.2306    372.09463    -638.9952   -312.26752   -4089.5561 
30895000    91.532692   -4582.0802   -4425.1963   -4582.0802            0    2701.2065    17.897465    23.216922    21.983989    9134.8764    2907.2615    2227.3275    2969.0304   -302.22869   -100.50403    483.55782    -4065.334 
30896000    84.309995    -4584.579   -4440.0746    -4584.579            0    1685.7385    17.899853    23.411422    21.917666    9184.8389    1186.6757    1441.5088    2429.0311    -983.1358    172.01937    256.59478   -4214.2674 
30897000    83.254288   -4587.9466   -4445.2516   -4587.9466            0    2540.9154    17.930229    23.262403    21.913935    9140.3073    2745.0049    3117.1182     1760.623   -200.70651    -94.08634    550.53046   -4106.5425 
30898000    84.550481   -4593.9333   -4449.0167   -4593.9333            0    1648.7125    17.943586    23.179233    22.042273    9167.7906      2094.79    2821.0819    30.265635   -287.02258     -185.153    403.33577   -4228.5792 
30899000    89.931428   -4575.7142   -4421.5748   -4575.7142            0    2587.5378    17.926798     23.24823    21.937905      9142.98    2513.2291     2540.567    2708.8174   -208.10945   -39.955168   -331.54882   -4076.5499 
30900000    84.584859   -4582.8949   -4437.9193   -4582.8949            0    1393.5345    17.955179    23.326731    21.951117    9193.9101    1320.7709    1088.3984    1771.4341   -95.282236    513.26032    1035.5717    -4251.069 
30901000     87.49013   -4579.6254   -4429.6703   -4579.6254            0    2289.4472    18.070763    23.262997    21.818629    9172.1176    2061.3225    2347.8038    2459.2153    392.94157   -613.34337   -130.34743   -4123.4203 
30902000    83.678549   -4589.0495   -4445.6274   -4589.0495            0    1647.5813    17.986405    23.204349    21.967808    9168.5463    2311.8353    1401.6169    1229.2916   -71.954922    -445.5265   -113.20815   -4225.3229 
30903000    87.669097   -4584.3859   -4434.1241   -4584.3859            0    2025.5143    18.029573     23.27286    21.847079    9167.0284    2661.9725     1674.322    1740.2484    149.95821    38.048394    84.849585   -4163.3296 
30904000    82.630246   -4584.8382   -4443.2128   -4584.8382            0    2498.8972    18.009013    23.295767    21.871404    9175.7931    2350.8292      3050.54    2095.3224   -341.06759    88.334391     78.43893   -4108.8115 
30905000     86.42518   -4583.9324   -4435.8026   -4583.9324            0    1109.6079    17.968574    23.164353    22.137985    9214.5019    1135.4806    1088.9215    1104.4215    261.77852    86.735953   -187.69193    -4286.689 
30906000     79.49844    -4590.493   -4454.2354    -4590.493            0    1791.3633    17.950103    23.317327    21.908678    9169.8428    1774.1449    1450.5267    2149.4184    786.02184   -515.27373    157.07867   -4214.6714 
30907000     84.16158   -4584.7988   -4440.5488   -4584.7988            0    1781.9179    17.731604     23.55519    21.933946    9161.1795    1958.5635    1935.7812    1451.4091    119.91914   -579.07141    380.18681   -4202.4731 
30908000    87.710292    -4593.449   -4443.1166    -4593.449            0    2065.1267    17.882633    23.469947    21.860294    9174.8627    2060.2673    783.38219    3351.7306   -287.04584    319.63274   -129.12273   -4166.7903 
30909000    88.419008   -4587.2543   -4435.7071   -4587.2543            0    2055.2603    17.914826    23.414999    21.826982    9155.8868    1660.7305    802.94167    3702.1087   -60.408048    135.61532    145.38685   -4161.2698 
30910000    86.910168   -4576.7498   -4427.7888   -4576.7498            0    1234.7607    18.019173    23.260202     22.01216    9225.9482    731.30103    1669.7908    1303.1903    -473.3322   -354.05386   -300.72147   -4261.6505 
30911000    82.942401   -4587.2121   -4445.0516   -4587.2121            0    1295.3525    18.060875    23.236874    21.904848     9192.989    843.86402    1444.1438    1598.0498   -466.89658    514.98052    107.20997   -4271.3833 
30912000    83.978498   -4584.3575   -4440.4212   -4584.3575            0    1524.2748    18.066587     23.14663    21.984715    9193.5811    686.64392    2420.4541    1465.7264    74.931104   -457.29495    126.62138   -4236.0481 
30913000    86.568235   -4582.2377   -4433.8627   -4582.2377            0    1910.6151    17.971226    23.264194    21.949903    9176.9491    1235.7507    2302.1561    2193.9384   -212.45346    -119.9994    236.55745   -4178.1528 
30914000     89.98533   -4595.8423   -4441.6105   -4595.8423            0    1606.9389    17.988626    23.445269    21.731749    9165.3252    557.46676    1516.8319    2746.5179     506.0962     70.66873    43.408096   -4226.8161 
30915000    87.052536   -4585.6347   -4436.4296   -4585.6347            0    2126.2617    17.910875    23.406539    21.795694    9137.4436    1705.6889    2593.7817    2079.3146   -614.59937    551.48671   -10.601912   -4153.0835 
30916000    89.238792   -4583.3216   -4430.3693   -4583.3216            0    1655.2287    17.891877    23.441686    21.848487    9163.6001    1289.9014    1122.6997     2553.085   -44.657049    232.93939   -41.465021   -4209.1617 
30917000    85.667625   -4593.4743   -4446.6429   -4593.4743            0    1522.4688    17.960105    23.348733    21.862162    9167.8038    2668.1611    1206.4208    692.82456   -473.63656   -190.79938   -285.94161   -4243.0843 
30918000    87.473544   -4571.2713   -4421.3446   -4571.2713            0    1608.9962    17.911443    23.349689     21.96373    9185.8169    1254.6901     1895.945    1676.3536     873.7294    134.98104     128.5765   -4205.7943 
30919000    92.314056   -4582.5004   -4424.2773   -4582.5004            0    2521.5709    17.825594    23.336029    21.964282    9136.6704    3153.0191    2029.0992    2382.5945   -583.32417   -251.83552     13.26931   -4088.2806 
30920000    86.369441   -4581.6738   -4433.6395   -4581.6738            0    3124.6534    17.874635    23.389417    21.804698     9116.049    2553.7678    3121.5243    3698.6681    67.717609   -56.126085    1204.1814   -4018.2224 
30921000    86.330939   -4583.9402    -4435.972   -4583.9402            0    1706.7666    17.831856    23.391227    22.008153    9179.7983    2582.9492    889.52532    1647.8252   -90.615701   -420.43284     401.0704   -4207.4736 
30922000     84.77028   -4584.0163   -4438.7229   -4584.0163            0    1916.4006    17.992037    23.254804    21.921337    9171.9156    2246.4034    1909.6134     1593.185   -142.31047   -45.862373   -610.92829   -4182.3794 
30923000    84.268281   -4580.4593   -4436.0264   -4580.4593            0    2664.5143    18.031486    23.154616    21.885974    9137.6596    2478.2925    3083.8505    2431.3998   -87.840115    554.75079    -91.17111   -4080.9441 
30924000    84.560328   -4586.3462   -4441.4127   -4586.3462            0    2365.2828     17.92896    23.240974    21.920625    9134.0283    2852.6147    1894.7421    2348.4918   -89.351981    -120.6186    570.93275   -4126.3324 
30925000    88.077841   -4582.8234    -4431.861   -4582.8234            0    2453.4802    17.919237    23.515945    21.726359    9155.2223    2000.4063    2236.8888    3123.1455   -198.15627    69.370823   -182.63306   -4104.2735 
30926000    88.096953   -4591.5792    -4440.584   -4591.5792            0     1645.624    17.895359    23.464293    21.858443     9178.403    1716.7395    1814.4774    1405.6549    258.07584   -28.643295   -210.34123   -4220.3048 
30927000    86.310751   -4571.8507   -4423.9171   -4571.8507            0    2042.3414    17.817642     23.28109    22.090276    9163.3586    3107.4186    2460.5567      559.049    305.22108   -91.725086   -71.972726   -4150.9823 
30928000    90.466483    -4584.929   -4429.8725    -4584.929            0    2124.0101     17.91175    23.391653    21.843615    9152.1569    2129.1351    2341.4653      1901.43    211.15981   -60.193685    771.55483   -4146.3707 
30929000    87.220825   -4590.3927   -4440.8992   -4590.3927            0    896.64651    18.048071    23.278114    21.930067    9213.3703     1187.943    1122.5337     379.4628   -73.807578   -134.18057    221.93183    -4320.419 
30930000    85.681897   -4585.6811   -4438.8252   -4585.6811            0    1943.0491    17.900997    23.221185    22.061912    9170.7478    2601.1612    2093.2512    1134.7349     301.0118    377.78069    228.58258   -4178.9503 
30931000    92.042584   -4588.7057   -4430.9478   -4588.7057            0    1937.2726    17.886536    23.159571    22.077585    9145.5183    2776.4613    2331.9188    703.43776    -23.83044    232.94732    -6.672473   -4172.5583 
30932000    91.817891   -4579.8904   -4422.5177   -4579.8904            0     2557.621    17.930304    23.214306    21.930131    9128.1877    2141.6709    2802.4337    2728.7585    16.306317   -506.05796    16.075267   -4082.0338 
30933000    87.615007   -4592.1774   -4442.0083   -4592.1774            0    2412.5266    17.957357     23.27033    21.846756    9129.1832    2756.4616     2292.719    2188.3992   -34.518036    106.28905     471.1897   -4120.8051 
30934000    84.395409   -4586.7035   -4442.0527   -4586.7035            0    2473.4442    17.969813    23.306598    21.801894    9130.9647    2850.9346    2338.3674    2231.0308    465.48256    177.31512   -23.357274   -4112.6746 
30935000    88.484305   -4578.2643   -4426.6052   -4578.2643            0    2366.8783    17.919691    23.297744    21.916109    9149.7212    2970.2962     963.3186      3167.02    258.51652    566.69807    580.61163   -4110.7707 
30936000    86.244705   -4576.0599   -4428.2394   -4576.0599            0    2116.0843    18.059386    23.168928     21.88176    9155.6917    1814.1799    1849.5292    2684.5438    318.36578   -119.57557    963.78518   -4145.6863 
30937000    85.740726    -4585.589   -4438.6324    -4585.589            0    1956.0115    18.016265    23.156574    21.974757    9167.7585    1727.1137     2574.621       1566.3   -215.65241   -431.46855   -212.06169    -4177.109 
30938000    91.198995   -4579.7547   -4423.4428   -4579.7547            0    1991.3159    17.901205    23.231334    22.050086    9169.9447    1779.1833    2894.3475    1300.4169    42.096212   -358.02598    105.81639   -4157.1356 
30939000    88.402231   -4595.3242   -4443.8058   -4595.3242            0    2555.5634    17.939848    23.297614     21.84475     9130.137    2224.8301    2430.1797    3011.6804    349.71976   -242.62225    244.31975   -4103.5232 
30940000    89.490281   -4576.3828   -4422.9995   -4576.3828            0    1826.5926      17.8657    23.420519    21.959979    9188.5811    2455.7508    1846.0545    1177.9724   -260.52562    638.89897    20.152331   -4178.2251 
30941000    87.171809   -4578.7696   -4429.3601   -4578.7696            0    2136.9485    17.813149    23.384483    21.974099    9153.3392    2526.2141    2037.7473    1846.8839    690.04506    -324.1577   -22.515012   -4144.0944 
30942000    86.478775   -4582.1903   -4433.9686   -4582.1903            0    2254.1242    17.953123    23.236192    21.920798    9144.5286     1710.407    1902.9222    3149.0435   -464.66706    420.55912   -23.100619   -4133.3506 
30943000    89.436425   -4585.7593   -4432.4684   -4585.7593            0    1669.9788    17.954259    23.202247    22.019821    9172.9986    1563.1203    1663.7984    1783.0177   -278.77709    209.57494    79.719247   -4209.0607 
30944000    90.083049   -4580.8976   -4426.4984   -4580.8976            0    2139.8897    17.983826       23.241    21.924877    9163.7673     1631.262     2597.659    2190.7482   -34.549167   -424.97604   -55.941117   -4140.5146 
30945000    85.673224   -4583.2723   -4436.4313   -4583.2723            0    2028.8507    18.002703    23.128487    21.999852    9160.1944    1773.0919    3157.1625    1156.2978   -245.50838    42.489778   -31.707233    -4165.393 
30946000    87.047808   -4582.9048   -4433.7078   -4582.9048            0    1958.3019    17.820805    23.270585     22.09164    9161.4159      2117.41    2346.2268     1411.269   -489.81186    -48.72152    121.07712   -4172.0594 
30947000    85.218212   -4580.8154   -4434.7543   -4580.8154            0      1267.86    17.971425    23.411361    21.862235    9198.2187    1354.0727    1167.7744     1281.733   -624.38344    562.04396   -425.22645   -4264.6752 
30948000    87.546269   -4580.4676   -4430.4163   -4580.4676            0    2183.7572    17.939399    23.358703    21.803277    9136.4687    2193.3598    2117.5936    2240.3181    79.218132    408.77048    285.39118   -4139.4393 
30949000    89.646348   -4582.1945   -4428.5438   -4582.1945            0    1851.2854    17.880953    23.425378    21.883984    9166.5024    2077.9572    1494.4935    1981.4055    806.68934   -21.092906     390.5266   -4181.0565 
30950000    84.820545   -4581.2359   -4435.8564   -4581.2359            0    2073.4906    17.890849    23.328125    21.921285    9149.0664    2576.1209    2261.3484    1383.0023   -745.86796   -403.81623    607.49685    -4159.191 
30951000    87.008086   -4583.8166   -4434.6878   -4583.8166            0    1680.5021    17.925754    23.357551    21.894289    9167.1765    1299.0361     1197.769    2544.7012   -264.75564   -155.91505    308.73367   -4210.0149 
30952000    85.111428    -4578.797   -4432.9189    -4578.797            0    1776.2867    17.824966    23.407872    21.950781    9158.8432    2373.7769    1121.5459    1833.5374    128.15035    79.940479    81.209206   -4195.6562 
30953000    84.719513   -4587.0517   -4441.8454   -4587.0517            0    1434.6795    17.923798    23.345953    21.942212    9181.6778    1509.1172    1731.9049    1063.0162   -716.87459   -354.16583    12.430195   -4249.7341 
30954000    87.095122   -4588.1251   -4438.8471   -4588.1251            0    2638.9873    17.888445    23.358697    21.869438    9138.1612    3142.3511    1939.1333    2835.4775   -8.8070706    257.51763   -110.80078   -4087.1474 
30955000     82.51083   -4588.6675   -4447.2467   -4588.6675            0    1760.5518     17.78855    23.482686    21.972967    9178.6119     2211.941    557.63922     2512.075     478.5476    283.88885    796.75294   -4211.5782 
30956000    83.929644   -4584.6292   -4440.7766   -4584.6292            0     2532.405    17.852621    23.430522    21.838973    9135.1602    2349.4734    3053.4919    2194.2498    320.97743    369.82938   -4.2511351   -4103.3921 
30957000     86.42156   -4585.5025   -4437.3789   -4585.5025            0    2156.8729    17.872237    23.363261    21.940403    9161.2973    2139.6122    2008.6938    2322.3127   -252.18183   -147.12476    249.18317   -4149.2032 
30958000    90.564021   -4587.7362   -4432.5126   -4587.7362            0    1454.7345    17.929153     23.46601     21.81557    9178.3709    905.00766    1444.6065    2014.5893   -514.33265   -2.4020942    409.18167    -4237.786 
30959000    88.401409    -4587.361    -4435.844    -4587.361            0    1816.2889    17.928328    23.429716    21.870235    9186.7154    2467.9513    999.69407    1981.2214     120.9344   -47.933399    255.89661   -4192.4997 
30960000    89.424469   -4578.7071   -4425.4366   -4578.7071            0     2726.653    17.891549     23.46379    21.773725     9140.687    2877.2086    2458.5292    2844.2211    799.04446   -538.25953   -618.54075   -4061.9532 
30961000    88.866374   -4590.6134   -4438.2995   -4590.6134            0    2371.5551    17.935316    23.333415    21.822047    9132.3557    2819.6385    1799.6258    2495.4011    520.08788   -94.261738   -150.84199   -4122.4415 
30962000    86.306886   -4581.3886   -4433.4616   -4581.3886            0    1694.1845    17.852449    23.480847    21.892584    9177.1659    2787.9984    860.80078    1433.7544   -405.87845    182.61419   -308.74967   -4206.7127 
30963000    91.300144   -4585.7118   -4429.2265   -4585.7118            0     2311.344    17.884729    23.358377     21.93117    9161.9271    2109.2167    3162.3309    1662.4845    117.48345   -166.16003    220.79484   -4120.3909 
30964000    86.818582   -4587.3787   -4438.5746   -4587.3787            0    1176.3883    17.814457    23.314114    22.122175     9187.965    587.93738    1788.8205    1152.4071   -270.95942   -138.31272    550.43231   -4280.9421 
30965000    82.094377   -4593.5032   -4452.7962   -4593.5032            0    1423.0179    17.830877     23.33511    22.062946    9180.0713    1704.4985    1542.6611     1021.894   -334.74018   -68.469548    231.11562   -4262.2799 
30966000    84.947988   -4585.8871   -4440.2892   -4585.8871            0    2256.5709     17.92279    23.301682    21.913615     9151.808    1973.7405    2098.5083    2697.4638    116.17249    511.88401   -67.502379   -4139.1053 
30967000    87.624858   -4595.6868   -4445.5008   -4595.6868            0    1580.4079    17.965328    23.230456    22.001924    9182.3437    1492.0371     1273.511    1975.6757   -349.48823   -11.824242    57.495281   -4233.8604 
30968000    86.526156   -4581.8712   -4433.5683   -4581.8712            0    2443.6993    17.983844    23.267141    21.860716    9147.2371    2134.0139     2195.769     3001.315    59.430653    42.003769   -47.362185   -4107.5713 
30969000    90.333709   -4584.7409    -4429.912   -4584.7409            0    1615.7236     18.06468    23.291383    21.819195    9180.4562    1036.2744    2200.6249    1610.2714   -143.15402   -3.5030504    74.701281   -4213.5868 
30970000    83.527163   -4587.1832   -4444.0205   -4587.1832            0    1834.3363    18.029502    23.265886    21.857335    9168.5477    2574.4906    1491.3465     1437.172   -19.309549   -72.313684   -58.235606   -4198.7443 
30971000    88.899437   -4589.0564   -4436.6858   -4589.0564            0    1579.8487     18.06312    23.286438    21.830045    9182.2782    1035.8518    1525.5303    2178.1642    385.62213    13.755584    425.57381   -4225.1218 
30972000    85.570446   -4588.8644   -4442.1996   -4588.8644            0    2105.0302    17.854334    23.278223    22.022876    9153.0849    2839.0009    1986.9936    1489.0963   -148.92705    77.280298   -51.860717   -4161.2026 
30973000    84.965187   -4582.9211   -4437.2936   -4582.9211            0    1906.9938    17.986828    23.314782    21.857657    9166.2049    2110.3427     1959.398    1651.2406   -152.32469   -46.652151   -31.067197   -4182.3673 
30974000    86.092087   -4585.4769    -4437.918   -4585.4769            0    1697.6969    17.934376    23.339168    21.936896    9182.2015    2932.7001     801.6521    1358.7384   -518.92387   -140.70095     421.5705   -4210.5743 
30975000    87.723616   -4593.1995   -4442.8443   -4593.1995            0      1611.83    18.001678    23.241898    21.926383    9173.8486    1202.8595    1513.1452    2119.4852   -629.07115   -292.28625    11.164692   -4227.1956 
30976000    87.161103   -4583.6145   -4434.2233   -4583.6145            0    2705.6747    17.937478    23.267473    21.865789    9125.9007    3332.1981    1482.8178    3302.0081    236.50597   -450.10837    230.00209   -4074.1199 
30977000    92.393729   -4574.5783   -4416.2187   -4574.5783            0    1909.8534    17.964381    23.267861    21.944066    9172.4603    1570.6555    2405.1516     1753.753   -558.04247    99.639489    575.02396   -4160.7358 
30978000    91.176339    -4582.858   -4426.5849    -4582.858            0    2513.5537    17.784932    23.378249     21.97219    9135.6097    3534.7755    2231.0461    1774.8395   -186.66584    121.87375    223.41567   -4091.6953 
30979000    86.693545   -4580.2161   -4431.6264   -4580.2161            0    2005.0994    17.942195    23.384591    21.852829    9168.8105    1432.0483    1921.2632    2661.9868    1159.1737   -37.713939    130.45721   -4163.5091 
30980000    86.926817    -4573.061   -4424.0714    -4573.061            0    1809.6787    17.876852    23.408331    21.898639    9163.8637    2196.2586    1344.3107     1888.467   -564.04937    159.75283    5.4471705   -4182.2159 
30981000     87.53513   -4579.5295   -4429.4973   -4579.5295            0    1171.7733    17.990872     23.32328    21.912162    9194.4776    1025.3974    1133.1494     1356.773   -646.46949     79.96457    222.87856   -4272.3718 
30982000    85.237329    -4580.695   -4434.6011    -4580.695            0    1607.1707    18.010565    23.316833    21.862735    9181.2413    1533.1197    1893.5591    1394.8333   -276.99299   -380.64017   -84.263323   -4219.4026 
30983000    84.756497   -4583.5842   -4438.3145   -4583.5842            0    2722.5877    17.848833    23.473024    21.782419    9126.0946    2562.9283    2059.7521    3545.0827   -238.55932   -315.22078   -272.11821   -4075.9524 
30984000    86.998892   -4576.8807   -4427.7676   -4576.8807            0    2383.3813    17.869682    23.342156     21.89387    9132.3032     2519.875    1978.0788    2652.1901   -258.04616    202.25873   -352.45713   -4110.3363 
30985000    81.590344   -4581.9522   -4442.1092   -4581.9522            0    2304.7911    17.873714    23.345505    21.940324    9155.0585    2406.8526    2051.6567     2455.864   -222.63607   -553.49702    708.30949   -4134.3801 
30986000     90.83287   -4594.5641   -4438.8797   -4594.5641            0    1471.7752    17.947296    23.387934    21.870435    9180.1191    1861.9761     1074.273    1479.0766   -189.73363    516.51603   -20.873261   -4241.8346 
30987000    87.815904   -4587.3181   -4436.8047   -4587.3181            0    2929.9806    17.853541    23.336212    21.915314    9130.6655    3898.1928    2956.7052    1935.0439   -294.61945    133.69798    554.57815   -4046.6444 
30988000    89.398886   -4582.2508   -4429.0242   -4582.2508            0    1872.2011    17.861472     23.33512    22.015084    9175.8778    2675.8061    2201.3505    739.44671   -145.50083   -379.68813   -435.50853   -4178.4848 
30989000    86.676259   -4581.3694   -4432.8093   -4581.3694            0    2645.8275    17.772234    23.414618    21.917785    9120.6494    3552.4189    2285.1912    2099.8725   -502.24473   -60.176557   -405.38458   -4080.8737 
30990000    89.523201   -4587.3674   -4433.9277   -4587.3674            0    1514.1348    17.835771    23.413928    21.994101    9184.8567    2024.3822    1658.8457    859.17666   -545.61487   -535.47863     467.8095   -4231.1067 
30991000    89.358355   -4595.5443   -4442.3871   -4595.5443            0    2270.2464    17.890934    23.281578    21.943997    9140.3148    2431.1463    2338.4974    2041.0955    206.53733    203.72587     9.218877   -4139.7585 
30992000    84.457077   -4580.5791   -4435.8225   -4580.5791            0    1393.5562    17.961397    23.315023    21.973947    9202.0382    1752.4676    506.45902    1921.7421   -468.90537   -479.15869    476.78965   -4248.8041 
30993000    91.843297    -4584.702   -4427.2858    -4584.702            0     2290.591    18.055676    23.386108    21.654382    9143.6058    1818.1436    1740.6874    3312.9419    4.8842235    154.42084   -255.67413   -4121.8352 
30994000    88.338176   -4583.2769   -4431.8683   -4583.2769            0    1311.9095    17.921717    23.426832    21.860348    9178.0467    1780.4541    926.23974    1229.0347    65.351358    271.03446    49.376234   -4256.2661 
30995000    90.067762   -4578.1285   -4423.7555   -4578.1285            0    2122.5636    17.883586    23.347608    21.917585    9151.4454    2570.4385    1615.4256    2181.8268    28.001266   -38.867824   -266.66708   -4140.4687 
30996000    85.731831   -4582.6468   -4435.7054   -4582.6468            0    2438.7773     17.92094    23.371641    21.814019    9136.6221    2966.1114    2412.0095     1938.211    153.51892    84.385078    678.80015   -4110.7426 
30997000    82.205052   -4576.1137   -4435.2171   -4576.1137            0    2289.0816    17.857663    23.475984    21.828075    9150.9009    2410.0346    1905.3983    2551.8118   -10.400086   -97.722086    172.98997   -4129.7242 
30998000    92.777661   -4585.4107    -4426.393   -4585.4107            0    2388.5401    17.900436    23.424166    21.818755    9148.6646    2253.5471    1904.7264    3007.3467    371.45346   -110.81509    487.39775   -4107.7047 
30999000    85.319922   -4587.9213   -4441.6859   -4587.9213            0    1579.4362     17.81772    23.542451     21.81273     9149.847    2040.2322    765.95557    1932.1207   -464.89735    232.83467    95.281316   -4230.9242 
31000000    85.951543   -4567.8233   -4420.5053   -4567.8233            0    2548.9828    17.836335    23.363477    21.921244    9134.9943    2563.7016    2825.5243    2257.7224   -50.531635    755.80243    390.27633   -4080.9183 
Loop time of 399.861 on 64 procs for 250000 steps with 864 atoms

Performance: 108.038 ns/day, 0.222 hours/ns, 625.218 timesteps/s
388.3% CPU use with 16 MPI tasks x 4 OpenMP threads

MPI task timing breakdown:
Section |  min time  |  avg time  |  max time  |%varavg| %total
---------------------------------------------------------------
Pair    | 24.065     | 27.697     | 32.852     |  46.7 |  6.93
Bond    | 1.5588     | 1.8518     | 2.8282     |  22.4 |  0.46
Kspace  | 215.25     | 223.15     | 230.21     |  26.5 | 55.81
Neigh   | 0.27207    | 0.35585    | 0.41361    |   6.7 |  0.09
Comm    | 53.083     | 59.082     | 67.628     |  56.8 | 14.78
Output  | 0.50473    | 0.50496    | 0.50636    |   0.1 |  0.13
Modify  | 61.524     | 69.454     | 75.658     |  55.7 | 17.37
Other   |            | 17.77      |            |       |  4.44

Nlocal:        54.0000 ave          61 max          47 min
Histogram: 1 1 6 0 0 1 1 1 2 3
Nghost:        2576.56 ave        2599 max        2554 min
Histogram: 2 0 4 1 1 2 1 0 4 1
Neighs:        13291.3 ave       14869 max       11628 min
Histogram: 1 2 4 0 1 0 2 1 3 2

Total # of neighbors = 212661
Ave neighs/atom = 246.13542
Ave special neighs/atom = 2.0000000
Neighbor list builds = 1218
Dangerous builds = 0

unfix		3
unfix		2
unfix		1

write_data	data.final.${pid} nocoeff
write_data	data.final.1 nocoeff
System init for write_data ...
PPPM initialization ...
  extracting TIP4P info from pair style
  using 12-bit tables for long-range coulomb (../kspace.cpp:340)
  G vector (1/distance) = 0.37205449
  grid = 24 27 25
  stencil order = 5
  estimated absolute RMS force accuracy = 0.0031229055
  estimated relative force accuracy = 9.4045372e-06
  using double precision FFTW3
  3d grid and FFT values/proc = 6300 1296
Last active /omp style is kspace_style pppm/tip4p/omp

write_restart   restart.lmp.${pid}
write_restart   restart.lmp.1
System init for write_restart ...
PPPM initialization ...
  extracting TIP4P info from pair style
  using 12-bit tables for long-range coulomb (../kspace.cpp:340)
  G vector (1/distance) = 0.37205449
  grid = 24 27 25
  stencil order = 5
  estimated absolute RMS force accuracy = 0.0031229055
  estimated relative force accuracy = 9.4045372e-06
  using double precision FFTW3
  3d grid and FFT values/proc = 6300 1296
Last active /omp style is kspace_style pppm/tip4p/omp
Total wall time: 0:06:39
