LAMMPS (30 Jul 2021)
  using 1 OpenMP thread(s) per MPI task
package omp 0
using multi-threaded neighbor list subroutines
echo both

include		in.partitions
variable        pid world 0
include		in.temp
variable        temperature equal 243.14
variable	tempDamp equal 100.0
include		in.pressure
variable        pressure equal 500.0
variable        pressureDamp equal 1000.0 # This is 1 ps
include		in.seed
variable        seed world 745823

units		real
atom_style	full
read_restart	restart.lmp.${pid}
read_restart	restart.lmp.0
Reading restart file ...
  restart file = 30 Jul 2021, LAMMPS = 30 Jul 2021
  restoring atom style full from restart
  orthogonal box = (0.13997284 1.2564008 0.17076654) to (18.067600 22.372777 22.042429)
  4 by 4 by 4 MPI processor grid
  restoring pair style lj/cut/tip4p/long/omp from restart
  restoring bond style harmonic/omp from restart
  restoring angle style harmonic/omp from restart
  864 atoms
  576 bonds
  288 angles
Finding 1-2 1-3 1-4 neighbors ...
  special bond factors lj:    0        0        0       
  special bond factors coul:  0        0        0       
     2 = max # of 1-2 neighbors
     1 = max # of 1-3 neighbors
     1 = max # of 1-4 neighbors
     2 = max # of special neighbors
  special bonds CPU = 1.526 seconds
  read_restart CPU = 1.868 seconds
include 	in.setup
variable	out_freq equal 1000
variable	out_freq2 equal 10000
variable	out_freq3 equal 1000

timestep	2.0

neigh_modify    delay 7 every 1

include		in.tip4p
# This is TIP4P/Ice

# create groups ###
group ox type 2
288 atoms in group ox
group hy type 1
576 atoms in group hy

# set charges - beside manually ###
set group ox charge -1.1794
Setting atom values ...
  288 settings made for charge
set group hy charge 0.5897
Setting atom values ...
  576 settings made for charge

# ### TIP3P Potential Parameters ###
pair_style lj/cut/tip4p/long/omp 2 1 1 1 0.1577 8.5
pair_coeff 1 1*2 0.000 0.000
pair_coeff 2 2 0.21084 3.1668
bond_style  harmonic
bond_coeff  1 450 0.9572
angle_style harmonic
angle_coeff 1 55 104.52
kspace_style pppm/tip4p/omp 1.0e-5
pair_modify tail yes

thermo          ${out_freq}
thermo          1000
thermo_style    custom step temp pe etotal epair emol press lx ly lz vol pxx pyy pzz pxy pxz pyz enthalpy

restart 	${out_freq3} restart.lmp.${pid} restart2.lmp.${pid}
restart 	1000 restart.lmp.${pid} restart2.lmp.${pid}
restart 	1000 restart.lmp.0 restart2.lmp.${pid}
restart 	1000 restart.lmp.0 restart2.lmp.0


include         in.dump
dump            myDump all atom ${out_freq2} dump.water.${pid}
dump            myDump all atom 10000 dump.water.${pid}
dump            myDump all atom 10000 dump.water.0
dump            myDump2 all dcd ${out_freq2} dump.dcd
dump            myDump2 all dcd 10000 dump.dcd
dump_modify     myDump append yes
dump_modify     myDump2 append yes


variable natoms 	equal  "count(all)"                        # NUMBER ATOMS
variable H      	equal  "enthalpy/v_natoms"                 # ENTHALPY-per-atom
variable Vol      	equal  "vol/v_natoms"                 # volume-per-atom
fix AVG all 		ave/time ${out_freq} 1 ${out_freq} v_Vol v_H file vol_enthalpy.dat
fix AVG all 		ave/time 1000 1 ${out_freq} v_Vol v_H file vol_enthalpy.dat
fix AVG all 		ave/time 1000 1 1000 v_Vol v_H file vol_enthalpy.dat


timer           timeout 23:50:00 every 1000
New timer settings: style=normal  mode=nosync  timeout=23:50:00

fix 		1 all shake 1e-6 200 0 b 1 a 1
       0 = # of size 2 clusters
       0 = # of size 3 clusters
       0 = # of size 4 clusters
     288 = # of frozen angles
  find clusters CPU = 0.141 seconds
fix             2 all nph iso ${pressure} ${pressure} ${pressureDamp}
fix             2 all nph iso 500 ${pressure} ${pressureDamp}
fix             2 all nph iso 500 500 ${pressureDamp}
fix             2 all nph iso 500 500 1000
fix             3 all temp/csvr ${temperature} ${temperature} ${tempDamp} ${seed}
fix             3 all temp/csvr 243.14 ${temperature} ${tempDamp} ${seed}
fix             3 all temp/csvr 243.14 243.14 ${tempDamp} ${seed}
fix             3 all temp/csvr 243.14 243.14 100 ${seed}
fix             3 all temp/csvr 243.14 243.14 100 745823

run             250000
PPPM initialization ...
  extracting TIP4P info from pair style
  using 12-bit tables for long-range coulomb (../kspace.cpp:340)
  G vector (1/distance) = 0.37273468
  grid = 24 25 25
  stencil order = 5
  estimated absolute RMS force accuracy = 0.003162569
  estimated relative force accuracy = 9.5239825e-06
  using double precision FFTW3
  3d grid and FFT values/proc = 2940 384
Last active /omp style is kspace_style pppm/tip4p/omp
Neighbor list info ...
  update every 1 steps, delay 7 steps, check yes
  max neighbors/atom: 2000, page size: 100000
  master list distance cutoff = 10.8154
  ghost atom cutoff = 10.8154
  binsize = 5.4077, bins = 4 4 5
  1 neighbor lists, perpetual/occasional/extra = 1 0 0
  (1) pair lj/cut/tip4p/long/omp, perpetual
      attributes: half, newton on, omp
      pair build: half/bin/newton/omp
      stencil: half/bin/3d
      bin: standard
Per MPI rank memory allocation (min/avg/max) = 9.234 | 9.239 | 9.252 Mbytes
Step Temp PotEng TotEng E_pair E_mol Press Lx Ly Lz Volume Pxx Pyy Pzz Pxy Pxz Pyz Enthalpy 
14000000    266.46254   -3951.4161   -3494.7084   -3951.4161            0     1065.561    17.927627    21.116376    21.871663     8279.879   -188.44612    376.83374    3008.2955    466.12203   -919.48273    -481.9192   -3366.0382 
14001000    245.61308   -3967.5321   -3546.5597   -3967.5321            0    442.78999    18.074942    21.289894    22.051387    8485.6734    1671.2066    559.71776   -902.55438    1041.7234    750.37742    -217.9679   -3491.7623 
14002000    247.12124   -3972.4063   -3548.8489   -3972.4063            0    2091.5652    17.924682    21.112907     21.86807    8275.7993    3676.1402    1434.4711    1164.0843    345.10017    1114.4447   -565.25796   -3296.4095 
14003000    241.59924   -3945.4145   -3531.3217   -3945.4145            0    1724.4768    18.014559    21.218771     21.97772    8400.9134    1348.2881    1061.2283    2763.9139   -295.00883    322.07371   -1444.4027    -3320.041 
14004000    225.12711    -3972.788   -3586.9278    -3972.788            0    950.43542    18.105473    21.325856    22.088635    8528.7474    2049.6058   -853.34668    1655.0472   -222.48212   -1221.1914   -1057.1257   -3468.7098 
14005000    241.88604   -3964.7304    -3550.146   -3964.7304            0    776.30648    18.149342    21.377527    22.142155    8590.8915    310.65503    720.85617    1297.4082    1434.8341   -719.69331   -54.655302   -3452.8831 
14006000    238.89453   -3939.4126   -3529.9555   -3939.4126            0   -157.66466    18.067316    21.280912    22.042083    8474.9378   -446.40939   -753.32135    726.73674   -1311.9741    81.837514     1881.219   -3549.4426 
14007000    241.17368   -3961.7037   -3548.3403   -3961.7037            0     747.7128    18.198297     21.43519     22.20188    8660.5967    584.40994   -1241.5643    2900.2928   -1105.0424   -362.92017   -341.58115   -3453.8997 
14008000    250.53773   -3977.3962   -3547.9831   -3977.3962            0    835.39667     18.00413    21.206487    21.964997    8386.3317    515.76621    468.91858    1521.5052    -262.5397   -953.52152    195.44633   -3445.8091 
14009000    248.75673   -3945.8649   -3519.5044   -3945.8649            0     148.9631    18.167462    21.398871    22.164261    8616.6485    593.38896   -381.93549    235.43581     -1241.43    362.63831   -24.924171   -3500.7849 
14010000    239.44453   -3947.9686   -3537.5689   -3947.9686            0   -1001.3843    18.258765    21.506414    22.275651    8747.2153   -1246.0402   -289.10401   -1469.0088   -870.56739   -753.20591   -624.26157   -3665.3146 
14011000    241.39988   -3981.2697   -3567.5185   -3981.2697            0    1342.2725    18.003429    21.205662    21.964142    8385.3522    1332.1575    2886.8564   -192.19634   -311.23364    76.871544    1131.1516   -3403.3697 
14012000    249.05128   -3950.3595   -3523.4941   -3950.3595            0   -498.11303    18.060462    21.272838    22.033721    8465.2959    556.50173   -1745.4097    -305.4311   -1129.3241    1092.8099    1204.9378     -3584.99 
14013000    249.87297   -3946.6505   -3518.3768   -3946.6505            0    1860.7424    17.937843    21.128409    21.884126    8294.0418    1611.7861    1684.5031    2285.9381    1570.8575    1715.3655     377.3862   -3293.3012 
14014000    240.41108   -3981.8195   -3569.7631   -3981.8195            0    1941.5827    17.907152     21.09226    21.846684    8251.5429    1109.6717    3495.5575    1219.5191   -527.44305    1413.7123    256.36679   -3336.1125 
14015000    228.89568   -3926.6276   -3534.3082   -3926.6276            0    614.14115    18.079719     21.29552    22.057214    8492.4028    956.59242    712.67889    173.15213    1364.2374   -758.42445   -197.86282    -3458.245 
14016000    239.46542   -3927.4576    -3517.022   -3927.4576            0    614.48299    18.046712    21.256643    22.016947    8445.9764    1926.7325   -137.85783    54.574293    450.86255    901.62729    826.09561   -3441.3325 
14017000    246.52226   -3953.2825   -3530.7518   -3953.2825            0    1079.2782    18.022918    21.228617    21.987918    8412.6128    1334.3512    950.13908    953.34441   -389.34779   -1113.6236    811.85899   -3398.3359 
14018000    231.66869   -3980.7278   -3583.6556   -3980.7278            0   -656.77859    18.035849    21.243848    22.003694    8430.7335   -1395.4186   -1635.8658    1060.9485    188.35169    237.93167    867.30645   -3664.4089 
14019000    237.74139   -3944.8564   -3537.3758   -3944.8564            0   -1286.4175    18.129428    21.354071    22.117859    8562.6436   -1388.8937   -1853.5253   -616.83354   -185.65182   -194.55144   -979.56557   -3698.0202 
14020000    238.53113   -3978.9292    -3570.095   -3978.9292            0    914.00276    18.015508    21.219889    21.978878    8402.2409   -291.10148   -491.77311    3524.8829   -72.161883   -275.63568   -657.85204   -3458.0949 
14021000    248.85289   -4005.4685   -3578.9431   -4005.4685            0   -883.99463    18.101085    21.320688    22.083282    8522.5478   -2831.7411    112.07248     67.68469   -352.77387   -939.09875    831.51368   -3688.8171 
14022000    239.37874   -3957.8787   -3547.5917   -3957.8787            0   -402.68209    18.075338     21.29036     22.05187    8486.2313   -2090.9606   -1026.7746    1909.6889     262.1223   -312.64661    81.405328   -3597.4289 
14023000    245.68326   -4004.2896   -3583.1969   -4004.2896            0     1266.786    18.096254    21.314997    22.077388    8515.7256    1418.1729    1256.7191     1125.466   -112.98697   -476.35342   -955.29774   -3425.8708 
14024000    250.49701   -3930.3187   -3500.9754   -3930.3187            0    238.74926    17.956075    21.149884    21.906369    8319.3579    1115.5741   -662.25761    262.93128   -816.64697   -192.65048   -388.92774   -3472.0081 
14025000    238.25972    -3949.369        -3541    -3949.369            0    1239.4298    18.036286    21.244363    22.004227    8431.3467    1697.9071     601.9733    1418.4091   -740.11213    182.54196    536.44936   -3388.5965 
14026000    252.09867   -3952.5312   -3520.4427   -3952.5312            0    589.24712    18.082887    21.299252     22.06108    8496.8681    875.85816    551.79362    340.08957   -1499.4926    41.267686   -137.22358   -3447.4243 
14027000    247.68326   -3936.8147   -3512.2941   -3936.8147            0    -919.2613    18.133054    21.358343    22.122284    8567.7835   -511.68863   -1627.3883   -618.70695   -1114.1136    749.35272    36.134976   -3627.1579 
14028000    232.62674   -3954.4442   -3555.7299   -3954.4442            0    971.26369    18.008123     21.21119    21.969868    8391.9118    2106.3407   -196.02456     1003.475   -989.21438   -42.053381    13.641389   -3436.8595 
14029000    236.09793   -3963.4766   -3558.8128   -3963.4766            0    1793.6936    17.865717    21.043455    21.796133    8194.3957    3042.8215    1923.6336    414.62571     796.7651    127.71352   -195.23642   -3344.4542 
14030000    248.56293    -3929.209   -3503.1806    -3929.209            0    1268.3735    17.904166    21.088742    21.843041    8247.4154    1518.0291    -172.3796    2459.4709    -1117.855   -599.75899   -165.54544   -3350.6205 
14031000    238.16489   -3897.1285   -3488.9221   -3897.1285            0   -1376.4437    17.997123    21.198234    21.956449     8376.544   -1352.7327    -1036.978   -1739.6202     854.6066   -847.09741    -411.0761    -3657.073 
14032000    246.02427   -3932.8186   -3511.1414   -3932.8186            0    1191.0246    17.857173    21.033391    21.785709    8182.6449    1294.9578    954.94075    1323.1754    709.26525   -28.097317   -13.171777   -3369.0099 
14033000    247.97648   -3932.9157   -3507.8925   -3932.9157            0   -114.80375    17.895929     21.07904    21.832991    8236.0374   -471.74642    429.28139   -301.94621   -28.854449   -510.57193   -462.73684   -3521.6821 
14034000    232.02537   -3962.1019   -3564.4183   -3962.1019            0   -27.064795    17.949171    21.141753    21.897947    8309.7659    640.03097    -654.6948    -66.53056   -398.97386    92.029618    339.23835   -3567.6983 
14035000    230.09529   -3974.7197   -3580.3443   -3974.7197            0    536.72956    17.876319    21.055942    21.809067    8208.9927    637.95911     1928.184   -955.95445     988.9513    639.84821   -210.36409   -3516.0872 
14036000    231.61855   -3951.0058   -3554.0195   -3951.0058            0    1939.7943    17.841548    21.014987    21.766647     8161.185    2266.8681    682.22228    2870.2924   -585.56964   -1522.8643    1.1373648   -3323.1403 
14037000    251.76682   -3957.6014   -3526.0817   -3957.6014            0    108.86239    17.938571    21.129267    21.885014    8295.0518   -109.21343    430.11045     5.690162   -574.90649   -800.66066    235.86908   -3512.9121 
14038000    247.71226   -3961.4486   -3536.8782   -3961.4486            0     951.8479    17.885093    21.066277    21.819771    8221.0856    482.57503   -980.62128    3353.5899    374.56843   -816.64242     482.2187   -3422.7554 
14039000    241.34932   -3954.4163   -3540.7518   -3954.4163            0    463.85065    17.913834     21.10013    21.854836    8260.7833    692.41169    2093.3608   -1394.2205   -90.479553   -422.86839   -659.02593   -3484.8693 
14040000    248.54363   -3982.9328   -3556.9375   -3982.9328            0    689.48015    17.890566    21.072723    21.826449    8228.6354    1073.8254    753.54486     241.0702    538.50941   -366.02443    997.80488   -3474.1957 
14041000    235.06973   -3950.2792   -3547.3778   -3950.2792            0    425.68765    17.904189     21.08877    21.843069    8247.4475    1613.5511    864.91356   -1201.4017   -370.40867   -449.15989    507.61157   -3496.1758 
14042000    248.45922    -3972.752   -3546.9014    -3972.752            0    2332.5431    17.840908    21.014233    21.765866    8160.3061    2461.4571    2968.3622    1567.8101    12.540467    995.38588   -52.432849   -3269.3061 
14043000    248.06701   -3954.8094    -3529.631   -3954.8094            0    819.99742    17.857715     21.03403    21.786371    8183.3903    763.28143     327.4777    1369.2331    1591.2892    323.65085   -798.54234   -3431.7673 
14044000    247.36129   -3953.1584   -3529.1896   -3953.1584            0    1222.0101    17.853589    21.029169    21.781337    8177.7189    1982.5844    2110.2108   -426.76483    540.80991   -309.44591    591.13036   -3383.4482 
14045000    237.45524   -4007.0324   -3600.0422   -4007.0324            0   -328.16716    17.883456    21.064349    21.817775    8218.8289   -19.034843    655.67866   -1621.1453   -63.953443   -577.66168    374.55501   -3639.3774 
14046000    261.31714   -3980.0457    -3532.157   -3980.0457            0    2526.9735    17.827589    20.998545    21.749617    8142.0433    2401.6991    1545.1554     3634.066   -107.05098   -387.56742    717.25073   -3232.0957 
14047000    232.15655   -3962.1704   -3564.2621   -3962.1704            0    1038.7866    17.989178    21.188875    21.946755    8365.4543    521.35429    1052.7174    1542.2882    779.17889    -170.9133   -287.56825   -3437.5285 
14048000    232.10957   -3933.8471   -3536.0193   -3933.8471            0   -362.89836    18.014358    21.218534    21.977474    8400.6314    703.83532    1034.4344   -2826.9648   -507.20635   -1154.7454   -1540.7406   -3580.4796 
14049000    245.80553   -3953.7284   -3532.4261   -3953.7284            0    1382.4821    17.949942    21.142661    21.898887    8310.8363    916.66508    363.36539    2867.4157     354.0608    7.0632158   -242.27946   -3364.8624 
14050000    248.01267   -3975.4426   -3550.3574   -3975.4426            0    276.73948    18.031169    21.238335    21.997984    8424.1722    175.27315   -1374.2101    2029.1554    -1229.537    578.71646    984.97003   -3516.3578 
14051000     241.5265   -3929.6005   -3515.6324   -3929.6005            0     -959.451    18.064612    21.277727    22.038784    8471.1327   -668.72866   -2821.8891    612.26478    101.99814    727.23855   -823.11938   -3634.1656 
14052000    243.90227   -3972.8348   -3554.7946   -3972.8348            0    3094.8512    17.845239    21.019334    21.771149    8166.2499    1663.0378    3510.3746    4111.1413   -579.89039   -275.88346    332.43311   -3186.2091 
14053000     231.6954   -3937.3041   -3540.1861   -3937.3041            0    1087.5108    17.939573    21.130447    21.886237    8296.4417    3037.6724   -668.93148    893.79136    324.93835   -101.49083   -1181.1191   -3408.6027 
14054000    257.82583   -3951.7257   -3509.8211   -3951.7257            0    1466.2866    17.944875    21.136693    21.892706    8303.8007    1460.6619    49.520271    2888.6777   -44.583978   -258.46456   -117.02084   -3332.2502 
14055000    241.51997   -3946.8915   -3532.9345   -3946.8915            0    1539.6808    17.914214    21.100578    21.855299    8261.3089    2889.5071    206.27829     1523.257    618.60178    188.78345    180.09514   -3347.4296 
14056000    251.18135   -3915.8566   -3485.3404   -3915.8566            0    316.90581    17.979123    21.177032    21.934488    8351.4348    1785.9259    157.94736    -993.1558    96.122698   -574.77618    74.800109   -3446.7422 
14057000    241.01006   -3933.1452   -3520.0622   -3933.1452            0    978.40183    17.950531    21.143354    21.899606    8311.6547    1150.5143    196.49855    1588.1926   -244.94909   -731.13479   -614.99768   -3401.4633 
14058000    234.51147   -3953.5177   -3551.5731   -3953.5177            0   -294.06521    18.035562     21.24351    22.003344     8430.331   -552.35834   -76.975487   -252.86182    1162.7146   -1136.9743   -756.48172   -3587.7277 
14059000     242.4263   -3936.0078   -3520.4974   -3936.0078            0     293.7766    17.971049    21.167522    21.924638    8340.1888    791.89251    232.34743   -142.91014    586.41587    452.48616    -522.0924   -3484.7645 
14060000    236.00138   -3970.6832   -3566.1849   -3970.6832            0   -364.40885    18.072069     21.28651    22.047882    8481.6275    697.68649   -2255.9052    464.99217    406.82046   -39.967342    755.26489   -3611.2607 
14061000    245.38398   -3941.7062   -3521.1265   -3941.7062            0    827.56737    18.047212    21.257232    22.017556    8446.6782    592.56066    880.81048     1009.331    749.62038    -455.7792    949.24787   -3419.1816 
14062000    243.83954    -3935.218   -3517.2854    -3935.218            0    303.26952    17.958338     21.15255    21.909131    8322.5042   -232.01285    769.34625    372.47517    1388.9818    423.13091    1244.0563    -3480.476 
14063000    245.84069   -3914.6957   -3493.3332   -3914.6957            0    2588.0079    17.941344    21.132534    21.888398    8298.9003    3741.2094    2985.6693    1037.1449   -752.85707    205.69161    85.467017   -3180.1041 
14064000    242.17529   -3949.5037   -3534.4235   -3949.5037            0     350.4756     18.05354    21.264685    22.025276     8455.566   -662.09517    1353.0084    360.51361    213.49532   -454.05426   -1428.0248   -3491.2043 
14065000    233.50092   -3954.2739   -3554.0613   -3954.2739            0    421.23767    17.941173    21.132332    21.888189    8298.6618    -768.5379    1067.7445    964.50638   -450.61083   -368.22221    20.825323     -3503.08 
14066000    246.04574   -3897.4103   -3475.6963   -3897.4103            0   -300.97548     18.01812    21.222965    21.982064    8405.8959    155.15635    218.34641   -1276.4292    420.68535    362.73865    533.77424   -3512.5933 
14067000    247.27467   -3990.8708   -3567.0505   -3990.8708            0   -92.381583    18.079331    21.295064    22.056742     8491.857   -1437.4054    754.72693    405.53371   -119.14013   -378.67565   -367.17877   -3578.4915 
14068000     246.3121   -3953.0757   -3530.9052   -3953.0757            0    1640.6744    18.071542    21.285889    22.047239     8480.886    1138.1538    1686.2126    2097.6568   -2131.8452    -1196.107     337.4493   -3327.9783 
14069000    230.11161   -3964.2056   -3569.8022   -3964.2056            0    1240.0626     18.10384    21.323933    22.086643    8526.4396    1170.5897    1561.9715    987.62655    201.08935   -333.44428    151.43865   -3415.6012 
14070000    237.41717   -3937.0552   -3530.1303   -3937.0552            0   -1045.4082    18.154044    21.383066    22.147892    8597.5708   -1528.8688   -277.61653   -1329.7391   -342.97749   -722.43642    1367.2046   -3661.2106 
14071000    230.80191   -3930.9068   -3535.3202   -3930.9068            0    205.86884     18.02358    21.229397    21.988726    8413.5401    1382.7938   -684.62966   -80.557659    218.31466   -712.23995    125.27739   -3510.0595 
14072000    258.09619   -3907.3525   -3464.9845   -3907.3525            0    41.974831    18.157028     21.38658    22.151531    8601.8102   -1329.0619    1179.4074    275.57894    98.446646   -268.32868   -325.65111   -3459.7188 
14073000    225.88795   -3960.6387   -3573.4745   -3960.6387            0    909.49244    18.054622     21.26596    22.026597    8457.0871    749.97182    1382.7111    595.79441   -1675.5662    1396.2894   -203.65922   -3461.2996 
14074000    241.94128   -3973.4784   -3558.7994   -3973.4784            0    -794.1292    18.067899    21.281598    22.042794     8475.758   -715.86108    227.61478   -1894.1413    406.49696    57.004256   -1222.5024   -3656.9619 
14075000     256.8378   -3990.0878   -3549.8766   -3990.0878            0    971.16864      18.0837     21.30021    22.062072    8498.0145    144.40116    1570.3043    1198.8005   -382.56736     165.8885    -93.92175    -3429.515 
14076000    252.65828   -3993.5136    -3560.466   -3993.5136            0    740.66804    18.031262    21.238444    21.998097     8424.302    1137.5156    1002.3272    82.161327    220.57765    460.38788    251.57979   -3469.4677 
14077000    233.86486   -3980.2995   -3579.4632   -3980.2995            0     227.7203    18.111029      21.3324    22.095413    8536.6003    65.018261   -65.882807    684.02546   -1215.5615   -389.74552   -403.94563   -3551.1126 
14078000    261.43135   -3949.6261   -3501.5417   -3949.6261            0     350.9473    18.111257    21.332668    22.095691    8536.9226    225.60955    1966.2333    -1139.001    212.53455    1423.4603   -242.97507    -3457.848 
14079000    239.23875   -3951.1129   -3541.0659   -3951.1129            0    1390.8809    18.028742    21.235477    21.995024    8420.7718    2027.6185    1159.1023    985.92174   -136.23649   -24.699732   -913.59385   -3370.2541 
14080000    253.15531   -3927.9059   -3494.0064   -3927.9059            0    2468.5936     17.95521    21.148866    21.905315    8318.1565    2000.9449    2249.8445    3154.9915   -82.248646   -610.10986   -993.83006   -3194.5369 
14081000    241.59466   -3956.1824   -3542.0974   -3956.1824            0    810.70428    18.048832     21.25914    22.019533     8448.953    812.01063   -668.48651    2288.5887   -1191.6014    848.98312    637.34002    -3442.203 
14082000    239.06301   -3958.4597   -3548.7139   -3958.4597            0    118.31406    18.147264     21.37508     22.13962    8587.9418     954.4097   -357.83063   -241.63689   -689.63522   -348.60375    168.61839   -3533.8955 
14083000    239.88115   -3963.2415   -3552.0934   -3963.2415            0   -432.48609    18.124384     21.34813    22.111706    8555.4993   -1549.0849   -35.538876    287.16553    156.22156   -144.54155    463.87682    -3606.056 
14084000    249.06026   -3917.9913   -3491.1105   -3917.9913            0    1411.9676    18.057218    21.269018    22.029764    8460.7359    1746.3738    1001.0896    1488.4395    925.26013   -398.41747   -1001.5576   -3316.8862 
14085000    239.88837    -3952.028   -3540.8675    -3952.028            0    1472.9557    18.014911    21.219185    21.978149    8401.4052     1655.583      1669.05    1094.2342    401.60693    45.226537    103.71609   -3360.3923 
14086000    240.21729   -3946.7195   -3534.9953   -3946.7195            0    1875.1892    18.053095    21.264161    22.024733    8454.9408    1006.8146    1609.1607    3009.5923   -825.33207    979.56534    1155.6507    -3303.772 
14087000     238.6602   -3961.7345   -3552.6791   -3961.7345            0   -2.4953397    18.093182    21.311379     22.07364    8511.3896    1705.4416   -693.34115   -1019.5865    373.76974   -133.59697   -618.28146   -3552.9888 
14088000    251.14834   -3922.1599   -3491.7002   -3922.1599            0   -1327.8327    18.112363    21.333972    22.097041    8538.4878   -1289.5372   -2468.6272   -225.33361    78.574835   -404.31631    1457.2084   -3657.0487 
14089000    231.57222   -3960.3178   -3563.4109   -3960.3178            0    1134.4868    17.976541    21.173991    21.931338    8347.8378    1195.9964    955.10378    1252.3601    783.23642    307.29914    342.03584   -3425.2932 
14090000     234.0162   -3938.7277   -3537.6319   -3938.7277            0    140.08153      18.0594    21.271588    22.032426    8463.8035    630.05588   -326.21553    116.40423   -1072.9472    318.12855    1010.5976   -3520.3408 
14091000    234.51807   -3962.6975   -3560.7416   -3962.6975            0    35.509614    18.030442    21.237479    21.997097    8423.1537   -181.56962    82.770694    205.32776   -620.34501   -1874.5811    375.19977   -3556.3795 
14092000    252.54445   -3953.1201   -3520.2676   -3953.1201            0    1363.6243    18.023197    21.228945    21.988258    8413.0031    893.82211    2858.9165     338.1343   -34.256287    152.08587    655.89889   -3352.9576 
14093000    239.47504   -3990.5799   -3580.1279   -3990.5799            0   -993.07453    18.173813    21.406351    22.172009    8625.6879   -853.96199   -892.05706   -1233.2045    -1118.784    1364.5364   -625.86318   -3705.0535 
14094000     248.4911   -3985.2749   -3559.3697   -3985.2749            0   -435.63358    18.171663    21.403818    22.169386    8622.6269   -814.94382   -948.34808    456.39116    39.582374    196.52974    123.03238   -3614.1515 
14095000    242.33037   -3976.0441   -3560.6981   -3976.0441            0   -161.53012    18.192048     21.42783    22.194256    8651.6787   -590.43137   -78.243519    184.08454    698.54039    986.69665   -551.97902   -3581.0793 
14096000    250.40647   -3953.5081     -3524.32   -3953.5081            0    -281.2879    18.206833    21.445244    22.212293    8672.7894   -659.04492    810.67979   -995.49857    508.27169    961.62805    797.04393   -3559.8983 
14097000    247.48095   -3959.4968   -3535.3229   -3959.4968            0    252.63732    18.157116    21.386684    22.151639    8601.9357    -977.8022   -741.15457    2476.8687   -432.46202     82.20851   -379.15102   -3503.6295 
14098000    234.35565   -3983.6426    -3581.965   -3983.6426            0   -462.10766      18.2024    21.440023    22.206886    8666.4566   -210.85527   -615.91554   -559.55217   -193.43553      221.768   -1044.9026   -3640.3714 
14099000    249.08636    -3973.422   -3546.4965    -3973.422            0     1229.713    18.131199    21.356158     22.12002    8565.1538    1771.3399    1529.2224    388.57675   -371.95746    1139.7312    10.584795   -3392.8882 
14100000    245.28783   -3988.0398   -3567.6248   -3988.0398            0    1365.8392    18.123368    21.346934    22.110467    8554.0611    767.41243     2772.727     557.3781    1837.1082    127.50192   -638.44748   -3397.2334 
14101000    233.81462   -3992.0054   -3591.2552   -3992.0054            0   -342.08608    18.137119    21.363131    22.127243    8573.5468   -1321.9992    604.03362   -308.29261    338.40025    688.66519   -848.01394   -3634.0284 
14102000    245.77783   -3961.0188   -3539.7641   -3961.0188            0    311.44668    18.127542    21.351851    22.115559    8559.9727   -1054.9555    1625.7176    363.57801   -866.89327    -272.3901   -189.82284   -3500.8835 
14103000    241.78358   -3950.1311   -3535.7223   -3950.1311            0   -71.267169    18.126295    21.350381    22.114038    8558.2059   -105.89576   -295.11679    187.21104   -49.298798   -460.29738    912.29477   -3544.6173 
14104000    244.63131   -3977.2979   -3558.0082   -3977.2979            0   -1056.7663    18.204099    21.442024    22.208959    8668.8837   -607.31123   -451.40417   -2111.5834    -316.5115    28.320638    61.858358   -3691.6118 
14105000    246.24832   -3953.9342    -3531.873   -3953.9342            0   -195.85417    18.136203    21.362052    22.126126    8572.2478   -487.08948    618.60713   -719.08017    450.69496    459.28626   -1530.5435   -3556.3582 
14106000    233.69975   -3991.6993   -3591.1459   -3991.6993            0    416.69332    18.141634    21.368449    22.132751    8579.9509   -351.94414   -426.78421    2028.8083    945.30362    848.64787   -174.47677   -3539.0052 
14107000    243.95187   -3995.8811    -3577.756   -3995.8811            0   -1304.6298    18.182023    21.416022    22.182026     8637.384    -1214.513   -1873.7563   -825.61996   -350.25357   -311.41852    190.59187   -3742.0968 
14108000    230.29636   -3954.4344   -3559.7144   -3954.4344            0    126.08836    18.094532    21.312968    22.075286    8513.2941     339.8938    435.14816   -396.77688   -363.06472    329.03807   -623.19648   -3544.0595 
14109000    235.12856   -3962.2941   -3559.2918   -3962.2941            0    176.73036    18.191027    21.426627    22.193011    8650.2221    1348.1473   -780.90134   -37.054831   -835.71735    532.47492   -150.30936   -3536.9964 
14110000    228.88063   -3951.9216    -3559.628   -3951.9216            0    1106.8269    18.132431    21.357608    22.121523    8566.8994    1743.1887    2456.2283   -878.93633    1035.6728   -592.31791    389.17691   -3421.3417 
14111000    243.67146   -3967.1461   -3549.5016   -3967.1461            0   -282.57128    18.278271    21.529389    22.299448    8775.2789    72.204055    133.07072   -1052.9886    555.14437    1345.2537   -498.93603   -3585.6646 
14112000    243.85497   -3979.5744   -3561.6153   -3979.5744            0    420.57984    18.225843    21.467636    22.235486    8699.9848    435.72192   -83.757626    909.77523   -903.56505    177.49212    247.59892    -3508.252 
14113000    242.34863   -3989.5123    -3574.135   -3989.5123            0     602.3289    18.251955    21.498392    22.267342    8737.4307    261.32312   -66.132313    1611.7959    700.99961    754.97637    344.13034   -3497.3824 
14114000    254.06654   -3971.7674    -3536.306   -3971.7674            0    1837.9198    18.198541    21.435478    22.202178    8660.9459     4128.019    544.19992    841.54037   -161.12932   -92.318453    367.83457   -3304.1565 
14115000    251.99807   -3989.9549   -3558.0388   -3989.9549            0    660.87885    18.243516    21.488452    22.257046    8725.3164    354.67335    32.448375    1595.5148     239.9568   -308.32669    420.60582   -3473.9421 
14116000     242.8783   -3999.6918   -3583.4067   -3999.6918            0    370.29996    18.265164     21.51395    22.283457    8756.4142   -705.54282    2085.0622   -268.61952   -83.598007   -249.89703    421.17243   -3536.1182 
14117000    234.69907   -3991.9051    -3589.639   -3991.9051            0    1355.7453    18.157855    21.387555    22.152541    8602.9863    2321.4752    540.71993    1205.0409   -572.50316    801.71971   -359.25684   -3419.5394 
14118000    240.19027   -3992.5394   -3580.8615   -3992.5394            0    364.43233    18.191217    21.426851    22.193243    8650.4936   -302.69652    584.09664    811.89687   -1364.4207   -1271.9736    661.10791   -3534.8852 
14119000    242.80722   -3960.6515   -3544.4882   -3960.6515            0    2196.7715    18.198243    21.435126    22.201814    8660.5197    2190.6476    2785.5004    1614.1664   -26.664432    -921.5433    534.36795   -3267.0254 
14120000    240.02458    -3991.215   -3579.8211    -3991.215            0    871.64509    18.307863    21.564244     22.33555    8817.9689      211.411    1173.0876    1230.4367    -493.2744    188.40641    -764.3673   -3467.7266 
14121000    251.70183   -4005.5842   -3574.1759   -4005.5842            0    1128.9743    18.248532    21.494361    22.263167    8732.5166    1037.9119    178.24774    2170.7632    1059.7494   -261.86955    -701.4547   -3430.3956 
14122000    244.09227   -3950.9255   -3532.5597   -3950.9255            0     532.1818    18.302609    21.558056    22.329141    8810.3797    511.76491    680.03204    404.74844   -408.29694    54.358458    131.61735   -3464.1795 
14123000    238.68239    -4002.079   -3592.9856    -4002.079            0   -590.55797    18.238018    21.481976    22.250339    8717.4302   -770.34244   -31.810966   -969.52051     243.9586   -157.18054   -429.97017   -3668.0661 
14124000    249.83298    -3961.958   -3533.7528    -3961.958            0    681.15231    18.303951    21.559637    22.330778    8812.3174    1318.5049   -54.817355    779.76935   -159.97072   -386.34636    558.86188   -3446.2121 
14125000    254.35526   -3948.5812    -3512.625   -3948.5812            0    1485.4491    18.291121    21.544524    22.315125    8793.7992    1969.7166     66.92261    2419.7081     769.2928    458.64425    322.58614   -3322.1184 
14126000    247.21366   -3964.1523   -3540.4366   -3964.1523            0   -83.981489    18.309828    21.566558    22.337947    8820.8077   -404.56681    986.11603   -833.49369    714.44569    57.410977    437.05688   -3551.2402 
14127000    250.30002   -3973.8577   -3544.8521   -3973.8577            0    779.60051    18.102619    21.322495    22.085153    8524.7148    1033.3293    979.32551    326.14671   -593.31447    573.45492    -828.2851   -3447.9288 
14128000    240.86939   -3971.7101   -3558.8682   -3971.7101            0    885.01141    18.174877    21.407604    22.173307    8627.2032    403.48783    492.49561    1759.0508       1009.7    513.79768    54.132782    -3447.517 
14129000    238.58288   -3956.9216   -3547.9987   -3956.9216            0   -292.52011    18.227673    21.469791    22.237719    8702.6054    305.24237   -229.93692   -952.86579    2313.2585    1202.5548    448.65003    -3585.125 
14130000    230.82721   -3990.8114   -3595.1815   -3990.8114            0    449.34089    18.214734     21.45455    22.221932    8684.0848    1881.1111   -68.954626   -464.13384    446.76702    550.77575   -351.70131   -3538.2731 
14131000    234.55976   -3987.7142   -3585.6867   -3987.7142            0   -3.6039178    18.235585    21.479111    22.247371    8713.9429   -319.97278   -309.18343    618.34446    672.30861   -198.55043    1413.9875   -3586.1447 
14132000     241.3624   -3942.0457   -3528.3588   -3942.0457            0    1343.6842    18.250928    21.497182     22.26609    8735.9561    835.25695    1346.7999    1848.9957     792.9388    254.82788   -584.40796   -3357.1668 
14133000    244.11011   -4007.9576   -3589.5612   -4007.9576            0    335.34013    18.266789    21.515864    22.285439    8758.7514    567.66306   -833.03951    1271.3968   -872.52778   -788.10539    764.20904   -3546.7258 
14134000     230.8823   -3986.3532   -3590.6288   -3986.3532            0    805.06118    18.298059    21.552696    22.323589    8803.8098    383.46076    109.28594    1922.4368    510.13362   -716.45064    999.59867   -3487.2634 
14135000    226.41167   -4010.8576   -3622.7957   -4010.8576            0    610.68152    18.272393    21.522465    22.292277    8766.8154     1516.271   -604.72214     920.4957     486.5874   -469.32161     1142.574    -3544.717 
14136000     236.5339   -3969.8099   -3564.3989   -3969.8099            0   -174.87501    18.355349    21.620177    22.393483    8886.7622    51.023416   -100.60918   -475.03928    357.40415   -25.398499   -305.74514   -3587.0635 
14137000    243.84607   -4011.3446   -3593.4008   -4011.3446            0    1812.9935    18.252837    21.499431    22.268418    8738.6973    1082.6645    1753.1528    2603.1631   -707.16289   -111.69824   0.58442887   -3362.3439 
14138000    241.92778   -3989.0643   -3574.4083   -3989.0643            0    1976.0236    18.251206     21.49751    22.266429    8736.3559    2227.3515    1421.4568    2279.2624    971.82438    751.29032    688.70938   -3322.6416 
14139000    240.07981   -4030.2954   -3618.8069   -4030.2954            0     17.15277    18.228027    21.470208     22.23815    8703.1119   -560.85028   -1058.7169    1671.0255    596.93514   -145.09187   -379.08835   -3616.6297 
14140000    252.55324    -4020.084   -3587.2163    -4020.084            0    1474.9359    18.307044     21.56328    22.334551    8816.7858    1796.0599    451.86735    2176.8805   -910.26258   -341.76071    149.92104   -3397.5635 
14141000    229.39122   -3995.2724   -3602.1036   -3995.2724            0    1006.5251    18.242408    21.487147    22.255695     8723.727    1248.5805    -1125.511    2896.5058   -220.23844    864.70938     1282.918   -3474.0469 
14142000    241.68493   -4003.7485   -3589.5088   -4003.7485            0    1193.2445    18.228352    21.470591    22.238547    8703.5778    1018.0751     584.8168    1976.8415    -676.6017    234.73111    537.09768    -3438.047 
14143000    232.52965   -3983.3595   -3584.8116   -3983.3595            0   -1917.7574    18.375564    21.643988    22.418146    8916.1559   -1604.1522   -2598.8099   -1550.3102   -745.22295   -708.92827   -20.364071   -3834.1834 
14144000    245.67286    -4006.921   -3585.8461    -4006.921            0     1887.093    18.263271    21.511721    22.281148    8753.6925    4661.9786   -282.20326    1281.5037    800.90089   -678.90119   -283.67826    -3344.933 
14145000    247.97999   -3978.5275   -3553.4983   -3978.5275            0   -137.27347    18.354889    21.619634    22.392921    8886.0928   -177.98284   -930.36541    696.52784    1089.0738    1.7476526   -99.918984   -3571.2881 
14146000    248.31921   -4033.2973   -3607.6867   -4033.2973            0    1607.4949    18.315523    21.573267    22.344896    8829.0422    1674.7595    1758.7921    1388.9331    485.40511   -118.15964    129.24204   -3400.7016 
14147000     225.7556   -3998.9175   -3611.9801   -3998.9175            0    1891.7602    18.285567    21.537982    22.308349     8785.791    2198.9349    1253.9852    2222.3606    -660.9849    754.52059    481.36736   -3369.5856 
14148000    239.66956   -4024.2568   -3613.4713   -4024.2568            0    948.46884    18.290132     21.54336    22.313918    8792.3731     169.8555    932.78237    1742.7686    348.78376    811.56333    785.01856   -3491.8513 
14149000    248.27124   -3969.3127   -3543.7843   -3969.3127            0    617.12777    18.321289    21.580058    22.351929    8837.3822   -908.89341    124.76022    2635.5165   -24.775842   -51.640333    341.12491   -3464.2463 
14150000    233.98434   -4003.6851   -3602.6439   -4003.6851            0    452.24067    18.331727    21.592353    22.364665    8852.4965   -209.29999    857.83508    708.18693    -846.0334   -1449.4813    246.99944   -3544.2576 
14151000    250.26259    -3988.206   -3559.2644    -3988.206            0    1914.7787    18.195168    21.431504    22.198062    8656.1301    1118.7906    2784.8089    1840.7367    403.42883   -637.92918    203.61708   -3317.5413 
14152000     235.1911    -3996.536   -3593.4265    -3996.536            0   -5.1313286    18.309952    21.566705    22.338098    8820.9872    1721.4164    185.47131   -1922.2817   -573.60245    1328.6146   -109.16965   -3594.0866 
14153000    235.77357   -3963.8906   -3559.7827   -3963.8906            0   -138.25988    18.263641    21.512156    22.281599    8754.2238   -1075.9981    770.63635   -109.41794    18.824503    1411.4177    716.71479   -3577.4346 
14154000    228.99268   -3990.1755   -3597.6899   -3990.1755            0   -4.0411529    18.223026    21.464318     22.23205    8695.9513    -1804.831    794.11094    998.59657    1193.0639     150.0048    295.52601   -3598.2024 
14155000    229.21533   -3964.9546   -3572.0874   -3964.9546            0    -706.3593    18.307663    21.564009    22.335306    8817.6798   -671.38892   -673.71198     -773.977   -579.05787   -118.34481   -811.96892   -3662.9229 
14156000    229.56466   -4004.6307   -3611.1647   -4004.6307            0    -208.6572    18.219638    21.460327    22.227916    8691.1021   -225.00428    280.90055   -681.86786   -402.23359    186.43156     214.1169   -3637.6122 
14157000    236.20636   -3979.5384   -3574.6888   -3979.5384            0   -91.731941    18.208726    21.447475    22.214604    8675.4957    594.33226   -978.13547    108.60739    666.85502   -32.548376    876.37363    -3586.295 
14158000    248.55094   -3987.7454   -3561.7376   -3987.7454            0    694.02009    18.210621    21.449706    22.216915    8678.2043    102.36196   -186.50456    2166.2029   -8.5693613   -464.22155   -226.31546   -3473.9006 
14159000     248.0256   -3991.3531   -3566.2458   -3991.3531            0    1186.5829    18.125473    21.349413    22.113035    8557.0413   -100.88103    1542.6045    2118.0254    1084.0338   -567.60461    797.14151   -3418.1653 
14160000    245.66834   -3949.8705   -3528.8033   -3949.8705            0    689.32357    18.266256    21.515237     22.28479    8757.9858    472.10935    1632.8449   -36.983591   -21.364684   -279.29121   -192.53993   -3440.7586 
14161000    231.70185    -3992.178    -3595.049    -3992.178            0   -464.23791    18.323833    21.583055    22.355033    8841.0646    617.92161   -951.10158   -1059.5338    -212.8988   -632.93449   -235.63071   -3654.9068 
14162000    240.28445    -3988.296   -3576.4567    -3988.296            0   -748.73072    18.354587    21.619279    22.392554    8885.6552    564.91625   -1711.6603   -1099.4481    117.14879    668.34487   -350.13717   -3673.4833 
14163000    243.29721   -3963.6763   -3546.6732   -3963.6763            0    617.46198    18.267869    21.517137    22.286758    8760.3062    1247.2707    1678.2874   -1073.1722    222.87087    185.24247   -1133.1848   -3467.7862 
14164000     239.3944   -3975.1841   -3564.8703   -3975.1841            0    1165.1384    18.232815    21.475848    22.243992    8709.9722    1016.7173    1412.3817    1066.3161    1201.5189     784.6525    171.43443   -3416.8674 
14165000     241.8329   -3980.3005   -3565.8072   -3980.3005            0     475.7618    18.255758    21.502872    22.271982    8742.8942   -73.166631    429.50357    1070.9485    520.67117   -1466.2057    535.48964   -3505.1447 
14166000    244.79185   -3990.5349   -3570.9701   -3990.5349            0    1822.7089    18.252689    21.499257    22.268238    8738.4854    1433.2431    2656.4119    1378.4717   -277.36368   -623.19839    740.86524   -3338.6807 
14167000    236.56641   -4009.0207   -3603.5539   -4009.0207            0    74.848403    18.311836    21.568924    22.340397    8823.7102   -312.89867    757.50997   -220.06609   -957.77028   -173.16829   -372.17251   -3593.9221 
14168000    258.82658   -3978.1115   -3534.4916   -3978.1115            0   -125.97845    18.272846    21.522999     22.29283    8767.4678   -1558.5759   -12.744029    1193.3846    227.80162    104.31897   -176.33575   -3550.5998 
14169000    246.83827   -3970.9105   -3547.8382   -3970.9105            0    423.59121    18.243009    21.487855    22.256428    8724.5894   -1178.6117    383.25547    2066.1298   -109.63522   -164.57073   -833.17034   -3493.9408 
14170000    251.01667   -4002.1723   -3571.9383   -4002.1723            0    1728.0743    18.279614    21.530971    22.301086    8777.2133    2680.5424    2460.1194    43.561301    365.90814   -497.13844    197.69401   -3350.7333 
14171000    234.10592   -3984.5216   -3583.2721   -3984.5216            0    1152.0261    18.266311    21.515302    22.284857    8758.0646    363.98168    948.94873    2143.1479    21.800911    729.80425    1078.0331   -3436.1268 
14172000    242.53817   -4010.8621   -3595.1599   -4010.8621            0    -347.8598    18.335939    21.597314    22.369803     8858.599   -1767.3169    719.11413    4.6233285   -654.90478    -467.7973     162.1232   -3640.1012 
14173000    233.71667   -4004.4932   -3603.9108   -4004.4932            0    981.22348     18.27491     21.52543    22.295347    8770.4384    580.27448     689.4142    1673.9818    1419.1411    1426.2634    453.28392   -3478.4046 
14174000     231.8297   -3995.5715   -3598.2234   -3995.5715            0   -11.456294    18.345027    21.608019     22.38089    8871.7781   -790.21183    606.38439    149.45855    470.72525    743.98274   -8.2856055   -3599.7056 
14175000    253.89172   -4004.0492   -3568.8875   -4004.0492            0    1521.3761    18.222996    21.464282    22.232012    8695.9076    255.30445     3858.689    450.13491    29.664261   -501.32757   -395.20624   -3375.9452 
14176000    229.95535   -3991.5417   -3597.4061   -3991.5417            0     1690.228    18.225758    21.467536    22.235383    8699.8631   -313.83383     3871.959    1512.5587   -1023.3564   -1031.2249   -434.76777   -3382.9524 
14177000    253.34405   -3986.9442   -3552.7212   -3986.9442            0   -312.00298    18.231764     21.47461     22.24271    8708.4663   -1375.5805    201.83357    237.73802     653.8425     462.4045   -26.293269   -3592.3468 
14178000    244.59369   -3978.1778   -3558.9526   -3978.1778            0   -420.14336    18.292709    21.546395    22.317062    8796.0902   -428.46254   -553.59952   -278.36801    153.62829     -890.345   -819.37467   -3612.8494 
14179000    247.84439   -3991.4241   -3566.6273   -3991.4241            0    1050.6544     18.21475    21.454569    22.221952     8684.108   -685.63103    2464.4207    1373.1734   -309.27357    225.96528   -124.76841   -3433.5631 
14180000    231.83042   -3979.5074    -3582.158   -3979.5074            0    515.29836    18.267556    21.516768    22.286376    8759.8559    495.98712    568.57589    481.33209    474.36808   -75.697015   -1376.9875   -3516.3268 
14181000    239.08712   -3973.3895   -3563.6024   -3973.3895            0    984.20822    18.201602    21.439083    22.205912    8665.3167    1334.9922    1166.5241    451.10842   -762.72119   -19.373421    48.651524   -3439.2233 
14182000    257.28886    -3981.739   -3540.7547    -3981.739            0    2094.2314    18.164355    21.395211     22.16047     8612.228    1988.9719    1780.7607    2512.9617   -628.15595    1275.3308    744.97073   -3277.7181 
14183000     244.0569   -4014.3546   -3596.0495   -4014.3546            0    1008.2716    18.196779    21.433402    22.200028    8658.4297    142.96235     1010.509    1871.3434   -277.40259    1349.9954    527.04809   -3468.7307 
14184000    237.99369   -4013.7788   -3605.8658   -4013.7788            0    701.06655    18.222707    21.463942     22.23166     8695.494    257.14532    27.141089    1818.9132   -955.56548   -642.85041    720.61674   -3516.9601 
14185000    241.73605    -3960.951   -3546.6236    -3960.951            0    2394.4544    18.264793    21.513514    22.283005    8755.8811    3359.2102    1967.3652    1856.7879   -1189.6045   -223.13532   -165.53354   -3240.8625 
14186000    248.28804   -3972.4854   -3546.9282   -3972.4854            0     539.6712    18.261202    21.509284    22.278624    8750.7183    263.14539   -712.92083     2068.789   -1388.0013    519.94677    180.53487   -3478.0552 
14187000    237.20979   -3996.6307   -3590.0612   -3996.6307            0    596.25563    18.204443     21.44243    22.209378    8669.3751    1017.8347   -243.89672    1014.8289    446.00245   -485.69513   -393.48615   -3514.6743 
14188000    257.28091   -3978.5869   -3537.6162   -3978.5869            0   -203.30225    18.191124    21.426742    22.193129    8650.3609   -914.25106   -710.37025    1014.7146   -772.50539   -412.79952    981.17581   -3563.2641 
14189000    239.38359   -3988.4159   -3578.1207   -3988.4159            0    779.37475    18.183541    21.417809    22.183878    8639.5469    260.89121    2038.5641    38.668926   -1303.6141   -867.65354    423.80224   -3479.9203 
14190000    259.75664   -3950.3605   -3505.1465   -3950.3605            0   -85.399925    18.176204    21.409167    22.174926    8629.0927   -1556.7586    1077.6939    222.86491    558.09749   -223.66746    -97.90431   -3515.8938 
14191000    249.86421   -3965.1457    -3536.887   -3965.1457            0    870.29582    18.169858    21.401693    22.167184    8620.0579    1716.2893   -218.66634    1113.2645   -945.23766   -848.39748    72.163573    -3427.478 
14192000    242.64094   -3958.1287   -3542.2505   -3958.1287            0    691.30303    18.194433    21.430639    22.197166    8655.0817    1006.1799    1077.4914    -9.762183   -183.58871    1150.0085   -120.21066   -3454.9904 
14193000    244.34062    -3945.758   -3526.9665    -3945.758            0   -154.65768    18.172999    21.405392    22.171016    8624.5293   -1083.9329    11.201781    608.75803   -1340.9637    168.49334     86.85517   -3546.4193 
14194000    258.06763   -3949.2602   -3506.9411   -3949.2602            0    711.12284    18.187079    21.421977    22.188194    8644.5912    2517.5101   -343.84214   -40.299437   -639.69328   -40.488319   -297.37725    -3417.288 
14195000    244.44957   -3951.1437   -3532.1655   -3951.1437            0   -236.69289    18.147976    21.375919    22.140489    8588.9527    345.99796   -1373.0831    317.00652   -546.89637    1048.1228    218.07985   -3561.8139 
14196000    239.02536   -3946.1936   -3536.5123   -3946.1936            0    1433.8604    18.112396     21.33401    22.097081    8538.5343     797.0157    3293.6201    210.94543    689.09995   -598.60068    219.65927   -3357.9598 
14197000    250.70149    -3978.795   -3549.1012    -3978.795            0   -97.140335    18.180609    21.414356    22.180301    8635.3685   -19.235404    386.13081   -658.31641   -1267.4354   -1.3675124   -794.57879   -3561.3349 
14198000     241.0114   -3960.4529   -3547.3676   -3960.4529            0    530.95085    18.248806    21.494683      22.2635    8732.9091   -445.53484    1648.1056    390.28179   -1138.1866    651.83068    1302.7385   -3479.7455 
14199000    248.22286   -3956.4062   -3530.9607   -3956.4062            0    1162.8317    18.170917     21.40294    22.168476    8621.5655    179.74834    2618.2205    690.52617   -289.30621    511.34001   -933.72373   -3384.7501 
14200000    243.40936   -3973.9726   -3556.7773   -3973.9726            0   -238.07097    18.247659    21.493332    22.262101    8731.2624   -105.13839    1211.4126   -1820.4871   -1991.8559   -368.11557    8.1096865   -3587.0924 
14201000    245.95821   -3982.5454   -3560.9815   -3982.5454            0    127.09473    18.193694    21.429769    22.196265    8654.0277    883.80509   -395.55619   -106.96472    36.259477    92.805919    92.153915   -3544.9408 
14202000     252.1387   -3976.9472   -3544.7901   -3976.9472            0    1029.8636    18.109519    21.330621     22.09357    8534.4652    292.99898    1726.6919       1069.9   -614.37212    471.58943    868.60811   -3416.6067 
14203000    235.63686   -3996.1077   -3592.2342   -3996.1077            0   -218.10307    18.114446    21.336425    22.099582    8541.4332    -820.6242    1111.8292    -945.5142   -442.74644    -357.6497   -333.90723   -3619.4029 
14204000    249.11073   -4012.6307   -3585.6634   -4012.6307            0    1238.7959    18.160081    21.390176    22.155256    8606.1498   -55.761226    3165.5045    606.64446    375.66015   -693.72859     1401.168   -3430.1798 
14205000     226.8925   -3990.9315   -3602.0455   -3990.9315            0   -261.25252    18.176318    21.409301    22.175065    8629.2547    -1488.626    303.13908    401.72934   -464.79157   -1107.6668   -350.81762   -3634.9238 
14206000    232.89307   -3990.5235   -3591.3527   -3990.5235            0    971.58799    18.142514    21.369485    22.133824     8581.199    999.74242     556.8354    1358.1862   -522.86802   -775.98107   -1232.4385   -3469.7604 
14207000    237.07327   -3957.5697   -3551.2342   -3957.5697            0    1125.0922    18.192515    21.428379    22.194825    8652.3441    1893.4569    1084.1469    397.67276    12.975959   -95.733137    214.22495   -3409.2638 
14208000    243.18864     -3962.01    -3545.193     -3962.01            0   -779.18718    18.213881    21.453546    22.220892    8682.8652   -747.63005   -321.92793   -1268.0036    48.265419    530.99187    140.54927    -3643.862 
14209000    253.86869   -4013.3544   -3578.2322   -4013.3544            0    910.26516    18.135595    21.361335    22.125384    8571.3853    1442.5339    1009.5214    278.74011   -292.74351   -1454.5582    367.94825   -3464.4446 
14210000    250.64345   -3964.6599   -3535.0656   -3964.6599            0   -473.10504     18.23076    21.473427    22.241484    8707.0267    -405.9188    526.76664    -1540.163   -598.56278    2193.8541    -279.7162   -3595.1419 
14211000    240.20608   -3986.5737   -3574.8687   -3986.5737            0   -180.04596    18.118946    21.341725    22.105072    8547.8009   -64.663972    272.71232   -748.18623    18.152195    1143.5684   -173.47441   -3597.3134 
14212000    248.79959   -3990.5528   -3564.1188   -3990.5528            0   -1406.0258    18.163663    21.394396    22.159626    8611.2438    -119.5997   -2180.6253   -1917.8525   -393.77935   -944.78998   -1531.2077   -3740.6962 
14213000    249.70088   -3955.1911   -3527.2123   -3955.1911            0   -18.167748    18.261157     21.50923    22.278568    8750.6522    -738.6857    654.23678    29.945677   -117.91455    476.98911    235.85001   -3529.5309 
14214000    232.03693   -3951.5875   -3553.8842   -3951.5875            0    939.19945    18.155421    21.384688    22.149571    8599.5272    263.55106    1825.9889    728.05839   -744.08707    288.79669   -980.69902   -3436.0942 
14215000    229.44503   -3995.2816   -3602.0207   -3995.2816            0    743.99856    18.166554    21.397801    22.163154     8615.357    729.39256    522.97171    979.63141    228.81873   -484.89921    5.4567515   -3508.5401 
14216000    247.34171   -3991.4472    -3567.512   -3991.4472            0    1783.4147    18.080273    21.296174    22.057891    8493.1845    1730.1091    777.75074    2842.3841    1187.0359   -186.50794   -713.93663   -3346.6104 
14217000    231.28676   -3974.4213   -3578.0037   -3974.4213            0   -538.37149    18.170856    21.402868    22.168402    8621.4787   -508.17761    -1181.484    74.547113   -772.49047   -1000.2607    1264.0255   -3645.6961 
14218000    250.44727   -3971.1909   -3541.9328   -3971.1909            0    1186.9171    18.200597    21.437899    22.204686    8663.8814    945.36334    522.83239    2092.5556   -1200.0092    302.15332   -813.89392   -3391.9613 
14219000    240.01878   -3944.8204   -3533.4364   -3944.8204            0    423.06378    18.192796    21.428711    22.195169    8652.7457    1040.8247    18.544178     209.8224   -64.584231   -1460.8002   -490.76419   -3480.0494 
14220000    234.71079   -3977.9375   -3575.6513   -3977.9375            0   -85.243095    18.244782    21.489944    22.258592    8727.1342    459.22453    1532.3444   -2247.2982     378.6968   -359.65223    137.10079   -3586.5007 
14221000    236.15528   -3953.6401    -3548.878   -3953.6401            0    1035.3261    18.197483    21.434232    22.200887    8659.4354    1427.1881      741.002     937.7881    -1559.169    274.70448   -1186.0022   -3418.1278 
14222000    237.43711   -3966.5162   -3559.5571   -3966.5162            0    663.72598     18.15589     21.38524    22.150143    8600.1934   -17.006961     796.5235    1211.6614    52.907436   -304.51398   -747.25165   -3476.3093 
14223000    234.19953   -3968.2965   -3566.8865   -3968.2965            0   -506.11413    18.163155    21.393798    22.159007    8610.5222   -690.50584    342.74286   -1170.5794    302.84417    291.34243   -710.51257   -3630.4421 
14224000    237.63254   -3956.4226   -3549.1285   -3956.4226            0   -869.93764    18.230799    21.473473    22.241532    8707.0833   -1229.3927   -1161.6524   -218.76779   -427.92142   -765.89469     267.9797   -3659.5966 
14225000    229.66142   -3959.8342   -3566.2024   -3959.8342            0    847.19401     18.08143    21.297536    22.059303     8494.815    1669.1935    1113.4276   -241.03912    966.69631   -330.93036   -787.79691   -3461.2451 
14226000    245.32359   -3961.3911   -3540.9149   -3961.3911            0   -588.63262    18.195828    21.432282    22.198868    8657.0724    265.23353   -1102.5652   -928.56624    400.83005   -756.31521    -496.7956   -3615.2324 
14227000    245.86386   -3907.9204   -3486.5182   -3907.9204            0     1333.165    18.112501    21.334134    22.097209     8538.683    787.36566    1155.4783    2056.6511    759.74386    357.55421    547.01258   -3320.5019 
14228000    258.09021   -3964.7119   -3522.3541   -3964.7119            0   -638.70618    18.161186    21.391478    22.156604     8607.721   -754.93103   -1831.8709    670.68342    965.49141   -122.00004   -606.55856   -3602.5339 
14229000    251.26167   -3957.4809    -3526.827   -3957.4809            0    787.72717    18.207279    21.445769    22.212838    8673.4268    683.57908    776.83915    902.76329   -306.14444    88.021069   -1500.1793    -3427.185 
14230000    253.84305   -3946.1614   -3511.0831   -3946.1614            0    1115.3829    18.210142    21.449142    22.216331    8677.5194    537.56751    1738.5037    1070.0777    857.58547   -667.17624   -720.21762   -3369.9284 
14231000    236.18867   -3934.5736   -3529.7543   -3934.5736            0    1426.9207    18.281402    21.533077    22.303268     8779.789    1641.4379    948.54292    1690.7814    -285.7512    109.44246    -1068.389   -3347.0453 
14232000    242.50344   -3978.0698   -3562.4272   -3978.0698            0   -554.79504    18.231107    21.473836    22.241908    8707.5251   -1801.5189    824.86491   -687.73114    302.93018    445.72945   -939.80613   -3632.8808 
14233000    243.82433   -4007.6433   -3589.7368   -4007.6433            0    998.32794     18.21264    21.452085    22.219379    8681.0912   -1069.2581    2536.8533    1527.3887    -396.2246   -1047.0281    91.813661   -3463.3436 
14234000    244.81538    -3976.787   -3557.1818    -3976.787            0    328.21197    18.223395    21.464752      22.2325    8696.4794    443.15036    544.13493   -2.6493911    495.80995    544.93036   -212.68439    -3515.555 
14235000    226.61644   -3978.8761   -3590.4633   -3978.8761            0    1198.0288    18.227959    21.470128    22.238068    8703.0153    1842.0236   -262.77698    2014.8399    165.93948   -403.83536   -710.29213    -3438.404 
14236000     235.3844   -3986.3742   -3582.9334   -3986.3742            0     205.1926     18.20655    21.444911    22.211948    8672.3849     430.0508    104.68446    80.842545   -829.09523    829.35245   -470.32787   -3556.9811 
14237000    246.38155   -4003.0593   -3580.7698   -4003.0593            0   -318.09554    18.293487    21.547311    22.318011    8797.2119   -983.76951   -549.98337    579.46627     928.6262   -512.10303    -726.6493   -3621.5809 
14238000    257.07123   -4003.7379   -3563.1266   -4003.7379            0    447.90229    18.211889      21.4512    22.218462    8680.0171    1000.4253    1449.5045    -1106.223    685.91809   -262.38736   -57.446207    -3506.427 
14239000    236.66803   -3989.4931   -3583.8522   -3989.4931            0   -394.96485     18.25675     21.50404    22.273193    8744.3196   -445.66491    83.284807   -822.51446    -106.5566     110.0354   -677.96348   -3634.2209 
14240000    240.93692   -3982.0522   -3569.0946   -3982.0522            0   -200.33352    18.236308    21.479962    22.248253    8714.9793   -304.39317    154.77016   -451.37755   -900.44266    231.57303    -673.0984   -3594.5568 
14241000    235.00533   -4003.5653   -3600.7742   -4003.5653            0   -491.94552    18.255306    21.502339    22.271431    8742.2442   -1347.0241   -1333.9601    1205.1477   -1198.3928    965.21963   -675.18832   -3663.4956 
14242000    241.85204   -3985.7976   -3571.2714   -3985.7976            0    901.03298    18.209006    21.447804    22.214945    8675.8951    549.23438    1528.3633    625.50127    -142.1742   -747.98277   -801.95313   -3457.2646 
14243000    257.95605   -3961.0682   -3518.9404   -3961.0682            0   -44.437099    18.200235    21.437473    22.204244    8663.3641   -1108.4542    1187.6144   -212.47147    547.40581    797.66994   -848.71984   -3524.5549 
14244000    246.77977   -3976.7347   -3553.7626   -3976.7347            0    758.17539    18.090055    21.307695    22.069825    8506.9765   -228.59893    2034.6279    468.49719   -63.711469    -1379.208    318.55252   -3459.6992 
14245000    246.01091   -3939.3718   -3517.7175   -3939.3718            0    1825.0412     18.17588    21.408786    22.174532    8628.6321    850.71717    2208.1319    2416.2744    499.84594    436.45457   -550.79891   -3288.0548 
14246000     236.5674   -3969.2507   -3563.7822   -3969.2507            0   -31.199096     18.23254    21.475524    22.243657    8709.5787    372.40214     372.6071   -838.60653    148.02592   -408.66086    -304.9786   -3567.7451 
14247000    230.80204   -3960.2957   -3564.7089   -3960.2957            0    499.23438    18.230636    21.473281    22.241333    8706.8492    439.11967     833.2789    225.30459    164.56071   -568.25337   -497.38376   -3501.3158 
14248000    251.77528    -3945.297   -3513.7628    -3945.297            0     670.4253    18.196939     21.43359    22.200223    8658.6582   -47.974142    1476.3292    582.92089   -66.798124   -411.42482   -431.09446   -3429.1031 
14249000    231.64014   -3961.9901   -3564.9669   -3961.9901            0   -306.71262    18.233048    21.476122    22.244276    8710.3058    95.536286    -684.8826   -330.79154    668.09721   -350.42185    619.08012   -3603.9288 
14250000    242.02506   -3920.6554   -3505.8328   -3920.6554            0    1604.0996    18.202111    21.439683    22.206533    8666.0436    1664.2366    1928.2526    1219.8097    14.573017    406.14596   -1593.7452   -3303.0981 
Loop time of 431.479 on 64 procs for 250000 steps with 864 atoms

Performance: 100.121 ns/day, 0.240 hours/ns, 579.402 timesteps/s
99.1% CPU use with 64 MPI tasks x 1 OpenMP threads

MPI task timing breakdown:
Section |  min time  |  avg time  |  max time  |%varavg| %total
---------------------------------------------------------------
Pair    | 17.513     | 21.691     | 24.76      |  34.4 |  5.03
Bond    | 0.26971    | 0.27719    | 0.29061    |   0.8 |  0.06
Kspace  | 205.02     | 211.45     | 219.56     |  25.4 | 49.01
Neigh   | 3.3925     | 3.8621     | 4.4512     |  14.7 |  0.90
Comm    | 81.623     | 89.776     | 96.927     |  37.9 | 20.81
Output  | 1.4564     | 1.4598     | 1.4832     |   0.4 |  0.34
Modify  | 89.98      | 93.837     | 99.649     |  17.7 | 21.75
Other   |            | 9.128      |            |       |  2.12

Nlocal:        13.5000 ave          21 max           6 min
Histogram: 1 0 8 7 18 7 13 4 5 1
Nghost:        1896.06 ave        1948 max        1860 min
Histogram: 6 5 13 10 8 9 5 5 1 2
Neighs:        3559.00 ave        5459 max        1646 min
Histogram: 1 1 10 9 14 11 6 5 6 1

Total # of neighbors = 227776
Ave neighs/atom = 263.62963
Ave special neighs/atom = 2.0000000
Neighbor list builds = 10757
Dangerous builds = 0

unfix		3
unfix		2
unfix		1

write_data	data.final.${pid}
write_data	data.final.0
System init for write_data ...
PPPM initialization ...
  extracting TIP4P info from pair style
  using 12-bit tables for long-range coulomb (../kspace.cpp:340)
  G vector (1/distance) = 0.37147346
  grid = 24 25 25
  stencil order = 5
  estimated absolute RMS force accuracy = 0.0033089031
  estimated relative force accuracy = 9.9646635e-06
  using double precision FFTW3
  3d grid and FFT values/proc = 2940 384
Last active /omp style is kspace_style pppm/tip4p/omp
WARNING: Not all mixed pair coeffs generated from mixing. Use write_data with 'pair ij' option to store all pair coeffs. (../write_data.cpp:312)

write_restart   restart.lmp.${pid}
write_restart   restart.lmp.0
System init for write_restart ...
PPPM initialization ...
  extracting TIP4P info from pair style
  using 12-bit tables for long-range coulomb (../kspace.cpp:340)
  G vector (1/distance) = 0.37147346
  grid = 24 25 25
  stencil order = 5
  estimated absolute RMS force accuracy = 0.0033089031
  estimated relative force accuracy = 9.9646635e-06
  using double precision FFTW3
  3d grid and FFT values/proc = 2940 384
Last active /omp style is kspace_style pppm/tip4p/omp
Total wall time: 0:07:14
