#include		in.partitions
include		in.temp
variable        temperature equal 264.01
variable	tempDamp equal 100.0
include		in.pressure
variable        pressure equal 5875.0
variable        pressureDamp equal 1000.0 # This is 1 ps
include		in.seed
variable        seed equal 745823

units		real
atom_style	full
read_restart	restart.lmp.${pid}
read_restart	restart.lmp.1
Reading restart file ...
  restart file = 30 Jul 2021, LAMMPS = 30 Jul 2021
  restoring atom style full from restart
  orthogonal box = (0.47882010 1.6555181 0.58415941) to (17.728752 21.973660 21.629036)
  2 by 4 by 4 MPI processor grid
  restoring pair style lj/cut/tip4p/long/omp from restart
  restoring bond style harmonic/omp from restart
  restoring angle style harmonic/omp from restart
  864 atoms
  576 bonds
  288 angles
Finding 1-2 1-3 1-4 neighbors ...
  special bond factors lj:    0        0        0       
  special bond factors coul:  0        0        0       
     2 = max # of 1-2 neighbors
     1 = max # of 1-3 neighbors
     1 = max # of 1-4 neighbors
     2 = max # of special neighbors
  special bonds CPU = 0.002 seconds
  read_restart CPU = 0.008 seconds
include 	in.setup
variable	out_freq equal 1000
variable	out_freq2 equal 10000
variable	out_freq3 equal 1000

timestep	2.0

neigh_modify    delay 7 every 1

include		in.tip4p
# This is TIP4P/Ice

# create groups ###
group ox type 2
288 atoms in group ox
group hy type 1
576 atoms in group hy

# set charges - beside manually ###
set group ox charge -1.1794
Setting atom values ...
  288 settings made for charge
set group hy charge 0.5897
Setting atom values ...
  576 settings made for charge

# ### TIP3P Potential Parameters ###
pair_style lj/cut/tip4p/long/omp 2 1 1 1 0.1577 8.5
pair_coeff 1 1*2 0.000 0.000
pair_coeff 2 2 0.21084 3.1668
bond_style  harmonic
bond_coeff  1 450 0.9572
angle_style harmonic
angle_coeff 1 55 104.52
kspace_style pppm/tip4p/omp 1.0e-5
pair_modify tail yes

thermo          ${out_freq}
thermo          1000
thermo_style    custom step temp pe etotal epair emol press lx ly lz vol pxx pyy pzz pxy pxz pyz enthalpy

restart 	${out_freq3} restart.lmp.${pid} restart2.lmp.${pid}
restart 	1000 restart.lmp.${pid} restart2.lmp.${pid}
restart 	1000 restart.lmp.1 restart2.lmp.${pid}
restart 	1000 restart.lmp.1 restart2.lmp.1


include         in.dump
dump            myDump all atom ${out_freq2} dump.water.${pid}
dump            myDump all atom 10000 dump.water.${pid}
dump            myDump all atom 10000 dump.water.1
dump            myDump2 all dcd ${out_freq2} dump.dcd
dump            myDump2 all dcd 10000 dump.dcd
dump_modify     myDump append yes
dump_modify     myDump2 append yes


variable natoms 	equal  "count(all)"                        # NUMBER ATOMS
variable H      	equal  "enthalpy/v_natoms"                 # ENTHALPY-per-atom
variable Vol      	equal  "vol/v_natoms"                 # volume-per-atom
fix AVG all 		ave/time ${out_freq} 1 ${out_freq} v_Vol v_H file vol_enthalpy.dat
fix AVG all 		ave/time 1000 1 ${out_freq} v_Vol v_H file vol_enthalpy.dat
fix AVG all 		ave/time 1000 1 1000 v_Vol v_H file vol_enthalpy.dat


timer           timeout 23:50:00 every 1000
New timer settings: style=normal  mode=nosync  timeout=23:50:00

fix 		1 all shake 1e-6 200 0 b 1 a 1
       0 = # of size 2 clusters
       0 = # of size 3 clusters
       0 = # of size 4 clusters
     288 = # of frozen angles
  find clusters CPU = 0.001 seconds
fix             2 all nph iso ${pressure} ${pressure} ${pressureDamp}
fix             2 all nph iso 5875 ${pressure} ${pressureDamp}
fix             2 all nph iso 5875 5875 ${pressureDamp}
fix             2 all nph iso 5875 5875 1000
fix             3 all temp/csvr ${temperature} ${temperature} ${tempDamp} ${seed}
fix             3 all temp/csvr 264.01 ${temperature} ${tempDamp} ${seed}
fix             3 all temp/csvr 264.01 264.01 ${tempDamp} ${seed}
fix             3 all temp/csvr 264.01 264.01 100 ${seed}
fix             3 all temp/csvr 264.01 264.01 100 745823

run             250000
PPPM initialization ...
  extracting TIP4P info from pair style
  using 12-bit tables for long-range coulomb (../kspace.cpp:340)
  G vector (1/distance) = 0.37449789
  grid = 24 24 25
  stencil order = 5
  estimated absolute RMS force accuracy = 0.0030457814
  estimated relative force accuracy = 9.1722801e-06
  using double precision FFTW3
  3d grid and FFT values/proc = 3822 576
Last active /omp style is kspace_style pppm/tip4p/omp
Neighbor list info ...
  update every 1 steps, delay 7 steps, check yes
  max neighbors/atom: 2000, page size: 100000
  master list distance cutoff = 10.8154
  ghost atom cutoff = 10.8154
  binsize = 5.4077, bins = 4 4 4
  1 neighbor lists, perpetual/occasional/extra = 1 0 0
  (1) pair lj/cut/tip4p/long/omp, perpetual
      attributes: half, newton on, omp
      pair build: half/bin/newton/omp
      stencil: half/bin/3d
      bin: standard
Per MPI rank memory allocation (min/avg/max) = 10.20 | 10.21 | 10.22 Mbytes
Step Temp PotEng TotEng E_pair E_mol Press Lx Ly Lz Volume Pxx Pyy Pzz Pxy Pxz Pyz Enthalpy 
15500000    275.14425   -3844.1428    -3372.555   -3844.1428            0     5017.554    17.249932    20.318142    21.044877    7375.9466    3966.0556    5598.1468    5488.4596    1099.8517   -731.53066   -382.26072   -2832.8136 
15501000    263.59162   -3853.6465   -3401.8595   -3853.6465            0    4504.0212     17.18959    20.247066    20.971259    7298.8109    3732.1649    4568.3574    5211.5414    974.12304    1153.8574   -534.72483   -2922.4259 
15502000    262.59999   -3834.2082   -3384.1208   -3834.2082            0    5977.2223    17.180656    20.236543     20.96036    7287.4369    4147.8796    7590.0015     6193.786    922.11104   -425.05975    -529.4213   -2748.8628 
15503000    266.86756   -3840.9476   -3383.5457   -3840.9476            0    3957.7702    17.310199    20.389127    21.118402    7453.5255    2796.4192    2828.6399    6248.2514   -252.07822    858.46312    1013.3345   -2953.3281 
15504000    250.72938   -3864.5565   -3434.8149   -3864.5565            0    6572.0118     17.22483    20.288574    21.014252    7343.7924    5475.1124    6724.9702    7515.9527    -1121.116   -583.88323    1931.5614   -2730.9414 
15505000    259.09649   -3824.9538   -3380.8713   -3824.9538            0    6147.5924    17.228384    20.292761    21.018588    7348.3398    6155.5998    6215.5784    6071.5991   -143.96089   -2216.2843    2270.0762   -2722.0461 
15506000    269.05033   -3850.8279   -3389.6849   -3850.8279            0    5886.4462     17.31036    20.389318    21.118599     7453.734    7774.3124    3919.2269    5965.7993   -161.42963    861.08082     1204.561   -2749.7984 
15507000    258.99663   -3833.9599   -3390.0485   -3833.9599            0    5011.9107    17.263696    20.334354    21.061669    7393.6169    5834.1016    5299.2556    3902.3749   -152.35693   -1050.0819    531.79122   -2849.6226 
15508000    269.45548   -3858.4106   -3396.5731   -3858.4106            0    5322.1021    17.224684    20.288402    21.014074    7343.6059    5513.4113    5975.9227    4476.9725   -1009.8876   -765.71027     48.97207   -2826.5815 
15509000    281.84343   -3865.7447   -3382.6748   -3865.7447            0    6758.3758    17.166821    20.220248    20.943482    7269.8464     7100.699    6994.6015     6179.827   -587.25771    73.731487    1798.8432   -2666.1298 
15510000    281.33651   -3888.4898   -3406.2886   -3888.4898            0    6392.8536    17.160965    20.213351    20.936338    7262.4096     6961.467    6763.5193    5453.5745    194.04968   -777.31986    835.65862   -2729.1908 
15511000    275.58325   -3868.9692   -3396.6289   -3868.9692            0    6283.2383    17.164683    20.217729    20.940873    7267.1301    6484.4519    5209.8357    7155.4273    347.82314   -992.74079    709.73954   -2730.7085 
15512000    275.39163   -3803.0672   -3331.0554   -3803.0672            0    7355.7855     17.18097    20.236913    20.960743    7287.8366    5519.2516    6278.5357    10269.569   -1033.1516   -1098.0586    149.32387   -2549.2412 
15513000    265.57971   -3818.8565    -3363.662   -3818.8565            0    4992.9124    17.222131    20.285395     21.01096    7340.3413    6434.0654    4885.7006    3658.9713   -81.628646   -685.76454    1730.2375    -2829.164 
15514000    253.69381    -3854.544   -3419.7215    -3854.544            0    4735.3318    17.309848    20.388715    21.117975    7453.0731    5625.6154    5119.9395    3460.4407    1079.7652    17.280007   -244.97968   -2905.0126 
15515000    262.90092   -3839.1374   -3388.5342   -3839.1374            0    6368.6676    17.232965    20.298156    21.024177    7354.2027    6387.3936    6050.0575    6668.5516     905.9899   -426.84009    98.526503   -2705.4723 
15516000    272.15675   -3838.2491   -3371.7817   -3838.2491            0    7748.6227    17.149214    20.199509    20.922002     7247.501    8003.5462    7789.6383    7452.6836   -292.54006   -1684.3427    1840.9695   -2552.7727 
15517000    277.52809   -3856.9961   -3381.3224   -3856.9961            0    6946.8956    17.137697    20.185943     20.90795    7232.9085    6678.8916    7418.2409    6743.5543   -177.65832    346.21235    23.328557   -2648.5323 
15518000    260.98408   -3880.3021   -3432.9843   -3880.3021            0    6590.4354    17.266556    20.337722    21.065158    7397.2919    6826.4785    6017.0178      6927.81   -1664.9659   -816.12382   -1442.3712   -2721.9955 
15519000    262.46753   -3868.1651   -3418.3048   -3868.1651            0    7602.2239      17.2477    20.315513    21.042154    7373.0841    6740.0508    8655.9391    7410.6818   -1259.8967    1012.2082   -514.51613   -2600.8462 
15520000    256.07707   -3872.0819   -3433.1746   -3872.0819            0    6038.6165    17.205797    20.266156    20.991032    7319.4757    5663.9342    6988.6815    5463.2338     -1958.87    737.11305   -248.78526   -2788.5701 
15521000    266.59074   -3900.5606   -3443.6332   -3900.5606            0    7130.7605    17.188418    20.245686    20.969829    7297.3181    6382.9794    7870.8035    7138.4985    2405.5505   -1512.5884   -1231.2236   -2684.7499 
15522000     279.7176   -3853.6345   -3374.2081   -3853.6345            0    4989.3662    17.206209    20.266641    20.991535    7320.0013    4883.4449     5217.097    4867.5566    -333.2592   -597.02683    60.095922   -2841.5698 
15523000     257.4528   -3872.9338   -3431.6685   -3872.9338            0    7279.7879    17.167515    20.221065    20.944329    7270.7283     7695.483    7893.7432    6250.1375    2006.0794    1262.8118    318.52821   -2659.7481 
15524000    271.50581   -3780.7912   -3315.4395   -3780.7912            0    6726.1553    17.156951    20.208622     20.93144    7257.3136    6689.4343    5713.6373    7775.3942   -185.73236   -1008.9986    422.93433   -2603.5401 
15525000    261.83849   -3828.0685   -3379.2862   -3828.0685            0    6031.0353    17.107166    20.149982    20.870702    7194.3206    6311.9027    4828.3244    6952.8787   -872.24932   -361.48116   -715.53678   -2746.4992 
15526000    271.23224    -3813.989   -3349.1062    -3813.989            0    7274.5003    17.117458    20.162105    20.883259    7207.3135    6351.8424    8319.6091    7152.0494   -187.41249    304.75405    1265.2464   -2584.4742 
15527000    280.92847   -3860.1156   -3378.6139   -3860.1156            0    4999.9947    17.188099     20.24531     20.96944    7296.9121    6115.1788    3516.5798    5368.2255   -535.96679    -1739.647   -886.56132   -2846.5245 
15528000    251.84453   -3831.9151   -3400.2622   -3831.9151            0      5408.66    17.208414    20.269238    20.994224    7322.8155    6301.8317     5545.138    4379.0104     1948.784    445.94978    578.77386   -2822.6403 
15529000    253.16043   -3862.8346   -3428.9263   -3862.8346            0     4608.259    17.223345    20.286825    21.012441    7341.8935    3385.1158    5855.7082    4583.9529    -538.4647   0.25584397   -30.969033   -2935.5016 
15530000    262.34565   -3791.1114   -3341.4599   -3791.1114            0    5212.5102    17.226688    20.290763    21.016519      7346.17    3584.6325    4836.9812    7215.9167   -852.92529   -276.42205    -487.1849   -2783.0106 
15531000    266.49971   -3798.7987   -3342.0273   -3798.7987            0    5473.9908    17.289096    20.364272    21.092657    7426.2999    4199.1586    5492.0614    6730.7524   -1195.9941    52.668169    -378.0941   -2749.1669 
15532000    257.51037   -3799.7564   -3358.3924   -3799.7564            0    6030.7521    17.227572    20.291805    21.017598    7347.3009    5393.8801    6923.4513    5774.9249    1400.2079    -1485.443    -808.7025   -2712.1802 
15533000    261.17799   -3812.2421    -3364.592   -3812.2421            0    5558.5826    17.262926    20.333447    21.060729    7392.6274    6669.0501    5511.1596    4495.5381   -310.12702    636.79949    474.94178   -2765.2996 
15534000    261.65958   -3836.1665    -3387.691   -3836.1665            0    5926.9331    17.206593    20.267094    20.992003    7320.4917    4517.5288     8051.557    5211.7135    738.91094    1661.4386    1791.3896   -2754.9205 
15535000    253.04926   -3845.2639   -3411.5461   -3845.2639            0    5437.4379    17.151116    20.201749    20.924321    7249.9118    6726.1857    5162.5763    4423.5517   -263.56392    1127.1446    294.17179   -2836.6321 
15536000    269.78988    -3888.474   -3426.0634    -3888.474            0    5921.6667    17.144866    20.194387    20.916696     7241.989    5875.4519    3428.2408    8461.3073   -364.07498    447.41916    284.60025   -2800.6348 
15537000    264.45958   -3841.6472   -3388.3726   -3841.6472            0    5732.3508    17.216429    20.278679    21.004003    7333.0531    7411.0349    3790.4204     5995.597   -798.54133   -667.62381    1454.5854    -2775.326 
15538000     262.1688   -3845.2617   -3395.9134   -3845.2617            0    6648.6874    17.082338    20.120738    20.840412    7163.0424    10104.608    3747.0874    6094.3671    1464.2477   -176.33337    611.29534   -2701.3541 
15539000    267.99613   -3869.2452    -3409.909   -3869.2452            0    3985.6838    17.178406    20.233894    20.957616    7284.5747     5144.006    3167.4102    3645.6354    -129.2878   -537.55695    -338.5241   -2986.4778 
15540000    262.10848   -3888.2481   -3439.0031   -3888.2481            0    5597.9844     17.18425    20.240776    20.964745    7292.0112    4415.5158    5212.1632    7166.2743     2405.835    37.497925    74.315985   -2843.6771 
15541000    255.45772   -3849.5786   -3411.7328   -3849.5786            0    3520.5291    17.232028    20.297053    21.023034    7353.0039    2072.7004    3431.4043    5057.4827    786.55216    1051.8783    112.67593   -3034.2053 
15542000      263.859   -3849.7245   -3397.4792   -3849.7245            0    6374.0956    17.111977    20.155648    20.876572    7200.3921    7298.6296     5604.151    6219.5061    -492.4885    1434.5562    324.72061   -2728.1333 
15543000    263.41239   -3815.3257   -3363.8459   -3815.3257            0    5304.2412    17.196468    20.255168    20.979651    7307.5762    4506.3021    5056.1459    6350.2757   -551.01815   -744.74161   -2686.0751   -2798.5543 
15544000    255.42216   -3799.5815   -3361.7967   -3799.5815            0    6880.4242    17.149289    20.199597    20.922092    7247.5952    7808.8965     7864.612    4967.7639    -811.6737    602.22163    668.53846   -2634.5445 
15545000    264.13115   -3875.5979   -3422.8861   -3875.5979            0    6346.9461    17.106677    20.149406    20.870106    7193.7035    5965.6219    7544.9236    5530.2928   -321.83728    1086.1937    65.080807   -2757.0103 
15546000    284.52268     -3868.11   -3380.4479     -3868.11            0    6216.3941    17.136265    20.184257    20.906204     7231.096    6627.2876    5253.0392    6768.8557    567.90966    1621.1788   -330.74087   -2724.8786 
15547000    258.88711   -3838.6849   -3394.9612   -3838.6849            0     6451.393    17.113266    20.157167    20.878145    7202.0196    5176.2566    6890.3558    7287.5665    230.96353   -647.63783    -446.4127   -2717.3452 
15548000    260.85011   -3828.1998   -3381.1117   -3828.1998            0    7462.6045    17.078542    20.116267    20.835782    7158.2685    7783.4325    8617.1901    5987.1908   -279.55436    1668.9017    144.92723   -2602.0456 
15549000    263.47692   -3817.6261   -3366.0357   -3817.6261            0    5288.2261    17.173927    20.228618    20.952151    7278.8778    5387.2125    6643.3369    3834.1288    455.88379    457.13893   -423.04548   -2804.6642 
15550000    256.81959   -3841.4949   -3401.3149   -3841.4949            0    5145.4465    17.217683    20.280157    21.005533    7334.6557    5396.5322    5631.4228    4408.3844    1691.4049   -1154.1079    272.58948   -2850.9146 
15551000    260.02912   -3818.1476   -3372.4666   -3818.1476            0    3554.7914    17.269997    20.341775    21.069356     7401.715    2580.6039    3100.1998    4983.5706    1477.5616    251.66878    532.01141   -2988.7396 
15552000    256.34401   -3833.0834   -3393.7185   -3833.0834            0     5988.837    17.187439    20.244533    20.968635    7296.0714    6995.4509    4493.7735    6477.2867    33.339119   -2877.0405   -502.96127    -2756.472 
15553000    248.27858   -3840.7325   -3415.1915   -3840.7325            0    5391.6338    17.287506    20.362398    21.090716    7424.2501     7126.529     3487.233    5561.1393   -675.04247   -152.94512    780.36149    -2831.412 
15554000    270.38228   -3849.4962   -3386.0702   -3849.4962            0    5413.6579     17.26677    20.337974    21.065419    7397.5667    4732.2996     7087.911     4420.763   -391.19274   -60.038412    1007.1037   -2802.0127 
15555000    252.18322   -3811.1893   -3378.9559   -3811.1893            0     6511.425    17.280859     20.35457    21.082608    7415.6906    6492.9233    6194.3038    6847.0478   -546.90035   -105.46513    90.348032   -2674.7438 
15556000    277.74253    -3826.023   -3349.9818    -3826.023            0     4663.026    17.261713    20.332018     21.05925    7391.0697    5435.9898    5887.8161    2665.2721    696.01193   -441.41509    508.05394   -2847.3488 
15557000    261.72544   -3849.3239   -3400.7354   -3849.3239            0    4679.8627    17.185194    20.241888    20.965896    7293.2128    5358.6701    3469.5494    5211.3686    515.57893    639.07461   -1300.5394   -2902.9664 
15558000    247.50167   -3810.8891   -3386.6797   -3810.8891            0    7107.8973    17.162151    20.214746    20.937784    7263.9142    6885.0343    6845.7243    7592.9333    348.82397   -621.03916   -70.867722   -2633.6922 
15559000    266.36849   -3817.6445   -3361.0981   -3817.6445            0    4965.0103    17.185918    20.242742     20.96678    7294.1355     7647.762    3324.9861    3922.2828    776.53433   -289.23661   -893.86343   -2832.9328 
15560000    260.60618    -3867.478   -3420.8079    -3867.478            0     6093.272    17.174609    20.229421    20.952983    7279.7448    5712.4051    7298.6801    5268.7307   -1612.4629    756.92474     -983.161   -2773.8998 
15561000    261.25227   -3874.2775      -3426.5   -3874.2775            0    6142.3908     17.19844    20.257491    20.982057     7310.091    5560.9777    5908.5997    6957.5949    560.03148    518.30538     1698.514   -2771.6586 
15562000    260.44702   -3848.3438   -3401.9465   -3848.3438            0    5578.4555     17.25151        20.32    21.046802    7377.9705    5917.9054    4811.6711    6005.7901    676.57348    308.53979    1101.3222   -2801.7039 
15563000    266.81453   -3812.5663   -3355.2553   -3812.5663            0    7612.6565    17.202562    20.262346    20.987085    7315.3478    6923.0843    8918.5362     6996.349   -286.63008   -779.51822    1316.7321    -2543.085 
15564000    268.66541   -3858.3248   -3397.8415   -3858.3248            0    6309.1998    17.117455      20.1621    20.883255     7207.309    4385.6694    7285.5285    7256.4014     948.1485   -1340.2037    161.41245   -2734.6738 
15565000    256.48656   -3870.9259   -3431.3167   -3870.9259            0    4484.5335    17.207385    20.268027     20.99297    7321.5031    3355.1117    4276.3247    5822.1642   -790.97858    382.54429    1133.6223   -2952.4734 
15566000    268.70121   -3863.6117   -3403.0671   -3863.6117            0    5482.4613    17.192115     20.25004     20.97434    7302.0282    5935.4692    6390.0637    4121.8511   -919.58136    -1147.946    668.08704   -2819.2256 
15567000    248.45551   -3887.6359   -3461.7917   -3887.6359            0     7033.422    17.120972    20.166244    20.887546    7211.7531    8405.1453    6692.2924    6002.8284    2081.6744   -55.583073   -442.99901   -2722.0443 
15568000     272.0655   -3897.2225   -3430.9115   -3897.2225            0    5484.9906    17.167728    20.221316    20.944588     7270.999    5752.6198     4897.915     5804.437    283.16407    2415.9002    558.25239   -2849.2828 
15569000     258.0051   -3888.4371   -3446.2252   -3888.4371            0    5213.4207    17.168787    20.222564     20.94588    7272.3446    5092.3716    5773.3733    4774.5172    18.395852    987.96629    653.52091   -2893.2914 
15570000    266.59167   -3877.1923   -3420.2633   -3877.1923            0    5427.8309    17.116619    20.161116    20.882235    7206.2537    3413.1753    5944.7422    6925.5753     320.8176    97.489013   -882.16788   -2849.8209 
15571000    262.56829   -3883.7487   -3433.7156   -3883.7487            0    5866.8089    17.135846    20.183763    20.905692    7230.5647    5184.4459    6497.2677    5918.7131   -193.56994   -139.73389    971.82181   -2815.0585 
15572000    280.97084   -3836.8651   -3355.2907   -3836.8651            0      3336.52    17.228768    20.293213    21.019057    7348.8313    6002.0118    3860.9876    146.56054    1557.0845    -649.1242     604.1925   -2997.6986 
15573000    257.72619   -3892.3525   -3450.6187   -3892.3525            0    6035.9319    17.178475    20.233974    20.957699    7284.6616    4229.6052    6729.0374    7149.1532    1568.1816    318.74431    318.66172   -2809.3654 
15574000    267.72681   -3887.6065   -3428.7319   -3887.6065            0    5887.4181    17.163963    20.216881    20.939994    7266.2155     7801.298    5285.9362      4575.02   -987.07114   -651.71356    2642.7324   -2804.8405 
15575000    262.79608   -3868.2401   -3417.8166   -3868.2401            0    6423.3594    17.162876    20.215601    20.938668    7264.8352    4910.8405    6505.2999    7853.9378   -1017.2748    125.52631   -1420.9839   -2737.2606 
15576000    261.23403    -3877.283   -3429.5368    -3877.283            0    6322.9375    17.112487     20.15625    20.877194    7201.0363    6601.2432    6246.0575    6121.5117   -771.88339    -270.2648   -596.83299   -2765.5037 
15577000    261.16119   -3906.0318   -3458.4105   -3906.0318            0    5378.0874    17.126537    20.172798    20.894335    7218.7869     4913.332    6333.6994    4887.2308   -1113.3222   -759.87655    808.87323    -2892.213 
15578000    290.06468   -3873.4946   -3376.3337   -3873.4946            0    4072.9916    17.169947    20.223929    20.947295    7273.8178    5156.2769    4361.8478    2700.8502   -160.79945    702.39096    515.89269    -2944.266 
15579000    259.50093   -3890.6642   -3445.8884   -3890.6642            0    7191.6633    17.090891    20.130812    20.850847     7173.807    4862.5635     7763.333    8949.0933     702.9413     71.97226    1518.1939   -2693.4778 
15580000     283.5121   -3880.2513   -3394.3213   -3880.2513            0     4191.771    17.186306    20.243199    20.967253    7294.6293    4948.0319    4310.4205    3316.8606     -605.105    1448.1917   -1360.5895    -2948.381 
15581000    262.27454   -3868.2974   -3418.7678   -3868.2974            0    6514.9271    17.096428    20.137334    20.857603    7180.7824    5313.2992    6025.5006    8205.9816    297.84264    155.07576   -1047.5771   -2736.4963 
15582000    264.25797   -3888.2819   -3435.3528   -3888.2819            0    7839.0447    17.014833    20.041225    20.758056    7078.4575    6386.6781    7526.0172    9604.4389    357.79678   -1096.2845    787.27943   -2626.1122 
15583000    266.25156   -3886.2609   -3429.9149   -3886.2609            0    5981.7279    17.142398     20.19148    20.913685    7238.8618    7081.0726    5272.7147    5591.3964   -840.81893      589.793    633.10998   -2798.4156 
15584000    274.40452   -3856.2189    -3385.899   -3856.2189            0    5330.0219     17.20636    20.266819    20.991718    7320.1936    6720.0825    3687.2246    5582.7585   -363.62405   -574.74851   -1996.9788   -2816.8791 
15585000    260.89964   -3843.3202   -3396.1471   -3843.3202            0    7788.3303    17.125248     20.17128    20.892763    7217.1577    8226.6226    6598.8873    8539.4811    319.49168   -1313.0085   -221.59692   -2576.3876 
15586000    270.09312   -3850.4538   -3387.5234   -3850.4538            0    6549.2806    17.153506    20.204565    20.927238    7252.9439    5585.6069    5892.5176    8169.7175    370.08644   -788.58593   -326.03234   -2694.7618 
15587000    266.85806   -3883.8302   -3426.4447   -3883.8302            0    5750.5763    17.161639    20.214144     20.93716    7263.2649    6832.9101    6294.2031    4124.6158    -917.0762    208.64318   -425.58962   -2817.3018 
15588000     280.6603   -3839.9847   -3358.9425   -3839.9847            0    5353.5585    17.196565    20.255282    20.979769    7307.7001    6240.6578    5903.4905    3916.5272    820.92458   -308.05967    787.58999   -2788.3854 
15589000    246.65833   -3858.4441   -3435.6801   -3858.4441            0    7859.2159    17.137661    20.185901    20.907907    7232.8634    5190.6226     9188.528     9198.497    169.28919   -92.979582   -1365.6119   -2606.6595 
15590000    258.69435   -3830.2407   -3386.8474   -3830.2407            0    6721.4179    17.173177    20.227734    20.951236    7277.9242    6855.2167    6400.0846    6908.9523    -859.8224    492.55723   -877.11629    -2673.429 
15591000    254.31755   -3861.0673   -3425.1757   -3861.0673            0    6461.2714    17.125108    20.171115    20.892592     7216.981    5372.1702    7550.0217    6461.6222   -649.44167    387.45249    851.14841   -2745.1123 
15592000    280.45136   -3881.0046   -3400.3206   -3881.0046            0    6445.7212    17.202868    20.262707    20.987459    7315.7387    4918.6057    6392.4799     8026.078    342.53201     628.3382    989.67801   -2712.6102 
15593000    257.29692   -3863.3501    -3422.352   -3863.3501            0    5254.0275    17.217511    20.279954    21.005323    7334.4358    4213.8875     4689.252    6858.9431   -1672.8947   -110.42598    -93.76833   -2860.3538 
15594000    258.99174   -3840.2814   -3396.3785   -3840.2814            0    6958.2195    17.160668    20.213001    20.935975    7262.0324    8938.4839    7140.9654     4795.209    893.44497   -137.19149     1410.407   -2659.4384 
15595000    265.19582   -3876.6089   -3422.0723   -3876.6089            0    5282.3229    17.123126     20.16878    20.890173    7214.4747     6973.037    5550.8934    3323.0382    8.9066342   -75.334903    -12.08503    -2866.289 
15596000    272.57485   -3842.2202   -3375.0362   -3842.2202            0    5580.3008    17.233241    20.298482    21.024514    7354.5565    3680.5053    6551.0151    6509.3822    330.04461    690.09868   -1233.0131   -2776.5006 
15597000    261.48004   -3834.9485   -3386.7807   -3834.9485            0    5035.5356    17.209966    20.271067    20.996118    7324.7976    5655.2402    6936.6323    2514.7344   -272.11944   -158.85583    98.911926   -2848.8613 
15598000    249.06251    -3858.343   -3431.4584    -3858.343            0    5294.2881    17.245961    20.313464    21.040032    7370.8532    4729.5698    5867.1351    5286.1595   -2144.0498   -792.32833   -792.78002   -2862.3418 
15599000    275.56675   -3868.4997   -3396.1877   -3868.4997            0    6035.5519    17.186448    20.243365    20.967426    7294.8097    5487.0243    7375.6564    5243.9752    365.89331    -1027.498    333.61617   -2754.0816 
15600000    252.37962   -3861.9064   -3429.3364   -3861.9064            0    4138.6761    17.292415     20.36818    21.096705    7430.5765    3672.1614    4266.8552    4477.0116    512.07832    -712.5349    57.504888   -2980.8391 
15601000    271.30181   -3901.2221   -3436.2201   -3901.2221            0    5350.8955    17.182988     20.23929    20.963205    7290.4046    5713.0939    4195.0763    6144.5161    1056.0091   -813.40557   -211.71868   -2867.2964 
15602000    268.82685   -3844.2161   -3383.4561   -3844.2161            0    4478.4179    17.307474    20.385919    21.115078    7450.0071    3841.2005    3169.0993     6424.954    609.29757    201.31096   -514.53967   -2896.8728 
15603000    266.74595    -3853.448   -3396.2546    -3853.448            0    6603.4412    17.123278     20.16896     20.89036    7214.6678    5410.5762    6382.1458    8017.6015   -1121.5356    194.73792    92.667916   -2701.4502 
15604000    258.81037   -3862.6571   -3419.0649   -3862.6571            0    3804.1186    17.237488    20.303484    21.029695    7359.9949    4421.4676    3219.4627    3771.4254   -5.2699296    912.24224   -313.37824   -3010.7386 
15605000    271.21587   -3852.9185   -3388.0638   -3852.9185            0    5067.0117     17.23956    20.305925    21.032223    7362.6499    3648.3333    5972.7769    5579.9248    1524.3102    398.95991   -358.61002   -2843.9848 
15606000    246.79334   -3875.0247   -3452.0293   -3875.0247            0    6020.2735    17.176629      20.2318    20.955447    7282.3141    5501.6918    7519.0366    5040.0922   -340.75876    98.519955   -1626.5664   -2812.6457 
15607000    262.64161   -3897.3861   -3447.2274   -3897.3861            0    5616.1488    17.153926    20.205059     20.92775    7253.4766    5429.4722    5213.9199    6205.0543   -338.17887   -919.65862   -837.77593   -2853.1258 
15608000    264.03622   -3866.6553   -3414.1062   -3866.6553            0    4743.4084    17.168942    20.222746    20.946069    7272.5412     4245.782    5810.6796    4173.7636    1028.1681   -50.581533   -346.99835   -2911.0082 
15609000    261.64192   -3879.9722   -3431.5269   -3879.9722            0    6185.3925    17.167194    20.220687    20.943936    7270.3197    5082.9034    5389.6774    8083.5967    1281.9963    920.86477    876.91272   -2775.6888 
15610000     254.8227   -3877.4064    -3440.649   -3877.4064            0    5120.9202    17.209346    20.270337    20.995362    7324.0063     5705.948    4914.5152    4742.2973    1129.7627   -810.86577   -895.81797   -2893.6675 
15611000     262.1121   -3861.8214   -3412.5703   -3861.8214            0    4715.8419    17.241152    20.307799    21.034165    7364.6889    4400.7375    4310.3283      5436.46    906.79721   -252.62744    497.38681   -2906.0585 
15612000    266.67522   -3846.9249   -3389.8527   -3846.9249            0    7036.2869    17.182566    20.238794    20.962691    7289.8683    6809.7544    8157.5519    6141.5544    230.75562    155.94871     713.3844   -2641.7881 
15613000    250.81538   -3849.5193   -3419.6303   -3849.5193            0    3851.5585    17.214286    20.276155    21.001389    7330.3152    5061.0925    1992.3336    4501.2495   -1328.7823   -390.59688    1587.1493   -3007.8789 
15614000    271.02291   -3824.9696   -3360.4456   -3824.9696            0     4419.389    17.215935    20.278098    21.003401    7332.4218    5054.3416    6009.8661    2193.9593    -309.3559    516.13799   -816.37387   -2887.8545 
15615000    272.76063   -3834.6135   -3367.1111   -3834.6135            0    5196.8999    17.234865    20.300394    21.026495    7356.6354    5160.8274    4894.1741    5535.6984    700.54665    727.01161    182.13298    -2809.541 
15616000    259.96919   -3849.8992   -3404.3209   -3849.8992            0    7441.6908    17.172349    20.226759    20.950225    7276.8712    7424.4554    7002.0693    7898.5477   -1676.3275   -59.967895   -406.21392   -2614.5662 
15617000    260.00108    -3877.502    -3431.869    -3877.502            0    6093.0968    17.217426    20.279853    21.005219    7334.3266     5765.491    6779.1304    5734.6689   -379.65665    168.12451    462.81173   -2780.1293 
15618000    274.41921   -3900.8696   -3430.5244   -3900.8696            0    6323.7014    17.185168    20.241858    20.965865    7293.1805    6334.3708    6778.4187    5858.3146   -578.20669   -126.07394   -1579.3023   -2757.9131 
15619000    278.72671   -3857.7348   -3380.0068   -3857.7348            0    5020.4002    17.266563    20.337731    21.065167     7397.301    5378.4077    3940.5403    5742.2526    358.26397    184.28789   -856.55991   -2838.3957 
15620000    260.17154   -3853.9716   -3408.0465   -3853.9716            0    5535.3291    17.204867    20.265061    20.989898    7318.2891    4861.2061    6259.7079    5485.0733   -670.15456   -167.07046    591.78448   -2817.2623 
15621000    265.66398   -3863.0195   -3407.6805   -3863.0195            0    6380.4544    17.098185    20.139403    20.859745    7182.9957    6028.5121    6964.2098    6148.6414   -123.85143   -961.84912   -1032.1081   -2739.2857 
15622000    264.20086   -3834.3475   -3381.5163   -3834.3475            0    6200.4845    17.162192    20.214795    20.937834    7263.9667    4706.6383    6372.3303     7522.485   -329.93128    404.51675   -127.64403   -2724.6524 
15623000    261.78199   -3890.4844    -3441.799   -3890.4844            0    5861.1951    17.180319    20.236146    20.959948    7287.0076    8049.3471    4847.9802    4686.2582   -282.94229    684.12972    1474.0232   -2818.9091 
15624000    280.94685   -3847.0603    -3365.527   -3847.0603            0    7000.5684    17.139404    20.187954    20.910033    7235.0701    7631.5787    7686.3834    5683.7431    1021.0255    691.53056    1037.5008   -2626.8545 
15625000     284.9437   -3825.9527   -3337.5689   -3825.9527            0    7181.0415    17.148974    20.199226    20.921708    7247.1962    7071.9335     7217.173    7254.0181   -299.24995    618.73921    241.72849   -2578.5837 
15626000    266.35264   -3838.2417   -3381.7224   -3838.2417            0    6645.2013    17.137554    20.185775    20.907776     7232.728    5138.4676    6565.5701    8231.5662   -61.186945   -165.93333   -837.86377   -2680.7738 
15627000    270.01052   -3836.3861   -3373.5973   -3836.3861            0    7205.5375    17.153501    20.204559    20.927232    7252.9376    5936.8655    9361.2957    6318.4513    788.00695   -1149.6977    806.50589   -2611.4196 
15628000    278.33004   -3866.3888   -3389.3406   -3866.3888            0    7266.6819    17.185024    20.241688    20.965689    7292.9969    7524.5224    5621.3573    8654.1661   -828.90542   -436.44359   -1527.8225   -2616.4499 
15629000    268.50142   -3817.7818   -3357.5795   -3817.7818            0     4721.376    17.240194    20.306671    21.032996    7363.4618    5474.1517    3960.3878    4729.5885    663.23759   -267.46772   -542.92912   -2850.5579 
15630000    257.69908   -3863.4488   -3421.7614   -3863.4488            0    7231.3725    17.122593    20.168153    20.889523    7213.8013    5019.8558     8329.525    8344.7366   -2181.3243    341.32215   -670.51764   -2660.9784 
15631000    260.33306   -3888.3565   -3442.1545   -3888.3565            0    4528.5004    17.169446    20.223339    20.946684    7273.1816     5364.843    5167.6242    3053.0339   -459.86977   -703.35409    1606.9075   -2961.8079 
15632000    264.23335   -3818.3608   -3365.4739   -3818.3608            0    4803.8098    17.232903    20.298083    21.024101     7354.123     3184.303    7635.6749    3591.4514    711.68448     10.12065   -673.11033    -2850.254 
15633000    254.57392   -3846.4558   -3410.1248   -3846.4558            0    5044.4565    17.192356    20.250325    20.974635    7302.3359    4299.5172    5846.0233    4987.8289   -936.29357    -889.2756    1682.2837   -2872.9049 
15634000    260.15584    -3875.019   -3429.1208    -3875.019            0    6284.4278    17.122729    20.168313    20.889689     7213.973    7902.5548    5449.7004    5501.0283    265.36713   -470.40636     806.7284   -2767.9462 
15635000    252.20691   -3885.6381    -3453.364   -3885.6381            0    6682.6378    17.081185    20.119379    20.839005    7161.5917    6861.9252    7317.6755    5868.3128   -1143.1057    178.04253    841.78113   -2755.3995 
15636000    264.22697   -3857.1842   -3404.3082   -3857.1842            0    7386.3496     17.07977    20.117713    20.837279    7159.8124    9152.9101    6243.4987    6762.6401    709.71035    643.77547    1118.1914   -2633.0365 
15637000    258.54934   -3869.0241   -3425.8794   -3869.0241            0    5013.9236     17.15567    20.207114    20.929878    7255.6893    4468.7644    4513.0607    6059.9457    -126.7097   -851.93373   -1413.9826   -2895.3221 
15638000    266.30139   -3876.4798   -3420.0484   -3876.4798            0    6324.1549    17.081685    20.119968    20.839615    7162.2205    6907.6313    6566.0568    5498.7766   -329.50445    481.15316   -584.71501   -2759.4674 
15639000    251.45894    -3920.975   -3489.9829    -3920.975            0    3716.6541    17.241622    20.308354    21.034739    7365.2921    1894.3708    5776.0387    3479.5527    486.47961    219.37748    61.027621   -3090.7577 
15640000    266.02518   -3885.4104   -3429.4523   -3885.4104            0    6039.4472    17.159515    20.211642    20.934568     7260.568    5998.7734    7504.9284    4614.6397   -1075.4621   -824.50127   -1741.8961   -2789.9477 
15641000    241.21441   -3856.7752    -3443.342   -3856.7752            0    6391.3795    17.128188    20.174743     20.89635    7220.8756     8025.521    5549.2845    5599.3331   -405.03043     998.2453   -1247.2705   -2770.2718 
15642000    256.67169   -3884.3056   -3444.3791   -3884.3056            0    5349.1238    17.158688    20.210668    20.933559    7259.5186    5378.1447    5387.6873    5281.5396   -893.37013    260.64271   -1198.8865   -2878.0533 
15643000    260.16158   -3875.1705   -3429.2624   -3875.1705            0    3626.9448     17.19609    20.254723     20.97919    7307.0947    3139.9655    6117.7689    1623.0999   -1552.1042    226.15301   -1571.5342   -3042.7517 
15644000    257.31363   -3885.4151   -3444.3883   -3885.4151            0    6412.7269    17.129494    20.176282    20.897943    7222.5276    6271.2957    7174.2358     5792.649   -765.19019    -426.7758   -727.82323   -2768.9156 
15645000    283.33722   -3867.4165   -3381.7862   -3867.4165            0    6564.7452    17.103548     20.14572    20.866289    7189.7572     5848.149    5491.6137    8354.4728    1773.5552    377.91743   -1737.6667   -2693.4383 
15646000    246.37781   -3860.0709   -3437.7878   -3860.0709            0    5524.9733    17.191295    20.249074    20.973339    7300.9832    5516.2944     5246.065    5812.5606    127.37872    474.72773   -1268.8891   -2849.5032 
15647000    241.17222   -3866.1393   -3452.7784   -3866.1393            0    6293.3175    17.197918    20.256876     20.98142    7309.4247    5723.2329    6966.0889    6190.6308    407.54216    502.38445    416.29629   -2781.9078 
15648000    259.14385    -3881.919   -3437.7553    -3881.919            0    6503.0861    17.169391    20.223274    20.946617    7273.1114    6198.5239    6134.1156    7176.6188    248.16254    1425.5972    1291.6172   -2747.9673 
15649000    273.18325   -3837.1412   -3368.9145   -3837.1412            0    7670.1135    17.158535    20.210488    20.933372    7259.3242    6571.4598    7082.1252    9356.7556    288.34827    597.78892    624.98734   -2556.8811 
15650000    263.27206   -3884.0265   -3432.7872   -3884.0265            0    5666.4249    17.221517    20.284672     21.01021    7339.5562    4753.6124    5764.3432     6481.319     1100.114    682.11052    1196.5304   -2826.2536 
15651000     268.4044   -3849.7964   -3389.7604   -3849.7964            0    2767.8236    17.264872    20.335738    21.063103    7395.1272     2039.134    2832.1402    3432.1965    1447.2672    329.01831     1447.133   -3091.2497 
15652000     252.5482   -3870.3215   -3437.4626   -3870.3215            0    4663.1859     17.24604    20.313557    21.040128    7370.9545    3801.1459    5172.8713    5015.5405   -285.36969   -564.30024    306.17563   -2936.1803 
15653000    255.39925   -3841.8762   -3404.1306   -3841.8762            0    7819.7843    17.187956    20.245142    20.969267    7296.7307    8256.0441    8746.7244    6456.5842   -241.21366   -113.88546    744.41635   -2571.9857 
15654000    262.06617   -3873.1987   -3424.0263   -3873.1987            0    4891.7634    17.263428    20.334038    21.061342    7393.2722    5279.9147    5196.8372    4198.5384    329.45138    1053.9398    868.25808   -2896.5802 
15655000    260.91605   -3859.2134   -3412.0122   -3859.2134            0    5415.9117    17.224012    20.287611    21.013254    7342.7466    4355.2395    5416.1939    6476.3017   -888.71156    1707.5254    -1226.598   -2832.0416 
15656000    239.62344   -3851.1326   -3440.4262   -3851.1326            0    4206.9403     17.15741    20.209162       20.932    7257.8961    6528.6612     2569.549    3522.6109   -275.49172   -379.07008     997.4187   -2995.1259 
15657000    259.46881    -3872.624   -3427.9033    -3872.624            0     3513.523    17.227356    20.291549    21.017334    7347.0238    2560.4586    4398.2838    3581.8266   -809.99399    709.84203   -584.70603   -3051.4335 
15658000    257.49168   -3868.3139   -3426.9819   -3868.3139            0    5699.0432    17.209657    20.270703    20.995741    7324.4028    3955.0378     6413.664    6728.4278    1077.3481     341.8688   -220.35357   -2818.2164 
15659000    251.94745   -3850.8885   -3419.0592   -3850.8885            0    4824.2778    17.175941    20.230989    20.954607    7281.4384     3837.818    5178.5746    5456.4407     1367.281    2630.4756   -442.99743    -2906.758 
15660000    273.81746   -3858.2322   -3388.9184   -3858.2322            0    5202.0549    17.162942    20.215679    20.938749    7264.9195    4480.1108    6892.5839      4233.47   -135.40555    901.91769   -1022.1299   -2837.7534 
15661000    262.32172   -3901.3564   -3451.7459   -3901.3564            0    5641.4393    17.223368    20.286853    21.012469    7341.9235    5199.9014    5329.1272    6395.2894    1918.3932   -1183.6364   -1.9891239   -2847.6921 
15662000    253.63595   -3867.2832   -3432.5599   -3867.2832            0    5394.1589    17.224914    20.288674    21.014355    7343.9006    5011.8868    5598.0533    5572.5366   -636.62496   -561.26887   -469.18346   -2854.8279 
15663000    256.90152   -3851.6005   -3411.2801   -3851.6005            0    4925.5279    17.246391     20.31397    21.040557     7371.405    6454.8328    5518.4086    2803.3422    676.53566   -345.52925    1327.5327   -2881.7643 
15664000    261.27426   -3894.2605   -3446.4454   -3894.2605            0     5836.016    17.218577     20.28121    21.006624    7335.7984    5785.4266    5158.8408    6563.7807   -1554.1074    1306.2337   -839.53212   -2822.0787 
15665000    252.56936   -3864.9648   -3432.0696   -3864.9648            0    6165.6027    17.203689    20.263674    20.988461    7316.7861    7100.3058    5328.1266    6068.3757   -1109.1918    238.15036    163.23396   -2774.1515 
15666000    260.82143   -3837.0296   -3389.9906   -3837.0296            0    5977.9746    17.248955     20.31699    21.043685    7374.6929    6140.2015    4936.8191     6856.903   -102.82947   -372.83248    159.74042   -2747.0455 
15667000    249.08273   -3867.3128   -3440.3935   -3867.3128            0     5423.751    17.204651    20.264806    20.989634    7318.0134    5706.1696    4050.6805    6514.4029    259.98115   -1380.4121     214.7102   -2861.5398 
15668000    277.97557   -3860.9929   -3384.5522   -3860.9929            0    8106.6215    17.214001     20.27582    21.001041     7329.951    7971.3173    7988.8478    8359.6994   -1535.2741    371.16719    1731.7924   -2517.9559 
15669000    262.60275   -3840.7621     -3390.67   -3840.7621            0    5761.4603    17.274158    20.346677    21.074433    7407.0669    6683.0264    4477.8344    6123.5201   -1932.2093    388.68115    719.70852   -2768.2913 
15670000     266.6673   -3853.8836    -3396.825   -3853.8836            0    6436.1796    17.310054    20.388957    21.118226     7453.339    6208.9796    7316.9235    5782.6356   -1512.0063   -494.59084   -397.20216   -2697.2167 
15671000    262.90242   -3849.3766   -3398.7708   -3849.3766            0    5367.5054    17.381647    20.473284    21.205569    7546.2008    6166.7149    4525.2226    5410.5789    381.14572   -490.16883    1246.1419   -2808.0576 
15672000    266.60866   -3854.8454   -3397.8872   -3854.8454            0    4850.9485    17.241877    20.308654     21.03505     7365.619    3535.4716    5239.2015    5778.1725    816.48141    953.64681    695.61948   -2876.7984 
15673000    261.20016   -3849.2969   -3401.6088   -3849.2969            0     5654.842    17.181866    20.237968    20.961836    7288.9766    5337.9797    3017.2654    8609.2808   -270.00149    976.68386    2086.0354   -2800.4863 
15674000    256.08804   -3865.5639   -3426.6378   -3865.5639            0    5771.7019    17.193277    20.251409    20.975758    7303.5091    6034.0035    6413.2423      4867.86    2275.3569    1634.9902    501.40718   -2811.8697 
15675000    250.06689   -3811.1948   -3382.5887   -3811.1948            0    6645.9406    17.196379    20.255063    20.979542    7307.4625     6331.099     4900.334    8706.3888    1008.5815   -201.15613   -698.65263   -2674.3186 
15676000    264.45655   -3853.3923   -3400.1229   -3853.3923            0    6884.8666    17.174996    20.229877    20.953455    7280.2372     6536.299    4908.7652    9209.5355    585.60475    600.89527    481.11145   -2669.1236 
15677000    262.92146   -3833.0836   -3382.4452   -3833.0836            0    4839.5641    17.238988    20.305251    21.031526    7361.9171    4358.3706    3588.3706     6571.951    1171.1737    1073.3328    1184.1757   -2862.8405 
15678000    264.01962   -3838.2938   -3385.7732   -3838.2938            0    5988.2966    17.141203    20.190073    20.912228    7237.3489    6703.1694    5555.5553    5706.1651    1207.5942    630.54517   -850.33461   -2753.7126 
15679000     264.5932   -3880.9541   -3427.4505   -3880.9541            0    6882.1971    17.113232    20.157126    20.878103     7201.976    5966.0854    7389.1387     7291.367    478.37523   -1234.0057   -1050.0367   -2704.5897 
15680000     253.9421   -3861.3948   -3426.1467   -3861.3948            0    3927.3063    17.294007    20.370055    21.098648     7432.629    4734.9271    1938.2701    5108.7216    252.58807    1837.4674   -930.02387   -3000.4374 
15681000    269.91167   -3863.4446   -3400.8252   -3863.4446            0    6455.5806    17.226099    20.290069      21.0158    7345.4161     8340.212    4473.8006    6552.7292    942.93696    88.461006   -851.85864   -2709.2688 
15682000    274.83945   -3843.8836   -3372.8182   -3843.8836            0    6113.4829    17.283734    20.357956    21.086116    7419.3924    6003.2935    6047.7795    6289.3757   -376.17506   -155.26181   -966.16974   -2711.3135 
15683000    265.02259   -3873.7385   -3419.4988   -3873.7385            0    4842.1861    17.230723    20.295515    21.021441    7351.3324    4587.6558    6018.6139    3920.2887    840.90325    -345.2751   -1548.4298   -2900.3601 
15684000    265.32496   -3868.7096   -3413.9517   -3868.7096            0    5621.2898    17.134238    20.181869     20.90373    7228.5295    5677.7928    5179.7214    6006.3551    1027.6946    1480.6508    2423.4431   -2821.3515 
15685000    269.23807   -3854.9294   -3393.4646   -3854.9294            0    7662.4627    17.218785    20.281454    21.006878    7336.0639    9282.7321    6448.7413    7255.9147   -251.66253    957.65805    2153.4986   -2573.6656 
15686000    271.77481   -3844.2422   -3378.4295   -3844.2422            0    4759.1029    17.152316    20.203162    20.925785    7251.4337    4517.7177    3423.5751    6336.0158    255.43147    1741.3127   -605.84388   -2875.1319 
15687000    269.34555   -3903.2781   -3441.6291   -3903.2781            0    5421.1636    17.151828    20.202587    20.925189    7250.8144    6348.2422    5365.0506     4550.198    746.06728    246.13725   -224.90225   -2868.3644 
15688000    267.83114   -3848.5111   -3389.4577   -3848.5111            0    6057.8775     17.22262    20.285971    21.011556    7340.9665    3134.6918    7024.6609    8014.2799    444.13098   -528.95133    351.07943   -2740.8985 
15689000    244.45854   -3878.9914   -3459.9978   -3878.9914            0    5999.9525    17.140559    20.189315    20.911442    7236.5332    5398.5532    6595.0629    6006.2413    89.861503   -17.274119     210.1276   -2826.7784 
15690000    279.42086   -3838.4755   -3359.5578   -3838.4755            0    6153.3974    17.161772      20.2143    20.937322    7263.4336    8298.6799    5276.7227    4884.7896    2210.8805    127.81401   -210.07918     -2707.73 
15691000    269.29274   -3849.9624   -3388.4038   -3849.9624            0    7324.1158    17.109233    20.152417    20.873225    7196.9295    8153.6908    8528.3518    5290.3049     222.0186    854.31068    -2021.782   -2619.6659 
15692000     268.6189   -3850.9679   -3390.5643   -3850.9679            0    6121.4292    17.095364     20.13608    20.856304    7179.4409     5454.741    5570.8553    7338.6912    874.83075   -2.4636473   -1716.0934   -2749.6214 
15693000    255.83028   -3835.6848   -3397.2005   -3835.6848            0    6200.8773    17.193587    20.251775    20.976136    7303.9045    5794.0619    6027.9079    6780.6622    202.28901     1146.226    87.650604   -2736.6833 
15694000    278.79218   -3847.5515   -3369.7112   -3847.5515            0    8375.0651    17.051685    20.084633    20.803016    7124.5514    8475.7096    8352.0331    8297.4526    35.172344    2120.3759   -182.93131   -2499.5062 
15695000    252.66731   -3849.2024   -3416.1393   -3849.2024            0    4681.0399    17.289085    20.364258    21.092643    7426.2846    3376.3177    5441.8129    5224.9892    92.235337    556.63217    598.62531   -2909.1605 
15696000    259.98915   -3848.4246   -3402.8121   -3848.4246            0    6083.8983     17.18289    20.239175    20.963086    7290.2802    5115.3561    6248.1747    6888.1641    -639.6195    -562.4726   -739.65071   -2755.9644 
15697000    257.33736   -3831.6298   -3390.5624   -3831.6298            0    3605.9978    17.222679    20.286041    21.011628    7341.0418    1154.1581    4751.2909    4912.5445    483.76764    692.15486    1109.3201   -3004.4986 
15698000    267.32073   -3849.6081   -3391.4295   -3849.6081            0    6710.6534    17.135569    20.183437    20.905354    7230.2142    7506.8344    5718.5033    6906.6225    1827.6562    333.30005    1373.4761   -2683.8229 
15699000     264.9694   -3826.1058   -3371.9573   -3826.1058            0    4046.0426    17.255373    20.324551    21.051515    7382.9286    6473.4408    3238.1641    2426.5229   -661.94268    136.27075    648.68699     -2936.31 
15700000    269.97672   -3864.9668   -3402.2359   -3864.9668            0    7523.4195    17.131365    20.178485    20.900225     7224.894    7342.5379    8496.7254    6730.9952   -165.73817   -1390.9024    1139.9231   -2609.5108 
15701000    252.73379   -3848.5231    -3415.346   -3848.5231            0    3875.2469    17.232885    20.298063     21.02408     7354.101    4696.6256    3564.8081    3364.3071   -247.08605    27.211201   -1450.0067    -2999.718 
15702000    262.80611   -3842.3609   -3391.9202   -3842.3609            0    6136.5284    17.197797    20.256733    20.981272    7309.2702    5156.5517    6008.7472    7244.2864    74.401872    434.23771    2027.4946   -2737.7773 
15703000    261.10342   -3867.2579   -3419.7356   -3867.2579            0    6159.9016    17.148443    20.198601     20.92106    7246.5227    7252.3623    6487.4421    4739.9003    432.85455   -922.79608    95.480865   -2768.7381 
15704000    256.75486   -3883.4215   -3443.3524   -3883.4215            0    5269.8329    17.258414    20.328132    21.055224    7386.8317    3531.0913    7501.5138    4776.8936    567.07537    1330.2128     881.7311   -2875.6367 
15705000    251.82799   -3879.1095   -3447.4849   -3879.1095            0    2685.2569    17.276442    20.349367    21.077219    7410.0055    2253.0978    2738.2953    3064.3775   -1690.6013    1053.6729   -890.04484   -3157.2964 
15706000    260.59214   -3866.1386   -3419.4926   -3866.1386            0    6760.8845    17.223318    20.286793    21.012407    7341.8587    6617.2803    7539.5064    6125.8667    1145.4751   -373.46085   -584.16722   -2695.5812 
15707000    261.56297   -3846.4771   -3398.1671   -3846.4771            0    5149.8087    17.217826    20.280325    21.005707    7334.8379    5185.0524    4112.8608    6151.5129   -364.32303   -252.42004    395.93336   -2847.2865 
15708000    260.16221   -3807.9385   -3362.0294   -3807.9385            0    5952.7273    17.232964    20.298156    21.024176    7354.2021    4254.6248    6615.5836    6987.9736    -1239.449   -628.80938     798.8325   -2723.5786 
15709000    262.00032   -3847.9425   -3398.8829   -3847.9425            0      5821.82     17.18288    20.239163    20.963074    7290.2678    6050.7281    7015.0129    4399.7189   -625.24134   -398.85294   -512.05201   -2779.9007 
15710000     279.8555   -3837.5786   -3357.9158   -3837.5786            0    5466.7405     17.21481    20.276772    21.002028    7330.9842    5897.9928    6351.0073    4151.2214    508.85864   -756.55612   -1553.1845   -2773.4399 
15711000    257.77902   -3856.3907   -3414.5663   -3856.3907            0    5295.8592    17.228028    20.292341    21.018153    7347.8836    5228.6221    5270.5832    5388.3725    -184.5785   -365.03455    292.70477   -2847.0549 
15712000    277.19587   -3861.2303    -3386.126   -3861.2303            0    6446.8204    17.183113    20.239438    20.963358    7290.5643     6294.595    6613.7098    6432.1563    36.298324   -364.70192    224.93714   -2700.6652 
15713000    277.38954   -3854.0057   -3378.5695   -3854.0057            0    6420.5397    17.183061    20.239377    20.963295    7290.4982    6268.5168    5910.6155    7082.4869   -74.695089   -1174.6044    140.13739   -2695.9092 
15714000    259.74605     -3859.47   -3414.2741     -3859.47            0     6348.556    17.187973    20.245162    20.969287    7296.7522    6332.1641    6289.1198    6424.3842    837.21191    220.77225    885.66122   -2738.6884 
15715000    253.85605   -3922.1207   -3487.0201   -3922.1207            0    4825.7103    17.186007    20.242846    20.966888     7294.248    6179.2582    3418.4385    4879.4343    1502.9767   -130.25625    14.292416   -2973.6653 
15716000    260.62351   -3884.4186   -3437.7188   -3884.4186            0    4692.3718    17.240904    20.307508    21.033863    7364.3719    4909.1013    4270.3509    4897.6633    1189.6636   -168.77076   -2413.6057   -2933.7496 
15717000    261.86745   -3926.8181   -3477.9863   -3926.8181            0    6351.9796    17.239078    20.305357    21.031635    7362.0317    3907.0316     8927.676    6221.2311    331.55825   -576.46989   -874.00755   -2795.9889 
15718000    265.46282    -3864.684   -3409.6898    -3864.684            0    4013.5888    17.249112    20.317176    21.043877     7374.895    3648.2904    4793.7204    3598.7557    509.07158    19.279596   -480.57887   -2978.0071 
15719000    278.85863   -3849.6199   -3371.6657   -3849.6199            0    7103.8734    17.188913    20.246269    20.970434    7297.9495    7560.6816    6849.9134    6901.0253    668.25523    362.11307   -14.002135   -2615.5784 
15720000    261.11081   -3866.5661   -3419.0311   -3866.5661            0    8705.1814    17.139328    20.187864     20.90994    7234.9732    8879.5647    7767.0269    9468.9526    390.98504   -623.39265   -555.50329   -2500.5068 
15721000    263.08011   -3856.5289   -3405.6186   -3856.5289            0    4242.3752     17.21643    20.278681    21.004005    7333.0546    2316.3245    5056.0957    5354.7053   -900.43525   -1736.0636    294.96856   -2951.9175 
15722000    261.18236   -3886.2771   -3438.6195   -3886.2771            0    6512.1077    17.229334    20.293879    21.019747    7349.5547    6992.5472    5531.7305    7012.0455   -1569.3466    2044.2638    437.39764   -2740.6145 
15723000    260.41348   -3888.5346   -3442.1948   -3888.5346            0    6074.6838    17.240701    20.307268    21.033615     7364.111    4584.8093    6145.8535    7493.3887   -376.32414    135.43516   -980.81843   -2789.7859 
15724000    269.92734   -3861.7778   -3399.1316   -3861.7778            0     4772.433    17.281066    20.354813     21.08286    7415.9569    4948.2256    3781.0149    5588.0584    33.777559   -568.59799   -860.23298   -2882.9732 
15725000     263.6362   -3874.7328   -3422.8693   -3874.7328            0    6080.6883    17.156568    20.208171    20.930973    7256.8285    6876.2549    4921.2533    6444.5566     502.8385    -373.6733   -78.887628   -2779.3294 
15726000    253.68673   -3844.4654   -3409.6551   -3844.4654            0    5694.6671    17.177643    20.232994    20.956684    7283.6033    6660.1222    5236.5287    5187.3503    925.46171    22.417012    2846.7573   -2804.7454 
15727000     280.1199   -3831.8515   -3351.7356   -3831.8515            0    5258.9998    17.241525    20.308239     21.03462    7365.1668    4911.4246    5155.2308    5710.3441    727.28989   -59.655259   -33.898946   -2786.8485 
15728000    269.31282   -3849.7637   -3388.1707   -3849.7637            0     5681.615    17.238063    20.304161    21.030397    7360.7317    4857.1501    5785.4282    6402.2668   -57.783529    156.01395   -148.93981   -2778.2566 
15729000     262.6225   -3868.2062   -3418.0802   -3868.2062            0    5599.9343    17.292698    20.368514    21.097051    7430.9413    6195.7169    4756.2999     5847.786   -303.83297   -589.02309   -269.14309   -2811.2004 
15730000    273.91915   -3841.0271    -3371.539   -3841.0271            0    4204.9225    17.290843    20.366329    21.094788    7428.5508    4015.2379     2643.843    5955.6866   -1496.0668    2159.0263    21.680729    -2915.987 
15731000    270.18531     -3850.66   -3387.5716     -3850.66            0    5838.9927    17.253165    20.321949    21.048821     7380.094    5782.3249    7078.1021    4656.5513    348.27644    -224.7193   -497.15371   -2759.1144 
15732000    260.16763   -3864.9244    -3419.006   -3864.9244            0    4821.2292    17.276898    20.349904    21.077775    7410.5921    6047.4099    3613.6369    4802.6408    2361.1845     1504.225    -1173.218   -2897.9474 
15733000    247.48174   -3849.8471   -3425.6719   -3849.8471            0    5493.6909    17.247597    20.315391    21.042028    7372.9511    6127.0508    4879.7597     5474.262    578.63504   -573.38552     774.2847   -2834.9522 
15734000     262.8686   -3827.3673   -3376.8195   -3827.3673            0    4382.4251    17.264621    20.335443    21.062797    7394.8046    6134.0237    3514.3285    3498.9233   -38.079178    16.810241   -737.52452   -2904.1941 
15735000    260.62041   -3868.3752   -3421.6807   -3868.3752            0    5905.3139    17.132752    20.180119    20.901917    7226.6492    8881.5464    4798.1195    4036.2758   -13.899442    -136.1286   -146.41416   -2799.3004 
15736000    245.40117   -3832.5264   -3411.9172   -3832.5264            0    6260.9905    17.207174    20.267778    20.992712    7321.2334     8044.056    4459.7702    6279.1454    -444.6476   -652.56659    -1000.953   -2743.4145 
15737000    263.11716   -3859.2372   -3408.2634   -3859.2372            0    4489.8028    17.226417    20.290444    21.016189    7345.8233    3486.3671      5361.14    4621.9014     1468.743    239.00969   -839.82777   -2927.2649 
15738000    262.04289   -3846.3698   -3397.2372   -3846.3698            0    5340.5218    17.216803    20.279119    21.004459    7333.5303    5040.0323    5957.4802     5024.053    626.31486     1772.221    743.20726   -2826.0576 
15739000     249.8837   -3846.4908   -3418.1987   -3846.4908            0    6424.2475    17.214026    20.275849    21.001071    7329.9827    4883.9792    7665.6995    6723.0639   -702.45603    812.55605   -1431.9569   -2731.4448 
15740000    265.70619   -3879.6751   -3424.2638   -3879.6751            0    5247.4741    17.237609    20.303627    21.029843    7360.1503    3805.7446    5027.8429    6908.8347   -345.96924   -308.56207    -329.5193   -2860.9987 
15741000    252.43823   -3877.7968   -3445.1263   -3877.7968            0    4570.6193    17.252202    20.320815    21.047646     7378.859     5239.653    5027.3823    3444.8225    553.81945   -1365.8198    -819.2139   -2953.2678 
15742000    264.92699   -3854.0114   -3399.9356   -3854.0114            0    5432.1767    17.263222    20.333795     21.06109    7393.0073    5405.4922    5708.3219     5182.716    871.56345   -684.89056   -426.41242   -2814.2415 
15743000     268.6565   -3830.8918   -3370.4238   -3830.8918            0    3738.0618    17.298872    20.375786    21.104583    7438.9039    4284.0793    3665.6799    3264.4261   -373.66221   -2585.1695   -605.09696    -2964.886 
15744000    267.20529   -3842.7763   -3384.7955   -3842.7763            0    7199.9089    17.210184    20.271323    20.996384    7325.0756    8264.0176     6487.163    6848.5461    239.27689    1285.2222   -689.82468   -2615.6385 
15745000    280.20679   -3871.1366   -3390.8717   -3871.1366            0    5697.4473    17.229957    20.294613    21.020507     7350.352     4784.292     6693.096    5614.9537    64.966646   -763.33975   -773.85267   -2780.1205 
15746000    257.36039   -3854.1935   -3413.0866   -3854.1935            0    4125.0485    17.214094    20.275929    21.001155    7330.0699    3965.3764    4811.2302    3598.5389   -1906.2456     490.6524   -608.18715   -2972.1125 
15747000    258.38213   -3885.3358   -3442.4777   -3885.3358            0    4419.8396     17.24158    20.308303    21.034687    7365.2373    5253.3763    4379.8872    3626.2554     443.4409    1176.8363   -1580.1185   -2967.7231 
15748000     278.2394   -3872.0893   -3395.1965   -3872.0893            0    6061.3485    17.168863    20.222653    20.945973    7272.4409    5349.1543    5427.1684    7407.7227   -27.545687   -1630.8033   -370.20401   -2752.3233 
15749000    253.14609   -3901.5718   -3467.6881   -3901.5718            0    5466.3888    17.201877    20.261539     20.98625    7314.4745    4492.1771    5729.5546    6177.4346   -70.713024   -732.63357    891.64066   -2884.5659 
15750000    280.79058   -3853.4262   -3372.1608   -3853.4262            0      6254.05    17.169027    20.222846    20.946173    7272.6496    5034.6262    7694.2018    6033.3219    21.057899    -588.9921   -749.21496   -2708.8304 
Loop time of 368.061 on 64 procs for 250000 steps with 864 atoms

Performance: 117.372 ns/day, 0.204 hours/ns, 679.236 timesteps/s
193.0% CPU use with 32 MPI tasks x 2 OpenMP threads

MPI task timing breakdown:
Section |  min time  |  avg time  |  max time  |%varavg| %total
---------------------------------------------------------------
Pair    | 26.572     | 32.274     | 41.436     |  53.8 |  8.77
Bond    | 0.86394    | 1.1666     | 2.1075     |  26.2 |  0.32
Kspace  | 162.26     | 171.42     | 178.63     |  25.9 | 46.57
Neigh   | 3.9703     | 4.2427     | 4.642      |  10.8 |  1.15
Comm    | 72.964     | 75.781     | 78.77      |  20.7 | 20.59
Output  | 0.77566    | 0.77604    | 0.77767    |   0.0 |  0.21
Modify  | 67.175     | 69.496     | 73.435     |  19.3 | 18.88
Other   |            | 12.9       |            |       |  3.51

Nlocal:        27.0000 ave          34 max          21 min
Histogram: 1 4 4 6 3 3 6 3 0 2
Nghost:        2553.38 ave        2569 max        2535 min
Histogram: 4 2 2 2 3 5 2 4 4 4
Neighs:        8493.78 ave       11473 max        6215 min
Histogram: 4 2 1 6 8 4 3 2 1 1

Total # of neighbors = 271801
Ave neighs/atom = 314.58449
Ave special neighs/atom = 2.0000000
Neighbor list builds = 14385
Dangerous builds = 1

unfix		3
unfix		2
unfix		1

write_data	data.final.${pid}
write_data	data.final.1
System init for write_data ...
PPPM initialization ...
  extracting TIP4P info from pair style
  using 12-bit tables for long-range coulomb (../kspace.cpp:340)
  G vector (1/distance) = 0.37332206
  grid = 24 24 24
  stencil order = 5
  estimated absolute RMS force accuracy = 0.0032698754
  estimated relative force accuracy = 9.8471326e-06
  using double precision FFTW3
  3d grid and FFT values/proc = 3549 432
Last active /omp style is kspace_style pppm/tip4p/omp
WARNING: Not all mixed pair coeffs generated from mixing. Use write_data with 'pair ij' option to store all pair coeffs. (../write_data.cpp:312)

write_restart   restart.lmp.${pid}
write_restart   restart.lmp.1
System init for write_restart ...
PPPM initialization ...
  extracting TIP4P info from pair style
  using 12-bit tables for long-range coulomb (../kspace.cpp:340)
  G vector (1/distance) = 0.37332206
  grid = 24 24 24
  stencil order = 5
  estimated absolute RMS force accuracy = 0.0032698754
  estimated relative force accuracy = 9.8471326e-06
  using double precision FFTW3
  3d grid and FFT values/proc = 3549 432
Last active /omp style is kspace_style pppm/tip4p/omp
Total wall time: 0:06:08
