LAMMPS (30 Jul 2021)
Processor partition = 1
  using 2 OpenMP thread(s) per MPI task
using multi-threaded neighbor list subroutines
variable        pid world 0 1
variable        phase world IceII IceVI

shell cd ${phase}
shell cd IceVI
include Restart.lmp
echo both
log log.lammps
#include		in.partitions
include		in.temp
variable        temperature equal 115.49
variable	tempDamp equal 100.0
include		in.pressure
variable        pressure equal 7362.8
variable        pressureDamp equal 1000.0 # This is 1 ps
include		in.seed
variable        seed equal 745823

units		real
atom_style	full
read_restart	restart.lmp.${pid}
read_restart	restart.lmp.1
Reading restart file ...
  restart file = 30 Jul 2021, LAMMPS = 30 Jul 2021
  restoring atom style full from restart
  orthogonal box = (-0.040526761 0.015777627 0.025651109) to (24.770528 24.714223 22.784349)
  4 by 4 by 2 MPI processor grid
  restoring pair style lj/cut/tip4p/long/omp from restart
  restoring bond style harmonic/omp from restart
  restoring angle style harmonic/omp from restart
  1920 atoms
  1280 bonds
  640 angles
Finding 1-2 1-3 1-4 neighbors ...
  special bond factors lj:    0        0        0       
  special bond factors coul:  0        0        0       
     2 = max # of 1-2 neighbors
     1 = max # of 1-3 neighbors
     1 = max # of 1-4 neighbors
     2 = max # of special neighbors
  special bonds CPU = 0.002 seconds
  read_restart CPU = 0.009 seconds
include 	in.setup
variable	out_freq equal 1000
variable	out_freq2 equal 10000
variable	out_freq3 equal 1000

timestep	2.0

neigh_modify    delay 7 every 1

include		in.tip4p
# This is TIP4P/Ice

# create groups ###
group ox type 2
640 atoms in group ox
group hy type 1
1280 atoms in group hy

# set charges - beside manually ###
set group ox charge -1.1794
Setting atom values ...
  640 settings made for charge
set group hy charge 0.5897
Setting atom values ...
  1280 settings made for charge

# ### TIP3P Potential Parameters ###
pair_style lj/cut/tip4p/long/omp 2 1 1 1 0.1577 8.5
pair_coeff 1 1*2 0.000 0.000
pair_coeff 2 2 0.21084 3.1668
bond_style  harmonic
bond_coeff  1 450 0.9572
angle_style harmonic
angle_coeff 1 55 104.52
kspace_style pppm/tip4p/omp 1.0e-5
pair_modify tail yes

thermo          ${out_freq}
thermo          1000
thermo_style    custom step temp pe etotal epair emol press lx ly lz vol pxx pyy pzz pxy pxz pyz enthalpy

restart 	${out_freq3} restart.lmp.${pid} restart2.lmp.${pid}
restart 	1000 restart.lmp.${pid} restart2.lmp.${pid}
restart 	1000 restart.lmp.1 restart2.lmp.${pid}
restart 	1000 restart.lmp.1 restart2.lmp.1


include         in.dump
dump            myDump all atom ${out_freq2} dump.water.${pid}
dump            myDump all atom 10000 dump.water.${pid}
dump            myDump all atom 10000 dump.water.1
dump            myDump2 all dcd ${out_freq2} dump.dcd
dump            myDump2 all dcd 10000 dump.dcd
dump_modify     myDump append yes
dump_modify     myDump2 append yes


variable natoms 	equal  "count(all)"                        # NUMBER ATOMS
variable H      	equal  "enthalpy/v_natoms"                 # ENTHALPY-per-atom
variable Vol      	equal  "vol/v_natoms"                 # volume-per-atom
fix AVG all 		ave/time ${out_freq} 1 ${out_freq} v_Vol v_H file vol_enthalpy.dat
fix AVG all 		ave/time 1000 1 ${out_freq} v_Vol v_H file vol_enthalpy.dat
fix AVG all 		ave/time 1000 1 1000 v_Vol v_H file vol_enthalpy.dat




fix 		1 all shake 1e-6 200 0 b 1 a 1
Finding SHAKE clusters ...
       0 = # of size 2 clusters
       0 = # of size 3 clusters
       0 = # of size 4 clusters
     640 = # of frozen angles
  find clusters CPU = 0.000 seconds
fix             2 all nph aniso ${pressure} ${pressure} ${pressureDamp}
fix             2 all nph aniso 7362.8 ${pressure} ${pressureDamp}
fix             2 all nph aniso 7362.8 7362.8 ${pressureDamp}
fix             2 all nph aniso 7362.8 7362.8 1000
fix             3 all temp/csvr ${temperature} ${temperature} ${tempDamp} ${seed}
fix             3 all temp/csvr 115.49 ${temperature} ${tempDamp} ${seed}
fix             3 all temp/csvr 115.49 115.49 ${tempDamp} ${seed}
fix             3 all temp/csvr 115.49 115.49 100 ${seed}
fix             3 all temp/csvr 115.49 115.49 100 745823


run             250000
PPPM initialization ...
  extracting TIP4P info from pair style
  using 12-bit tables for long-range coulomb (../kspace.cpp:340)
  G vector (1/distance) = 0.37509423
  grid = 30 30 30
  stencil order = 5
  estimated absolute RMS force accuracy = 0.0031980316
  estimated relative force accuracy = 9.6307772e-06
  using double precision FFTW3
  3d grid and FFT values/proc = 5400 960
Last active /omp style is kspace_style pppm/tip4p/omp
Neighbor list info ...
  update every 1 steps, delay 7 steps, check yes
  max neighbors/atom: 2000, page size: 100000
  master list distance cutoff = 10.8154
  ghost atom cutoff = 10.8154
  binsize = 5.4077, bins = 5 5 5
  1 neighbor lists, perpetual/occasional/extra = 1 0 0
  (1) pair lj/cut/tip4p/long/omp, perpetual
      attributes: half, newton on, omp
      pair build: half/bin/newton/omp
      stencil: half/bin/3d
      bin: standard
Setting up Verlet run ...
  Unit style    : real
  Current step  : 7250000
  Time step     : 2
Per MPI rank memory allocation (min/avg/max) = 10.55 | 10.56 | 10.56 Mbytes
Step Temp PotEng TotEng E_pair E_mol Press Lx Ly Lz Volume Pxx Pyy Pzz Pxy Pxz Pyz Enthalpy 
 7250000    120.14704    -9725.183   -9267.1277    -9725.183            0    8020.3101    24.811055    24.698446    22.758698    13946.404    7111.0418    9062.4944    7887.3942   -122.39293    211.53604    187.60742   -7635.8447 
 7251000    117.16994    -9734.127   -9287.4218    -9734.127            0    6305.6733     24.82511    24.713412    22.860397    14025.154    5182.4584    7047.9441    6686.6175   -530.16727    360.04851   -221.56297   -7997.6436 
 7252000    118.45172   -9728.8194   -9277.2274   -9728.8194            0    6752.2316    24.826153    24.668842     22.89353    14020.741    6250.4085    7518.2474     6488.039   -29.834989    72.382645    374.99605   -7896.5438 
 7253000    114.91943    -9713.877   -9275.7517    -9713.877            0    8333.3193    24.713155    24.729915    22.798343    13933.303    8461.4451    8437.7753    8100.7376   -653.82799    787.88705   -832.71151   -7582.3968 
 7254000    114.66815   -9735.4654   -9298.2981   -9735.4654            0    6477.3689    24.772081    24.796346    22.809223    14010.727    6382.4738    6712.6522    6336.9807   -324.14546    373.21629    868.72132   -7974.7638 
 7255000    119.74101   -9728.3373     -9271.83   -9728.3373            0    7089.2656    24.736926    24.718552    22.903845    14004.808    6874.1567    7533.3705    6860.2697    22.159268   -1081.1011   -114.35822   -7823.8775 
 7256000    120.80027   -9719.0828   -9258.5371   -9719.0828            0    7652.8395    24.739476    24.789042    22.756549    13955.862    7938.5138     7186.525    7833.4797   -16.198763   -528.17765    -237.5019   -7700.9399 
 7257000    114.62316   -9726.5412   -9289.5454   -9726.5412            0    6482.3976    24.766574    24.874486    22.746215    14012.937     6107.038     6413.829    6926.3259   -323.27996   -96.722286    463.17966   -7964.7747 
 7258000    114.29381   -9723.8754   -9288.1353   -9723.8754            0    7723.2405    24.679205    24.746674    22.880287    13973.637     7712.897    8063.0879    7393.7367   -249.84692   -576.01337    156.53248   -7714.2071 
 7259000    120.50859    -9718.259   -9258.8253    -9718.259            0    6699.6563    24.723867    24.836783    22.834136    14021.559    7451.5269    6653.1997    5994.2424    226.44129     866.4365    432.56694   -7888.8122 
 7260000    114.20717    -9700.196   -9264.7862    -9700.196            0    8472.8772    24.716364    24.779602    22.773487    13947.887    8408.4739    8219.3924    8790.7652   -312.41514    258.92528    373.40622   -7541.2705 
 7261000    113.59328   -9710.6477   -9277.5783   -9710.6477            0    7958.4636    24.635376    24.805631    22.832727     13952.99    9068.6119    7394.4932    7412.2858   -427.87909    178.61278    773.43483   -7658.1103 
 7262000    121.35251   -9721.4139   -9258.7628   -9721.4139            0    7684.8478    24.731096     24.77572    22.835695    13992.132     7759.629    8067.1633    7227.7511   -1256.5178    102.35793    1167.9902   -7690.5859 
 7263000    114.39579    -9705.753   -9269.6241    -9705.753            0    6427.9523    24.815701    24.807388    22.814028    14044.606    6326.8092     6115.977    6841.0706    -613.2049    78.152228    147.43395   -7953.0113 
 7264000    111.52282   -9723.2446   -9298.0687   -9723.2446            0    7525.7435    24.735706    24.777558    22.811346    13980.854    7674.5953    7650.0146    7252.6207   -291.49972   -911.83863    92.654195   -7763.5966 
 7265000    114.85035   -9715.9922   -9278.1303   -9715.9922            0    7545.9167    24.814192    24.729682    22.788386    13984.027    6198.8616    8710.9623    7727.9262   -354.17267   -1236.2742   -241.17911   -7739.1958 
 7266000    117.58219   -9717.5978   -9269.3208   -9717.5978            0    8081.6968    24.765278    24.760006    22.745055    13947.005    8371.8031    8146.5928    7726.6946     -257.966   -561.48132   -82.737841   -7625.4814 
 7267000    115.27552    -9713.286   -9273.8031    -9713.286            0    7403.9021     24.73598    24.717151    22.881343    13989.721    7158.8491    8600.7689    6452.0884    278.92413   -638.83875   -108.27497   -7763.2166 
 7268000    118.40075   -9744.1094   -9292.7117   -9744.1094            0    6936.0144    24.803942    24.701857    22.829067    13987.447    5962.6289    7831.4714    7013.9429   -195.37086   -144.49745   -181.16457   -7877.8163 
 7269000    116.84249   -9730.5867   -9285.1298   -9730.5867            0    7027.5398    24.762909    24.782864    22.805446    13995.607    6808.3014    7036.5104    7237.8074    380.32686    401.56113   -756.19919   -7850.7276 
 7270000     114.8446   -9723.7403   -9285.9003   -9723.7403            0      7330.05    24.725807    24.757815    22.843687    13983.922    7973.4965    7400.6687    6615.9849   -398.79252   -46.036052   -330.47289   -7791.0015 
 7271000    115.99423   -9731.6456   -9289.4227   -9731.6456            0     7025.351    24.747304     24.75305    22.864253    14005.984    7398.0868    7738.4346    5939.5315    -108.4312   -446.41638   -242.98111   -7854.4041 
 7272000    117.58718   -9713.1633   -9264.8674   -9713.1633            0    7155.7829    24.772937     24.78625    22.782539    13989.121    7063.6031    7172.7261    7231.0195    79.472002    193.10578    777.72089   -7804.9661 
 7273000    113.31654   -9726.5159   -9294.5015   -9726.5159            0    8084.3293    24.682106    24.677787    22.891093    13942.959    8751.4876    8252.8883    7248.6119   -837.35036   -174.27991    548.14309   -7650.6037 
 7274000    120.30704   -9712.5989   -9253.9336   -9712.5989            0     7410.311    24.729096    24.825348    22.807202    14001.533     7240.118    7284.1783    7706.6366    187.90733    21.000158    323.38664   -7740.7629 
 7275000    116.84385   -9727.0652   -9281.6032   -9727.0652            0    5587.3729    24.813718    24.855626    22.841135     14087.51    5467.2053    5373.6857    5921.2277   -462.82063   -103.14533    282.14473   -8133.6669 
 7276000    117.86731   -9713.5316   -9264.1677   -9713.5316            0    7281.0492    24.775224     24.77019    22.785154    13982.953    6218.0731    8218.6146    7406.4597   -176.74878   -159.16516    397.93896    -7779.365 
 7277000    114.85261   -9711.4162   -9273.5457   -9711.4162            0    7219.1499    24.707947    24.716572    22.895215    13982.011    7752.6086    8011.5507    5893.2904   -338.32633    228.91507    503.67191   -7801.4651 
 7278000    117.12403   -9734.5259   -9287.9957   -9734.5259            0    7202.3351    24.775632    24.827366    22.731005    13982.153    6872.6422    6506.9694    8227.3936   -632.03731   -560.07274    1042.7698   -7819.3289 
 7279000    113.12097   -9721.1083   -9289.8396   -9721.1083            0    6113.1318    24.715482    24.822465    22.885023    14039.943    7030.1997    5644.7675    5664.4281   -9.9453449    65.740605    186.92598   -8038.1259 
 7280000    116.98474   -9705.2485   -9259.2493   -9705.2485            0    8633.9144     24.69161    24.760754    22.785625    13930.741    9327.3232     8057.665    8516.7551   -388.69972   -188.69735   -49.668232   -7505.1351 
 7281000    121.46502   -9725.1374   -9262.0573   -9725.1374            0     6962.905    24.752192    24.785306    22.839823    14012.018    7263.9162     6485.979    7138.8198   -435.60789   -704.27472    953.29331   -7839.1813 
 7282000    117.80357   -9714.3492   -9265.2282   -9714.3492            0    6304.0491     24.82565    24.853244    22.749662    14036.495    5963.0076     5780.683    7168.4568    51.900886    115.05218   -329.59494   -7974.7397 
 7283000    117.47112   -9716.1639   -9268.3104   -9716.1639            0     7477.125    24.735521    24.749721    22.832575    13978.039     7649.645    7724.6669    7057.0631   -266.60071   -254.13867    137.03428   -7744.0584 
 7284000    115.30484   -9738.0644   -9298.4698   -9738.0644            0    6676.7245    24.725325    24.825587    22.827748    14012.144    6673.8948    6338.0169    7018.2618    57.829109    92.576176    452.49315   -7934.0628 
 7285000    114.46905   -9737.0185   -9300.6103   -9737.0185            0    7626.7198    24.694383    24.812112    22.764575    13948.306     7658.046    7179.5601    8042.5531   -38.729597    378.26752    386.89851   -7749.1698 
 7286000    118.04345   -9734.9275   -9284.8921   -9734.9275            0     7034.176    24.745143    24.831826    22.776594    13995.467    6816.1649    6534.6969    7751.6664    370.21422   -757.13094   -521.36847   -7849.1497 
 7287000    116.64446   -9726.9721   -9282.2703   -9726.9721            0    5885.3017    24.791408    24.829941    22.823284     14049.31    5571.0987    5849.0405     6235.766   -280.18131    933.90472   -301.20469   -8076.4027 
 7288000    116.56116   -9710.3336   -9265.9493   -9710.3336            0    8001.6879    24.710436    24.809761    22.794025    13974.105    8072.3639    7947.2055    7985.4942   -733.05521    442.53974   -58.582945   -7635.2214 
 7289000    115.62678   -9724.0503   -9283.2283   -9724.0503            0    7735.8597    24.635907    24.822798    22.834363    13963.947    8863.7163    6849.1785    7494.6842     23.63823    -436.4985   -1236.1108   -7707.8216 
 7290000    115.34405   -9723.6797   -9283.9355   -9723.6797            0    7979.5546    24.706312     24.80374    22.779037    13959.198    8734.1673    7478.2492    7726.2473   -569.96061   -689.02255    258.23586   -7659.4532 
 7291000    114.19522   -9736.9962    -9301.632   -9736.9962            0    7305.9892    24.730607    24.840814    22.750811     13976.47    7455.8699    7076.3772    7385.7207    14.601341   -168.91014   -2.4792784   -7812.4341 
 7292000    116.40543   -9724.4127   -9280.6221   -9724.4127            0     7689.689    24.697077    24.799606    22.788665    13957.551    8515.8235     7275.139    7278.1046    -42.97294   -334.11921    142.75516   -7715.3354 
 7293000    119.64292   -9726.1557   -9270.0223   -9726.1557            0     7660.519    24.688165    24.823222    22.808925    13978.217    7725.3836     6903.217    8352.9565   -375.53598   -481.77108     184.8158   -7708.3645 
 7294000    114.61832   -9722.8627   -9285.8854   -9722.8627            0    5904.6649    24.770948    24.864858    22.798815    14042.385    6585.2856    5456.9645    5671.7446   -628.85205    448.02372   -6.8883685   -8076.6468 
 7295000    115.53322   -9748.2319   -9307.7666   -9748.2319            0    7157.8934    24.780888    24.721065    22.815748    13977.154    6642.7222    7913.2515    6917.7066   -101.53123   -542.76317    362.55118    -7848.684 
 7296000    119.80416   -9715.0778   -9258.3297   -9715.0778            0    7832.6907    24.804844    24.666187    22.843716     13976.72    6960.5198    8965.0024    7572.5497   -410.91989   -959.45903   -172.36524   -7661.7443 
 7297000    116.63446   -9735.1441   -9290.4803   -9735.1441            0    6416.4215     24.80694    24.814401    22.764194     14012.94    6107.0799    5840.9537    7301.2311   -418.89558   -462.62976    182.80838   -7979.1924 
 7298000    114.80078   -9719.2787   -9281.6058   -9719.2787            0    7724.2776    24.649081    24.723983    22.922957    13969.787     8341.269    8094.7618    6736.8021   -388.69127   -722.01373   -322.23278   -7707.8999 
 7299000    119.34657   -9724.6474   -9269.6438   -9724.6474            0     7027.993    24.758622    24.757116    22.848391    14004.968    6655.4573    7135.4107    7293.1111   -110.23578   -18.008293    195.88995   -7834.1896 
 7300000    114.96639   -9699.5655   -9261.2612   -9699.5655            0    7870.8406    24.729896    24.826594    22.747455    13966.007     7796.439     7554.255    8261.8279    -240.8759   -569.02476   -118.14029   -7658.1293 
 7301000    115.52453   -9722.0581   -9281.6259   -9722.0581            0    6630.8824    24.729724    24.785288    22.875959    14021.438    6646.5334    6995.7943    6250.3194   -579.29442    294.41803     672.2029   -7925.6881 
 7302000    115.40684   -9719.8925    -9279.909   -9719.8925            0    7304.0692    24.714432    24.781517    22.835686     13985.97    8028.8638     7036.058    6847.2858    115.29768   -729.97026     84.70377   -7790.0905 
 7303000    115.70019   -9716.6201   -9275.5182   -9716.6201            0    8227.8087    24.693493    24.829165    22.748882    13947.767    8817.3312    7933.9395    7932.1554    149.47385   -548.37612     535.8071   -7601.8677 
 7304000    118.30015   -9724.6639   -9273.6498   -9724.6639            0    6519.7549    24.695956    24.773379    22.906997    14014.553    7566.7003    6248.6071    5743.9573    371.36832   -72.326131   -48.303666   -7941.0909 
 7305000    120.03095   -9719.9732   -9262.3604   -9719.9732            0    8111.3173    24.707382    24.728786    22.813467    13938.654    7978.4473    8533.2855    7822.2191   -79.363027   -816.17987     21.79903    -7613.484 
 7306000    117.78771   -9713.7859   -9264.7255   -9713.7859            0    7627.8982    24.771715    24.807145    22.757528    13984.855    7484.7192    7344.8824    8054.0928   -597.66697   -105.53081     194.0983   -7708.9793 
 7307000     118.2951   -9727.8289   -9276.8341   -9727.8289            0     7212.304    24.708905    24.715377    22.919309    13996.591     7522.133    7347.1727    6767.6062    37.123092   -892.86226    -50.04509   -7804.6159 
 7308000    115.82147   -9728.6209   -9287.0567   -9728.6209            0    7491.2222     24.74366    24.751319    22.818107    13974.681    7217.9427    7485.2936    7770.4304   -194.42256    28.487401    53.315873   -7760.2978 
 7309000    113.79702    -9718.361   -9284.5149    -9718.361            0    6589.9204    24.801668    24.778099    22.817133        14022    5853.1961    7060.3618    6856.2031   -508.45613   -221.82301    195.86886   -7936.8994 
 7310000      115.148    -9740.806   -9301.8093    -9740.806            0     7031.753    24.795837    24.772618    22.769136     13986.12    7542.3061    6973.4857    6579.4672   -421.35788    579.04777    196.27984   -7867.5201 
 7311000    117.43569   -9735.4246   -9287.7062   -9735.4246            0    7671.0598    24.769418    24.694226    22.815619    13955.438    6870.2953    8583.8896    7558.9944    -386.5901   -307.94666   -789.70166    -7726.448 
 7312000    118.01549   -9733.7839    -9283.855   -9733.7839            0    7203.9684    24.799265    24.738994     22.80368     13990.26    6825.4797    7213.7196    7572.7059    292.91951   -55.277002   -659.18427   -7814.0035 
 7313000    121.29398   -9715.9056   -9253.4776   -9715.9056            0    7584.0891    24.917264    24.589317    22.789203    13962.911    5899.1836    9105.4824    7747.6013    394.55633    657.34106   -551.72575   -7709.0937 
 7314000    115.72371   -9716.6609   -9275.4693   -9716.6609            0    7766.8065    24.797272    24.697283    22.824965    13978.585    7377.6221    8021.6292    7901.1681   -443.38016   -713.93478    106.18941   -7692.1024 
 7315000    110.53601   -9722.1263   -9300.7126   -9722.1263            0    7616.4051    24.780797    24.664288    22.864978    13975.091     7414.444    7902.0945    7532.6768   -89.625858   -98.646035   -1128.9611   -7748.3951 
 7316000    120.51528   -9708.4334   -9248.9741   -9708.4334            0    7647.5612    24.818912    24.748145    22.750833    13974.063    6796.0665    8156.6635    7989.9536    117.91424   -166.64602    108.85275   -7690.4213 
 7317000    114.79526   -9737.2431   -9299.5912   -9737.2431            0    6924.9158    24.834654    24.761365    22.770188    14002.297    5895.6937    7527.3636      7351.69   -278.63696    33.853042    588.82668   -7885.4601 
 7318000     109.3925   -9710.3872   -9293.3331   -9710.3872            0    7360.9991     24.70798    24.625396    22.997916    13992.939    7806.3286    8094.5399    6182.1287   -454.30232    272.13547   -732.59865   -7791.1543 
 7319000    116.07556   -9743.1685   -9300.6355   -9743.1685            0    6696.3755     24.74362    24.788146     22.83353     14004.91    6710.2416    6422.8294    6956.0556   -7.4194938    349.39804   -162.89924   -7932.9192 
 7320000    112.81549   -9717.8791    -9287.775   -9717.8791            0    7814.7136    24.763375    24.804112    22.720607    13955.758    7819.9444    7029.5117    8594.6848    145.75767   -403.73156    334.91522   -7697.2431 
 7321000    118.72071   -9731.7939   -9279.1764   -9731.7939            0    6892.5252    24.682656    24.875381    22.808125    14003.972    7157.0642    6360.1634    7160.3479    -520.5395   -429.13434   -284.83266   -7871.4914 
 7322000    116.98141   -9711.8649   -9265.8784   -9711.8649            0    7231.9224    24.681475    24.802192    22.867833    13998.651    7961.1259    7138.6103    6596.0309    278.43953   -542.08853    187.05928   -7789.4383 
 7323000    111.91255   -9739.3668   -9312.7051   -9739.3668            0    7296.4851    24.699158    24.802484    22.829168    13985.159    7447.1485    7279.2592    7163.0477   -64.211038   -900.80667    503.72755   -7824.5198 
 7324000     116.6853   -9710.9667   -9266.1091   -9710.9667            0    8020.4971    24.743998    24.824783    22.714108    13952.468    7445.0491    7343.9912     9272.451   -408.30872   -655.91773   -763.98016   -7634.0788 
 7325000    116.50803   -9707.0118   -9262.8301   -9707.0118            0    7536.5128    24.764994    24.768926    22.814945     13994.74    7375.7369    7789.0757    7444.7258    129.44462   -310.94556     1005.899   -7724.6359 
 7326000    118.43921   -9735.3558   -9283.8115   -9735.3558            0    6492.5636     24.74901    24.763168    22.882727    14023.997    6539.6771    6867.7411    6070.2724   -409.71236   -733.23099    58.222295    -7955.916 
 7327000    117.22539   -9741.4522   -9294.5356   -9741.4522            0    7606.1899    24.755904    24.759156    22.784862    13965.646    7314.5591    7943.0075    7561.0032    856.87815   -47.137013    456.74635   -7745.3477 
 7328000    116.05113   -9705.7671   -9263.3273   -9705.7671            0    7618.4342    24.755728    24.844064    22.738539     13984.95    6841.3464    7139.8636    8874.0926    296.43152   -402.88816   -116.22997   -7709.5008 
 7329000    116.94618   -9722.9612   -9277.1091   -9722.9612            0    8258.0533    24.621453    24.704601     22.92167    13942.408    8541.3535    8810.8678    7421.9386    106.24783     582.5538   -762.65937   -7597.9519 
 7330000    112.61807   -9715.3956   -9286.0442   -9715.3956            0    6717.7843    24.752503    24.791084    22.842662    14017.202    7238.1502    6454.5041    6460.6985   -554.02366    156.05932    106.17672   -7912.7509 
 7331000    118.07864   -9712.6458   -9262.4762   -9712.6458            0    7286.5722    24.759589    24.846089    22.752403    13996.799    7270.3812    6523.3932    8065.9423   -146.80359    753.31006    1123.4801   -7775.0758 
 7332000    117.17649   -9732.4564   -9285.7262   -9732.4564            0    7400.2434    24.748213    24.789996    22.781206    13976.454    7038.9301    7588.4935    7573.3066   -45.328955    416.88355    455.71799    -7777.318 
 7333000    113.59003   -9741.1847   -9308.1277   -9741.1847            0    6779.1998     24.68601    24.762986    22.914739    14007.764    7283.5403    6445.9143    6608.1449   -669.87629    124.94291    502.33729   -7923.2126 
 7334000    113.80161   -9695.6204   -9261.7568   -9695.6204            0    7130.8031    24.797982    24.828891    22.763638    14015.717    6956.7559    6168.3186    8267.3347   -550.15339   -316.54273   -724.63258    -7804.186 
 7335000    110.60989   -9710.5604    -9288.865   -9710.5604            0    7050.6701    24.731678    24.823656    22.809725     14003.59    7568.1242    6821.0228    6762.8632   -508.60597     345.0225    145.13426   -7848.9208 
 7336000     110.4603   -9695.0387   -9273.9137   -9695.0387            0    7711.4334     24.73287    24.743385    22.863519      13991.9    7426.7462    7820.5309    7887.0231    411.00203   -372.13934    446.72534   -7700.3378 
 7337000    115.52746   -9719.5578   -9279.1144   -9719.5578            0    7157.6723    24.784775    24.787554    22.760443    13982.968    6683.1773    6946.8771    7842.9625    1070.7625   -260.72095   -234.21533     -7819.47 
 7338000    118.27759   -9712.3508   -9261.4227   -9712.3508            0    7321.4359    24.741494    24.788722     22.80618    13987.259    7675.7438    7076.2069    7212.3568    793.51693   -581.14651    1065.3909   -7767.9243 
 7339000    106.57615   -9710.2145   -9303.8976   -9710.2145            0    7419.9057    24.725213    24.734865     22.85505    13977.572    7575.6895     7514.011    7170.0166    60.569493    413.08822   -410.51167   -7791.3605 
 7340000    115.25561   -9710.3556   -9270.9486   -9710.3556            0    8057.8971    24.826464    24.779032    22.674235     13948.64    6155.9958    8467.0602    9550.6352    53.964389   -162.26093    1099.1654    -7631.758 
 7341000    113.74246   -9730.9564   -9297.3182   -9730.9564            0    6672.3459    24.808628    24.699589    22.837116    13993.737    6461.6297    7161.8118    6393.5962    249.75715    107.36593    160.58383   -7935.5971 
 7342000    115.77132   -9710.5263   -9269.1532   -9710.5263            0     7999.882    24.772323    24.632653    22.856936    13947.486    7526.9716    9488.0119    6984.6624   -210.29971   -346.69516     279.4426    -7641.899 
 7343000    114.08293   -9714.8705   -9279.9343   -9714.8705            0    6711.8539    24.795954     24.81587    22.794971    14026.502      6465.06    6003.1444    7667.3575   -138.15464   -607.27367    43.940863   -7906.9431 
 7344000    114.80026   -9717.2691   -9279.5982   -9717.2691            0    7348.0603    24.746518    24.753603    22.824166    13981.296    7415.5862    6678.4981    7950.0966   -420.99387    179.25529    10.149998   -7781.3076 
 7345000    114.23424   -9740.1148   -9304.6018   -9740.1148            0    7606.2115    24.785338     24.68637      22.8059    13954.019    7584.4255    8298.1638    6936.0453    98.015128   -716.99892   -149.58341   -7756.6993 
 7346000    116.90694   -9716.2772   -9270.5746   -9716.2772            0    8631.9817    24.757447    24.676823    22.805987    13932.978    7131.9314    9759.4085     9004.605   -250.83989    618.56635    319.25313   -7516.5715 
 7347000    118.97079   -9727.1733   -9273.6024   -9727.1733            0    7021.0388     24.76288    24.803567     22.79232     13999.22    7362.2776    6284.0731    7416.7657    190.63606    634.21007    370.14359   -7840.1572 
 7348000    107.17715   -9712.8361   -9304.2279   -9712.8361            0    7930.2003    24.777301    24.706857    22.819513    13969.404    7360.9412    8729.0838    7700.5758   -290.80615   -1269.6412    700.13473   -7688.6127 
 7349000    116.89744   -9713.6318   -9267.9654   -9713.6318            0    7904.6065    24.774531    24.760599    22.761884    13962.873    7326.8269      8607.81    7779.1826   -94.630943     295.7138    808.55513   -7658.3174 
 7350000    114.00311   -9731.2546   -9296.6228   -9731.2546            0    8167.0241    24.771182    24.741786    22.753222    13945.069    7245.8879    8895.7592    8359.4252    13.544496    16.125962    127.48202   -7635.6581 
 7351000    116.25514   -9734.0759   -9290.8583   -9734.0759            0    6291.5261     24.73812    24.761395    22.904891    14030.399    6437.5136    6435.3133    6001.7513   -527.82461   -25.946309   -1082.3574   -8003.4926 
 7352000    115.45209   -9701.8752   -9261.7192   -9701.8752            0    8289.7599    24.749773    24.789041    22.752138    13958.963    8634.4665    7496.0432      8738.77   -181.26264   -61.721742   -578.09357   -7574.1135 
 7353000    116.74033    -9722.314   -9277.2466    -9722.314            0    7634.0941    24.727322     24.82475    22.778774    13982.741    6880.0762    7633.3754    8388.8307   -691.06603    23.881274    119.31994   -7720.4721 
 7354000    113.23925   -9717.7147    -9285.995   -9717.7147            0    6642.0584    24.694612    24.796043    22.907376    14026.842    7659.1665    6183.2165    6083.7922   -324.07634    763.88133    537.93691   -7927.2484 
 7355000    118.25891   -9727.1568   -9276.2999   -9727.1568            0    6819.5483    24.722686    24.872414    22.780681    14008.134    8147.8041    5848.6134    6462.2274   -53.652958    495.65822   -181.87493   -7883.1053 
 7356000    114.14335   -9730.8077   -9295.6412   -9730.8077            0    6867.1437    24.736965      24.7967    22.829986    14003.802    6719.8909    7362.8599    6518.6804    -69.42966   -621.81642   -72.347641    -7893.157 
 7357000    115.85091   -9722.6591   -9280.9826   -9722.6591            0    6688.7958    24.705935    24.811873    22.856656    14011.143    6513.8105    7052.2775    6500.2994   -157.81398    611.85534   -12.349177   -7914.2065 
 7358000    114.04208   -9706.7286   -9271.9482   -9706.7286            0    9093.2808    24.687266    24.801489    22.713272    13906.904    9002.2998    8702.3521    9575.1905   -490.18686   -462.89752   -100.82054   -7427.6678 
 7359000     116.0007   -9731.0285   -9288.7809   -9731.0285            0    7047.4196    24.678652    24.800349    22.857817     13989.88    7537.0108    6965.9735    6639.2745   -737.75123   -414.56184   -557.72645   -7850.9096 
 7360000    114.84125   -9727.2105   -9289.3833   -9727.2105            0    7401.6022    24.668971    24.832116    22.801035    13967.521    7293.7391    7622.1013    7288.9662   -320.65154    338.83769   -3.0466052   -7781.6625 
 7361000    119.25618   -9735.9038   -9281.2449   -9735.9038            0    6703.6919    24.727611    24.830486    22.804476    14001.916    7845.8666    5676.2262     6588.983   -11.522137   -481.41125   -310.92077    -7912.327 
 7362000    116.14625   -9713.9053   -9271.1029   -9713.9053            0     7441.449    24.656836    24.794866    22.871323     13982.68    8672.8181    6801.5545    6849.9745   -675.67289    306.43666   -142.17897     -7753.62 
 7363000    116.06716   -9718.7492   -9276.2482   -9718.7492            0    8127.9212    24.761564    24.747704    22.758719    13946.358    6743.4998    8639.9655    9000.2984    21.110994   -763.11723   -326.66018   -7623.0833 
 7364000    118.40628   -9706.2856   -9254.8669   -9706.2856            0    6623.1224    24.776583    24.814725    22.797247    14016.297    6572.5684    6530.4303    6766.3685   -426.67331     815.9808    345.47113   -7901.0125 
 7365000     115.7723   -9699.4081   -9258.0313   -9699.4081            0    7569.1541    24.676796    24.764929     22.88788    13987.221    8098.9163    7603.6499    7004.8961    251.59945    441.65143    -43.42161    -7714.005 
 7366000    115.00575    -9731.988   -9293.5337    -9731.988            0    6755.8968    24.747194    24.891658     22.74555    14011.229    6929.4651    6458.8007    6879.4247    29.551677   -234.63251   -318.57266   -7913.0377 
 7367000    110.43307   -9721.4175   -9300.3963   -9721.4175            0    7904.8339    24.725649    24.732136    22.838797    13966.338    7643.4878    8228.6812    7842.3326    467.56597    596.32714    151.67974   -7690.3025 
 7368000    108.97302   -9708.8552   -9293.4003   -9708.8552            0    9249.8921    24.737871    24.651844    22.829018    13921.914    7871.8316     10026.84    9851.0051    212.77656   -571.00144    451.69519   -7415.3314 
 7369000    114.89242   -9717.9683    -9279.946   -9717.9683            0    7468.2427    24.794717    24.760088    22.776365    13982.851    6841.1864    7164.3412    8399.2005   -495.12465    178.39136   -225.75021   -7756.9805 
 7370000    116.42166   -9735.4723   -9291.6199   -9735.4723            0    6777.5951    24.789327    24.791593    22.796862    14010.196    6414.5754     7106.549    6811.6609    18.428093   -250.19929    559.79226   -7906.7922 
 7371000    113.13622   -9717.8156   -9286.4887   -9717.8156            0    7200.6065     24.69316    24.710978    22.927759    13990.339    7712.5274    7303.3665    6585.9256    201.65505   -875.43656   -499.66129   -7817.3149 
 7372000    115.39113   -9706.0481   -9266.1245   -9706.0481            0    7671.1462    24.762139    24.772557    22.794778    13982.807    8355.9495    7421.9852    7235.5039   -571.83746   -391.93618    158.58884   -7701.7867 
 7373000    116.98497   -9740.6623   -9294.6623   -9740.6623            0    7147.6476    24.836205     24.77067    22.719372    13977.172    6022.3614    7790.7314    7629.8499   -321.28309    535.63706     782.6445   -7837.6664 
 7374000    121.18145   -9722.0774   -9260.0785   -9722.0774            0    8144.3606    24.710206    24.715061    22.858413    13959.959    8745.9494    7794.6746    7892.4579    526.87865    247.91126   -674.28723   -7601.9544 
 7375000    115.77671   -9699.4432   -9258.0496   -9699.4432            0    7517.3807    24.739888    24.821223    22.763758    13978.638     7367.966    7624.6328    7559.5433    43.914299    815.31444    762.38821   -7725.5256 
 7376000    113.66507   -9721.4258   -9288.0827   -9721.4258            0    6132.1913    24.778151    24.870749    22.779656    14037.989    6811.2772    5698.0765    5887.2203    817.46189   -406.80694   -178.06604   -8032.6411 
 7377000     115.6069   -9713.2244   -9272.4782   -9713.2244            0    7367.8728    24.726139     24.79488    22.827795    13995.303    6938.9547    7478.0146    7686.6492    316.27705   -377.73463    39.497261   -7768.6428 
 7378000    116.22106    -9728.783   -9285.6953    -9728.783            0    7507.3365    24.697201    24.719559    22.901245      13981.3    7176.7178    8817.6212    6527.6704   -36.129445   -349.40464   -156.12792   -7754.9275 
 7379000    118.04366   -9726.7435   -9276.7072   -9726.7435            0    6740.8499    24.797286    24.803078    22.767202    14002.945    6207.2157    6518.0111    7497.3229    -780.3734   -456.28273    -53.00954   -7900.1003 
 7380000    114.36406   -9736.4454   -9300.4375   -9736.4454            0    7142.4704     24.76225    24.803727    22.781638    13992.393    7682.6807    6775.0087    6969.7217   -31.069882     136.6747   -493.20305   -7842.9114 
 7381000    116.08377   -9738.4457   -9295.8814   -9738.4457            0    7257.6601    24.638966    24.796211    22.920101    14003.105    7932.1147    7578.9872    6261.8785    109.95699    -275.7593   -524.12032   -7813.7154 
 7382000    116.70081   -9728.2705   -9283.3537   -9728.2705            0    7640.6547    24.706636    24.826076    22.767267    13964.732    8531.6134     7034.977    7355.3738    333.14007    5.6839968    783.16733   -7727.2481 
 7383000    116.56671   -9731.5702   -9287.1648   -9731.5702            0    7384.8983     24.71697    24.798786    22.815188    13984.589    8132.5724    6435.7222    7586.4003    266.17892   -688.94993    225.01456   -7781.0082 
 7384000    116.14525   -9737.0691   -9294.2705   -9737.0691            0    7895.7752    24.770283    24.771756    22.719224    13940.594    7903.1796    7571.3964    8212.7494   -468.85751    119.01994   -507.62975   -7688.9863 
 7385000    113.47167   -9733.5513   -9300.9455   -9733.5513            0    7593.5894    24.743295    24.712908    22.809816    13947.718    7079.3078    8192.3581    7509.1023    57.120319    279.53491   -1027.8223   -7756.3095 
 7386000    114.85379    -9716.909    -9279.034    -9716.909            0    7697.4101    24.734074    24.790306    22.801056    13980.816    8261.7755    7187.1685    7643.2862   -276.93485   -602.91451     13.19508    -7709.564 
 7387000    114.51462   -9729.6895   -9293.1075   -9729.6895            0    6912.2708    24.682273    24.796671    22.866906     13995.42    7777.4811    6814.3405    6144.9907   -670.63635   -306.76147   -402.38071   -7882.2519 
 7388000    114.43504   -9716.9577   -9280.6791   -9716.9577            0    7032.8835    24.667336    24.923503    22.782922    14006.859    7841.1077    6097.5098    7160.0331    142.86161   -278.25609   -113.18905   -7844.0321 
 7389000    113.41535   -9727.4528   -9295.0617   -9727.4528            0    7730.2053    24.686804    24.817908    22.775132     13953.75    8273.6151    6880.5388    8036.4621   -396.41666   -404.82036    62.196297   -7721.9563 
 7390000    117.26825   -9729.4178   -9282.3378   -9729.4178            0    6574.6448    24.628896    24.858671    22.906651    14024.405    7758.8467    6028.0814    5937.0063   -724.89564   -1001.8663    824.30755   -7937.6154 
 7391000    113.22205   -9728.4807   -9296.8266   -9728.4807            0     7496.128    24.653655    24.810172     22.84448    13973.087    8737.3131    7094.7042    6656.3668   -457.12582   -291.99737    469.52924   -7769.2421 
 7392000    114.26741   -9726.3477   -9290.7083   -9726.3477            0    7945.6673    24.686712    24.822105     22.75709    13945.002    8015.6904    7440.1149    8381.1967    500.79577     715.6887    568.47422   -7674.7696 
 7393000    116.23034   -9724.7483   -9281.6252   -9724.7483            0    7151.7499    24.647791    24.834872    22.856153    13990.817     7327.962    6496.7692    7630.5185    532.24322    560.25311     13.64871   -7822.3699 
 7394000    114.45182   -9720.1082   -9283.7657   -9720.1082            0      7512.69    24.632934    24.891907     22.77591    13965.293    8051.4388     6199.378    8287.2531    299.15353   -315.69592    235.26577   -7753.6601 
 7395000    122.40884   -9725.4471   -9258.7688   -9725.4471            0     6982.599     24.75371    24.802464     22.81868    14009.598    7196.7168     7188.047    6563.0332    156.95848   -84.699908   -202.12835   -7832.1148 
 7396000    113.83062    -9720.479   -9286.5048    -9720.479            0    7093.9929    24.683814    24.810367    22.862248    14001.172    7455.1877    6970.0679     6856.723     -1088.89   -252.26134   -508.81879    -7837.963 
 7397000    110.06697   -9712.9071   -9293.2816   -9712.9071            0    6256.9257    24.748304     24.81408    22.850376    14032.562    6189.6982    6628.0546    5953.0242    -324.3814    16.420979    601.33443   -8012.7985 
 7398000    109.34808   -9717.1142   -9300.2295   -9717.1142            0    6444.2438     24.76593    24.802599      22.8169    14015.496    6035.2618    6851.0614    6446.4084    118.55287    492.44345   -287.44924   -7983.0155 
 7399000    116.35417   -9721.4173   -9277.8222   -9721.4173            0    8282.6919     24.72965    24.739234    22.797825     13947.54    8142.7617    8040.3005    8665.0136    480.25907   -619.04093    -503.2005   -7593.0351 
 7400000    111.27951   -9717.1219   -9292.8736   -9717.1219            0    8068.1796    24.760449    24.779068    22.740711    13952.355    7999.8629    7791.3099     8413.366   -406.08388   -252.45029    684.50212    -7651.154 
 7401000    117.04218   -9725.7441    -9279.526   -9725.7441            0    6841.2507    24.779737    24.738186    22.840925    14001.618    6134.0102    7388.8123    7000.9296    492.75255    143.80796   -273.25358   -7882.5478 
 7402000    115.67156   -9727.8847    -9286.892   -9727.8847            0    8299.1829    24.744801    24.649119    22.854182    13939.624    8180.0014    9532.7389    7184.8083   -388.61119     442.1992    236.32859   -7599.7086 
 7403000    117.69765   -9719.9756   -9271.2585   -9719.9756            0    7170.8198    24.855075    24.749635    22.720058    13976.335     6404.621    8024.9944    7082.8439   -378.72129    143.48898    638.31982   -7809.6266 
 7404000    113.61799   -9723.4664   -9290.3028   -9723.4664            0    8018.8573    24.761591    24.648408    22.860886    13952.771    7697.4597    8717.8961     7641.216   -137.97786    101.84127    572.25565   -7658.5707 
 7405000    118.60509   -9736.2553   -9284.0785   -9736.2553            0    7220.7305    24.825148    24.756321    22.761349    13988.655    6118.3752    7932.2116    7611.6047    3.7187353    330.67251    161.45446    -7810.976 
 7406000    110.16595    -9743.142   -9323.1392    -9743.142            0    7895.0788    24.735494    24.685088    22.838301    13945.018    7592.3601    8371.7417    7721.1345   -439.56519   -195.69557    161.16592   -7717.4872 
 7407000    112.99661   -9713.4148   -9282.6202   -9713.4148            0    8748.3053    24.726374    24.719535     22.79523    13933.002    7561.0539    10182.046    8501.8155   -306.22608   -163.79055    613.14739   -7504.9773 
 7408000     120.8948   -9747.7588   -9286.8527   -9747.7588            0    6561.5011    24.753924    24.781258    22.857416    14021.502    5896.6016    6755.4774    7032.4244    -50.65051   -580.68983    449.33246   -7945.0964 
 7409000    119.12671   -9728.7999   -9274.6346   -9728.7999            0    6618.7225    24.687264    24.814103    22.879155    14015.595    7190.6786    6369.6797    6295.8092    -309.5179   -196.10187    639.49837   -7921.7473 
 7410000    113.72658   -9721.0496    -9287.472   -9721.0496            0    6792.2301    24.734941     24.84279    22.812134    14017.713    6959.5746    6885.3392    6531.7766   -490.91834   -237.44462    420.51346   -7898.9095 
 7411000    112.71282   -9736.4119   -9306.6992   -9736.4119            0    6945.0786    24.696209    24.856991    22.809685     14002.26    7481.5921    6071.9347     7281.709   -355.90945   -962.63653    136.12788   -7888.4544 
 7412000    114.67082   -9719.6484   -9282.4709   -9719.6484            0    7858.7483    24.714782    24.819613    22.759517    13960.946    8370.2766    7280.3396    7925.6287    -516.7158      -138.14   -14.136037    -7682.382 
 7413000    114.98576   -9713.4956   -9275.1175   -9713.4956            0    7776.5113     24.71016     24.74674    22.831636    13961.452    7651.8894    8475.0127    7202.6318    37.177418   -339.43567   -43.857492   -7691.7152 
 7414000    114.79087   -9737.0995   -9299.4644   -9737.0995            0    6830.0279    24.811712     24.71836    22.845735    14011.399    5308.7486    7423.3473    7757.9879    489.72268    289.46253   -133.84545   -7903.8036 
 7415000    113.78378   -9719.3872   -9285.5916   -9719.3872            0    6769.2505    24.804387    24.794544     22.79423    14018.758    7313.6353    6424.7409    6569.3752     164.9536    123.21628   -805.51533   -7901.6237 
 7416000    118.39804   -9718.4231   -9267.0357   -9718.4231            0    7517.3286    24.747749    24.718502    22.849101    13977.418    7479.7135    8357.5045    6714.7677    500.15082   -69.311609    130.84691   -7734.6561 
 7417000    109.39767    -9726.598   -9309.5242    -9726.598            0     7284.705    24.809549    24.737962     22.77399    13977.256    7254.9877    7481.4046    7117.7227   -202.49497   -938.89168   -641.96628   -7824.5812 
 7418000    115.66645   -9704.0647   -9263.0915   -9704.0647            0    7014.0426     24.77999    24.775242    22.825513    14013.273     7618.917    6500.7225    6922.4882    424.09223    -303.5635   -230.61251   -7829.6372 
 7419000    117.85378   -9726.3446   -9277.0322   -9726.3446            0    7510.8046    24.703518    24.709533    22.895844    13975.907    7506.5556    7800.7809    7225.0773   -34.652198    109.22959    779.31847    -7746.148 
 7420000    113.67154   -9723.5406   -9290.1728   -9723.5406            0    7137.6125    24.715275    24.797609    22.840194    13998.292    7375.5098    7115.8989    6921.4289   -48.429978   -219.61519    551.46197    -7833.024 
 7421000    112.33677   -9719.6079   -9291.3288   -9719.6079            0    6845.6519    24.803358    24.793548    22.771059    14003.364    6122.6219    6280.0321    8134.3017   -372.60063     91.75315    568.71073   -7893.2776 
 7422000     113.7821    -9718.101   -9284.3118    -9718.101            0    7844.4783      24.7774    24.735583    22.795223    13970.815    7977.6047    7655.6887    7900.1414    965.82908   -639.66614   -544.09391   -7685.9993 
 7423000      114.292   -9715.3541   -9279.6209   -9715.3541            0    7909.4377     24.79413    24.741592     22.74749    13954.363    7227.6582     8479.229    8021.4259   -74.147904    -927.0503   -230.31775   -7669.9707 
 7424000    114.42423   -9725.5446   -9289.3072   -9725.5446            0    7830.0684    24.741872    24.692205    22.851169    13960.496    7119.2013    8671.5145    7699.4893   -436.28633   -386.49768   -110.65074   -7695.1091 
 7425000    115.77654   -9734.8906   -9293.4977   -9734.8906            0    5867.2152     24.82912    24.756137    22.849466    14044.952    5710.8473    5440.7559    6450.0423   -248.48764      166.818   -41.320918   -8091.7088 
 7426000    114.10769   -9720.9116    -9285.881   -9720.9116            0    7945.5225    24.790095    24.733193    22.758189    13953.915     6970.494    7985.6266    8880.4469    120.44878   -9.0829548    776.81495   -7668.9391 
 7427000    115.00144   -9719.4579   -9281.0199   -9719.4579            0    7322.2464    24.855379    24.726542     22.75236    13983.318    6404.3411    8352.1989    7210.1992     257.1237   -394.31612    186.92885    -7787.777 
 7428000    115.41324   -9726.7159    -9286.708   -9726.7159            0    6708.9259    24.751847    24.741728    22.878539    14010.897    6687.7303    7384.1532    6054.8941    -556.1806    -700.5563    83.482115   -7915.8426 
 7429000    113.40551   -9720.2301   -9287.8765   -9720.2301            0    7871.7077     24.82333    24.694801    22.775516    13961.555    7625.9048     7974.283    8014.9353    90.239613   -406.12678    597.94076   -7685.0791 
 7430000    113.14269   -9727.5498   -9296.1983   -9727.5498            0    7324.1094    24.790648    24.778535    22.784769    13996.136     6120.693    7782.2836    8069.3516   -129.05719    133.75357    408.28194   -7801.2063 
 7431000    117.10439   -9728.0388   -9281.5834   -9728.0388            0    7655.3036    24.760805    24.807183    22.751136     13974.79    7401.9492    7446.2009    8117.7608    350.77697    121.92142    494.65901   -7721.3714 
 7432000    117.66262   -9711.1037   -9262.5201   -9711.1037            0    7950.2848    24.603383    24.761239    22.931161    13969.898    9258.8308    7452.3153    7139.7083   -322.77573    722.31295    654.82364   -7642.7559 
 7433000     118.0457   -9728.4592   -9278.4152   -9728.4592            0    8110.5954    24.667725    24.793024    22.787705    13936.675    8240.9902    8144.7827    7946.0133    508.74952   -114.00986   -525.62888   -7629.9195 
 7434000    113.33941    -9704.842   -9272.7405    -9704.842            0    8510.1059    24.713584    24.801759     22.72847    13931.197    8476.0444    7786.8294     9267.444    -595.1759   -659.01488   -300.81821   -7543.7234 
 7435000    117.13076   -9705.0198    -9258.464   -9705.0198            0    7955.6376    24.708326    24.767515    22.828546    13970.245    7970.2902      8007.18    7889.4426   -73.611684   -906.29146    165.14513   -7637.5689 
 7436000    118.04005    -9717.939   -9267.9165    -9717.939            0    6954.0723     24.72167    24.809683    22.829576    14002.219     8291.026    6260.8408      6310.35   -329.25656    1190.7208    338.52679   -7847.8393 
 7437000    113.67818    -9738.422   -9305.0289    -9738.422            0    7181.1794    24.757289    24.792422    22.784236    13984.808    7295.7455    6615.1584    7632.6344    509.53288   -206.51393   -319.60043   -7840.3981 
 7438000    117.04735   -9708.6588    -9262.421   -9708.6588            0    7959.9954    24.693965    24.758932    22.833803    13960.501    7792.5945    8486.6421    7600.7496   -671.75234   -347.87808   -308.16984   -7641.7692 
 7439000    109.10672   -9726.4308   -9310.4662   -9726.4308            0    6283.2782    24.786401    24.920614    22.711115    14028.482     5872.639    5947.7772    7029.4183   -147.87378    541.90669   -1028.7923    -8024.964 
 7440000    119.27864   -9713.4158   -9258.6712   -9713.4158            0    7943.1523      24.7226    24.791199    22.770525    13956.121    8483.6513    7336.3185    8009.4872   -283.89764    339.99567    297.17347   -7641.9561 
 7441000    116.80609   -9727.9343   -9282.6162   -9727.9343            0     7064.416     24.71244    24.727653    22.927393    14010.486    6973.4145    7264.3964    6955.4372   -833.05672    497.00453     678.7336   -7839.1542 
 7442000    115.21328   -9705.8391   -9266.5935   -9705.8391            0    7971.8753    24.715814    24.797152    22.801415    13974.572    8804.5552    6514.4137    8596.6569   -28.778545   -935.99376   -176.04301   -7641.8871 
 7443000    115.86268   -9726.5315   -9284.8102   -9726.5315            0    7004.8528    24.769299    24.869695    22.718899    13994.953     7716.624    5522.3591    7775.5754    88.098075   -586.21233    211.84217   -7855.1054 
 7444000    113.77945   -9715.9766   -9282.1974   -9715.9766            0    8126.8714    24.653505    24.774059    22.838438    13948.974    8893.7965    7636.9763    7849.8415   -505.80138    -589.8473    200.72359    -7628.936 
 7445000    115.69833   -9715.5278   -9274.4329   -9715.5278            0    8520.4149    24.758533    24.816579     22.65191    13917.834    7841.0673     8874.032    8846.1452   -920.36823   -332.05779    360.08199   -7544.9818 
 7446000      118.485   -9726.2002   -9274.4813   -9726.2002            0    7588.4284    24.736382     24.74961    22.830203    13977.012    7406.7157    7685.0438    7673.5255    7.5688997     85.19841   -541.47152   -7727.6532 
 7447000    116.12835   -9722.6919   -9279.9577   -9722.6919            0    8143.7909    24.691886    24.668803    22.916121    13958.651    8195.0016    8959.6583    7276.7129    7.4055339    535.02093    165.24797   -7622.1049 
 7448000    116.43351    -9717.681   -9273.7834    -9717.681            0    7331.9307    24.752072    24.816172    22.754992    13977.292    7452.0631    6586.3508    7957.3781    5.2495023   -1098.2185    908.60384   -7779.2099 
 7449000    119.14021   -9717.5066   -9263.2898   -9717.5066            0    8010.8827    24.742635    24.805129    22.732645     13952.03    7921.1436    7781.0822    8330.4222    156.21386    -128.4687   -129.03533    -7633.267 
 7450000    116.79475   -9729.3534   -9284.0785   -9729.3534            0    7256.0971    24.691523    24.807553    22.854077    13998.951    7875.3175    6428.7911    7464.1826    266.82569   -322.50847    673.17129   -7802.6712 
 7451000    117.26688   -9714.4349     -9267.36   -9714.4349            0    6871.0521    24.720052    24.747843    22.896965     14007.63    6556.0186    7654.0894    6403.0482   -300.96225   -834.52225   -293.84081    -7863.694 
 7452000    115.50471   -9726.0577   -9285.7011   -9726.0577            0    7608.2093    24.742175    24.803115    22.756834    13965.483    8023.8027    7242.5373    7558.2879   -245.14773   -987.94616   -115.22592     -7736.12 
 7453000    114.65814   -9736.6702   -9299.5411   -9736.6702            0    7805.9953    24.618469     24.77665    22.868121    13948.712    7947.1401    7419.7358    8051.1099   -44.789092    302.98237    413.93487   -7711.5858 
 7454000    115.12183   -9707.4259    -9268.529   -9707.4259            0    7982.2698    24.684496    24.811646    22.787547    13956.529    9379.0735    6885.6839     7682.052    4.4050861     183.2828   -339.54412   -7643.8046 
 7455000    117.49399   -9749.2194   -9301.2788   -9749.2194            0    6513.5964    24.700044    24.872579    22.806072    14010.997    7002.1086    6232.6808    6305.9997   -940.63622   -473.29159    64.000265   -7970.3164 
 7456000     109.6064   -9735.7298   -9317.8602   -9735.7298            0    7012.0103    24.662363    24.780073    22.894542    13991.659    8247.2288    6560.2514    6228.5505   -263.89607   -314.75298    455.16407   -7887.0315 
 7457000    116.75961   -9720.9773   -9275.8365   -9720.9773            0    7227.8137    24.748502    24.840741    22.730305    13973.935    7558.0063    7082.1262    7043.3086   -468.04509    -85.20241    -186.8705   -7802.8405 
 7458000    116.08896   -9719.0966   -9276.5125   -9719.0966            0    8263.5247    24.729644     24.73617    22.785967    13938.556     8334.711    8185.5282    8270.3348    439.78031    65.970111    -123.3808    -7596.707 
 7459000    118.68366   -9717.4546   -9264.9784   -9717.4546            0    8224.1993    24.740603    24.741624    22.786809    13948.323    8119.5473    8666.5185     7886.532    160.08217    555.28532   -503.68589   -7591.9955 
 7460000    121.19789   -9743.5674   -9281.5057   -9743.5674            0    6579.9477    24.774484    24.787691    22.823811    14016.154    7250.1325    6364.0357    6125.6749    285.58944   -322.32145   -265.23886   -7936.4905 
 7461000     115.6694   -9707.7227   -9266.7381   -9707.7227            0    7631.5131    24.713894    24.708202    22.894173    13980.003    7003.1417    8892.9724    6998.4252   -7.3417202    469.10083   -359.05518   -7710.7947 
 7462000    118.61215   -9734.8162   -9282.6126   -9734.8162            0    7840.7539    24.726886    24.742779    22.804245    13951.908    8696.0127    8263.0052    6563.2439    421.03579    525.11522    869.14473    -7687.221 
 7463000    115.21032   -9727.0344      -9287.8   -9727.0344            0    7657.1317    24.800967    24.808078     22.72771    13983.549    7884.5241    6969.5695    8117.3015   -136.61137   -498.84169     390.9335   -7726.2374 
 7464000    116.56232   -9717.0947    -9272.706   -9717.0947            0    7859.3225    24.715241    24.678529    22.909183    13973.131    8156.3393    8541.8468    6879.7814    1010.5806   -238.93588   -569.84129   -7671.1036 
 7465000    113.11234   -9722.6131   -9291.3773   -9722.6131            0    7049.4895    24.773075    24.732035    22.849974    13999.917    7247.0937     6970.635      6930.74   -154.38377   -240.03228   -224.84733   -7852.0518 
 7466000    112.32398   -9727.2297   -9298.9995   -9727.2297            0    6191.8087    24.842598    24.862006    22.701213    14021.105    5855.9947    5692.8429    7026.5886   -184.93415   -591.60177    787.52175   -8032.8772 
 7467000    119.89963   -9731.1605   -9274.0485   -9731.1605            0     6301.526    24.732227    24.828917    22.825386    14016.486    6582.4089    6119.9485    6202.2206    57.531328   -493.81462    713.82669   -7985.9153 
 7468000    113.90314   -9715.8081   -9281.5573   -9715.8081            0     7513.462    24.700567    24.751561    22.861193    13976.821     7294.596    7750.9771    7494.8127    398.49557   -307.94944   -148.68853   -7750.0313 
 7469000    112.09978   -9728.6079   -9301.2325   -9728.6079            0    7192.1517    24.820405    24.844334    22.677263    13983.853    7041.6208     7086.623    7448.2112   -70.695212    374.05448    196.55024    -7834.464 
 7470000    112.60723   -9711.4983   -9282.1882   -9711.4983            0     7240.199    24.744073    24.747061    22.848052    13990.847    6837.7622    7825.8807    7056.9541   -135.30517     743.8358    300.21667   -7804.8824 
 7471000    114.52073   -9719.5197   -9282.9145   -9719.5197            0    7638.7028    24.730406    24.755887    22.826994    13975.214      7970.32    7409.4933    7536.2951    -344.7846    336.90715     599.9468   -7726.0387 
 7472000    115.85198   -9736.7619   -9295.0814   -9736.7619            0     7024.878    24.794185    24.757386    22.787892    13988.101    6569.2449    7704.2692    6801.1201   -432.70471   -512.83961    47.628079   -7861.9914 
 7473000    113.36886   -9712.0285   -9279.8147   -9712.0285            0    7590.1033    24.747437     24.71519    22.839348    13969.405    7239.4478    8609.4984    6921.3638   -93.109435    546.60421     15.73015   -7733.4872 
 7474000      118.364   -9703.2526    -9251.995   -9703.2526            0    7636.3376     24.80207    24.754757    22.778716     13985.43    6845.7528    7850.5184    8212.7415    409.00419    205.06065   -647.44774   -7694.4635 
 7475000    113.43626    -9719.599   -9287.1282    -9719.599            0    8196.2163    24.748204    24.703988    22.821877    13952.824    7790.9589    7916.3452    8881.3448   -416.26246   -735.68072    993.96793   -7619.2996 
 7476000    114.15585   -9722.5977   -9287.3835   -9722.5977            0    7196.0036    24.817687    24.749081    22.768919     13985.01    5872.8612    7377.3526    8337.7969   -1001.5929    634.77391    68.918153    -7819.708 
 7477000    114.93979    -9711.115   -9272.9121    -9711.115            0    6867.9686    24.807399    24.798097    22.781945    14014.912    6191.4621    7243.0089    7169.4347   -286.32629   -919.16055   -334.08767   -7869.1466 
 7478000    115.55462   -9710.3346   -9269.7877   -9710.3346            0    7906.0656    24.784224     24.71923    22.803737    13970.639    7309.8788    7650.2233    8758.0946   -293.83304   -754.06743    72.587328    -7658.947 
 7479000    114.50705   -9729.7484   -9293.1953   -9729.7484            0     6802.607    24.814511     24.71001    22.833423    14000.697    6162.8678    7018.4754    7226.4778   -170.98338    27.617509   -559.40177   -7904.1995 
 7480000    116.38797   -9718.8352   -9275.1112   -9718.8352            0    8340.3672    24.794333    24.781615    22.701751    13948.946    6926.4025     8555.707     9538.992    45.993508   -163.62537   -62.679568   -7578.4214 
 7481000    115.52908   -9705.4374   -9264.9879   -9705.4374            0     7943.828    24.753444    24.753313    22.809031    13975.772    7572.3399    7961.1404    8298.0036   -516.73631   -252.53145    552.35981   -7645.8586 
 7482000     118.0767   -9724.7767   -9274.6145   -9724.7767            0    7030.6659    24.750138    24.740756    22.881809    14011.381    6496.1346     7396.758    7199.1053    -280.1234   -178.40933    2.9872402   -7837.9568 
 7483000    119.41918   -9717.1662   -9261.8858   -9717.1662            0     8061.178    24.746294    24.796835    22.757259    13964.532    7902.0525    7918.6385    8362.8429   -749.88323   -203.54018   -396.76597   -7620.1594 
 7484000    118.41201   -9721.3131   -9269.8725   -9721.3131            0    7663.7185    24.787891    24.809031    22.697309    13958.018    7504.5586    7315.7384    8170.8584    19.378148   -1231.7905   -655.14487   -7709.8201 
 7485000     111.8214   -9725.5703   -9299.2562   -9725.5703            0    6384.4762       24.729    24.755358    22.924948    14034.086    7304.0433     6188.678    5660.7075   -577.34762   -1082.2851   -131.10257   -7992.5279 
 7486000    114.59481   -9706.6511   -9269.7634   -9706.6511            0    7622.4842    24.800323     24.71143     22.83042    13991.656    7029.7493    8237.1396    7600.5635    115.81017   -361.22961    223.63726   -7714.3654 
 7487000    113.99606   -9722.8706   -9288.2656   -9722.8706            0    7382.1305    24.788135    24.806763    22.736446    13980.945     7321.349    7592.0584    7232.9841   -657.37978   -295.62317    352.43299   -7783.0659 
 7488000     119.1376   -9712.2972   -9258.0903   -9712.2972            0    7134.5564    24.707986    24.783969    22.889135    14016.436    7619.2877    7332.3098    6452.0718    324.21815    695.34408   -354.54743   -7799.6776 
 7489000    116.08499   -9716.2211   -9273.6521   -9716.2211            0    7969.0327    24.689662    24.776673    22.831253     13966.51    8470.3748    7246.6667    8190.0566   -922.36389   -592.57957   -218.18859    -7650.462 
 7490000    119.67756   -9716.5849   -9260.3195   -9716.5849            0    7717.0439    24.746358    24.841284    22.722211    13968.055    7325.0897    6801.8537    9024.1885    156.19166    258.77705    176.93672   -7688.2824 
 7491000    112.74879   -9702.4875   -9272.6377   -9702.4875            0    6726.3355    24.720007     24.77857    22.888792     14019.99     6644.326    7067.0501    6467.6304   -153.44828   -1158.2339    139.97611   -7897.3229 
 7492000    117.27011   -9713.6275   -9266.5404   -9713.6275            0    7592.2197    24.736876     24.83138     22.75534    13977.485     6734.054    8275.7648    7766.8404     180.7643   -408.48882   -216.73926    -7718.887 
 7493000    114.25841   -9717.1778   -9281.5726   -9717.1778            0    7966.3157    24.753642    24.731512    22.793323    13953.958    7490.4638    8448.9899    7959.4934   -276.70673    74.695678   -118.25469   -7660.3942 
 7494000    116.09375   -9737.6446   -9295.0423   -9737.6446            0    7303.9129     24.67463    24.767483    22.883926    13985.019    8589.8279    6641.5103    6680.4005   -76.389198    604.00843    5.3397677    -7805.357 
 7495000    114.56936   -9718.2681   -9281.4774   -9718.2681            0     7047.729    24.685078    24.895135    22.790814    14005.829    6802.5007    6720.3721    7620.3143   -810.14653    426.41475     402.5856   -7841.9037 
 7496000    113.21008   -9722.0125    -9290.404   -9722.0125            0    7213.7042    24.690099    24.837323    22.793211    13977.617    7429.4633    7058.8327    7152.8165   -659.67193     216.4223    54.416975   -7819.8961 
 7497000     121.0896   -9722.9119   -9261.2631   -9722.9119            0    6588.8157    24.636068    24.861196    22.892909    14021.497     7916.165     5398.711    6451.5711   -470.54283    62.129649    119.99663   -7913.9217 
 7498000    114.45771   -9735.5206   -9299.1556   -9735.5206            0    7686.3093    24.731338    24.802327    22.770307    13967.186    8487.2602    6506.2458     8065.422   -306.37513   -362.70237   -52.836722   -7733.4769 
 7499000    110.61299   -9730.5407   -9308.8335   -9730.5407            0    7471.4303    24.770022    24.787807     22.73578    13959.644    7036.0158     6979.204    8399.0711   -244.44023   -415.20532   -78.825516   -7787.7468 
 7500000    116.01923   -9713.4587   -9271.1405   -9713.4587            0    6642.6184    24.755563    24.809575    22.839804    14027.637    6330.9317    6982.1575    6614.7661    38.697514    212.14934    200.81491   -7912.2023 
Loop time of 507.474 on 64 procs for 250000 steps with 1920 atoms

Performance: 85.128 ns/day, 0.282 hours/ns, 492.636 timesteps/s
196.2% CPU use with 32 MPI tasks x 2 OpenMP threads

MPI task timing breakdown:
Section |  min time  |  avg time  |  max time  |%varavg| %total
---------------------------------------------------------------
Pair    | 72.475     | 73.788     | 75.787     |   9.4 | 14.54
Bond    | 0.85946    | 1.0235     | 1.2218     |   8.7 |  0.20
Kspace  | 234.37     | 241.21     | 246.91     |  22.2 | 47.53
Neigh   | 0.24439    | 0.27491    | 0.29894    |   2.9 |  0.05
Comm    | 71.714     | 79.168     | 87.77      |  41.8 | 15.60
Output  | 0.65981    | 0.66013    | 0.66218    |   0.0 |  0.13
Modify  | 86.76      | 93.382     | 98.901     |  35.4 | 18.40
Other   |            | 17.97      |            |       |  3.54

Nlocal:        60.0000 ave          63 max          58 min
Histogram: 5 0 4 0 12 0 9 0 1 1
Nghost:        3480.12 ave        3514 max        3444 min
Histogram: 1 3 2 3 6 5 5 4 2 1
Neighs:        21669.8 ave       22744 max       20603 min
Histogram: 4 1 0 3 6 9 1 6 1 1

Total # of neighbors = 693433
Ave neighs/atom = 361.16302
Ave special neighs/atom = 2.0000000
Neighbor list builds = 507
Dangerous builds = 0

unfix		3
unfix		2
unfix		1

write_data	data.final.${pid}
write_data	data.final.1
System init for write_data ...
PPPM initialization ...
  extracting TIP4P info from pair style
  using 12-bit tables for long-range coulomb (../kspace.cpp:340)
  G vector (1/distance) = 0.37495727
  grid = 30 30 30
  stencil order = 5
  estimated absolute RMS force accuracy = 0.0032125848
  estimated relative force accuracy = 9.6746038e-06
  using double precision FFTW3
  3d grid and FFT values/proc = 5400 960
Last active /omp style is kspace_style pppm/tip4p/omp
WARNING: Not all mixed pair coeffs generated from mixing. Use write_data with 'pair ij' option to store all pair coeffs. (../write_data.cpp:312)

write_restart   restart.lmp.${pid}
write_restart   restart.lmp.1
System init for write_restart ...
PPPM initialization ...
  extracting TIP4P info from pair style
  using 12-bit tables for long-range coulomb (../kspace.cpp:340)
  G vector (1/distance) = 0.37495727
  grid = 30 30 30
  stencil order = 5
  estimated absolute RMS force accuracy = 0.0032125848
  estimated relative force accuracy = 9.6746038e-06
  using double precision FFTW3
  3d grid and FFT values/proc = 5400 960
Last active /omp style is kspace_style pppm/tip4p/omp
Total wall time: 0:08:27
