#include		in.partitions
include		in.temp
variable        temperature equal 240.22
variable	tempDamp equal 100.0
include		in.pressure
variable        pressure equal 1486.2
variable        pressureDamp equal 1000.0 # This is 1 ps
include		in.seed
variable        seed equal 745823

units		real
atom_style	full
#include		in.box
read_restart	restart.lmp.${pid}
read_restart	restart.lmp.0
Reading restart file ...
  restart file = 30 Jul 2021, LAMMPS = 30 Jul 2021
  restoring atom style full from restart
  orthogonal box = (0.092268045 -0.049878772 0.078627626) to (18.115304 23.679057 22.134568)
  2 by 4 by 4 MPI processor grid
  restoring pair style lj/cut/tip4p/long/omp from restart
  restoring bond style harmonic/omp from restart
  restoring angle style harmonic/omp from restart
  864 atoms
  576 bonds
  288 angles
Finding 1-2 1-3 1-4 neighbors ...
  special bond factors lj:    0        0        0       
  special bond factors coul:  0        0        0       
     2 = max # of 1-2 neighbors
     1 = max # of 1-3 neighbors
     1 = max # of 1-4 neighbors
     2 = max # of special neighbors
  special bonds CPU = 0.002 seconds
  read_restart CPU = 0.008 seconds
include 	in.setup
variable	out_freq equal 1000
variable	out_freq2 equal 10000
variable	out_freq3 equal 1000

timestep	2.0

neigh_modify    delay 7 every 1

include		in.tip4p
# This is TIP4P/Ice

# create groups ###
group ox type 2
288 atoms in group ox
group hy type 1
576 atoms in group hy

# set charges - beside manually ###
set group ox charge -1.1794
Setting atom values ...
  288 settings made for charge
set group hy charge 0.5897
Setting atom values ...
  576 settings made for charge

# ### TIP3P Potential Parameters ###
pair_style lj/cut/tip4p/long/omp 2 1 1 1 0.1577 8.5
pair_coeff 1 1*2 0.000 0.000
pair_coeff 2 2 0.21084 3.1668
bond_style  harmonic
bond_coeff  1 450 0.9572
angle_style harmonic
angle_coeff 1 55 104.52
kspace_style pppm/tip4p/omp 1.0e-5
pair_modify tail yes

thermo          ${out_freq}
thermo          1000
thermo_style    custom step temp pe etotal epair emol press lx ly lz vol pxx pyy pzz pxy pxz pyz enthalpy

restart 	${out_freq3} restart.lmp.${pid} restart2.lmp.${pid}
restart 	1000 restart.lmp.${pid} restart2.lmp.${pid}
restart 	1000 restart.lmp.0 restart2.lmp.${pid}
restart 	1000 restart.lmp.0 restart2.lmp.0


include         in.dump
dump            myDump all atom ${out_freq2} dump.water.${pid}
dump            myDump all atom 10000 dump.water.${pid}
dump            myDump all atom 10000 dump.water.0
dump            myDump2 all dcd ${out_freq2} dump.dcd
dump            myDump2 all dcd 10000 dump.dcd
dump_modify     myDump append yes
dump_modify     myDump2 append yes


variable natoms 	equal  "count(all)"                        # NUMBER ATOMS
variable H      	equal  "enthalpy/v_natoms"                 # ENTHALPY-per-atom
variable Vol      	equal  "vol/v_natoms"                 # volume-per-atom
fix AVG all 		ave/time ${out_freq} 1 ${out_freq} v_Vol v_H file vol_enthalpy.dat
fix AVG all 		ave/time 1000 1 ${out_freq} v_Vol v_H file vol_enthalpy.dat
fix AVG all 		ave/time 1000 1 1000 v_Vol v_H file vol_enthalpy.dat


timer           timeout 23:50:00 every 1000
New timer settings: style=normal  mode=nosync  timeout=23:50:00

fix 		1 all shake 1e-6 200 0 b 1 a 1
       0 = # of size 2 clusters
       0 = # of size 3 clusters
       0 = # of size 4 clusters
     288 = # of frozen angles
  find clusters CPU = 0.001 seconds
fix             2 all nph aniso ${pressure} ${pressure} ${pressureDamp}
fix             2 all nph aniso 1486.2 ${pressure} ${pressureDamp}
fix             2 all nph aniso 1486.2 1486.2 ${pressureDamp}
fix             2 all nph aniso 1486.2 1486.2 1000
fix             3 all temp/csvr ${temperature} ${temperature} ${tempDamp} ${seed}
fix             3 all temp/csvr 240.22 ${temperature} ${tempDamp} ${seed}
fix             3 all temp/csvr 240.22 240.22 ${tempDamp} ${seed}
fix             3 all temp/csvr 240.22 240.22 100 ${seed}
fix             3 all temp/csvr 240.22 240.22 100 745823


run             250000
PPPM initialization ...
  extracting TIP4P info from pair style
  using 12-bit tables for long-range coulomb (../kspace.cpp:340)
  G vector (1/distance) = 0.37120025
  grid = 24 27 25
  stencil order = 5
  estimated absolute RMS force accuracy = 0.0032180332
  estimated relative force accuracy = 9.6910115e-06
  using double precision FFTW3
  3d grid and FFT values/proc = 4410 672
Last active /omp style is kspace_style pppm/tip4p/omp
Neighbor list info ...
  update every 1 steps, delay 7 steps, check yes
  max neighbors/atom: 2000, page size: 100000
  master list distance cutoff = 10.8154
  ghost atom cutoff = 10.8154
  binsize = 5.4077, bins = 4 5 5
  1 neighbor lists, perpetual/occasional/extra = 1 0 0
  (1) pair lj/cut/tip4p/long/omp, perpetual
      attributes: half, newton on, omp
      pair build: half/bin/newton/omp
      stencil: half/bin/3d
      bin: standard
Per MPI rank memory allocation (min/avg/max) = 10.20 | 10.21 | 10.22 Mbytes
Step Temp PotEng TotEng E_pair E_mol Press Lx Ly Lz Volume Pxx Pyy Pzz Pxy Pxz Pyz Enthalpy 
 2750000    236.59974   -4241.1837   -3835.6598   -4241.1837            0    693.43851    18.023036    23.728935    22.055941    9432.6081    798.63898    381.41509    900.26145   -443.00613   -12.973065    23.350933    -3740.267 
 2751000    249.03268   -4288.4733   -3861.6398   -4288.4733            0    2004.8809    18.129724    23.492907    21.830429    9298.0146    1347.6592    1456.6236      3210.36   -393.04342   -317.54257    -358.8997   -3589.7739 
 2752000    244.89839   -4284.7384    -3864.991   -4284.7384            0    2361.5517    18.035876    23.370427    22.008293    9276.6304    2184.4101    1648.2629     3251.982   -462.67045    260.32507    362.88002   -3545.4963 
 2753000    237.76164   -4280.1465   -3872.6312   -4280.1465            0    220.37111    18.192042    23.303519    22.201871    9412.2299   -266.70935    1253.7814   -325.95872    682.23793   -287.10216    207.50349   -3842.3813 
 2754000    223.31437   -4290.6008   -3907.8477   -4290.6008            0    263.37962    18.015821    23.611002    22.193886    9440.6485    519.94987    515.87363   -245.68465   -58.340066   -281.36691    636.36485    -3871.585 
 2755000    248.76234   -4278.8626   -3852.4924   -4278.8626            0    1671.0411    17.957769    23.512353    22.011669    9293.9741    2412.9007    973.59663     1626.626    43.413484   -712.44967    73.347678   -3625.9944 
 2756000    246.91073   -4277.4371   -3854.2405   -4277.4371            0    2751.3228    18.108151    23.369122    21.971101    9297.5456    2014.4402    1830.6362     4408.892   -714.68312    40.315089   -157.08064   -3481.1744 
 2757000    248.11039   -4286.0781   -3860.8254   -4286.0781            0    1838.0975    18.136207    23.279287    22.179928    9364.3206    1247.8378    2219.6034    2046.8511    700.60487    185.60491   -16.408531   -3609.7982 
 2758000    237.47551   -4251.3228   -3844.2979   -4251.3228            0    1945.3621    17.947371    23.374479     22.05774    9253.4524    1444.9052    706.17126    3685.0098   -607.58566   -408.59339    550.04394   -3581.7671 
 2759000    249.39538   -4264.6114   -3837.1562   -4264.6114            0    1567.7756    18.056824    23.563437    22.084413    9396.4944    1011.5285    2529.3923    1162.4059    768.34144     226.0158    1009.8514   -3622.3111 
 2760000    239.14267   -4264.2048   -3854.3225   -4264.2048            0    2621.5665    17.880718    23.434992     22.22364    9312.4713    4209.0994     3221.419    434.18094   -531.72393   -35.932214   -375.28903   -3498.2801 
 2761000    238.52092   -4269.3909   -3860.5742   -4269.3909            0    2380.4323    18.271015    23.354424    21.825687    9313.2177    598.65378     2888.178    3654.4652   -1026.4709     -566.019   -468.83601    -3537.255 
 2762000    253.45417   -4252.1101   -3817.6983   -4252.1101            0    719.36166    18.096056    23.469759    22.087726    9380.8793   -524.27737    90.688263    2591.6741    256.53677   -23.673595   -363.96837   -3719.2821 
 2763000    256.01206   -4283.1059     -3844.31   -4283.1059            0   -91.972179     18.00057    23.743354     22.12651    9456.7355    1093.9533   -892.77136   -477.09849    648.24363    448.15062   -19.842393   -3856.9945 
 2764000    239.20675   -4291.9879   -3881.9957   -4291.9879            0    1506.1128    17.881661    23.413634      22.2005    9294.7867     2554.849    1212.2779    751.21148   -120.75287    469.92277   -67.217669   -3677.8347 
 2765000    238.59005   -4265.0653   -3856.1301   -4265.0653            0    1489.2885    18.406502    23.129331      21.9271    9335.0259    1240.5121    2913.4063    313.94702   -1342.7787    353.92092    87.573844   -3653.3757 
 2766000    248.15389   -4280.7543   -3855.4271   -4280.7543            0    2284.2159    18.070774    23.345227     22.01918    9289.1504    1792.0212    1842.8104    3217.8162   -507.24531   -140.64588   -437.59855   -3545.9781 
 2767000    245.46319   -4277.4232   -3856.7077   -4277.4232            0    2288.6146    17.975401    23.594176    21.917809    9295.6669    1618.3486    1957.8901    3289.6052    29.142341    413.32457   -153.56801   -3546.4453 
 2768000    231.81495   -4288.7548   -3891.4319   -4288.7548            0    1182.3336    17.990887    23.550471    22.039414    9337.9644    1856.9665    1634.1567     55.87772    1160.0523   -673.37136    341.18202   -3730.4162 
 2769000    237.64617   -4272.3176   -3865.0002   -4272.3176            0    1895.9209    18.035504    23.351027    22.164907    9334.6962     1438.872    3387.1116    861.77913   -165.91562   -292.63705   -719.40412   -3606.8952 
 2770000    237.66901   -4297.6361   -3890.2796   -4297.6361            0    878.60578    18.281374     23.55568    21.837319     9403.809   -127.68983    469.79968    2293.7075    -158.4698    241.91994   -407.60463   -3769.7833 
 2771000    241.59255   -4297.2905   -3883.2091   -4297.2905            0    1940.5592    18.000293    23.441424      22.1793    9358.6109    1163.8526     1931.067     2726.758   -765.16341    681.89357   -919.82413   -3618.3504 
 2772000    244.50927    -4260.712   -3841.6315    -4260.712            0    2715.9055     18.03423    23.500295    21.938017     9297.545    2682.1154    4076.1358    1389.4655    191.72158   -293.15024    386.45489   -3473.3679 
 2773000    229.45603   -4284.4178   -3891.1381   -4284.4178            0    2151.6213     18.08069    23.359227    22.196294    9374.6257    1908.1718    2415.1545    2131.5375   -769.92492   -206.55436    603.69965   -3596.9699 
 2774000    258.76999   -4258.1967   -3814.6738   -4258.1967            0    1865.9162    18.062139    23.412553    22.063479    9330.2213    1140.1646     2522.987    1934.5969     -204.706    675.47057    494.98273   -3560.7754 
 2775000    243.39704   -4275.9719   -3858.7977   -4275.9719            0   -131.79711    18.088665    23.666826    22.051609    9440.3223    439.57984   -803.04836     -31.9228    863.39267   -780.45454   -717.89978   -3876.9431 
 2776000    256.27461   -4276.1128   -3836.8669   -4276.1128            0    1957.4398    17.844468    23.706518    22.098784     9348.453    3613.9929    2078.3463    179.98011   -727.63864    140.60359   -229.75982   -3569.9943 
 2777000    252.58473   -4278.0393   -3845.1177   -4278.0393            0    1678.0131     18.18858    23.444552    21.976093     9371.114    182.88286    1770.2389    3080.9177    532.57263   -365.57921   -739.84183   -3615.7868 
 2778000    231.40125    -4277.785   -3881.1712    -4277.785            0    1478.5964    18.157151    23.205163    22.218715    9361.6256    1603.3016    2067.7676    764.72009   -384.39597   -881.89368     201.1746   -3679.2989 
 2779000    238.15932   -4307.9322   -3899.7352   -4307.9322            0    1232.5537    18.127944    23.549572    21.933866    9363.6841      1565.84    1320.3958    811.42539   -406.77786   -414.62636    516.69587    -3731.418 
 2780000    251.29972   -4272.6929   -3841.9738   -4272.6929            0    1860.1459     17.84488    23.592191    22.230222    9358.9193    2545.5899    1503.2964    1531.5515    1142.6549    417.47507    536.17304    -3588.082 
 2781000    244.41909   -4246.8742   -3827.9483   -4246.8742            0    650.74886    18.200182    23.455053    22.060838    9417.4682   -279.58112    1520.7007    711.12703   -267.42831   -721.87003    327.96028   -3738.5718 
 2782000       255.88   -4290.1789   -3851.6093   -4290.1789            0    1201.7635    18.268902    23.136785    22.183617    9376.6525    1753.9901    1173.0915    678.20876    178.85862    314.71518     1363.727   -3687.2695 
 2783000    249.52787   -4287.4965   -3859.8143   -4287.4965            0    1309.1607    18.071954    23.594626    22.048172    9401.3628    -150.8037    2894.1875    1184.0982   -646.90644   -406.03222   -137.00014   -3680.3163 
 2784000    221.74093   -4272.9808   -3892.9244   -4272.9808            0    1659.0026    17.974732    23.522588    22.079879    9335.6427    214.37388    2090.6343    2671.9996    513.14367   -837.33453    47.410498   -3667.0499 
 2785000    235.94592   -4302.3478   -3897.9446   -4302.3478            0    1429.2481    18.048392    23.395914    22.173742    9363.0541    2142.4822    1342.1606    803.10155   -541.35015    144.77858    -186.6577     -3702.78 
 2786000    237.89985   -4287.3845   -3879.6323   -4287.3845            0    2269.2026    18.089088     23.62386    21.777847     9306.416    2305.3601    1957.5416    2544.7062   -1066.3922    72.199318    120.95011   -3571.6458 
 2787000    247.27503   -4275.6334   -3851.8124   -4275.6334            0    1967.5847    18.045278    23.273416    22.284676    9359.0127     411.7601    3946.3312    1544.6629   -515.68895   -249.19331   -435.22233   -3583.2537 
 2788000     228.9248    -4258.777   -3866.4077    -4258.777            0    443.16588    18.172625    23.718683    21.830598    9409.6585    394.93284   -330.53905    1265.1039   -792.11664   -94.189458   -582.24388    -3805.592 
 2789000    249.71673   -4287.2379    -3859.232   -4287.2379            0    1362.2073    17.858637    23.570469    22.253471    9367.2969    1425.6834    1235.0233    1425.9153   -31.391729    388.52346   -272.78324   -3673.1375 
 2790000    221.19588   -4254.2086   -3875.0864   -4254.2086            0    416.86659    18.063251    23.543006    22.108285    9401.8406    669.31715    837.81025   -256.52763     367.5224    102.55866   -988.51947   -3817.9273 
 2791000      234.469   -4273.1055   -3871.2337   -4273.1055            0    1047.2199    18.147148    23.466235    22.026505    9379.8822   -321.77779    1364.5685    2098.8688   -288.48594   -39.350235    145.60291   -3727.9782 
 2792000    247.15357   -4297.3707   -3873.7579   -4297.3707            0     1976.222    18.106134    23.192924    22.257948    9346.8736    2024.7449    2539.5934    1364.3276   -549.01837   -210.84031    827.76636   -3604.3701 
 2793000    242.75946   -4266.4814      -3850.4   -4266.4814            0    1179.3373    18.132722    23.443523    22.013437    9357.7992     108.4677    1754.5235    1675.0206     409.4342   -829.41161    319.03053   -3689.4512 
 2794000    247.47159   -4279.5143   -3855.3564   -4279.5143            0    2638.6814    17.721218    23.616727    22.180925    9283.0979    3374.0971    1962.1529    2579.7943    288.98841   -263.01565    320.39154     -3498.12 
 2795000    218.19946    -4285.429   -3911.4426    -4285.429            0    1772.0264    18.062856    23.666499    21.909714    9366.0643    3324.5219    151.49278    1840.0644    751.22964    470.53721   -49.589759   -3669.3936 
 2796000    246.22479   -4264.6629    -3842.642   -4264.6629            0    2472.4771    18.187723    23.199116    22.059402    9307.7241    1021.0643    2728.6322    3667.7347   -696.25053    -439.2344   -25.125569   -3507.0191 
 2797000    238.59415   -4289.0839   -3880.1417   -4289.0839            0    910.24873    18.035224    23.507628    22.088032    9364.5598     2152.061    611.01937   -32.334164   -198.61889   -73.276354   -254.30367   -3755.8268 
 2798000    242.62773   -4275.6303   -3859.7746   -4275.6303            0    2458.0346    17.951775    23.680189     21.94069    9327.0184    1974.2057    3730.5056    1669.3926   -360.17036     381.3312   -842.47079   -3525.4205 
 2799000    241.94118   -4264.2364   -3849.5575   -4264.2364            0    1691.0316    17.968153    23.375982     22.14324    9300.6751    1202.7717    1970.9949    1899.3281    804.71731   -175.23507    285.80994   -3620.1846 
 2800000    234.08677   -4278.6001   -3877.3834   -4278.6001            0    2269.4793     17.97306    23.434536    22.069969    9295.6574    1589.2461    2392.0718    2827.1199    1042.4992   -581.86876   -12.580904   -3569.7155 
 2801000    249.31089   -4261.7444   -3834.4341   -4261.7444            0    614.08936    18.141077    23.428736     22.10024    9393.0994    136.85953    35.674609    1669.7339    286.84984    431.74638    620.76397   -3750.3108 
 2802000    236.14253   -4277.1078   -3872.3676   -4277.1078            0    1332.9571    18.194382    23.443252    22.045995     9403.399    1272.5235     1478.961     1247.387   -155.07941    234.55513    918.21364   -3689.5673 
 2803000    231.62182   -4282.0184   -3885.0265   -4282.0184            0    2792.2333    17.964774     23.39606    22.132565    9302.4262    3795.4592    2727.3574    1853.8835    4.8243863   -1048.7711     1014.035   -3506.2144 
 2804000    251.35763   -4275.6057   -3844.7873   -4275.6057            0    999.02669    18.055496      23.5657    21.960601    9344.0248   -14.535055    928.79567    2082.8194   -545.74688   -468.18435    1183.4836   -3708.6469 
 2805000    238.58107   -4280.3815   -3871.4617   -4280.3815            0    1407.4995    17.942188    23.456111    22.281386    9377.2093    2761.9917    1352.3633    108.14336   -544.61541   -928.97975    79.008414   -3678.9763 
 2806000    248.86987   -4257.4142   -3830.8598   -4257.4142            0    1253.3082     18.32481    23.461038      21.7964    9370.6881     64.12917    717.04629    2978.7491   -527.36948    257.29282    512.89626   -3659.5803 
 2807000    246.56145   -4290.5834   -3867.9855   -4290.5834            0    981.59987    17.989574     23.44201    22.267623    9390.5188     627.4892    434.96685    1882.3436   -403.92201    -400.9297   -407.27817   -3733.5544 
 2808000    239.44394   -4268.5154   -3858.1167   -4268.5154            0    3475.5687    17.924896    23.761677    21.681878    9234.8668     4183.016    2310.7457    3932.9445    1039.2001    473.94745   -410.73208   -3390.0234 
 2809000    248.50108   -4288.0865   -3862.1641   -4288.0865            0    1396.2842    18.102393    23.445129    22.065694    9364.9658    1828.0854    843.80601    1516.9611    108.24565   -298.80628   -273.26343   -3671.4618 
 2810000    227.83391   -4289.3976   -3898.8981   -4289.3976            0    1186.0509    18.219353    23.202232    22.135481     9357.324    548.76627    2895.7823     113.6041    136.04354   -478.21004   -281.93222   -3737.0413 
 2811000    240.08271   -4276.0285    -3864.535   -4276.0285            0    2373.9205    18.003148     23.52018    22.060897    9341.4061    3562.5202   -125.12881      3684.37    430.57636   -494.52249    493.39198   -3541.1243 
 2812000    232.90921    -4248.805   -3849.6065    -4248.805            0    1656.1557    17.950908    23.501696    22.259043    9390.5733    2552.3909    1394.0404    1022.0357    345.29366   -301.91116    140.48886   -3622.7929 
 2813000    247.56544   -4251.4338   -3827.1151   -4251.4338            0    2787.1599    18.274607    23.312946    21.752508    9267.3282    1216.5628    2916.6284    4228.2883   -99.963454    636.90654    532.23161    -3450.418 
 2814000    248.24858   -4291.0481   -3865.5585   -4291.0481            0    2003.3971    18.051432    23.355729    22.094875    9315.2955    1578.0497    2112.9121    2319.2294   -574.54002   -335.46126   -186.61941   -3593.3889 
 2815000    229.34669   -4287.7953   -3894.7029   -4287.7953            0    438.42623    18.002325    23.578315    22.059555    9363.4979    793.68427    443.51917    78.075244   -1078.9626   -453.43365    208.98479   -3834.8327 
 2816000    249.77574   -4265.1886   -3837.0815   -4265.1886            0    1203.1584    17.966024    23.679511    22.027125    9370.9264    2198.1513    350.84264    1060.4813    416.98745    450.58672   -16.018458   -3672.6515 
 2817000    231.77525   -4299.7485   -3902.4936   -4299.7485            0    1103.6167    18.146923     23.27738    22.122606    9344.8726    -111.6214    1768.1521    1654.3193   -615.28833   -146.34892    248.92886   -3752.0868 
 2818000    239.02331   -4272.5415   -3862.8637   -4272.5415            0    1427.4403    18.464783    23.148015    21.958775    9385.6868    36.676257    1660.0104    2585.6342    561.40648    132.02732   -849.59693   -3667.4748 
 2819000    229.91804   -4302.0629   -3907.9912   -4302.0629            0    2297.2783    17.861019    23.575936    22.047149    9283.8396    2295.3714    1841.1888    2755.2746    51.728744    196.53306   -393.47818   -3596.9506 
 2820000    232.70235   -4267.0537   -3868.2099   -4267.0537            0    1991.0323    17.867643     23.60536    21.985777    9272.9881    3233.6741    1314.3391    1425.0836   -222.49489   -473.38804    216.67387   -3598.9486 
 2821000    231.43434   -4266.9243   -3870.2537   -4266.9243            0    1286.0012    18.222257    23.141465    22.122512    9328.8358    1568.9191    745.64976    1543.4348    619.82331   -600.95529   -64.521438   -3695.2913 
 2822000    257.17424   -4248.3963   -3807.6085   -4248.3963            0    2570.1601     18.01775    23.384603    22.013404     9275.082    3889.1876    1922.0441    1899.2487   -138.52721    137.21095   -1235.3301   -3459.9492 
 2823000    229.56842   -4292.6071   -3899.1347   -4292.6071            0    1580.9481    18.072682    23.515071    21.966358    9335.2713    1732.8002    80.044424    2929.9997   -26.025269   -542.38223    334.76776    -3683.896 
 2824000    244.52725   -4290.7738   -3871.6624   -4290.7738            0    976.35114    18.144715    23.244961     22.09608    9319.5343    1380.5109    1279.7657    268.77677    -501.4023    512.34086    203.90741   -3738.9608 
 2825000    238.18619   -4285.8475   -3877.6045   -4285.8475            0     951.5076    18.124558    23.319225    22.090533     9336.578    521.46094    951.73772    1381.3241   -102.95583   -142.76611   -822.61973    -3748.043 
 2826000    231.99017   -4274.0936   -3876.4704   -4274.0936            0     2041.819    17.983078    23.592938    21.892597    9288.4521    1012.1019    1108.3495    4005.0057   -416.61224    300.40902    839.95851   -3599.8804 
 2827000    231.70884   -4284.0562   -3886.9151   -4284.0562            0    966.20096    18.127832    23.361806    22.134931     9374.119    1102.9288    326.71477    1468.9593    544.17939   -132.27932    796.15177    -3754.824 
 2828000    257.75089   -4260.6763      -3818.9   -4260.6763            0     1714.118    18.121516    23.399709    21.947993    9306.7872     381.1363    2445.7634    2315.4544    242.95265    249.28294   -250.74561   -3586.2429 
 2829000    238.27193   -4284.9318   -3876.5418   -4284.9318            0    938.54334    17.793231     23.55433    22.326977    9357.4069    559.94721    479.07022    1776.6126    49.502447    639.50087     59.97713   -3748.4605 
 2830000    250.84192   -4252.8006   -3822.8661   -4252.8006            0    420.38295    18.121757      23.6126    22.037008    9429.6758   -327.13712    1380.9196    207.36638   -168.16366    555.18895   -257.39971   -3765.0542 
 2831000    236.61118    -4272.288   -3866.7446    -4272.288            0    1622.6683    18.155436     23.27583    22.171974    9369.4959    3776.7949     1235.523    -144.3131   -636.65054    -971.3656    64.075796   -3645.0159 
 2832000    231.11928    -4285.547   -3889.4164    -4285.547            0    1315.8813    18.200044    23.220879    22.188694    9377.4085     889.8044    1778.9932    1278.8463   -621.52767    280.77854   -175.00432   -3709.4567 
 2833000    230.51057   -4283.3898   -3888.3025   -4283.3898            0    259.06025    18.167702    23.582837    21.967578    9411.9203    214.33402    544.66666    18.180073    140.24246   -347.58313   -354.38509   -3852.7431 
 2834000    253.13082   -4259.4223   -3825.5648   -4259.4223            0    2804.6385     17.84598    23.377153    22.226895    9272.7984    3344.9585    3094.3104    1974.6467    -775.8062   -120.11079   -257.19542   -3446.2816 
 2835000     239.5881   -4285.3674   -3874.7216   -4285.3674            0    633.43569    18.143708     23.67623    21.922384    9417.2993   -125.91011    1037.0741    989.14307     1106.159   -1041.9562    63.247746   -3787.7245 
 2836000    244.12319   -4284.0156   -3865.5968   -4284.0156            0    1813.2923    18.120364    23.056035    22.323577    9326.4279    2157.0387    3850.8665   -568.02831   -817.15398    132.16159   -33.251155   -3618.9593 
 2837000      230.977   -4276.7311   -3880.8444   -4276.7311            0    628.43066    18.203708     23.52783    21.913036     9385.216   -135.64498    449.59449    1571.3425    -412.9849   -448.85648    116.08097   -3794.8287 
 2838000    246.12366   -4255.8041   -3833.9565   -4255.8041            0      1842.48    17.808709    23.592321    22.249778    9348.2173    4097.2477    3083.9336   -1653.7413    -776.2828    114.48096    -43.35736   -3582.7636 
 2839000      225.111   -4285.1906   -3899.3581   -4285.1906            0    1451.3664    18.065973    23.487691    22.035188    9350.1475    2149.0743    1581.2137    623.81106   -912.69656    384.91407    348.36333   -3701.4464 
 2840000    248.07137   -4288.2009   -3863.0151   -4288.2009            0    2316.5091     18.16878    23.249497    22.062062    9319.3459    2237.9264      4224.23    487.37076   -1267.4277    -655.1413    739.33205   -3548.1712 
 2841000    230.64859    -4291.791   -3896.4672    -4291.791            0    1372.2183    18.107527    23.303561    22.157995     9350.006    99.452147    1984.4665    2032.7361   -531.97022    555.61369    834.26301   -3709.3512 
 2842000    255.58184   -4290.1474   -3852.0888   -4290.1474            0    1601.9261    17.987424    23.568557    22.031599    9340.0239    981.90379    1575.9165     2247.958   -730.42551   -362.65554    167.83214    -3633.883 
 2843000    240.11674   -4294.3422   -3882.7904   -4294.3422            0    2162.8927    17.874506    23.521578    22.042672    9267.5455    3552.7383    1706.0412    1229.8985   -690.76534    1263.9881    340.49516   -3590.4589 
 2844000    243.06918   -4292.0988   -3875.4865   -4292.0988            0    1039.5119    18.159574    23.501768    21.970443    9376.5914    479.89026    1791.8642    846.78116    555.62996   -321.25615    36.031719   -3733.3354 
 2845000    244.51026   -4301.8827   -3882.8005   -4301.8827            0    2992.1706    18.024267    23.270432    22.065491    9254.9839    4717.0598    2443.7886    1815.6634    16.385824   -111.48644     406.5976   -3478.9339 
 2846000    247.24772    -4277.396   -3853.6219    -4277.396            0    172.27597    18.179041     23.55164    21.999966    9419.2023   -462.12849   -820.20228    1799.1587    -292.3273   -62.763531   -279.44152   -3829.9564 
 2847000     249.1799    -4285.067   -3857.9812    -4285.067            0    1738.2387    17.878624    23.640584    22.047096    9318.4501    1849.9721    1355.5079    2009.2362    138.85112    184.32414    514.77348   -3621.7544 
 2848000    221.60325   -4281.7116   -3901.8912   -4281.7116            0    1326.0328    17.979001    23.529596    22.039979    9323.7626    885.28066    543.24622    2549.5716     210.1136   0.60403648    374.88589   -3721.5806 
 2849000    241.71058   -4274.6331   -3860.3494   -4274.6331            0    866.96136    18.193963    23.332978    22.052633    9361.7691     186.8766    2160.8129     253.1946    258.12679   -8.0876348   -268.26157   -3741.9816 
 2850000    236.25596   -4292.1652   -3887.2305   -4292.1652            0    939.06586    18.133265     23.17841    22.253271    9353.0555    1138.8776    867.69671    810.62326    561.85853   -562.03453     157.8608   -3759.1375 
 2851000    238.56221   -4313.5792   -3904.6917   -4313.5792            0    2754.9101    17.984424    23.520454    21.902387    9264.7496    4142.4002    2030.5079    2091.8223   -882.97439    825.64875    633.34214   -3532.4569 
 2852000    250.48773   -4284.7958   -3855.4684   -4284.7958            0    648.57164    17.890525    23.750397    22.134421     9405.072    1275.3811   -602.92864    1273.2625    420.54417    24.997134   -263.79712   -3766.5081 
 2853000    239.92471   -4267.4189   -3856.1961   -4267.4189            0     403.5539    18.103963    23.554927    22.064707    9409.2191   -81.151597    628.57711     663.2362   -178.46418    105.03544   -1101.6183   -3800.8189 
 2854000    245.36631   -4289.6807   -3869.1312   -4289.6807            0     1617.307    18.239007    23.263541    22.024546    9345.1004    734.81503    1813.7295    2303.3763    128.76081    712.49645    330.02947   -3648.7105 
 2855000    242.86543   -4264.0501    -3847.787   -4264.0501            0    1256.7063    18.142177    23.239736    22.218703    9367.8362    106.30784    2267.3125    1396.4985   -447.39143   -536.63925   -292.60757   -3676.0955 
 2856000    238.68777   -4295.9236   -3886.8209   -4295.9236            0    1658.1864    18.052479    23.489796    21.909448    9290.6805    921.61122    2142.3209    1910.6272   -475.41977    53.423292    185.68527   -3662.1449 
 2857000    226.80695   -4276.5031   -3887.7638   -4276.5031            0    136.12859    18.037671    23.615205    22.161449     9439.964    517.74659    259.63533   -368.99617   -716.25124   -1049.2119   -604.47933   -3869.0227 
 2858000    245.07803   -4283.1515   -3863.0961   -4283.1515            0    3641.4925    18.054905    23.371426    21.821908    9208.1659    2837.1198    3991.6085    4095.7491    729.24959    583.31064    1049.5862   -3374.0741 
 2859000    226.09623   -4266.3051   -3878.7839   -4266.3051            0    1318.1277    18.152632    23.329586    22.064362    9344.1111    1729.2542    99.187578    2125.9413   -1202.8941   -536.81547    268.34362    -3699.157 
 2860000    234.40063     -4279.71   -3877.9554     -4279.71            0     2491.062    17.918321     23.47394    22.006413     9256.196     2886.425     1599.125    2987.6359    247.62568    721.84381    1170.0744   -3541.6816 
 2861000    243.25156   -4273.2365   -3856.3116   -4273.2365            0    2162.8417    17.939638    23.635636    21.870521    9273.4235    3354.7664    1525.1233    1608.6354    41.794433   -592.19536    -201.5743   -3563.8016 
 2862000    238.17435   -4272.2154   -3863.9927   -4272.2154            0    1295.4215    18.072568    23.455484    22.078679    9359.1707    1889.1752    1212.4397    784.64953    -216.9463    880.48164    139.04378   -3687.1756 
 2863000     233.2956   -4277.0805   -3877.2198   -4277.0805            0   -83.790655    18.357004    23.321309    22.030046    9431.2687    91.142432   -159.86098   -182.65342   -1447.1677   -667.16783    85.015819   -3888.7448 
 2864000    246.38812   -4250.7963   -3828.4955   -4250.7963            0    1566.4955    18.039965    23.436976    22.158182    9368.5284    1616.9853    1890.8985    1191.6026   -683.73953   -223.38793    109.62743   -3614.4646 
 2865000    249.91781    -4278.695   -3850.3445    -4278.695            0    2762.8366     17.92133    23.569418    22.049588    9313.6429    2729.5691    3051.4048    2507.5358    481.69761   -775.21975   -127.12395   -3475.0686 
 2866000    244.80224   -4303.1387   -3883.5561   -4303.1387            0     2817.253    17.966295    23.345756    22.078277    9260.4404    3665.3968    2695.7681    2090.5941    1115.2685    276.21569   -292.73657   -3503.0747 
 2867000    232.38383   -4298.3606   -3900.0627   -4298.3606            0    827.68989    18.291038    23.293731     22.00475    9375.4874     79.27707    1996.1733    407.61927    764.69855    658.65466    348.51759   -3786.8911 
 2868000    233.51169   -4287.0232   -3886.7922   -4287.0232            0    1057.4126    18.126593    23.332866    22.095667    9345.2603    909.24557    1327.4831     935.5091   -441.49267   -279.32484    123.92359   -3742.6763 
 2869000    256.37119   -4299.2548   -3859.8433   -4299.2548            0    3202.0145    17.892193    23.582184    21.860959     9223.947    3820.6298    2319.2234    3466.1903    504.18785   -231.72479    59.535392   -3429.1025 
 2870000    244.41974    -4296.453   -3877.5259    -4296.453            0     1371.821    17.892132     23.55364    22.166784     9341.633    1610.8564    2155.9536    348.65305    234.24254   -392.64927    143.31322   -3690.6315 
 2871000    242.33637   -4297.6632   -3882.3069   -4297.6632            0    2233.0692    18.256328    23.327421    21.882296    9319.0798    2683.0986    1616.9926    2399.1164   -442.87057   -338.45331   -45.753673   -3578.8122 
 2872000     257.7846   -4278.2527   -3836.4187   -4278.2527            0    542.66964    18.208201    23.255695    22.187808    9395.3022    530.32098    665.31092    432.37703   -328.46862   -906.09729   -32.357585   -3762.0616 
 2873000     230.1434   -4297.1329    -3902.675   -4297.1329            0    1363.4853    17.964152    23.512902    22.047107    9312.4629    2093.9549    339.47509    1657.0258    605.95585    494.17324   -577.91699   -3717.4963 
 2874000     250.5857   -4276.2714   -3846.7761   -4276.2714            0    1058.9669     17.85641     23.69274    22.100955    9350.1912    1094.7208    1107.9285    974.25132     -43.7338    183.58078    392.18091   -3702.3722 
 2875000    252.93911   -4267.8519   -3834.3229   -4267.8519            0    1098.6818    18.134371    23.275388    22.158135     9352.606    436.62048    1721.1636    1138.2612     1095.634   -694.36206   -302.05481   -3684.4648 
 2876000    241.62784   -4282.5376   -3868.3958   -4282.5376            0    1053.2164    18.229781    23.312308    22.062756    9376.1917    1088.5526    780.18359    1290.9129    497.20525    242.75025    1377.5646   -3724.3767 
 2877000    239.24067   -4272.8718   -3862.8215   -4272.8718            0    1812.1523    17.887908    23.532544    22.237468    9360.8168    3101.8165    1675.0497    659.59089   -675.59695    292.91474   -460.15869   -3615.4302 
 2878000     232.4617   -4257.7059   -3859.2745   -4257.7059            0    1587.9034    18.075105    23.481206    21.937743    9310.9322    1430.0419    2040.5668    1293.1014   -975.92144   -183.79754    499.37636   -3643.6525 
 2879000    237.83283   -4242.7967   -3835.1594   -4242.7967            0    301.76316    18.104981    23.486498    22.171428    9427.7922    383.19713    757.93672   -235.84436   -584.67518    653.24692   -1338.3736   -3793.6685 
 2880000    237.12496   -4301.7633   -3895.3393   -4301.7633            0    1681.7478    17.922377     23.40469    22.194857     9310.025    1557.0855    1885.9424    1602.2154   -319.70525   -73.037251    43.101237   -3666.9963 
 2881000    238.02258   -4304.6212   -3896.6586   -4304.6212            0    1792.3249    18.140066    23.558114    21.774043    9305.0444    1449.5268    1637.5377    2289.9102   -1194.0948    76.262585    79.290263    -3653.432 
 2882000    252.48984   -4270.8037   -3838.0448   -4270.8037            0    2493.7723    17.831859    23.412331    22.145293    9245.3363    2662.5779    2924.3057    1894.4333     -822.054     297.5913    356.41487   -3501.8001 
 2883000    240.66404   -4294.6627   -3882.1727   -4294.6627            0    1317.2623    18.095469    23.465346    21.971852    9329.6095    783.47649    1863.0563    1305.2541   -719.86615    215.49678     794.9111   -3702.9424 
 2884000    240.19904   -4306.0346   -3894.3417   -4306.0346            0    961.19002    18.209274    23.277819    22.057784    9349.6809    1272.3335      389.767    1221.4696   -715.05248   -242.92456   -569.46125   -3763.2781 
 2885000    221.82224   -4284.4664   -3904.2707   -4284.4664            0    2218.9116     18.01629    23.457494    21.965238    9282.8833    2844.1491    1793.4832    2019.1026    570.05112    694.92985    34.536218   -3603.8715 
 2886000    235.17608   -4269.6297    -3866.546   -4269.6297            0    2061.9665    17.975326    23.481653     22.08358    9321.2664    3569.1256    1756.9991    859.77486    529.70088   -72.169522    106.04391   -3586.2399 
 2887000    237.06533   -4294.9313   -3888.6094   -4294.9313            0    1349.0443    18.005306    23.614367    22.097591    9395.5402    1914.0277    1316.7889    816.31619    207.45601    173.09426   -250.66175   -3703.7575 
 2888000    251.86247   -4298.9736     -3867.29   -4298.9736            0    1782.4367    18.047168    23.461658    22.085957    9351.5578    3207.8999    1410.5857    728.82464   -475.42311    581.77604    -101.2477   -3624.1961 
 2889000    232.32662   -4305.9519    -3907.752   -4305.9519            0    1494.4547    18.139926     23.30637    21.994538    9298.7591    1537.8481    2492.0405     453.4756    -31.88504    214.18587    181.65195   -3705.0847 
 2890000    233.04906   -4271.1411    -3871.703   -4271.1411            0    1596.6037     18.32704    23.400894    21.936739    9407.9896   -66.541494    3128.6203    1727.7323   -392.47712   -471.99885     542.9133   -3652.6396 
 2891000    226.87728   -4280.0317   -3891.1718   -4280.0317            0    1921.0632    17.852742    23.564742    22.185716    9333.4256    2252.6031    1607.1373    1903.4491    511.82355   -362.39391    181.60596   -3629.6797 
 2892000    230.89804    -4281.706   -3885.9546    -4281.706            0   -113.00144    18.115571    23.709537    21.977929    9439.7798   -1153.3759    54.137205    760.23439    1028.7002    7.7795378    378.03722   -3901.5115 
 2893000     227.3221   -4273.4026   -3883.7803   -4273.4026            0    2273.1851    18.131932    23.317126    22.151279    9365.2183    3502.3277    3158.9817    158.24578     567.0648   -1005.3296   -132.72481   -3573.3039 
 2894000    229.70711   -4267.1133   -3873.4031   -4267.1133            0    1361.0355    18.215494    23.330682    22.081365    9384.1365     177.0175    1058.7694    2847.3195   -149.67872    22.915947   -557.81421   -3687.1345 
 2895000    245.72897   -4267.7684   -3846.5974   -4267.7684            0    2020.0207    17.952035    23.760623    21.936002    9356.8351    1579.9572   -135.72973    4615.8345   -865.09413    188.27098   -297.72074   -3570.9457 
 2896000    239.21147   -4293.9041   -3883.9038   -4293.9041            0    1873.6307     17.98044    23.443818    22.084458    9309.2649    2489.1708    2683.4947    448.22674   -194.36113   -1100.0816     151.7148   -3629.5283 
 2897000    217.46267   -4272.4084   -3899.6849   -4272.4084            0     1018.133    18.241849    23.301075     22.13787    9409.8057    696.29307    1762.8658    595.24007    352.05343   -277.49013   -139.58653   -3759.9641 
 2898000    233.69716   -4297.4494   -3896.9004   -4297.4494            0    3190.3293    18.120714    23.309116    21.945814    9269.4253    2766.9885    4040.6942    2763.3052   -418.41904   -1081.9554   -680.92221   -3465.6156 
 2899000    254.56096   -4272.4152   -3836.1064   -4272.4152            0   -11.408556    18.054755    23.592548    22.199993    9456.2571   -369.43138    504.33742   -169.13171    63.825549    558.74921   -219.53072   -3837.6798 
 2900000    243.21666   -4290.5734   -3873.7083   -4290.5734            0    54.144705    18.117793    23.753721    21.837642     9398.157    526.24415   -1248.2449    884.43491   -710.13035   -102.42649    443.34977   -3866.2871 
 2901000    246.43877   -4266.3277   -3843.9401   -4266.3277            0    1657.7343    17.866361      23.2766    22.363349    9300.2043    2064.4184    2200.9143    707.87029   -393.24982   -1272.5028   -752.51343    -3619.095 
 2902000    236.24119   -4300.2273    -3895.318   -4300.2273            0    1089.9541    18.295487    23.360976    21.936314    9375.5902   -56.160253    1668.4297    1657.5929    637.46668   -118.38493    773.30538   -3746.2849 
 2903000    240.84531   -4266.7198   -3853.9192   -4266.7198            0    2018.4076     17.94495    23.224667    22.381045     9327.647    2556.0758    3071.2523    427.89456    -159.3379    509.92687    217.39595   -3579.3468 
 2904000    238.68434   -4297.5213   -3888.4245   -4297.5213            0    442.41499    18.043211     23.62795    21.975542    9368.7028    1708.9635    42.112245   -423.83075    764.97746    314.36128    -245.6145    -3827.976 
 2905000    233.65141   -4278.2321   -3877.7616   -4278.2321            0    2302.6082    18.000685    23.451751    22.107058    9332.4408    2647.1799    1935.3515    2325.2933   -607.10626   -873.53446    315.09033   -3564.3672 
 2906000    225.99685   -4300.7422   -3913.3914   -4300.7422            0     1589.999    18.183571    23.316788    21.973238    9316.2674    765.58308    2097.8115    1906.6024   -891.22415    -331.7884    59.412907   -3697.3611 
 2907000    231.28373   -4281.2115   -3884.7991   -4281.2115            0     1931.439    18.092519     23.39971     22.03384      9328.24         1140    2479.5065    2174.8106   -271.03637    254.42909   -757.09853   -3622.0407 
 2908000    241.19492   -4295.0391   -3881.6393   -4295.0391            0    2252.0963    17.926558    23.440458    22.127024    9297.9244    3595.4757     2352.788    808.02539   -484.30529    687.53579    163.70415   -3576.2535 
 2909000    237.98554   -4281.8665   -3873.9675   -4281.8665            0    1737.5913    17.911757    23.743247     21.94156    9331.3786    1807.1055    1728.5773    1677.0911   -471.14635    67.748439   -796.71781   -3637.5011 
 2910000     243.8353   -4262.1964    -3844.271   -4262.1964            0    2327.3747    18.124657    23.187278    22.225845    9340.6661    2087.2967    2190.0827    2704.7447   -418.21885    -851.5686    523.07828   -3527.2266 
 2911000    232.86124    -4301.741   -3902.6248    -4301.741            0    676.21671    18.168746    23.372183    22.068466    9371.2251    323.71228     2457.777   -752.83909    183.58431   -726.30665     865.1389   -3810.2065 
 2912000    227.00724   -4265.9958   -3876.9132   -4265.9958            0    2150.4948    17.864339    23.544258    22.158474     9319.912    3042.5893    1890.1777    1518.7174   -148.75411    328.18978    77.048352    -3584.615 
 2913000    243.69154   -4283.3853   -3865.7064   -4283.3853            0     2000.724    17.921339    23.577627    22.065994    9323.8236    2698.4381    1715.7081    1588.0259   -251.15615   -492.37775    207.76048   -3593.6511 
 2914000    249.40796   -4308.6183   -3881.1416   -4308.6183            0     2397.518    18.086147    23.369908    22.009232    9302.6771    2093.6531    2345.7899     2753.111   -509.83012   -167.31003   -195.50779   -3555.8703 
 2915000    243.42989   -4285.2182   -3867.9877   -4285.2182            0    2443.0547    18.013118    23.279629     22.12502    9277.8774    2443.8087    3716.7561    1168.5993    223.57768    856.23331     211.0531   -3537.4221 
 2916000    241.10298   -4265.7127   -3852.4704   -4265.7127            0    294.45278    18.215676    23.674559    21.852546    9423.8686    98.776608    22.864516    761.71721    392.95032   -271.19027    166.04947   -3812.0015 
 2917000    229.03908   -4287.0626   -3894.4975   -4287.0626            0    234.40549    17.909246    23.493761    22.328589    9394.8775    605.91173    1062.7435   -965.43871    182.56337     106.5116    1086.3802   -3862.3805 
 2918000    242.79468   -4249.4932   -3833.3514   -4249.4932            0    804.52382    18.212266    23.499006    21.908321    9376.1073     1837.143    189.32536    387.10314   -594.88689    746.80791   -138.77515   -3723.3401 
 2919000    249.23985   -4263.1715   -3835.9829   -4263.1715            0     952.1996    18.231404    23.290243    22.103431    9385.4221     570.2235     1230.618    1055.7573   -1157.1667    564.30568    146.38051   -3705.6489 
 2920000    232.42459   -4263.2067   -3864.8389   -4263.2067            0    1484.9182    18.042286    23.497431    22.105209    9371.4455    1371.7613      1876.72    1206.2734    474.83886    3.7900731    329.09908   -3661.8908 
 2921000    241.79079   -4287.0432   -3872.6221   -4287.0432            0    1780.7276    18.088596    23.502429    21.932279    9323.9806    627.36714    2497.5922    2217.2235    178.43899    111.03733    419.73766   -3630.4775 
 2922000    252.07229    -4309.713   -3877.6697    -4309.713            0    3004.3895    17.851906    23.357757    22.171232     9244.971    3719.0297    1761.4566    3532.6823   -1720.9095   -1048.7561    85.488763   -3472.5927 
 2923000    232.66245   -4276.9887   -3878.2132   -4276.9887            0    1891.0174     18.03763    23.431451    22.014591    9304.4197    851.38801    2765.0791    2056.5852   -273.59181   -47.517292    639.16127   -3621.6108 
 2924000    230.35722   -4281.3142   -3886.4898   -4281.3142            0    1565.2533     18.17833    23.240772    22.129894    9349.4025    2200.4822    2624.8339   -129.55618   -472.58795    258.07794    101.28806   -3673.0652 
 2925000    251.50786   -4293.1263   -3862.0504   -4293.1263            0    1114.9323    17.988287    23.558642     22.08144    9357.6645    1354.3762    1600.0143    390.40633   -617.74201   -581.25347    698.33934   -3709.8934 
 2926000    237.06634   -4293.8414   -3887.5178   -4293.8414            0    1854.7368    17.942503    23.632701     22.01412    9334.6435    3623.1519   -164.64202    2105.7004   -119.40687  -0.47986492   -185.94765    -3635.021 
 2927000    245.03439   -4267.9156   -3847.9351   -4267.9156            0    1183.0483    18.311634    23.125049    22.204568    9402.6892    1317.5436      990.377    1241.2241    330.92961    505.76952   -862.66286   -3685.7054 
 2928000    245.77658   -4275.5061   -3854.2534   -4275.5061            0    877.70292    18.088074    23.452002     22.11581    9381.5609    1770.4003    489.57039    373.13808   -36.386157    198.94107    -686.2475   -3734.1657 
 2929000    233.32264    -4267.919   -3868.0119    -4267.919            0    608.80986    17.770834     23.66023    22.324808    9386.7344    2234.2697   -76.360481   -331.47962    1020.6507   -723.46109   -240.44206   -3784.6684 
 2930000    228.20497    -4270.752   -3879.6165    -4270.752            0     1019.203    18.138933    23.564023    22.046057    9423.0635    679.26785     1794.787    583.55411   -339.87591    124.74022   -656.18762   -3739.5518 
 2931000    251.43525    -4293.248   -3862.2966    -4293.248            0    1070.3912    18.334257    23.204968    22.055217    9383.3003    1252.6043    1025.2287    933.34062   -515.36698   -1386.0972   -355.68253    -3715.818 
 2932000    250.53112   -4270.7463   -3841.3445   -4270.7463            0    1694.0599    17.983553    23.493999    22.135373    9352.3183    2727.8888    1232.0966    1122.1942     235.5002   -400.34885    652.07897   -3610.2849 
 2933000    241.29484   -4295.4259   -3881.8548   -4295.4259            0    1163.3947    17.935595    23.786428    21.950753    9364.7121    1736.4742    2196.0729   -442.36304   -553.78143   -513.42517   -23.710618   -3722.9645 
 2934000    233.47175   -4286.7819   -3886.6193   -4286.7819            0    951.33652    18.102116    23.236244    22.282496    9372.5789   -260.61546    2917.8558     196.7692    139.32833   -688.15418    12.339769   -3756.5817 
 2935000    245.04345   -4269.3643   -3849.3683   -4269.3643            0    3067.4243    18.139457    23.323749    22.009693    9311.8643    2837.4963    2916.8215     3447.955    109.46283   -58.458266    998.45846   -3432.7998 
 2936000    240.68818   -4255.7628   -3843.2315   -4255.7628            0    1127.5379    17.942181    23.453261    22.234767    9356.4493    917.19594    2266.5416    198.87611   -292.83922    42.791894    359.47764   -3689.3742 
 2937000    241.85808   -4294.9533   -3880.4168   -4294.9533            0    2222.7034    17.996276    23.636049    21.904211    9317.1941    1200.3848    1053.0552    4414.6702   -66.577295   -56.664884   -424.17726   -3578.3921 
 2938000    259.51671   -4282.9887   -3838.1859   -4282.9887            0    2700.2681    17.965121    23.273385    22.235976    9297.0655    3480.4101    2543.0726    2077.3216    457.36732   -1105.2601   -486.25361   -3472.0615 
 2939000    241.11934   -4306.6385   -3893.3682   -4306.6385            0    606.81636    18.166753    23.352014    22.022691    9342.6917    204.80241    1190.3988    425.24784    745.58173   -408.55006   -34.498039   -3810.6873 
 2940000     253.2979     -4264.81   -3830.6661     -4264.81            0    1415.4502    18.138336    23.462618    22.079295    9396.3489    1071.7954    3017.6744     156.8809   -350.02857   -281.25243    77.470878   -3636.6983 
 2941000    241.17048   -4270.2342   -3856.8763   -4270.2342            0    793.92329    17.907858    23.546912    22.153697    9341.6547    1692.6606     625.6806    63.428636     109.9695    98.107854      232.436   -3748.7134 
 2942000    247.33607   -4292.9962   -3869.0706   -4292.9962            0    1885.3805    18.068558    23.532937    21.979448     9345.798    2447.3888    1062.0111    2146.7415    508.49134   -694.37785   -394.46074   -3612.0954 
 2943000    235.66242   -4266.2633    -3862.346   -4266.2633            0    1861.8504     18.00329     23.36211    22.176026    9327.1216    2031.5515    2407.2338    1146.7658    584.50617   -450.26449    720.93019    -3609.085 
 2944000    236.97071    -4256.013   -3849.8533    -4256.013            0    1651.0584    18.291163     23.44124    21.748514     9325.057    345.27615     1352.131    3255.7679   -901.61416   -365.31795   -231.36787   -3625.3153 
 2945000    239.41419   -4282.3763   -3872.0286   -4282.3763            0    1387.0688    18.028299     23.17859    22.269034    9305.5738    974.51294    2269.9379    916.75548   -1327.8882   -505.25617    442.36651   -3683.7864 
 2946000    245.95075   -4294.1966   -3872.6454   -4294.1966            0    1843.0777    18.077586    23.611613    21.802063    9306.0136    1732.4008    2109.3332     1687.499    423.04037    443.84707   -155.30188   -3622.5054 
 2947000     233.1731   -4268.3566   -3868.7059   -4268.3566            0    602.89997    18.029182    23.485646     22.19735     9398.957    451.80339    751.88768    605.00885   -398.95497     166.6177    5.8565129   -3786.0639 
 2948000    243.54792   -4281.8264   -3864.3936   -4281.8264            0    2156.2318     18.13278    23.501416     21.89769    9331.6133    1758.4522    1107.3714    3602.8719   -1023.4258   -876.25518    300.72427   -3570.9477 
 2949000    249.48043   -4270.5938   -3842.9929   -4270.5938            0    228.77193    17.989732    23.491062    22.243328    9399.9835    776.52261    450.26504   -540.47187    -216.0234    147.88308    651.18498   -3811.6307 
 2950000    243.93676   -4287.3312    -3869.232   -4287.3312            0    866.36031    18.083546    23.424095    22.050015    9340.1814   -40.133081    1255.4117    1383.8024   -539.97331    480.49681     38.88073    -3751.219 
 2951000    240.92373   -4278.4879   -3865.5529   -4278.4879            0    1665.9541    18.090201    23.433012    22.023873    9336.0936    662.12936    2196.9067    2138.8263   -569.08645   -469.48607   -574.49181    -3638.721 
 2952000    243.72425   -4276.6986   -3858.9636   -4276.6986            0     1840.468    17.892303    23.461338    22.220292    9327.5756    2494.1119    1741.5131    1285.7792    -814.2747    145.91689   -259.92127    -3608.599 
 2953000    239.52507   -4301.3396   -3890.8018   -4301.3396            0    1493.3591    18.226544    23.479303    21.764172    9313.9021    1529.8621    144.96479    2805.2505   -234.02533    596.26966    719.70235   -3687.9533 
 2954000    241.51712   -4310.3262   -3896.3741   -4310.3262            0    1274.0499    18.130599    23.224281    22.156892    9329.6052    1691.8562    1167.2074    963.08614   -32.200481   -666.44775   -153.54165   -3723.0234 
 2955000    234.05489   -4299.4339   -3898.2719   -4299.4339            0    614.47643    17.999727     23.64062    21.993822    9358.9148   -180.05044    128.60315    1894.8766    629.55254    92.937486   -412.84221   -3814.4019 
 2956000    234.53838   -4287.5347   -3885.5439   -4287.5347            0    533.98006    18.002954    23.511219    22.129856     9366.935   -494.79769    290.07793      1806.66   -1899.4875     451.9609    489.87945   -3812.5984 
 2957000    245.08996   -4297.4541   -3877.3783   -4297.4541            0     654.5364    18.235003    23.150143    22.152765    9351.6332   -310.90947    1124.4116    1150.1071   -164.58605    -947.2872   -82.894569     -3788.11 
 2958000    233.05996   -4251.6998    -3852.243   -4251.6998            0    1410.0987    18.148684    23.427511    22.017705    9361.4546    1065.3836    3657.3539    -492.4414    472.28886   -687.80321    1065.6524   -3659.7262 
 2959000    234.72614    -4270.666   -3868.3534    -4270.666            0    1070.3777    17.822818    23.650299    22.310433    9404.1819    2120.0094    252.72586    838.39781    589.08422   -642.89432    209.36621   -3721.5508 
 2960000    243.87935   -4255.2769    -3837.276   -4255.2769            0     1453.933    18.054505     23.59647    21.912061    9335.0329    408.36147     1695.092    2258.3454    1165.2128   -511.93747   -165.90164   -3639.3349 
 2961000    236.92817   -4285.2696   -3879.1828   -4285.2696            0    1561.4959    18.127907    23.181403     22.29311    9368.2405    907.67679    2005.7953    1771.0156   -372.72997   -11.407712    1531.3475   -3665.8416 
 2962000    245.51773   -4289.9296   -3869.1206   -4289.9296            0    1849.2602    18.096522    23.566883     21.90119    9340.3891    2068.7948    1216.4692    2262.5167   -211.37018    461.23754    328.77956   -3617.2144 
 2963000    251.00708   -4280.4472   -3850.2297   -4280.4472            0    538.29228    18.023688    23.609694    22.152856    9426.7879    1506.6134   -443.71471    551.97813    656.62093    444.79838   -203.13034   -3776.2252 
 2964000    235.19744   -4284.8472   -3881.7268   -4284.8472            0    2102.3935    18.247747    23.223576    22.057473    9347.4706    1503.8153     3243.854    1559.5112    -613.2405   -116.31644    571.13137   -3595.1216 
 2965000    221.80991   -4302.4135   -3922.2389   -4302.4135            0    275.62196    18.175985    23.371436    22.100951    9388.4585    7.3805132    152.49775    666.98762   -81.749784    534.49137   -463.70478   -3884.5005 
 2966000    237.99698   -4288.7916   -3880.8729   -4288.7916            0     217.3964    17.905265    23.705796    22.119848    9388.9589    445.73527   -22.010964    228.46489   -1097.6344   -286.97389    226.09005   -3851.1052 
 2967000     243.1222   -4318.7343   -3902.0311   -4318.7343            0    976.65915    18.134414    23.534118    21.939864    9363.4391   -557.44818    996.06241    2491.3632    1163.9032    181.78719   -174.30958   -3768.6623 
 2968000    237.28504   -4269.3765    -3862.678   -4269.3765            0    1616.2238    17.994746    23.152777     22.27512    9280.4463    1178.2458    1049.5852    2620.8404    774.87259   -302.98722    291.78823   -3643.9289 
 2969000     250.9619   -4286.3999   -3856.2598   -4286.3999            0    821.19718     18.09612    23.578492    21.970582    9374.3908   -372.67741    1345.3387    1490.9302    736.13971     600.8692   -98.744825   -3743.9891 
 2970000    238.28615   -4300.9821   -3892.5678   -4300.9821            0    1539.9212     17.95723    23.460012    22.121431    9319.2462    1911.9371    1940.0885     767.7379    1344.8474    367.10522    101.10439   -3683.2746 
 2971000    240.89776   -4291.5224   -3878.6319   -4291.5224            0    665.92051    18.269931    23.424513    21.971561    9403.0425    328.04262    372.76854    1296.9504   -37.299277    418.99961    103.28512   -3787.3117 
 2972000    245.96404     -4307.06   -3885.4861     -4307.06            0    2537.3588    17.924192    23.442699    22.137561    9302.0136    3327.3024     1295.713    2989.0609    752.50364    306.36551   -203.66001   -3541.2672 
 2973000    228.21648   -4268.5205   -3877.3653   -4268.5205            0     1628.763    17.984781    23.644555    21.961218    9338.8351    2564.9566   -487.30722    2808.6395   -552.91983   -211.88744   -376.54331   -3655.5321 
 2974000    238.91364   -4278.1828    -3868.693   -4278.1828            0    1575.0897    18.173441    23.344758    22.133373    9390.1853    770.35507    2476.3654    1478.5485    368.21269    185.36927   -94.560268   -3652.9904 
 2975000    229.19052   -4277.6534   -3884.8287   -4277.6534            0    2330.0874    18.045744    23.428407    22.115074    9349.8779    3656.9192    2479.0886    854.25425   -108.40629   -83.205978   -91.320128   -3567.1017 
 2976000    241.62651   -4281.8687   -3867.7291   -4281.8687            0    1246.8366    17.953051     23.67926    22.004114    9354.2781    281.61507    1533.4622    1925.4327    121.80834   -68.540632   -161.82791   -3697.6325 
 2977000    245.28647   -4232.7478   -3812.3352   -4232.7478            0    542.94565    18.215235    23.317532    22.087175    9381.1814    228.57505    1053.4981    346.76385   -5.6292435   -174.35234   -548.66151   -3738.0521 
 2978000     243.2168    -4260.932   -3844.0668    -4260.932            0    997.51532    18.168302    23.373607    22.139456    9401.7138   -8.8535167    595.67509    2405.7244    638.40405    208.69714   -26.064348   -3707.2931 
 2979000    240.13343   -4259.7674   -3848.1869   -4259.7674            0    2251.9051    17.847068    23.652673    22.040588    9304.0127    3191.8233    3084.9141    478.97792   -550.93275    60.363151   -343.50604    -3542.627 
 2980000    254.15052    -4273.559   -3837.9537    -4273.559            0   -94.704031     18.04711    23.750928    22.079467    9464.0459    771.36055   -611.83232   -443.64033   -345.65487    907.01276    36.140036   -3851.0251 
 2981000    247.52208   -4275.7462   -3851.5018   -4275.7462            0    1030.0198    18.169246    23.359131    22.044666    9356.1488    1402.4199    1487.8322    199.80723   -1032.1403   -337.65407    703.76344   -3710.9558 
 2982000    242.24866   -4279.5821   -3864.3762   -4279.5821            0    1835.9346    18.181158    23.180502     22.10485    9316.0529    896.87288    3732.2881    878.64279   -263.68638    67.217455    272.67514   -3614.9368 
 2983000    235.08903   -4286.0164   -3883.0818   -4286.0164            0    1601.8589     17.99601    23.694949    21.929661    9351.1263    2205.1752    457.77602    2142.6255    1286.0609   -72.146834   -322.53283   -3664.6258 
 2984000    242.45204   -4264.4369   -3848.8824   -4264.4369            0    476.77045    17.933281    23.737017    22.065416    9392.8635    506.28379    785.44571    138.58184   -342.21007   -175.86051     150.8214   -3783.5719 
 2985000    221.16033   -4270.6624   -3891.6012   -4270.6624            0    970.32415    18.013303    23.470818    22.108554    9347.2078    1012.7309    41.938281    1856.3033   -474.28008   -413.09774    -516.4287   -3759.3271 
 2986000    253.94765   -4309.2553   -3873.9977   -4309.2553            0    638.57419       18.171    23.588027    21.854508    9367.2365    467.58627    155.03794    1293.0984    148.10959     -238.395   -242.98812   -3786.7611 
 2987000    246.08924   -4288.2054   -3866.4169   -4288.2054            0    946.83529    17.895329    23.335243    22.408841    9357.7495     1613.938    1779.5022   -552.93426   -464.22688   -317.00785   -5.8184707   -3737.1992 
 2988000    247.34833   -4276.0718   -3852.1252   -4276.0718            0    2005.8512    18.121407     23.49384    21.826353    9292.3832    613.81289    1043.3965    4360.3442    301.92969    -10.23073    648.46571   -3580.2925 
 2989000    243.15542   -4280.7524   -3863.9923   -4280.7524            0   -129.59339    17.941123    23.611058    22.301443    9447.0898    893.89507   -439.79226   -842.88298   -960.40226    303.38089   -535.88523   -3881.8472 
 2990000    234.54187   -4274.8101   -3872.8134   -4274.8101            0     1315.665    18.149646    23.489935    22.057417    9403.8269    375.34218    1609.4085    1962.2443   -782.30837   -128.55274    -868.7934   -3692.3763 
 2991000      234.479   -4290.5627   -3888.6738   -4290.5627            0    2349.5938    18.125392    23.421329    21.991491    9335.8448    2266.0133    2831.8327    1950.9355   -439.13501    434.89589    141.76466   -3568.7678 
 2992000    240.65617   -4283.1283   -3870.6519   -4283.1283            0    343.17614     18.06066    23.321721    22.467409    9463.4001    1222.6968    1692.1603   -1885.3287    662.51933   -154.83114    577.44808   -3823.2888 
 2993000    240.84908   -4256.6105   -3843.8035   -4256.6105            0    1956.1961    18.093126     23.59953    21.863629    9335.5351    1491.5331    2143.4524    2233.6028   -367.04103    45.825928   -343.74856   -3577.4689 
 2994000    239.15691   -4262.2502   -3852.3435   -4262.2502            0    254.51414    18.026552    23.217731     22.49767    9416.0766    693.55597    52.925986    17.060469   -309.00367    101.11293    1206.4006   -3817.3926 
 2995000    251.47754   -4267.4132   -3836.3893   -4267.4132            0    1274.3933    18.239134    23.298147    22.023589     9358.661    558.10009    2136.4074    1128.6725    612.36086   -911.76625   -80.422239   -3662.4519 
 2996000    232.45252   -4267.0885   -3868.6728   -4267.0885            0   -239.92846    18.275531    23.555668    21.906304    9430.4958   -393.51256   -488.78657    162.51377   -750.52386    255.86828   -495.12072   -3901.6712 
 2997000    240.54563   -4288.6288   -3876.3418   -4288.6288            0    2274.9351    17.944191    23.461625    22.140195    9321.0192    1256.9204     4252.732    1315.1528   -122.50762   -316.52407    424.33131   -3567.0928 
 2998000     251.8744   -4275.3415   -3843.6374   -4275.3415            0    2419.3151    18.128884    23.498683     21.82705    9298.4305    2267.8734    2253.2135    2736.8583   -977.97241   -498.04586    -419.0733   -3515.5588 
 2999000    239.19385   -4297.4031   -3887.4331   -4297.4031            0    1696.3593    18.167154    23.200657    22.067332    9301.1578    1045.4051    2547.8484    1495.8243    13.146865    298.66153    160.50032   -3657.3256 
 3000000    247.67675   -4254.8331   -3830.3236   -4254.8331            0    1688.9948    18.033718    23.503427    22.081971    9359.5361    2447.7141     1017.257    1602.0134    73.970028   -358.92977    110.33206   -3599.7771 
Loop time of 346.814 on 64 procs for 250000 steps with 864 atoms

Performance: 124.562 ns/day, 0.193 hours/ns, 720.847 timesteps/s
195.0% CPU use with 32 MPI tasks x 2 OpenMP threads

MPI task timing breakdown:
Section |  min time  |  avg time  |  max time  |%varavg| %total
---------------------------------------------------------------
Pair    | 16.816     | 25.498     | 35.428     | 107.0 |  7.35
Bond    | 0.99999    | 1.3208     | 2.4097     |  26.8 |  0.38
Kspace  | 172.02     | 182.66     | 192.11     |  41.6 | 52.67
Neigh   | 1.332      | 1.4096     | 1.4865     |   3.9 |  0.41
Comm    | 53.853     | 56.328     | 58.72      |  17.0 | 16.24
Output  | 1.1431     | 1.1434     | 1.145      |   0.0 |  0.33
Modify  | 61.805     | 64.202     | 68.852     |  19.4 | 18.51
Other   |            | 14.25      |            |       |  4.11

Nlocal:        27.0000 ave          40 max          17 min
Histogram: 3 5 6 2 2 4 4 0 5 1
Nghost:        2103.66 ave        2199 max        2004 min
Histogram: 5 11 0 0 0 0 0 1 3 12
Neighs:        6494.56 ave        9450 max        4184 min
Histogram: 5 3 7 0 2 5 4 0 3 3

Total # of neighbors = 207826
Ave neighs/atom = 240.53935
Ave special neighs/atom = 2.0000000
Neighbor list builds = 5550
Dangerous builds = 0

unfix		3
unfix		2
unfix		1

write_data	data.final.${pid} nocoeff
write_data	data.final.0 nocoeff
System init for write_data ...
PPPM initialization ...
  extracting TIP4P info from pair style
  using 12-bit tables for long-range coulomb (../kspace.cpp:340)
  G vector (1/distance) = 0.37143031
  grid = 24 27 25
  stencil order = 5
  estimated absolute RMS force accuracy = 0.0031908023
  estimated relative force accuracy = 9.6090063e-06
  using double precision FFTW3
  3d grid and FFT values/proc = 4410 672
Last active /omp style is kspace_style pppm/tip4p/omp

write_restart   restart.lmp.${pid}
write_restart   restart.lmp.0
System init for write_restart ...
PPPM initialization ...
  extracting TIP4P info from pair style
  using 12-bit tables for long-range coulomb (../kspace.cpp:340)
  G vector (1/distance) = 0.37143031
  grid = 24 27 25
  stencil order = 5
  estimated absolute RMS force accuracy = 0.0031908023
  estimated relative force accuracy = 9.6090063e-06
  using double precision FFTW3
  3d grid and FFT values/proc = 4410 672
Last active /omp style is kspace_style pppm/tip4p/omp
Total wall time: 0:05:46
