LAMMPS (30 Jul 2021)
Processor partition = 0
  using 4 OpenMP thread(s) per MPI task
using multi-threaded neighbor list subroutines
variable        pid world 0 1
variable        phase world IceVI IceV

shell cd ${phase}
shell cd IceVI
include Restart.lmp
echo both
log log.lammps
#include		in.partitions
include		in.temp
variable        temperature equal 80.77
variable	tempDamp equal 100.0
include		in.pressure
variable        pressure equal 8244.6
variable        pressureDamp equal 1000.0 # This is 1 ps
include		in.seed
variable        seed equal 745823

units		real
atom_style	full
read_restart	restart.lmp.${pid}
read_restart	restart.lmp.0
Reading restart file ...
  restart file = 30 Jul 2021, LAMMPS = 30 Jul 2021
  restoring atom style full from restart
  orthogonal box = (0.048971213 0.031236410 0.0019340449) to (24.681030 24.698765 22.808066)
  2 by 4 by 2 MPI processor grid
  restoring pair style lj/cut/tip4p/long/omp from restart
  restoring bond style harmonic/omp from restart
  restoring angle style harmonic/omp from restart
  1920 atoms
  1280 bonds
  640 angles
Finding 1-2 1-3 1-4 neighbors ...
  special bond factors lj:    0        0        0       
  special bond factors coul:  0        0        0       
     2 = max # of 1-2 neighbors
     1 = max # of 1-3 neighbors
     1 = max # of 1-4 neighbors
     2 = max # of special neighbors
  special bonds CPU = 0.001 seconds
  read_restart CPU = 0.007 seconds
include 	in.setup
variable	out_freq equal 1000
variable	out_freq2 equal 10000
variable	out_freq3 equal 1000

timestep	2.0

neigh_modify    delay 7 every 1

include		in.tip4p
# This is TIP4P/Ice

# create groups ###
group ox type 2
640 atoms in group ox
group hy type 1
1280 atoms in group hy

# set charges - beside manually ###
set group ox charge -1.1794
Setting atom values ...
  640 settings made for charge
set group hy charge 0.5897
Setting atom values ...
  1280 settings made for charge

# ### TIP3P Potential Parameters ###
pair_style lj/cut/tip4p/long/omp 2 1 1 1 0.1577 8.5
pair_coeff 1 1*2 0.000 0.000
pair_coeff 2 2 0.21084 3.1668
bond_style  harmonic
bond_coeff  1 450 0.9572
angle_style harmonic
angle_coeff 1 55 104.52
kspace_style pppm/tip4p/omp 1.0e-5
pair_modify tail yes

thermo          ${out_freq}
thermo          1000
thermo_style    custom step temp pe etotal epair emol press lx ly lz vol pxx pyy pzz pxy pxz pyz enthalpy

restart 	${out_freq3} restart.lmp.${pid} restart2.lmp.${pid}
restart 	1000 restart.lmp.${pid} restart2.lmp.${pid}
restart 	1000 restart.lmp.0 restart2.lmp.${pid}
restart 	1000 restart.lmp.0 restart2.lmp.0


include         in.dump
dump            myDump all atom ${out_freq2} dump.water.${pid}
dump            myDump all atom 10000 dump.water.${pid}
dump            myDump all atom 10000 dump.water.0
dump            myDump2 all dcd ${out_freq2} dump.dcd
dump            myDump2 all dcd 10000 dump.dcd
dump_modify     myDump append yes
dump_modify     myDump2 append yes


variable natoms 	equal  "count(all)"                        # NUMBER ATOMS
variable H      	equal  "enthalpy/v_natoms"                 # ENTHALPY-per-atom
variable Vol      	equal  "vol/v_natoms"                 # volume-per-atom
fix AVG all 		ave/time ${out_freq} 1 ${out_freq} v_Vol v_H file vol_enthalpy.dat
fix AVG all 		ave/time 1000 1 ${out_freq} v_Vol v_H file vol_enthalpy.dat
fix AVG all 		ave/time 1000 1 1000 v_Vol v_H file vol_enthalpy.dat




fix 		1 all shake 1e-6 200 0 b 1 a 1
Finding SHAKE clusters ...
       0 = # of size 2 clusters
       0 = # of size 3 clusters
       0 = # of size 4 clusters
     640 = # of frozen angles
  find clusters CPU = 0.000 seconds
fix             2 all nph aniso ${pressure} ${pressure} ${pressureDamp}
fix             2 all nph aniso 8244.6 ${pressure} ${pressureDamp}
fix             2 all nph aniso 8244.6 8244.6 ${pressureDamp}
fix             2 all nph aniso 8244.6 8244.6 1000
fix             3 all temp/csvr ${temperature} ${temperature} ${tempDamp} ${seed}
fix             3 all temp/csvr 80.77 ${temperature} ${tempDamp} ${seed}
fix             3 all temp/csvr 80.77 80.77 ${tempDamp} ${seed}
fix             3 all temp/csvr 80.77 80.77 100 ${seed}
fix             3 all temp/csvr 80.77 80.77 100 745823


run             250000
PPPM initialization ...
  extracting TIP4P info from pair style
  using 12-bit tables for long-range coulomb (../kspace.cpp:340)
  G vector (1/distance) = 0.37532367
  grid = 30 30 30
  stencil order = 5
  estimated absolute RMS force accuracy = 0.0031684785
  estimated relative force accuracy = 9.541779e-06
  using double precision FFTW3
  3d grid and FFT values/proc = 7920 1800
Last active /omp style is kspace_style pppm/tip4p/omp
Neighbor list info ...
  update every 1 steps, delay 7 steps, check yes
  max neighbors/atom: 2000, page size: 100000
  master list distance cutoff = 10.8154
  ghost atom cutoff = 10.8154
  binsize = 5.4077, bins = 5 5 5
  1 neighbor lists, perpetual/occasional/extra = 1 0 0
  (1) pair lj/cut/tip4p/long/omp, perpetual
      attributes: half, newton on, omp
      pair build: half/bin/newton/omp
      stencil: half/bin/3d
      bin: standard
Setting up Verlet run ...
  Unit style    : real
  Current step  : 36750000
  Time step     : 2
Per MPI rank memory allocation (min/avg/max) = 12.57 | 12.57 | 12.57 Mbytes
Step Temp PotEng TotEng E_pair E_mol Press Lx Ly Lz Volume Pxx Pyy Pzz Pxy Pxz Pyz Enthalpy 
36750000    82.149368   -9851.0888   -9537.8979   -9851.0888            0     8191.666    24.632059    24.667528    22.806132    13857.279    8991.3773    8436.1295    7147.4912   -149.00173   -708.74292     108.3288   -7882.4097 
36751000    79.078451   -9848.4877   -9547.0046   -9848.4877            0    8389.4867    24.648341    24.701081    22.768207     13862.21    8452.2807    8185.1319    8531.0473    608.84652   -305.02178   -264.00714   -7850.9346 
36752000    81.090615   -9854.7798   -9545.6254   -9854.7798            0     7854.896    24.717308    24.693205    22.734339    13875.894    7819.0872    7837.9806    7907.6203    230.12863   -987.05994   -53.978617    -7956.064 
36753000    81.995288    -9860.622   -9548.0186    -9860.622            0    7933.0357    24.597548    24.791838    22.740937    13867.843    8741.9382    7133.7478     7923.421   -297.32909    235.85417   -510.98238   -7943.5759 
36754000    80.602749   -9866.6221   -9559.3277   -9866.6221            0    7687.3471     24.73961    24.697925    22.714536    13878.968    7769.1725    7438.4453    7854.4235   -16.569975    95.621457   -227.97432   -8003.3278 
36755000    80.817423   -9849.9041   -9541.7912   -9849.9041            0    7596.8141    24.725091    24.677691    22.764571    13889.989    6559.8403    8328.3874    7902.2146   -454.24276    579.85186    453.47963   -8002.8951 
36756000    83.267085   -9850.5841    -9533.132   -9850.5841            0     7987.496    24.662315    24.667555    22.813841    13879.006    8186.6791    7813.3465    7962.4625   -414.69714   -598.93876   -308.91158   -7916.3745 
36757000    78.897862   -9853.6666    -9552.872   -9853.6666            0    8219.6792     24.58009      24.7352    22.790244    13856.319    8998.3071    7475.1223    8185.6084   -637.48914    -442.6911   -190.10507   -7891.8376 
36758000    78.889268   -9856.8862   -9556.1243   -9856.8862            0    7638.6886    24.666066    24.739769    22.752684    13884.433    8048.1648    6990.8228     7877.078   -106.66747    573.61249    55.519677   -8009.3647 
36759000    82.475707   -9849.6541    -9535.219   -9849.6541            0    7458.6148    24.712975    24.781254    22.692585     13897.36    7365.2808    6979.2493    8031.3142   -600.02936     -215.793    45.026418   -8023.5164 
36760000    81.494513   -9852.4882   -9541.7939   -9852.4882            0    8130.4211    24.682866      24.7094    22.746244    13872.907    8112.2603    7743.6759    8535.3271   -450.58294   -229.05954   -170.83652   -7896.8299 
36761000      78.3089   -9852.0549   -9553.5056   -9852.0549            0    7430.9399    24.629337    24.711291    22.841181    13901.662    7565.8555    7627.7495    7099.2148   -458.66255    4.4178753    884.23106   -8046.9458 
36762000    81.505738   -9845.0643   -9534.3273   -9845.0643            0    7820.1014    24.656418    24.656537    22.843892    13887.759    7073.9825    8929.4208    7456.9007   -445.96586   -418.59583    3.1373907    -7950.454 
36763000    82.992256    -9857.379   -9540.9747    -9857.379            0    7744.2718    24.699351    24.741961    22.736452    13894.482    7748.5622    7298.4799    8185.7734   -451.05137   -234.04724    839.34507   -7971.7004 
36764000    80.666792   -9873.5356    -9565.997   -9873.5356            0    7050.5107      24.6866    24.756454    22.743113    13899.515    7040.2714    6793.4296    7317.8312   -368.30597   -432.75722    -126.5094   -8136.7868 
36765000    81.227378   -9858.8433   -9549.1674   -9858.8433            0    8066.3418    24.671053    24.717144    22.730256    13860.864    8755.8248    7637.4244    7805.7761   -252.86195    240.51617   -83.362937   -7918.5848 
36766000    84.341526   -9862.9695   -9541.4211   -9862.9695            0    7878.3107     24.79149    24.642587    22.711151    13874.843    6438.3413    8981.5535    8215.0373   -215.40626   -825.60522    595.68219   -7947.2421 
36767000    83.275229   -9859.0428   -9541.5597   -9859.0428            0    7943.8497    24.637019    24.769929    22.729735    13870.985    8253.3885    7482.8233    8095.3373   -368.44867    142.47727    299.57522   -7934.5659 
36768000    81.714543   -9871.9992   -9560.4661   -9871.9992            0    7301.6389    24.668547     24.69505    22.796071    13887.161    7312.0882    7808.5287    6784.2998    216.41971    85.294005    79.724907   -8081.6652 
36769000    78.001107    -9843.927   -9546.5512    -9843.927            0    8952.0336    24.608246    24.711964    22.758416    13839.805    9786.2829    8037.8011    9032.0168    44.908445    437.16369   -418.16154   -7739.6785 
36770000    81.855979   -9862.7095   -9550.6371   -9862.7095            0    8059.7491    24.654415    24.726936    22.734594    13859.649    7767.0889     7710.721    8701.4374   -128.66371    373.12653   -9.4812772   -7921.5301 
36771000    80.197644   -9857.9272   -9552.1772   -9857.9272            0    7915.2231    24.728157    24.656042     22.75455    13873.415    6896.5122    8786.7689    8062.3883   -447.46992   -977.46476    417.05551   -7950.6939 
36772000    83.657265    -9858.619   -9539.6793    -9858.619            0    7473.0922    24.634575    24.740137    22.797147    13894.012    8026.9861    7076.9957    7315.2949   -200.89045   -58.094599   -214.45528   -8025.4073 
36773000    80.009589   -9865.1051   -9560.0721   -9865.1051            0    7623.7611    24.671419    24.735133    22.750897    13883.753    7444.6633    7136.7521    8289.8679    101.57876    -828.2142    365.55517   -8016.4106 
36774000    82.265289   -9838.4484   -9524.8156   -9838.4484            0    7438.0039    24.715022    24.689982    22.765315    13891.701    7105.7298    7927.3158    7280.9659   -92.904492   -81.063889    328.58468   -8017.9042 
36775000    80.460127   -9851.5812   -9544.8305   -9851.5812            0    7499.6889    24.680844    24.625007    22.842945    13883.164    7576.7719    7906.4381    7015.8566   -360.05406   -606.12418   -209.28536   -8026.3556 
36776000    82.768819   -9851.6214   -9536.0689   -9851.6214            0    7629.2841    24.741651    24.747878     22.66958     13880.66    7072.5926    7477.8902    8337.3694   -390.95122   -170.68197    84.965024   -7991.6334 
36777000    79.274286   -9845.2026   -9542.9728   -9845.2026            0    8585.7134    24.646676    24.738468    22.706364    13844.548     8597.491    8358.7424    8800.9069   -42.740258    291.85653    -21.98163   -7809.4441 
36778000    80.835298   -9856.2729   -9548.0919   -9856.2729            0    8737.2064    24.620584    24.657797     22.78809    13834.407    8937.0077     9092.025    8182.5865     71.30185    237.13808    87.778297   -7785.2675 
36779000    77.535609   -9849.2062   -9553.6051   -9849.2062            0    7712.0572    24.626147    24.740827    22.806853    13895.559    7678.7566    7539.8866    7917.5283    473.59717    465.43489   -517.60459   -7990.7376 
36780000    79.324318   -9840.8846   -9538.4641   -9840.8846            0    7885.3911    24.649685    24.715877    22.785311    13881.691    8416.8829    8034.4663     7204.824   -1073.0294    -230.8795    492.31563   -7942.0649 
36781000    86.192325   -9856.0168   -9527.4124   -9856.0168            0    8624.3425    24.686571    24.668481    22.727648    13840.688    8122.1615    8892.1919     8858.674   -167.77651    819.34366   -117.25966   -7786.5696 
36782000    80.992972   -9839.6351   -9530.8529   -9839.6351            0     8479.994    24.676248    24.627769    22.786298    13847.711    8771.0639    9156.9554    7511.9627   -33.166545    51.710255    794.16113   -7818.2786 
36783000    82.351623   -9849.4427   -9535.4807   -9849.4427            0    8470.5748    24.600185    24.696784    22.781691    13840.912    8866.7008    8682.1141    7862.9096   -219.57008    607.06868    199.69436   -7825.6485 
36784000    79.044969   -9854.4911   -9553.1356   -9854.4911            0    8801.9373    24.649965    24.670626    22.742784    13830.571    8987.9629    8805.4243    8612.4247   -281.26145    376.72022   -41.725192   -7777.7436 
36785000    76.983669   -9853.1322   -9559.6354   -9853.1322            0    8776.5439    24.646779    24.747375    22.690205    13839.734    8867.2501    8315.5626    9146.8192   -424.70349   -600.33322   -510.01776   -7788.1925 
36786000    80.211086   -9851.7542    -9545.953   -9851.7542            0    8188.3986    24.771503     24.74597    22.588912    13846.887    7059.0759    8740.9185    8765.2014    25.419757    262.79279    523.49773   -7892.3661 
36787000    80.939783   -9854.3907   -9545.8113   -9854.3907            0    8478.4032    24.685781    24.688662    22.734281     13855.61    8103.2438    8531.1467    8800.8191    121.05833   -569.40252    365.17779   -7832.5816 
36788000    83.231039   -9858.8054   -9541.4908   -9858.8054            0    7905.1777    24.571405    24.754253    22.812842    13875.838    8637.1922     7520.015    7558.3259    -311.6444    69.035291   -872.57195   -7941.7606 
36789000    80.322131    -9860.854   -9554.6294    -9860.854            0    8353.3246    24.739613    24.638294     22.73668    13858.958    8199.4968    8299.7289    8560.7481    92.122763   -283.69121    110.04274   -7866.2664 
36790000    80.759924    -9857.717   -9549.8233    -9857.717            0    8361.0082    24.713538    24.705669    22.696405    13857.619    7775.5197    8460.9064    8846.5984    332.57611    169.93542    430.73532   -7860.0706 
36791000    77.093574   -9853.2211   -9559.3053   -9853.2211            0    8716.0035    24.653787    24.719764     22.70092    13834.753    8649.9935    8276.5625    9221.4545   -213.46557    197.05552   -264.96782   -7800.7148 
36792000     80.29694   -9854.4528   -9548.3243   -9854.4528            0    7869.6242    24.735203    24.711667    22.688972    13868.591    7221.1039    7841.9558    8545.8127   -327.46655    213.17731   -540.25729   -7956.6206 
36793000    80.577262   -9844.9394   -9537.7422   -9844.9394            0    8417.3055    24.681219    24.675522    22.745289     13852.38    8550.8175     8175.963     8525.136   -284.59733   -292.35958   -136.76831   -7837.2549 
36794000    80.111901   -9852.4246   -9547.0015   -9852.4246            0    7920.0698    24.600368    24.735006     22.80102    13874.198    8742.1956    7404.3603    7613.6536   -231.59068    213.43452   -362.10051    -7944.447 
36795000    75.975809   -9850.9044   -9561.2499   -9850.9044            0    8840.0178     24.70071    24.677461    22.681461    13825.503      8366.35    8618.6023    9535.1012   -185.95652    227.40389    544.89217   -7778.8303 
36796000    82.280253   -9843.6418   -9529.9519   -9843.6418            0    8250.8133    24.716839    24.724438    22.682188    13861.311    8348.8409    8145.1062    8258.4927    333.28566   -542.23729    476.64911   -7862.0252 
36797000    80.378341   -9858.7482   -9552.3093   -9858.7482            0    7663.6493     24.61102    24.785799    22.751755    13878.657    8043.9365    7317.9197    7629.0915    309.82524    43.773396    250.43753   -8001.1409 
36798000    83.303975   -9865.8108    -9548.218   -9865.8108            0    8283.5637    24.740358    24.655377    22.702405    13848.078    8144.2489    8737.5542     7968.888   -617.33794   -19.777728   -119.30828   -7875.2694 
36799000    81.368423   -9844.1178   -9533.9042   -9844.1178            0    8612.9819    24.690868    24.692701     22.70757    13844.447    8340.6177    8732.5243    8765.8036   -228.29249    -657.4114     91.95603   -7794.8824 
36800000     81.86751   -9851.8928   -9539.7766   -9851.8928            0     7247.268    24.687366    24.773621    22.732638    13903.178    7996.6059    6542.1164    7203.0817     122.0596   -778.30484   -355.76402   -8070.2945 
36801000    81.205877    -9850.941   -9541.3472    -9850.941            0    9236.6302    24.646092    24.740445    22.663989    13819.487    9277.1964     8655.062    9777.6321    211.20746   -381.54633    45.494144   -7679.7687 
36802000    81.514733   -9857.1478   -9546.3765   -9857.1478            0     8359.611    24.654246    24.727496    22.734782    13859.981    8428.3492    8380.1374    8270.3463   -382.17011    -324.7296   -497.37007   -7856.6181 
36803000     80.59292   -9851.8304   -9544.5734   -9851.8304            0    8568.8671    24.638592    24.665255    22.797274    13854.295    8455.0258    8343.8745    8907.7009   -194.67048   -1012.0671    69.558591    -7813.228 
36804000    82.340439   -9853.0188   -9539.0995   -9853.0188            0    8333.8916    24.564637    24.688639    22.842591    13853.288    9068.2915    8394.3769    7539.0065   -293.45379   -640.78434   -191.08263   -7855.3534 
36805000     82.44715   -9847.4096   -9533.0834   -9847.4096            0    8417.8486    24.625235    24.769913    22.695385    13843.389    8660.3404    8292.1225    8301.0829    386.08384   -285.93698    284.36093   -7833.5903 
36806000    81.204978   -9845.6132   -9536.0228   -9845.6132            0    7892.3768    24.746966     24.69691    22.702936    13875.435    7100.2286    8500.9738    8075.9281    201.29422    108.81307    744.80302   -7938.9294 
36807000    80.873049   -9850.8364   -9542.5114   -9850.8364            0    8308.2879    24.719899    24.694046    22.712056    13864.219      8195.71    8487.5436    8241.6102   -113.28598   -781.83673    217.60837   -7862.6137 
36808000    79.544618   -9856.0636   -9552.8033   -9856.0636            0    7924.9178    24.669841    24.677857    22.786106    13872.154    8584.1091    7146.6638    8043.9806   -121.89265    186.08665   -199.20491   -7949.5041 
36809000     81.83642   -9859.1469   -9547.1492   -9859.1469            0    7993.7032    24.643921    24.681773    22.793008    13863.976    8335.1917    8521.5748     7124.343   -308.59677    379.50611   0.22028385   -7930.8874 
36810000    82.925009   -9876.2832   -9560.1353   -9876.2832            0    8344.2462    24.743547    24.694455    22.656316    13843.652    7198.2307    8851.1515    8983.3564   -354.60021    -251.1941   -133.66229   -7875.4698 
36811000    80.246397   -9855.5392   -9549.6033   -9855.5392            0    8677.6416    24.623433    24.780068    22.665487    13829.808    8928.9941    7646.9934    9456.9372   -263.78696   -1310.0041    392.89899   -7799.3788 
36812000    82.158303   -9863.7525   -9550.5275   -9863.7525            0    8020.6139    24.706695    24.677776    22.744222    13867.295    7805.1926    8249.4111    8007.2379    288.91805   -341.23801   -352.91634   -7928.4364 
36813000    78.220948   -9830.2284   -9532.0145   -9830.2284            0    7990.6031    24.628642    24.692961    22.822081    13879.343    8221.0833    8203.9737    7546.7522   -171.68352    153.46105    40.291524   -7914.5888 
36814000     83.05945   -9859.2023   -9542.5418   -9859.2023            0    8597.6057     24.67126    24.697545    22.716127     13841.38    8796.7893    8216.8913    8779.1365    -470.8487   -562.36481    139.22572    -7807.009 
36815000    78.337907   -9856.5234   -9557.8635   -9856.5234            0    9022.8311    24.695131    24.662067    22.688867    13818.268    8704.0329    9265.3376    9099.1227   -408.99458    302.77149   -596.39218   -7739.5351 
36816000    83.258754   -9840.3637   -9522.9433   -9840.3637            0    8333.2726    24.640522    24.716073    22.757888    13859.939     8526.358    8555.1231    7918.3368   -123.85686   -676.30579    1151.6504    -7838.514 
36817000    80.145802   -9860.2011   -9554.6488   -9860.2011            0    8688.8665    24.663413    24.703443    22.714755    13839.446    8698.2676     8815.246    8553.0859   -375.13296   -21.385571   -229.27201   -7800.9389 
36818000     78.38991   -9851.4627   -9552.6046   -9851.4627            0    8742.5961    24.735801    24.666257    22.672013    13833.093    8356.5248     9179.834    8691.4295    63.744248    -482.8816   -480.93438   -7788.8603 
36819000    81.767005   -9868.9495   -9557.2164   -9868.9495            0    8256.9349    24.651826    24.696642    22.763606    13858.878    8174.8233     8574.616    8021.3654    59.137978     294.4876    167.66748   -7888.3452 
36820000    80.383122   -9859.8959   -9553.4388   -9859.8959            0    8385.1573    24.630211    24.704615    22.767397    13853.503    8125.4857    8668.4766    8361.5096   -204.39501   -785.69065    718.93652   -7859.3088 
36821000    80.879219    -9849.364   -9541.0156    -9849.364            0    8428.3002      24.6635    24.705308    22.719416     13843.38    8446.3084    8238.5146    8600.0777   -131.06818   -415.33486    82.594107   -7839.4134 
36822000    80.543059   -9846.4744   -9539.4075   -9846.4744            0    7646.6454    24.721007    24.683232    22.759258    13887.571    8459.3505    7170.3711    7310.2146   -122.67513   -202.65227     669.2861   -7990.6867 
36823000    76.481258   -9862.2137   -9570.6323   -9862.2137            0    7506.5733    24.624699    24.766511    22.760658    13880.994    8237.2439    7384.8712     6897.605   -314.45244    640.05475    161.26705   -8051.0011 
36824000    81.343565   -9851.0513   -9540.9325   -9851.0513            0    7958.8323    24.738894     24.69371    22.697471    13865.773    7383.9862    8064.0531    8428.4577    205.22327   -124.10433    448.28369   -7931.5128 
36825000    83.227181   -9850.1537   -9532.8538   -9850.1537            0    8655.5872    24.629711    24.785518    22.671662    13840.146    8209.0812    7982.9554    9774.7249   -160.76361     73.17053    441.07608   -7785.7726 
36826000    79.997879   -9848.1643   -9543.1759   -9848.1643            0     8545.364    24.695528    24.676094    22.716278    13843.054    7983.3799    9050.7753    8601.9366   -130.91207   -393.05213    320.26026   -7817.9802 
36827000    81.047319   -9866.7213    -9557.732   -9866.7213            0    8395.4562    24.682125    24.739147    22.664306    13839.159    8706.6835    7865.1794    8614.5059   -246.47404    -65.65998    400.52863   -7863.2775 
36828000    80.819055   -9840.7664   -9532.6473   -9840.7664            0    8873.6629    24.681812    24.722307    22.684435    13841.846    8346.2775    9111.2445    9163.4666    -391.1161    756.10247    448.27221   -7741.3288 
36829000    79.695042   -9850.9377   -9547.1039   -9850.9377            0    8817.9967    24.624606    24.679277    22.768159    13836.608    9412.7306    8720.8093    8320.4501   -521.30642     -367.518   -315.55889   -7767.6963 
36830000    80.279813   -9853.8697   -9547.8064   -9853.8697            0    8262.9039    24.611885    24.673119    22.834899    13866.537    8726.0709    8217.0892    7845.5515   -103.80637    -361.6688   -370.01571   -7876.8058 
36831000    81.550439   -9847.4103   -9536.5029   -9847.4103            0    8049.2478    24.700551    24.724904    22.716903    13873.638    6807.8309     8780.953    8558.9595   -109.27711   -607.06144    780.15657   -7907.8761 
36832000    81.263307   -9855.9294   -9546.1166   -9855.9294            0    8458.0437    24.660321    24.744893      22.6805    13840.027    8191.7518    8735.3553    8447.0239   -679.72905   -559.22252    120.90543   -7838.9231 
36833000    77.176315   -9859.7611   -9565.5298   -9859.7611            0    8114.7619    24.721176    24.686316    22.705117     13856.36    7856.6869    8429.8037     8057.795    151.16352    95.596963    553.98057   -7925.6922 
36834000    82.303342    -9847.432   -9533.6541    -9847.432            0    7828.5321    24.703613     24.71823    22.706506    13865.265    6810.0443    8364.5129     8311.039   -408.28876   -301.52695    196.19389   -7950.6414 
36835000     80.21744   -9859.4217   -9553.5962   -9859.4217            0    7582.9487    24.644478    24.713566    22.816469    13896.438    8157.0026    7500.5176    7091.3257      37.4512    -60.66893   -249.30143   -8016.7957 
36836000    79.884605   -9850.0563   -9545.4998   -9850.0563            0    7919.6786    24.663878     24.71023    22.775454    13880.502    8477.3987    7432.6367    7849.0006   -265.41967   -135.88021   -219.80799   -7942.2963 
36837000    79.353117   -9849.2573   -9546.7271   -9849.2573            0    7746.8586    24.654927    24.687918    22.819494    13889.743     8103.895    7750.6033    7386.0776   -200.26736    -966.5666    752.92039   -7977.4641 
36838000     82.36441   -9847.3272   -9533.3165   -9847.3272            0    8290.9708    24.662878    24.756691    22.705033    13863.041    7579.4179    8028.8935    9264.6009   -526.72949   -175.50609    93.158913   -7857.0628 
36839000    79.186751   -9860.2944   -9558.3984   -9860.2944            0    8800.3868    24.669799    24.704874    22.686043    13826.333    9032.0447    8257.6337    9111.4821   -426.43567   -459.93236    -50.02224    -7783.863 
36840000    82.430524   -9854.2222   -9539.9594   -9854.2222            0    7945.2629    24.720855    24.728991    22.685798    13868.322    8196.8782    7626.4629    8012.4475   -475.13553    4.6108887    119.79358   -7932.9882 
36841000    80.712475   -9862.7554   -9555.0427   -9862.7554            0    8956.9457    24.677085    24.659392    22.718082    13824.451    9003.2308    8795.8522    9071.7542   -149.56546   -741.72074   -384.02478   -7749.1841 
36842000    78.287282   -9842.0448    -9543.578   -9842.0448            0     8439.996    24.675653    24.687654    22.753464    13861.046    8047.0209    8991.2619    8281.7051    349.89219    214.74613    55.723315   -7837.4401 
36843000    83.192311   -9857.4066   -9540.2396   -9857.4066            0    9013.5739    24.669586    24.599358    22.766858    13816.204    9059.4413    9753.3342    8227.9461   -569.21264     462.9211    166.80327    -7724.048 
36844000      78.1941   -9847.1489   -9549.0373   -9847.1489            0    7788.9562    24.662767    24.714309    22.765606    13876.166     7650.614    8220.9375    7495.3171   -417.20938   -380.69567    906.52276   -7972.7889 
36845000     79.66633   -9872.4603   -9568.7359   -9872.4603            0    7653.7678    24.620291    24.760012    22.758167    13873.349    7894.9469    7410.8357    7655.5206     -163.623   -74.162891    84.408804   -8020.1601 
36846000     79.10079   -9844.4658   -9542.8975   -9844.4658            0    8380.0506    24.690157    24.623054    22.796876    13859.294    8116.1335    8542.2891    8481.7292   -476.89929   -224.73853   -230.62588   -7849.0916 
36847000    83.866361   -9861.3123   -9541.5755   -9861.3123            0    7878.9646    24.655742    24.722369    22.766476    13877.268    7616.3179    8647.0147    7373.5614   -98.499657   -166.78447    117.58354   -7946.9855 
36848000    77.574641   -9863.1786   -9567.4287   -9863.1786            0    7659.2242    24.655105    24.651957     22.85277    13889.836    7558.3604    8377.5806    7041.7314    73.076659    178.52881    545.99207   -8015.9072 
36849000    80.960759   -9854.1776   -9545.5183   -9854.1776            0    7104.2714    24.689502    24.747799    22.779232    13918.358    7014.8718    6736.4311    7561.5114     634.6775    387.39247    176.21427   -8103.4579 
36850000     79.69418    -9860.483   -9556.6524    -9860.483            0    8740.4788    24.652633    24.778188    22.649723    13835.529    9358.9344     7936.902    8925.6001   -347.40716   -78.685398   -235.49367   -7793.0249 
36851000    81.496791   -9859.9247   -9549.2218   -9859.9247            0    8597.8596    24.661959    24.655225    22.766064    13842.818    8385.8719    8948.3169    8459.3901    75.750675   -516.65618    367.32364   -7813.4575 
36852000    82.418543   -9849.3701   -9535.1531   -9849.3701            0    8450.1476    24.644381    24.653059    22.796278    13850.092    8443.4162    9140.9957    7766.0308   -257.65785   -832.42993    120.93012    -7828.313 
36853000    79.770104   -9840.5462   -9536.4262   -9840.5462            0    9219.8226     24.61167    24.688292     22.74601    13820.933    9654.4625    9097.6708    8907.3344   -278.62985   -713.14589    136.34308   -7678.0407 
36854000    84.185345   -9867.4804   -9546.5275   -9867.4804            0    8162.2001    24.715062    24.695159    22.706283    13858.607    8032.9089    7899.0889    8554.6025   -348.44944    214.92818     59.47925   -7896.8361 
36855000    80.794762   -9846.1511   -9538.1246   -9846.1511            0    8760.3247      24.6438    24.777956    22.658296    13835.677    9482.5416    7696.7603    9101.6723    -603.3283    299.51565    6.0161531   -7770.4737 
36856000    80.101544   -9859.2212   -9553.8376   -9859.2212            0    8501.0442    24.638786    24.700936    22.739235    13839.122    8378.7318    8871.4041    8252.9966   -593.51859   -379.81648   -152.63291   -7838.0769 
36857000    83.312929   -9858.8931   -9541.2662   -9858.8931            0    8574.2972    24.695018    24.649901    22.727964    13835.188    8609.8875    8844.6305    8268.3735   -209.65941   -608.31253     -342.874   -7811.2129 
36858000    80.340631   -9853.6159   -9547.3207   -9853.6159            0    8469.2604    24.703978    24.690333    22.700766    13846.319    8393.1623    8590.9818     8423.637   -456.06758   -332.21924    10.681992    -7837.086 
36859000    77.978211   -9846.3702   -9549.0817   -9846.3702            0    8153.6061    24.713968    24.644279    22.767165    13866.522    7897.3281    8976.1366    7587.3538   -256.67274   -554.40304    819.16681    -7900.186 
36860000    79.314294   -9856.6293   -9554.2471   -9856.6293            0    8226.8886    24.674886    24.664712    22.765542    13855.086    7617.8266    9237.9853    7824.8538   -375.94872   -503.78172    253.12466   -7891.9038 
36861000    80.268772   -9846.9472    -9540.926   -9846.9472            0    8625.4694    24.615291    24.672089     22.78912    13840.075    8735.8239    8632.4677    8508.1167   -658.14456   -469.27614    298.68579   -7799.9329 
36862000    80.235916   -9847.1527   -9541.2568   -9847.1527            0    8676.5078    24.675818    24.701469     22.72523    13851.686    8404.5814    8735.9339    8889.0082    518.75158   -591.47514    646.13275   -7788.4926 
36863000     82.78677   -9858.8331   -9543.2121   -9858.8331            0    8385.8803    24.726685    24.744506    22.627386    13844.557    7719.2383     8145.265    9293.1377   -310.83918    26.243886    462.65762   -7850.0303 
36864000    82.447872   -9839.0606   -9524.7317   -9839.0606            0    8377.1675    24.722396    24.692543    22.691123    13851.996    8219.2403    8361.0478    8551.2144    58.147577    208.63274    688.06498   -7832.4001 
36865000    85.004014   -9855.8582   -9531.7841   -9855.8582            0    8249.2737    24.642013    24.721048    22.754809    13861.693    8407.8899    8214.9006    8125.0307   -338.65479    314.90531   -232.39391   -7864.1228 
36866000    79.741189   -9857.9377   -9553.9279   -9857.9377            0     7699.684    24.678291    24.716149     22.76294    13884.308    7252.7429    7835.0515    8011.2576   -28.179096    32.372273     723.8531   -7994.8313 
36867000    77.235099   -9858.8969   -9564.4415   -9858.8969            0    7744.0209     24.75289    24.749264     22.64383    13871.968    6951.0712    8099.6522    8181.3391   -331.38974   -1003.7408   -48.478125   -7997.7608 
36868000    76.259103   -9855.3412   -9564.6067   -9855.3412            0     7515.602    24.644839    24.704762    22.811971    13888.952    7947.7594    8070.1884    6528.8582     375.4491    26.654975   -173.87072   -8042.2755 
36869000    78.398391   -9843.9808   -9545.0903   -9843.9808            0    8257.8017    24.639494    24.698598    22.775329    13860.176     8023.023    8596.2654    8154.1169    15.504689   -515.91681   -190.91574   -7875.8876 
36870000    78.763023   -9855.9044   -9555.6238   -9855.9044            0    7773.5534    24.741789    24.696815    22.717355     13881.29    7288.6586    7920.1677    8111.8341   -239.41802    185.83431    831.41782   -7981.9117 
36871000    81.228666   -9860.3215   -9550.6408   -9860.3215            0    8041.8885    24.701072    24.731682    22.691868    13862.441    7846.6203    8049.7507    8229.2946     413.1607    144.41484    749.60258   -7924.8164 
36872000     82.43196   -9851.8687   -9537.6004   -9851.8687            0    7978.0824    24.549887    24.786946    22.777991    13860.789     8620.191    7560.9406    7753.1155   -505.68045    -510.1445    183.91844   -7924.8679 
36873000    81.774774   -9863.6365   -9551.8737   -9863.6365            0    8483.7799    24.639756    24.655653    22.781246    13839.818    8260.4695     8846.174    8344.6961   -238.69688    -243.7984   -261.33825   -7839.5114 
36874000    80.860932   -9844.5478   -9536.2691   -9844.5478            0    7652.8822    24.702529    24.763927    22.703171    13888.247    7197.8429    7348.0874    8412.7162   -324.48109    256.68877   -304.43862   -7986.2096 
36875000    82.051059   -9845.4747   -9532.6586   -9845.4747            0    7796.6892    24.706969    24.741604    22.700559    13876.626    7509.2743    7524.6268    8356.1663   -558.97744   -281.79176    138.74539   -7954.7931 
36876000    80.941626   -9854.9394    -9546.353   -9854.9394            0     8248.941    24.675952    24.705442     22.72629    13854.635     8056.711     8492.196    8197.9159   -112.33973    43.562901    8.6629763   -7879.6079 
36877000    80.615914   -9845.2035   -9537.8589   -9845.2035            0    8669.1457     24.64461    24.643937    22.800674    13847.766    8965.5139     9307.233    7734.6901   -395.12916    -244.6259    32.246993   -7787.0776 
36878000    79.208381   -9846.4363   -9544.4579   -9846.4363            0    8934.0568     24.70376    24.624404    22.724168    13823.461    8172.6937    10017.184     8612.293   -266.63081    209.34883   -199.14778   -7743.3431 
36879000    80.656009   -9845.2446   -9537.7471   -9845.2446            0    8798.1511    24.672616    24.694263    22.714497    13839.308    7954.8381    9214.0731    9225.5422   -37.065214     970.9683    449.66052   -7761.9976 
36880000    78.867108   -9858.5913   -9557.9139   -9858.5913            0    8283.9821    24.662633    24.711062    22.728705    13851.779    8055.4693    8007.1891    8789.2881   -214.75929    60.244094     391.9493   -7884.4337 
36881000    81.530903   -9870.2077   -9559.3747   -9870.2077            0    7328.8587    24.630694    24.696929    22.834058    13890.015    8313.4846     7233.692    6439.3995   -573.28816   -84.959911     723.1577    -8074.756 
36882000    81.192227   -9859.3273   -9549.7855   -9859.3273            0    7683.0869    24.645636    24.706433    22.792778    13878.654    8137.9638    7568.5946    7342.7024    -497.0472   -984.21291   -51.270888   -7994.6832 
36883000     78.18291   -9848.6553   -9550.5864   -9848.6553            0    8021.9151    24.722193    24.694628    22.720599    13871.047    7750.2689    7750.4753    8565.0013    206.97074    265.67574    252.16505   -7927.7931 
36884000    80.103207   -9868.9433   -9563.5533   -9868.9433            0    7204.5798    24.687869    24.762024    22.729626    13895.111    7159.0665     6606.734    7847.9387   -900.24231    -490.2839    487.62851   -8103.5745 
36885000    78.691481   -9864.4045   -9564.3967   -9864.4045            0    7529.8938    24.675849    24.687419    22.783784    13879.495    7528.5137     8306.884    6754.2836   -210.40234    55.701802    328.73021   -8040.2092 
36886000    83.957184   -9865.8858   -9545.8027   -9865.8858            0    7505.9897    24.694122    24.735278     22.72012    13877.812    7297.0406    7726.8663    7494.0622   -102.16443    60.993916    193.38803    -8026.638 
36887000    80.699904   -9858.7154   -9551.0506   -9858.7154            0    8654.6859    24.700862     24.71654    22.650458    13828.554    8119.3322    8567.4913    9277.2341   -594.64332    261.27181    1292.7343   -7805.6144 
36888000    80.367179   -9848.8184    -9542.422   -9848.8184            0    8509.5677    24.652818    24.715939    22.705149    13834.645    8436.9949    8356.9374    8734.7707   -793.10511    22.154103    484.68908   -7825.4967 
36889000    78.150087   -9856.5336   -9558.5899   -9856.5336            0    7948.1993     24.60639    24.724939    22.805122    13874.442     8286.166    8032.3676    7526.0641   -366.74205     118.2227   -187.54266   -7950.3154 
36890000    81.368364   -9851.3202   -9541.1069   -9851.3202            0    8978.9358    24.639948    24.570381    22.845721    13831.095    9147.9487    9332.7557    8456.1031   -208.81353    -200.7887    384.51022   -7729.9448 
36891000    80.247656   -9856.6305   -9550.6899   -9856.6305            0    8935.6852    24.672996    24.628367     22.72971    13811.836    8862.7168    9455.7521    8488.5867    274.75931    359.72561   -93.660032   -7750.7618 
36892000    78.227504   -9855.2954   -9557.0565   -9855.2954            0    8688.5557    24.635021    24.733531    22.720554    13843.885    9294.3584    8045.9473    8725.3615   -216.71283    43.459769    54.165833   -7802.8469 
36893000    81.522751   -9854.0037   -9543.2018   -9854.0037            0    8836.8291    24.656385    24.640709    22.763204    13829.803    8419.9963    9795.3031    8295.1877   -232.55818    159.99111    640.09504   -7760.8709 
36894000    78.700261   -9840.5558   -9540.5146   -9840.5558            0    9794.3918    24.644168    24.679445    22.672645    13789.603    9445.4077    9460.1022    10477.665   -177.99605    427.26942   -24.655143   -7570.7918 
36895000    83.633084   -9846.1747   -9527.3273   -9846.1747            0    8589.3509     24.70491    24.708901    22.688097    13849.522    8509.9341    8513.3133    8744.8052   -151.85443   -364.70031    35.032661    -7792.441 
36896000    80.519291   -9860.3343    -9553.358   -9860.3343            0    8055.7956    24.656426    24.750611    22.729261    13870.796    8420.5086    7410.9887    8335.8896   -57.787007   -461.14332    -163.0897   -7923.7404 
36897000    79.905574   -9858.6139   -9553.9774   -9858.6139            0    8124.1202    24.665824    24.664118    22.785698    13861.925    8696.6044    8572.9616    7102.7945   -348.81183   -824.28855   -45.642231   -7911.5894 
36898000    79.574835   -9860.0319   -9556.6563   -9860.0319            0     8404.777    24.668153    24.655561    22.752087    13837.982    8163.7568    8921.2027    8129.3716   -131.60919   -11.458875    13.280938   -7860.4649 
36899000    81.843559   -9856.5944   -9544.5695   -9856.5944            0    8657.9278    24.615261    24.696819     22.76114    13836.921    8716.5068    8894.9452    8362.3314    410.26064   -555.95493   -314.65675    -7797.423 
36900000    79.625308   -9859.1721   -9555.6041   -9859.1721            0    8089.6557    24.712483    24.666733    22.744435    13864.467    7695.7026    8181.7189    8391.5457   -49.067739   -239.50605    315.58847   -7919.8836 
36901000    81.541163   -9851.5194   -9540.6473   -9851.5194            0    8773.4372    24.651363    24.728071    22.704396    13840.161    8812.8079    8459.3181    9048.1855   -91.749028   -20.958988    546.90626   -7769.7768 
36902000    78.139927   -9853.2556   -9555.3505   -9853.2556            0    8260.9237    24.679825    24.805338    22.630159    13853.989     8565.929    6900.7865    9316.0555    203.55033   -150.55745    472.87383   -7886.2621 
36903000    82.103831   -9853.8749   -9540.8576   -9853.8749            0    7891.4697    24.725163    24.716929    22.688144    13865.407    7283.9994     7895.545    8494.8648   -395.24588   -287.56435   -635.44086   -7945.1019 
36904000    79.447853   -9863.6214   -9560.7299   -9863.6214            0    7627.4692    24.708297    24.697435    22.741185    13877.389     7961.642    7488.5121    7432.2534    -608.4098   -515.95719    1414.1926   -8017.0256 
36905000    80.185904   -9854.2349   -9548.5297   -9854.2349            0    7737.2362    24.668291    24.703698    22.765477    13873.236    7905.1852     8141.209    7165.3143   -831.63435   -271.71399    215.85854   -7983.0785 
36906000    76.576411   -9869.6293   -9577.6851   -9869.6293            0    7956.7017    24.656352    24.751387    22.706935    13857.564    8163.7432    7708.3411    7998.0208     127.4175    124.61383    55.179938   -7969.6488 
36907000    81.854435   -9862.3529   -9550.2865   -9862.3529            0    8580.7834    24.666299    24.627247    22.810142    13856.318    8324.3853    9466.1693    7951.7957   -195.36193   -512.24486    519.80174   -7816.2801 
36908000    79.642361   -9846.5685   -9542.9355   -9846.5685            0    8937.2226    24.618657    24.692636    22.746812    13827.776     9232.725    8593.5088    8985.4341    233.07788    -401.0234    391.10878   -7740.6201 
36909000    79.656769   -9838.6132   -9534.9252   -9838.6132            0    8541.3448    24.707341     24.69468     22.69606    13847.771    8705.5912    8266.1757    8652.2675   -145.81029   -535.00817   -56.008809   -7809.9533 
36910000    79.852644   -9853.4005   -9548.9658   -9853.4005            0    7931.0981    24.667313    24.793388    22.664814     13861.49    8302.1092    7072.5395    8418.6455   -758.99328   -528.62168   -64.125171   -7945.6498 
36911000    80.683671    -9873.729    -9566.126    -9873.729            0    7717.5873     24.68432    24.702013    22.747164    13870.138     7597.918    7672.9914    7881.8526   -25.785334    208.11806     169.2406   -8004.9991 
36912000    80.467956   -9856.6619   -9549.8813   -9856.6619            0    8335.5789    24.659397      24.6622     22.77274    13849.355    8292.1364     8988.494    7726.1064   -51.400359   -879.42328    174.13056   -7866.2724 
36913000    81.612838   -9855.0531   -9543.9078   -9855.0531            0    8316.2039    24.760369    24.660589    22.683845    13850.876    7725.2583    8745.7451    8477.6084   -803.27922   -981.84134    347.15218   -7864.0278 
36914000    80.837648   -9859.8252   -9551.6352   -9859.8252            0    8959.9455    24.625485    24.746883    22.692293    13828.774    9381.5566    8698.6276    8799.6524    584.02554    188.18945    304.72656    -7744.607 
36915000    82.307167   -9853.8657   -9540.0733   -9853.8657            0     9258.602    24.699436     24.56984      22.7553    13809.308    9152.3027    10257.058    8366.4453   -735.89983   -665.00093    38.615332   -7675.4409 
36916000    81.717942   -9846.1976   -9534.6515   -9846.1976            0    8333.5069    24.684799    24.739449    22.682935    13852.204     8586.971     7855.467    8558.0828    229.26027    448.03531    -19.78852   -7851.1149 
36917000    76.063454   -9858.6164   -9568.6278   -9858.6164            0    7619.8235    24.676796    24.757976    22.722891    13882.494     7926.646    7262.8426     7669.982    1.2991636    -694.8653    417.23937   -8025.9036 
36918000    83.693065   -9849.9521   -9530.8759   -9849.9521            0    8145.5405    24.708101     24.74489    22.673561    13862.598     8028.591    8141.1321    8266.8985   -584.15861   -312.24339    76.025041   -7884.0775 
36919000    80.542201   -9855.0602   -9547.9966   -9855.0602            0    8060.6535    24.649798    24.748048    22.741749    13873.249    8133.0568    7257.7138      8791.19    335.29129    181.01312   -167.41625   -7917.1079 
36920000    79.536377   -9854.7133   -9551.4843   -9854.7133            0    8274.4281    24.701129    24.670544    22.741127    13858.222    8196.9036    8066.5366    8559.8442    97.597755   -756.57701     340.0779   -7879.1566 
36921000    78.795145   -9852.3027   -9551.8997   -9852.3027            0    8145.3865    24.716236    24.699453    22.715999    13867.606    7840.5192    8278.8844     8316.756   -245.14205   -228.96961    389.02848   -7904.5375 
36922000    78.955909   -9850.2275   -9549.2116   -9850.2275            0    7986.9655       24.698    24.752793    22.695529    13874.787    7835.0615    7486.6482    8639.1868    207.55164   -707.76438   -79.899895   -7933.0528 
36923000    80.129976   -9857.3287   -9551.8367   -9857.3287            0    7890.0301    24.636876    24.724535     22.78581    13879.641    8522.3474    7345.2572    7802.4858   -342.18671     83.84137    991.31151   -7954.7342 
36924000    79.364035    -9856.943   -9554.3711    -9856.943            0    8058.7295    24.704078    24.682293    22.717244    13851.914    7825.7582    8353.3373     7997.093    -18.74067   -754.54592    215.63121   -7926.3791 
36925000    81.748249    -9854.375   -9542.7134    -9854.375            0    8634.4805    24.708281    24.726171    22.641686    13832.739     8200.366    8108.1419    9594.9335    49.240619   -601.86297    431.91034   -7800.8252 
36926000    77.698518   -9845.8127   -9549.5906   -9845.8127            0    8744.6804    24.701341    24.737577    22.634703    13830.965    8474.0919    8559.9102    9200.0392   -547.94749    630.33467    731.85001   -7785.6972 
36927000    79.709194   -9848.5482   -9544.6604   -9848.5482            0    8269.6912    24.663499    24.704185    22.742221    13856.645    8930.1869    7737.5892    8141.2977    226.30152    499.79531   -126.67777   -7873.4803 
36928000    78.806758   -9855.5638   -9555.1165   -9855.5638            0    7374.3759    24.622698     24.69853    22.853489    13898.223    8230.0915    6961.9497    6931.0865   -99.786738   -495.57562    565.22711   -8060.3945 
36929000    81.955366    -9867.425   -9554.9737    -9867.425            0    8303.1537    24.652175    24.714077    22.754526    13863.326    8322.0039    8004.7421     8582.715   -151.64787   -269.93919    -160.2518   -7876.2223 
36930000    79.753175   -9859.3622   -9555.3067   -9859.3622            0    8202.7053    24.700944    24.698224    22.700309    13848.765    8092.1099    7891.6343    8624.3719    310.30896   -1079.9593   -315.62458    -7898.606 
36931000    81.056588   -9857.4599   -9548.4352   -9857.4599            0    7911.0185    24.650008    24.764977    22.716816    13867.636    8274.9861     7524.557    7933.5125   -755.05267   -459.00288    523.63801   -7948.4693 
36932000    83.442784    -9855.387    -9537.265    -9855.387            0    7504.0269    24.712579    24.730813    22.720927    13886.171    7722.6627    6821.5533    7967.8647    51.014934   -253.83684    6.3990619   -8017.5829 
36933000    79.723189   -9853.7254   -9549.7842   -9853.7254            0    8435.2045    24.704101    24.653555    22.761796    13862.933    7894.5069    8768.4269    8642.6798   -220.79764    -342.1671    163.69933   -7844.3828 
36934000    80.732841   -9848.9077   -9541.1173   -9848.9077            0    9254.3013    24.607539    24.708462    22.716197    13811.776    9182.1582    9594.9654    8985.7802    200.69789   -398.97059   -412.73739    -7677.018 
36935000    83.866051   -9847.3314   -9527.5958   -9847.3314            0    8533.7238    24.673136    24.679186    22.741192    13847.405    8642.8835     8081.773     8876.515   -598.43464   -315.64927    377.44121   -7804.2085 
36936000    83.765266   -9847.0124    -9527.661   -9847.0124            0    9478.2104    24.581514    24.672312    22.772769    13811.292    9825.0764    9224.1049    9385.4499   -168.93926    176.02339  -0.26412586   -7618.5264 
36937000    79.339399   -9868.1027   -9565.6247   -9868.1027            0    8099.9617    24.712178    24.687182    22.709283    13854.343    7353.2688    8383.8538    8562.7624   -327.67444   -410.06995   -27.392315   -7929.0162 
36938000    82.887317   -9848.5409   -9532.5367   -9848.5409            0    8407.2804    24.680692    24.725706    22.675175     13837.47    8771.3826    8053.3115    8397.1471    204.97596   -67.809509    12.478143   -7835.9028 
36939000     77.37954   -9852.1935   -9557.1874   -9852.1935            0    8938.8448    24.591783    24.738013    22.704565    13812.364    9925.0669    8318.8785    8572.5891   -472.35721    25.746731    560.90391    -7756.554 
36940000    82.799824   -9850.3037   -9534.6331   -9850.3037            0     7897.064      24.6618    24.741676    22.738846    13874.659    7839.0731    7536.4023    8315.7166   -152.14636    -643.3001     520.9297   -7936.6806 
36941000    80.397711   -9852.8434   -9546.3307   -9852.8434            0    7961.8454    24.744137    24.678263    22.724177    13876.344    7478.2429    8214.6736    8192.6198     252.7427   -241.88313   -273.74858   -7935.0742 
36942000    82.599702    -9847.991   -9533.0833    -9847.991            0    8635.0509    24.690729    24.727085     22.65345    13830.605     8674.247    8251.8673    8979.0383   -666.06866    -1243.903    710.43827   -7791.3487 
36943000    80.886388   -9851.8238    -9543.448   -9851.8238            0    8911.3567    24.623847    24.691347    22.736802    13823.884    9908.8497    8429.1069    8396.1136   -464.08004    207.81959    185.05224   -7746.8546 
36944000    80.036274   -9850.9778    -9545.843   -9850.9778            0    8931.0356    24.650455    24.670815    22.739517    13828.965    9421.5827    8820.5916    8550.9325   -176.96779    198.75508     402.8918   -7744.6204 
36945000    80.040787   -9850.0513   -9544.8993   -9850.0513            0    8445.4602    24.681222    24.702812    22.722291     13853.68    8832.5506    8685.0064    7818.8237   -582.16193   -422.02024    415.67429    -7838.564 
36946000    81.053057   -9850.7845   -9541.7733   -9850.7845            0    8283.9815    24.638043    24.796087    22.691023     13862.56    8318.5274      7270.19     9263.227   -575.05888    120.02095   -297.62114   -7866.9907 
36947000    81.781338   -9860.1472   -9548.3595   -9860.1472            0    7931.2983    24.701199    24.667873    22.770035    13874.376    7695.4447    8376.5456    7721.9045   -269.23076    473.98569   -165.35803   -7943.5125 
36948000    82.738112   -9864.5016   -9549.0662   -9864.5016            0    7109.8759    24.727936    24.734107     22.73577    13905.729    6904.5722    6764.4973    7660.5582   -25.092212   -290.56576    534.86317   -8107.1777 
36949000    81.074671   -9844.3527   -9535.2591   -9844.3527            0    8432.7206     24.63098    24.773882    22.688627    13844.714    8533.3891     7874.355    8890.4177    412.26078   -582.95582    2.3743436   -7832.6005 
36950000    79.988279   -9853.9099   -9548.9581   -9853.9099            0    8171.0827    24.686496    24.682505    22.751175     13862.85    8063.4661    8148.8649     8300.917    360.45917    101.90392    463.06216   -7896.9658 
36951000    85.184659   -9861.7981   -9537.0353   -9861.7981            0    8108.2941    24.726684    24.636839     22.74022    13853.054    7700.4323    8734.7312    7889.7189   -253.61783   -260.68734    26.573906   -7898.8957 
36952000    79.243384   -9853.3875   -9551.2756   -9853.3875            0    8371.2362    24.669475    24.695392    22.732427    13849.103    8249.7233    8573.5563     8290.429    -569.4398    224.90335    472.65698   -7860.4954 
36953000    79.652909   -9864.4102    -9560.737   -9864.4102            0    8057.0113    24.630409    24.746154    22.725248    13851.218     7975.354    7952.6209    8243.0589    339.57621   -135.99128   -754.96561   -7933.1739 
36954000    80.686461   -9849.5151   -9541.9015   -9849.5151            0      8176.67    24.744969    24.674517    22.708802    13865.317    7124.0589    9232.9277    8173.0235   -656.65873     139.5443   -84.390224   -7888.4854 
36955000    79.351922   -9857.8327    -9555.307   -9857.8327            0    8508.2373    24.656802    24.704022    22.729796    13845.222    8865.8952    7844.4338    8814.3829    49.608504   -274.96615    54.303572   -7837.3376 
36956000    79.149187   -9879.0524   -9577.2996   -9879.0524            0    7627.3946     24.64507    24.711688    22.796448    13883.522     7656.779    7383.0724    7842.3325   -51.855389    49.136649    -530.8603   -8032.9282 
36957000    80.561839    -9858.637   -9551.4985    -9858.637            0    7217.5829    24.675415    24.702819     22.80618     13901.56    7230.1677     7404.038    7018.5429   -477.23498    250.34213    290.52825   -8088.2058 
36958000    81.882036   -9861.1187   -9548.9471   -9861.1187            0    7682.3941    24.692167    24.709814    22.736818    13872.616    8272.8199    6941.1721    7833.1903    -325.4961   -154.82462    607.40525   -7994.6614 
36959000    81.669663   -9850.8123   -9539.4503   -9850.8123            0    7934.4061    24.684501    24.774252    22.685397    13873.029    8573.6806    7457.4566    7772.0811    86.244116     419.9855   -59.839011   -7934.1303 
36960000    81.932862   -9852.3718   -9540.0064   -9852.3718            0    8975.8378    24.657917    24.712154    22.679524    13819.774    8364.5102    9260.0908    9302.9125   -495.89934     122.7541   -580.53339   -7730.9512 
36961000    83.006284   -9851.8699   -9535.4121   -9851.8699            0    8846.2477    24.625295    24.699292    22.739182    13830.592    9215.2992    8478.3646    8845.0792   -384.58436   -842.01645   -257.45227   -7751.0797 
36962000    81.150589   -9859.2643   -9549.8813   -9859.2643            0     7963.729    24.627686    24.697069    22.793545    13863.756    8563.5522    8008.5102    7319.1245     320.1418   -106.31565    229.89013   -7939.7056 
36963000     80.93718   -9863.5685    -9554.999   -9863.5685            0    7823.1945    24.731149    24.621355    22.764723    13861.767    7521.5607    8406.8284    7541.1945    253.23373    453.12945    1233.2198   -7973.4647 
36964000    81.853628   -9853.8954   -9541.8321   -9853.8954            0    8148.7255    24.665973    24.689999    22.745585    13852.126    8352.2502    8555.7505    7538.1757   -42.685519   -14.654393    402.60926   -7895.6343 
36965000    78.643074    -9854.602   -9554.7788    -9854.602            0    8150.9657    24.613345    24.758297    22.749433    13863.152    8204.7312    8148.9811    8099.1849   -189.58447   -441.98952   -141.60709   -7906.8177 
36966000    81.040897   -9869.6152   -9560.6504   -9869.6152            0    7564.1888    24.706138    24.699574    22.734719    13873.432    7562.0787    7660.1884    7470.2994   -238.66902   -632.23994    166.77117   -8030.1898 
36967000    81.350689   -9853.9123   -9543.7663   -9853.9123            0    7310.2809    24.768874    24.756531    22.657143    13893.165     6664.776    7178.0409    8088.0258   -48.388002    259.41132    13.046015    -8062.575 
36968000    79.249847   -9850.3716   -9548.2351   -9850.3716            0    7658.2677    24.697444    24.743377    22.702242    13873.299    7459.4682    7596.3051    7919.0298   -530.10843    72.813668    86.463979   -7998.7544 
36969000    78.401396   -9856.8368    -9557.935   -9856.8368            0    8818.0393    24.591013    24.680187     22.79634    13835.345    9282.2642    8772.4191    8399.4345   -24.056649   -69.908087   -50.009742   -7778.6811 
36970000    80.962098   -9853.7088   -9545.0444   -9853.7088            0    8538.0513    24.704541    24.628427    22.753579    13844.051    8946.0747    8811.2853    7856.7938   -185.16892    392.89767    123.56955   -7821.2009 
36971000    80.440608    -9856.571   -9549.8947    -9856.571            0    7842.0663    24.651309    24.750993    22.742891    13876.447    7636.9956    7887.7039    8001.4993   -678.90492    27.064545    518.45687   -7962.8663 
36972000    80.510773   -9864.2065   -9557.2627   -9864.2065            0    8252.4026    24.670567    24.740625    22.702217    13856.645    7978.4773    8082.5019    8696.2286     210.2724   -200.28759    1182.1308   -7889.5763 
36973000    80.082201   -9853.4387   -9548.1288   -9853.4387            0    8675.2057    24.680132    24.679552    22.721789     13839.72    7983.3549    9085.4042    8956.8582   -259.74296   -524.74945    282.76255   -7797.1416 
36974000    83.037459   -9844.6246   -9528.0479   -9844.6246            0    8158.1071    24.646545     24.71417    22.745713    13854.843    8052.5952    8166.7144    8255.0117    267.98966   -499.39987    131.17329   -7879.6316 
36975000    77.349798   -9846.5916   -9551.6989   -9846.5916            0    8563.0689    24.658488    24.676551     22.73579     13834.42    8277.4726    8895.2175    8516.5166   -64.189851   -741.26188    597.09134   -7824.0071 
36976000     81.44927   -9857.6859   -9547.1642   -9857.6859            0    7958.6674     24.68233    24.652513    22.777493    13859.683    8359.4833    8281.4166    7235.1024    796.39129   -823.59771   -327.22883   -7938.4846 
36977000    80.587678   -9852.5646   -9545.3276   -9852.5646            0    6904.0134    24.692645    24.756894    22.768203    13918.503    6949.8666    6604.5355    7157.6382   -264.38983   -279.53551   -361.66407   -8143.9021 
36978000    80.781077   -9849.1459   -9541.1716   -9849.1459            0    7952.7916    24.669848     24.75108    22.718401    13871.977    7858.1777    7520.8704    8479.3268   -442.55971    -388.7577     150.1506   -7932.2538 
36979000    80.916046   -9855.5329    -9547.044   -9855.5329            0     9317.735    24.596283    24.686854    22.743412     13809.91    9852.1049    9527.5902    8573.5098   -315.49986   -225.67158   -56.921538   -7670.4208 
36980000     78.56091   -9846.4838   -9546.9737   -9846.4838            0    7890.5508    24.750297    24.640625    22.759074    13879.912    7711.3045    8381.5968    7578.7511   -98.378973   -465.62855   -328.31984   -7949.7346 
36981000    85.216252   -9855.2173    -9530.334   -9855.2173            0    8417.7055    24.651332    24.737343    22.700186    13842.765    9688.0392    7356.6715    8208.4057   -182.02914    31.361007     162.5447   -7830.9463 
36982000    81.066531   -9850.8344   -9541.7718   -9850.8344            0    8348.2935    24.701917    24.722699    22.692917     13858.52     7432.976    8473.9254     9137.979   -719.99786   -191.85716   -185.49301    -7854.479 
36983000    83.389964   -9852.5924   -9534.6718   -9852.5924            0    8267.4432    24.638031    24.679075    22.784079    13853.719    8727.5028    8266.0775    7808.7494     170.2942   -54.460057   -240.96062   -7864.2988 
36984000    82.610916   -9855.9973   -9541.0468   -9855.9973            0    8285.1405     24.64472    24.651693    22.796773    13849.816    8248.6624    9091.7146    7515.0445    404.00261    -423.2341   -202.68879   -7867.5697 
36985000    78.617939   -9858.6743   -9558.9469   -9858.6743            0    7603.4173    24.647941    24.748489    22.757023    13881.768    7939.1384    7227.7167    7643.3968    384.29371    310.16094   -339.53055   -8019.6248 
36986000    81.760512   -9856.0513    -9544.343   -9856.0513            0    8065.4547    24.705308    24.703371    22.725007    13869.172    7850.1443     8320.616    8025.6037   -768.33242   -482.41906    4.9879382   -7912.9625 
36987000    80.485382   -9859.3396   -9552.4926   -9859.3396            0    7847.8139    24.720297    24.678244    22.750464    13879.001     7083.349     8309.007    8151.0857   -444.41921    250.83522   -529.17095   -7964.0089 
36988000    81.698652   -9842.0903   -9530.6178   -9842.0903            0    7714.1796    24.720812    24.655072    22.769512    13877.868    7712.2675    8604.2128    6826.0585   -203.90641    -343.9226   -545.63318   -7969.3106 
36989000    82.346874   -9857.8989   -9543.9551   -9857.8989            0    8193.5006    24.614693    24.751615    22.742325    13855.838    8944.0971    8023.2663    7613.1385    146.68708   -335.50181    78.461413   -7888.2683 
36990000    81.556681   -9842.4166   -9531.4853   -9842.4166            0    8631.5402    24.659251    24.671315    22.755675    13844.011    8755.2479    8758.7816    8380.5912   -261.40475    449.42201   -224.08951   -7788.7714 
36991000    80.693072   -9846.7175   -9539.0787   -9846.7175            0     8624.442    24.692475    24.650307    22.755903    13850.996    8024.0642    9332.2931    8516.9689    414.61107   -450.08538   -6.9966381   -7796.9192 
36992000    84.718607   -9860.6361   -9537.6501   -9860.6361            0    8367.4897    24.633687     24.71657    22.749407     13851.21    9099.2177    7872.8129    8130.4384    81.890907   -257.88079   -49.699619   -7847.3696 
36993000    80.099499   -9857.6958     -9552.32   -9857.6958            0    7503.2483    24.724031    24.661491    22.775581    13886.989    7749.0244    7884.4654     6876.255   -142.97023   -493.29105    49.770635    -8032.706 
36994000    80.141064   -9860.6776   -9555.1433   -9860.6776            0    8277.7686    24.710977    24.725316    22.683116    13859.082    8062.8258    7820.5628    8949.9171    253.94924   -287.80499    77.350427   -7882.0366 
36995000    82.678083   -9861.4785    -9546.272   -9861.4785            0    8000.3558    24.656663    24.725752    22.735457    13860.774    8747.7608    7721.2485    7532.0582    -149.8738   -408.42587    462.80285   -7929.0387 
36996000    80.704939   -9862.6659   -9554.9819   -9862.6659            0    7896.9639    24.633393    24.742207    22.754502    13868.516    8392.8231    7824.9162    7473.1522    350.17807   -190.23026   -186.07267   -7957.7571 
36997000    83.176028   -9845.6004   -9528.4955   -9845.6004            0    8451.9493    24.755767    24.698152    22.672128    13862.231    7744.8401    8725.3635    8885.6442   -78.640083   -398.59914   -509.04579   -7819.7952 
36998000    79.982852   -9865.7423   -9560.8112   -9865.7423            0     8425.847    24.610478      24.7662    22.705611    13839.252    8971.9908    8024.9947    8280.5556    17.488843   -149.43274   -20.770586   -7860.2116 
36999000    80.241064   -9867.8966   -9561.9811   -9867.8966            0    8835.3482    24.661872    24.651636    22.727494    13817.305    8491.0183    9335.4209    8679.6055    -168.1715   -42.922708   -180.57822   -7781.5593 
37000000    81.325518   -9852.9934   -9542.9435   -9852.9934            0    7101.7798    24.659517    24.754129    22.793533    13913.739    7649.8632    7037.2291    6618.2472   -733.00732   -18.853992   -221.26596   -8101.8672 
Loop time of 501.451 on 64 procs for 250000 steps with 1920 atoms

Performance: 86.150 ns/day, 0.279 hours/ns, 498.553 timesteps/s
386.2% CPU use with 16 MPI tasks x 4 OpenMP threads

MPI task timing breakdown:
Section |  min time  |  avg time  |  max time  |%varavg| %total
---------------------------------------------------------------
Pair    | 71.682     | 75.039     | 78.92      |  22.1 | 14.96
Bond    | 1.6039     | 1.8282     | 2.5562     |  19.4 |  0.36
Kspace  | 247.89     | 253.17     | 259.79     |  19.1 | 50.49
Neigh   | 0.15025    | 0.15706    | 0.16808    |   1.3 |  0.03
Comm    | 61.489     | 67.789     | 73.959     |  40.1 | 13.52
Output  | 0.6323     | 0.63267    | 0.63411    |   0.0 |  0.13
Modify  | 79.626     | 86.098     | 91.862     |  36.9 | 17.17
Other   |            | 16.74      |            |       |  3.34

Nlocal:        120.000 ave         122 max         116 min
Histogram: 1 1 0 0 0 2 5 0 5 2
Nghost:        4275.12 ave        4308 max        4249 min
Histogram: 3 0 3 1 4 1 0 1 1 2
Neighs:        43719.1 ave       44565 max       42343 min
Histogram: 1 0 1 0 5 1 2 2 1 3

Total # of neighbors = 699505
Ave neighs/atom = 364.32552
Ave special neighs/atom = 2.0000000
Neighbor list builds = 254
Dangerous builds = 0

unfix		3
unfix		2
unfix		1

write_data	data.final.${pid}
write_data	data.final.0
System init for write_data ...
PPPM initialization ...
  extracting TIP4P info from pair style
  using 12-bit tables for long-range coulomb (../kspace.cpp:340)
  G vector (1/distance) = 0.37518828
  grid = 30 30 30
  stencil order = 5
  estimated absolute RMS force accuracy = 0.0031854355
  estimated relative force accuracy = 9.5928443e-06
  using double precision FFTW3
  3d grid and FFT values/proc = 7920 1800
Last active /omp style is kspace_style pppm/tip4p/omp
WARNING: Not all mixed pair coeffs generated from mixing. Use write_data with 'pair ij' option to store all pair coeffs. (../write_data.cpp:312)

write_restart   restart.lmp.${pid}
write_restart   restart.lmp.0
System init for write_restart ...
PPPM initialization ...
  extracting TIP4P info from pair style
  using 12-bit tables for long-range coulomb (../kspace.cpp:340)
  G vector (1/distance) = 0.37518828
  grid = 30 30 30
  stencil order = 5
  estimated absolute RMS force accuracy = 0.0031854355
  estimated relative force accuracy = 9.5928443e-06
  using double precision FFTW3
  3d grid and FFT values/proc = 7920 1800
Last active /omp style is kspace_style pppm/tip4p/omp
Total wall time: 0:08:21
