#include		in.partitions
include		in.temp
variable        temperature equal 130.66
variable	tempDamp equal 100.0
include		in.pressure
variable        pressure equal 6793.8
variable        pressureDamp equal 1000.0 # This is 1 ps
include		in.seed
variable        seed equal 745823

units		real
atom_style	full

read_restart	restart.lmp.${pid}
read_restart	restart.lmp.1
Reading restart file ...
  restart file = 30 Jul 2021, LAMMPS = 30 Jul 2021
  restoring atom style full from restart
  orthogonal box = (0.075663117 0.14991485 0.087272425) to (19.924338 19.850086 20.612726)
  4 by 4 by 4 MPI processor grid
  restoring pair style lj/cut/tip4p/long/omp from restart
  restoring bond style harmonic/omp from restart
  restoring angle style harmonic/omp from restart
  972 atoms
  648 bonds
  324 angles
Finding 1-2 1-3 1-4 neighbors ...
  special bond factors lj:    0        0        0       
  special bond factors coul:  0        0        0       
     2 = max # of 1-2 neighbors
     1 = max # of 1-3 neighbors
     1 = max # of 1-4 neighbors
     2 = max # of special neighbors
  special bonds CPU = 0.013 seconds
  read_restart CPU = 0.027 seconds
include 	in.setup
variable	out_freq equal 1000
variable	out_freq2 equal 10000
variable	out_freq3 equal 1000

timestep	2.0

neigh_modify    delay 7 every 1

include		in.tip4p
# This is TIP4P/Ice

# create groups ###
group ox type 2
324 atoms in group ox
group hy type 1
648 atoms in group hy

# set charges - beside manually ###
set group ox charge -1.1794
Setting atom values ...
  324 settings made for charge
set group hy charge 0.5897
Setting atom values ...
  648 settings made for charge

# ### TIP3P Potential Parameters ###
pair_style lj/cut/tip4p/long/omp 2 1 1 1 0.1577 8.5
pair_coeff 1 1*2 0.000 0.000
pair_coeff 2 2 0.21084 3.1668
bond_style  harmonic
bond_coeff  1 450 0.9572
angle_style harmonic
angle_coeff 1 55 104.52
kspace_style pppm/tip4p/omp 1.0e-5
pair_modify tail yes

thermo          ${out_freq}
thermo          1000
thermo_style    custom step temp pe etotal epair emol press lx ly lz vol pxx pyy pzz pxy pxz pyz enthalpy

restart 	${out_freq3} restart.lmp.${pid} restart2.lmp.${pid}
restart 	1000 restart.lmp.${pid} restart2.lmp.${pid}
restart 	1000 restart.lmp.1 restart2.lmp.${pid}
restart 	1000 restart.lmp.1 restart2.lmp.1


include         in.dump
dump            myDump all atom ${out_freq2} dump.water.${pid}
dump            myDump all atom 10000 dump.water.${pid}
dump            myDump all atom 10000 dump.water.1
dump            myDump2 all dcd ${out_freq2} dump.dcd
dump            myDump2 all dcd 10000 dump.dcd
dump_modify     myDump append yes
dump_modify     myDump2 append yes


variable natoms 	equal  "count(all)"                        # NUMBER ATOMS
variable H      	equal  "enthalpy/v_natoms"                 # ENTHALPY-per-atom
variable Vol      	equal  "vol/v_natoms"                 # volume-per-atom
fix AVG all 		ave/time ${out_freq} 1 ${out_freq} v_Vol v_H file vol_enthalpy.dat
fix AVG all 		ave/time 1000 1 ${out_freq} v_Vol v_H file vol_enthalpy.dat
fix AVG all 		ave/time 1000 1 1000 v_Vol v_H file vol_enthalpy.dat


timer           timeout 02:55:00 every 1000
New timer settings: style=normal  mode=nosync  timeout=02:55:00

fix 		1 all shake 1e-6 200 0 b 1 a 1
       0 = # of size 2 clusters
       0 = # of size 3 clusters
       0 = # of size 4 clusters
     324 = # of frozen angles
  find clusters CPU = 0.001 seconds
fix             2 all nph aniso ${pressure} ${pressure} ${pressureDamp}
fix             2 all nph aniso 6793.8 ${pressure} ${pressureDamp}
fix             2 all nph aniso 6793.8 6793.8 ${pressureDamp}
fix             2 all nph aniso 6793.8 6793.8 1000
fix             3 all temp/csvr ${temperature} ${temperature} ${tempDamp} ${seed}
fix             3 all temp/csvr 130.66 ${temperature} ${tempDamp} ${seed}
fix             3 all temp/csvr 130.66 130.66 ${tempDamp} ${seed}
fix             3 all temp/csvr 130.66 130.66 100 ${seed}
fix             3 all temp/csvr 130.66 130.66 100 745823


run             250000
PPPM initialization ...
  extracting TIP4P info from pair style
  using 12-bit tables for long-range coulomb (../kspace.cpp:340)
  G vector (1/distance) = 0.37218375
  grid = 24 24 24
  stencil order = 5
  estimated absolute RMS force accuracy = 0.0035110032
  estimated relative force accuracy = 1.0573282e-05
  using double precision FFTW3
  3d grid and FFT values/proc = 2197 216
Last active /omp style is kspace_style pppm/tip4p/omp
Neighbor list info ...
  update every 1 steps, delay 7 steps, check yes
  max neighbors/atom: 2000, page size: 100000
  master list distance cutoff = 10.8154
  ghost atom cutoff = 10.8154
  binsize = 5.4077, bins = 4 4 4
  1 neighbor lists, perpetual/occasional/extra = 1 0 0
  (1) pair lj/cut/tip4p/long/omp, perpetual
      attributes: half, newton on, omp
      pair build: half/bin/newton/omp
      stencil: half/bin/3d
      bin: standard
Per MPI rank memory allocation (min/avg/max) = 9.226 | 9.228 | 9.230 Mbytes
Step Temp PotEng TotEng E_pair E_mol Press Lx Ly Lz Volume Pxx Pyy Pzz Pxy Pxz Pyz Enthalpy 
19000000    132.95836    -4965.084   -4708.6626    -4965.084            0    6890.0789    19.848675    19.700171    20.525453    8025.9098    6657.9347    7923.3397    6088.9623    358.10519   -141.97576    596.06274   -3902.1812 
19001000    125.48389   -4978.2394   -4736.2331   -4978.2394            0    5664.2581    19.759718    19.759129    20.743025    8098.7992    6392.8591    5756.6923     4843.223   -236.80622   -93.899996   -161.78046   -4067.2124 
19002000    130.48641   -4982.2654   -4730.6114   -4982.2654            0    6625.9257    19.732647     19.85622    20.594284    8069.1651     5942.574     7254.891     6680.312   -33.126497    729.45791   -221.93434   -3950.8692 
19003000    130.83918   -4988.9292   -4736.5948   -4988.9292            0    6189.6708    19.712481    19.850681     20.57551    8051.3243    6696.9296    5585.4982    6286.5846   -570.36613   -975.16109    183.26693   -4009.8018 
19004000    122.06995   -4987.5831    -4752.161   -4987.5831            0    6051.6834     19.90903    19.829699    20.470599    8081.5893     4361.796    8250.0041    5543.2502   -252.27385    1.1043399    150.12542   -4038.8993 
19005000    131.21375   -4972.6983   -4719.6415   -4972.6983            0    7794.9208    19.729857    19.847865    20.363766    7974.3602    8446.0709    6952.5786    7986.1128    -702.6971   -997.12207   -393.60933   -3813.1089 
19006000    133.82483   -4978.5437   -4720.4512   -4978.5437            0    6915.3275    19.856865    19.709902    20.533204    8036.2211    5323.3674     8262.635    7159.9801   -367.33751    77.370941    846.76055   -3909.9746 
19007000    130.89289   -4981.1008   -4728.6628   -4981.1008            0    5395.5429    19.721713     19.91414    20.445804    8029.9047     5487.276     5603.156    5096.1966   -42.184838    328.06395   -344.05051    -4096.802 
19008000    133.72299   -4982.1573   -4724.2613   -4982.1573            0    6789.2083    19.826963    19.783349    20.366865    7988.7749    7273.7623    6101.2885     6992.574   -559.24478   -201.36204   -369.09306   -3933.2636 
19009000    135.62877   -4966.0306   -4704.4591   -4966.0306            0    9214.8292    19.721805    19.860827    20.287057    7946.2645    8659.1751     9879.108    9106.2045    240.25174   -8.1377478    1125.8287   -3636.5699 
19010000    133.57008   -4977.5391    -4719.938   -4977.5391            0    7066.1414    19.779437    19.724562    20.602334    8037.8098    6989.2265    7331.6964    6877.5012   -121.32702   -528.32154    128.06506   -3891.6222 
19011000    134.13532   -4987.2419   -4728.5506   -4987.2419            0    6058.9681     19.68202    19.896192     20.44546    8006.3861    7237.2464     5039.202    5900.4558     563.1505    26.369694    275.19161   -4021.0757 
19012000    138.76238    -4976.525   -4708.9101    -4976.525            0    5826.2696    19.728068    19.901246    20.535751    8062.6057    6661.0535    5299.7563    5517.9989   -239.68766   -494.84018    444.31603   -4023.8291 
19013000    130.83973   -4964.7568   -4712.4214   -4964.7568            0    6827.5501    19.849182    19.864991    20.459025    8067.0716    6788.4126    6795.7741    6898.4637    13.279959   -479.66413   -296.81037   -3909.1603 
19014000    129.66334   -4983.5737    -4733.507   -4983.5737            0    7386.7518    19.740937    19.890369    20.446425    8028.3809    6827.3621    8311.8531    7021.0401   -354.31462    797.58868   -688.77252    -3868.624 
19015000    125.65904   -4978.4062   -4736.0622   -4978.4062            0    6923.1501    19.733797    19.808788    20.538053    8028.3783    7419.6132    7175.9021    6173.9349    347.59075    412.98508    965.34651   -3925.4606 
19016000     130.2816   -4983.6049   -4732.3459   -4983.6049            0    5970.5626    19.766362    19.870629    20.509189     8055.395    5693.4797    5514.8008    6703.4073   -348.03171    176.04623    -270.3759   -4030.9262 
19017000    130.92643   -4975.6122   -4723.1096   -4975.6122            0    7927.1398    19.780378    19.765008    20.366062    7962.3018      8163.89    7760.7196    7856.8099   -396.06296    455.22365   -589.44639   -3802.5943 
19018000    127.46732   -4982.5549   -4736.7235   -4982.5549            0    6956.3684    19.716427    19.876308    20.408983    7998.0718    4005.4571    8720.9324    8142.7158    39.128177     199.9751    249.14422   -3925.3071 
19019000    129.94942    -4980.404   -4729.7856    -4980.404            0    6777.7972    19.679455    19.870933    20.508969    8020.0148      6928.81    6383.1806     7021.401   -284.91553    421.96651    296.51827   -3937.0295 
19020000    127.70056   -4974.5654   -4728.2841   -4974.5654            0     7617.464    19.682709    19.694927    20.617255    7992.2692    8648.4167    7957.5619    6246.4133    213.19484   -573.52988    422.13835   -3840.3998 
19021000    129.02179   -4998.4649   -4749.6355   -4998.4649            0    6017.1269    19.767069    19.816068    20.600151    8069.1944    6602.2756    5335.7759    6113.3293   -518.40832     1211.611   -566.98041   -4041.5345 
19022000    141.26891   -5002.1816   -4729.7326   -5002.1816            0    5221.4342    19.766423    19.941467    20.515811    8086.7473    5511.2216    4781.0497    5372.0312   -525.38721   -916.47294    1312.1741   -4113.9327 
19023000    126.74445   -4984.8674   -4740.4301   -4984.8674            0    6660.7951    19.873708    19.912819    20.297907    8032.7252    6142.0129    6623.8486    7216.5238   -429.33591     61.53958   -1236.2759   -3960.1242 
19024000    133.50829   -4965.8475   -4708.3655   -4965.8475            0    5723.1175    19.721954    19.899717    20.562796    8070.1017    9059.0896    2526.0544    5584.2083   -175.91964    96.362938   -801.27701    -4034.788 
19025000    137.39396   -4970.8863   -4705.9105   -4970.8863            0    8220.4586     19.75707    19.765186    20.397623    7965.3154     8937.809     7509.996    8213.5708    450.01973    96.815498   -90.715684   -3750.9731 
19026000    136.11164   -4972.6329   -4710.1302   -4972.6329            0    7466.3828    19.525254    19.863361    20.569412    7977.5828    8460.6333    6884.6953    7053.8198    11.512739   -374.21437   -743.43888   -3841.4549 
19027000    129.57323   -4961.6801   -4711.7872   -4961.6801            0    7045.2791    19.825657    19.811947    20.512598    8057.0381    7215.7899    6693.1657    7226.8817   -302.77671   -69.760227    181.60644   -3883.9413 
19028000    130.11177   -4984.6616   -4733.7301   -4984.6616            0     7718.769    19.760852    19.676025    20.616239    8015.9033       8470.1    8170.7399    6515.4669   -110.90704    1323.8763    210.69936   -3831.3772 
19029000    128.74818    -4973.106   -4724.8043    -4973.106            0    7356.6859     19.73795    19.686453    20.647353    8022.9464    6763.5522     9419.778    5886.7275     20.02335   -466.72425   -492.08877   -3864.0246 
19030000     133.5071   -4978.7413   -4721.2617   -4978.7413            0    5190.3176    19.814816    19.824946    20.561652    8077.1858    5640.9848    6327.4641    3602.5039   -217.99443    296.90195    -356.9314   -4109.8554 
19031000    133.20424   -4973.1087   -4716.2131   -4973.1087            0    6332.7952    19.690889    19.903685    20.608379    8076.8616     6994.543     5702.611    6301.2316   -105.25037   -790.34068    254.11073   -3970.2558 
19032000    128.34724   -4962.9294    -4715.401   -4962.9294            0    7447.3571    19.719321    19.834773     20.36341     7964.705    5830.3622     8940.333     7571.376   -514.38521     385.0117   -777.89717   -3850.3379 
19033000    131.82926   -4989.0639     -4734.82   -4989.0639            0    5700.3366    19.843901    19.885335    20.501222    8089.8358    4982.0206    6155.8166    5963.1725    545.17929    716.40239   -1300.7774   -4062.2832 
19034000    131.92111   -4994.0707   -4739.6498   -4994.0707            0    6657.6769    19.632731     19.84236     20.60031    8025.0512     7357.741    6337.6311    6277.6586    1.6711074      701.545    -1086.225   -3960.4543 
19035000    124.43444   -4993.5852   -4753.6029   -4993.5852            0    6630.7476     19.79324    19.745915    20.529841    8023.7936      6486.16    7007.6569     6398.426    130.19251    854.76995    90.995218   -3977.6808 
19036000    131.27875   -4995.9903   -4742.8081   -4995.9903            0    6676.8821    19.631768    20.039003    20.399945      8025.36    6352.3808      6589.32    7088.9454    269.21659    628.41187   -103.77522   -3961.3349 
19037000     133.3439   -4986.6529    -4729.488   -4986.6529            0    8375.5832    19.860278    19.735516     20.38346    7989.3552    8804.1586    7503.8768    8818.7141   -86.837887     82.19127    -271.2998    -3753.594 
19038000    130.04819   -4966.0114   -4715.2025   -4966.0114            0    7719.8234    19.727392     19.79438    20.515293    8011.0474    7823.7069    8048.7536    7287.0095   -302.65068    239.43955   -185.15815   -3813.2731 
19039000    134.15744   -4996.2984   -4737.5645   -4996.2984            0    6951.3812    19.734825    19.815554    20.491624    8013.3829    7657.6434    6966.3353    6230.1649    679.63752    623.77672   -310.39176   -3925.1776 
19040000    132.40004   -4984.2797   -4728.9351   -4984.2797            0     6681.615    19.776527    19.738012     20.49434    7999.9518    5659.3234    7437.6984    6947.8233   -304.87479    190.60165   -410.23749   -3949.3838 
19041000    129.80279   -4975.9914   -4725.6558   -4975.9914            0    7096.1621    19.761573    19.737247    20.497995    7995.0182    6460.7443    8364.6948    6463.0472   -303.47575   -100.80301     260.7942   -3898.2494 
19042000    128.39514   -4978.7947   -4731.1739   -4978.7947            0    7638.4218    19.878249    19.759706    20.404867    8014.7936    8327.9215     7424.263     7163.081   -959.83023     754.3188   -1008.8843   -3838.3375 
19043000    135.93325   -4978.5703   -4716.4116   -4978.5703            0    6796.6534     19.86082    19.817243    20.330438      8001.79    7588.7152    5336.5657    7464.6794   -899.10428    1567.2908    367.66765   -3923.2564 
19044000    127.55543   -4989.6588   -4743.6574   -4989.6588            0    6522.8929    19.695295     19.78857    20.623829     8037.967    7138.8828    7223.2862    5206.5096   -163.73772    285.28992   -36.595735    -3979.008 
19045000    122.67245   -4983.7297   -4747.1455   -4983.7297            0    6617.7488    19.635167    19.826149    20.624347    8028.8469    7018.5246    8032.4908    4802.2312    372.49256    738.15177    274.45882   -3972.2568 
19046000    127.43744   -4981.0427   -4735.2689   -4981.0427            0    7204.3428    19.753148    19.600175    20.696513    8012.9686    5931.8712    8831.6872    6849.4698   -342.89068   -18.336521    899.21772   -3893.3627 
19047000    134.83753   -4995.5726   -4735.5271   -4995.5726            0    6465.1664    19.776274    19.813503    20.570355    8060.2319    5842.6169    8249.6651    5303.2173    337.70126    631.87988    625.36063   -3975.5454 
19048000    125.45205   -4985.2467   -4743.3018   -4985.2467            0    6630.6222    19.802321    19.774612    20.469526    8015.5226    6009.5707    7453.0909    6429.2051    605.31183    -648.4938   -1008.2096   -3968.1942 
19049000    131.07105    -4972.723   -4719.9414    -4972.723            0    7494.8799    19.881506    19.647346    20.488461    8003.1783    6586.0331    8786.8696    7111.7371   -349.31414    110.96561    212.38968   -3845.1529 
19050000    136.94098    -5002.759   -4738.6568    -5002.759            0    8127.0113    19.867301    19.686878    20.377629    7970.2028    7865.3004    7954.5964    8561.1371   -34.877611    406.20135   -382.15702   -3793.9955 
19051000    141.93178   -4969.3299   -4695.6025   -4969.3299            0    5637.3423    19.852783    19.787189    20.466837    8040.0032    6292.2307    5013.6657    5606.1303    143.78431    1527.6669   -479.43279   -4034.5949 
19052000    122.36983   -4975.9072   -4739.9067   -4975.9072            0    6479.6717    19.863163    19.919311    20.290926    8028.3182    6570.5472    5649.1309    7219.3371    125.17073    265.22869   -765.62217   -3981.2357 
19053000    128.56878   -4996.7373   -4748.7816   -4996.7373            0    5908.3499    19.907244    19.869943    20.418485      8076.65    6714.7757    4955.8272    6054.4468    185.90448       233.14    416.72594   -4052.8391 
19054000    131.37968   -4967.1835   -4713.8068   -4967.1835            0    6674.7137    19.632331    19.909058    20.520184    8020.5438    8309.4069    5550.4198    6164.3145    150.93693   -511.39284   -207.22874   -3933.0561 
19055000    129.86979   -4974.3931   -4723.9283   -4974.3931            0    6184.8543    19.819465    19.737046     20.56922    8046.2204    7718.9081    5291.6371    5544.0177   -296.92637    -521.8437   -6.2117953   -3998.1612 
19056000    138.81153   -4978.2739   -4710.5642   -4978.2739            0    6369.8735    19.863251    19.777455     20.52214     8062.011    6519.7072    6465.3096    6124.6036    227.78792    142.96712    495.67525   -3961.6189 
19057000    123.26647   -4983.5598   -4745.8301   -4983.5598            0    5561.9675    20.112942    19.489538    20.576286    8065.7385    5046.3382    6888.1412    4751.4231   -264.30982   -262.54567    42.245566   -4091.5729 
19058000     132.3977   -4986.8961    -4731.556   -4986.8961            0    6576.9491    19.953499    19.724984    20.451056    8049.1766    6185.7082    6743.2187    6801.9203    406.50562   -917.17084    835.06791   -3959.4947 
19059000    125.62829   -4976.5704   -4734.2857   -4976.5704            0    6631.0602    19.855238    19.683476    20.622181    8059.5625    6338.4508    6892.1379     6662.592    114.77734   -338.31684    95.004687   -3954.8679 
19060000    132.26137   -4985.7331   -4730.6559   -4985.7331            0     6469.385    19.753246    19.817678    20.470655    8013.5136    5863.3131    6863.7331    6681.1088   -664.80851   -130.00268   -614.95567   -3974.5862 
19061000    136.87231   -4977.1718   -4713.2021   -4977.1718            0    8048.9141    19.784181    19.801365     20.30041    7952.7622     7383.181    8485.5904    8277.9709   -109.71025   -9.2283731    160.52243   -3779.6659 
19062000    137.81722   -4974.5333   -4708.7412   -4974.5333            0    6515.4658    19.769356     19.93319    20.407341    8041.8458    6468.1653    6782.0883    6296.1437    42.055784   -93.009487    223.31642   -3944.5939 
19063000    134.57894   -4978.7387   -4719.1919   -4978.7387            0    6638.1253    19.804341    19.821833    20.540227    8063.2374    6100.8318     6842.767    6970.7771    231.53693    1360.0988   -136.48356   -3938.5879 
19064000    126.40111   -4972.6922   -4728.9171   -4972.6922            0    6569.4167    19.705835    20.053594    20.380886    8053.9721    5842.6482    7546.5256    6319.0764   -3.1932397   -339.85954   -369.33951   -3957.2805 
19065000    132.18259    -4991.235   -4736.3097    -4991.235            0    8336.9723    19.781557     19.83332    20.498069    8042.0886    8138.9776    8859.5424     8012.397   -258.09834    560.15021    22.737557   -3758.5028 
19066000    135.36488   -4968.0144   -4706.9519   -4968.0144            0    7180.7627    19.856216    19.658601    20.493905    7999.7018    7889.2964    7421.7301    6231.2614   -232.47599    967.48364   -87.153776   -3869.1906 
19067000    124.55682   -4981.3708   -4741.1525   -4981.3708            0    6047.3746    19.779606    19.848577    20.530326    8060.1453    6128.6497    6701.2673    5312.2068    -267.5691    534.44034    27.365432   -4030.2899 
19068000    131.02441   -4983.8221   -4731.1305   -4983.8221            0    6415.3608    19.763542    19.974862    20.302194    8014.7787    5806.6962    6003.3417    7436.0444    -237.3585    6.1795259    366.65711   -3981.2561 
19069000    123.57039   -4989.0295   -4750.7136   -4989.0295            0    5738.0957    19.706492    19.940613    20.480243    8047.9063    5711.2483    5453.7271    6049.3118   -274.80165    369.16043    59.984213   -4077.2307 
19070000    129.67607   -4973.8761   -4723.7848   -4973.8761            0    7415.6852    19.832172     19.76934    20.476512    8028.2049    6820.5182    8077.3685     7349.169    356.60167    21.475757    223.34415   -3855.5332 
19071000    134.25385   -4988.0941   -4729.1743   -4988.0941            0    6828.1543    19.718642    19.861866     20.49632    8027.3638    6120.6978    7399.8494    6963.9158   -313.38933   -659.31948   -403.24459   -3929.7963 
19072000    138.57233   -4966.7717   -4699.5233   -4966.7717            0    7398.2443    19.601153    19.829789    20.655218    8028.4091    7987.3149    7215.8085    6991.6094    34.918461    94.463956    157.22941   -3833.2917 
19073000    124.95355   -4982.7581   -4741.7747   -4982.7581            0    6941.1426    19.648491     19.77402    20.561585    7988.7859    8296.6169    6146.4577    6380.3531   -172.81876    92.411083   -204.30786   -3933.0743 
19074000    125.95707   -4986.0585   -4743.1398   -4986.0585            0    5482.8267    19.793108    19.756137    20.620438    8063.3201    5673.1067    5675.1571    5100.2164   -52.796412    -766.0786   -146.96928   -4098.3854 
19075000    129.88407   -4988.2781   -4737.7857   -4988.2781            0    7410.1492    19.767928    19.803017    20.464158    8010.9937    7866.7603    7934.7775    6428.9097    -441.6923     329.0868   -639.54603   -3872.0422 
19076000    131.16788   -4991.3771   -4738.4088   -4991.3771            0    6423.5345    19.959962    19.742109    20.522308    8086.8512    5481.2983    7161.4839    6627.8214   -129.05095    223.17878   -656.77413   -3980.8272 
19077000    121.26763   -4985.1401   -4751.2653   -4985.1401            0    7420.7088     19.78386    19.879745     20.37696      8014.22    9559.5525    5453.4194    7249.1546    -405.9332   -693.63327    267.14475   -3883.9389 
19078000    133.34075   -4962.6945   -4705.5357   -4962.6945            0    7230.6103     19.88362    19.840502    20.270504    7996.7343    8310.7917    6290.5761    7090.4631   -267.24691    456.14518    127.62201   -3862.2718 
19079000    132.15497   -4991.9925   -4737.1206   -4991.9925            0    5503.6715    19.734474    19.820671    20.520026    8026.4188      5863.32    4751.0164     5896.678   -258.76185    1110.9484    408.36628   -4092.8768 
19080000    130.90882   -4968.9996    -4716.531   -4968.9996            0    7470.5928    19.569313    19.905583    20.523294    7994.6147     8360.113    6136.1731    7915.4923    174.46127    679.94148    881.86805   -3845.5102 
19081000    127.82528   -4975.0813   -4728.5595   -4975.0813            0    7527.4052     19.84459    19.768125    20.500614    8042.1928    6148.0024    8601.4952     7832.718    397.26809   -242.49045    722.23287   -3845.6917 
19082000     130.7456   -4992.1254   -4739.9715   -4992.1254            0    6175.5758    19.720149    19.874592    20.488294    8029.9751    5119.5198    6269.3851    7137.8224   -69.340846   -436.16646    763.31221   -4016.7563 
19083000    133.74334   -4982.3777   -4724.4425   -4982.3777            0    6467.6405    19.782581    19.826188    20.490267    8036.5528    5031.7007    7466.0912    6905.1296    124.63606     -83.6601    1162.8118   -3966.4034 
19084000    133.70257    -4964.847   -4706.9904    -4964.847            0    6290.5223    19.887214    19.767385    20.441714    8036.0101     5853.825    5644.8917    7372.8502    202.55136    274.69245     1022.658   -3969.7603 
19085000    128.26644   -4987.5075   -4740.1349   -4987.5075            0    6329.8348    19.724854    19.872014    20.455441    8017.9722    6273.1134    6488.2966    6228.0944   -671.68236    1094.6651    69.825402   -3999.9626 
19086000    128.77567   -4981.6862   -4733.3315   -4981.6862            0    6161.1313    19.971014      19.6934    20.383085    8016.6098    6194.2549    5726.9779    6562.1611    325.66213    123.50882    465.60525   -4013.0088 
19087000    135.65571   -4991.5828   -4729.9593   -4991.5828            0    7880.4403    19.773822    19.799045    20.341697    7963.8312    7899.5657    7551.5666    8190.1885   -592.39688    29.269482    1155.8706    -3814.691 
19088000    130.36661   -4977.0766   -4725.6536   -4977.0766            0    7972.1091    19.800668    19.772176    20.466417    8012.6493    8244.0256    8785.5366     6886.765    62.602108   -590.95293    132.37561   -3794.0627 
19089000    122.61237   -4990.8445   -4754.3762   -4990.8445            0    7105.6616    19.774352    19.815304    20.504581    8034.4084    6917.2966    6818.5033    7581.1848    28.157221    690.39093    401.71149   -3921.7802 
19090000    128.85836   -4981.9721   -4733.4579   -4981.9721            0    7362.2792    19.719757    19.738008    20.577043     8009.176    7326.9112    8702.9697    6056.9569   -361.93015    932.72149    325.19826   -3873.5023 
19091000    125.76658   -4978.1505   -4735.5991   -4978.1505            0     7779.438    19.749537    19.673684    20.598087    8003.3076    8612.6419    8093.2241     6632.448    -245.0412   -121.51391    756.22129   -3827.5828 
19092000    131.27238   -4986.9053   -4733.7355   -4986.9053            0    7369.7705    19.775418     19.80348    20.447968    8007.8759    8001.9345    7619.5815    6487.7954   -182.49553   -173.40539    980.34631   -3873.0447 
19093000    131.65187   -4974.4195   -4720.5178   -4974.4195            0    6529.0405    19.824002    19.911428    20.391263    8048.9248    6190.6017    6674.1909     6722.329   -179.52757   -195.54079    762.82179   -3954.1043 
19094000    123.14495   -4965.4521   -4727.9567   -4965.4521            0     6624.634    19.793749    19.905513    20.298565    7997.7304    7749.1465    5745.9041    6378.8515   -285.46444   -280.38452    143.82485    -3955.268 
19095000    133.34588   -5007.4834   -4750.3146   -5007.4834            0    6809.6467    19.866013    19.849397    20.322921    8013.9049    6934.1791    6599.8868    6894.8741   -634.70272   -79.136251    587.27298     -3954.44 
19096000    133.03649    -4985.833   -4729.2609    -4985.833            0    6367.0222    19.906456    19.858257    20.423797    8073.6805    7663.4361    4564.6516    6872.9789    136.77974    540.85625     1183.498   -3979.5673 
19097000    131.89453   -4978.8975   -4724.5279   -4978.8975            0      7039.65    19.631592    19.886956    20.447039    7982.7818    9530.6699    4892.9229    6695.3571    35.362206   -300.90648    -64.41016    -3904.967 
19098000    131.85557   -4984.5003   -4730.2058   -4984.5003            0    6506.4822    19.727763    19.838853    20.583727     8055.981    6773.9651    6038.6278    6706.8538    470.26151     221.9481   -223.36033   -3965.7708 
19099000    133.67018   -4988.5473   -4730.7531   -4988.5473            0     8203.805    19.877567     19.61175    20.502278    7992.4825    7706.3964    9401.0897    7503.9288   -296.23284   -373.73222    66.101712   -3774.4999 
19100000    126.17418   -4967.9573   -4724.6198   -4967.9573            0    8067.4213    19.685547    19.767885    20.424254    7947.9274    7490.8177    8787.8601    7923.5862   -675.56284    379.71064    315.54103   -3789.5059 
19101000    128.44062   -4997.1759   -4749.4674   -4997.1759            0    7683.1925    19.863385    19.769095    20.409502    8014.4265    9037.4111    6594.9576    7417.2089    281.52256    916.00435    -448.7175    -3851.439 
19102000    134.10319   -4988.6489   -4730.0196   -4988.6489            0    6464.0983    20.071012    19.644606    20.417938    8050.5299    3869.2345    8450.8921    7072.1681    608.02901     484.0103    608.37893   -3971.0781 
19103000    136.83133   -4984.2399   -4720.3492   -4984.2399            0    5574.4791    19.839729    19.966094    20.311781    8045.9413    5421.1657    5022.3554    6279.9163    288.75678   -472.81702    671.41175   -4066.2297 
19104000    129.53824   -4971.2793   -4721.4539   -4971.2793            0    6807.7977    19.883028    19.748987    20.491007    8046.1966    5195.8673    7411.8211    7815.7048     655.9394   -850.54697   -1099.2385   -3922.5894 
19105000    139.92266   -4971.9046    -4702.052   -4971.9046            0    8263.3521    19.856644    19.670084    20.459786    7991.2211     7861.775    8125.7503     8802.531    56.869436    394.55277    646.64703   -3739.0098 
19106000     126.4625   -4978.3131   -4734.4195   -4978.3131            0    8028.7103    19.767514       19.868     20.25431    7954.6971    7641.2581    7924.9211    8519.9518   -334.96852    -380.6917    459.67532        -3803 
19107000    127.43509   -4971.9592   -4726.1899   -4971.9592            0    7117.9427    19.846316    19.700326    20.471134    8003.7818    6209.4069     7926.403    7218.0181    152.06518    819.80518    448.35115   -3895.3342 
19108000    129.22369   -4965.2866   -4716.0678   -4965.2866            0     7347.105    19.891278    19.634463    20.498735    8005.8744    8614.0547    7314.5859    6112.6743    54.964823    795.66052    1018.8685   -3858.2385 
19109000    129.49864    -4976.766    -4727.017    -4976.766            0      5992.66    19.867312    19.745917    20.354583    7985.0683    5958.2734    5115.1181    6904.5885    206.76286   -743.60157    62.599109   -4029.1476 
19110000    133.44445   -4973.3742   -4716.0153   -4973.3742            0    7323.4443    19.790877    19.728886    20.529048    8015.6068    6910.7656    7700.8159    7358.7515   -317.70387    628.30957   -786.90054   -3859.9091 
19111000    131.74394   -4969.2094   -4715.1302   -4969.2094            0    6694.5558    19.925619    19.822038    20.331198    8030.1395    5724.4837    7183.0099    7176.1738    241.32139    62.378745    -958.0866   -3931.1217 
19112000    130.63781   -4971.4263   -4719.4803   -4971.4263            0    6975.8804    19.702401    19.883243    20.465254    8017.2147    8379.9503    4965.1384    7582.5525   -446.31804    93.054642     467.3063   -3903.8405 
19113000    127.68993   -4994.5924   -4748.3317   -4994.5924            0    6188.2738    19.867978    19.950679    20.391016    8082.5839    6105.4062    5438.9074    7020.5077   -202.43047    472.09262    529.90063   -4018.8815 
19114000    131.90652   -4974.8671   -4720.4743   -4974.8671            0    7246.9866    19.892601    19.791179      20.3357    8006.1251     6994.506    7270.0475    7476.4063    262.48089    1662.9674    390.15802    -3874.308 
19115000    125.85208   -4975.1518   -4732.4355   -4975.1518            0    6225.7939    19.819165     19.81702     20.49435    8049.2953    6364.5323    6760.2075    5552.6419   -569.29416    204.01568   -576.02518   -4001.5851 
19116000    124.53782   -4985.0222   -4744.8405   -4985.0222            0    6276.3439    19.794772    19.834434    20.398305    8008.7436    6710.3687     5264.718     6853.945     64.57961    117.65528   -1117.3801   -4011.7679 
19117000    126.14147   -4985.7684    -4742.494   -4985.7684            0    6783.8492    19.748278    19.751682    20.528395    8007.3405    8038.3829    5431.9973    6881.1673   -596.55032    398.97042    553.43925   -3950.2839 
19118000    128.84697   -4984.7922      -4736.3   -4984.7922            0    7129.0679    19.784406     19.67576    20.574328    8009.0351    8344.7792    7279.6903    5762.7341   -182.73078    656.03883   -918.89091   -3903.5995 
19119000    132.75256   -4999.3777   -4743.3533   -4999.3777            0    6782.6006    19.764594    19.835132    20.535369    8050.5489    7011.3847    6915.7139    6420.7033    84.867075    261.79491    965.60735   -3947.0149 
19120000    131.79738   -4984.9729   -4730.7905   -4984.9729            0    6481.4547    19.777837    19.808584    20.614103    8076.0067    6453.1827    7059.8067    5931.3746   -112.82012   -664.78987   -414.03632    -3967.403 
19121000    125.60684   -4986.1255   -4743.8821   -4986.1255            0    6951.5578    19.779705    19.789386     20.43458    7998.6713    6718.6161    6931.7291    7204.3283    -511.7737    150.43094   -241.99879   -3932.9661 
19122000    136.41815   -4981.0489    -4717.955   -4981.0489            0     7022.802    19.871431    19.657452    20.514556    8013.4309    7293.2719    6408.8012     7366.333   -66.748246    1108.3046   -646.44409   -3897.2165 
19123000    135.13187   -4986.9022   -4726.2891   -4986.9022            0    7703.9606    19.944224    19.750573    20.321208    8004.7241    7860.9737    6807.5058    8443.4022   -546.37581    459.76137    220.54587   -3826.9234 
19124000    131.71504   -4981.4888   -4727.4653   -4981.4888            0    6909.3106    19.800057    19.886123    20.326343     8003.424    6184.3157    7637.2023    6906.4138   -178.19869     434.3179   -250.99016   -3920.9986 
19125000     137.6739   -4985.4129   -4719.8972   -4985.4129            0      5686.11    19.800175    19.963342    20.424437    8073.3241     6502.746     4637.377     5918.207   -177.57865   -1219.7454    328.45318    -4050.408 
19126000    125.97251   -4989.4697   -4746.5211   -4989.4697            0    6448.1686    19.772984    19.874064    20.427483    8027.3786    4097.9998    7731.1504    7515.3557    218.94085    -711.6832    174.44692   -3991.6271 
19127000    130.43447    -4987.349   -4735.7951    -4987.349            0    6634.6459    19.815958    19.828691    20.432462    8028.4147    6783.6681    6590.3585     6529.911    124.37194    668.45642    322.20508   -3958.9697 
19128000    126.67629   -4981.6636   -4737.3577   -4981.6636            0    7039.3251    19.888967    19.733641     20.47056    8034.3208    6536.4372    8437.6949    6143.8431    -87.85898    846.70012   -828.72987   -3912.5436 
19129000    131.28738   -4965.9502   -4712.7514   -4965.9502            0    6357.1353    19.758005    19.904236    20.531458    8074.3653    6796.2245    7008.5097    5266.6716    569.49821   -893.60129    108.68671   -3964.1585 
19130000    123.04147   -4984.6292   -4747.3333   -4984.6292            0    7428.6324    19.732688    19.809622    20.438433    7989.3241    6567.7532    8096.2163    7621.9278   -499.92043     71.84677   -438.59134   -3881.7781 
19131000    122.77886   -4985.8035   -4749.0142   -4985.8035            0     6226.676    19.802832     19.78598    20.503093    8033.4896    6790.1237    5310.6864    6579.2179   -458.70033    827.78695    381.87312   -4019.4956 
19132000    134.70287   -4975.2135   -4715.4277   -4975.2135            0    7181.4622    19.869566    19.827032     20.40712    8039.4767    7080.2749    7225.5524    7238.5594   -178.25087    602.18519    1182.3159   -3873.4191 
19133000     131.1728   -4958.1784   -4705.2006   -4958.1784            0    8392.9468    19.752527    19.889245    20.274444    7965.0756    8384.9974    7354.7457    9439.0972    -302.1708    485.71189    808.94896   -3730.2553 
19134000    128.15467   -4986.3618   -4739.2047   -4986.3618            0    6852.2122    19.957002     19.79967    20.364811    8046.9935    6401.6977    7315.7357    6839.2031    867.52827     873.9627   -212.75816   -3935.0487 
19135000    130.66523   -4986.7182   -4734.7193   -4986.7182            0    6989.1315    19.884701    19.722609     20.49228    8036.6254    6167.5154    7677.8758    7122.0033     -288.851   -310.29244   -246.38401   -3915.5516 
19136000    135.02454    -4983.078   -4722.6719    -4983.078            0    6401.6171    19.634121    19.770076    20.659425    8019.3286    7436.9277    6349.2208    5418.7029   -450.61883     219.8212   -742.48361   -3973.9792 
19137000    122.99617   -4976.9529   -4739.7444   -4976.9529            0    7844.1953    19.679886    19.797979    20.536386    8001.4271    9276.6353    7757.7355    6498.2152   -287.72924    284.17455    575.69966   -3824.3848 
19138000    130.96182   -4986.1485   -4733.5776   -4986.1485            0    7473.2085    19.727259    19.762464    20.483057    7985.5093    6845.6914    8259.8096    7314.1244   -184.61306    1399.0248    304.29516   -3863.2443 
19139000    123.60769   -4989.0143   -4750.6265   -4989.0143            0    7412.2664    19.638392    19.916661    20.443059    7995.9181    8080.7031    6907.4173    7248.6788   -278.87193   -45.538141   -144.76832   -3886.2653 
19140000     131.4248   -4975.0485   -4721.5847   -4975.0485            0    6585.4159     19.77935     19.88942     20.39702    8024.1835    7542.1689    6070.8445    6143.2344    541.06096    -322.3061   -109.95944   -3950.9298 
19141000    128.62058    -4983.595   -4735.5394    -4983.595            0    5859.1572    19.840443    20.025413    20.236886    8040.3793     5985.669    5114.0757    6477.7269    36.787538    9.3738544    5.6730157   -4048.4906 
19142000    132.20297   -4985.4759   -4730.5114   -4985.4759            0    7012.4626    19.753782    19.847087    20.378649    7989.5517    6474.3928    6803.2527    7759.7424    184.83863    19.437806    118.54965   -3913.4233 
19143000    126.96501   -4979.2937    -4734.431   -4979.2937            0    7146.3399    19.702661    19.921984    20.459094    8030.5234    7831.9502    6256.0661    7351.0035   -436.66737   -810.37843    -314.6823   -3897.4735 
19144000    134.18332    -4992.391   -4733.6072    -4992.391            0    6827.7388    19.790866    19.946945    20.371285    8041.9175    6353.8341    6931.3878    7197.9947    68.165193     993.3824   -257.86007   -3932.8287 
19145000    133.35508   -4988.3177   -4731.1312   -4988.3177            0    7116.9927    19.760345    19.796194    20.498694    8018.6716    6101.5712    8096.9658    7152.4412   -455.52708    1867.1279    809.58136   -3898.8409 
19146000    126.11963   -4983.7216   -4740.4893   -4983.7216            0    7152.2353    19.582689    19.830758    20.646079    8017.6891    6668.4036    7570.6613    7217.6409   -412.26853    289.76939     1402.489   -3904.1801 
19147000    127.89662   -4991.7993   -4745.1399   -4991.7993            0    7667.8936    19.617608    19.796515    20.599825    8000.1537    7539.4734    8665.4223     6798.785    351.52471    851.07168     633.6526   -3850.4958 
19148000    129.73162   -4986.8135   -4736.6152   -4986.8135            0    7065.0506    19.885595    19.711854    20.461443    8020.5157    7443.0969    6598.3166    7153.7383    7.0114863    480.05813   -12.093888   -3910.2092 
19149000     135.3795   -4987.1812   -4726.0905   -4987.1812            0    4926.1405    19.984309     19.76314    20.486263     8091.105    5013.3539    5915.7564    3849.3111    29.004225    15.116669    635.03028   -4144.8036 
19150000    124.52552   -4972.2835   -4732.1256   -4972.2835            0    7684.3299     19.86592     19.79703    20.383016    8016.3595    6761.3679    7865.5672    8426.0547   -67.381081   -82.946208   -395.42229   -3833.7476 
19151000     135.6014   -4968.1508   -4706.6321   -4968.1508            0    7128.1669    19.810194     19.74108    20.430746    7989.9462    6892.2932    6873.8181    7618.3896   -58.795649    1068.6884   -22.389924   -3876.0213 
19152000    132.99971   -4972.9798   -4716.4787   -4972.9798            0    8120.4096    19.851511    19.719231     20.39914    7985.3769    8091.2896    7712.3966    8557.5426   -158.54756     634.2227   -720.65502   -3770.7877 
19153000     129.9372   -4984.0908    -4733.496   -4984.0908            0    6807.6022    19.831879    19.862896    20.364386    8021.9097    6003.8086    6741.2068    7677.7911    89.435692    1016.5363   -291.88857   -3937.0656 
19154000    130.42037   -4982.2166   -4730.6899   -4982.2166            0    6556.2027    19.901006    19.762295    20.450097    8042.8092    6669.3543    6360.0836    6639.1701   -36.147676    36.101845    638.16611   -3961.6728 
19155000    127.01231   -4979.2601   -4734.3062   -4979.2601            0    6375.2459     19.73469    19.867602    20.503411    8038.9974    8160.6028    4954.3663    6010.7684    -738.7784   -69.553975    -274.8407    -3986.869 
19156000    122.17388   -4980.1792   -4744.5566   -4980.1792            0    6092.2303    19.795295    19.794337    20.556162    8054.6186    5855.7191    6224.0432    6196.9286   -274.25391   -245.10593    259.11141   -4028.9124 
19157000    132.37307   -4986.3079   -4731.0153   -4986.3079            0    5542.1469    19.763815    19.681671    20.734821    8065.5322    5792.1747    6811.3982    4022.8677   -70.969638   -286.42266    1134.4425   -4079.1064 
19158000    125.54501   -4991.0308   -4748.9067   -4991.0308            0    6428.7123    19.792211    19.801571    20.489299    8030.1022    6912.6472    6221.0649    6152.4248   -807.78497    338.22377   -738.82911   -3996.0351 
19159000    127.66388    -4982.568   -4736.3575    -4982.568            0    7356.1451    19.530514     19.85411    20.647131    8006.1516    7874.1775     7834.528      6359.73   -59.083984     384.2493     470.4412   -3877.4429 
19160000    131.08525   -4981.6057   -4728.7968   -4981.6057            0    7110.5911    19.798916     19.79227    20.481232    8025.8877    8145.1068    7039.7862    6146.8804    88.241124    900.58637   -631.23464   -3896.5068 
19161000    122.90533   -4978.5674   -4741.5341   -4978.5674            0    6199.6861    19.844289    19.742442    20.588599    8066.0925    7335.1181    7061.1784    4202.7619   -846.98045    259.51559   -642.73013   -4012.2298 
19162000    132.42862   -4983.6571   -4728.2573   -4983.6571            0    5977.6061    19.880127    19.920732    20.326408    8049.8002     6866.637    4292.6218    6773.5596   -808.64237    928.72261   -399.22943   -4026.4979 
19163000    130.92684   -4979.8421   -4727.3387   -4979.8421            0    7120.9211     19.80518    19.738573    20.627925    8063.9918    7319.4145    7344.9087    6698.4401     -340.222   -1025.4686     1746.148   -3889.8824 
19164000    124.15668   -4983.1376    -4743.691   -4983.1376            0    6570.4728    19.915779    19.687202    20.589321    8072.7836    6764.8327    5838.6344    7107.9512   -225.68364   -179.25528    595.03785   -3970.1278 
19165000    129.30323   -4980.7426   -4731.3705   -4980.7426            0    6770.8497    19.785869    19.793935    20.501693    8029.2875     7895.008    6213.3249    6204.2161    414.57199    375.44743   -44.970744   -3938.5113 
19166000    132.94454    -4981.547   -4725.1523    -4981.547            0    6468.1632    19.841782    19.770311    20.509937    8045.6015    5751.7051    6712.3874     6940.397     347.8587    476.55017   -557.68525   -3966.1984 
19167000    130.87202   -4973.8909   -4721.4932   -4973.8909            0     8542.692    19.690549    19.646189    20.579698    7961.1375    8767.9538    8510.9409    8349.1813    42.828148   -1163.0955    527.83538   -3729.6437 
19168000    137.43162   -4971.3677   -4706.3192   -4971.3677            0    6747.4252    19.534651    19.933211    20.548208    8001.2322     7782.321    5833.7395     6626.215   -189.47524    404.77033    -636.5227   -3918.9638 
19169000    129.60317   -4967.9167   -4717.9661   -4967.9167            0    5965.0259    19.779164    19.888233    20.457639     8047.475     6019.654    6173.9707     5701.453   -38.252618    -575.6551   -146.14521   -4017.8858 
19170000    137.90988   -4986.2329   -4720.2621   -4986.2329            0    7529.8422      19.7857    19.905058    20.278138    7986.2508    7165.0054    7447.5529    7976.9683   -144.99099   -517.61504   -393.50288   -3843.2518 
19171000    132.60227   -4983.2279   -4727.4933   -4983.2279            0    5323.4719     19.73948    19.926414    20.591527    8099.4106    6232.2916    4300.6998    5437.4243    153.65933   -379.06578   -27.424734   -4098.6763 
19172000    126.33407   -4983.0705   -4739.4246   -4983.0705            0    5826.5545    19.850577    19.897609    20.386286    8052.1554    6558.0488    4637.0539    6284.5608   -34.855836   -234.10975    208.14259   -4055.1982 
19173000    130.54386   -4999.3286   -4747.5637   -4999.3286            0    6478.8327    19.784432    19.983874    20.367712    8052.7739    8274.0142    4827.0698     6335.414    191.69268   -397.58954   -942.25073   -3986.6803 
19174000    129.37264   -4981.8783   -4732.3723   -4981.8783            0    6644.1217    19.667318    19.929071    20.489988     8031.079    6707.1694    6202.8159    7022.3797   -307.57482    511.74297    4.0492351   -3954.1792 
19175000    133.42276   -4988.6641   -4731.3471   -4988.6641            0     6858.983    19.852384    19.778394     20.41657    8016.5307    6631.3147    7015.1914    6930.4428    306.54816    35.367369    1110.4313   -3929.4436 
19176000    129.06045   -4986.1135   -4737.2096   -4986.1135            0     8120.364    19.950756     19.72129    20.227677    7958.6734    6748.8736    8972.2977    8639.9206   -272.55905    948.71012   -180.65846   -3794.6863 
19177000    129.76515   -4973.2914   -4723.0284   -4973.2914            0    7690.8466    19.821975    19.833292    20.290317    7976.8342    7192.3407     8270.996     7609.203    -3.319222   -470.31818    905.37039   -3828.3219 
19178000    124.70873   -4968.4597   -4727.9484   -4968.4597            0    7766.5305    19.878013    19.769801    20.391362    8013.4863    7533.7272    7678.2264    8087.6379    232.49493    314.42253    875.23184   -3820.2858 
19179000    134.54207     -4970.44   -4710.9643     -4970.44            0    7813.6374    19.544826    19.818608    20.609656    7983.1759    9147.8507     6612.307    7680.7545     315.7048   -1739.3395    305.48334   -3801.2503 
19180000    133.86622   -4977.5533   -4719.3811   -4977.5533            0    7661.7468    19.860191    19.721722    20.471298    8018.1401    6706.8661    8585.6903    7692.6838    -227.2798    127.56298   -499.69063   -3823.4444 
19181000    131.91321   -4987.6862   -4733.2805   -4987.6862            0    6381.3545    19.632451    19.938054    20.472273    8013.5204     5498.096     7072.605    6573.3625   -164.79459   -770.21843    681.73495   -3987.4982 
19182000    131.28778   -4988.9075    -4735.708   -4988.9075            0    6745.1028    19.887743    19.919581    20.334423    8055.5939    7238.0668    6185.2396    6812.0018    51.780882   -422.88191   -409.73019    -3943.276 
19183000    129.38605   -4993.9658   -4744.4339   -4993.9658            0    7569.6104     19.95433    19.768218    20.352665    8028.3438    6553.3486    8106.1599    8049.3226    266.88023    60.425711   -1452.5202   -3858.1449 
19184000    127.43022   -4991.7972   -4746.0373   -4991.7972            0    7423.1185    19.845667    19.734562    20.514309    8034.3377    7933.4523    7233.7991    7102.1042   -188.16593    1020.7244    -673.3489   -3876.2514 
19185000    137.03318   -4980.5347   -4716.2547   -4980.5347            0    7065.3668    19.808077    19.736914    20.497228    8013.3981    7145.1579    7170.6341    6880.3084     -53.1903    -399.2139   -342.99856   -3890.5452 
19186000    132.17627   -4977.6525   -4722.7394   -4977.6525            0    7426.2902    19.966765    19.903786    20.287273    8062.4505     5948.649     8146.464    8183.7576   -514.52211    1441.2844    289.67151   -3849.5371 
19187000    129.16371   -4981.4861    -4732.383   -4981.4861            0    7687.4859    19.784007     19.85876    20.331077    7987.7928    8749.5324    5093.1121    9219.8131    250.46543    25.828021    391.17105   -3836.8388 
19188000    133.09069   -4980.6349   -4723.9583   -4980.6349            0    6829.7685    19.877692    19.945481    20.255011    8030.5069    6702.8763    6971.5163     6814.913   -932.60148    1515.7319    1199.6391   -3924.0783 
19189000    134.36003   -5009.2289   -4750.1043   -5009.2289            0    6141.7642     19.79137    19.821226    20.491206     8038.479    6254.8926    6005.5452    6164.8547    65.619008    19.341698    242.47879   -4030.0871 
19190000    135.94243   -4971.5735    -4709.397   -4971.5735            0    8105.7982     19.64083     19.81315    20.587794    8011.6724    7348.4639    8280.7055    8688.2251   -250.27878    159.22495   -545.43987   -3762.2992 
19191000     132.5984   -4989.7318   -4734.0046   -4989.7318            0    6326.9741    19.816411    19.734209    20.674396    8084.9542    7331.2508    6798.1759    4851.4955    505.15725    47.242339   -309.38544   -3987.9862 
19192000    124.93435   -4964.0075    -4723.061   -4964.0075            0    7497.8518      19.7928    19.721878    20.537904    8016.9954    7555.0383    7700.7614    7237.7556   -659.75357     90.99813    508.40584   -3846.4148 
19193000    135.69101   -4991.1489   -4729.4574   -4991.1489            0    7157.6519    19.717752    19.815814    20.551071    8029.7826    7353.8757    7236.9698    6882.1102   -149.84005    621.55892    201.73443   -3891.2524 
19194000    132.05188   -4966.1768   -4711.5036   -4966.1768            0      8086.66    19.811314    19.776008    20.420126    8000.3749    6815.1932    8980.9164    8463.8704   -23.701683    17.384959    1123.4649   -3767.9743 
19195000    131.04865   -4984.2717   -4731.5334   -4984.2717            0    5938.7887    19.851515    20.013953    20.302826    8066.4605    5089.4238    5612.6574    7114.2849    502.31348   -600.87277   -1279.1023    -4032.888 
19196000    130.15566   -4982.4434   -4731.4273   -4982.4434            0    7688.6487    19.866825    19.824019    20.327679    8005.8593    5899.7122    9258.3683    7907.8656    170.26884   -748.95079   -481.64372   -3833.7219 
19197000    128.39926   -4976.6055   -4728.9767   -4976.6055            0    6368.2416    19.736707    19.950975    20.402415    8033.7884    7024.9021    6112.1721    5967.6504    246.24482    484.91035   -411.14407   -3982.8445 
19198000    131.88351   -4982.6081   -4728.2597   -4982.6081            0    6209.5554     19.79569    19.827097    20.484884    8040.1338    6063.4452    6288.2695    6276.9515    57.906773    665.25575   -930.47042   -4000.1452 
19199000    129.91789   -4969.3511   -4718.7935   -4969.3511            0    5562.3462    19.828352    19.700885    20.661277    8071.0403    5728.2889    6651.5527    4307.1971    279.98087    710.91586    271.52117   -4064.0618 
19200000    129.68323   -4995.1475   -4745.0425   -4995.1475            0    5085.7969    19.799423    19.895669     20.57027    8103.0976    6338.7265    4705.3108    4213.3535    110.09777    147.55171    102.75139   -4144.0266 
19201000    127.51871   -4979.1117   -4733.1811   -4979.1117            0    7054.7644    19.843027    19.913405    20.313123    8026.5728     6029.457     7571.891     7562.945   -297.58611   -545.17923   -270.96732   -3907.3551 
19202000    134.66299   -4986.9601   -4727.2512   -4986.9601            0    7170.3315    19.769177    19.849295    20.426185    8015.3213    6941.1922    6934.0936    7635.7086   -219.83065    1186.3718    63.202177   -3889.0736 
19203000    125.93418   -4985.8448   -4742.9702   -4985.8448            0    7127.7548    19.836023    19.806813    20.434559     8028.501    7172.4152    7216.9696    6993.8795   -144.74441   -419.44912    246.63398   -3908.3995 
19204000    132.18783   -4996.3991   -4741.4637   -4996.3991            0    7758.7123    19.766291    19.730664    20.474034    7984.9149    5627.4566    9583.8914     8064.789   -32.715116    -362.6487    993.33878   -3837.9477 
19205000    125.78327   -4988.7035   -4746.1199   -4988.7035            0      6066.71    19.554975    19.927397    20.548903    8007.4912    5397.5104    6131.7775    6670.8421    49.393275   -633.17779    1329.0674   -4037.6431 
19206000    128.29547   -4995.4147   -4747.9861   -4995.4147            0    6429.6658    19.744376    19.794154    20.668128    8077.5843    6873.3975    6609.7093    5805.8905   -22.691092    1327.2414   -359.97934   -3990.5503 
19207000    130.04644    -4983.588   -4732.7825    -4983.588            0    6665.8611     19.73816    19.767415    20.687305    8071.6157    7004.2543    6334.9777    6658.3513   -154.75123    1169.1991   -496.01576   -3948.1025 
19208000    134.50576    -4989.015   -4729.6094    -4989.015            0    5935.0485    19.710681    19.942211    20.539542    8073.5713     6090.144    6211.7801    5503.2215   -82.216609    306.90422    78.619301   -4030.7885 
19209000    131.37943   -4988.2136   -4734.8373   -4988.2136            0    5885.2248    19.803322    19.846371    20.486688    8051.7614    5868.7964    6623.6001     5163.278   -940.07106    1104.9443   -583.25121   -4043.7549 
19210000    130.71428   -4961.9206   -4709.8271   -4961.9206            0     8147.556    19.779184    19.802165    20.365795    7976.6845     7370.431    8260.2122    8812.0248   -190.64261   -287.04703    791.87708   -3762.0076 
19211000    130.43943   -4980.1915   -4728.6281   -4980.1915            0    5745.0448    19.877624     19.77067    20.436229    8031.3144    4164.2613    7074.7102    5996.1629    70.454089    400.47367    505.18683   -4055.7197 
19212000    128.42712    -4976.016   -4728.3335    -4976.016            0    6858.4762    19.830064    19.788698    20.422904     8014.175    6498.3968     7060.816    7016.2159   -81.344839   -934.95632   -241.44942    -3926.725 
19213000    135.26165   -4977.0928   -4716.2293   -4977.0928            0    7728.2494     19.90219    19.804565    20.252669    7982.6751    7829.7572    7591.1949    7763.7962    238.74417    151.50437   -670.38445   -3816.5132 
19214000    131.70658   -4975.8035   -4721.7963   -4975.8035            0    6725.4479    19.769643    19.883296    20.373882    8008.6807    7378.4159    5811.4985    6986.4292    659.04712   -905.77021    144.87029   -3936.2748 
19215000    125.36893   -4991.7206   -4749.9361   -4991.7206            0    7928.4462    19.671324    19.787517    20.499372    7979.3118    8140.7017    8203.4182    7441.2188    299.89288    224.41817   -1295.0716   -3827.3022 
19216000    128.62912   -4988.0511    -4739.979   -4988.0511            0    5897.9011    19.899436    19.667119    20.547962    8041.7445    6325.2734    5010.8993    6357.5306    81.301779    34.811683    -1695.353   -4048.2696 
19217000    126.95731   -4993.8667   -4749.0189   -4993.8667            0    7088.2608     19.93905    19.820052    20.318326    8029.6601    5843.3235    6946.7537    8474.7054    -546.4975      360.946   -142.19502   -3918.9527 
19218000     133.3051   -4971.8138   -4714.7237   -4971.8138            0    7397.6799    19.740696    19.761655    20.448588    7977.1747    7685.3139    5841.4744    8666.2513    84.464004    670.25758    324.53937   -3854.0856 
19219000    135.28985   -4986.5009   -4725.5831   -4986.5009            0    7762.4173    19.765371    19.677274    20.643251    8028.7513     8184.415    7044.9579    8057.8791   -270.03964    -616.2237   -164.23237   -3816.6731 
19220000     130.0922   -4996.5309   -4745.6371   -4996.5309            0    6949.4326    19.649866    19.779265    20.575802    7996.9893    7371.5461    7880.1877    5596.5639   -173.00341   -218.70655    65.139324   -3935.1395 
19221000    138.40913   -5006.2375   -4739.3038   -5006.2375            0    5658.3294    19.798065    19.808917    20.612474    8083.7631    5292.8036    5707.1806    5975.0038    83.249266    1508.8735     795.1377   -4072.2242 
19222000    126.65866   -4987.3026   -4743.0307   -4987.3026            0    7068.4633    19.801998    19.742823    20.541229    8030.5392    6017.2253    8190.9561    6997.2084    29.062451   -262.42576   -461.60099   -3915.1922 
19223000    126.38505   -4983.9322   -4740.1881   -4983.9322            0    6177.9802    19.690038    19.852337    20.558002    8035.9846    5564.1079    6413.1274    6556.7052   -131.22124    85.912865    -389.0057   -4016.1498 
19224000    136.11338   -4996.6718   -4734.1657   -4996.6718            0    6266.1145    19.769721    19.826889    20.447266    8014.7569    6344.2409     6278.992    6175.1107   -102.64758   -819.48273   -10.764513   -4001.7383 
19225000    123.85486   -4974.9194   -4736.0549   -4974.9194            0    8027.9781    19.671128    19.830809    20.451945    7978.1887    7838.5735    7875.2445    8370.1164    141.10046    275.69766    305.31939   -3801.9699 
19226000    128.69709   -4987.2762    -4739.073   -4987.2762            0    5823.9018    19.876269    19.800523    20.563318    8092.9102     6039.442    5589.6101    5842.6532   -253.69262    425.88269    1358.9992   -4051.6966 
19227000    138.00498   -4966.1233   -4699.9691   -4966.1233            0      7070.81    19.698599    19.817726     20.62971    8053.4561    7380.2849    7671.7507    6160.3944   -219.72161    -462.2392    1.2564106   -3869.4926 
19228000    134.95366   -4976.4676   -4716.1981   -4976.4676            0     6245.972    19.705787    19.843807    20.504875    8018.1822    6245.3812    6780.7895    5711.7451   -419.79554    -61.65509    1012.3247   -3985.8131 
19229000    134.69915   -4981.5867   -4721.8081   -4981.5867            0    7052.8174    19.668515     19.83886    20.584523    8032.0996    7622.6412    7564.5603    5971.2508    578.24946    510.16552   -252.85184   -3895.6415 
19230000    131.10422   -4960.4456   -4707.6001   -4960.4456            0    8075.8526    19.747703     19.75761    20.442536    7976.0114    8593.2938    8121.5405    7512.7235    733.72387    1246.5512    53.712262   -3768.2012 
19231000    140.41068   -4990.1375   -4719.3436   -4990.1375            0    6557.5925    19.811766     19.95236    20.285452    8018.6665    5960.1308    6164.7996    7547.8471   -446.61396   -211.80184   -189.69618   -3952.4724 
19232000     135.4587   -4984.0157   -4722.7722   -4984.0157            0    6804.2981    19.757237     19.68714    20.490758    7970.1563    6435.7433    7478.6278     6498.523   -159.77489    657.49176    256.55765    -3931.864 
19233000    132.27711    -4988.843   -4733.7354    -4988.843            0    7623.7961    19.802735    19.789381    20.446443     8012.631    7416.8063    7992.9036    7461.6782   -308.23893    190.47517     355.9958   -3842.8491 
19234000    132.68296   -4975.7738   -4719.8835   -4975.7738            0    7815.6207    19.607392    19.817297    20.551395    7985.5632    9668.1645    6560.4953    7218.2024    936.30194    1127.1074    619.73529   -3809.6666 
19235000    125.73869   -4984.6722   -4742.1745   -4984.6722            0    6991.8872     19.79308    19.848953    20.400998    8014.9791    7193.7406    5177.9936    8603.9275   -206.75547   -550.87732    846.24502   -3924.8911 
19236000    130.12131   -4986.4546   -4735.5047   -4986.4546            0    7683.2674    19.875243    19.823952    20.305374    8000.4365    6128.3376    9294.3948    7627.0697   -240.21995   -30.278585    352.26393   -3839.0352 
19237000    135.01045   -4991.7278   -4731.3488   -4991.7278            0     6534.476     19.75687    19.908774    20.358762    8007.8145     5309.255     6074.222    8219.9511     67.56554   -1135.8764    467.41092   -3968.2151 
19238000    130.87349   -4971.7073   -4719.3068   -4971.7073            0    7396.0818    19.633697    19.904568    20.414731    7978.0816    7680.9603    7536.3001    6970.9851   -228.34945   -28.210267   -1202.6388   -3858.7568 
19239000    123.64524   -4973.3277   -4734.8674   -4973.3277            0    6203.4855    19.858604    19.863256    20.440282    8062.8027    5989.7008    6017.4589    6603.2968    386.42339    317.01941   -813.85127   -4005.4138 
19240000     130.2048   -4976.7651   -4725.6542   -4976.7651            0    7158.0745    19.766189    19.676332    20.651966    8032.0887    7191.7413     7866.445    6416.0371   -435.35151    -865.4295    911.04094    -3887.159 
19241000    123.01322    -4980.996   -4743.7546    -4980.996            0     4740.456    19.802063    19.864486    20.552914    8084.6491    4899.0256    4239.5875    5082.7549   -268.91234    598.49103    318.30849   -4184.8249 
19242000    128.86355   -4978.9679   -4730.4437   -4978.9679            0     7809.705    19.793944    19.799203    20.483204    8027.4562    9776.8125    6144.7741    7507.5285   -409.48363   -306.12779    311.78797   -3816.1442 
19243000    126.03151    -4960.265   -4717.2026    -4960.265            0    6912.3963    19.757968    19.883963    20.360481    7998.9549    7001.7629    6212.4492    7522.9769   -349.91707    819.45881    593.69917   -3910.8263 
19244000    128.08131   -4967.8906    -4720.875   -4967.8906            0    6427.3714    19.779317    19.900934    20.451994    8050.4549    5702.8919    6203.0567    7376.1656   -382.25879    352.74262   -770.02719   -3966.2526 
19245000    135.17766   -4969.3526   -4708.6511   -4969.3526            0    5942.5587    19.845137    19.851651    20.385835    8031.1778     5932.428    5920.1168    5975.1313    385.64983   -142.30562    735.22966     -4012.62 
19246000    136.06455   -4982.6692   -4720.2573   -4982.6692            0    5831.8826    19.792843    19.786224    20.467174    8015.4699    6519.3589    5500.9811    5475.3078   -369.76293     646.4845    1044.9987   -4038.5253 
19247000    127.76084   -4971.2058   -4724.8082   -4971.2058            0    8369.9093    19.908236    19.531316    20.498496    7970.5135    9046.4884    8564.2897    7498.9496    534.69538    215.53624    971.55924   -3751.8752 
19248000    132.64776   -4976.5149   -4720.6925   -4976.5149            0    7332.0606    19.903435    19.736822    20.457985    8036.5218    7455.7134    6845.7622    7694.7061    142.64635    661.58941   -316.85064   -3861.3426 
19249000     127.0752   -4990.2198   -4745.1445   -4990.2198            0    6181.4459    19.634587    19.807636    20.743063    8067.2835    7609.5415    5289.3735    5645.4226     394.7835    248.32556     1150.721   -4017.8786 
19250000    139.22072   -4977.3695   -4708.8706   -4977.3695            0    6759.6292    19.767739    19.747629    20.571946    8030.5875    6335.6909    8238.6052    5704.5915    553.70402    502.24589    175.44282   -3917.1972 
Loop time of 348.041 on 64 procs for 250000 steps with 972 atoms

Performance: 124.123 ns/day, 0.193 hours/ns, 718.305 timesteps/s
99.1% CPU use with 64 MPI tasks x 1 OpenMP threads

MPI task timing breakdown:
Section |  min time  |  avg time  |  max time  |%varavg| %total
---------------------------------------------------------------
Pair    | 19.379     | 28.604     | 39.098     |  87.2 |  8.22
Bond    | 0.2631     | 0.27655    | 0.28895    |   1.0 |  0.08
Kspace  | 134.85     | 145.23     | 154.81     |  39.3 | 41.73
Neigh   | 0.94449    | 0.9576     | 0.97372    |   0.8 |  0.28
Comm    | 81.976     | 82.987     | 84.059     |   6.0 | 23.84
Output  | 0.78584    | 0.78615    | 0.78746    |   0.0 |  0.23
Modify  | 82.889     | 83.999     | 84.97      |   5.5 | 24.13
Other   |            | 5.204      |            |       |  1.50

Nlocal:        15.1875 ave          19 max          11 min
Histogram: 1 7 5 10 0 14 12 3 9 3
Nghost:        2324.45 ave        2367 max        2300 min
Histogram: 5 13 7 13 11 7 2 4 1 1
Neighs:        4892.88 ave        7026 max        3292 min
Histogram: 3 8 7 12 9 11 6 6 1 1

Total # of neighbors = 313144
Ave neighs/atom = 322.16461
Ave special neighs/atom = 2.0000000
Neighbor list builds = 2799
Dangerous builds = 0

unfix		3
unfix		2
unfix		1

write_data	data.final.${pid}
write_data	data.final.1
System init for write_data ...
PPPM initialization ...
  extracting TIP4P info from pair style
  using 12-bit tables for long-range coulomb (../kspace.cpp:340)
  G vector (1/distance) = 0.37215405
  grid = 24 24 24
  stencil order = 5
  estimated absolute RMS force accuracy = 0.0035156014
  estimated relative force accuracy = 1.0587129e-05
  using double precision FFTW3
  3d grid and FFT values/proc = 2197 216
Last active /omp style is kspace_style pppm/tip4p/omp
WARNING: Not all mixed pair coeffs generated from mixing. Use write_data with 'pair ij' option to store all pair coeffs. (../write_data.cpp:312)

write_restart   restart.lmp.${pid}
write_restart   restart.lmp.1
System init for write_restart ...
PPPM initialization ...
  extracting TIP4P info from pair style
  using 12-bit tables for long-range coulomb (../kspace.cpp:340)
  G vector (1/distance) = 0.37215405
  grid = 24 24 24
  stencil order = 5
  estimated absolute RMS force accuracy = 0.0035156014
  estimated relative force accuracy = 1.0587129e-05
  using double precision FFTW3
  3d grid and FFT values/proc = 2197 216
Last active /omp style is kspace_style pppm/tip4p/omp
Total wall time: 0:05:48
