#include		in.partitions
include		in.temp
variable        temperature equal 135.77
variable	tempDamp equal 100.0
include		in.pressure
variable        pressure equal 8281.6
variable        pressureDamp equal 1000.0 # This is 1 ps
include		in.seed
variable        seed equal 745823

units		real
atom_style	full
read_restart    restart.lmp.${pid}
read_restart    restart.lmp.1
Reading restart file ...
  restart file = 30 Jul 2021, LAMMPS = 30 Jul 2021
  restoring atom style full from restart
  triclinic box = (-3.0811264 -0.071038565 -0.0084358266) to (14.691125 22.651038 19.238434) with tilt (-0.20557216 -6.6370302 0.13911485)
  2 by 4 by 2 MPI processor grid
  restoring pair style lj/cut/tip4p/long/omp from restart
  restoring bond style harmonic/omp from restart
  restoring angle style harmonic/omp from restart
  1008 atoms
  672 bonds
  336 angles
Finding 1-2 1-3 1-4 neighbors ...
  special bond factors lj:    0        0        0       
  special bond factors coul:  0        0        0       
     2 = max # of 1-2 neighbors
     1 = max # of 1-3 neighbors
     1 = max # of 1-4 neighbors
     2 = max # of special neighbors
  special bonds CPU = 0.001 seconds
  read_restart CPU = 0.005 seconds

include 	in.setup
variable	out_freq equal 1000
variable	out_freq2 equal 10000
variable	out_freq3 equal 1000

timestep	2.0

neigh_modify    delay 7 every 1

include		in.tip4p
# This is TIP4P/Ice

# create groups ###
group ox type 2
336 atoms in group ox
group hy type 1
672 atoms in group hy

# set charges - beside manually ###
set group ox charge -1.1794
Setting atom values ...
  336 settings made for charge
set group hy charge 0.5897
Setting atom values ...
  672 settings made for charge

# ### TIP3P Potential Parameters ###
pair_style lj/cut/tip4p/long/omp 2 1 1 1 0.1577 8.5
pair_coeff 1 1*2 0.000 0.000
pair_coeff 2 2 0.21084 3.1668
bond_style  harmonic
bond_coeff  1 450 0.9572
angle_style harmonic
angle_coeff 1 55 104.52
kspace_style pppm/tip4p/omp 1.0e-5
pair_modify tail yes

thermo          ${out_freq}
thermo          1000
thermo_style    custom step temp pe etotal epair emol press lx ly lz vol pxx pyy pzz pxy pxz pyz enthalpy

restart 	${out_freq3} restart.lmp.${pid} restart2.lmp.${pid}
restart 	1000 restart.lmp.${pid} restart2.lmp.${pid}
restart 	1000 restart.lmp.1 restart2.lmp.${pid}
restart 	1000 restart.lmp.1 restart2.lmp.1


include         in.dump
dump            myDump all atom ${out_freq2} dump.water.${pid}
dump            myDump all atom 10000 dump.water.${pid}
dump            myDump all atom 10000 dump.water.1
dump            myDump2 all dcd ${out_freq2} dump.dcd
dump            myDump2 all dcd 10000 dump.dcd
dump_modify     myDump append yes
dump_modify     myDump2 append yes


variable natoms 	equal  "count(all)"                        # NUMBER ATOMS
variable H      	equal  "enthalpy/v_natoms"                 # ENTHALPY-per-atom
variable Vol      	equal  "vol/v_natoms"                 # volume-per-atom
fix AVG all 		ave/time ${out_freq} 1 ${out_freq} v_Vol v_H file vol_enthalpy.dat
fix AVG all 		ave/time 1000 1 ${out_freq} v_Vol v_H file vol_enthalpy.dat
fix AVG all 		ave/time 1000 1 1000 v_Vol v_H file vol_enthalpy.dat



fix 		1 all shake 1e-6 200 0 b 1 a 1
       0 = # of size 2 clusters
       0 = # of size 3 clusters
       0 = # of size 4 clusters
     336 = # of frozen angles
  find clusters CPU = 0.000 seconds
fix             2 all nph tri ${pressure} ${pressure} ${pressureDamp}
fix             2 all nph tri 8281.6 ${pressure} ${pressureDamp}
fix             2 all nph tri 8281.6 8281.6 ${pressureDamp}
fix             2 all nph tri 8281.6 8281.6 1000
fix             3 all temp/csvr ${temperature} ${temperature} ${tempDamp} ${seed}
fix             3 all temp/csvr 135.77 ${temperature} ${tempDamp} ${seed}
fix             3 all temp/csvr 135.77 135.77 ${tempDamp} ${seed}
fix             3 all temp/csvr 135.77 135.77 100 ${seed}
fix             3 all temp/csvr 135.77 135.77 100 745823


run             250000
PPPM initialization ...
  extracting TIP4P info from pair style
  using 12-bit tables for long-range coulomb (../kspace.cpp:340)
  G vector (1/distance) = 0.3799972
  grid = 24 27 32
  stencil order = 5
  estimated absolute RMS force accuracy = 0.0023769023
  estimated relative force accuracy = 7.1579708e-06
  using double precision FFTW3
  3d grid and FFT values/proc = 7875 1344
Last active /omp style is kspace_style pppm/tip4p/omp
Neighbor list info ...
  update every 1 steps, delay 7 steps, check yes
  max neighbors/atom: 2000, page size: 100000
  master list distance cutoff = 10.8154
  ghost atom cutoff = 10.8154
  binsize = 5.4077, bins = 5 5 4
  1 neighbor lists, perpetual/occasional/extra = 1 0 0
  (1) pair lj/cut/tip4p/long/omp, perpetual
      attributes: half, newton on, omp
      pair build: half/bin/newton/tri/omp
      stencil: half/bin/3d/tri
      bin: standard
Per MPI rank memory allocation (min/avg/max) = 12.46 | 12.47 | 12.48 Mbytes
Step Temp PotEng TotEng E_pair E_mol Press Lx Ly Lz Volume Pxx Pyy Pzz Pxy Pxz Pyz Enthalpy 
25500000    145.54549   -5098.0347   -4806.9257   -5098.0347            0    7871.4883    17.772252    22.722076     19.24687    7772.3182    8905.3468    7694.0097    7015.1086    996.17127    323.33036    1013.7184   -3914.6824 
25501000    138.35567   -5119.5591   -4842.8306   -5119.5591            0    6896.0835    18.005217    22.479307    19.308817    7815.1434    6239.1576    7528.5257    6920.5673    674.77316    873.03493    40.898504   -4056.8437 
25502000    139.08212   -5107.9804   -4829.7989   -5107.9804            0    10309.696    17.825609    22.761634     19.06974    7737.3562    9538.4388    10694.026    10696.625    1030.6718    1321.0417    1848.4672   -3666.4383 
25503000    138.04149   -5117.8213   -4841.7213   -5117.8213            0    7313.3859    17.829574    22.831952    19.107546    7778.3762     8271.778    6677.2562    6991.1234   -849.87724   -455.98507    650.70435   -4012.0934 
25504000    125.49186   -5100.4557   -4849.4564   -5100.4557            0    10218.797    17.904214     22.36631    19.339758    7744.6298    12221.545    10217.509    8217.3368   -611.64626     224.6741   -1389.4769   -3695.2691 
25505000    141.54222   -5121.0235   -4837.9215   -5121.0235            0    7661.3128    17.717003    22.911839    19.159502    7777.3999    7873.7664    7406.2906    7703.8815   -283.76636    604.15274   -136.62411   -3968.9341 
25506000    138.06145   -5110.1361   -4833.9962   -5110.1361            0    6876.0817    17.966849    22.587784    19.250446    7812.4335    7343.4766    7120.9657    6163.8028    -1148.517   -642.90145    122.53754   -4050.5606 
25507000    132.16168   -5098.4816   -4834.1419   -5098.4816            0    8716.0055     17.67524    22.967047     19.11432    7759.4215     9488.223    8323.1638    8336.6296    1655.3394    479.37672   -868.88111   -3847.8108 
25508000    137.97678    -5108.188   -4832.2174    -5108.188            0    8446.4803    17.736523    22.867454    19.126023    7757.3068    8422.5999    7770.7855    9146.0555    540.48165   -411.57067     883.9035   -3876.6471 
25509000     142.8688    -5101.443   -4815.6878    -5101.443            0    8831.7172    17.866473    22.529749    19.247667    7747.7088    8748.9436     9317.393    8428.8151    780.16216   -364.06697    302.66884    -3817.771 
25510000    142.46494   -5109.8892   -4824.9418   -5109.8892            0    8672.6374    17.675033     22.94176    19.121451    7753.6792    11452.846    7508.8471    7056.2196   -65.123353    434.77338   -590.62414   -3844.2446 
25511000    138.74571    -5112.721   -4835.2125    -5112.721            0    9537.4139    17.894987    22.391521    19.308974    7737.0285    9094.6165    10870.001    8647.6244    81.188334    502.12614    649.86196   -3759.0429 
25512000    145.34761   -5104.8464   -4814.1333   -5104.8464            0    7693.9384    17.820053    22.748435      19.1995    7783.0608     7906.697    7235.3154    7939.8028   -154.99481   -50.377055   -1608.0104     -3940.81 
25513000    136.51341   -5093.4322   -4820.3885   -5093.4322            0    6924.6593    17.830363    22.883259    19.175248    7823.8238    7725.0757    6118.4169    6930.4854   -295.94338    904.07513   -464.62188   -4030.2679 
25514000    140.05857   -5111.7143   -4831.5799   -5111.7143            0    10252.937    17.790845    22.612845    19.176427    7714.7077    9190.2309    10689.292    10879.287    4.8591535    386.81189   -165.17739   -3678.0107 
25515000    130.20666   -5093.0325   -4832.6031   -5093.0325            0    7809.1846    17.565765    22.984569    19.234239    7765.6613    9539.0071    7179.1286    6709.4183    202.21681   -130.97611   -501.33753   -3948.1801 
25516000    130.88265   -5086.6775   -4824.8961   -5086.6775            0     9557.396    17.926928    22.513757    19.181055    7741.5218    9673.5978    9566.6348    9431.9554   -934.02793    -633.2258    176.46363   -3745.8455 
25517000     137.4459   -5107.3013   -4832.3925   -5107.3013            0    8717.9191    17.656442    23.147323    18.987798    7760.3013    8650.9631    8305.7639    9197.0304     404.4964    577.06296   -180.42875    -3845.733 
25518000    133.28904   -5108.5713   -4841.9768   -5108.5713            0    9660.7446    17.874797    22.580487    19.159024    7732.9962    9591.5937    9404.4766    9986.1635   -339.01967   -53.998647    2383.0455   -3752.4591 
25519000    134.62078   -5102.2751   -4833.0169   -5102.2751            0    9239.8297    17.851909    22.710177    19.070283    7731.4748    9569.2015    9582.2278    8568.0598   -1432.2746    1186.0836   -129.55673   -3791.1741 
25520000    138.05267   -5118.7124     -4842.59   -5118.7124            0    6189.7615    17.901602    22.834036    19.115586    7813.7984     6785.556    5394.1021    6389.6265    481.15622   -978.29886   -323.07995   -4137.2281 
25521000    133.00716   -5114.1916   -4848.1609   -5114.1916            0    7874.4987    17.881856    22.629609    19.196816    7768.1722    8300.6793    8117.5907     7205.226   -395.00281   -426.16363    307.69774   -3956.0525 
25522000     137.6888   -5106.4509   -4831.0563   -5106.4509            0    7335.8195     17.68285    22.939165    19.154335    7769.5693    7162.4127    7111.7311    7733.3145   -122.69745   -750.86277    386.50974   -3999.8258 
25523000    133.84983   -5116.3989   -4848.6827   -5116.3989            0    7737.8169    17.800743    22.653184    19.253585    7763.8831    9145.3182    6896.0054     7172.127    325.68327   -802.32624   -711.91582   -3972.5431 
25524000    139.22315   -5081.5015    -4803.038   -5081.5015            0    8143.7554    17.819582    22.580893    19.258959      7749.46    7241.0441    9386.6279    7803.5942    681.09218   -378.77279   -379.91595   -3882.6477 
25525000    143.80739   -5106.0306   -4818.3981   -5106.0306            0    7797.1897    17.763129    22.872315    19.136394    7774.8085    8271.3599    7316.1043    7804.1048   -27.568032   -772.44473    1365.2607   -3934.2934 
25526000    137.20746   -5100.2172   -4825.7853   -5100.2172            0    7361.9067    17.947665    22.604156    19.202967    7790.4867    6868.1569     8423.634     6793.929    282.51383    751.78092   -590.10572    -3989.353 
25527000    139.52489   -5096.6764   -4817.6094   -5096.6764            0    8327.9156    17.931909    22.504942    19.284952    7782.5692    8049.4285    9171.9234     7762.395   -615.53907    414.53053    22.077572   -3872.3844 
25528000    133.24545   -5107.0064   -4840.4991   -5107.0064            0    9445.9395    17.682936    22.926281    19.085591    7737.3741    10227.852    8635.4873     9474.479   -1410.4645    783.75405    456.94236   -3774.6035 
25529000    132.60812   -5096.6687   -4831.4361   -5096.6687            0    7228.2351    17.949012    22.486767    19.358389    7813.3413    7409.6943    7974.7925    6300.2186    998.02458    67.269006    141.31045   -4007.7818 
25530000    140.21363    -5102.721   -4822.2764    -5102.721            0     8593.683    17.883489    22.731735    19.146127    7783.3359    7138.7394    9004.7353    9637.5743    310.72488    232.14611    2614.0679   -3846.7905 
25531000    137.71503    -5090.673    -4815.226    -5090.673            0    8623.6493    17.768896    22.869873    19.157659    7785.1438    10549.728    7685.8774    7635.3426     795.7213    663.06909    1600.9621   -3836.1112 
25532000    132.68441   -5094.2117   -4828.8265   -5094.2117            0    7842.3761    17.781306    22.714612      19.2652    7781.1267    7415.6691    8152.1092    7959.3499    252.31574    227.46526    358.80462   -3938.8756 
25533000    131.82049   -5097.6864   -4834.0292   -5097.6864            0    7995.7358    17.820537     22.66635    19.231217    7767.9985    6992.6874    8753.8317    8240.6885     698.7193   -703.00221   -962.31505   -3928.2059 
25534000    136.13662   -5116.4443   -4844.1542   -5116.4443            0    7996.9528    17.699332    22.904647    19.076548    7733.5744    8338.9366    7330.6107    8321.3112    629.55647   -207.54615   -412.26438   -3942.2079 
25535000    132.86403   -5122.8742   -4857.1298   -5122.8742            0    7345.3833    18.038366     22.52146    19.155945    7782.1089     6744.455    7641.3519    7650.3429    -776.3379    415.43678   -346.89655   -4023.4723 
25536000    135.43895   -5118.9564   -4848.0618   -5118.9564            0    9028.3041    17.893315    22.715254    19.061465    7747.5555    9254.7603    8538.9226    9291.2294   -422.17085    212.20567    255.77815   -3827.9524 
25537000    139.06657   -5106.2649   -4828.1146   -5106.2649            0     8292.466    17.831964    22.853795    19.009535    7746.9188    8282.7155    7796.9525    8797.7299    -460.1889   -430.04121   -361.75477   -3891.2246 
25538000    136.17692   -5112.9787   -4840.6081   -5112.9787            0    7533.6415    18.009848    22.426997    19.285012    7789.3475    6611.9411    8352.7968    7636.1867   -65.845209    798.72468    568.58189   -3984.7891 
25539000    133.71745   -5104.1331   -4836.6817   -5104.1331            0    7945.5514    17.810069    22.858183    19.074306    7765.2607    8718.2883     6528.814    8589.5519    522.76488   -528.11806    170.49952    -3936.861 
25540000    133.55307   -5096.7935   -4829.6708   -5096.7935            0    8853.6006    17.925449     22.65751    19.110881    7761.8091    9520.8205    8761.8218    8278.1596    1514.3606     67.60274   -201.46276   -3827.4607 
25541000    134.89555   -5100.0356   -4830.2278   -5100.0356            0    9061.0067    17.747241    22.582138    19.304165     7736.543    10495.796    9164.4488    7522.7751    285.93917   -291.90191   -911.72686   -3807.8786 
25542000    133.51525   -5088.6347   -4821.5877   -5088.6347            0    10608.991    17.761449    22.740794    19.036386    7688.9762    10324.869    10580.666    10921.437    728.23956    342.51443    1783.7386   -3631.9398 
25543000     138.4387   -5094.7308   -4817.8363   -5094.7308            0    9046.2008    17.949353    22.525444    19.101674    7723.1342    9238.8486    8702.9123    9196.8414    332.57697   -191.73748    67.195308   -3798.9266 
25544000    128.10598   -5105.0602   -4848.8324   -5105.0602            0    8518.1692    17.788473    22.776465    19.199589    7778.8771    8502.8304    9162.7621     7888.915    595.28463    1498.6037    676.27742   -3882.4721 
25545000    134.69444    -5120.394   -4850.9884    -5120.394            0    7333.8075    17.736083    22.689913    19.349464    7786.8084    9213.6838    6838.9131    5948.8256   -1191.0595    -109.7655   -1319.6814   -4018.1421 
25546000    134.20722   -5114.9424   -4846.5114   -5114.9424            0    7728.9886    17.851837    22.682639    19.256623    7797.5219    7225.1642    7846.1342    8115.6673   -292.90068   -100.77281   -1044.6384   -3967.5796 
25547000    139.84747    -5113.367   -4833.6548    -5113.367            0    6877.6727    17.890777    22.696067    19.145809    7774.1607    5929.6433    7417.0315    7286.3433    76.021592   -689.97612    485.37236   -4053.8769 
25548000    134.62236   -5112.5928   -4843.3315   -5112.5928            0    7840.6599    17.814207    22.776344    19.121559    7758.4293     6611.859    8076.6699    8833.4508    180.37735   -73.506982    840.69907   -3956.1707 
25549000    137.16453   -5097.2671   -4822.9211   -5097.2671            0    8926.8818    17.848112    22.490144    19.339641      7763.06    9866.8747    9556.4015    7357.3692    570.22738    529.60241   -107.81311   -3812.2529 
25550000    134.80784   -5118.1107   -4848.4784   -5118.1107            0    8168.4407    17.737739    22.909363    19.079421    7753.1196    8827.1862    7864.3179    7813.8179    399.12149    748.72181   -193.18887   -3924.8622 
25551000    147.52083   -5095.2349    -4800.175   -5095.2349            0    8994.3374    17.956998    22.656989    19.090725    7767.0902    8161.8648    9228.6057    9592.5418    85.914284    1341.8305    16.949721   -3781.3411 
25552000     135.9139   -5114.4371   -4842.5925   -5114.4371            0    9235.7175    17.892051    22.644297    19.113492    7743.8872    9065.7024    9554.5197    9086.9305   -45.456379   -907.92542   -329.08091   -3799.5415 
25553000     132.6328   -5119.8537   -4854.5717   -5119.8537            0    8270.0761    17.782317    22.823482    19.138424    7767.4132    8070.7914    7878.4648    8860.9722    1675.5114   -25.114164    1290.4572   -3917.7395 
25554000    144.60346    -5103.602   -4814.3772    -5103.602            0    9063.8347    17.943411    22.564683     19.16622    7760.1606    8725.0883    9531.9167    8934.4989   -141.62597    309.70264    354.99045    -3788.587 
25555000    134.54202   -5091.3452   -4822.2446   -5091.3452            0    8705.9973    17.753831    22.869291    19.088699    7750.3465    9515.4427    8311.3307    8291.2184   -427.38887    228.16126    943.17187   -3838.1983 
25556000    137.34743   -5088.1326   -4813.4208   -5088.1326            0    8908.2991    17.884622    22.644938    19.209779    7779.8865    7646.6851    9787.5213     9290.691    231.59162    283.14075    410.51121   -3802.6703 
25557000    134.07458   -5125.9466   -4857.7808   -5125.9466            0    7973.8878    17.854846    22.642059    19.234491    7775.9365    8736.2896    8007.0619    7178.3119   -123.13163   -514.34999   -1050.6137   -3953.5096 
25558000    140.41942   -5114.6538   -4833.7976   -5114.6538            0     7396.109    17.704644    23.021516    19.119371    7792.8214    8109.3688    6619.1663    7459.7917   -711.97686    120.58551   -558.04816   -3993.2276 
25559000    138.12733   -5116.3024   -4840.0307   -5116.3024            0    8318.7383    17.855094    22.555128    19.297624    7771.6148     7473.119    9664.8315    7818.2645     566.1954     582.9306   -169.48011   -3897.1763 
25560000    135.53553   -5105.6884   -4834.6006   -5105.6884            0    8773.1971    17.770081    22.780224    19.119117    7739.5413    7738.9401    9277.6002    9303.0509   -581.25628    508.79455   -153.69356   -3844.3411 
25561000    143.35931   -5107.6988   -4820.9625   -5107.6988            0    8877.5852    17.790457    22.705159     19.23611    7770.1409    9872.2776    8627.5568    8132.9212   -308.17858    269.47376   -134.25777   -3814.9587 
25562000    139.57007   -5086.3581   -4807.2007   -5086.3581            0    9475.8894    17.857759    22.493688    19.296605    7751.1927    9445.8528    10818.622     8163.193    1012.2429    862.42128    1587.8699   -3736.0159 
25563000    144.50922   -5103.2814   -4814.2451   -5103.2814            0    9124.8479    17.632714    22.896484     19.18635    7746.0504    9918.8838    9116.9482    8338.7117    965.40891    1242.2558    240.25128   -3783.4275 
25564000    135.46573   -5113.7147   -4842.7665   -5113.7147            0    7660.7133    17.852231    22.553731    19.320324    7779.0274    8745.0394    7618.1748    6618.9256    199.80677   -352.79777    241.26088   -3973.6652 
25565000    134.65236   -5115.0253   -4845.7039   -5115.0253            0    8034.7581    17.791566    22.840583    19.081475    7754.1343    8810.4742    6810.4277    8483.3726   -475.81978    -278.8329   -594.81926   -3937.0845 
25566000    140.74118   -5097.5212   -4816.0215   -5097.5212            0    7381.7848    17.866057    22.777475    19.131225    7785.3309    7270.3998    7788.2731    7086.6815   -1647.0061     258.7928   -1208.4308   -3977.8858 
25567000     135.8521    -5114.616    -4842.895    -5114.616            0    7435.9386    17.908177    22.654004    19.197438    7788.2454    8222.0158    7211.9903    6873.8097   -1004.7356   -1139.6387   -544.79875   -3998.2946 
25568000     140.2068   -5107.9047   -4827.4738   -5107.9047            0    8923.0308    17.715722    22.927271    19.024827     7727.374    8728.5698    8943.8703    9096.6523    304.88382   -797.21399    1055.5721   -3821.8855 
25569000    135.06259   -5119.5367   -4849.3948   -5119.5367            0    9075.6362    17.911551    22.586495    19.104293    7728.8171    7828.0486    9499.1815    9899.6786   -762.52403   -442.06988    -381.9598   -3826.4175 
25570000    138.36303   -5104.5639   -4827.8208   -5104.5639            0    8728.0489    17.706057    22.960861     19.07505     7754.891    9604.8168    7236.8878     9342.442    311.63031   -320.77022    38.567954   -3840.7035 
25571000    135.80648    -5104.184   -4832.5543    -5104.184            0    8999.7092     17.99431    22.377098    19.294214    7769.0164    8347.7881    10108.402    8542.9375    975.73633    880.48358     1576.653    -3812.859 
25572000    143.03799   -5093.0404   -4806.9468   -5093.0404            0    7950.4381    17.711541    22.855706    19.231752    7785.2015    10013.786    7006.1528    6831.3755     62.46191   -476.60255    748.63637   -3904.2606 
25573000    127.20357   -5115.9522   -4861.5293   -5115.9522            0    7202.3235    17.805566    22.847352    19.200639    7811.0125    7435.0229    7235.7163    6936.2314    840.99256    433.03746    866.69435   -4041.0723 
25574000    131.45434   -5121.4426   -4858.5177   -5121.4426            0    7081.4373      17.8335     22.57066      19.3602    7792.7494     7780.032    7103.4979    6360.7821    738.88703    381.12265    821.24265   -4053.7176 
25575000    132.23985   -5095.1131   -4830.6171   -5095.1131            0    10176.944     17.53937    22.874857    19.163555    7688.6207    11343.274    9547.8577    9639.6998    754.66213    64.509361   -1288.4807   -3689.4698 
25576000     136.1964   -5102.0366    -4829.627   -5102.0366            0    8059.5438    17.901751    22.560739    19.268677    7782.1701    7381.1691    9049.2395    7748.2229   -1103.4298    152.51374   -266.08033   -3914.9093 
25577000    122.56989   -5103.0769   -4857.9219   -5103.0769            0     8493.264    17.836978    22.799623    19.082627    7760.4538    8676.9246    8109.8968    8692.9706     65.89874    219.68222    122.32165   -3896.6691 
25578000    148.60999   -5107.2782   -4810.0399   -5107.2782            0    7632.9139    17.785903    22.845388    19.092188    7757.6494    8944.3279    6783.9077     7170.506   -233.55659   -322.40358    465.47055   -3946.4722 
25579000    131.89292   -5106.7438   -4842.9416   -5106.7438            0    8022.2313    18.032768    22.527925    19.163348    7784.9351    7377.3769    8619.4165    8069.9006    15.800414   -236.17879   -172.64249   -3932.1353 
25580000     143.4062   -5105.0282   -4818.1981   -5105.0282            0    8493.2271    17.786339    22.913082    19.029765    7755.3871    8574.5632    7890.9966    9014.1215    416.07351    89.140662    203.18944    -3857.577 
25581000    138.08544   -5110.8915   -4834.7035   -5110.8915            0    9774.1418     17.93354     22.50252    19.206626    7750.8312    9616.4034    10763.071     8942.951    659.93516    842.89065    -40.92235   -3729.8549 
25582000    135.61762    -5118.766    -4847.514    -5118.766            0    9279.8438    17.745144    22.920061     19.07094    7756.5286      9611.84    8434.2883    9793.4031    383.30133    1099.0355    156.99658   -3797.7687 
25583000    134.05063   -5098.1504   -4830.0326   -5098.1504            0    7809.5516    17.870029    22.661869    19.243349    7792.9457    8587.8372    7544.3543    7296.4633   -416.58188    279.13287    2001.5942   -3942.4605 
25584000    144.08391   -5104.9428   -4816.7572   -5104.9428            0    7447.6652    17.875779    22.606505    19.257972    7782.3177    6661.8637    7532.8108    8148.3212   -228.46705   -202.62375   -56.551669   -3971.4686 
25585000    137.00593   -5113.7399   -4839.7111   -5113.7399            0    9365.1733    17.685903    22.918145    19.052543    7722.5311    8288.4377    9060.0526     10747.03   -471.35608   -371.21522    1612.8052   -3784.9567 
25586000    128.87756    -5096.163    -4838.392    -5096.163            0    9256.0141    17.840827    22.574292    19.251298    7753.3456    8377.8823    10347.746    9042.4143    787.98964    312.19781    819.28388   -3791.7719 
25587000    132.40408   -5099.0214   -4834.1969   -5099.0214            0     10805.49    17.700685    22.707107    19.193081    7714.3012    11128.592    11000.515    10287.363    175.12959    716.64277    280.33927   -3618.5235 
25588000    135.58901   -5102.3873   -4831.1925   -5102.3873            0    9372.3397    17.917561    22.696375    19.034031     7740.449    8956.5702    8834.4738    10325.975   -535.26249   -254.80716   -444.23687   -3773.1818 
25589000    130.51265   -5113.9597   -4852.9183   -5113.9597            0    9516.9616    17.975722    22.484947    19.085174     7713.906     8796.804    9840.6327    9913.4481   -518.18747    -74.81435   -1404.8209   -3782.2657 
25590000     143.2679   -5124.7016   -4838.1481   -5124.7016            0    8876.2401    17.849598    22.817391    19.003465    7739.7554    8811.4698    9031.2091    8786.0415    753.35866   -100.62759     314.8567   -3836.2301 
25591000    136.73122   -5116.4781   -4842.9987   -5116.4781            0    9007.7287    17.917933    22.596796    19.146102    7752.0245    7914.6744    9937.5774    9170.9344   -446.47653    1856.0822    752.77613    -3824.627 
25592000    134.69894     -5106.05   -4836.6354     -5106.05            0    8672.1216    17.894378    22.746242    19.030499    7745.9811    8028.7239     8542.708     9444.933   -917.17658   -391.68142    12.092992   -3856.9702 
25593000    136.31475   -5093.3669   -4820.7206   -5093.3669            0    8160.5973    17.813591     22.84479    19.022365    7741.1085    8146.5806    7446.7498    8888.4615    206.16644   -763.10578   -275.15012   -3899.4207 
25594000    130.86315   -5092.0558   -4830.3133   -5092.0558            0    9300.3736    17.883045    22.580415     19.13251    7725.8335    8679.4205    9995.6436    9226.0566   -453.29751   -969.00993   -880.90684    -3782.409 
25595000    125.85749   -5109.0921   -4857.3616   -5109.0921            0    9159.5912    17.713308    22.924312    19.060323    7739.7376     9700.161     8801.181    8977.4317    457.24835   -98.636028   -189.96866   -3823.4624 
25596000    134.89639    -5094.479   -4824.6696    -5094.479            0    8794.3193    17.921924    22.547121    19.178474    7749.7873    8966.1957    9031.9671    8384.7951   -199.94482   -48.299284   -288.08697   -3830.7119 
25597000    130.80526   -5096.9309   -4835.3042   -5096.9309            0     9141.771    17.890625    22.624716     19.15325    7752.6667    8338.9796    9402.9908    9683.3425   -1090.1557    899.87506   -466.97917   -3801.6927 
25598000    136.23164   -5109.0304   -4836.5503   -5109.0304            0    7689.6629    17.881098    22.763178    19.099608    7774.1253    6822.3503    8062.6106    8184.0279   -523.57732    1046.2699   -4.1687199   -3964.7144 
25599000    131.37436   -5094.4477   -4831.6827   -5094.4477            0    10280.693    17.971072    22.346394    19.214438    7716.3006    8599.4227    11383.051    10859.606    455.83147    1066.9707   -830.29332   -3674.7518 
25600000    134.27486   -5105.1721   -4836.6058   -5105.1721            0    8410.0781    17.743612    22.962618    19.014711    7747.3496    9055.9238    7743.3277    8430.9828   -1155.9357    326.11784   -638.52861   -3886.3751 
25601000    130.68166    -5119.187   -4857.8075    -5119.187            0    8260.1627    17.944851    22.486322    19.212009    7752.3089    8538.9436    8484.2332    7757.3112   -368.95878   -281.94698   -854.56326   -3923.9179 
25602000    138.35575   -5109.1318   -4832.4032   -5109.1318            0    7101.3476    17.855977    22.793637    19.108022    7777.0158    6479.1581    7333.3294    7491.5553     -1195.96   -464.89438   -1199.0852   -4026.9698 
25603000    135.12017   -5101.7294   -4831.4724   -5101.7294            0    6337.1137    17.826217    22.838565    19.220496    7825.1488    6141.2396    6700.5675    6169.5342   -364.86034    356.19579   -1149.3391   -4108.2698 
25604000    136.40693   -5105.6201   -4832.7894   -5105.6201            0    6794.8427    17.907213    22.602471     19.32877    7823.2669    7256.4397    6999.1287    6128.9596    512.61746    411.55197   -898.32076   -4057.5365 
25605000    141.43521   -5098.8634   -4815.9755   -5098.8634            0     7375.894    17.768358    22.980739    19.056795    7781.4613    9031.5621    5992.1225    7103.9973    275.29408    317.45028     377.2541   -3978.9249 
25606000    132.80347   -5123.9624   -4858.3391   -5123.9624            0    6856.9691    18.044789    22.520355    19.197415    7801.3506    5818.2462    6787.3578    7965.3033    1195.4779   -130.84908    70.949932   -4078.1895 
25607000    138.43473   -5110.0837   -4833.1971   -5110.0837            0     8141.257    17.823186    22.691204    19.216312    7771.6441    7821.3118    8203.3581    8399.1011    173.28378    1038.3814    658.34227   -3910.4551 
25608000    136.94672   -5100.4513   -4826.5409   -5100.4513            0    8196.5872    17.734789    22.783103    19.234421    7771.7357    9652.3785    7754.7874    7182.5955   -28.806464    644.40987    1111.1341   -3897.5168 
25609000    132.81739   -5111.0001   -4845.3489   -5111.0001            0    7196.0233    17.973748    22.644779    19.175301    7804.5691    6466.6676    7510.3031    7611.0993   -919.24791   -1053.7524   -1170.1267   -4026.2857 
25610000    135.52655   -5092.9639    -4821.894   -5092.9639            0    8149.4955    17.876528    22.740515    19.109007    7768.2213    6689.8461    8810.9422    8947.6981   -421.80832   -458.80148   -576.37627   -3898.6251 
25611000    139.95083   -5092.1175   -4812.1986   -5092.1175            0    9258.3892    17.828639    22.668415    19.152802    7740.5473    8907.8833    9633.8033    9233.4811   -227.54131   -176.76268   -227.52773   -3767.0381 
25612000    138.91935   -5109.4775   -4831.6216   -5109.4775            0    8502.1807     17.78842     22.76321    19.174098    7764.0049    8501.4232    7966.8888    9038.2301    263.21678   -484.91649    1356.1249   -3868.9193 
25613000     136.6295   -5117.7517   -4844.4759   -5117.7517            0    7667.3284     17.86666    22.697182    19.182534    7778.9556    8341.6494    8182.2376    6478.0983   -456.62729    -112.5166    98.500565   -3974.6321 
25614000    134.70866   -5098.0488   -4828.6149   -5098.0488            0    8159.1443    17.900228    22.696658    19.191462    7797.0178    8872.7593    8809.9854    6794.6883    251.42779    1256.6899    1712.2398   -3900.8263 
25615000    131.90712   -5103.0126    -4839.182   -5103.0126            0    7731.9208    17.886249    22.811256    19.094504    7790.7065     7302.693     7624.496    8268.5733    804.75878    860.67384     42.58793   -3960.6854 
25616000    131.75086   -5111.2146   -4847.6966   -5111.2146            0     9331.466    17.911172    22.598752    19.132239    7744.1589    8226.1384    9613.7268    10154.533    841.16764    439.58908    715.72008   -3793.7951 
25617000    132.43137   -5119.5704   -4854.6913   -5119.5704            0    7380.2929    17.886098     22.64991    19.230542    7790.6483    7521.4769    7706.0621    6913.3398    110.37545    416.49218    1259.5845   -4016.1527 
25618000    127.55699   -5099.8159   -4844.6861   -5099.8159            0    8660.4017    17.784325    22.786374    19.139235    7755.9889    8237.7385    8269.8693    9473.5974   -82.394489    -455.6135   -720.21338   -3865.0809 
25619000    137.25934   -5121.0476    -4846.512   -5121.0476            0    7869.8092    17.749377    22.712273    19.271292    7768.8104    8742.9618    7288.6713    7577.7944    122.71161   -595.84664   -383.60374   -3954.8616 
25620000    137.60287   -5110.9309   -4835.7082   -5110.9309            0    7839.2934    17.733251    22.933955    19.081554    7760.3454    8715.2008    7149.6832    7652.9961    1034.9248   -47.600358    231.29676    -3948.483 
25621000    133.61615   -5112.6835   -4845.4347   -5112.6835            0    8858.3314    17.933122    22.538701    19.209888    7764.4304    10062.692    8170.6332    8341.6688    629.37237   -1084.6957   -780.66567   -3842.3505 
25622000    135.86502   -5089.6155   -4817.8687   -5089.6155            0    8375.9428    17.866435    22.752187    19.098876    7763.7021    7049.6679    8649.5848    9428.5758    318.24125    682.23548    776.52809   -3869.4973 
25623000    137.07301   -5113.8842   -4839.7212   -5113.8842            0    7629.0932    17.889114    22.702069     19.17271     7786.419     8030.049    7432.8843    7424.3463   -226.67072   -1025.1433   -1330.9147   -3973.3848 
25624000    136.41567   -5104.7855   -4831.9374   -5104.7855            0    8088.2259    17.879418    22.609596    19.275717    7792.1395    7493.6516     8594.992    8176.0341    606.27575    1141.2901    1368.0667   -3912.7884 
25625000    136.87134   -5096.9212   -4823.1616   -5096.9212            0    7823.1226    17.866806    22.706265    19.180938     7781.485    7239.9192    7851.7698    8377.6787    988.01272   -199.08043    1234.4655   -3935.3547 
25626000    134.81828   -5115.3935   -4845.7403   -5115.3935            0    7681.8757    17.870313     22.52985    19.349812    7790.5337    8241.3491    7483.5897    7320.6883    1716.8067     118.0086   -441.00879    -3972.949 
25627000    129.00464   -5101.3995   -4843.3742   -5101.3995            0    9167.8259    17.827169    22.724638    19.187685    7773.2374    8492.1201    9203.0183    9808.3393   -193.00221    1354.3877    1819.2312   -3804.0665 
25628000    131.50344   -5109.0192    -4845.996   -5109.0192            0    7669.4976    17.779771    22.813682     19.18392    7781.4209    8129.0955    6683.5002    8195.8969   -65.786239   -76.575627    460.60182   -3975.6305 
25629000    144.98334   -5096.3782   -4806.3936   -5096.3782            0    9094.2096    17.778251    22.528637    19.361167    7754.5298    10100.784    8933.6499    8248.1945    19.801941   -15.615671    431.89049   -3777.9125 
25630000    131.54975   -5117.6865   -4854.5708   -5117.6865            0    8105.1327    17.785313    22.734113    19.238524    7778.7762    8228.2979    8379.6682     7707.432   -346.69772     968.4236    1735.1609   -3935.0802 
25631000    131.48111   -5115.9879   -4853.0095   -5115.9879            0    8182.6083    17.846377    22.730274    19.109852    7751.9693    7312.4902    8309.0097    8926.3249   -277.72879   -1220.9388    -2052.965   -3927.9286 
25632000    141.59048   -5104.8758   -4821.6773   -5104.8758            0    9497.6004    17.793362    22.608297    19.281746    7756.6151     10713.88     8743.143    9035.7778   -118.89025   -332.07073    111.58826   -3747.2871 
25633000    137.47208   -5094.2152   -4819.2541   -5094.2152            0    9005.3762    17.733943    22.909575    19.044231     7737.235    7834.7201    9254.1647    9927.2439    538.73966    773.46063    1716.3651   -3803.0907 
25634000    132.53617   -5108.7963   -4843.7076   -5108.7963            0    8928.2958    17.818803    22.594629    19.222262    7739.0605    9300.3925    8921.0843    8563.4107     592.5221    59.969749   -1011.2751   -3836.0043 
25635000    130.28118   -5109.1198   -4848.5414   -5109.1198            0    7689.7506    17.881537    22.803897    19.120816    7796.8705    8156.7214    7035.7936    7876.7369   -1062.1673    43.954649    1249.4686   -3974.1448 
25636000    144.26791   -5111.3686    -4822.815   -5111.3686            0    8757.8046     17.76474    22.708105    19.150865    7725.5277    9188.6513    8604.2935    8480.4691    699.12988    304.63432   -837.08948   -3836.0828 
25637000    135.51374   -5112.0236   -4840.9793   -5112.0236            0    9174.0992     17.89814    22.609272    19.116744    7735.8563    8794.2292    9389.0687    9338.9997    -137.7273   -596.84553    2131.4529   -3805.9618 
25638000    132.00093   -5107.7757   -4843.7576   -5107.7757            0    7704.6936    17.815024    22.819204    19.157827    7788.1292    7062.3912    8198.1748    7853.5149    757.65337    635.20074    589.07626    -3968.644 
25639000    127.93686    -5113.384   -4857.4945    -5113.384            0     7191.691    17.814576    22.606849    19.376273    7803.4346    8690.6515     6801.023    6083.3986     197.3849   -1093.3372    -2675.185   -4039.0434 
25640000    139.52159   -5113.4383   -4834.3779   -5113.4383            0    7269.0481    17.861409    22.699253    19.240599    7800.9208    8106.0606    7036.0074    6665.0764   -2078.2522    420.61443   -472.88637   -4007.3897 
25641000    135.45486   -5113.1185   -4842.1921   -5113.1185            0     8396.126    17.791132    22.876274    19.044881    7751.1679    8315.9717    8199.8819    8672.5244   -1442.2332   -320.78482   -251.52939   -3893.0702 
25642000    137.95178   -5114.4064   -4838.4858   -5114.4064            0    7790.3467    17.956449    22.585625    19.176103    7777.0145    7699.8699    7354.0966    8317.0737   -479.77358   -211.17052   -399.03332   -3954.9064 
25643000    134.58802   -5109.4817   -4840.2891   -5109.4817            0    8930.5792    17.766163    22.803844    19.118369    7745.5551    8109.3721    8622.2049    10060.161    -723.7544    231.83516    940.37435   -3831.4821 
25644000    138.98896   -5113.0622   -4835.0671   -5113.0622            0    7474.3983     17.78188    22.752546    19.193902    7765.5272    8214.6984    7511.7218    6696.7747    540.94516   -442.04319   -156.75817   -3988.5747 
25645000    138.78188   -5117.9483   -4840.3674   -5117.9483            0    7939.5807    17.935139    22.636375    19.156811    7777.4072    8880.1112    7995.9055    6942.7256   -819.79158    507.38826   -695.87677   -3939.8165 
25646000    133.22478   -5106.1423   -4839.6763   -5106.1423            0    8914.1672    17.798777    22.747301    19.094864    7731.0167    8890.2165    8606.6782    9245.6069   -905.16536    492.14292    -218.4783   -3834.6133 
25647000    132.14686    -5119.061   -4854.7509    -5119.061            0    7263.2007    17.825919     22.77103    19.172359    7782.3389    6779.1268    7272.0105    7738.4648     181.2143   -300.14051    695.91392   -4030.3963 
25648000    132.44938   -5107.4922   -4842.5771   -5107.4922            0    8700.0846    17.825877    22.569122    19.317972    7771.8982    8915.8619    9184.8195    7999.5724   -572.84191    -291.6369   -797.25236   -3856.4646 
25649000    136.49286   -5087.3758   -4814.3732   -5087.3758            0    9512.7017    17.642438     23.07539     19.01896    7742.7351    8455.5554    10015.617    10066.933   -199.59458    922.93115   -1420.4588   -3740.2004 
25650000    130.24056   -5109.3954   -4848.8981   -5109.3954            0    7633.9931    17.888369    22.566041    19.334722    7804.8406    6887.2001    8717.5734    7297.2059    175.36468    180.29555     845.2648   -3979.9543 
25651000    139.77171   -5093.5615   -4814.0008   -5093.5615            0    9464.7326    17.824287    22.633692    19.218985    7753.5041    10043.043    9026.3545    9324.8002   -164.32362     744.0708    1680.5774   -3743.7581 
25652000    140.61642   -5108.9911   -4827.7409   -5108.9911            0    10017.779    17.687686    22.936181    19.028483    7719.6268    9519.3767    9576.6832    10957.278    972.58494   -330.33368   -16.540084   -3699.9109 
25653000    139.84359   -5114.5016   -4834.7972   -5114.5016            0    6503.8652    17.994459    22.658115    19.185037    7822.1332    6147.6178    6352.1736    7011.8043   -981.77864    -848.7232   -582.05404   -4092.8506 
25654000    133.42649    -5103.414   -4836.5445    -5103.414            0    8337.5079    17.802984    22.852765    19.056864    7753.2356    8483.1107    8613.1518    7916.2613   -549.94777     429.3625   -126.92694   -3893.7976 
25655000    132.04799   -5104.4506   -4840.3383   -5104.4506            0    9597.6585    17.854792    22.740974    19.039545    7730.7285    9381.9571    9105.6728    10305.346     399.3071   -1069.7044   -1562.6586   -3758.2527 
25656000    132.43592   -5120.2709   -4855.3827   -5120.2709            0    7555.5094    17.984655    22.616762    19.132505    7782.2358    6076.9789    8210.4743    8379.0752    1012.9394    381.81363    336.19031   -3997.8631 
25657000    137.19474   -5114.1778   -4839.7713   -5114.1778            0    8665.2929    17.717882     22.87656     19.19613    7780.6559    8685.9014    8497.1381    8812.8393    109.45285    44.367921     63.20474   -3856.4955 
25658000    134.26787   -5125.1234   -4856.5711   -5125.1234            0    7304.2245    17.777743    22.739191    19.256436    7784.4434    8208.6253    6505.1233    7198.9247    368.35529    -134.9552   -750.04064   -4027.3362 
25659000    131.91722   -5111.7913   -4847.9405   -5111.7913            0    8976.4257    17.881235    22.618208    19.140574    7741.2424    7483.5444     10043.76    9401.9729   -992.25049    1086.5408   -402.27669   -3834.5193 
25660000    140.72618   -5112.3859   -4830.9162   -5112.3859            0    8262.0821     17.84201    22.909577    18.987278    7761.1049    8514.0984    7378.6218    8893.5262   -467.41009   -35.358686   -396.50081   -3895.7496 
25661000    135.16398   -5111.8617    -4841.517   -5111.8617            0    9360.3898    17.841534     22.62127    19.166031    7735.3753    8815.5674    9535.8931    9729.7089    354.80655   -447.31269    1358.3873   -3785.5479 
25662000    138.16811    -5111.572   -4835.2187    -5111.572            0      8167.61    17.801631    22.717188    19.246824    7783.4733    8432.9399    8354.1627    7715.7275    332.47357   -260.19714    897.07427   -3908.0809 
25663000    126.31387    -5095.322   -4842.6786    -5095.322            0    7372.6999     17.90991    22.740049    19.128273    7790.4142    7309.6839    7289.7865    7518.6293   -351.01635   -832.83326    74.272311   -4005.0279 
25664000    134.74042   -5110.0062   -4840.5088   -5110.0062            0    8606.2721    17.769192    22.759061    19.179166     7756.249    9309.3179    8197.2108    8312.2877    1105.7269   -727.50855     1208.401   -3866.9936 
25665000    133.41752   -5113.3587   -4846.5072   -5113.3587            0    7366.8608    17.900069    22.529181    19.338791    7798.8294    7825.1155    7878.7449     6396.722     297.5167   -46.982445    529.34873   -4008.6157 
25666000    144.45251   -5101.5909   -4812.6681   -5101.5909            0    8205.1208    17.834994    22.933787    18.972989     7760.407    7708.0851     6500.958    10406.319    -401.4304    92.248822   -502.97779   -3884.0324 
25667000    131.08088   -5102.8884   -4840.7104   -5102.8884            0    8502.3079     17.81143    22.662911    19.213832    7755.8331    9703.1667    8246.6018    7557.1553   -596.24414   -266.26999   -896.19198    -3879.007 
25668000    138.97252   -5102.3161   -4824.3539   -5102.3161            0    8443.3809    17.792615    22.767654    19.136807    7752.2458    8003.5106     8719.297    8607.3352   -1194.0582   -172.20428   -1422.0109   -3869.7574 
25669000     140.4399   -5094.4354   -4813.5383   -5094.4354            0    7756.2608    17.909041    22.611818    19.194882     7773.082    7881.1066    8178.7298    7208.9459    162.50951   -235.31653   -802.98537   -3934.2697 
25670000    138.09617   -5111.3797   -4835.1703   -5111.3797            0    8384.6906    17.812046    22.792993    19.141871    7771.4052    9431.7752    7751.9201    7970.3764   -775.03123   -353.38578   -1661.4376   -3884.8665 
25671000    135.10214   -5101.9143   -4831.6933   -5101.9143            0    7296.0496    17.888736    22.755465    19.118974    7782.6941    6947.0717     7716.542    7224.5352    511.58335     822.0502   -136.61369   -4003.5726 
25672000    133.60297   -5110.1408   -4842.9184   -5110.1408            0    8604.8026    17.828365    22.608437    19.223408    7748.4071    8483.3405    9315.7658    8015.3015   -8.6620858   -72.720424    909.37784   -3870.5535 
25673000    131.55523   -5115.6184   -4852.4917   -5115.6184            0    7028.1003    17.833519    22.716875    19.206376    7780.9221    5259.7788    8201.2275    7623.2946    863.76455    875.58084    849.51241   -4054.9656 
25674000    133.33708   -5106.3147    -4839.624   -5106.3147            0    8649.8942    17.768803    22.791063     19.18478    7769.2585     8636.535     8426.374    8886.7735   -48.575894    591.58594    1828.1139   -3859.5334 
25675000    135.88795   -5113.6614   -4841.8687   -5113.6614            0    7754.0314    17.884557    22.712757    19.117365    7765.6189    8033.2282    7423.4829    7805.3831   -177.08646   -1144.3915   -1481.1263   -3963.6968 
25676000    134.11627   -5107.3877   -4839.1386   -5107.3877            0    8322.4974     17.82096    22.874123    19.029577    7757.1944     7898.701    8306.6028    8762.1884   -888.52826    563.43962    19.750289   -3897.6084 
25677000    141.58567   -5101.9894   -4818.8006   -5101.9894            0    9469.7492    17.903638    22.568202     19.13965    7733.4314    9569.1011    10250.052    8590.0948   -188.76231   -302.29714   -318.45175   -3750.7628 
25678000    133.69537   -5093.3879   -4825.9806   -5093.3879            0    9911.0369    17.785432    22.815297    19.064284    7735.9036    10375.525    9804.1669    9553.4186   -58.985995   -109.39824   -1358.9019   -3707.8153 
25679000      142.615   -5112.7345   -4827.4869   -5112.7345            0    8628.0406    17.820892    22.794059    19.129899    7770.7652    7969.6946    9011.2039    8903.2234    96.098857    717.44619    598.29077   -3849.6828 
25680000    134.78551   -5104.4399   -4834.8522   -5104.4399            0    7761.2774    17.902786    22.579159    19.231418    7773.9132    7660.7165    8110.7321    7512.3837    1131.3352   -920.25126    1266.4078   -3954.9208 
25681000    131.88789   -5105.3658   -4841.5737   -5105.3658            0    9182.3197    17.712404     22.91181    19.075437    7741.2558    9202.7236    8408.8001    9935.4353     551.3287   -152.95826    350.22188   -3804.9057 
25682000    141.43104   -5120.0912   -4837.2116   -5120.0912            0    6829.1867    17.872189    22.685456     19.24116    7801.1121    8619.0921    5164.3265    6704.1413    -660.5477   -297.76864     1000.526   -4060.2468 
25683000    134.46235   -5116.4898   -4847.5485   -5116.4898            0    8976.6523    17.830467    22.680667    19.168314    7751.7981    9666.8579    8729.5846    8533.5146    618.05041    583.13604   -55.683851   -3832.7198 
25684000    135.59668   -5127.8976   -4856.6875   -5127.8976            0    7499.4847    17.805547    22.734907    19.227808    7783.5598     7360.813    7740.0803    7397.5609   -1068.6949    600.37579    -477.8216   -4005.3818 
25685000    138.75009   -5100.1887   -4822.6714   -5100.1887            0    8646.1583     17.97825    22.556602    19.181995    7778.8404    8388.8351    8960.9022    8588.7377   -181.81119   -354.31133   -1739.5468   -3841.7958 
25686000     142.5415   -5110.2583   -4825.1577   -5110.2583            0    8225.6551    17.982915    22.617916    19.083086    7761.7792     7372.963     8325.755    8978.2473   -620.85522    258.10946   -653.99788   -3894.0334 
25687000    138.98348   -5122.2529   -4844.2688   -5122.2529            0    7953.5572    17.850744    22.849085    19.076646    7780.8519    6785.2972    8104.8408    8970.5336    223.61431   -47.245067   -120.57302   -3941.7329 
25688000     139.5852   -5106.0086   -4826.8209   -5106.0086            0    7639.1583    17.803951    22.731463     19.23471    7784.4769    8142.9918    7089.9461    7684.5371    111.62953   -460.98469    -302.5701   -3959.5579 
25689000    128.29852    -5110.363   -4853.7501    -5110.363            0    7235.7607    17.826493    22.788492    19.163444     7784.936    6918.8319    7979.6084    6808.8419   -220.86395    226.31526     1027.758   -4032.2358 
25690000    147.52489      -5107.2    -4812.132      -5107.2            0    9182.1839    17.808748    22.876743     19.01553    7747.0438    8591.9299    8853.7546    10100.867   -251.62476    176.86065    -111.9641   -3774.7041 
25691000    136.90834   -5106.5341   -4832.7005   -5106.5341            0     7817.085    17.971367    22.689555    19.039571    7763.6194      6539.63    8220.6449    8690.9802    1490.6048    462.36945   -28.734214   -3947.6155 
25692000     136.4114   -5105.5215   -4832.6818   -5105.5215            0     8095.696    17.947294    22.694353    19.108286    7782.8473    8661.1199    7846.6679       7779.3   -480.12196    243.89639   -469.39744   -3913.7811 
25693000    134.06385   -5114.8872   -4846.7429   -5114.8872            0     6958.931    17.856777    22.842956    19.149255    7811.0112    6099.9159    7384.9028    7391.9741    660.60113     372.8309    171.69303   -4054.0122 
25694000    133.51558   -5102.2701   -4835.2224   -5102.2701            0    7650.8981      17.9049    22.550059    19.293241    7789.7723    8002.0157    7570.4763    7380.2024    289.81829   -774.76958   -259.34794   -3966.0357 
25695000    139.90771   -5113.2452   -4833.4125   -5113.2452            0    8667.5273    17.744596    22.905911     19.08863    7758.6906     9442.007    8405.2063    8155.3686   -407.25877    559.01222    641.62438   -3852.6597 
25696000    133.62444   -5111.1958   -4843.9304   -5111.1958            0    7823.7734    17.957847    22.694961    19.089406    7779.9376    7827.9205    7643.6893    7999.7103   -1073.4646    2.9007667   -1351.5886   -3956.2262 
25697000    140.62991    -5111.462   -4830.1848    -5111.462            0    8576.8024    17.974597    22.678726    19.024725    7755.2575    8159.9784    8230.3149     9340.114     110.4499   -1297.8542   -983.83451   -3860.1272 
25698000    129.74397   -5095.9093   -4836.4053   -5095.9093            0    8400.0666     17.84486    22.940175    18.969119    7765.2789    8141.8747    8017.7475    9040.5775   -691.30203   -125.48302   -1461.1182   -3885.1093 
25699000    140.92408   -5102.1718   -4820.3062   -5102.1718            0    9122.4924    17.923351    22.523977    19.163849    7736.5445    7582.2638    10204.132    9581.0811   -302.74778    468.38983   -2236.3775   -3791.0193 
25700000    132.17387   -5105.9343   -4841.5703   -5105.9343            0    7363.5196    17.900448    22.795918    19.065074    7779.6394    7363.3578    7576.5855    7150.6154    289.37656   -690.95469    1351.1129   -4006.1196 
25701000    136.12918   -5111.1242    -4838.849   -5111.1242            0    6943.3027    17.942615    22.781845     19.09753    7806.4188     6276.479    7093.3007    7460.1283   -201.33677    196.20809    368.65156   -4048.3637 
25702000    131.11618   -5101.5784   -4839.3299   -5101.5784            0    8256.9342    17.696129    23.001224    19.123358    7783.8307    8716.0445    7640.4002    8414.3579    1472.6743    763.71684    674.69227   -3902.0094 
25703000    132.02352   -5116.7094    -4852.646   -5116.7094            0    7960.3704     17.94148    22.575211    19.196983     7775.406    7680.5483    9018.7392    7181.8236    17.278804   -417.78123     1094.898   -3949.9693 
25704000    134.41989    -5119.731   -4850.8746    -5119.731            0    9138.0024    17.870939    22.785397    18.982625    7729.6573    9538.3835     9003.433    8872.1908   -511.83677   -695.08541   -480.87548   -3820.7556 
25705000    134.17377   -5123.0896   -4854.7255   -5123.0896            0    7718.8194    17.824025    22.774746    19.164069    7779.4171    7206.5507    8156.1938    7793.7138   -62.587676   -315.43358    251.86069   -3978.9882 
25706000    132.79159   -5114.7846    -4849.185   -5114.7846            0    8109.6484    17.926687    22.657364    19.167434    7785.2648     10118.71    7518.1856    6692.0499    499.64294    184.08653    184.72072   -3928.4147 
25707000    135.64062   -5113.3011   -4842.0031   -5113.3011            0    7512.8022    17.854394     22.81445    19.170494    7808.8739     6754.231     7097.665    8686.5106   -320.40051    1103.1694    2627.5446    -3986.412 
25708000    141.07871   -5108.9636   -4826.7888   -5108.9636            0    7723.8389    17.797308     22.81486    19.154876    7777.7052    8068.9535    8358.8702    6743.6931    738.38212   -99.189121    468.81268   -3950.6749 
25709000    136.81245   -5114.1916   -4840.5498   -5114.1916            0    6958.3843     17.85958    22.631138      19.3294    7812.6073    6647.2206    7965.3331    6262.5993   -1446.3781    703.52253    915.51004   -4047.7194 
25710000    143.77267   -5110.9587   -4823.3956   -5110.9587            0    8073.0302    17.760971    22.843152    19.049238    7728.5913    7483.5368    7991.7798    8743.7742    14.452923   -688.22459    460.52802   -3913.4555 
25711000    136.42199   -5105.8224   -4832.9616   -5105.8224            0    7708.8815    17.953952     22.54021     19.20083    7770.3041    6608.4549    9470.2625    7047.9271    -956.1414    82.065002    881.16597   -3959.3764 
25712000    132.85764    -5101.058   -4835.3263    -5101.058            0    7547.2535    17.724723    22.934147    19.149756    7784.4027    10105.934    6517.2451    6018.5814    547.98808    309.03355   -932.12004   -3978.5053 
25713000    132.47937   -5097.9982   -4833.0231   -5097.9982            0    8647.1323    17.768703    22.588022    19.287649    7741.2877    9864.9399    9083.9468    6992.5103    201.45104    582.65527   -1360.8361   -3856.7728 
25714000    135.04508   -5108.6568   -4838.5499   -5108.6568            0    8668.4471    17.860272     22.73287    19.114366     7760.724    8864.8257    7888.4479    9252.0678   -653.94483   -250.34675   -274.86564    -3857.436 
25715000    127.70444   -5120.2626   -4864.8379   -5120.2626            0    7334.7623    17.814315    22.848158    19.115361    7780.4162    6685.6223    7554.1082    7764.5564   -1429.7959    283.58647   -1654.7121   -4032.5669 
25716000    133.81152   -5106.4051   -4838.7655   -5106.4051            0     8835.518    17.916084    22.680701     19.07108    7749.5209    8109.7877    8789.9267    9606.8395    -974.9325    -618.6494   -638.05942   -3840.1858 
25717000    136.50785   -5124.2324   -4851.1998   -5124.2324            0    8506.3788    17.794533    22.779444    19.110079     7746.262    8852.4203    8107.2635    8559.4527    -766.9511   -840.10644    912.93503   -3890.2233 
25718000    139.89455    -5105.555   -4825.7486    -5105.555            0     7600.464    17.766899    22.829119    19.157797    7770.4533    8958.1945    6868.4057    6974.7919    951.87857   -862.05824   -551.00563   -3964.4329 
25719000    136.72171   -5110.1908   -4836.7305   -5110.1908            0    9256.0634    17.894076    22.546283    19.196071    7744.5568     9160.768    9520.6406    9086.7817   -1482.2719    56.128416   -772.87578   -3791.2913 
25720000    125.60416     -5107.28   -4856.0561     -5107.28            0    6695.6447    17.778892    22.828073    19.185792    7786.7045    6792.0881    6697.9447    6596.9013    670.28868   -170.40334   -228.69866   -4095.6914 
25721000    132.66141   -5108.3911   -4843.0519   -5108.3911            0    8151.3259    17.745787    22.742976    19.328426    7800.7981    9511.4633    7995.3874     6947.127   -680.58053    178.02863   -1141.3438    -3915.703 
25722000    134.63279   -5131.3929   -4862.1107   -5131.3929            0    7241.4319    17.812639    22.786706     19.18739    7787.9956    6711.9099    6583.1906    8429.1951   -575.11529   -138.17776    814.85686   -4039.6293 
25723000    128.49231   -5115.6267   -4858.6262   -5115.6267            0    7612.6253    17.878006    22.665398     19.20865    7783.5779    6982.8255    8559.8283    7295.2222    326.25078   -39.169511   -358.49541   -3994.4753 
25724000    132.75915   -5104.3037    -4838.769   -5104.3037            0    6505.2713    17.820431    22.882082    19.121561    7797.1713    6261.5088    6919.5775    6334.7277   -2121.7413    37.808045   -415.63921   -4099.0302 
25725000    136.39677   -5116.3252   -4843.5148   -5116.3252            0    9040.9827    17.823733    22.510473    19.315056    7749.5999    7755.0792    10397.774    8970.0951    562.97558    1085.1802   -490.08317   -3821.7032 
25726000     138.5161    -5117.239   -4840.1897    -5117.239            0    7799.6639    17.698063    22.907396    19.162183    7768.6662    8013.8764    6899.3748    8485.7406    726.20434   -739.20187   -311.29347   -3956.5031 
25727000    142.58717   -5094.8827   -4809.6907   -5094.8827            0    7380.8541    17.866538     22.62788    19.347864    7821.9911     8171.722    7758.2123    6212.6279   -891.05434    374.63744    897.72417   -3967.7145 
25728000    139.24008   -5102.7503   -4824.2529   -5102.7503            0    8301.8904    17.930681    22.650625    19.127231    7768.3551    8091.3653    8789.2353    8025.0706    302.40717   -311.96945    612.33031   -3883.7028 
25729000    134.70611   -5100.0202   -4830.5913   -5100.0202            0    8241.8675    17.825782    22.893163    19.092464    7791.4152    8569.6851    8573.4236    7582.4937    1252.5866   -129.02189   -679.87479   -3894.0696 
25730000      136.151   -5092.6968    -4820.378   -5092.6968            0    7260.9975    17.852041    22.752527    19.240596    7815.1273    7751.1504    7982.5276    6049.3147    47.313718    31.324345    634.89606   -3992.8013 
25731000    141.10673   -5108.9301   -4826.6992   -5108.9301            0    7696.4341    17.913539     22.66712    19.194554    7793.9169    7965.1701    7716.1579    7407.9742    576.38093    46.405974    60.086841   -3951.8742 
25732000    134.46097   -5103.7596   -4834.8211   -5103.7596            0      8064.04    17.733603      22.8895    19.148989    7772.8296     7208.055    7640.7772    9343.2878    692.00384    -80.46727    387.68437   -3920.6916 
25733000     136.6503   -5116.4993   -4843.1818   -5116.4993            0    7628.9901    17.846255    22.669344    19.194312    7765.3066    7970.0062    7902.2016    7014.7626    49.308896    -481.2058    400.90144   -3979.2061 
25734000    140.02238   -5105.2215   -4825.1595   -5105.2215            0    8910.3486    17.739858    22.802811    19.159191    7750.2496     8404.229    9157.2399    9169.5768   -250.61083    533.14522   -19.473642   -3818.0278 
25735000    133.37086   -5119.1205   -4852.3623   -5119.1205            0    7266.6665    17.831599    22.771922    19.189262    7791.9875    7498.2796    7281.7893    7019.9306   -464.59273   -1058.7458   -2121.7754   -4026.5918 
25736000    137.36239   -5115.6608   -4840.9191   -5115.6608            0    8572.8486    17.809314    22.601547    19.284077    7762.1894    9000.5385    8424.0426    8293.9648   -183.83843   -1.4128355    684.86905    -3870.442 
25737000     133.1051   -5107.4092   -4841.1826   -5107.4092            0    7918.9987    17.639004    22.866665    19.246822    7763.1129    9638.9174    7995.2406    6122.8382   -119.53045   -167.90399   -945.78929    -3944.617 
25738000    134.88785   -5095.8026   -4826.0102   -5095.8026            0     8951.415    17.824552    22.605178    19.297479    7775.4786       8082.7    9260.1902    9511.3548   -126.56504      328.666   -815.98436   -3810.9432 
25739000     139.4906   -5114.1602   -4835.1618   -5114.1602            0    7208.8104    17.733169    22.845807    19.211466    7783.1135    6980.1075    7302.4627     7343.861   -530.99116   -17.391559   -25.945561   -4016.8989 
25740000    134.94595   -5097.0821   -4827.1735   -5097.0821            0    8574.3454    17.775473    22.674951    19.283486    7772.3628    8986.6794    8757.7254    7978.6313   -741.54953   -199.71153    388.06168   -3855.2549 
25741000    131.03749   -5111.9422    -4849.851   -5111.9422            0    7653.2548    17.818344    22.700549     19.24125    7782.8198    7654.9516     8037.033    7267.7797   -1100.1772    856.82585   -603.14664   -3981.1726 
25742000    136.26955   -5114.5914   -4842.0354   -5114.5914            0    8069.5042    17.812211    22.780319    19.156777    7773.2043    6984.4912    8771.5819    8452.4394    515.10897    646.16562    40.149367   -3927.2425 
25743000    138.61622      -5105.5   -4828.2505      -5105.5            0    7096.6566    17.930966    22.737242    19.202578    7828.9048    7081.8514    7260.2269    6947.8915    79.983485    1172.8981    90.340682   -4017.9787 
25744000    135.01384     -5096.28   -4826.2357     -5096.28            0    10029.586    17.855509    22.721712     19.05622    7731.2561     9196.642    9185.2443    11706.871    227.36398   -474.13316    1736.0331   -3695.3754 
25745000    144.46434   -5102.9266   -4813.9801   -5102.9266            0    8905.7998    17.914823    22.634301    19.113849    7750.4648    8869.8065    9054.2466    8793.3465    382.35912   -155.35208    216.74807   -3807.3346 
25746000    135.82676   -5112.4993    -4840.829   -5112.4993            0    7784.2218    17.872826    22.600615    19.238514    7771.1448    6870.7657    8804.2036     7677.696   -399.87989     594.2546    593.55441   -3958.6107 
25747000    131.41593   -5101.1511    -4838.303   -5101.1511            0     7668.686    17.742585    22.867892    19.171953     7778.742    7296.9432    7236.4733    8472.6414    -228.4378    479.29167    55.988681   -3968.3292 
25748000    139.74598   -5102.4895   -4822.9802   -5102.4895            0    8996.5221    17.912424     22.57624    19.197986    7763.5732    7435.4638    10131.208    9422.8945    771.01391    550.93535   -31.304661   -3804.3603 
25749000    134.10837    -5112.862   -4844.6287    -5112.862            0    7960.7389     17.87849    22.658975    19.182015    7770.7927    8513.1568    8740.9541    6628.1059   -1525.4124    348.19161    214.00972   -3942.4458 
25750000     139.9049   -5102.2172   -4822.3901   -5102.2172            0     7016.875    17.786194    22.951135    19.113615    7802.4324    8026.8263    5914.9541    7108.8446    241.76758   -155.80526   -460.88376   -4023.9366 
Loop time of 456.985 on 64 procs for 250000 steps with 1008 atoms

Performance: 94.533 ns/day, 0.254 hours/ns, 547.064 timesteps/s
381.4% CPU use with 16 MPI tasks x 4 OpenMP threads

MPI task timing breakdown:
Section |  min time  |  avg time  |  max time  |%varavg| %total
---------------------------------------------------------------
Pair    | 42.71      | 43.818     | 45.312     |  12.3 |  9.59
Bond    | 1.6351     | 1.7702     | 2.0929     |  10.9 |  0.39
Kspace  | 219.25     | 223.95     | 226.94     |  14.1 | 49.00
Neigh   | 1.521      | 1.5774     | 1.6712     |   3.7 |  0.35
Comm    | 59.467     | 63.474     | 69.458     |  30.6 | 13.89
Output  | 0.50881    | 0.50915    | 0.51071    |   0.1 |  0.11
Modify  | 101.38     | 103.46     | 105.25     |  10.3 | 22.64
Other   |            | 18.43      |            |       |  4.03

Nlocal:        63.0000 ave          68 max          60 min
Histogram: 4 1 4 1 0 2 0 1 2 1
Nghost:        3436.06 ave        3451 max        3425 min
Histogram: 2 3 1 4 0 1 1 0 3 1
Neighs:        21407.1 ave       23232 max       20210 min
Histogram: 4 0 4 1 2 1 1 0 2 1

Total # of neighbors = 342514
Ave neighs/atom = 339.79563
Ave special neighs/atom = 2.0000000
Neighbor list builds = 3627
Dangerous builds = 0

unfix		3
unfix		2
unfix		1

write_data	data.final.${pid}
write_data	data.final.1
System init for write_data ...
PPPM initialization ...
  extracting TIP4P info from pair style
  using 12-bit tables for long-range coulomb (../kspace.cpp:340)
  G vector (1/distance) = 0.38396104
  grid = 24 30 32
  stencil order = 5
  estimated absolute RMS force accuracy = 0.001906168
  estimated relative force accuracy = 5.7403682e-06
  using double precision FFTW3
  3d grid and FFT values/proc = 8400 1536
Last active /omp style is kspace_style pppm/tip4p/omp
WARNING: Not all mixed pair coeffs generated from mixing. Use write_data with 'pair ij' option to store all pair coeffs. (../write_data.cpp:312)

write_restart   restart.lmp.${pid}
write_restart   restart.lmp.1
System init for write_restart ...
PPPM initialization ...
  extracting TIP4P info from pair style
  using 12-bit tables for long-range coulomb (../kspace.cpp:340)
  G vector (1/distance) = 0.38396104
  grid = 24 30 32
  stencil order = 5
  estimated absolute RMS force accuracy = 0.001906168
  estimated relative force accuracy = 5.7403682e-06
  using double precision FFTW3
  3d grid and FFT values/proc = 8400 1536
Last active /omp style is kspace_style pppm/tip4p/omp
Total wall time: 0:07:37
