#include		in.partitions
include		in.temp
variable        temperature equal 152.60
variable	tempDamp equal 100.0
include		in.pressure
variable        pressure equal 2066.9
variable        pressureDamp equal 1000.0 # This is 1 ps
include		in.seed
variable        seed equal 745823

units		real
atom_style	full
#include		in.box
read_restart	restart.lmp.${pid}
read_restart	restart.lmp.1
Reading restart file ...
  restart file = 30 Jul 2021, LAMMPS = 30 Jul 2021
  restoring atom style full from restart
  orthogonal box = (0.14674370 0.059074828 0.18257801) to (18.060829 23.570103 22.030618)
  2 by 4 by 4 MPI processor grid
  restoring pair style lj/cut/tip4p/long/omp from restart
  restoring bond style harmonic/omp from restart
  restoring angle style harmonic/omp from restart
  864 atoms
  576 bonds
  288 angles
Finding 1-2 1-3 1-4 neighbors ...
  special bond factors lj:    0        0        0       
  special bond factors coul:  0        0        0       
     2 = max # of 1-2 neighbors
     1 = max # of 1-3 neighbors
     1 = max # of 1-4 neighbors
     2 = max # of special neighbors
  special bonds CPU = 0.002 seconds
  read_restart CPU = 0.006 seconds
include 	in.setup
variable	out_freq equal 1000
variable	out_freq2 equal 10000
variable	out_freq3 equal 1000

timestep	2.0

neigh_modify    delay 7 every 1

include		in.tip4p
# This is TIP4P/Ice

# create groups ###
group ox type 2
288 atoms in group ox
group hy type 1
576 atoms in group hy

# set charges - beside manually ###
set group ox charge -1.1794
Setting atom values ...
  288 settings made for charge
set group hy charge 0.5897
Setting atom values ...
  576 settings made for charge

# ### TIP3P Potential Parameters ###
pair_style lj/cut/tip4p/long/omp 2 1 1 1 0.1577 8.5
pair_coeff 1 1*2 0.000 0.000
pair_coeff 2 2 0.21084 3.1668
bond_style  harmonic
bond_coeff  1 450 0.9572
angle_style harmonic
angle_coeff 1 55 104.52
kspace_style pppm/tip4p/omp 1.0e-5
pair_modify tail yes

thermo          ${out_freq}
thermo          1000
thermo_style    custom step temp pe etotal epair emol press lx ly lz vol pxx pyy pzz pxy pxz pyz enthalpy

restart 	${out_freq3} restart.lmp.${pid} restart2.lmp.${pid}
restart 	1000 restart.lmp.${pid} restart2.lmp.${pid}
restart 	1000 restart.lmp.1 restart2.lmp.${pid}
restart 	1000 restart.lmp.1 restart2.lmp.1


include         in.dump
dump            myDump all atom ${out_freq2} dump.water.${pid}
dump            myDump all atom 10000 dump.water.${pid}
dump            myDump all atom 10000 dump.water.1
dump            myDump2 all dcd ${out_freq2} dump.dcd
dump            myDump2 all dcd 10000 dump.dcd
dump_modify     myDump append yes
dump_modify     myDump2 append yes


variable natoms 	equal  "count(all)"                        # NUMBER ATOMS
variable H      	equal  "enthalpy/v_natoms"                 # ENTHALPY-per-atom
variable Vol      	equal  "vol/v_natoms"                 # volume-per-atom
fix AVG all 		ave/time ${out_freq} 1 ${out_freq} v_Vol v_H file vol_enthalpy.dat
fix AVG all 		ave/time 1000 1 ${out_freq} v_Vol v_H file vol_enthalpy.dat
fix AVG all 		ave/time 1000 1 1000 v_Vol v_H file vol_enthalpy.dat


timer           timeout 23:50:00 every 1000
New timer settings: style=normal  mode=nosync  timeout=23:50:00

fix 		1 all shake 1e-6 200 0 b 1 a 1
       0 = # of size 2 clusters
       0 = # of size 3 clusters
       0 = # of size 4 clusters
     288 = # of frozen angles
  find clusters CPU = 0.000 seconds
fix             2 all nph aniso ${pressure} ${pressure} ${pressureDamp}
fix             2 all nph aniso 2066.9 ${pressure} ${pressureDamp}
fix             2 all nph aniso 2066.9 2066.9 ${pressureDamp}
fix             2 all nph aniso 2066.9 2066.9 1000
fix             3 all temp/csvr ${temperature} ${temperature} ${tempDamp} ${seed}
fix             3 all temp/csvr 152.6 ${temperature} ${tempDamp} ${seed}
fix             3 all temp/csvr 152.6 152.6 ${tempDamp} ${seed}
fix             3 all temp/csvr 152.6 152.6 100 ${seed}
fix             3 all temp/csvr 152.6 152.6 100 745823


run             250000
PPPM initialization ...
  extracting TIP4P info from pair style
  using 12-bit tables for long-range coulomb (../kspace.cpp:340)
  G vector (1/distance) = 0.371928
  grid = 24 27 25
  stencil order = 5
  estimated absolute RMS force accuracy = 0.0031328138
  estimated relative force accuracy = 9.4343759e-06
  using double precision FFTW3
  3d grid and FFT values/proc = 4410 672
Last active /omp style is kspace_style pppm/tip4p/omp
Neighbor list info ...
  update every 1 steps, delay 7 steps, check yes
  max neighbors/atom: 2000, page size: 100000
  master list distance cutoff = 10.8154
  ghost atom cutoff = 10.8154
  binsize = 5.4077, bins = 4 5 5
  1 neighbor lists, perpetual/occasional/extra = 1 0 0
  (1) pair lj/cut/tip4p/long/omp, perpetual
      attributes: half, newton on, omp
      pair build: half/bin/newton/omp
      stencil: half/bin/3d
      bin: standard
Per MPI rank memory allocation (min/avg/max) = 10.19 | 10.21 | 10.23 Mbytes
Step Temp PotEng TotEng E_pair E_mol Press Lx Ly Lz Volume Pxx Pyy Pzz Pxy Pxz Pyz Enthalpy 
17750000    154.50597   -4442.5085   -4177.6906   -4442.5085            0    2274.0942    17.914085    23.511028     21.84804    9201.9259    1563.8995    2017.3425    3241.0406   -748.02708   -362.94738   -45.906326   -3872.5056 
17751000    158.30344    -4471.036   -4199.7093    -4471.036            0    1219.4163    18.035306    23.207725    22.087141    9244.7588    1017.5807    1157.2547    1483.4135   -596.51293    362.20207    108.48856   -4035.3011 
17752000    148.84182    -4451.823   -4196.7133    -4451.823            0    2520.7306    17.814367    23.373446    22.107784    9205.3086    3129.3057    1962.5835    2470.3026   -335.62615    104.21307    183.82746   -3858.3052 
17753000    151.33743    -4462.051   -4202.6638    -4462.051            0    2502.3982    18.001015    23.338407    21.959627    9225.5685    2778.6072    3247.9415    1480.6459   -423.59352   -151.50395    470.12503   -3865.9775 
17754000    143.70485   -4467.4203   -4221.1151   -4467.4203            0    1206.0165    17.909855    23.476956    22.000928    9250.7058    1639.0624    89.456623    1889.5305    1576.7333    366.82876    239.03503    -4058.409 
17755000    162.16872   -4469.5134   -4191.5618   -4469.5134            0    1767.9723    18.072573    23.138326    22.060049    9224.8307    1570.2568    2135.8763    1597.7838   -697.09893   -24.652103   -291.11644   -3953.7082 
17756000    153.31331   -4451.2371   -4188.4634   -4451.2371            0    1599.5335    17.945579    23.458052    22.004648    9263.2595     3489.436    238.43291    1070.7316   -301.79621   -69.626527   -55.146237   -3972.3742 
17757000    154.50164   -4459.8853   -4195.0747   -4459.8853            0    1612.2448    18.020088    23.366249    21.953941    9243.9673    356.55164    1496.0893    2984.0933   -448.02002   -76.292518   -64.950497   -3977.7219 
17758000    161.03422    -4464.194   -4188.1869    -4464.194            0    2482.6332    18.037369    23.275883    21.873929    9183.4561    3845.8514    2156.9362    1445.1121    367.77677    339.15095    41.548458   -3855.6846 
17759000    153.00863   -4440.8734   -4178.6218   -4440.8734            0    1468.8178    17.931157    23.436965    22.020219    9254.0388    2037.5066    785.29737    1583.6493    473.06116    170.31261   -163.75487   -3980.3892 
17760000    149.53992   -4448.0953    -4191.789   -4448.0953            0    2630.9527    18.037575    23.155756    22.006536    9191.5511    2059.5383    3137.0526    2696.2671    -399.6787     231.9959   -133.75489   -3839.1115 
17761000    152.34614   -4456.7147   -4195.5986   -4456.7147            0    2529.9425    17.859835    23.461963    21.872866    9165.3167     2702.773    1791.4848    3095.5698   -357.27855    48.861466    738.19406   -3857.4295 
17762000    160.57312   -4448.0656   -4172.8488   -4448.0656            0    1545.5893     18.01431    23.356138    21.985322    9250.2081    879.95572    2305.9347    1450.8773    944.24233    -100.2236    306.09096   -3964.3414 
17763000    155.48568    -4445.245   -4178.7478    -4445.245            0    3015.9141     17.72039    23.452907    22.007799    9146.3241    4448.0718    2980.9686     1618.702   -444.73891    47.205683   -162.21065   -3776.4558 
17764000    143.42879   -4457.4835   -4211.6515   -4457.4835            0    3523.6523    17.955703    23.309868    21.922564     9175.581    2625.8496    3696.4413    4248.6661   -196.69269   -524.27116   -563.42429   -3740.1289 
17765000    154.76072   -4464.9638   -4199.7093   -4464.9638            0    2215.7269    18.071544    23.332369    21.895564    9232.3068    2488.6294    2581.9798    1576.5716    796.56888    58.615274    62.889761   -3901.3755 
17766000     154.4844   -4460.1444   -4195.3634   -4460.1444            0    1983.6203    17.825166    23.454794    22.052022    9219.6327    3295.1783    1619.6369    1036.0456   -514.56763   -690.41919    50.844083   -3928.6481 
17767000    150.88208   -4453.1152   -4194.5085   -4453.1152            0    2288.6333    17.913448    23.290021    22.052413    9200.3676    2434.5432    2204.8921    2226.4647   -208.87825    -76.85583   -546.99894   -3887.4244 
17768000    144.42953   -4460.8651   -4213.3178   -4460.8651            0    2698.1833    17.949343    23.307473     21.92519    9172.4871    3417.6417    1714.6571    2962.2512    104.59194    154.79776    440.88183   -3852.3782 
17769000    159.32812   -4466.7619    -4193.679   -4466.7619            0     2552.552    18.032264    23.356361    21.794851    9179.2954    3180.9941    2616.2269     1860.435    -64.50395    597.71947    587.66198   -3851.9673 
17770000    150.05824   -4467.3404   -4210.1457   -4467.3404            0    1848.4614    17.997695    23.345149    21.990747    9239.6076    2081.3867    3248.4883    215.50912    564.50776   0.52128109    -415.8904   -3961.0652 
17771000    153.10188   -4472.7661   -4210.3547   -4472.7661            0    2098.8528    17.883692    23.345799    22.074195    9216.1768    2376.6969    3189.0506    730.81073   -225.44564    115.00861    203.47137   -3928.2511 
17772000    157.24285   -4453.8735   -4184.3646   -4453.8735            0    1771.1836    18.084612    23.310123    21.890032    9227.8422    1126.4614    2522.6626    1664.4269    748.95227    377.15814    422.82026   -3946.0012 
17773000    150.29452   -4472.0361   -4214.4365   -4472.0361            0    2206.3137    18.010944    23.304867    21.939941    9209.1286    1203.3148    2978.0775    2437.5489   -147.49597    28.807599   -644.24804    -3918.116 
17774000    163.58983   -4443.9984    -4163.611   -4443.9984            0    3301.6791    17.874854    23.267528    22.059334    9174.5578    2986.7263    3636.3735    3281.9374    100.35722     405.9305    388.15123   -3721.8413 
17775000    160.34721    -4467.039   -4192.2093    -4467.039            0    2334.0165    17.869301     23.44986    22.011293    9223.4498    3064.6443    1810.5276    2126.8777    555.73395    97.066238    198.97177   -3878.2501 
17776000    158.99156   -4453.8756   -4181.3695   -4453.8756            0    1534.2362    18.157278    23.347958    21.767041    9227.8185    220.45589    1959.8955     2422.357    250.28671   -112.73865   -4.0284865   -3974.8947 
17777000    152.71898   -4443.7096   -4181.9545   -4443.7096            0    2933.6916    17.897713    23.424076      21.9009     9181.676    2999.5912    2300.6146    3500.8689    70.066074     328.3411    430.06393   -3789.1175 
17778000    149.53189   -4463.2366    -4206.944   -4463.2366            0    2117.8481    17.945157    23.185398    22.128956     9207.098    2665.3871    3002.2092    685.94786   -141.06592   -706.50871    -410.4895   -3922.5677 
17779000    136.00062   -4449.0879   -4215.9875   -4449.0879            0    2128.8564    17.941685    23.418183      21.8874    9196.2462    2048.7527    2632.0277    1705.7889    259.41719    61.821023    -134.2441   -3930.4699 
17780000    155.57089   -4450.8817   -4184.2385   -4450.8817            0    2028.2396    17.985266    23.249253    21.991068    9195.4334    2379.7126    2749.8833    955.12277    514.51323    272.33606   -95.016003   -3912.2395 
17781000    158.25441   -4451.4772   -4180.2345   -4451.4772            0    2072.5192    17.905559    23.338268    22.046922     9213.072    2903.6992    1852.5497    1461.3087   -349.00954    534.00254   -96.320064   -3901.7642 
17782000    159.86754   -4460.2271   -4186.2196   -4460.2271            0    2044.3059    17.793882    23.535655    21.981513    9205.6521    2618.2593    1651.8538    1862.8045    467.59197   -235.83846  -0.14926834   -3911.7613 
17783000    150.98743   -4452.5789   -4193.7916   -4452.5789            0    2887.2833    18.013971    23.395397    21.817745    9194.9579    2891.1787    2237.2697    3533.4016     216.1808   -160.27675    278.88789   -3806.6097 
17784000    148.46692   -4467.4982    -4213.031   -4467.4982            0    2239.2783    18.131455    23.468496     21.60975    9195.3375    649.63066    2288.3389    3779.8653   -400.35395   -378.90808    150.14029   -3912.7336 
17785000    153.73359   -4479.7383   -4216.2442   -4479.7383            0    2662.6934    17.860741    23.300576     22.00585    9158.0767    3381.6309    3042.0676    1564.3817    105.92224     275.8192    399.34209   -3860.6117 
17786000    147.16688   -4459.7188   -4207.4798   -4459.7188            0    2276.9764    17.996552    23.199538    22.031801    9198.5345    1328.0253     2819.242     2683.662   -255.98218    31.390654   -580.79744   -3902.0207 
17787000    157.63793   -4463.3977   -4193.2117   -4463.3977            0    2177.9866    17.914822    23.469104    21.954095    9230.4852    948.14769    3075.9844    2509.8277    -64.27176    202.95225   -105.83478   -3900.0173 
17788000    157.85192   -4467.8702   -4197.3174   -4467.8702            0    1250.9054    18.126329    23.401875    21.861596    9273.4724    551.46298     1684.559    1516.6943   -216.12241    37.536473    -603.4013   -4028.1398 
17789000    149.14093   -4448.7565   -4193.1341   -4448.7565            0    2379.4348    18.131111    23.293637    21.870624    9236.8289    1429.6313    2740.9465    2967.7266   -58.040717   -60.460036   -410.33959   -3872.6012 
17790000    149.47022   -4453.8562   -4197.6694   -4453.8562            0    1298.3329    17.831283    23.431524    22.137274    9249.2663    1669.2903    1028.1599    1197.5486    795.65227   -90.290241    78.512718   -4022.5359 
17791000    154.21309   -4467.6481   -4203.3321   -4467.6481            0    954.48331    18.090798    23.292929    22.055097    9293.7457   -424.43751    2007.7957    1280.0917   -791.28547   -880.08597    786.55467   -4073.9617 
17792000    153.51682   -4467.0461   -4203.9235   -4467.0461            0    2473.2302      17.9546    23.422033    21.915927    9216.3756    2739.2323    1641.2063     3039.252    305.01628    346.36573    1052.7872   -3871.4932 
17793000    155.72661    -4459.522   -4192.6119    -4459.522            0    2212.0797    18.000232    23.471476    21.870837    9240.2539    2616.2086    1808.8534     2211.177    -397.7562    853.85267    533.53089   -3894.5129 
17794000    146.42811   -4443.0895   -4192.1168   -4443.0895            0    2515.3747    17.985816    23.418754    21.884992    9218.0762     2627.941    1340.4579    3577.7251    275.66902   -276.85906    65.051111   -3853.9594 
17795000    143.07367   -4470.8201   -4225.5967   -4470.8201            0    1912.9247    17.891183    23.458418    22.030362    9246.1175    1986.4496    1994.3619    1757.9627   -614.21406    659.47914    286.30116   -3967.6481 
17796000    151.25417   -4445.3339   -4186.0895   -4445.3339            0     1357.718    18.061396    23.236875    22.080036    9266.7789    2351.7497    576.51187    1144.8926   -627.36502   -144.64268    538.56153   -4002.5987 
17797000     146.3916   -4457.8675   -4206.9573   -4457.8675            0    2288.8121    17.718877    23.569352    22.020371     9196.201    3649.4561    1765.3518    1451.6283   -138.90763   -291.79315    153.03735   -3899.9883 
17798000    155.95014   -4463.8901   -4196.5969   -4463.8901            0    1461.5787    18.130306    23.200298    22.025649    9264.6158    719.62469    2194.7709    1470.3405   -320.68066   -205.32378   -425.97493   -3999.1158 
17799000    151.70167   -4449.0064   -4188.9949   -4449.0064            0    1807.9204    17.867485    23.530458      21.9135     9213.095    1704.1127    1405.4582    2314.1902   -68.196633    9.8030237   -560.60676   -3946.0763 
17800000    155.86997   -4473.8583   -4206.7025   -4473.8583            0    1855.6031    18.033426    23.242817    22.013227    9226.7915    2151.6391    2181.2986    1233.8715   -15.316732    135.84948    211.64916   -3957.0064 
17801000    156.60086   -4453.0164   -4184.6078   -4453.0164            0    1803.3847    17.980433    23.380417    21.917319    9213.8221    2261.4645    919.86461    2228.8248   -418.78686   -83.549941    166.22803   -3942.2796 
17802000     153.7071   -4459.1924   -4195.7437   -4459.1924            0      4148.49    17.953874    23.227662    21.857758    9115.2649    4164.5943    4925.6853    3355.1905    994.92884    461.20293   -354.83938   -3644.2568 
17803000     153.1146   -4467.8654   -4205.4322   -4467.8654            0    2732.0924    17.887991    23.323197    22.040089     9195.238    3856.1256    609.88469    3730.2669    471.65397    151.22419   -434.16386   -3839.0501 
17804000     158.1259   -4458.6223   -4187.5999   -4458.6223            0    1843.8998    17.981014    23.462843    21.862045    9223.2841    915.47905    1764.2278    2851.9924    608.31352    120.83438    266.51655    -3939.573 
17805000    154.66508   -4468.4522   -4203.3615   -4468.4522            0    714.61072    18.031133     23.42405    22.025578    9302.7705    588.29434    1604.5447   -49.006887    139.46183   -516.59475   -107.41171   -4106.4093 
17806000    160.19317   -4451.3247   -4176.7591   -4451.3247            0    2427.6407    17.839041    23.503098    21.947342     9201.922    2901.2126    1288.6296    3093.0798   -1368.4965   -435.10632   -205.50947   -3850.9683 
17807000     160.5556   -4472.9419   -4197.7551   -4472.9419            0     1910.936    18.146358    23.282321    21.866976    9238.5642    1386.7647    1472.9446    2873.0987    -172.8468   -462.90789   -27.248297   -3940.2852 
17808000    153.33241   -4460.1919   -4197.3854   -4460.1919            0    2509.0749     17.85162    23.484047    21.947408    9200.9743    2485.6207    2416.1776    2625.4263    990.54842    10.914399   -19.127763   -3860.7007 
17809000     157.2123   -4466.7868   -4197.3303   -4466.7868            0    1450.7279    18.176393    23.166785    21.959332    9246.8241    490.45837    1747.4034    2114.3218   -54.052324    20.087769    558.05582   -4001.6917 
17810000    147.04064   -4468.3572   -4216.3345   -4468.3572            0    2332.3019    17.894586    23.394547    21.988489    9205.1674    2206.1254    2015.2171     2775.563   -699.01808    -308.4646   -242.36357   -3903.2279 
17811000    157.60454   -4466.4998   -4196.3711   -4466.4998            0    2526.4882    18.030012     23.16494    21.990788    9184.7641    2492.5517    3001.0897     2085.823    116.91973   -186.68348   -629.45098    -3857.947 
17812000    159.04019   -4459.8021   -4187.2126   -4459.8021            0     1795.059    17.957119    23.427424    21.945876    9232.3894    2712.2937    1853.8465    819.03691    17.289482    532.04199   -518.19745    -3945.517 
17813000    162.39754   -4450.4531   -4172.1093   -4450.4531            0    2066.2258     17.91021    23.265781    22.124273    9219.0741    2434.6967    2444.1551    1319.8258    629.12524    967.27643   -621.57248   -3894.3037 
17814000    153.77365   -4461.2074   -4197.6446   -4461.2074            0    3281.5476    17.941818    23.217928    21.970327    9152.2196    2789.3722    3950.6239    3104.6466    773.79701    579.90275    -333.0086   -3759.6377 
17815000    150.34684    -4473.533   -4215.8437    -4473.533            0    2274.4699    17.940893    23.439931      21.9163    9216.5339    2721.7764    2662.6466    1438.9867   -564.79106    470.98553    63.727135   -3910.1238 
17816000    160.87514   -4458.8648   -4183.1303   -4458.8648            0    1233.9332    18.037504     23.17467     22.13759    9253.8047    335.34596    2037.0321    1329.4217    195.80043    83.754049    1.4686467   -4016.6021 
17817000    149.60095   -4479.3972   -4222.9863   -4479.3972            0    1363.6232     17.94561    23.447365    21.983429     9250.127     1227.218     1724.464    1139.1875    -456.6428    493.19985    8.0059505   -4039.0286 
17818000    151.20886   -4463.7731   -4204.6063   -4463.7731            0    683.67588    18.102445    23.556532    21.836484      9311.75    715.58492    191.92751    1143.5152   -710.04971    132.48163    319.17647   -4111.7615 
17819000    159.18452   -4492.2217   -4219.3849   -4492.2217            0    3123.3019     17.99339    23.340117    21.806699    9158.1121    2486.9202    2645.7641    4237.2213   -351.44209   -300.17398   -102.88752   -3802.2315 
17820000     150.3774   -4452.9599   -4195.2182   -4452.9599            0    3348.1023    17.931833    23.252191     22.02491    9183.3835    2800.5201    3431.1254    3812.6613    1108.9795   -818.80318   -105.77183   -3746.8061 
17821000     152.4408   -4459.9442   -4198.6659   -4459.9442            0     2687.963    17.861936    23.122635    22.175238    9158.7066    2411.4405    3498.7492    2153.6993    248.37464    65.293334   -221.28953   -3839.6337 
17822000    167.02031   -4452.6974   -4166.4303   -4452.6974            0    1547.5417    17.983117    23.438662     21.98073    9264.8818    2025.5428    1614.5793     1002.503   -196.61944   -298.68238    33.172597   -3957.3283 
17823000    148.46157   -4472.9854   -4218.5273   -4472.9854            0    2115.1593    18.062606    23.529648     21.72365    9232.6979    1819.2465    808.59118    3717.6403    47.122795     305.5477    352.54923   -3933.7223 
17824000    155.02871   -4470.5902   -4204.8763   -4470.5902            0    2711.6308    17.994839    23.277362    21.990318    9211.1366    2908.0382    3778.9064    1447.9477   -549.56899    572.81261   -808.73301   -3840.6094 
17825000     153.1446   -4465.2359   -4202.7512   -4465.2359            0    2216.4028    17.778438    23.513827    22.034342    9211.2169    2892.1008    943.84221    2813.2654    141.03128   -183.53886   -557.98997   -3905.0082 
17826000    150.32613    -4459.615   -4201.9612    -4459.615            0    2564.4094    18.051059    23.233624    21.893041     9181.756    1592.3862    3046.0548    3054.7873   -46.031991    289.73361    140.70302   -3858.5701 
17827000     151.5034   -4467.3535   -4207.6819   -4467.3535            0    1937.5101    17.922063    23.374498    22.061202    9241.8615    2215.2509    2340.6382    1256.6412   -51.308854   -490.07937    125.89927   -3946.5383 
17828000    155.96049   -4441.2818   -4173.9709   -4441.2818            0    2653.1032    17.842757    23.274342    22.171223    9207.2307    3372.4886    3738.4736    848.34741   -458.33688    122.52823   -345.82297   -3817.7175 
17829000    143.03603   -4453.0858   -4207.9269   -4453.0858            0    1796.4798     17.93157    23.482726    21.917704     9229.154    3739.6061   -520.95588    2170.7891     158.7428   -143.64405   -471.08742   -3966.1248 
17830000    164.04734   -4456.1505    -4174.979   -4456.1505            0     2332.013    17.990506    23.284191    21.929238    9186.0343    1916.7567    2646.0167    2433.2656    196.31118   -487.40498   -699.13018   -3862.5618 
17831000    156.26853   -4468.9098   -4201.0709   -4468.9098            0    2420.8813    17.950282    23.397985    21.929966    9210.5951    2321.4148    3250.4302    1690.7989    143.86793   -158.86401   -112.38199   -3875.8809 
17832000    151.94851   -4469.2305    -4208.796   -4469.2305            0    3496.7686    17.920515    23.328141     21.89597    9153.6602    3794.4186    2483.0084     4212.879   -253.34889   -320.41636    199.78956   -3741.9887 
17833000     146.8028   -4467.5662   -4215.9513   -4467.5662            0     1404.994    17.975374    23.357616    22.098817    9278.4512    997.61671    1457.4706    1759.8946   -189.46348   -67.760603    486.41722   -4025.8321 
17834000    163.29796   -4453.8141    -4173.927   -4453.8141            0    1179.2463    17.859978    23.515578    22.074717    9271.1097    1170.5244    2169.1794    198.03521   -41.256898   -27.901255     379.4928   -4014.4815 
17835000    147.11009   -4453.9327   -4201.7911   -4453.9327            0    1471.7982    18.082681     23.32609    21.982953    9272.3711    2522.6045    1024.8368    867.95339   -128.90597    -117.3282   -123.75168   -4002.7627 
17836000    154.10099   -4462.6725   -4198.5487   -4462.6725            0    1679.5492    17.847736    23.683784    21.844228    9233.5969    2530.5651     1288.803    1219.2795    495.11301   -110.35997    401.09513   -3972.3763 
17837000    152.61999   -4472.5808   -4210.9953   -4472.5808            0    2791.0701    18.103202    23.151923    21.940822    9195.9241    1988.7676    3519.5268    2864.9159    127.29322    551.66456    278.92718   -3836.6762 
17838000     158.7947   -4451.9566   -4179.7879   -4451.9566            0    2985.5671    17.777161    23.532058    21.966948    9189.5031     3690.539    2883.5415    2382.6207   -37.487748    217.35475   -332.83522   -3779.6638 
17839000    145.69944   -4467.0353   -4217.3115   -4467.0353            0    2397.7101    18.011912    23.273595    21.993762    9219.8276    3227.7039     2198.309    1767.1175    186.33134    255.59142    235.44863   -3894.9112 
17840000    150.41799   -4455.2708   -4197.4595   -4455.2708            0    1716.3939    17.933579    23.476488    21.975772    9252.1833    1751.4466    1632.0108    1765.7244    70.880861   -205.73447   -403.81957   -3965.8603 
17841000    144.17274   -4463.6896   -4216.5825   -4463.6896            0    1721.9537    18.075251    23.321303    21.907533    9234.8668    1483.9267    1951.1087    1730.8259   -79.650221   -15.773448   -11.395524   -3984.6679 
17842000    155.97518   -4455.5788   -4188.2427   -4455.5788            0    2601.3901    18.064194    23.323692    21.916522    9233.9502    1362.4418    3466.9633    2974.7652   -92.499645     -271.556    -527.9681   -3837.9195 
17843000    149.85878   -4468.3868    -4211.534   -4468.3868            0    3617.5062    17.842907     23.55453    21.777826    9152.8125    4405.6778    2611.5901    3835.2507    -542.1563    334.15273   -57.402786   -3728.6534 
17844000    153.77921   -4469.9927   -4206.4204   -4469.9927            0    1538.8689    17.952506     23.28295    22.163005    9263.8546    1925.8496    1810.5058    880.25129     -1111.62    809.97061     -424.007   -3998.5133 
17845000    155.19814   -4478.3252   -4212.3209   -4478.3252            0    2352.7457    17.942038    23.388954    21.961888    9216.2077    2893.4501    1918.5337    2246.2534   -336.89594   -214.30589     516.5179   -3896.0908 
17846000    158.65455    -4463.163   -4191.2345    -4463.163            0    1244.3932    18.168666     23.40719    21.764462    9255.9342    604.88103    1648.7692    1479.5293    342.35754   -26.932117    510.91914    -4023.256 
17847000    157.41178   -4469.0308   -4199.2324   -4469.0308            0    1614.1688    18.015397    23.339131    21.943342    9226.3789    1150.7938    1931.6089    1760.1038    -267.5707    205.86867    441.08625   -3982.0342 
17848000    147.42428   -4471.5868   -4218.9067   -4471.5868            0    1828.5729    17.838388    23.380179    22.113487    9222.7553     2321.269    3020.1914    144.25841    725.08884   -729.81512   -403.73681   -3972.9555 
17849000    152.52454   -4455.0125   -4193.5907   -4455.0125            0    2055.4675    18.057516    23.261976    21.956877    9223.0627     1911.901    2394.3317    1860.1699     -793.295   -374.11489    153.77508    -3917.112 
17850000    146.22333   -4463.4324   -4212.8106   -4463.4324            0    2668.8521    17.804756    23.618676    21.840419    9184.4371    3741.2145    1656.0164    2609.3256   -290.92131    204.03119   -23.806234   -3855.3296 
17851000    149.07134   -4475.7312    -4220.228   -4475.7312            0    2448.5581    18.031159    23.132203    22.008648    9179.8166    2017.1919    3867.7154    1460.7669    123.36217   -1165.5621   -405.36867   -3892.4195 
17852000    160.84693   -4468.3395   -4192.6533   -4468.3395            0    1930.6773     17.87503    23.577413    21.918914    9237.6596    2441.6636    610.12328    2740.2449   -434.29698     436.0676   -293.43568    -3932.549 
17853000    150.55037   -4449.4195   -4191.3813   -4449.4195            0    2318.3464    18.086082    23.234458    21.879343    9194.1444    2501.2968    3159.2715     1294.471    903.92726    189.01805    198.20089   -3880.5208 
17854000    150.03681    -4451.689   -4194.5311    -4451.689            0    2744.7823    17.926641     23.39049    21.857902    9165.3004    4294.6736    1065.2899    2874.3832    446.49728     240.0434    1400.1344   -3827.6456 
17855000    163.38574   -4467.7783   -4187.7407   -4467.7783            0    3359.3243    17.918891    23.213733     21.94395     9127.901    2693.3666    3959.5817    3425.0246    886.28086   -23.178424     530.6697   -3740.5439 
17856000    149.28819   -4472.1001   -4216.2253   -4472.1001            0    3178.7975    17.956928    23.345027    21.863491    9165.2844    3006.2004      3647.31    2882.8821   -72.472813   -130.49227    273.16517   -3791.3273 
17857000    150.72467   -4471.3738   -4213.0368   -4471.3738            0    2735.6756    17.945526    23.286229    21.963428    9178.1569    3819.5614    3611.2469    776.21868     718.0255   -38.131449    42.358756   -3846.8557 
17858000    153.50252   -4468.4025   -4205.3044   -4468.4025            0    1095.8658    17.939778    23.462474    22.055193    9283.2864    1316.9643    975.12065    995.51255   -141.24096   -226.23416    158.47385   -4056.9382 
17859000    147.88495   -4457.3979   -4203.9281   -4457.3979            0    1729.5638     18.06153    23.370354    21.863946    9228.8672    1111.5402    1888.4706    2188.6805    114.94224   -216.61279    216.60914     -3971.14 
17860000      149.764   -4464.8186   -4208.1283   -4464.8186            0    1501.5443    18.078234    23.439881     21.82363    9247.7996    1019.6524    1122.0995     2362.881    396.44408   -135.16548    290.89905   -4005.6155 
17861000    158.70254   -4465.5155   -4193.5048   -4465.5155            0    2001.5996     17.82083    23.464514    22.005827    9201.8928    3395.3067    2075.5848    533.90731    121.30716   -663.49274   -53.143084   -3924.8898 
17862000    157.25402   -4466.2973   -4196.7693   -4466.2973            0    2753.6365    17.961025    23.002247    22.202322    9172.7548    3008.5552    4114.5331    1137.8212   -248.92897   -246.84918   -65.449344    -3828.401 
17863000    152.70508   -4467.0787   -4205.3474   -4467.0787            0    813.40839    18.022347    23.324082    22.017499    9255.1595   -764.38793    1836.3022    1368.3109   -692.73035    85.114051    610.47573    -4095.556 
17864000    159.47319    -4450.826   -4177.4944    -4450.826            0    3406.3588    18.003966    23.318293     21.78146    9144.3309    4545.4542    2207.0918    3466.5305   -419.28137   -611.68292   -348.03227   -3723.2201 
17865000    160.56386   -4458.9606   -4183.7596   -4458.9606            0    2429.8172    17.995072    23.377852    21.783119    9163.8564    2022.8838    2370.6141    2895.9537     1647.997   -373.15024    563.84983   -3859.0256 
17866000    151.31775   -4467.5089   -4208.1554   -4467.5089            0    3006.2644    17.955526    23.199187    22.051946    9185.8177    3594.6609    2337.6257    3086.5067    1359.0634   -472.37047    735.05442    -3805.419 
17867000    144.62369    -4470.036    -4222.156    -4470.036            0    1946.9299    17.953425    23.473049    21.835829    9202.0902    3261.8636    987.20758    1591.7186    673.16638   -806.89476   -157.73868   -3960.8721 
17868000    155.42958   -4479.8139   -4213.4129   -4479.8139            0    2312.1548    17.982555    23.139402    22.150232    9216.8349    2453.5172     3091.106    1391.8411   -453.11623    413.20104    340.65276   -3902.6175 
17869000    159.70106    -4464.881   -4191.1588    -4464.881            0     2526.415    17.830204    23.466283    22.049897    9225.8668    3377.1538    2891.5969    1310.4942    153.09934    99.468794    115.94859   -3851.2302 
17870000    151.36866   -4470.6012   -4211.1605   -4470.6012            0    2191.1176    18.103504    23.230579    21.930229    9222.8651    1585.5771    2255.6819    2732.0937   -193.22053   -495.03459   -72.931612    -3916.442 
17871000    148.99048   -4461.0534   -4205.6888   -4461.0534            0    2262.4731    17.759153    23.543022    22.019924    9206.6209    2197.5459    2495.4439    2094.4293    366.80499    632.57505   -389.82215   -3901.9085 
17872000    154.45264   -4452.7355    -4188.009   -4452.7355            0    1457.5218    18.024596    23.287922    22.002189    9235.5373    2285.6841    675.77914    1411.1021    489.91482   -653.23993    340.27497   -3991.6941 
17873000    149.67218    -4471.545    -4215.012    -4471.545            0     2746.425    17.811141    23.539648    21.899962    9181.9533     3613.288    1369.3555    3256.6315    76.165172   -28.572727   -61.269804     -3847.24 
17874000    161.74722    -4463.943   -4186.7138    -4463.943            0    2355.3817    17.989769    23.251467    21.992557    9199.2341    3239.8054    2502.7895    1323.5502   -1171.4141   -174.33072    892.19552   -3870.7125 
17875000    152.19902    -4434.218   -4173.3541    -4434.218            0    1634.1389    17.974072    23.351769    21.960977    9217.6018    2200.9352    1827.4009    874.08058     258.0881   -420.04315    108.63079    -3953.678 
17876000    150.05314   -4454.2234   -4197.0375   -4454.2234            0    3227.2493    17.900777    23.384784    21.927493    9178.9757    3414.8128    2803.1641    3463.7711   -200.86021   -21.353461    443.68748   -3765.0187 
17877000    162.24988   -4472.0434   -4193.9527   -4472.0434            0    2970.9427    17.960098    23.340454    21.942155    9198.0825    3266.9152    3505.9514    2139.9614   -963.91811    -259.0688   -386.67463   -3795.4168 
17878000    155.41907   -4462.5376   -4196.1546   -4462.5376            0    1792.1621     18.05315    23.432576    21.826271    9233.2071    219.38462    2639.1257    2517.9761    466.52514    367.91555   -197.99519   -3954.8277 
17879000    156.24837   -4452.8875   -4185.0832   -4452.8875            0    3076.8188     17.97226    23.255666    21.967749    9181.5722    3545.1019    3325.8958    2359.4586    335.14556    636.23173    473.07852   -3773.0854 
17880000    146.39163   -4464.3234   -4213.4131   -4464.3234            0    1745.4671    17.852146    23.341236    22.144996     9227.624    1996.6876    1818.0497    1421.6638   -128.85104    596.77727    434.51192   -3978.5161 
17881000    150.08042   -4473.2518   -4216.0191   -4473.2518            0    2620.2707    18.005413    23.140844    21.959651    9149.7181    2980.6477    2559.7559    2320.4086    40.172364    408.85194   -410.20114   -3866.3721 
17882000    148.54735   -4438.5827   -4183.9777   -4438.5827            0    1187.8399    17.836592    23.591997    22.027512    9269.1949    2092.3283    628.39859    842.79287   -341.24496    168.70034   -322.90201   -4023.4034 
17883000    150.99833   -4470.9714   -4212.1654   -4470.9714            0    1237.5584    18.031486    23.359254    22.004632    9268.3964    480.00785    1741.2388    1491.4284   -165.14943   -328.69678    -416.8192   -4044.8846 
17884000    146.62616   -4462.8415   -4211.5293   -4462.8415            0    2723.6036    18.010713     23.45172    21.662893    9150.0205    1544.8936    2251.0146    4374.9026     137.4454   -259.36391   -498.11873   -3848.0816 
17885000     147.5363   -4472.6767   -4219.8046   -4472.6767            0    1369.9425     17.95668    23.379276    21.952549    9215.9913    1077.1657    1345.3326    1687.3291   -126.78592    115.56915   -393.50083   -4035.6764 
17886000      152.545   -4461.7804   -4200.3235   -4461.7804            0    1629.8875    18.111835     23.32785    21.852581    9232.9377    677.52672    1187.5313    3024.6045   -742.77243    159.01258    199.55459   -3980.8544 
17887000    149.22988   -4467.7167   -4211.9418   -4467.7167            0    2154.8381    17.881867    23.431382    21.908544    9179.6107    2220.2929    2087.9717    2156.2497   -217.04974    281.60412   -73.130499   -3923.4624 
17888000     148.8895   -4453.9903   -4198.7988   -4453.9903            0    1334.1804    18.162575     23.01958    22.059977    9223.1629   -77.875966     3134.004    946.41313   -273.46829    63.311235    745.42096   -4019.3377 
17889000    147.05832   -4486.4975   -4234.4445   -4486.4975            0    1608.0018     17.79779     23.68936    21.920978    9242.2846    1641.4584    -184.5919     3367.139    -541.5449    433.79107    281.72028   -4017.7032 
17890000    154.98398    -4468.926   -4203.2888    -4468.926            0    1632.4471    18.117709    23.357022    21.836128    9240.5193    1591.2803    1367.9787    1938.0823   -70.606821    -384.6858   -289.04374   -3983.2945 
17891000     146.1847   -4467.4872   -4216.9316   -4467.4872            0    886.52721    17.873992    23.713602    21.859043    9265.1024    1514.3781    285.07757    860.12599   -481.34031   -426.83132   -351.83211   -4097.1423 
17892000    151.94683   -4472.0131   -4211.5814   -4472.0131            0    2439.9793    18.044623    23.186327     22.04315    9222.6011    1851.4747    3323.9655    2144.4977    669.72043    107.09941   -312.76197   -3883.3989 
17893000    146.75738   -4459.8608   -4208.3237   -4459.8608            0     1951.896    17.789145    23.466872    22.047698    9203.9347    1983.5844    2081.7028    1790.4007   -98.495825   -515.22499   -250.79008   -3946.3208 
17894000    144.76505   -4451.1423   -4203.0199   -4451.1423            0    1376.6456    18.033061    23.217264    22.102993     9254.044    1986.8277    1109.3394    1033.7697    1090.8912   -210.94081    430.43649   -4017.2268 
17895000    159.22081   -4457.2672   -4184.3682   -4457.2672            0    2766.0777    17.977351    23.310482    21.948551    9197.7754    2924.8362    2632.3106    2741.0863    59.881875   -100.92039    355.89482   -3813.3262 
17896000     148.0183   -4465.4778   -4211.7795   -4465.4778            0    2192.3798    18.043076    23.365956    21.888704    9228.1401    2914.8404    2057.6022    1604.6969   -1408.5294    30.781984   -240.51087   -3916.7225 
17897000    144.84389   -4464.9662   -4216.7088   -4464.9662            0    3472.9443    18.064549    23.231004    21.822701    9158.0627    2132.9908    3583.8674    4701.9749    97.142229     341.3295    -631.9349    -3752.859 
17898000    148.24604   -4478.6182   -4224.5296   -4478.6182            0    869.38973    17.861955    23.428931    22.169538    9277.6527    2093.9818    281.98613    232.20127    127.06115    66.069091    10.874538   -4106.8967 
17899000    156.24309   -4446.3622   -4178.5669   -4446.3622            0    2349.8195    17.899122    23.290785    22.114537      9219.21    1636.1924    3355.5556    2057.7105    204.95174    390.95121    273.60608   -3862.6272 
17900000    148.40573   -4461.5065   -4207.1441   -4461.5065            0    2417.0646    18.036103    23.307401    21.868036    9192.7691    2844.4723    1834.3008    2572.4207    263.63085    -402.1171    129.26391   -3883.0953 
17901000    154.08841    -4452.909   -4188.8067    -4452.909            0    1543.3742    17.897288    23.556849    21.926187    9244.1617    1739.4868     1639.182    1251.4538   -733.92403    288.72303   -449.36395   -3980.7342 
17902000    147.78854   -4472.8093   -4219.5048   -4472.8093            0    2477.0094    17.955953    23.218738    22.070506    9201.5156    2845.4212    1964.6312    2620.9758   -870.35131   -1086.3403    86.483747   -3887.1033 
17903000    151.69224   -4456.6973    -4196.702   -4456.6973            0     2641.691      17.8672    23.448148    21.943699    9193.3727    2178.8154    3025.1722    2721.0853   -535.72291    624.38212   -210.89638   -3842.5149 
17904000    152.97933     -4474.02   -4211.8187     -4474.02            0    1642.0959    18.144622    23.294571    21.837442    9230.0577    750.37842    1625.5981    2550.3112   -528.03431   -469.35809   -387.44176   -3990.7746 
17905000    155.33879   -4466.6706   -4200.4253   -4466.6706            0    2585.5773    17.788438    23.553631    21.857603    9157.9489    2173.8428    2183.1925    3399.6966   -775.81316     479.7994    424.37196   -3855.0974 
17906000    141.28681   -4474.5771   -4232.4164   -4474.5771            0    1361.5331    18.102545    23.340956    21.903999    9255.1121    1594.5016    1439.5135    1050.5842   -524.18224   -247.00296     -253.697   -4048.6417 
17907000    149.86699     -4465.22   -4208.3531     -4465.22            0    3144.8344    17.868958     23.48816    21.814992    9155.9474    1780.8378    2518.4411    5135.2243   -394.27336   -319.32402    551.66654   -3788.4231 
17908000     151.1866   -4467.7691   -4208.6404   -4467.7691            0    2321.2594    17.932382    23.276452    21.973413    9171.7516    2553.0656     2675.846    1734.8666    91.828917    37.312089   -266.44794   -3898.1474 
17909000    148.56208   -4458.6263    -4203.996   -4458.6263            0    2670.9497    17.943587    23.088885    22.141549    9173.1862    1696.5787    4026.4223    2289.8483    137.59151   -346.66898   -102.11734   -3846.6723 
17910000    158.79857   -4456.5179   -4184.3426   -4456.5179            0    2059.8526    17.898223    23.395969    21.980867    9204.4061    2819.0243    494.77653     2865.757    370.38038    301.87543   -269.94639   -3907.8345 
17911000    144.68102   -4469.0715   -4221.0932   -4469.0715            0    1418.7548    18.051225    23.128312    22.059813    9209.8472    2079.8214    3130.4049   -953.96175     308.4799   -204.88726   -153.00112   -4030.5315 
17912000    153.69508   -4473.3732   -4209.9451   -4473.3732            0    2321.3766    17.772787    23.670461    21.836702    9186.4834    2472.7676    1369.7466    3121.6155    513.89089     323.5809   -529.39638   -3898.9377 
17913000    152.26095   -4460.0089   -4199.0389   -4460.0089            0    1394.7582    18.098253    23.263726     21.93013    9233.3043    1819.5504     1665.312    699.41201   -772.67754    -412.6428    425.05326   -4011.2231 
17914000     150.3598   -4459.7419   -4202.0303   -4459.7419            0    3440.8488     17.74156    23.438396    21.932563    9120.2993    4022.1512    4141.6582    2158.7371   -371.85908   -304.37602    709.45715   -3744.3623 
17915000    150.91762   -4466.0605   -4207.3928   -4466.0605            0    1728.5606    18.056004     23.37634    21.917443    9250.9865    2115.6271    1400.5383    1669.5164    69.043965   -440.12993    386.41366   -3974.1821 
17916000    153.08899   -4456.8436   -4194.4543   -4456.8436            0    2633.8849     18.03396    23.321339    21.851935    9190.4015    2155.7375    2200.5825    3545.3347   -360.17752   -561.25661   -667.16981    -3841.428 
17917000    147.37015    -4473.872   -4221.2846    -4473.872            0    2576.4629    17.801187    23.487633    22.011334    9203.1093    2958.6163     2220.486    2550.2863    658.38567   -235.82636    529.16864   -3875.4772 
17918000    159.03719   -4450.8018   -4178.2175   -4450.8018            0    1158.4877    18.089564    23.227859    22.045209    9262.9966    1627.0045   -60.785008    1909.2437     881.3675    918.03474    145.16953   -4021.7159 
17919000    162.50906   -4459.3882   -4180.8532   -4459.3882            0      2057.85    17.898705    23.405685    21.989932    9212.2742    2477.2001    1936.2353    1760.1145    203.20346     214.5581    208.65936   -3904.3779 
17920000    153.88111   -4466.3629    -4202.616   -4466.3629            0    2120.4113    18.011424    23.214212     22.05335    9220.9691    1835.5123    1995.7087     2530.013    25.595446    -78.85019   -234.09276   -3917.4665 
17921000    154.32672   -4468.5561   -4204.0454   -4468.5561            0    2153.2104    17.957985    23.415587    21.893723    9206.2395     1457.536    3145.7778    1856.3173   -257.61055   -100.77089    332.41674   -3914.9477 
17922000    153.02622   -4466.4525   -4204.1708   -4466.4525            0    2402.7939    17.961286    23.367749    21.938901    9208.0815    3338.3541    2230.9629    1639.0648   -235.52791   -446.45443   -409.89285   -3881.4986 
17923000    147.43669   -4459.4742   -4206.7727   -4459.4742            0    1623.9494    18.054198    23.258717     22.03552       9253.1    1522.4258     2453.426    895.99642   -573.43578   -895.57255   -833.54038   -3987.6257 
17924000    151.72391   -4473.8585   -4213.8089   -4473.8585            0    2193.6993    17.772936    23.474113    22.128122    9231.9387    2524.5481     2081.635    1974.9146    775.79413    91.240161    303.03934   -3918.4529 
17925000    152.64886   -4454.6509   -4193.0159   -4454.6509            0    1366.6612    18.018498    23.304005     22.06873    9266.7297    907.00942    2093.1979    1099.7763   -26.176725    405.93784   -412.51201   -4008.3175 
17926000    150.13299   -4465.7634   -4208.4406   -4465.7634            0     286.8607    17.987795    23.502473    22.049407    9321.5557   -320.32586    1420.1249   -239.21694    318.23297    661.42826     520.0207   -4169.4433 
17927000    154.10332   -4450.9583   -4186.8305   -4450.9583            0    1598.5601     17.98538    23.350931    21.973837    9228.4705    2175.1578    842.02921    1778.4932   -133.63855   -255.03342    380.16638   -3971.6839 
17928000    151.41125   -4443.4131   -4183.8994   -4443.4131            0    2194.0288    17.971909     23.21384    22.024986    9188.7583    1674.8787    2277.8628    2629.3449   -996.80577   -822.44422   -95.061387   -3889.8807 
17929000    146.70095   -4455.7826   -4204.3422   -4455.7826            0    827.50738    17.968202      23.5591     21.88134    9262.6922   -703.31607   -462.19236    3648.0306    250.09081   -567.34271     515.0823   -4092.5568 
17930000    157.24301   -4478.1102   -4208.6011   -4478.1102            0    2058.0649    18.104049    23.282619    21.834993    9203.6608    2824.2636       1866.6    1483.3312     1135.552   -53.610504   -163.69635   -3932.3553 
17931000    149.83807   -4453.4573     -4196.64   -4453.4573            0    1519.3574      17.8854     23.52175    22.003429    9256.7525    1782.4182    2808.6156   -32.961455     568.4722    189.36849    241.05473   -3991.5264 
17932000    158.68954   -4454.6792   -4182.6908   -4454.6792            0    1321.2856      18.0933    23.233934    21.990238    9244.2238     1423.605    1884.9423    655.30941    -347.8263   -147.02954     18.03495   -4004.5583 
17933000    148.31947   -4468.3887   -4214.1742   -4468.3887            0    1884.9903     17.99786    23.449196    21.851984    9222.3096    1545.6397    1865.7267    2243.6044   -723.39746    631.29147     442.8266   -3960.6469 
17934000    153.25954   -4474.9787   -4212.2971   -4474.9787            0    1736.2125    17.992128    23.219351    22.030855     9203.732    2033.4782    1801.5818    1373.5773   -211.57045     41.63769    172.96713   -3979.2505 
17935000    149.54698   -4442.6915   -4186.3731   -4442.6915            0    1944.6289    18.041428    23.333249    21.852468    9199.1267    861.18931    1884.8338    3087.8635    630.05782   -438.51516   -643.57147   -3925.4821 
17936000     153.4435   -4454.8874   -4191.8905   -4454.8874            0    1596.0138    18.089289    23.427996    21.858968     9263.739    1238.1591    2310.0631    1239.8192   -259.02383   -690.35551    873.65029   -3976.2657 
17937000    144.67862   -4455.6096   -4207.6354   -4455.6096            0     1557.771    18.156788    23.224142     21.97429    9266.0269     762.6517    2194.3035    1716.3578    97.447205   -733.49226    327.51925   -3997.1252 
17938000    159.56092   -4452.8583   -4179.3763   -4452.8583            0    1830.3426    17.884023     23.36779    22.129052    9247.9544     2307.139    2314.3567    869.53214    614.78379   -362.73824   -251.08188   -3932.5145 
17939000    149.93085   -4475.3424    -4218.366   -4475.3424            0    2692.3473    17.897456    23.254039    22.040325    9172.9222    3109.0551    1885.5591    3082.4277   -239.65654   -140.55101   -122.28261   -3858.1901 
17940000    151.45526   -4433.6903   -4174.1011   -4433.6903            0    1666.7996    18.020555    23.580849    21.797489    9262.6247    1499.8397    394.10482    3106.4544    766.13791   -123.18821    118.90636   -3948.9401 
17941000    145.85983    -4445.105   -4195.1063    -4445.105            0    1672.8179    17.974529    23.417182    21.967674    9246.4753    1718.4746    1360.2361    1939.7429   -15.041913      334.727   -325.77476   -3969.5262 
17942000    158.16649   -4467.1722   -4196.0802   -4467.1722            0     1090.248     17.94132    23.181551      22.2742    9264.0099    1270.6809    601.61888    1398.4442   -641.25386    358.13806   -20.051365   -4048.7811 
17943000    151.59199   -4458.8529   -4199.0294   -4458.8529            0    1353.6517    18.018357    23.405176    21.902611    9236.8305    1387.7571    3038.8471   -365.64921    152.46165   -108.29931   -251.69466   -4016.6794 
17944000    166.27925   -4468.9268   -4183.9298   -4468.9268            0    1540.1832    18.073515    23.428185    21.863336    9257.5848    2117.4635    904.07477    1599.0113   -602.72892    119.04175   -153.15247    -3975.986 
17945000    147.78846    -4457.117   -4203.8127    -4457.117            0    1377.9328     17.93108    23.460957    21.995387    9253.0259    1455.2589    1303.2308    1375.3086      346.573   -679.63244    521.58831   -4017.8663 
17946000    154.76126   -4464.0083   -4198.7528   -4464.0083            0    1289.6851    17.974911    23.178217     22.18334    9242.1652    1263.9655     3042.718   -437.62813   -46.078121    163.44449    596.91113   -4024.9193 
17947000    150.37165   -4455.8749    -4198.143   -4455.8749            0    2104.7319    17.899328    23.437514     21.91117    9192.0811    2506.2686    2126.2419    1681.6851    2.8791955    124.95906   -76.813972   -3915.9888 
17948000    154.07392   -4463.7327   -4199.6553   -4463.7327            0    2502.7348    18.051772    23.406971    21.822635    9220.8773     1735.269    2726.5463    3046.3892    136.76697   -549.44849    312.40337   -3863.0949 
17949000     150.6537   -4442.3637   -4184.1484   -4442.3637            0    1795.5732    17.828684    23.401974     22.08698     9215.271    2346.5027    1727.1462    1313.0706    -753.1049   -24.565553    -339.6197   -3942.8319 
17950000    151.55643   -4467.9132   -4208.1507   -4467.9132            0    2468.3919    17.952773    23.353691    21.973919    9212.8624    1979.6868    2112.6128     3312.876   -507.78889   -196.24165   -533.04873   -3876.4972 
17951000    155.04537    -4463.546   -4197.8035    -4463.546            0    3096.4342    17.954349    23.161277    21.956561    9130.5405    2910.4265    3354.6522    3024.2239   -644.93748    334.06973   -501.43258   -3785.4837 
17952000    157.05403   -4460.2514   -4191.0662   -4460.2514            0     2490.675    17.727071    23.466367    22.059246    9176.4248    2782.5447    2781.0097    1908.4705   -358.75312    398.31225    3.7108728   -3857.7423 
17953000    152.48283   -4477.3073   -4215.9569   -4477.3073            0    1458.5546    18.040202    23.134057    22.178655     9256.108    2093.2962    2189.6428    92.724918   -316.09444   -865.10883    257.20075   -4019.0654 
17954000    149.44625   -4468.1987   -4212.0529   -4468.1987            0    2039.9032    17.961784    23.440791    21.925796    9231.6025    1327.5496    1951.9499      2840.21   -344.51943    106.95254    247.11285   -3937.4137 
17955000    144.33775   -4461.8698   -4214.4799   -4461.8698            0     3610.895    18.203556     23.02636    21.789935    9133.5049    1709.4924    4254.5949    4868.5977    756.61911    45.942524    485.12838   -3733.4986 
17956000    150.82966   -4472.4082   -4213.8914   -4472.4082            0    1803.6797    17.836807    23.515169    22.032387    9241.1659    1953.5022    2014.7654    1442.7715    166.04958    179.83146    9.9857432   -3970.8042 
17957000    151.29666   -4460.6695   -4201.3522   -4460.6695            0    1891.3868    17.957931    23.295985    22.041204    9220.8864    2467.1824    1696.2143    1510.7638   -205.85982    221.30971   -9.4193161   -3947.0039 
17958000    156.90424   -4461.5459   -4192.6174   -4461.5459            0    1923.0707    18.012055    23.300765    21.979865     9224.832    2199.0396     762.3317    2807.8407   -254.37482    36.325672    452.01714   -3933.8977 
17959000    153.03157    -4462.873   -4200.5822    -4462.873            0    2946.4972    17.818638    23.384127    22.018517    9174.5281    4420.2988    2375.9092    2043.2836    -515.0592    43.324227    264.51929   -3806.3376 
17960000    153.93805   -4450.1048   -4186.2603   -4450.1048            0    2644.7689    18.052066    23.304961    21.930067    9226.0379    3042.6796    1841.2758    3050.3513   -249.43965   -181.28769    63.043777   -3830.4005 
17961000     149.7457   -4467.0892   -4210.4302   -4467.0892            0    1044.7085    17.891001    23.546789    22.007416    9271.1881    916.51204    1562.0598    655.55374    283.66029    356.48469    676.28472   -4069.1744 
17962000    144.77181    -4451.593   -4203.4591    -4451.593            0    1828.6229    18.045056    23.277238    22.029874    9253.4078    508.30113    2508.0802    2469.4874   -239.89313    70.064765    162.66667   -3956.6838 
17963000    164.25787   -4470.0652   -4188.5329   -4470.0652            0    3315.0964    17.935662    23.361361    21.868081    9162.7576    3825.6097     3690.184    2429.4956   -441.67353    597.34508    127.44792   -3745.5385 
17964000    154.38564   -4471.2219   -4206.6102   -4471.2219            0    828.16797    18.116987    23.417021    21.887097    9285.5108    801.74883    46.568686    1636.1864    246.86929     401.1325    950.82322     -4094.46 
17965000    142.68648   -4476.2663   -4231.7066   -4476.2663            0    1498.5452    17.861188    23.354057    22.121663    9227.6356    2894.2064    852.23095    749.19814    63.742067    187.40982   -242.38763    -4030.039 
17966000    150.61984   -4471.5569   -4213.3996   -4471.5569            0    1845.8389    17.916627    23.427503     21.97223    9222.6641    2068.0097    1835.9874    1633.5196    454.50854   -327.23183    211.74245   -3965.1286 
17967000    144.72908   -4464.3742   -4216.3135   -4464.3742            0    1647.9693    17.997648    23.202116    22.043844    9205.1461    1965.2153    2267.1375    711.55522   -496.20865    72.139191    128.81366   -3995.0775 
17968000    153.70355   -4460.7834   -4197.3408   -4460.7834            0     2794.326    17.820598    23.343455    22.045261    9170.7035    2165.1526    2894.1015    3323.7239   -880.52805   -918.37842   -221.58694   -3823.6128 
17969000    149.76326   -4450.8397   -4194.1506   -4450.8397            0    651.37948    18.086445    23.309693    21.993615    9272.2765   -768.99886    1202.2451    1520.8922   -448.48087   -293.79415    91.645706   -4106.0667 
17970000    146.06084   -4466.9808   -4216.6375   -4466.9808            0    2524.0955    18.038078     23.55474     21.64697    9197.4127    2313.0757    1740.6901    3518.5207   -265.45769     226.5282    204.64441   -3878.0683 
17971000    154.41311   -4466.2391   -4201.5803   -4466.2391            0    1530.4765     18.08562    23.248266    21.934096    9222.3944    1724.3613    957.66573    1909.4024   -191.95423   -861.61234    677.94668   -3995.7325 
17972000    153.71442   -4472.7414   -4209.2801   -4472.7414            0    3284.2546    17.639613    23.690454    21.833003    9123.8035    3008.7586     2275.529    4568.4764    308.30525    176.51111    23.743641   -3772.2729 
17973000    140.14291   -4452.1149   -4211.9147   -4452.1149            0    1495.8331    18.049194     23.27533    21.996345    9240.6856    1478.3203    1625.0376    1384.1412   -17.169452   -140.42834    320.38245   -4010.3274 
17974000    151.57776   -4461.1385   -4201.3394   -4461.1385            0    2444.9788    17.841664    23.394983    21.994898      9180.79     2264.832    1573.9125    3496.1919    -80.40605   -267.32473    1.2626461   -3873.9753 
17975000    148.90528    -4465.656   -4210.4374    -4465.656            0    1968.6634    18.119206    23.115425    21.963227    9198.9271    429.15578    3527.7516    1949.0829    427.74507   -257.47407   -213.32586   -3946.3276 
17976000    152.59104   -4458.8405   -4197.3047   -4458.8405            0     2989.781     17.94204    23.335144    21.904225    9170.8628    3533.0992    2801.8118     2634.432    535.54506   -340.21989    344.57479   -3797.4286 
17977000    169.73773   -4456.9342   -4166.0095   -4456.9342            0    1667.0792    17.822962    23.372712    22.120722    9214.8506    1429.9428    1452.5811    2118.7137   -133.60077    437.13615    54.702342   -3941.9722 
17978000    159.35806   -4457.1669   -4184.0326   -4457.1669            0    2866.6415    18.047786    23.222518     21.90622    9181.2262    1402.8315    3442.7545    3754.3385    -78.34025    465.34702   -507.38229   -3800.1929 
17979000    157.58849   -4462.5376   -4192.4363   -4462.5376            0    2519.2614    17.953707    23.429695    21.876092    9202.1757    2609.6147    1904.2841    3043.8853    620.15565    21.519729   -467.27296   -3854.3406 
17980000    151.92202   -4437.9709   -4177.5817   -4437.9709            0    3214.0668    18.055793    23.144166    22.021061     9202.299    3618.5709    4566.2327    1457.3966   -694.57009   -198.96706   -573.75014   -3746.2344 
17981000    149.35895   -4444.1817   -4188.1855   -4444.1817            0    2432.9555    17.814865    23.504853    21.952717    9192.3882    2669.7451    3103.8228    1525.2984    169.01316   -569.11718    109.68476   -3862.0198 
17982000    152.29526   -4457.8382   -4196.8093   -4457.8382            0    1664.8754    18.173798    23.301861    21.827079    9243.4034    825.02432     1675.479    2494.1229    419.78459    99.472006    665.64892   -3972.3749 
17983000    157.44463   -4484.4479   -4214.5932   -4484.4479            0    1899.4175     17.93257     23.50225    21.915743    9236.5153     1513.097    1365.4601    2819.6952     482.9499    117.91251    429.36251    -3958.732 
17984000     151.2695   -4448.6474   -4189.3767   -4448.6474            0    1986.9863    18.080119     23.27572    21.923653    9226.0826    2431.3616    2528.5206    1001.0768   -690.28068   -191.55379   -8.3636777   -3922.0218 
17985000     143.8664   -4464.8467   -4218.2646   -4464.8467            0    2460.0179    17.929054    23.417385    21.953363    9217.1539    2064.0849    2032.4375    3283.5314    25.038496    254.72499   -547.15005   -3887.5823 
17986000    148.87819   -4461.3659   -4206.1938   -4461.3659            0    2129.6643    18.017309    23.327465    21.957076    9228.5184    1042.1209    2615.9969     2730.875   -458.52523    171.22313     467.0942   -3919.5655 
17987000    154.67194   -4469.5968   -4204.4943   -4469.5968            0    2732.9666    17.997775     23.23439    21.993077    9196.7859    2737.5708    3499.0894    1962.2398    44.668479   -323.89966   -567.62041   -3837.9333 
17988000    151.07001   -4451.8842   -4192.9554   -4451.8842            0    1563.8595    17.886856    23.556695    21.977999    9260.5444    2742.6538    434.72016    1514.2044   -736.96095   -534.09793    -46.65361   -3981.7475 
17989000    150.81849   -4455.6132   -4197.1154   -4455.6132            0    2254.5781    18.029582    23.391724    21.856747    9217.9303    2271.9375    1044.1268    3447.6701   -50.377841   -822.55665    61.794925   -3894.0233 
17990000    153.65007   -4459.8407   -4196.4898   -4459.8407            0    2247.4476    17.879495    23.310824    22.011196    9173.9532    3058.1137    1699.6554    1984.5736    275.00115    21.132354   -371.96832   -3895.7977 
17991000    147.50431   -4466.8525   -4214.0352   -4466.8525            0    1494.2842    17.951287     23.20565    22.159645    9231.0716    1113.8431    2265.2652    1103.7443   -585.42142    240.57369    351.56624   -4012.8661 
17992000    162.12955   -4479.5575    -4201.673   -4479.5575            0    2433.4545    17.950818    23.393368    21.908155    9199.8934    2011.9194    2428.7299    2859.7143    140.14633    278.79198    194.90272    -3875.174 
17993000    162.05073   -4459.1545   -4181.4051   -4459.1545            0    2444.1074    18.121434     23.21512    21.852563    9193.1824    2679.8503    2019.6197    2632.8521    373.00711    530.78262   -149.95119    -3853.716 
17994000    148.14078   -4445.8403    -4191.932   -4445.8403            0    2327.4124    17.925947    23.425559    21.880701    9188.2604      2592.92    1849.2444    2540.0729    -250.0867   -144.22954    695.55858   -3880.0556 
17995000    156.93577   -4453.6711   -4184.6886   -4453.6711            0    2206.6912    17.993109     23.53015    21.811942    9234.7517    1821.8062     1690.449    3107.8183   -236.23856    317.97671    701.88521   -3887.4928 
17996000     152.3529   -4464.8751   -4203.7475   -4464.8751            0    2357.1978    17.980931    23.249878    22.038621    9213.3436    2161.7589    2989.8599    1919.9747    1191.6995    179.20923    114.59198   -3887.0175 
17997000    142.54471   -4447.1838   -4202.8671   -4447.1838            0    1723.4666    17.920223    23.471475    21.960095    9236.7248    1697.4592   -251.64381    3724.5843     333.1196   -55.166637   -133.42264   -3970.7021 
17998000    154.01758    -4446.109   -4182.1281    -4446.109            0    3380.6441    18.005825     23.34797    21.849291    9185.4301     2685.944    4226.5301    3229.4583   -1296.9029   -467.39323   -193.91458   -3729.2568 
17999000     147.2745   -4467.1642   -4214.7408   -4467.1642            0    2660.7246     17.79963    23.470659    21.961212    9174.7147    3112.5731    2576.9145    2292.6864   -620.45998    9.1625479    231.63138   -3858.7257 
18000000    161.55661   -4452.6568   -4175.7543   -4452.6568            0    2325.0194    18.039997      23.1434    22.058841    9209.7171    2230.5219    3717.5856    1026.9507    983.89516   -320.10836    619.26645    -3863.471 
Loop time of 364.504 on 64 procs for 250000 steps with 864 atoms

Performance: 118.517 ns/day, 0.203 hours/ns, 685.864 timesteps/s
195.9% CPU use with 32 MPI tasks x 2 OpenMP threads

MPI task timing breakdown:
Section |  min time  |  avg time  |  max time  |%varavg| %total
---------------------------------------------------------------
Pair    | 17.144     | 25.418     | 34.776     | 101.7 |  6.97
Bond    | 0.84086    | 1.0732     | 1.6033     |  17.2 |  0.29
Kspace  | 181.13     | 192.64     | 204.29     |  40.6 | 52.85
Neigh   | 0.85703    | 0.95234    | 1.0752     |   6.0 |  0.26
Comm    | 57.123     | 60.378     | 64.362     |  24.5 | 16.56
Output  | 0.60527    | 0.60565    | 0.60746    |   0.0 |  0.17
Modify  | 66.998     | 68.916     | 71.827     |  14.0 | 18.91
Other   |            | 14.52      |            |       |  3.98

Nlocal:        27.0000 ave          40 max          17 min
Histogram: 4 5 6 1 2 4 2 3 3 2
Nghost:        2153.06 ave        2260 max        2045 min
Histogram: 8 2 6 0 0 0 1 3 5 7
Neighs:        6591.28 ave        9656 max        4068 min
Histogram: 3 6 4 3 0 6 1 4 4 1

Total # of neighbors = 210921
Ave neighs/atom = 244.12153
Ave special neighs/atom = 2.0000000
Neighbor list builds = 3287
Dangerous builds = 0

unfix		3
unfix		2
unfix		1

write_data	data.final.${pid} nocoeff
write_data	data.final.1 nocoeff
System init for write_data ...
PPPM initialization ...
  extracting TIP4P info from pair style
  using 12-bit tables for long-range coulomb (../kspace.cpp:340)
  G vector (1/distance) = 0.37189929
  grid = 24 27 25
  stencil order = 5
  estimated absolute RMS force accuracy = 0.0031363451
  estimated relative force accuracy = 9.4450101e-06
  using double precision FFTW3
  3d grid and FFT values/proc = 4410 672
Last active /omp style is kspace_style pppm/tip4p/omp

write_restart   restart.lmp.${pid}
write_restart   restart.lmp.1
System init for write_restart ...
PPPM initialization ...
  extracting TIP4P info from pair style
  using 12-bit tables for long-range coulomb (../kspace.cpp:340)
  G vector (1/distance) = 0.37189929
  grid = 24 27 25
  stencil order = 5
  estimated absolute RMS force accuracy = 0.0031363451
  estimated relative force accuracy = 9.4450101e-06
  using double precision FFTW3
  3d grid and FFT values/proc = 4410 672
Last active /omp style is kspace_style pppm/tip4p/omp
Total wall time: 0:06:04
