#include		in.partitions
include		in.temp
variable        temperature equal 137.60
variable	tempDamp equal 100.0
include		in.pressure
variable        pressure equal 2053.8
variable        pressureDamp equal 1000.0 # This is 1 ps
include		in.seed
variable        seed equal 745823

units		real
atom_style	full
#include		in.box
read_restart	restart.lmp.${pid}
read_restart	restart.lmp.1
Reading restart file ...
  restart file = 30 Jul 2021, LAMMPS = 30 Jul 2021
  restoring atom style full from restart
  orthogonal box = (0.12912721 0.094571587 0.11048468) to (18.078445 23.534606 22.102711)
  2 by 4 by 4 MPI processor grid
  restoring pair style lj/cut/tip4p/long/omp from restart
  restoring bond style harmonic/omp from restart
  restoring angle style harmonic/omp from restart
  864 atoms
  576 bonds
  288 angles
Finding 1-2 1-3 1-4 neighbors ...
  special bond factors lj:    0        0        0       
  special bond factors coul:  0        0        0       
     2 = max # of 1-2 neighbors
     1 = max # of 1-3 neighbors
     1 = max # of 1-4 neighbors
     2 = max # of special neighbors
  special bonds CPU = 0.003 seconds
  read_restart CPU = 0.007 seconds
include 	in.setup
variable	out_freq equal 1000
variable	out_freq2 equal 10000
variable	out_freq3 equal 1000

timestep	2.0

neigh_modify    delay 7 every 1

include		in.tip4p
# This is TIP4P/Ice

# create groups ###
group ox type 2
288 atoms in group ox
group hy type 1
576 atoms in group hy

# set charges - beside manually ###
set group ox charge -1.1794
Setting atom values ...
  288 settings made for charge
set group hy charge 0.5897
Setting atom values ...
  576 settings made for charge

# ### TIP3P Potential Parameters ###
pair_style lj/cut/tip4p/long/omp 2 1 1 1 0.1577 8.5
pair_coeff 1 1*2 0.000 0.000
pair_coeff 2 2 0.21084 3.1668
bond_style  harmonic
bond_coeff  1 450 0.9572
angle_style harmonic
angle_coeff 1 55 104.52
kspace_style pppm/tip4p/omp 1.0e-5
pair_modify tail yes

thermo          ${out_freq}
thermo          1000
thermo_style    custom step temp pe etotal epair emol press lx ly lz vol pxx pyy pzz pxy pxz pyz enthalpy

restart 	${out_freq3} restart.lmp.${pid} restart2.lmp.${pid}
restart 	1000 restart.lmp.${pid} restart2.lmp.${pid}
restart 	1000 restart.lmp.1 restart2.lmp.${pid}
restart 	1000 restart.lmp.1 restart2.lmp.1


include         in.dump
dump            myDump all atom ${out_freq2} dump.water.${pid}
dump            myDump all atom 10000 dump.water.${pid}
dump            myDump all atom 10000 dump.water.1
dump            myDump2 all dcd ${out_freq2} dump.dcd
dump            myDump2 all dcd 10000 dump.dcd
dump_modify     myDump append yes
dump_modify     myDump2 append yes


variable natoms 	equal  "count(all)"                        # NUMBER ATOMS
variable H      	equal  "enthalpy/v_natoms"                 # ENTHALPY-per-atom
variable Vol      	equal  "vol/v_natoms"                 # volume-per-atom
fix AVG all 		ave/time ${out_freq} 1 ${out_freq} v_Vol v_H file vol_enthalpy.dat
fix AVG all 		ave/time 1000 1 ${out_freq} v_Vol v_H file vol_enthalpy.dat
fix AVG all 		ave/time 1000 1 1000 v_Vol v_H file vol_enthalpy.dat


timer           timeout 23:50:00 every 1000
New timer settings: style=normal  mode=nosync  timeout=23:50:00

fix 		1 all shake 1e-6 200 0 b 1 a 1
       0 = # of size 2 clusters
       0 = # of size 3 clusters
       0 = # of size 4 clusters
     288 = # of frozen angles
  find clusters CPU = 0.001 seconds
fix             2 all nph aniso ${pressure} ${pressure} ${pressureDamp}
fix             2 all nph aniso 2053.8 ${pressure} ${pressureDamp}
fix             2 all nph aniso 2053.8 2053.8 ${pressureDamp}
fix             2 all nph aniso 2053.8 2053.8 1000
fix             3 all temp/csvr ${temperature} ${temperature} ${tempDamp} ${seed}
fix             3 all temp/csvr 137.6 ${temperature} ${tempDamp} ${seed}
fix             3 all temp/csvr 137.6 137.6 ${tempDamp} ${seed}
fix             3 all temp/csvr 137.6 137.6 100 ${seed}
fix             3 all temp/csvr 137.6 137.6 100 745823


run             250000
PPPM initialization ...
  extracting TIP4P info from pair style
  using 12-bit tables for long-range coulomb (../kspace.cpp:340)
  G vector (1/distance) = 0.37173828
  grid = 24 27 25
  stencil order = 5
  estimated absolute RMS force accuracy = 0.0031563295
  estimated relative force accuracy = 9.5051926e-06
  using double precision FFTW3
  3d grid and FFT values/proc = 4410 672
Last active /omp style is kspace_style pppm/tip4p/omp
Neighbor list info ...
  update every 1 steps, delay 7 steps, check yes
  max neighbors/atom: 2000, page size: 100000
  master list distance cutoff = 10.8154
  ghost atom cutoff = 10.8154
  binsize = 5.4077, bins = 4 5 5
  1 neighbor lists, perpetual/occasional/extra = 1 0 0
  (1) pair lj/cut/tip4p/long/omp, perpetual
      attributes: half, newton on, omp
      pair build: half/bin/newton/omp
      stencil: half/bin/3d
      bin: standard
Per MPI rank memory allocation (min/avg/max) = 10.19 | 10.21 | 10.23 Mbytes
Step Temp PotEng TotEng E_pair E_mol Press Lx Ly Lz Volume Pxx Pyy Pzz Pxy Pxz Pyz Enthalpy 
20750000    137.23262   -4470.1689   -4234.9568   -4470.1689            0    1316.0068    17.949318    23.440035    21.992226    9252.8474    95.575654    1753.8182    2098.6265   -697.87928   -17.027442   -129.24815   -4057.3706 
20751000    131.12302   -4479.3742   -4254.6339   -4479.3742            0    2219.1012     18.04771    23.362713     21.83628     9207.125    720.22507     2052.615    3884.4637   -454.75949    38.788972   -124.00216   -3956.6608 
20752000    137.83851   -4491.2148   -4254.9643   -4491.2148            0    870.13372    18.107094    23.252972    21.950886    9242.2832    995.06037    1384.1824    231.15833    -657.4415    376.20795    253.82076   -4137.6797 
20753000    133.85621   -4485.9857   -4256.5607   -4485.9857            0    1638.8294    17.847123    23.599326     21.90296    9225.0908     2551.424    552.40828    1812.6559   -711.74458    555.56085   -435.88205   -4036.0751 
20754000    126.80296   -4492.0116   -4274.6757   -4492.0116            0    814.03854    18.127207    23.342069    21.863416    9250.9911    332.01013    589.99268    1520.1128    495.82052   -55.859682    215.29467   -4164.8487 
20755000    134.04717   -4474.9931   -4245.2408   -4474.9931            0    2394.2254    18.083048    23.285674    21.840226    9196.3941    2029.9632    1680.8975    3471.8153    1025.6084   -101.22529    481.53939   -3924.1274 
20756000    137.49532   -4481.7167   -4246.0545   -4481.7167            0    820.71685    17.974713    23.747801    21.725566    9273.7728    2083.3177   -1177.4316    1556.2645    128.27299    32.978778    462.84079   -4135.0538 
20757000    138.15896   -4486.0216   -4249.2218   -4486.0216            0    2685.2605    18.042421    23.176863    21.991313    9196.0351    2854.6034    2960.2459    2240.9322   -472.61417   -534.47776    515.12794   -3889.0888 
20758000    142.61812   -4488.0932   -4243.6507   -4488.0932            0    1705.5635    17.916393    23.382029    22.009129    9220.0999    2285.4242    1347.7644    1483.5018   -50.932062   -464.70836    432.45539   -4014.3109 
20759000    141.08598   -4476.8841   -4235.0676   -4476.8841            0    2300.0967    17.855439    23.330888    22.110377    9210.8125    3730.6919    2933.0583    236.53979   -629.33051   -443.86051    752.14224    -3926.095 
20760000    140.58304   -4488.4028   -4247.4483   -4488.4028            0    2546.5312    17.976125    23.342596    21.915591    9195.9887    1747.9256    2543.2442    3348.4239   -62.607979     -787.371     -50.8769   -3905.9227 
20761000    140.99502   -4499.2574   -4257.5968   -4499.2574            0    750.87929    17.975673    23.494275    21.953348    9271.4563    203.63753    813.01242    1235.9879   -179.42025    -284.2768    319.98837   -4156.0669 
20762000    146.67729   -4480.8135   -4229.4136   -4480.8135            0    1411.0075    18.069368    23.248537     21.97589    9231.7718    114.61295    1671.1345    2447.2751   -894.49247    588.35164    33.723321   -4039.4413 
20763000    142.12275   -4480.9246   -4237.3311   -4480.9246            0    2072.5258    18.025786    23.192743    22.061131      9223.04    1399.1158    1845.1155     2973.346    -180.0565   -2.3399832    522.72739   -3958.5586 
20764000    133.46653   -4494.8286   -4266.0716   -4494.8286            0    1679.3625    17.809178    23.553469    21.951551    9207.9717    1702.7453    887.29517     2448.047    860.63674   -442.98332    49.987305    -4040.552 
20765000    141.16171   -4494.8263     -4252.88   -4494.8263            0    3304.5156    17.981651    23.270404     21.84516    9140.8949    2892.6926    3418.7689    3602.0851    58.039367    6.9454319    283.82287   -3812.3531 
20766000    135.55591   -4483.2834   -4250.9452   -4483.2834            0    1716.7188    17.951263    23.400006    21.955081     9222.444    1919.1939    1152.8424      2078.12   -344.60409   -231.52198   -676.03176   -4020.0467 
20767000    139.12326   -4487.8783   -4249.4258   -4487.8783            0    2088.6992    17.931038    23.439759    21.931929    9217.9727    3143.9861    1437.3865    1684.7249   -216.27108     634.8806   -422.62108   -3968.6322 
20768000     131.7161   -4496.8187   -4271.0618   -4496.8187            0    2144.1477    17.928082    23.360513    21.997122    9212.5967     2735.075    2058.3376    1639.0306   -836.72876    644.28459   -308.75947   -3982.9821 
20769000    138.72601   -4491.7822   -4254.0106   -4491.7822            0    2119.1152    17.922994    23.357596    21.923101    9177.8445    2932.7158    1591.0787    1833.5511   -264.41725    -400.7663    426.90712   -3970.3682 
20770000      134.956   -4492.4374   -4261.1274   -4492.4374            0    3554.1084     17.86925    23.383032    21.819027     9116.802    3567.3651    2806.4191    4288.5411   -362.86576   -241.38517    126.90291    -3788.576 
20771000    138.82538   -4501.7835   -4263.8415   -4501.7835            0     1573.844    17.985154     23.18857    22.106218    9219.3982    1927.4617    2108.8572    685.21319   -624.44935    255.81435    216.26967   -4052.2296 
20772000    142.43747    -4482.854    -4238.721    -4482.854            0     2165.306    17.888759     23.28013    22.048593    9182.1944    2657.3611    2357.5803    1480.9766    35.686368   -19.129011   -305.10724   -3948.7587 
20773000    136.68196   -4500.0748   -4265.8066   -4500.0748            0    2275.3731    18.005031    23.284455    21.950046    9202.2791    1876.0553    2647.3332    2302.7309   -224.99182    478.53489    762.82088   -3960.4383 
20774000    149.15137   -4479.6374    -4223.997   -4479.6374            0    2373.4511    18.053769    23.429965    21.726978    9190.4935    2393.3716    2079.7874    2647.1942   -287.65764   -590.91302    24.683427   -3905.8741 
20775000    138.28265   -4487.2415   -4250.2297   -4487.2415            0    2416.2994    17.967562    23.431399     21.83001     9190.546    779.73991    3855.9321    2613.2261    330.16467    -519.2497    46.896059   -3926.3618 
20776000    144.71439   -4484.1107   -4236.0752   -4484.1107            0    1952.6919    17.960643     23.35421    22.029346    9240.3552    894.39803    2261.0035    2702.6743    550.33897   -244.16037   -190.88763   -3972.9283 
20777000    141.72791   -4480.1939   -4237.2771   -4480.1939            0    3491.5407    17.786971    23.234755    22.097432    9132.3366    3572.1749    4254.6347    2647.8125    7.2486302   -56.190085    136.31886   -3772.2536 
20778000    135.04942   -4492.7725   -4261.3024   -4492.7725            0    2364.5579    18.007246    23.239658    22.010145    9210.8548    990.83358    2741.8139    3361.0263    60.514852    288.25296    65.743216   -3943.6693 
20779000    130.77303   -4495.0775    -4270.937   -4495.0775            0    1706.5758    17.894342    23.515231    21.922109    9224.5954    2194.4967    1411.4181    1513.8126    359.18267   -520.32377    680.18304   -4041.3492 
20780000    140.69352   -4484.1862   -4243.0423   -4484.1862            0    3018.1329    18.034789    23.233489    21.865573    9161.9171    2478.3249      3115.95    3460.1237   -52.172815    416.86655    585.15637    -3839.768 
20781000     142.3775   -4481.0366   -4237.0064   -4481.0366            0    1278.8469     17.98063    23.360735    22.024001    9250.9776    1486.7189    1901.5685    448.25346   -115.99881    510.81718   -497.17355   -4064.4695 
20782000    134.14746   -4475.6365   -4245.7123   -4475.6365            0    1874.3743    17.951065    23.451397    21.941292    9236.7912    1651.2446    1347.6318    2624.2465   -104.94691    133.23689    477.23263    -3993.217 
20783000    140.03687   -4487.4841   -4247.4657   -4487.4841            0    2889.8455    18.085029    23.072638    21.963401    9164.6535    2184.9863     3612.831    2871.7191   -7.0560965    137.54941    321.16348   -3861.2174 
20784000    136.57287   -4498.7962    -4264.715   -4498.7962            0    2319.4803    17.739282    23.488866    22.034054    9181.0534    3918.3519    982.53189    2057.5572   -81.127289   -531.08035    421.58614   -3954.1453 
20785000    132.85428   -4500.3316   -4272.6239   -4500.3316            0     3131.199    17.910584    23.244785    22.028177      9170.94    3629.6594    3215.5188    2548.4187   -269.38906    18.947004    426.64043   -3853.8299 
20786000    137.63538   -4496.3805   -4260.4782   -4496.3805            0    1746.9391     17.98254    23.225486    22.031432    9201.4991    1474.2352    2812.9451    953.63688   -476.79878    414.03886    195.82843   -4026.0487 
20787000    143.23595   -4495.1566   -4249.6551   -4495.1566            0    2128.4918    17.946632    23.411324    21.871034    9189.2113    1814.1526    1654.6009    2916.7219   -465.23369    15.388796    593.27007   -3964.4048 
20788000     133.0829   -4482.1209   -4254.0214   -4482.1209            0    1554.7801    18.085694    23.358065     21.88345    9244.5939    820.92587    2789.6222    1053.7924    -30.82669      85.3273    753.39364   -4044.4014 
20789000    138.51412   -4485.7084   -4248.2999   -4485.7084            0    2484.3393    17.934435    23.359555    21.917818      9182.26      2662.28    2537.4855    2253.2525   -91.937159   -31.529463    616.93386   -3915.6125 
20790000    139.46513   -4493.8303   -4254.7919   -4493.8303            0    2710.4847    17.905603    23.419972    21.892579     9180.625    3272.1117    1422.9956    3436.3468   -69.179221   -254.43971     511.5835   -3891.8851 
20791000    130.65203   -4479.4083   -4255.4752   -4479.4083            0    1037.9829    18.038253    23.284038    22.109815    9286.1971    2214.9272    526.34949    372.67201   -507.02108   -66.177144    147.06786   -4114.9016 
20792000    134.66486   -4485.9075   -4255.0965   -4485.9075            0     2735.532    17.655529    23.604263    22.024384    9178.5686    3418.6366      2444.69    2343.2694    -771.0016    109.19524    4.5572816   -3888.9182 
20793000    137.36821   -4482.1736   -4246.7291   -4482.1736            0     1901.679    17.982121    23.297293    22.013979     9222.421    1850.5864    1953.4592    1900.9913   -329.95033    -1038.801    325.84746   -3990.9542 
20794000    138.65558   -4488.3473   -4250.6964   -4488.3473            0    1837.7438    18.008689    23.299336    21.998573     9230.392    853.28948    2152.0264    2507.9156     221.2226   -199.64332    74.725254   -4003.3071 
20795000    126.78453   -4498.2176   -4280.9132   -4498.2176            0    1562.5883    17.911554     23.50978    21.910774    9226.5546    2061.8539    761.32725    1864.5837   -119.13588   -666.02962     5.161204   -4070.6516 
20796000    140.71126   -4483.7676   -4242.5933   -4483.7676            0    2685.5257    17.952113    23.298144    21.953624    9182.1233    2405.0271    2896.0206    2755.5294    148.71985   -33.431844   -524.23906   -3882.9696 
20797000     136.0761   -4492.2218   -4258.9921   -4492.2218            0    3389.8528    17.933201     23.25931    21.955921    9158.1194    3558.0436    3548.8179    3062.6968   -166.53982     106.1785   -512.62589   -3806.2373 
20798000    136.74425   -4482.2493   -4247.8743   -4482.2493            0    2791.8814    18.021066    23.346863    21.828684    9184.0994    2687.4037    3149.1907    2539.0498   -324.49105   -669.42791   -197.79746   -3873.9279 
20799000     145.7706   -4499.5237   -4249.6779   -4499.5237            0    1847.5777    17.976154    23.468649    21.864163    9223.9665    2219.6976    896.77716    2426.2582   -433.85576   -409.92957    420.04472   -4001.1378 
20800000    131.05962   -4484.7138   -4260.0821   -4484.7138            0    2352.0831    17.909985     23.31322    21.965099    9171.2947    1751.9894    2305.3736    2998.8863    470.37412   -146.55716    526.54625   -3945.4818 
20801000    138.56141   -4479.7486   -4242.2591   -4479.7486            0    871.10403    17.970957     23.32759    22.114822    9270.9563    1565.5128    1317.5235   -269.72424   -409.36583   -86.823468    320.50448   -4124.4794 
20802000    130.14746   -4479.0021   -4255.9338   -4479.0021            0    2140.0476     18.07177    23.255438    21.920391    9212.4154    1114.7661    2918.9612    2386.4154    686.04962    -1038.187    308.64448   -3968.4106 
20803000    135.35715   -4496.6054   -4264.6078   -4496.6054            0    1779.2715    17.929548    23.447743    21.888064    9201.9049    1930.3639    1291.7981    2115.6526   -849.24402    284.82827   -385.61374    -4025.829 
20804000    146.99648   -4493.1562   -4241.2093   -4493.1562            0    2681.6677    18.030529    23.203121    21.867292    9148.4996    1844.4456    2759.4672    3441.0902    111.58621   -567.31434    98.550221   -3883.4172 
20805000    136.46305   -4487.7796   -4253.8866   -4487.7796            0    1816.8225     17.99598    23.391839    21.948264    9239.3206    2558.5366     1941.568    950.36301    479.78409   -521.34477   -157.69724    -4009.077 
20806000    147.83077   -4489.9409    -4236.564   -4489.9409            0    1473.1866    17.868352    23.532485    21.940171    9225.5505    1577.1133     54.37012    2788.0763   -438.53744    294.07928    659.08221   -4038.3539 
20807000    145.96245   -4502.9353   -4252.7607   -4502.9353            0    2931.2042    17.947307    23.249911     21.97117    9167.9824    3679.0007    3376.4288    1738.1831   -28.441048    56.972187    407.49397   -3860.8422 
20808000    134.61189   -4482.8108   -4252.0906   -4482.8108            0    2503.8427    17.917143    23.351913    21.991082    9201.0597    1981.0606    2884.6496    2645.8179   -791.40888    247.18604    399.48179    -3916.105 
20809000    142.55174   -4495.9953   -4251.6664   -4495.9953            0    2397.3453    18.054542    23.252023     21.95487     9216.756    1681.0342    3066.0387    2444.9628   -318.46161   -106.02612   -75.207492   -3929.4227 
20810000    132.35168   -4500.5281   -4273.6818   -4500.5281            0    2681.1368    17.951533    23.481285    21.761481    9173.0096    1894.8731    2243.8331     3904.704    -456.4199    35.942833    51.857283   -3915.0022 
20811000    134.54147   -4485.5877   -4254.9882   -4485.5877            0     1349.037     18.07553    23.435041    21.825404    9245.2581   -9.5004839    986.72656    3069.8851    308.55135    223.27269    114.21433   -4073.0941 
20812000    134.02013   -4475.4459   -4245.7399   -4475.4459            0    2034.4469    18.041879    23.351179    21.856515    9208.1309    2246.5027    587.70375    3269.1343   -1244.3092   -153.82357     133.1794   -3972.5317 
20813000    143.20132   -4474.3293   -4228.8871   -4474.3293            0    1872.1079    17.855759    23.506307    21.972372    9222.3087    2051.1172    1393.8815    2171.3249    614.28991   -571.20867    160.13162   -3977.0925 
20814000    138.98488   -4492.2727   -4254.0574   -4492.2727            0    1743.6414     18.00191     23.22139    22.037886    9212.4835    155.46097    2490.9784    2584.4847    456.11223   -451.97127   -397.30507   -4019.7911 
20815000    139.87011   -4508.7976    -4269.065   -4508.7976            0    2311.5372    18.024609    23.155486    21.975371    9171.8294    963.05312    2692.7943    3278.7642    677.14957   -362.07026   -212.15908   -3959.8698 
20816000    142.83307   -4484.7781   -4239.9671   -4484.7781            0    2648.5502    17.928397    23.347787    21.986942    9203.4785     3015.313    3060.1973    1870.1404   -388.81369    219.74504   -331.18381     -3884.47 
20817000    130.48604   -4498.1155   -4274.4669   -4498.1155            0    2431.9898    18.037574    23.061878    22.114274    9199.1025    2600.8194    3352.4045    1342.7455     674.5247   -254.56814    405.47175   -3948.1924 
20818000    139.69309   -4497.2241   -4257.7949   -4497.2241            0    1390.8549    17.947385    23.337788    22.047265    9234.5465    932.00835     2046.496    1194.0604   -469.70996    684.11784    406.47549   -4070.4796 
20819000    130.45179   -4499.6823   -4276.0924   -4499.6823            0    2164.8482    17.805746    23.614927    21.845942    9185.8119    2267.0065    1561.2649    2666.2731   -478.83183    37.112588    332.05933   -3986.0771 
20820000    133.34553   -4483.6349   -4255.0852   -4483.6349            0     1390.868    18.127922    23.281482    21.896302    9241.2226    584.90223     1681.364    1906.3377   -221.16635   -212.06831      241.276   -4067.6327 
20821000    134.19987   -4488.4231   -4258.4091   -4488.4231            0    2074.0509    17.982963    23.526168     21.76499    9208.1193    1767.3269    1326.1849    3128.6409   -151.86862   -315.87123   -113.10038   -3979.8828 
20822000    149.83345   -4481.0502   -4224.2408   -4481.0502            0     2383.814    17.957064    23.292877    21.973693    9190.9738    1491.3034    2472.6099    3187.5287   -200.54406    87.503558    113.24973   -3904.7122 
20823000    135.43604   -4504.0327      -4271.9   -4504.0327            0    2314.7122    17.984103    23.262693    22.014077    9209.7799    1544.0071    3568.9637    1831.1659   -299.99912    136.66705   -268.98754    -3960.999 
20824000    141.82981   -4500.5853   -4257.4939   -4500.5853            0    1684.3169    17.915514    23.404325     21.97796      9215.37    1748.9416    1510.5545    1793.4547    335.73068   -583.65743    244.55535   -4031.1272 
20825000    134.88067   -4484.2403   -4253.0595   -4484.2403            0    1187.9645    18.087626    23.283844    21.927868    9234.9099    696.45995    513.86034    2353.5732    516.14282   -81.080635    44.939783   -4093.0624 
20826000     134.6738   -4490.2955   -4259.4692   -4490.2955            0    1915.2485    17.990974    23.462908    21.870122    9231.8284    1274.0767    1418.9754    3052.6935     547.0836   -400.25176   -168.06577   -4001.6064 
20827000    131.12784   -4487.6526   -4262.9039   -4487.6526            0    2044.9308    18.112903    23.408543     21.76813    9229.6148    1570.2374    1691.6929    2872.8622    237.86074   -181.54213    157.79266   -3987.6471 
20828000    142.17024   -4474.4666   -4230.7917   -4474.4666            0    2353.6007    18.014676    23.210152    22.011762    9203.6322    2369.1962     1294.916      3396.69    -93.70112    520.44011    300.54625   -3914.8784 
20829000    132.73862   -4481.3067   -4253.7972   -4481.3067            0    3191.4092    17.851268    23.346838    22.013362    9174.5234    3152.4786    3165.8411     3255.908    534.88335    -595.4987    457.30756   -3826.7834 
20830000    145.30563   -4482.4012   -4233.3523   -4482.4012            0    2008.5074     17.96977    23.330031    22.014647    9229.3167    1977.1949    1722.4691    2325.8582   -43.357697   -104.54246   -461.25275    -3963.007 
20831000    135.55331   -4486.7595   -4254.4257   -4486.7595            0    2229.3435    17.836886     23.28132    22.158176    9201.5429    3244.9667    1416.9569    2026.1067    156.35917    725.71539    289.24948   -3955.2588 
20832000    136.45507   -4500.0976   -4266.2182   -4500.0976            0    2060.4748     17.92206    23.368387    21.975077    9203.3739    1983.4835    2080.6049     2117.336   -124.59124    105.82024    405.73181   -3989.6577 
20833000    132.42929   -4496.0726   -4269.0934   -4496.0726            0    2137.9115    18.048486     23.36406    21.809124    9196.6003    2370.9515    610.31847    3432.4645   -661.10402      597.498   -164.21428   -3982.3503 
20834000    135.45807   -4464.0775    -4231.907   -4464.0775            0    1480.1331     18.02434    23.517961     21.78818    9235.9168    837.43981    1719.0264    1883.9332    28.966783   -197.18678    49.430004   -4032.5384 
20835000    137.95117   -4488.2928   -4251.8492   -4488.2928            0    2580.9552    18.019834    23.284865    21.832019    9160.4838    3185.4115    2183.1568    2374.2971   -257.04471   -537.35487    249.95596   -3907.0432 
20836000     143.5313   -4499.9867    -4253.979   -4499.9867            0    1911.3152    18.092348    23.286594    21.848073    9204.7933    850.61483    1982.6574    2900.6733   -16.476737    119.64735   -220.59311   -3997.3993 
20837000    142.34829   -4505.6935   -4261.7135   -4505.6935            0    2117.5072    17.900188    23.422307     21.95356    9204.3308    2654.9902    2397.6737    1299.8578    -748.9521   -184.07162   -45.174607   -3977.4683 
20838000    142.30136   -4479.2646   -4235.3649   -4479.2646            0    2102.6917    18.093695    23.103678    21.992845    9193.6891    2103.7044    3314.5698    889.80097   -121.12686    121.85149    112.55671   -3953.4349 
20839000    124.93831   -4487.2738   -4273.1338   -4487.2738            0    687.34344    17.902118    23.415621    22.066238    9249.9289    126.46005    994.06603    941.50424   -174.63024   -184.49388   -39.177922   -4180.4107 
20840000    139.58886    -4490.076   -4250.8255    -4490.076            0    2088.6643    17.928579    23.293772    21.973485    9176.6596    2098.8481    2049.7796    2117.3652   -244.61619    296.03345   -352.99268    -3971.295 
20841000    131.35757   -4491.8059   -4266.6636   -4491.8059            0    3104.7361    18.023574    23.229382    21.876425    9159.1448    3331.4117    2807.2443    3175.5523    1114.0424    270.17581    135.42037   -3851.9431 
20842000    147.45874   -4493.9524   -4241.2131   -4493.9524            0    1919.7059    17.891739    23.418063    21.957241    9199.8615    1493.1115     2908.045    1357.9611   -223.66696   -29.701476   -113.98628   -3983.6451 
20843000    131.82328   -4493.2865   -4267.3459   -4493.2865            0    1217.9739     18.00507    23.264585    22.100206    9257.3449    1541.5386    1144.5681    967.81507   -693.23318   -700.04315    131.70809   -4102.9086 
20844000    132.46743     -4485.76   -4258.7154     -4485.76            0    575.29005    17.957193    23.384437    22.070808     9267.948   -286.39509    580.08166    1432.1836   -142.12324   -121.76605     560.7401   -4180.9572 
20845000    134.77227   -4494.5235   -4263.5285   -4494.5235            0    2392.2366    17.961023     23.54795    21.720642     9186.643    1735.9004    2564.0625    2876.7468   -1025.6194    183.43867   -155.67085    -3943.022 
20846000    140.19679   -4484.2269   -4243.9344   -4484.2269            0    2442.3301    18.034284    23.242942    21.915996    9186.5238    1882.5665    2131.5302    3312.8937   -861.56382    -846.7002   -54.116218   -3916.7207 
20847000    141.01054   -4495.0681   -4253.3808   -4495.0681            0    2253.5311    17.888475    23.559047    21.790592    9183.3272    1949.8555    1281.4155    3529.3223   -798.75518    232.45369    632.62389   -3951.5668 
20848000    135.73066   -4504.5784   -4271.9407   -4504.5784            0    1518.7216    18.103901    23.288515     21.92211    9242.6461     690.7266    2502.5557    1362.8826   -628.67777   -194.17332    242.98634   -4067.2253 
20849000    140.69137   -4491.4689   -4250.3287   -4491.4689            0    2888.2503    17.929358    23.216746      22.0169    9164.7847    2184.6408    3268.2355    3211.8747    543.52021    257.55102    347.92749   -3864.2881 
20850000    134.28134    -4492.155   -4262.0013    -4492.155            0    2469.6703    17.732974    23.391802    22.064697    9152.5733    2388.3054    1337.0089    3683.6967   -110.47344    321.52671   -67.372111   -3932.3475 
20851000    135.28019   -4503.8777   -4272.0121   -4503.8777            0    2547.5432     17.98863    23.259541    21.919268    9171.1813    2785.7089    2484.7852    2372.1354    703.12972    24.772478    454.28953   -3931.2724 
20852000    138.74946   -4482.7525   -4244.9407   -4482.7525            0    1781.4755    17.930265    23.480837    21.879811     9211.786    2230.6132    1168.0423    1945.7712    42.632998   -44.960235     104.7046   -4005.6094 
20853000    136.79009   -4480.2419   -4245.7883   -4480.2419            0    1755.7504    17.869822    23.389827    22.041644    9212.7913     1437.794    1768.6417    2060.8155    149.43035   -67.094868   -497.74217   -4009.8873 
20854000     138.5306   -4490.3789   -4252.9422   -4490.3789            0    1421.3221    17.938985    23.150302    22.191813    9216.1031    1433.2252     2296.506    534.23518   -76.404867    318.23791    484.18681   -4061.9059 
20855000    140.37055      -4486.4   -4245.8096      -4486.4            0    2237.2828    17.956538    23.407858    21.959662    9230.1753    2369.9432    2058.9532     2282.952    277.35127   -206.16096    268.05229   -3944.6431 
20856000    127.37727   -4486.1654   -4267.8452   -4486.1654            0    2174.2242    18.059637    23.290719    21.911275     9216.363    2994.0409    2432.2225    1096.4091   -192.82491    -561.4451    -372.0834   -3975.6051 
20857000    131.39084   -4493.0873   -4267.8879   -4493.0873            0    2127.1084    18.034536    23.359228     21.91093    9230.4801    2058.8379    2035.4289    2287.0585   -59.071848    89.651201   -142.63969   -3981.5428 
20858000    135.36223   -4487.5401   -4255.5339   -4487.5401            0     1014.888    18.043214    23.558422    21.787064    9261.0194    623.38732    2001.5382    419.73832    944.05139   -64.618894    618.61877   -4118.4606 
20859000    137.84555   -4498.1423   -4261.8797   -4498.1423            0    1838.4267    18.032369    23.336314     21.93779    9231.6198    1141.8812    2368.4085    2004.9905    385.89491    311.06002    9.7324167   -4014.3655 
20860000    137.31088   -4494.0641    -4258.718   -4494.0641            0    2457.4251    17.853428    23.483336    21.925027    9192.2441    2462.9438    2836.6245     2072.707   -378.88656    137.40674    103.80162   -3929.2769 
20861000    139.59364   -4485.3841   -4246.1254   -4485.3841            0    2421.3941    17.875799     23.47268    21.901483    9189.7068    2889.8722    1986.3266    2387.9835   -78.980182    538.71756   -120.71028   -3921.6042 
20862000    138.81958   -4493.3444   -4255.4124   -4493.3444            0    2405.0552    18.049498     23.20038    21.955711    9194.0683    954.87332    3519.8956    2740.3967    1029.3436   -8.6202792    297.75307    -3932.928 
20863000    134.18607   -4490.4378   -4260.4474   -4490.4378            0    2060.3473    17.853923    23.456177    22.022472    9222.6759    3338.7504    1648.2509    1194.0405   -944.50863     331.6917   -404.16359    -3983.324 
20864000    148.21924   -4485.7119   -4231.6692   -4485.7119            0     1625.877    17.917591    23.384031    22.070035    9247.0246    1437.1467    826.68582    2613.7984    101.39287     330.1662    -764.2242   -4012.4061 
20865000    144.79122   -4494.5589   -4246.3917   -4494.5589            0    1647.8711     18.06215    23.179018    22.059031    9235.2982     844.0657    2691.9637    1407.5839     249.3215     135.3177    310.95138   -4024.4443 
20866000    135.27342   -4495.8427   -4263.9887   -4495.8427            0    1599.7247    17.875292    23.465168    22.024958    9238.2968    2239.8425    987.59438    1571.7372    465.98528   -309.79549    174.26863   -4048.4561 
20867000    127.61006   -4491.3865   -4272.6672   -4491.3865            0    2243.2554    17.982323    23.411943    21.906143    9222.5106    2542.7507    1600.7296    2586.2859   -1047.1091   -356.60982   -198.64863   -3970.9474 
20868000    137.37909   -4503.6471    -4268.184   -4503.6471            0    1582.9648    18.060011     23.35487    21.879187     9228.405    1354.9805    326.66747    3067.2464   -149.04978   -368.16615   -273.90755   -4055.1379 
20869000    138.36897   -4482.3286   -4245.1689   -4482.3286            0    2749.0733    17.848592    23.601369     21.73612    9156.3671    3601.8517    1997.3661    2648.0019   -539.17367    94.352427     250.5385    -3878.068 
20870000    142.49056   -4502.1484   -4257.9245   -4502.1484            0     3123.823    18.006034     23.20294    21.910588    9154.0884    3513.9181    3325.1244    2532.4264    741.28025    23.386207   -14.938377   -3840.8848 
20871000    143.49864   -4509.8239   -4263.8721   -4509.8239            0    2345.1134    17.951073    23.391954    21.882516     9188.702    2020.6831    1653.2788    3361.3785    -57.96949    572.02605    108.60401   -3949.6086 
20872000    142.37894   -4483.4812   -4239.4486   -4483.4812            0    2019.2669    17.968021    23.344199    21.967953    9214.4371    1918.0643     1881.342    2258.3944     541.1126   -179.35137   -123.72391   -3968.0932 
20873000     128.2734   -4495.4489   -4275.5927   -4495.4489            0    1608.4087    18.076244    23.214609    22.022737    9241.4658    1678.8924    1696.0283    1450.3053    -118.8147   -371.69407     1184.044   -4058.8157 
20874000    138.95412   -4481.7005   -4243.5379   -4481.7005            0     2033.499    17.801776    23.418613     22.09428    9210.9488    2378.9002    2583.0729     1138.524   -1013.5938   -495.92616   -19.694749   -3970.3734 
20875000    144.71867   -4482.3525   -4234.3097   -4482.3525            0     1974.834    17.918441    23.311103    22.084184    9224.5331    2586.8053    1539.0687     1798.628   -138.05863    280.66143   -355.41311   -3968.6345 
20876000    134.80636   -4487.7226   -4256.6692   -4487.7226            0    2107.9369     17.87782    23.229817    22.162777    9204.1675    2970.6798    2902.3218    450.80911    710.29389   -533.64359   -239.24127   -3973.7137 
20877000    140.27878   -4490.1705   -4249.7374   -4490.1705            0    2249.5092    17.783468    23.414657    22.077799    9193.0586    2867.7772    2428.7138    1452.0366    -774.3474   -158.85358     114.3212   -3948.1427 
20878000    144.04202   -4498.6516   -4251.7685   -4498.6516            0    1061.0596     18.03195    23.284946    22.046313     9256.651    272.43111    1778.5563    1132.1915   -77.299639    512.41603   -78.445758   -4108.5268 
20879000    148.83433    -4497.345   -4242.2481    -4497.345            0     1887.816    18.050936    23.278713    21.893635    9199.7614    2495.5119    1092.5057    2075.4303   -441.19153    268.64855   -448.85691   -3988.9615 
20880000    134.54807   -4499.5939   -4268.9831   -4499.5939            0    1477.9886    17.795665    23.575186    21.986074    9223.9517      1781.28    491.86493     2160.821    -428.7009    -233.5402    29.127039   -4070.1613 
20881000    135.81995   -4503.1901   -4270.3994   -4503.1901            0    1698.7273      17.9713    23.219439    22.073841    9211.0499    1725.0295    1009.4345    2361.7178   -155.85117   -18.812696    81.045668    -4042.203 
20882000    137.00594   -4477.3784   -4242.5549   -4477.3784            0    1975.5329    17.963204    23.293228    22.002611    9206.3543    2170.0687    2933.6695     822.8606   -810.15244   -296.89074   -124.21029   -3977.3095 
20883000    134.11382   -4492.4103   -4262.5438   -4492.4103            0    925.88601    18.013796    23.487983    21.849379    9244.6412    633.69448   -542.28267    2686.2462   -80.351098    205.57526    111.69348   -4137.7125 
20884000    141.53012   -4512.2056   -4269.6278   -4512.2056            0    2063.0157    18.016337    23.344845    21.864399    9195.9167    1282.2571    2836.4264    2070.3634    999.26081   -527.60855    412.90956   -3992.9506 
20885000    130.02583   -4495.8534   -4272.9935   -4495.8534            0    2509.7969    17.990964    23.334854    21.864536    9179.0939    1276.4956     1559.797    4693.0982   -710.71531   -230.67923   -239.53255   -3937.0129 
20886000    137.55516   -4490.1655   -4254.4007   -4490.1655            0    2752.3275    17.924428    23.238946    21.979061     9155.264    1834.5165    3609.4397    2813.0264    31.721714    -553.5755    545.38168   -3886.9096 
20887000    135.11967   -4500.7083   -4269.1178   -4500.7083            0    2277.4168    17.879666    23.438985    21.934354    9192.2756    3391.8244    1935.3819     1505.044    295.92023   -33.151699    506.94267   -3963.8075 
20888000    133.01029   -4482.9256   -4254.9505   -4482.9256            0    1551.4908    17.965794     23.33176    21.986062    9215.9765     1968.171    1422.3622     1263.939     203.5154    101.42034    427.40517   -4046.4215 
20889000     133.2437   -4510.2602   -4281.8851   -4510.2602            0    2306.9236    17.810239    23.479367    21.944926    9176.7786     2551.297     1745.433    2624.0409    1003.7252   -713.50404    731.86328   -3973.1405 
20890000    130.13221   -4476.1943   -4253.1521   -4476.1943            0    2376.8503    17.822014    23.285303    22.084735    9164.9664    3527.4721    2569.3996    1033.6793     496.2066   -193.79262   -296.21272   -3935.4584 
20891000    132.22432   -4498.6998   -4272.0719   -4498.6998            0    1454.1573    17.932636    23.278264    22.041856    9201.1661    1044.3525    1828.8564     1489.263    86.490832   -365.09251   -321.41215   -4076.9391 
20892000    134.37434   -4494.9976   -4264.6846   -4494.9976            0    2030.9736    17.916646    23.336339     21.96275     9182.822    2124.2235    2715.7314    1252.9659   -995.97339    17.169961    690.94356   -3992.6925 
20893000    130.79916   -4483.8665   -4259.6812   -4483.8665            0     3000.486    18.043604    23.092585    21.963649    9151.6694    2609.6982    3601.3206    2790.4391   -196.01605   -274.71908     316.5477   -3859.2132 
20894000    135.96296   -4492.3425   -4259.3066   -4492.3425            0    1503.3634    17.865548    23.389016    21.991499    9189.3149     1777.756    1307.4671    1424.8672   -928.02781   -86.573363    59.659119   -4057.8308 
20895000    143.63917   -4488.3068   -4242.1141   -4488.3068            0    1808.4065    18.032362    23.278524    21.953688    9215.4286    2362.9498    1801.5426    1260.7271    309.32416    15.909627   -56.155778   -3999.0687 
20896000    133.50131   -4493.4133   -4264.5966   -4493.4133            0    1749.1414    18.024737    23.262609    21.942684    9200.6206    2884.8186    1509.1505    853.45518   -576.97415    260.21329   -450.16422    -4029.894 
20897000    128.58563   -4494.1739   -4273.7826   -4494.1739            0    2526.2978    17.747323    23.487084    22.028672    9182.2746    3464.1024    2026.1198    2088.6713   -809.69429    528.11757     215.1913   -3935.4758 
20898000    133.35336    -4504.098   -4275.5349    -4504.098            0     2748.219    18.020567    23.158814    21.976644    9171.6214    2142.0754    4576.4886    1526.0929   -513.36337   -549.10407   -166.83717   -3907.9367 
20899000    142.37025   -4481.2845   -4237.2667   -4481.2845            0    1617.5663    18.013295    23.367851    21.949375    9239.1941    1114.7697    2704.5489    1033.3803   -703.65843    149.15203   -183.59888   -4019.3091 
20900000    127.32799   -4476.4907   -4258.2549   -4476.4907            0    2398.2719    17.661219    23.592064    22.084289    9201.7417    4173.0976    1378.7703    1642.9477   -525.39832   -561.88539    -441.2316   -3936.4116 
20901000    138.85877    -4483.126   -4245.1268    -4483.126            0     1417.451    18.046933    23.310377    21.913346    9218.5243    647.30866    2122.1436    1482.9008    64.482914    200.81272   -17.767345   -4054.5608 
20902000    131.35367   -4497.3209   -4272.1852   -4497.3209            0    1616.0779     18.00426    23.572431    21.698914    9209.1098    1964.4594    741.83592    2141.9384    11.476007   -32.831682    229.14267   -4055.1372 
20903000    132.23517   -4477.7835   -4251.1369   -4477.7835            0     2287.185    18.019973    23.385736    21.794917    9184.6032    2656.0186    982.54156    3222.9947    330.60669    146.97385    270.23446   -3944.7731 
20904000    132.02055     -4493.04   -4266.7613     -4493.04            0    1230.5054    18.077926    23.210428    22.004546    9233.0283    1781.9084    1946.1816   -36.573777    498.74098   -226.34925    394.74727   -4101.0685 
20905000    139.15794   -4496.9451   -4258.4332   -4496.9451            0    1758.8237    17.866519    23.480248    21.987991    9224.1888    1716.0108    585.45732     2975.003   -278.67342   -800.21977   -371.25908   -4021.8268 
20906000    132.20656   -4508.5099   -4281.9124   -4508.5099            0    2197.7272    17.839567    23.364838    22.047951    9189.9955    3695.1504    3280.6456   -382.61433    -222.9455    -300.1203    493.28553   -3987.3583 
20907000    137.61106   -4501.5874   -4265.7267   -4501.5874            0    1958.5241    18.019807    23.201436    22.054014    9220.4609    1476.3108    3030.4231    1368.8384    -398.7157    313.19082    558.56469   -4002.3621 
20908000    135.61797   -4498.5933   -4266.1488   -4498.5933            0    2463.6372    17.853073    23.398834    21.979231    9181.6279    2544.7768    2358.5047    2487.6302   -1006.5456    539.20147   -298.37101   -3936.2564 
20909000    139.29405   -4497.2922   -4258.5469   -4497.2922            0    2660.7843    18.047281    23.156648    21.958618    9176.8257    3280.6145    2513.9525     2187.786    400.07211   -343.73819    720.04036   -3902.4419 
20910000    141.36249   -4481.9072   -4239.6168   -4481.9072            0     1787.356    18.051917    23.391793    21.820348    9214.0065    717.71499      1886.41    2757.9429     79.49091   -63.792016    173.41769   -3999.4375 
20911000    128.45339   -4496.5758   -4276.4111   -4496.5758            0    1909.7429    17.914528    23.586746    21.830115    9224.2154    2261.0563    1549.2088    1918.9636    -826.8302    -343.0354   -354.89073   -4019.5016 
20912000    131.34614   -4490.5564   -4265.4336   -4490.5564            0    1175.2893    17.988939    23.438062    21.923593    9243.5536    614.77877    840.35931    2070.7298    574.94874    -706.0393   -400.07706   -4106.9955 
20913000    134.22749   -4484.8216   -4254.7603   -4484.8216            0    2585.6506    17.777479    23.464442    22.021834    9186.1574    2534.5511    1547.8245    3674.5762    909.43004   -15.443534   -260.37195   -3908.3589 
20914000    139.22089   -4502.2513   -4263.6314   -4502.2513            0    2093.1791    17.908691    23.315084    22.032601    9199.5499    3081.7866     1395.214    1802.5367   -508.64408   -489.54134   -113.17308   -3982.7979 
20915000    135.98784   -4489.4446   -4256.3661   -4489.4446            0    1152.7672    17.926718    23.425579    22.054305     9261.568    250.26702    2902.0184    306.01608    1188.4782   -379.54091    236.35667   -4100.6613 
20916000    137.87727   -4486.5518   -4250.2348   -4486.5518            0    1243.0907    17.927343    23.480619    21.987893    9255.6958    1503.9053    1524.1863    701.18058   -316.33352   -12.171852   -451.10893   -4082.4365 
20917000    131.30642   -4493.8253   -4268.7706   -4493.8253            0    2714.9126    18.048456    23.183072    21.886712    9157.8087    2670.9212    2648.1042    2825.7125   -258.05803    504.65524   -169.39253   -3906.1743 
20918000    144.78456   -4484.3994   -4236.2436   -4484.3994            0    1628.5263      17.9734    23.426024     21.95428    9243.7462    1846.4184    1733.3606    1305.7998   -818.17103    333.48094    99.898291   -4016.7011 
20919000    145.03949   -4487.3748    -4238.782   -4487.3748            0    1763.0363    17.924745    23.331018    22.073044    9231.0031    2682.6818    2674.0713   -67.644127   -349.40946   -183.37779    361.77631   -4001.4338 
20920000    138.97825   -4490.9374   -4252.7335   -4490.9374            0    1816.7075    17.998194     23.18203    22.105783    9223.2993    1807.3784    2126.4232    1516.3208   -179.04534    521.39714   -602.06598   -4008.3639 
20921000    137.20269   -4490.4159   -4255.2552   -4490.4159            0    2887.2491    17.875436     23.41826     21.81241    9130.9282    2534.6032    2249.0523    3878.0918    836.14497     67.21131   -184.74629    -3870.774 
20922000    140.88777    -4499.539   -4258.0622    -4499.539            0    1975.1992    18.012665     23.29402    21.847225      9166.82    2034.6877    1886.9538     2003.956    256.59008    138.81355     239.3036   -3994.0005 
20923000    139.88287   -4500.1789   -4260.4244   -4500.1789            0    2396.5437    17.909259    23.373133    21.905719    9169.6356    2723.7606    2364.7196     2101.151    52.856229   -550.53107   -631.45034   -3939.9353 
20924000     131.6288    -4493.899   -4268.2918    -4493.899            0    693.30543    18.010035    23.441211    21.931315    9258.8974    684.51345    496.29224    899.11061    109.99004     353.5564    386.96031   -4174.6737 
20925000    140.33432   -4487.7747   -4247.2465   -4487.7747            0    2359.4676    17.999052    23.473787    21.719151    9176.4696    1697.7995    2532.8744    2847.7288   -239.12143    23.910868     46.22264   -3931.4804 
20926000    138.66931   -4498.9575    -4261.283   -4498.9575            0    1961.7967    17.904946    23.226707    22.123711    9200.6524    1380.6486    1909.2731    2595.4684    566.70731     208.6815   -266.60266   -3998.0451 
20927000    138.92155   -4478.9736   -4240.8668   -4478.9736            0    1787.4474    17.923421    23.142859    22.199152    9208.1908    3109.7752    2143.1055    109.46166    44.465294   -88.772292    229.64184   -4000.8269 
20928000    141.98862   -4489.0737   -4245.7101   -4489.0737            0    1114.9098    17.852179    23.505071    22.006024    9234.0956    1784.6167    1001.9183    558.19437   -463.85507    -366.7911    204.79718   -4095.5654 
20929000     136.8199   -4490.1169   -4255.6123   -4490.1169            0    2858.5647    18.008241     23.32203    21.821664    9164.8533    3233.0735    3109.3689    2233.2516    104.47548    -962.5176    371.47795   -3873.5366 
20930000    134.10646   -4492.5688   -4262.7149   -4492.5688            0     1337.664    18.027199    23.281676    22.024991    9243.9639    901.62432     1611.725    1499.6428    220.71186    673.64271   -65.649039   -4082.3794 
20931000    136.29357   -4483.3743   -4249.7718   -4483.3743            0    2969.2199    17.848269    23.406828    21.992859    9187.9869    2821.2918    3267.5012    2818.8666   -1759.1146   -391.50463    895.87126   -3851.9042 
20932000    138.41469   -4472.6002   -4235.3622   -4472.6002            0    2870.7671     18.03026    23.241718    21.944814    9196.0665    2369.2047    2829.6905     3413.406   -737.90859   -226.33016    401.45217   -3850.3487 
20933000    128.67348   -4485.9897   -4265.4477   -4485.9897            0    2753.4069     17.98793    23.310428    21.895525    9180.9331    2742.0557    2224.1431    3294.0219   -562.73175   -469.89745    28.730205   -3896.7817 
20934000    135.79122   -4499.3234   -4266.5819   -4499.3234            0    2411.0145    17.888423    23.360065    21.958543    9175.9199    2527.5751    2732.2312     1973.237   -528.37397    125.42662    528.87018   -3943.9366 
20935000    139.38867   -4484.1812   -4245.2738   -4484.1812            0    1807.8626    17.886364    23.190326    22.189045    9203.8077    1587.2862    2326.6099    1509.6919    298.06425    215.02207    190.68913   -4002.6078 
20936000     141.4111   -4486.2973   -4243.9235   -4486.2973            0    2881.1611     17.94509    23.310598    21.910422    9165.3659    2268.2064    3336.3331    3038.9439   -822.19402    7.8107111    -344.7741    -3858.806 
20937000    136.19329   -4496.5938   -4263.1631   -4496.5938            0    1551.1614    18.006464    23.548635    21.755181    9224.7986    1209.7078    602.81235     2840.964    222.65989    342.24308   -54.774974   -4054.4788 
20938000    143.41074   -4483.4203   -4237.6192   -4483.4203            0    2341.5772    18.011565    23.261812    21.993149    9214.7257    2967.5118     2372.833    1684.3868    504.78672    617.17013    180.66874   -3922.9409 
20939000    133.52384   -4498.6998   -4269.8445   -4498.6998            0    2468.9082    17.897532    23.279733    22.029436    9178.5593    2129.5259    2686.8545    2590.3442    81.706161    359.98806   -705.45685   -3939.3568 
20940000    143.88246    -4479.607   -4232.9974    -4479.607            0    2721.9033    17.945376    23.278039    21.981947     9182.588    2628.3968    2056.7426    3480.5705    191.24091    643.54406    449.09852   -3868.4839 
20941000     137.2992   -4484.0772   -4248.7511   -4484.0772            0    2422.1817    17.895332    23.538909    21.809316    9186.8815    2857.1681    1225.9963    3183.3808    -86.51704   -174.20319    137.15429   -3924.2242 
20942000    140.86364   -4493.4692   -4252.0337   -4493.4692            0    1895.6106    18.063358    23.322208    21.906847    9228.8594     1201.821    2492.2639    1992.7469    77.367498   -65.810441    746.63436   -3996.8969 
20943000    138.48846   -4490.0136   -4252.6491   -4490.0136            0    1321.2135    18.071099    23.202026    22.000549    9224.5247    1865.8485    1549.6423    548.14984   -247.56585    416.56519    794.88979   -4074.9059 
20944000    143.50168   -4486.2972   -4240.3403   -4486.2972            0    964.82974    17.831702    23.523373    22.017982    9235.7017    655.48355    1284.2743    954.73137   -44.624604    302.93861    121.69669   -4110.3842 
20945000    137.59001   -4492.3397   -4256.5151   -4492.3397            0     2181.606    18.004567    23.222499    21.994288    9196.0546    2278.0303    1341.3871    2925.4007   -228.10051    668.27661    445.34632    -3963.929 
20946000    145.01344   -4504.2467   -4255.6986   -4504.2467            0    2055.0353     18.00287    23.213041    21.964119    9178.8355    1296.7776    3217.1299    1651.1984    584.59631   -235.39746    270.53428   -3980.6036 
20947000    139.60931   -4494.6258   -4255.3402   -4494.6258            0    1566.0823     17.92257    23.420806    21.987551    9229.5175     2158.919    1082.0557    1457.2723     -523.982   -405.67663    138.47398   -4044.5407 
20948000        142.3   -4497.4235   -4253.5261   -4497.4235            0    1116.3721    17.979569    23.332961    22.026553    9240.5043    174.62785    2694.1852    480.30318    96.631546   -2.0332761    132.94034   -4103.0802 
20949000    133.66739    -4471.161   -4242.0597    -4471.161            0    993.69487    18.050114    23.333676    21.955884    9247.2808    1033.7825    580.59626    1366.7059   -104.02988     443.3168    101.75411   -4108.0479 
20950000    139.19432   -4495.1856   -4256.6113   -4495.1856            0    2820.9689    17.959374    23.426334    21.842152    9189.4803    3290.0073    3128.5802    2044.3193   -206.60796   -188.25314    -154.9242   -3878.5475 
20951000    132.82492   -4483.3549   -4255.6975   -4483.3549            0     1479.514    18.003064     23.38736    21.913153    9226.4044    760.64879    2059.0264     1618.867   -71.682356    805.29128   -276.26071   -4056.6176 
20952000    135.27742   -4480.0217   -4248.1608   -4480.0217            0    2991.7174    18.109857    23.220731    21.792462    9164.2555    2004.6603    3009.1227    3961.3692    308.04322    38.755552    109.62954    -3848.314 
20953000     132.5627   -4494.9074   -4267.6995   -4494.9074            0    1727.3479    17.936057    23.447661    21.937047    9225.8133    1373.1264     1280.454    2528.4632   -227.60259   -16.604907    323.26797   -4035.2865 
20954000    135.61501    -4499.441   -4267.0015    -4499.441            0    780.97923    17.966423    23.366618    22.125716    9288.6971    852.23965    537.55879    953.13924    917.22254    -319.3443    415.35058   -4161.2052 
20955000    132.77687   -4499.2212   -4271.6462   -4499.2212            0    1483.4693    17.994149    23.209021    22.089658    9225.2283    1900.8518    1197.0061    1352.5499   -223.62024    651.57457   -152.26717   -4072.0595 
20956000    133.41313   -4494.9673   -4266.3017   -4494.9673            0    2621.0463    17.877972    23.326864    21.976109    9164.8514    3564.9223    2341.9767      1956.24   -1112.1013   -55.159053    786.34284   -3915.9728 
20957000    134.14272   -4486.7491   -4256.8331   -4486.7491            0    1803.0912    18.061093    23.249058    21.931397    9209.0679   -49.836008    2229.1251    3229.9844    -406.1102   -237.02708   -148.83324   -4014.6693 
20958000    141.51588   -4489.3638   -4246.8105   -4489.3638            0    2262.6207    17.991496    23.347105    21.876296     9189.124    1253.2617    2206.0799    3328.5204    759.77816    315.57763    117.90355   -3943.5877 
20959000    133.45586   -4483.8777   -4255.1389   -4483.8777            0    1734.4824    17.951814    23.419482    21.924381    9217.4963    1896.0941    2390.0333    917.31986    370.78977    324.65488   -243.94654   -4021.9764 
20960000    142.88715   -4485.9462   -4241.0426   -4485.9462            0    2077.4292    18.018863    23.256357    21.947257     9197.066    2481.4144    1401.2014    2349.6718    61.641482    476.99717    439.39427   -3962.3974 
20961000     138.3365   -4496.8221   -4259.7181   -4496.8221            0    2261.0731    18.037641    23.330105    21.837296    9189.5716    1085.1856    2819.1913    2878.8424   -857.20213    58.510404    997.86085    -3956.688 
20962000    144.69281   -4501.9865    -4253.988   -4501.9865            0    1778.2573    17.890208    23.489798    21.940248     9220.112    2453.5472    127.15155     2754.073     149.6106   -329.38519    288.34484   -4014.8731 
20963000    136.54005   -4477.0752   -4243.0502   -4477.0752            0    2509.0242    18.011009     23.10038    22.038924    9169.5402    2494.0345    2877.6141    2155.4239     264.8901    65.183672   -195.17123   -3907.5226 
20964000    131.93802   -4487.7068   -4261.5696   -4487.7068            0    1730.5205    17.999266    23.385203    21.927768    9229.7591    1938.7135    1053.3009    2199.5472   -269.56873   -365.47838   -147.78362   -4028.6302 
20965000    127.36493   -4500.9973   -4282.6981   -4500.9973            0    1225.9769    17.958502    23.434907    21.955313    9240.0217    1282.5472    18.018418    2377.3652    366.18541    151.10155   -13.069423   -4117.4901 
20966000    134.97157   -4494.7809   -4263.4442   -4494.7809            0    1532.4336     17.99331    23.183926    22.103806    9220.7256     1553.567    1843.0847     1200.649   -154.90838   -98.496656    207.46635   -4057.3705 
20967000    136.24699   -4499.5787    -4266.056   -4499.5787            0    2830.1915     17.87694    23.352069     21.92774    9154.0318    3184.3569     2175.879    3130.3387     137.1323    651.80641   -34.157845   -3888.2193 
20968000    136.54052   -4485.1524   -4251.1266   -4485.1524            0    2452.2465     17.96963    23.494832    21.789448     9199.362    2010.7925    2096.0363    3249.9106   -797.97238   -544.27093     870.4839   -3922.1253 
20969000    135.93865   -4482.6082    -4249.614   -4482.6082            0    2464.9605    18.123675    23.238073    21.843483    9199.5859    1628.4802    2139.0753    3627.3261    402.25956    529.06683    168.90925   -3918.8988 
20970000    137.86289   -4505.6077   -4269.3154   -4505.6077            0       2497.1    17.740585    23.625491    21.898802    9178.4453    3157.4054    2209.5143    2124.3803    126.84824    240.58289    236.74748   -3935.0581 
20971000    139.31222   -4496.2948   -4257.5184   -4496.2948            0    1358.2014    17.931817     23.30491    22.134862     9250.145    1864.3534    1908.7904    301.46033    639.68438   -356.88914    447.48585   -4074.2918 
20972000    135.93361   -4499.6044   -4266.6189   -4499.6044            0    1738.7058    17.942242    23.321601    22.056406    9229.3227    1901.5091    2091.2964    1223.3119    200.32257   -609.05876    152.67914   -4032.5887 
20973000    138.39001   -4503.8969   -4266.7011   -4503.8969            0    2256.6128    18.133429    23.220329    21.844322     9197.862    2340.8787    1465.7351    2963.2245    -8.040413   -534.45937    632.51799    -3963.996 
20974000    138.46076   -4494.7616   -4257.4446   -4494.7616            0    1793.8351    18.008558    23.459011     21.82729    9221.2218    1988.6502    1796.3428    1596.5124    578.72968    350.56204   -427.08161    -4016.206 
20975000    132.48154   -4490.3921   -4263.3233   -4490.3921            0    1499.2459    17.968849    23.535331     21.84385    9237.8253    1164.5721    1449.6655    1883.5001    245.90452   -208.18182   -80.861274   -4061.3386 
20976000    142.43756   -4500.2296   -4256.0965   -4500.2296            0    2566.5617     18.01706    23.177421    21.992897    9183.9919    2141.5101    3768.0995    1790.0755    427.20408    131.63775     216.8139   -3912.3335 
20977000    144.63392   -4473.2493   -4225.3517   -4473.2493            0    1158.1345    17.948444    23.405793    22.025338     9252.791    922.50156    1223.8652    1328.0369   -134.43754    269.91758    538.87429   -4069.0702 
20978000    146.43567   -4488.7925   -4237.8068   -4488.7925            0    2749.7922    17.711543    23.395757    22.172204    9187.6058    3627.2148    2865.4289    1756.7329    890.52309   -793.16062   -345.22368   -3869.3572 
20979000    143.09624   -4491.0063   -4245.7442   -4491.0063            0    1437.1603    18.014989    23.173646     22.14663    9245.6196    1392.8931    1776.9959    1141.5919    220.26299    90.385962   -631.49529   -4051.9606 
20980000    145.86509   -4486.7092   -4236.7014   -4486.7092            0    2354.8271    17.939001    23.543342    21.794806     9204.906    3384.7143    1268.1451    2411.6219   -447.37125    567.46349    190.42672   -3920.5798 
20981000    140.74552   -4489.4433   -4248.2103   -4489.4433            0    1621.5069    17.999323    23.349293    21.932902    9217.7728     1892.841    1424.1652    1547.5145    164.88594   -34.456275     1122.397   -4030.2282 
20982000    139.40597   -4493.1658   -4254.2288   -4493.1658            0    945.26994     18.19443    23.247318    21.804505    9222.6886   -343.18883    968.34545    2210.6532    299.22173   -235.77787   -452.88849   -4127.0867 
20983000    137.31633    -4499.672   -4264.3165    -4499.672            0    2368.4909    17.935255    23.341246    21.933549    9182.0673    2388.5788    1613.7839    3103.1101   -420.97423   -206.68598    494.67002   -3947.1495 
20984000     137.6502   -4478.8101   -4242.8824   -4478.8101            0    2480.2226    18.126014    23.328522      21.7647    9203.2713    1582.1098    2310.6153    3547.9426    441.15972   -147.02534    59.005446   -3909.9862 
20985000    135.52108   -4497.7298   -4265.4513   -4497.7298            0    2606.1928    17.943875    23.274771    21.937833    9162.1075    3355.7947    2198.6866    2264.0972    538.72958    260.31132   -384.31095    -3917.212 
20986000    133.93999   -4489.7916   -4260.2231   -4489.7916            0    1885.7786    17.911816    23.348091    22.013697    9206.2758    2608.8922    1778.4442    1269.9993    471.45492   -76.058073    137.26798   -4007.0307 
20987000      136.975   -4489.6197   -4254.8492   -4489.6197            0    2389.9783    17.792871    23.369442    22.045485    9166.7212    2221.2172    2801.5318    2147.1861    269.21882   -329.68187   -402.48608   -3935.3396 
20988000    134.92108   -4478.5692   -4247.3191   -4478.5692            0    3154.4399    17.876508     23.19229     22.10958    9166.5691    3159.1879    2940.5448    3363.5871    852.20377   -844.91046    229.00889   -3825.6178 
20989000     141.0757   -4498.9548   -4257.1559   -4498.9548            0    351.43799    18.015905    23.412723    22.039824    9296.4289   -13.899437    680.22978    387.98361   -61.950745   -945.73877   -356.40212   -4209.5083 
20990000    138.97147   -4488.1418   -4249.9495   -4488.1418            0    2413.8023    18.151319    23.400518    21.629921    9187.3146    1678.7917    2381.5233    3181.0919   -110.17932   -453.30905     53.55675     -3926.53 
20991000    136.42301   -4501.0082   -4267.1838   -4501.0082            0    1589.7764    18.018497    23.424459    21.890818    9239.5354    1548.8293    2274.0514    946.44835    601.71794    468.22514    806.74417   -4052.9628 
20992000    135.15618   -4490.0674   -4258.4143   -4490.0674            0    899.97289    18.037309    23.333628    21.938634    9233.4415    460.36918    154.48563    2085.0639    297.49233    10.925538    -167.0218   -4137.2237 
20993000    135.31161   -4473.4621   -4241.5426   -4473.4621            0    2044.1062     17.85449    23.542548     21.96502    9232.7805    2225.0045    1896.1171     2011.197    696.45458   -350.36577   -213.08697   -3966.3024 
20994000    135.70983   -4480.1136   -4247.5116   -4480.1136            0    2691.7896    17.863276    23.377163    22.065977    9214.5907    3542.8719    2657.1335    1875.3633   -181.76131   -906.82865   -121.85216   -3885.7745 
20995000    141.00124     -4478.95   -4237.2787     -4478.95            0    2438.2009    17.982347    23.202134    22.093025    9217.8471    3059.6358      1101.36     3153.607    31.714085   -160.54736    89.944378   -3909.5044 
20996000    140.61762   -4499.4142   -4258.4004   -4499.4142            0    1184.6117    17.919802    23.360564      22.0822    9243.9773    1546.2229    986.32053    1021.2917    137.24978    40.894023   -465.50809   -4098.6983 
20997000    128.74991   -4482.2257   -4261.5528   -4482.2257            0    1009.1473    17.933572    23.316618    22.192469    9279.7862    344.13515    1452.3818    1230.9251    471.58891    13.765588    162.34903   -4124.9786 
20998000    145.81474   -4493.5325   -4243.6111   -4493.5325            0    1953.6866    17.981524    23.317011    22.026106    9235.0044    2645.5472    2073.9183    1141.5943    529.11831    369.27643    366.30924   -3980.4826 
20999000    132.74785   -4495.8309   -4268.3056   -4495.8309            0    2508.0971    17.940726     23.35339    21.897287    9174.4545     1926.388    3202.5167    2395.3866    482.32964    336.92362    378.52179   -3932.7222 
21000000    144.47226    -4482.098   -4234.4775    -4482.098            0    971.63451    18.162004    23.376172    21.855734    9279.0293    927.85428    1036.8326    950.21664    26.799238     -513.825   -194.54526   -4102.9909 
Loop time of 373.159 on 64 procs for 250000 steps with 864 atoms

Performance: 115.768 ns/day, 0.207 hours/ns, 669.955 timesteps/s
194.7% CPU use with 32 MPI tasks x 2 OpenMP threads

MPI task timing breakdown:
Section |  min time  |  avg time  |  max time  |%varavg| %total
---------------------------------------------------------------
Pair    | 16.96      | 24.946     | 33.009     | 102.1 |  6.69
Bond    | 0.83119    | 1.0256     | 1.5829     |  14.8 |  0.27
Kspace  | 184.79     | 195.01     | 205.07     |  40.4 | 52.26
Neigh   | 0.73075    | 0.80007    | 0.88603    |   4.6 |  0.21
Comm    | 59.805     | 63.953     | 68.63      |  28.3 | 17.14
Output  | 0.60717    | 0.60771    | 0.6093     |   0.0 |  0.16
Modify  | 67.334     | 70.056     | 73.768     |  20.9 | 18.77
Other   |            | 16.76      |            |       |  4.49

Nlocal:        27.0000 ave          40 max          17 min
Histogram: 3 4 7 2 4 2 3 1 3 3
Nghost:        2127.88 ave        2245 max        2021 min
Histogram: 9 7 0 0 0 0 0 3 10 3
Neighs:        6553.38 ave        9887 max        4254 min
Histogram: 6 4 5 2 4 2 2 2 4 1

Total # of neighbors = 209708
Ave neighs/atom = 242.71759
Ave special neighs/atom = 2.0000000
Neighbor list builds = 2950
Dangerous builds = 0

unfix		3
unfix		2
unfix		1

write_data	data.final.${pid} nocoeff
write_data	data.final.1 nocoeff
System init for write_data ...
PPPM initialization ...
  extracting TIP4P info from pair style
  using 12-bit tables for long-range coulomb (../kspace.cpp:340)
  G vector (1/distance) = 0.37186793
  grid = 24 27 25
  stencil order = 5
  estimated absolute RMS force accuracy = 0.0031298386
  estimated relative force accuracy = 9.4254159e-06
  using double precision FFTW3
  3d grid and FFT values/proc = 4410 672
Last active /omp style is kspace_style pppm/tip4p/omp

write_restart   restart.lmp.${pid}
write_restart   restart.lmp.1
System init for write_restart ...
PPPM initialization ...
  extracting TIP4P info from pair style
  using 12-bit tables for long-range coulomb (../kspace.cpp:340)
  G vector (1/distance) = 0.37186793
  grid = 24 27 25
  stencil order = 5
  estimated absolute RMS force accuracy = 0.0031298386
  estimated relative force accuracy = 9.4254159e-06
  using double precision FFTW3
  3d grid and FFT values/proc = 4410 672
Last active /omp style is kspace_style pppm/tip4p/omp
Total wall time: 0:06:13
