LAMMPS (30 Jul 2021)
  using 1 OpenMP thread(s) per MPI task
package omp 0
using multi-threaded neighbor list subroutines
echo both

include		in.partitions
variable        pid world 0
include		in.temp
variable        temperature equal 245.86
variable	tempDamp equal 100.0
include		in.pressure
variable        pressure equal 4625.0
variable        pressureDamp equal 1000.0 # This is 1 ps
include		in.seed
variable        seed world 745823

units		real
atom_style	full
read_restart	restart.lmp.${pid}
read_restart	restart.lmp.0
Reading restart file ...
  restart file = 30 Jul 2021, LAMMPS = 30 Jul 2021
  restoring atom style full from restart
  orthogonal box = (0.51555205 1.6987835 0.62897230) to (17.692020 21.930394 21.584224)
  4 by 4 by 4 MPI processor grid
  restoring pair style lj/cut/tip4p/long/omp from restart
  restoring bond style harmonic/omp from restart
  restoring angle style harmonic/omp from restart
  864 atoms
  576 bonds
  288 angles
Finding 1-2 1-3 1-4 neighbors ...
  special bond factors lj:    0        0        0       
  special bond factors coul:  0        0        0       
     2 = max # of 1-2 neighbors
     1 = max # of 1-3 neighbors
     1 = max # of 1-4 neighbors
     2 = max # of special neighbors
  special bonds CPU = 1.627 seconds
  read_restart CPU = 1.926 seconds
include 	in.setup
variable	out_freq equal 1000
variable	out_freq2 equal 10000
variable	out_freq3 equal 1000

timestep	2.0

neigh_modify    delay 7 every 1

include		in.tip4p
# This is TIP4P/Ice

# create groups ###
group ox type 2
288 atoms in group ox
group hy type 1
576 atoms in group hy

# set charges - beside manually ###
set group ox charge -1.1794
Setting atom values ...
  288 settings made for charge
set group hy charge 0.5897
Setting atom values ...
  576 settings made for charge

# ### TIP3P Potential Parameters ###
pair_style lj/cut/tip4p/long/omp 2 1 1 1 0.1577 8.5
pair_coeff 1 1*2 0.000 0.000
pair_coeff 2 2 0.21084 3.1668
bond_style  harmonic
bond_coeff  1 450 0.9572
angle_style harmonic
angle_coeff 1 55 104.52
kspace_style pppm/tip4p/omp 1.0e-5
pair_modify tail yes

thermo          ${out_freq}
thermo          1000
thermo_style    custom step temp pe etotal epair emol press lx ly lz vol pxx pyy pzz pxy pxz pyz enthalpy

restart 	${out_freq3} restart.lmp.${pid} restart2.lmp.${pid}
restart 	1000 restart.lmp.${pid} restart2.lmp.${pid}
restart 	1000 restart.lmp.0 restart2.lmp.${pid}
restart 	1000 restart.lmp.0 restart2.lmp.0


include         in.dump
dump            myDump all atom ${out_freq2} dump.water.${pid}
dump            myDump all atom 10000 dump.water.${pid}
dump            myDump all atom 10000 dump.water.0
dump            myDump2 all dcd ${out_freq2} dump.dcd
dump            myDump2 all dcd 10000 dump.dcd
dump_modify     myDump append yes
dump_modify     myDump2 append yes


variable natoms 	equal  "count(all)"                        # NUMBER ATOMS
variable H      	equal  "enthalpy/v_natoms"                 # ENTHALPY-per-atom
variable Vol      	equal  "vol/v_natoms"                 # volume-per-atom
fix AVG all 		ave/time ${out_freq} 1 ${out_freq} v_Vol v_H file vol_enthalpy.dat
fix AVG all 		ave/time 1000 1 ${out_freq} v_Vol v_H file vol_enthalpy.dat
fix AVG all 		ave/time 1000 1 1000 v_Vol v_H file vol_enthalpy.dat


timer           timeout 23:50:00 every 1000
New timer settings: style=normal  mode=nosync  timeout=23:50:00

fix 		1 all shake 1e-6 200 0 b 1 a 1
       0 = # of size 2 clusters
       0 = # of size 3 clusters
       0 = # of size 4 clusters
     288 = # of frozen angles
  find clusters CPU = 0.096 seconds
fix             2 all nph iso ${pressure} ${pressure} ${pressureDamp}
fix             2 all nph iso 4625 ${pressure} ${pressureDamp}
fix             2 all nph iso 4625 4625 ${pressureDamp}
fix             2 all nph iso 4625 4625 1000
fix             3 all temp/csvr ${temperature} ${temperature} ${tempDamp} ${seed}
fix             3 all temp/csvr 245.86 ${temperature} ${tempDamp} ${seed}
fix             3 all temp/csvr 245.86 245.86 ${tempDamp} ${seed}
fix             3 all temp/csvr 245.86 245.86 100 ${seed}
fix             3 all temp/csvr 245.86 245.86 100 745823

run             250000
PPPM initialization ...
  extracting TIP4P info from pair style
  using 12-bit tables for long-range coulomb (../kspace.cpp:340)
  G vector (1/distance) = 0.37484827
  grid = 24 24 25
  stencil order = 5
  estimated absolute RMS force accuracy = 0.0030074471
  estimated relative force accuracy = 9.0568378e-06
  using double precision FFTW3
  3d grid and FFT values/proc = 2730 288
Last active /omp style is kspace_style pppm/tip4p/omp
Neighbor list info ...
  update every 1 steps, delay 7 steps, check yes
  max neighbors/atom: 2000, page size: 100000
  master list distance cutoff = 10.8154
  ghost atom cutoff = 10.8154
  binsize = 5.4077, bins = 4 4 4
  1 neighbor lists, perpetual/occasional/extra = 1 0 0
  (1) pair lj/cut/tip4p/long/omp, perpetual
      attributes: half, newton on, omp
      pair build: half/bin/newton/omp
      stencil: half/bin/3d
      bin: standard
Per MPI rank memory allocation (min/avg/max) = 9.241 | 9.245 | 9.250 Mbytes
Step Temp PotEng TotEng E_pair E_mol Press Lx Ly Lz Volume Pxx Pyy Pzz Pxy Pxz Pyz Enthalpy 
 2750000    254.13981   -3919.8984   -3484.3114   -3919.8984            0    6998.6492    17.176468    20.231611    20.955251    7282.1095    5001.5526     6929.822    9064.5729    684.92561    167.81212    2570.5759   -2741.0402 
 2751000    245.09526   -3958.3051   -3538.2202   -3958.3051            0    3417.0248    17.295401    20.371698    21.100349    7434.4268    2632.9365    3977.2003    3640.9376    2331.6557   -651.90347   -1508.6443   -3167.7344 
 2752000    245.34318   -3951.2741   -3530.7643   -3951.2741            0    4249.3028    17.227276    20.291455    21.017236    7346.9214    3854.3489    4020.6301    4872.9294   -90.767388     1181.378   -2084.8827    -3075.463 
 2753000    235.82718   -3935.7928   -3531.5931   -3935.7928            0    4310.6856    17.267607    20.338961    21.066441    7398.6431    4600.6682    5095.3673    3236.0215    99.925572    1666.3666    38.958703   -3066.4631 
 2754000    237.27104   -3983.1495   -3576.4751   -3983.1495            0    3373.3126    17.309156    20.387899     21.11713    7452.1784    3415.7228    3179.6721    3524.5429   -290.43952    1260.5741    627.98759   -3209.8554 
 2755000    251.68371   -3964.0722    -3532.695   -3964.0722            0    4191.7065     17.36295    20.451262    21.182759     7521.876    3771.2546    4108.2757    4695.5892    528.15875     627.7499    1814.9792   -3072.8696 
 2756000    241.50533   -3940.0591   -3526.1272   -3940.0591            0    5481.0059    17.295922    20.372311    21.100984    7435.0983    5961.8768    5375.3984    5105.7426    -360.7991    32.013919    538.34777   -2931.8038 
 2757000    246.83421   -3938.0774    -3515.012   -3938.0774            0    4013.0578    17.351238    20.437466     21.16847     7506.664    4843.6898    3418.9285    3776.5549    1147.7183    178.95957    1396.8045   -3075.6745 
 2758000    246.02545   -3934.8981   -3513.2189   -3934.8981            0    4171.1515    17.290127    20.365486    21.093914    7427.6278     3140.596    4231.2986      5141.56   -1719.0229   -163.67734    1008.3374   -3061.3817 
 2759000    256.37753     -3948.94   -3509.5177     -3948.94            0    4101.1732    17.263873    20.334562    21.061885    7393.8444    2010.5157    4469.1527    5823.8511   -202.88709   -349.92514     314.9711   -3067.2815 
 2760000    248.05573   -3916.7143   -3491.5553   -3916.7143            0    5708.6243     17.17514    20.230047    20.953631    7280.4208    5556.1651    6682.0858     4887.622    1119.3789    406.79866   -1528.8259    -2885.428 
 2761000     251.4262   -3912.1186   -3481.1827   -3912.1186            0    4704.8399    17.290348    20.365746    21.094185    7427.9131     4771.438    3897.2956    5445.7861   -816.31673   -68.520324    1784.1772   -2971.5144 
 2762000    259.39728   -3902.9062   -3458.3081   -3902.9062            0     4048.239    17.277672    20.350815    21.078719    7411.5879    3723.0317    6179.9291    2241.7563    745.82978    280.53795    999.92759   -3020.7323 
 2763000    251.65514   -3880.4805   -3449.1522   -3880.4805            0     4934.278    17.299314    20.376307    21.105123     7439.474    4538.1546    4393.8223    5870.8569    323.27757    105.39399   -18.975279   -2913.7974 
 2764000     235.4779   -3912.2027   -3508.6016   -3912.2027            0    5056.1561     17.22695    20.291071    21.016838    7346.5044    6610.3736    2745.8334    5812.2613    1952.7943   -85.213032   -496.87484   -2966.8788 
 2765000    233.48384   -3894.6931   -3494.5098   -3894.6931            0    4112.3334    17.313227    20.392695    21.122097    7457.4383    4556.4406    2162.9612    5617.5985   -163.35507    1653.4898     296.3964   -3047.2561 
 2766000    251.84537   -3927.8729   -3496.2186   -3927.8729            0    5357.9564     17.24814    20.316031     21.04269    7373.6478    4987.5697    6015.7197    5070.5797    130.52855    815.57268   -841.73036   -2920.0395 
 2767000    256.12174   -3928.8804   -3489.8965   -3928.8804            0    4873.1642    17.304027    20.381858    21.110873    7445.5562    4118.5333    4257.1146    6243.8447   -300.97318   -418.41635   -244.58468   -2960.7401 
 2768000    231.47504    -3921.258   -3524.5177    -3921.258            0    3785.9782    17.324968    20.406524    21.136421    7472.6207    4756.0767    3942.7995    2659.0583    433.82981   -803.69769   -362.02272   -3111.9199 
 2769000     245.7797   -3923.6676   -3502.4096   -3923.6676            0    4334.3264     17.24561     20.31305    21.039604    7370.4032    4545.9281    3534.5818    4922.4693     914.9297    1087.9964   -104.64883   -3036.5139 
 2770000    241.66378   -3952.6188   -3538.4154   -3952.6188            0    4496.0041    17.333836    20.416969    21.147239    7484.1008     5096.082    5162.4739    3229.4564    863.30665    1517.3362     377.5798   -3047.6858 
 2771000    250.94415    -3969.232   -3539.1224    -3969.232            0    5872.4172    17.310461    20.389436    21.118722    7453.8644    5134.4035    6815.8148    5667.0332   -379.68805   -845.70335    1228.5112   -2900.7497 
 2772000    242.91361   -3902.3992   -3486.0536   -3902.3992            0    4742.7466    17.265422    20.336387    21.063775    7395.8345    5254.7014    4153.3549    4820.1834     377.8716    1352.5166    -613.5507   -2974.4978 
 2773000    235.08408   -3927.1542   -3524.2281   -3927.1542            0    4432.3055     17.33108    20.413723    21.143877    7480.5319    3807.1586    5893.1401    3596.6179   -199.65561    -931.2856   -1780.2006   -3040.6818 
 2774000    257.24535   -3896.9254   -3456.0156   -3896.9254            0    3467.2467    17.361191     20.44919    21.180612    7519.5893     4270.451    2900.2574    3231.0318    669.34886   -792.12137    169.43744   -3075.7783 
 2775000    248.04732   -3913.1163   -3487.9717   -3913.1163            0     4180.897    17.257653    20.327235    21.054296    7385.8546    3660.5452     3615.198    5266.9477    381.02062   -1273.5898   -1243.0417   -3037.6259 
 2776000    255.33167    -3896.213   -3458.5832    -3896.213            0    5763.1891    17.267913     20.33932    21.066813    7399.0357    6374.8881    5896.8172    5017.8621   -842.55739    476.40372    150.01223   -2836.6928 
 2777000    259.71155   -3928.4507    -3483.314   -3928.4507            0     5590.709    17.214785    20.276743    21.001998    7330.9528    4807.3341    5173.8558     6790.937    114.43271    -230.6828    574.25912   -2885.5866 
 2778000    240.72369   -3929.4402    -3516.848   -3929.4402            0    4349.3603    17.270191    20.342003    21.069592    7401.9642    4578.3417    4961.8471    3507.8923   -281.87287   -1864.8342    291.06251   -3047.3343 
 2779000    252.32792   -3959.1459   -3526.6644   -3959.1459            0    3713.6083    17.298486    20.375332    21.104113    7438.4065     4129.292     2926.643      4084.89    977.75669   -438.62886    1359.5722   -3123.8065 
 2780000    248.36749   -3881.2237   -3455.5304   -3881.2237            0    4195.4039    17.303802    20.381593    21.110598    7445.2656    4614.7681    2466.5583    5504.8853    25.139328    1524.0418    1254.9634   -2999.9869 
 2781000    250.75842   -3880.0749   -3450.2835   -3880.0749            0    5587.4734    17.268201    20.339659    21.067164    7399.4057    5884.8076    4624.1811    6253.4317   -509.53386   -159.31165    719.26165    -2847.324 
 2782000    248.85189   -3904.9932   -3478.4696   -3904.9932            0     5771.408    17.313882    20.393466    21.122896    7458.2846    5405.8579    5982.7931     5925.573   -839.90787    622.04442   -1153.6767   -2850.7053 
 2783000    243.75726   -3893.5853   -3475.7937   -3893.5853            0    4208.2555    17.314071    20.393689    21.123126    7458.5287    3996.2832    4089.6094     4538.874    497.55349    202.45903    -899.5215   -3018.0408 
 2784000    239.42478   -3935.6696   -3525.3037   -3935.6696            0    3224.7238    17.345682    20.430922    21.161691    7499.4554    4912.4748    2768.0646    1993.6321   -1309.3533    13.129551    905.42029   -3172.6097 
 2785000     242.4356   -3936.7487   -3521.2224   -3936.7487            0    3306.2644     17.36187    20.449989    21.181441    7520.4717    2373.1521    3506.0609      4039.58   -267.67718   -333.51112    1078.6754   -3158.5967 
 2786000    246.24559   -3923.6276   -3501.5711   -3923.6276            0    4343.1567    17.324235     20.40566    21.135526    7471.6712    5036.0204    4274.2799    3719.1698    -414.0721    663.45038   -287.58418   -3028.3118 
 2787000    245.64653   -3902.9168   -3481.8871   -3902.9168            0    5098.0206    17.273942    20.346422    21.074169    7406.7887    4793.1641    6857.4813    3643.4164     765.6019    1800.6012    1071.8998   -2931.1968 
 2788000    250.30429   -3918.5325   -3489.5195   -3918.5325            0    3723.4196    17.368071    20.457294    21.189006    7528.5332     3832.937    4411.2028     2926.119    174.12813    732.72725    1062.3843   -3080.7032 
 2789000    250.26172   -3928.3539   -3499.4138   -3928.3539            0    3015.3289    17.368427    20.457713     21.18944    7528.9958    2870.1086    2245.5343    3930.3438    -100.3643    1280.6238   -1279.7804   -3168.3226 
 2790000    247.43687   -3931.9321   -3507.8338   -3931.9321            0    5028.2762    17.421433    20.520147    21.254108    7598.1389    6143.9292    4544.5469    4396.3525   -1823.0757   -637.73416    219.69595   -2950.6452 
 2791000    245.69072   -3933.6394   -3512.5339   -3933.6394            0    5690.5861    17.371968    20.461884    21.193761    7533.6023     6318.839    5298.6667    5454.2527    273.44343    1145.8461   -677.47155     -2887.31 
 2792000    244.37553   -3931.1173    -3512.266   -3931.1173            0    5281.1445    17.299729    20.376796    21.105629    7440.0093    5840.0735    4727.1265    5276.2335    928.25802   -319.85358   -361.06943    -2939.236 
 2793000    245.81982   -3907.2964   -3485.9697   -3907.2964            0    6680.8291    17.268041    20.339472     21.06697    7399.2012    9013.5728    5431.3448    5597.5698    42.395145    69.068913    899.82812    -2765.043 
 2794000    246.40364   -3920.8489   -3498.5215   -3920.8489            0    5649.3067    17.231873     20.29687    21.022845    7352.8047    4638.2194    4607.4743    7702.2264    251.58196    53.824616    33.145687   -2892.7287 
 2795000    239.62487   -3962.5824   -3551.8735   -3962.5824            0    3915.9313    17.386577    20.479091    21.211584    7552.6241    4083.4919    4041.4614    3622.8406    161.42612   -855.64458    241.21881   -3120.5444 
 2796000    255.75737   -3948.2992   -3509.9398   -3948.2992            0    3180.8003    17.375798    20.466395    21.198433     7538.586    3210.9936    2696.2751    3635.1321    1065.9339    1312.4963    987.62331   -3160.2345 
 2797000    236.72506   -3956.2384   -3550.4997   -3956.2384            0    2757.1803    17.360793    20.448721    21.180127    7519.0726    2288.0619    3758.1266    2225.3525      1422.79    289.67151   -1132.4154   -3248.1529 
 2798000    240.00275    -3931.127   -3519.7705    -3931.127            0     2245.224    17.419689    20.518092     21.25198    7595.8567    2760.7165    1059.8035    2915.1521    1526.7507    868.51819   -135.14539   -3271.0496 
 2799000    256.42616   -3951.2153   -3511.7096   -3951.2153            0    4473.4995    17.270902    20.342841     21.07046    7402.8789    5134.6719    5059.8056    3226.0211    1123.6152    286.05726    791.03792   -3028.7354 
 2800000    251.76042   -3952.5939   -3521.0852   -3952.5939            0    5917.6223    17.279666    20.353164    21.081152    7414.1542    4912.0387    7767.2951    5073.5332    332.52017    13.891829   -982.65605   -2881.2255 
 2801000    255.43491   -3934.6161   -3496.8094   -3934.6161            0    5812.6199    17.292571    20.368364    21.096896    7430.7777    5179.2596     6768.482    5490.1182    197.53712    627.80588    105.63695   -2866.8942 
 2802000    242.46228   -3948.4584   -3532.8864   -3948.4584            0    4720.8347    17.282956    20.357039    21.085165    7418.3894    3860.1373    5490.8583    4811.5086   -1298.9677   -711.09317    121.41949   -3022.1412 
 2803000    242.92467   -3945.2676    -3528.903   -3945.2676            0    6173.4788     17.26482    20.335678     21.06304    7395.0609    6280.2671    5484.9501    6755.2191   -417.95966    2027.5566   -79.545358   -2863.0972 
 2804000    256.38814   -3939.5008   -3500.0603   -3939.5008            0    4625.7803    17.325824    20.407532    21.137465    7473.7281    4109.1357    6050.5421    3717.6632    562.08655    706.18239   -508.41336   -2995.8658 
 2805000      248.987   -3968.5281   -3541.7729   -3968.5281            0    5921.4349    17.296937    20.373508    21.102223    7436.4085    6496.4929    5115.6111    6152.2007    6.9937435    70.157881    695.71673   -2899.5791 
 2806000    250.74902   -3929.6858   -3499.9106   -3929.6858            0    4727.1138    17.361949    20.450082    21.181537    7520.5744    5603.6175     4514.094    4063.6299   -643.58975    55.492529   -129.62345   -2981.4414 
 2807000    244.90594   -3962.0037   -3542.2432   -3962.0037            0    5323.6873    17.356989     20.44424    21.175486    7514.1307    5567.6326    5451.4899    4951.9395    488.28768    630.05453   -814.64187   -2958.8422 
 2808000    244.23444   -3957.4963   -3538.8868   -3957.4963            0    4757.4959    17.407022    20.503173    21.236527    7579.2993     6583.296    4828.8349    2860.3568    565.65946   -279.18289   -357.74659   -3013.0108 
 2809000     255.0249   -3930.6478   -3493.5438   -3930.6478            0    4905.1858    17.273084    20.345412    21.073122    7405.6854    3580.4168    6157.3616    4977.7792    922.15974   -191.48479   -96.361608   -2963.7625 
 2810000    232.54876   -3943.5029   -3544.9223   -3943.5029            0    4894.1755    17.278935    20.352303    21.080261    7413.2136       5327.4    3401.5903    5953.5362    1292.4331   -288.93027    843.19419   -3015.7929 
 2811000    249.39211   -3945.9034   -3518.4539   -3945.9034            0    3731.4302    17.376819    20.467597    21.199678    7539.9142    4033.3669    2091.5335    5069.3901    -831.6355    18.910787   -1142.0677   -3108.1387 
 2812000    254.22631    -3938.846   -3503.1108    -3938.846            0      3381.53    17.295262    20.371534     21.10018     7434.248    4571.6593    1323.4385    4249.4922    616.44595    729.71173    616.17381   -3136.4823 
 2813000    259.22667   -3928.3719   -3484.0663   -3928.3719            0    5601.8695    17.227944    20.292242    21.018051    7347.7762    7233.8125    4884.2065    4687.5894   -227.27023    77.544686   -621.15202   -2883.7712 
 2814000    249.13078   -3946.0944   -3519.0928   -3946.0944            0    4196.7357     17.33446    20.417704    21.148001    7484.9095    3955.4502    4697.2691    3937.4878   -353.31505   -215.57123   -1005.4414   -3060.9782 
 2815000    233.97899   -3950.6025   -3549.5705   -3950.6025            0     3731.656    17.248435    20.316378     21.04305    7374.0259     2825.844    3121.8409    5247.2832    -1046.762   -1122.4611   -739.49416   -3148.2585 
 2816000    246.35405   -3905.1832   -3482.9408   -3905.1832            0    6496.2978    17.179678    20.235391    20.959167    7286.1926    7339.3298    6330.5386     5819.025   -1280.3267   -398.93256    988.17228   -2792.6335 
 2817000    240.72989   -3962.2073   -3549.6046   -3962.2073            0    4718.5971    17.282016    20.355933     21.08402    7417.1801    5585.6818    5202.8757    3367.2338    707.43753    530.05569   -46.214692   -3039.1846 
 2818000    241.95688   -3936.8149   -3522.1091   -3936.8149            0    2262.9789    17.367382    20.456482    21.188166    7527.6371    1779.6043    2653.4204    2355.9121   -378.29235    712.20206    587.43765   -3273.6727 
 2819000    235.35216   -3957.6568   -3554.2712   -3957.6568            0    5143.3925    17.340756     20.42512    21.155682    7493.0682    6228.3187     3844.905    5356.9537    594.64401    129.03406   -938.86868   -2992.2079 
 2820000    240.38747   -3924.6905   -3512.6746   -3924.6905            0    5355.1404    17.323554    20.404858    21.134696    7470.7908    6695.1335    3791.7354    5578.5524      1546.87    89.358509   -278.77289   -2929.2116 
 2821000    241.61109   -3936.7494   -3522.6362   -3936.7494            0    4947.8474    17.330297    20.412801    21.142922     7479.518    4395.5974    6212.7504    4235.1943    1237.5599    1135.9877    67.494846   -2982.9196 
 2822000    270.20838   -3920.7839    -3457.656   -3920.7839            0    4546.9243    17.376715    20.467475    21.199552    7539.7795    5751.7889    3934.7233    3954.2608   -10.992612    76.034611    641.27361   -2957.6764 
 2823000     235.6616   -3943.9571   -3540.0412   -3943.9571            0    3024.0129    17.409388    20.505959    21.239412    7582.3895    2082.8162    2391.2135    4598.0091    374.00023    1530.0578   -104.42826   -3205.6417 
 2824000    250.81265   -3949.1646   -3519.2803   -3949.1646            0     3322.353    17.330928    20.413543    21.143691    7480.3343     2605.653    2986.8111    4374.5948    1684.5623   -289.01904    936.47553   -3156.8348 
 2825000    255.14577   -3959.2711     -3521.96   -3959.2711            0    4653.0612    17.264258    20.335015    21.062354    7394.3381    3779.5158     4378.157    5801.5107    194.37793    -494.3149   -158.91341   -3020.1793 
 2826000    248.82987   -3967.7115   -3541.2256   -3967.7115            0    3652.0294    17.326585    20.408428    21.138393    7474.7124    1462.1276    4854.2993    4639.6614    -86.24169    1215.8689   -729.69569   -3143.1142 
 2827000     249.9517   -4001.6566    -3573.248   -4001.6566            0    4900.6007    17.273076    20.345402    21.073112    7405.6748    4029.3072    5683.7217    4988.7732    191.84648   -520.81662   -994.01034   -3043.9626 
 2828000     254.1875   -3933.5673   -3497.8987   -3933.5673            0     4792.187    17.337125    20.420843    21.151252    7488.3621    3257.8333    5835.8165    5282.9111    811.16778   -164.74158    1551.1412   -2974.5435 
 2829000    245.65715   -3963.5729   -3542.5249   -3963.5729            0    3226.2852    17.385591     20.47793     21.21038    7551.3388    2732.7011    3936.3822    3009.7723     321.8963   -460.15588   -617.83432   -3187.2189 
 2830000    252.97625    -3917.176   -3483.5833    -3917.176            0    4428.7411    17.322841    20.404018    21.133825    7469.8678     5088.153    4659.2935    3538.7768   -238.73264    889.83768    -825.0483   -3001.1147 
 2831000    250.31413   -3968.1119   -3539.0821   -3968.1119            0    3151.7619    17.342177    20.426794    21.157416    7494.9103    3576.2748    3344.5846    2534.4263    368.92139   -1123.1416   -967.55433   -3194.5769 
 2832000    228.10933   -3949.7672   -3558.7956   -3949.7672            0    2268.3085    17.362587    20.450834    21.182316    7521.4039    3000.0117    358.43724    3446.4766    55.802765    451.86381    792.32823   -3309.9804 
 2833000    244.42102   -3981.1283    -3562.199   -3981.1283            0    3481.9968    17.403523    20.499051    21.232257    7574.7288    4010.6289    2516.5051    3918.8564    1459.6422    289.41726   -326.41584   -3177.5441 
 2834000    258.68891   -3949.7612   -3506.3772   -3949.7612            0    4136.0728    17.406577    20.502649    21.235984    7578.7178    4582.4432    3961.5297    3864.2455   -1676.6606    398.19259    1509.2633   -3049.2261 
 2835000    246.44145   -3966.1868   -3543.7946   -3966.1868            0    4796.2655    17.364803    20.453444    21.185019    7524.2838    3745.6816    6426.8785    4216.2362     305.0643    729.26777   -530.52445   -3017.4814 
 2836000     242.7793   -3928.2222   -3512.1068   -3928.2222            0    4910.2605    17.268483    20.339992    21.067509    7399.7691    5574.4231    3987.4704     5168.888    1356.1343    248.64618   -398.86748   -2982.2011 
 2837000    247.46299   -3946.4731     -3522.33   -3946.4731            0    4246.3567    17.318668    20.399103    21.128734    7464.4712    3757.0006    5282.0502    3700.0194    1268.4233    255.41289   -626.78202   -3060.0645 
 2838000    249.24911   -3902.5323   -3475.3279   -3902.5323            0    5206.4138    17.309808    20.388668    21.117926    7453.0215    6014.9433    4942.0772     4662.221   -54.832219    1830.8971    101.94951   -2909.4184 
 2839000    248.24955   -3964.5006   -3539.0094   -3964.5006            0    3801.2472    17.328093    20.410204    21.140232    7476.6641    4216.5212    3711.0403      3476.18   -1320.3866    1584.6372    601.49839   -3124.5234 
 2840000    236.56637   -3910.8871   -3505.4205   -3910.8871            0    5858.8699    17.287139    20.361966    21.090269    7423.7775     6604.507    6231.6479    4740.4548   -662.06528   -736.54236    -159.5336   -2871.0913 
 2841000    244.07842   -3929.0442   -3510.7021   -3929.0442            0    5262.1328    17.235936    20.301656    21.027802    7358.0077    5779.0163    5151.9331    4855.4489    -65.97667    1449.4816    337.99163   -2946.0279 
 2842000    254.60361     -3913.12   -3476.7381     -3913.12            0    3551.9499    17.196155    20.254799    20.979269    7307.1776    2711.4004    4283.6457    3660.8038    716.47642    487.72167    615.35219    -3098.215 
 2843000     235.1315   -3923.8608   -3520.8534   -3923.8608            0     6220.334    17.165673    20.218896    20.942081    7268.3882    5575.0563    6863.8685    6222.0772    393.92538   -403.74423    753.54037   -2861.4856 
 2844000    237.28737   -3912.4358   -3505.7333   -3912.4358            0    4601.1851    17.318846    20.399313    21.128951     7464.701    5437.9579    4922.0799    3443.5175    88.582192    2651.2177   -796.88047   -3004.8253 
 2845000    249.16856   -3959.3417   -3532.2753   -3959.3417            0    1356.7435    17.428845    20.528877     21.26315    7607.8404   -74.230209    2822.6978    1321.7628    1990.8592   -1076.7875   -342.97206   -3381.7412 
 2846000    250.81042    -3910.695   -3480.8145    -3910.695            0    4124.4712    17.336855    20.420525    21.150922     7488.012    4982.2951    3014.7964     4376.322     1044.828   -425.64254   -56.132307   -3030.4017 
 2847000    258.68691    -3949.744   -3506.3635    -3949.744            0    3626.9634    17.274352    20.346905    21.074669    7407.3164    2883.7574    2636.0021    5361.1306   -826.93006   -692.23996    331.52915   -3114.5495 
 2848000    240.82141   -3938.7873   -3526.0276   -3938.7873            0     3167.523    17.344386    20.429395     21.16011    7497.7741    3255.6785    4541.6716     1705.219    956.60259   -748.69338    -732.4492   -3179.6674 
 2849000    252.82816    -3953.139   -3519.8002    -3953.139            0    4356.3121    17.354341    20.441121    21.172255    7510.6918    2937.4465    5437.5665    4693.9233   -369.09707   -1750.3056    1590.0268   -3042.6283 
 2850000     234.4766   -3944.3482   -3542.4633   -3944.3482            0    4277.6025    17.289779    20.365076     21.09349    7427.1798    3732.2169    5992.1727    3108.4178    -524.7017    -1518.693    967.98339   -3079.1228 
 2851000    241.13967   -3946.6579   -3533.3528   -3946.6579            0    4610.7074    17.302227    20.379738    21.108676    7443.2325    4351.8277    3963.8168    5516.4777   -148.74317   -751.47454   -121.23775   -3032.8517 
 2852000    247.99657    -3914.109   -3489.0514    -3914.109            0    4413.5926    17.345617    20.430845    21.161612    7499.3707    3809.7393    4450.2275     4980.811    178.80469    -274.1897   -320.30952    -3006.334 
 2853000    254.15166   -3940.8521   -3505.2448   -3940.8521            0    3968.6159    17.334749    20.418045    21.148353    7485.2836    5353.0524    3244.7339    3308.0615    939.53561   -1019.9375    1449.0092   -3072.0101 
 2854000    239.24132   -3942.0718   -3532.0204   -3942.0718            0    3530.1662    17.337613    20.421418    21.151847    7488.9944    4114.8543    3106.7249    3368.9195    1565.0533     1166.702   -153.72164   -3146.4581 
 2855000    247.56759   -3922.2004    -3497.878   -3922.2004            0    4963.3312    17.330254     20.41275    21.142869    7479.4619    7535.9422    2597.2944    4756.7572    1135.2394    711.86397   -84.040087   -2956.4765 
 2856000    230.10889   -3954.5284   -3560.1296   -3954.5284            0    4905.8028    17.268083    20.339521    21.067021    7399.2545    4955.1312    4042.3093    5719.9679   -46.094207   -366.80107   -612.05292   -3030.7418 
 2857000    236.66363   -3957.9132   -3552.2798   -3957.9132            0    5395.1001    17.262038    20.332401    21.059646    7391.4869    4361.1665    5540.9833    6283.1505    640.68048    -596.6639   -702.47693   -2970.7029 
 2858000    244.11714   -3928.0175   -3509.6091   -3928.0175            0    5918.1358    17.192052    20.249966    20.974263    7301.9474    6811.0205    6250.7359    4692.6509    101.59907   -1029.8147   -231.69016   -2879.3784 
 2859000    248.60734    -3935.676   -3509.5716    -3935.676            0    4664.9535    17.213739    20.275511    21.000722    7329.6164    4901.3142    5890.4639    3203.0824    320.34843     1476.689    831.61313   -3010.9116 
 2860000    234.96827   -3926.7342   -3524.0067   -3926.7342            0    3493.1817    17.265468    20.336441    21.063831    7395.8935    4592.5532    3640.6575    2246.3344    172.63343    319.50831   -1679.3257   -3147.2268 
 2861000    252.19678   -3945.3268   -3513.0702   -3945.3268            0    4707.3362    17.228931    20.293405    21.019256    7349.0398    4594.5311    4251.2439    5276.2336   -176.81105   -220.69854    197.91753   -3008.5463 
 2862000    247.90459   -3958.0805   -3533.1805   -3958.0805            0    5036.3759    17.234051    20.299435    21.025502    7355.5931    6143.8754    5302.5111    3662.7411   -763.60024   -1085.8041    1254.3149   -2992.9094 
 2863000    256.68855    -3972.965   -3533.0096    -3972.965            0    3945.9074    17.356297    20.443426    21.174642    7513.2326    6467.3192    2783.3186    2587.0843   -190.48946    1176.8673   -617.02933   -3100.6456 
 2864000    253.52185   -3930.7475   -3496.2197   -3930.7475            0    6336.7413    17.272366    20.344566    21.072246    7404.7617    8041.3148    5754.2729    5214.6361   -467.52199    341.18735   -400.44676   -2811.9096 
 2865000    253.42021   -3943.8385   -3509.4849   -3943.8385            0    4099.6031    17.267889    20.339292    21.066784    7399.0051    2782.2373    4843.0611    4673.5109   -1152.0701    972.89428    983.26537   -3067.1094 
 2866000     241.4669   -3962.2767   -3548.4107   -3962.2767            0    4219.1616    17.277113    20.350157    21.078037    7410.8683    3852.7666    4416.6631    4388.0551    -335.8302    144.60677   -999.12549   -3092.4041 
 2867000    237.99006   -3972.5579   -3564.6511   -3972.5579            0    4154.3379    17.280317    20.353931    21.081947    7414.9927    4625.1652    4028.9192    3808.9294    282.54373   -409.80148   -271.06693   -3115.4008 
 2868000    235.24434   -3948.5167   -3545.3159   -3948.5167            0    4751.8966     17.20501    20.265229    20.990072    7318.4709    4928.1156    3006.4911     6321.083    348.10523   -1309.1656    483.73768   -3038.1347 
 2869000    250.17425   -3937.0322   -3508.2421   -3937.0322            0    3439.3386    17.280636    20.354307    21.082336    7415.4031    4126.2548    2949.3542    3242.4068    -1340.928    870.97077   -1522.9228   -3136.2912 
 2870000    241.26996   -3936.7973   -3523.2688   -3936.7973            0    3409.6353    17.277666    20.350808    21.078712    7411.5801    4088.2073    3480.9846    2659.7139   -455.20318    346.67665   -492.18665   -3154.7204 
 2871000    243.59561   -3936.4516    -3518.937   -3936.4516            0    6022.8011    17.214504    20.276412    21.001655    7330.5937    6057.8719    7427.8008    4582.7306    1051.4903    1021.4334   -481.45745   -2875.0443 
 2872000    254.19858   -3917.5887    -3481.901   -3917.5887            0    3682.3052    17.317437    20.397654    21.127233    7462.8801    5433.3691    3530.4353    2083.1113   -435.93234    1677.9228    193.51368   -3081.1246 
 2873000    239.20034   -3943.2267   -3533.2455   -3943.2267            0    5223.6013    17.267246    20.338535       21.066    7398.1787    5065.8471    5683.2949    4921.6618     429.7366   -683.49234   -126.38671   -2969.6458 
 2874000    248.05106   -3888.0635   -3462.9125   -3888.0635            0    6025.4096    17.218982    20.281686    21.007118    7336.3155    6385.8413    6362.3853    5328.0023   -1515.0394   -791.36377   -1014.5804    -2818.238 
 2875000    254.25036   -3895.6176   -3459.8412   -3895.6176            0    4166.9217    17.263441    20.334053    21.061358    7393.2892    4527.7639     3610.383    4362.6182    1874.1205    366.97215    1494.3213   -3010.5489 
 2876000    241.64498   -3920.3792    -3506.208   -3920.3792            0    3321.3751    17.252987     20.32174    21.048604    7379.8661    4347.2481    3036.7326    2580.1446    576.95146    1142.3485    623.75798   -3148.7357 
 2877000    242.52035   -3927.0101   -3511.3385   -3927.0101            0    6042.1744    17.236095    20.301843    21.027995    7358.2107    5180.7664    7276.5882    5669.1686   -429.38992     979.2128   -35.200536    -2862.941 
 2878000    255.07333   -3949.1092   -3511.9223   -3949.1092            0    4957.0744    17.285694    20.360265    21.088507    7421.9168    4151.9876    5458.0443    5261.1913   -778.96352   -520.34619    19.061992   -2975.3634 
 2879000     253.9412   -3914.9559   -3479.7093   -3914.9559            0    3331.4607    17.355111    20.442028    21.173194    7511.6916    1905.2977    4084.8285     4004.256   -374.99852   -1250.6979   -62.570438   -3114.7467 
 2880000    244.44344   -3947.3085   -3528.3408   -3947.3085            0    5495.3635    17.301127    20.378443    21.107335    7441.8136    3989.2872     6028.263    6468.5404   -64.456753    446.17924    298.45568   -2931.9223 
 2881000    244.69004   -3953.5636   -3534.1733   -3953.5636            0    2358.9163    17.405112    20.500923    21.234196    7576.8039    2389.2758    2765.9362    1921.5371   -454.65252    1840.4568    1053.2894   -3273.5132 
 2882000    250.45733   -3894.5316   -3465.2563   -3894.5316            0    4989.0837    17.241683    20.308426    21.034813    7365.3703     5384.547    5150.6011    4432.1031    -644.9123    253.35008    540.07439    -2929.347 
 2883000    234.13373      -3900.2   -3498.9028      -3900.2            0    3085.9162    17.325845    20.407557     21.13749     7473.755    4075.3733     2969.427    2212.9483   -585.29454    1117.2283   -53.735704    -3162.547 
 2884000     224.7727    -3915.213   -3529.9603    -3915.213            0    5641.7689    17.253242    20.322041    21.048915    7380.1937    6430.4927    5339.8091    5155.0049    704.07875   -44.560671    1155.6711   -2922.7223 
 2885000    237.38405   -3938.2996   -3531.4314   -3938.2996            0    4815.3217    17.256412    20.325774    21.052782    7384.2618    7128.1196    3592.5169    3725.3287   -1264.7838   -829.74383    1202.4696   -3012.8603 
 2886000     241.7102   -3930.4637   -3516.1807   -3930.4637            0    4632.8405    17.273312     20.34568    21.073401    7405.9787    4199.3845    5066.1532    4632.9838   -366.04889   -892.32584    690.63026    -3015.794 
 2887000    237.19805    -3932.468   -3525.9187    -3932.468            0    4153.1515    17.295013    20.371241    21.099875    7433.9264    2857.0889    5211.0817    4391.2838   -1846.7398   -373.01384   -119.98732   -3075.6498 
 2888000    252.76488   -3929.9221   -3496.6918   -3929.9221            0    3570.5497    17.261553    20.331829    21.059054    7390.8637    3795.9764    2733.4488    4182.2237    415.97561    1593.5356   -1815.4671   -3111.8288 
 2889000    228.97806   -3960.1178   -3567.6572   -3960.1178            0    3825.0369    17.293878    20.369904    21.098491    7432.4635    3103.8247    3462.5977    4908.6882   -51.736868    196.95726    302.02906   -3153.0429 
 2890000    244.69439   -3936.4847   -3517.0868   -3936.4847            0     4771.448    17.296401    20.372876    21.101569    7435.7165    3275.3862    4053.1042    6985.8537    1548.1811    572.46463   -1260.5953     -2999.66 
 2891000    243.82469   -3952.2026   -3534.2954   -3952.2026            0    3805.3669    17.317425    20.397639    21.127218    7462.8644    2246.2145    4156.2325    5013.6537   -468.47305    265.39529   -679.31475    -3120.126 
 2892000    244.36368   -3945.1048   -3526.2738   -3945.1048            0    4488.3282    17.302497    20.380056    21.109006    7443.5818    4836.4675    3711.4343    4917.0827    442.72321   -2026.7047   -2119.0501   -3039.0344 
 2893000    238.94828   -3928.2144   -3518.6652   -3928.2144            0     4940.199    17.337886    20.421739     21.15218    7489.3478    2218.2432    6672.3108     5930.043   -581.45364   -1614.2794    87.305766   -2979.0747 
 2894000    234.08306   -3904.5095   -3503.2991   -3904.5095            0    5952.1231    17.346373    20.431736    21.162534    7500.3517    7212.7218    5584.7974      5058.85     1367.628    873.85054   -397.89325   -2852.2265 
 2895000    254.40315   -3903.7131   -3467.6748   -3903.7131            0    4638.7034    17.342362    20.427011    21.157641    7495.1498    3082.6419     4069.016    6764.4524    1883.9612   -157.64218   -1058.3038   -2960.6224 
 2896000    245.97498   -3930.0514   -3508.4587   -3930.0514            0     5664.605    17.277363    20.350451    21.078342    7411.1898    6187.2687      5715.99    5090.5563   -153.85765    310.59512   -750.86664   -2896.2021 
 2897000    248.81692   -3958.1498   -3531.6861   -3958.1498            0    4922.8185    17.290359    20.365759    21.094198    7427.9274    7067.9215    2728.3316    4972.2023   -529.16047    1516.3464    299.56223   -2998.4036 
 2898000    238.13995   -3933.7611   -3525.5974   -3933.7611            0    6380.6735    17.203252    20.263159    20.987927    7316.2284     7507.711    5962.5921    5671.7175   -1315.0262   -1210.6527    1284.1284   -2844.7815 
 2899000    250.09112   -3900.0971   -3471.4495   -3900.0971            0    4636.7348     17.22974    20.294358    21.020242    7350.0747     5770.191    4583.5902    3556.4232   -1096.7148   -305.63116     718.2275   -2974.4226 
 2900000     235.6512   -3928.1262   -3524.2281   -3928.1262            0    3540.0666    17.301567     20.37896    21.107871    7442.3808    3191.7067    5143.2583    2285.2349    58.440854   -885.11189   -658.47447    -3139.991 
 2901000     245.9012   -3911.0761   -3489.6098   -3911.0761            0    5651.1723     17.27231      20.3445    21.072178    7404.6901    6903.5866    5224.6294    4825.3008    371.45905     2.983393    -230.1173   -2879.3408 
 2902000    248.73777   -3973.8296   -3547.5016   -3973.8296            0    2850.0956    17.304432    20.382336    21.111367    7446.0793    2072.0527    3322.8931    3155.3409   -294.45787    710.05177     179.0538   -3237.9999 
 2903000    252.74358   -3937.0485   -3503.8546   -3937.0485            0    4242.4152    17.315103    20.394905    21.124386    7459.8631    4646.4047    2497.5359    5583.3051     593.9799    156.51304   -1604.9485   -3042.3034 
 2904000    235.58915   -3929.3059   -3525.5141   -3929.3059            0    5133.7685    17.251746    20.320277    21.047089     7378.273    5199.2374    5583.2143    4618.8538   -481.86163   -807.45353    551.21385   -2973.0973 
 2905000    241.76964   -3935.2798   -3520.8949   -3935.2798            0    4083.5948     17.25476    20.323828    21.050767    7382.1412    3067.5268    5087.2875      4095.97   -839.92149    310.19436   -1335.5757   -3081.2511 
 2906000    233.01415   -3964.0369   -3564.6586   -3964.0369            0    3879.9875    17.345981    20.431274    21.162056    7499.8429    2486.7035    5123.5132    4029.7456   -1672.0245   -1390.5977   -23.239624   -3140.2753 
 2907000    238.12825   -3925.4591   -3517.3154   -3925.4591            0    4036.4956     17.23373    20.299058    21.025111    7355.1828    3656.6919    5043.7456    3409.0494    441.80297    -801.5605    1226.4722   -3084.3294 
 2908000    250.07084   -3952.1308   -3523.5179   -3952.1308            0    4770.5186     17.28024     20.35384    21.081852    7414.8925    5894.8696    4447.6018    3969.0844    910.36263    1677.3992    114.33954   -3007.6407 
 2909000    245.59371   -3942.1416   -3521.2024   -3942.1416            0    5113.1349    17.228974    20.293456    21.019309    7349.0952    4283.7992    5652.2253    5403.3803    -1466.891    488.29918     -429.169   -2973.1816 
 2910000    255.40168   -3939.5778   -3501.8281   -3939.5778            0    4534.7191    17.281246    20.355025    21.083079    7416.1878    4356.7394    5424.8962    3822.5216    268.47003   -1488.4767     242.4349   -3011.3643 
 2911000    239.01712   -3971.7171   -3562.0499   -3971.7171            0    5892.3833    17.219468    20.282258     21.00771    7336.9364    5253.5623    6243.8642    6179.7234    1283.8797   -788.20647   -1875.9694   -2931.5549 
 2912000    239.68242   -3963.9474   -3553.1399   -3963.9474            0    4944.2728    17.218348    20.280939    21.006344    7335.5051    3951.1356    5804.2287     5077.454   -1064.8193    320.83377   -1013.3843   -3024.1976 
 2913000    258.70236   -3978.6409   -3535.2339   -3978.6409            0    6030.9355    17.222055    20.285306    21.010867     7340.244    4269.2242    6725.1495    7098.4328     287.2499   -1097.0341    1106.7146   -2889.6227 
 2914000    248.43424   -3971.7959   -3545.9881   -3971.7959            0    4232.7597     17.31079    20.389825    21.119124      7454.29    3839.6566    4972.7213     3885.901   -1007.7901   -458.61402   -270.18731   -3085.8314 
 2915000    234.76802   -3967.5511   -3565.1668   -3967.5511            0    4213.9607    17.319346    20.399902    21.129562    7465.3482    4617.3091    5251.4694    2773.1035    281.96989   -253.32759    755.08528   -3106.3741 
 2916000    245.82629   -3967.8229    -3546.485   -3967.8229            0    4103.0232    17.287069    20.361884    21.090184    7423.6878    3001.7829    5187.6459    4119.6408    782.50327   -2005.0951   -106.06364   -3102.2636 
 2917000    236.93233   -3987.7959    -3581.702   -3987.7959            0    2045.3485    17.311726    20.390926    21.120265    7455.4985    2058.2824     2549.944    1527.8191    547.06383    494.43688    1080.2915   -3359.3096 
 2918000    261.39691   -3969.7225   -3521.6972   -3969.7225            0    4941.6982    17.222926    20.286332     21.01193    7341.3584    3562.5973    6124.9146    5137.5827   -689.85746    510.05885    441.27061   -2992.6084 
 2919000    249.79891   -3955.8721   -3527.7253   -3955.8721            0    4576.7382     17.21533    20.277385    21.002663    7331.6491    4801.2588    4846.9309    4082.0248    611.39817   -835.28722   -258.53716   -3038.3595 
 2920000    247.41868   -3990.6409   -3566.5738   -3990.6409            0    3416.5908    17.349938    20.435935    21.166883    7504.9766    1968.5009    3964.7421    4316.5294    12.976528   -130.09104     532.8543   -3192.6198 
 2921000    243.98258   -3975.2497   -3557.0719   -3975.2497            0    4889.1762     17.21482    20.276784     21.00204    7330.9969    4781.4164    5337.7508    4548.3615    94.578952    759.24396   -22.239307   -3034.3453 
 2922000    248.97771   -3990.9297   -3564.1904   -3990.9297            0    5024.7076    17.192106     20.25003    20.974329    7302.0164     4912.648    4242.3378    5919.1369   -32.320882    1149.1192    1298.9048   -3029.0971 
 2923000    243.36105   -3971.0077   -3553.8952   -3971.0077            0    5544.2527     17.18842    20.245688    20.969832     7297.321    6157.9326    5084.9774    5389.8481   -1153.9705    871.32243   -424.98636    -2963.854 
 2924000    227.91255   -3953.3059   -3562.6716   -3953.3059            0    4778.7408    17.241014    20.307637    21.033997    7364.5125      4134.87    4398.5656    5802.7869    862.49108    255.69393    976.99968   -3049.4164 
 2925000    248.84034   -3959.6529    -3533.149   -3959.6529            0    5206.6339    17.178012    20.233429    20.957134    7284.0725    2877.0632    4954.4233    7788.4151    252.75913   -1224.5937   -1067.5808   -2980.0445 
 2926000    248.47694   -3974.4936   -3548.6127   -3974.4936            0     4712.679    17.196658    20.255391    20.979882    7307.8179    5578.0785    3991.9313    4568.0273   -1946.1336   -173.27894    666.69979   -3046.3493 
 2927000    249.20338   -3924.5491    -3497.423   -3924.5491            0    3839.3878    17.225907    20.289843    21.015567    7345.1708    4957.0542    3352.1854    3208.9239   -1115.3501    356.70754    -162.7139    -3086.141 
 2928000    252.60305   -3936.7879   -3503.8349   -3936.7879            0    4869.1205     17.17849    20.233992    20.957718    7284.6814    5665.4451    4740.3387    4201.5775    286.40898   -485.52663    330.93387   -2986.5415 
 2929000    232.55447   -3922.7977   -3524.2073   -3922.7977            0    3637.4707    17.209939    20.271035    20.996085    7324.7631    2431.4579    3838.7916    4642.1626   -654.93889   -706.44691   -724.62724   -3135.6376 
 2930000    230.01678   -3913.8765   -3519.6356   -3913.8765            0    4280.3316    17.204382    20.264489    20.989306    7317.6698    3968.2574    4794.1509    4078.5864   -849.52466    510.08835   -781.35186   -3062.8356 
 2931000     241.6671   -3932.4802   -3518.2711   -3932.4802            0    4473.1191    17.220845     20.28388     21.00939    7338.6968    5831.4543    4402.7828    3185.1201   -1645.3223   -197.65467    52.855984    -3039.525 
 2932000    269.89024   -3941.2098   -3478.6272   -3941.2098            0    5102.3264    17.181785    20.237873    20.961738    7288.8741    5367.9031    3861.3821    6077.6939    664.88248   -264.66978   -575.25248   -2936.2461 
 2933000    248.84592   -3970.6478   -3544.1344   -3970.6478            0     4641.096    17.221871    20.285089    21.010642    7340.0089    2765.3257    6548.3988    4609.5635    74.301877   -466.63261    382.57689   -3047.3213 
 2934000    241.56113   -3963.3905    -3549.363   -3963.3905            0    4367.9174    17.263529    20.334156    21.061465    7393.4015    3392.1198    5215.0944    4496.5381    221.09267    651.19968    -705.5241   -3078.3916 
 2935000    246.67324   -3927.2374   -3504.4479   -3927.2374            0    5870.5831      17.2573     20.32682    21.053866     7385.402    7378.7302    5483.3527    4749.6664    1735.2354    95.007395    433.57613   -2872.1362 
 2936000    258.02273   -3937.6902    -3495.448   -3937.6902            0    3960.4355    17.258646    20.328405    21.055507    7387.1297    3477.7091    4137.0718    4266.5258    -552.0563    742.22325    1602.6724   -3068.7756 
 2937000    231.66983   -3930.8566   -3533.7825   -3930.8566            0    4334.7055    17.229692    20.294302    21.020185     7350.014    4418.1589      3218.94    5367.0177    1166.6775    1565.4893   -1.0366975   -3069.1349 
 2938000    255.40958   -3930.2093    -3492.446   -3930.2093            0    4719.0551    17.266169    20.337266    21.064686    7396.7943    4083.3031     5462.231    4611.6312    1020.0954    632.79586    1312.4047   -2983.3796 
 2939000    251.63207   -3984.8566   -3553.5679   -3984.8566            0    3398.1574    17.292261       20.368    21.096518    7430.3788    1918.1374    4543.6847    3732.6502    95.298094   -1252.3105    304.34837   -3185.3284 
 2940000    256.96288    -3913.723   -3473.2974    -3913.723            0    4573.2613    17.264212    20.334961    21.062298    7394.2791    4187.8617    5387.4722    4144.4501   -266.73526    1674.3924    1194.0199   -2980.1262 
 2941000    244.27996   -3914.2345    -3495.547   -3914.2345            0    4170.6299    17.313113     20.39256    21.121957    7457.2907    3348.7447    4440.2247    4722.9204   -522.41815    137.25569   -402.34119   -3041.9621 
 2942000    244.87103   -3936.2855   -3516.5849   -3936.2855            0    4751.6941    17.333804    20.416931      21.1472    7484.0595    4926.8111    5123.1944    4205.0768   -50.211335   -883.69412   -433.79071   -2997.9502 
 2943000    249.61292   -3938.4964   -3510.6684   -3938.4964            0    4192.9628    17.365097     20.45379    21.185377    7524.6655    4265.7834    5423.1345    2889.9705    987.54874   -72.747108   -946.39828   -3050.5347 
 2944000    256.29445   -3944.8248   -3505.5449   -3944.8248            0    5428.4301     17.30673    20.385042    21.114171    7449.0463    4543.4649    5648.3803    6093.4451   -224.06771     186.0494    615.03542   -2915.8182 
 2945000    247.64806   -3962.9597   -3538.4994   -3962.9597            0    4328.1777    17.331123    20.413773    21.143929    7480.5872    3916.8512    4316.4222    4751.2597   -527.51507    2.9868925    1041.9656   -3066.3095 
 2946000    239.73045   -3925.9812   -3515.0914   -3925.9812            0    3879.3913    17.364617    20.453225    21.184792    7524.0419    3317.2596    5316.4311    3004.4832    899.93037   -640.73752    1550.8832   -3089.4041 
 2947000    247.29429   -3947.1112   -3523.2572   -3947.1112            0    4915.2333    17.274374    20.346931    21.074696    7407.3449    4444.6109    5532.4284    4768.6607    726.37713    350.63655   -1191.1832   -2992.2718 
 2948000     255.4938   -3956.2002   -3518.2926   -3956.2002            0     5192.276    17.204148    20.264214     20.98902    7317.3715    4945.1339    4997.5368    5634.1573    513.72005   -129.23077    535.07112   -2964.1918 
 2949000    262.66341   -3954.6755   -3504.4794   -3954.6755            0    4564.2694    17.295253    20.371523    21.100168    7434.2359    4834.9212    4628.4556    4229.4315    455.71478    592.94148    32.934288   -3009.6181 
 2950000    243.27093   -3937.2221   -3520.2641   -3937.2221            0    4258.2235    17.232173    20.297224    21.023211    7353.1891    5004.0325    5230.6383    2539.9999    -377.8158    401.92068   -122.95262   -3063.6177 
 2951000    255.36963   -3952.4773   -3514.7824   -3952.4773            0    4482.3727    17.329692    20.412088    21.142183    7478.7341    4253.8801    4152.7384    5040.4998    100.75462    1223.4901   -176.02124   -3025.8915 
 2952000    252.58826   -3940.0493   -3507.1217   -3940.0493            0      5705.21     17.23493    20.300471    21.026574    7356.7189    3911.1969    6093.6943    7110.7388    325.73537    -373.7191   -821.95434   -2895.0086 
 2953000    245.45856   -3952.3637   -3531.6561   -3952.3637            0    5898.7028    17.160877    20.213246     20.93623    7262.2974       7268.2    6634.1693    3793.7391   -408.86828     957.6212   -558.85628   -2906.9059 
 2954000    231.27559   -3932.0236   -3535.6251   -3932.0236            0    3615.1717    17.245744    20.313208    21.039767    7370.5751    3697.0307    4057.4138    3091.0705   -1571.0503    477.40268   -883.19109   -3147.0221 
 2955000    240.03947   -3970.7259   -3559.3064   -3970.7259            0    5146.3346    17.245543    20.312971    21.039522    7370.3171    4520.1998    5071.7304    5847.0736    122.75716    875.08581     137.1269   -3006.1346 
 2956000    240.22748   -3960.6802   -3548.9386   -3960.6802            0    4826.0225    17.282431    20.356421    21.084525    7417.7136    4797.9061    4884.5458    4795.6156   -511.45542   -155.08485    1869.2738   -3026.8607 
 2957000    239.75711   -3934.9857   -3524.0502   -3934.9857            0    6109.5213    17.214443     20.27634     21.00158     7330.515    6477.6976     4739.953    7110.9132    25.657984   -126.65444   -827.71877   -2870.8933 
 2958000    260.80913   -3930.8519    -3483.834   -3930.8519            0    5305.3345    17.195702    20.254265    20.978716    7306.5997    6521.9274    3730.9535    5663.1225     245.2399    370.27929   -664.43407   -2918.5014 
 2959000    241.61367   -3936.8958   -3522.7783   -3936.8958            0    5632.8549    17.230569    20.295335    21.021254    7351.1361    5410.9272    7137.8376    4349.7999   -955.50428   -778.79646   -426.03313   -2918.8868 
 2960000    250.85311   -3907.2396    -3477.286   -3907.2396            0    6048.1912    17.212593    20.274161    20.999324    7328.1529     6342.843    6140.4794    5661.2512    -1062.839   -435.94761    295.07201    -2830.894 
 2961000    238.94633   -3920.5433   -3510.9974   -3920.5433            0    4567.5258    17.292058    20.367761    21.096271    7430.1174    4655.9891    3469.7922    5576.7961   -123.59333    1099.1507    559.51962   -3016.0574 
 2962000    245.21182     -3918.55   -3498.2653     -3918.55            0     4853.852    17.276145    20.349017    21.076856    7409.6227    4763.2774    5914.5407     3883.738    -1121.929    669.39309    91.563978   -2973.7496 
 2963000    256.43736   -3923.7339    -3484.209   -3923.7339            0    5328.0534    17.295624     20.37196    21.100621    7434.7142    3709.6316      7502.98    4771.5486   -347.81906    225.46821    1449.8575   -2906.5006 
 2964000    242.27409   -3916.7634   -3501.5139   -3916.7634            0     4869.643    17.237589    20.303603    21.029819     7360.125     5816.969    3607.2045    5184.7555 -0.016513267    482.63776   -1267.4972    -2978.807 
 2965000    236.45384    -3960.657   -3555.3832    -3960.657            0    3075.8741    17.323878     20.40524    21.135091      7471.21    2860.1012     2165.372    4202.1491   -14.373583   -951.56382    1216.3349   -3220.2362 
 2966000    243.58858   -3931.6886   -3514.1861   -3931.6886            0    6778.5459    17.241222    20.307882    21.034251    7364.7791    7435.5843    5671.5162    7228.5373   -448.32135    1268.8863   -1137.7377   -2786.1177 
 2967000    228.57307   -3920.5739   -3528.8075   -3920.5739            0    5226.6746    17.323367    20.404638    21.134467    7470.5483    5600.9871    6027.4798    4051.5569     461.5703   -70.784083   -572.90084   -2959.3598 
 2968000      250.641   -3912.9342   -3483.3441   -3912.9342            0    5719.2476    17.278297    20.351551    21.079482     7412.392     6113.368    4405.6319     6638.743    420.78347    215.07185   -546.10567   -2865.0813 
 2969000    251.59143   -3902.7549   -3471.5358   -3902.7549            0    3992.0347    17.299087    20.376039    21.104846    7439.1812    3422.4242     2188.108    6365.5719   -722.32583   -193.32973   -1181.4117   -3038.4286 
 2970000    246.46965   -3952.5309   -3530.0903   -3952.5309            0    5188.5233     17.22119    20.284288    21.009812    7339.1388    4555.8546    5235.2527    5774.4626    214.43322    41.575472   -536.66582   -2974.7429 
 2971000    246.43369   -3929.6311   -3507.2521   -3929.6311            0     4309.791    17.309305    20.388075    21.117311     7452.371    2829.6225    6191.2026     3908.548   -1741.3489   -811.42488    269.61387   -3038.8417 
 2972000     237.7387   -3928.9408   -3521.4648   -3928.9408            0    4341.6092    17.272652    20.344902    21.072595    7405.1293    4551.4467     3494.961    4978.4198   -808.65829   -889.20175   -914.27782   -3052.5874 
 2973000    238.31015   -3919.1926   -3510.7372   -3919.1926            0    5865.6806    17.253203    20.321994    21.048867    7380.1428    5079.8225    6807.1257    5710.0937   -1096.2333    1000.5973    1118.7431   -2879.4033 
 2974000    246.32191   -3911.9378   -3489.7505   -3911.9378            0    3842.4141    17.285434    20.359958    21.088189    7421.5818    4230.4357    3716.0924    3580.7142    -196.8372    769.85601   -856.87115   -3073.8623 
 2975000    242.91169   -3912.8952   -3496.5529   -3912.8952            0    4647.0422     17.25741    20.326949       21.054    7385.5428    4135.0657    4913.1202    4892.9408   -566.64679    360.60783   -1819.0833   -2996.0173 
 2976000    243.09197   -3907.7261   -3491.0748   -3907.7261            0    4062.7467    17.278175    20.351408    21.079333    7412.2353    4839.1892    2146.3373    5202.7135    -214.4276   -262.43956   -1625.9062   -3051.8925 
 2977000    263.48279   -3881.3899   -3429.7894   -3881.3899            0    6001.6171    17.353371    20.439979    21.171073    7509.4336    6815.6357    5563.3582    5625.8575    -497.0902    52.999147   -209.22874    -2772.508 
 2978000    247.81426   -3905.3954   -3480.6502   -3905.3954            0    6845.8705    17.212605    20.274175    20.999338    7328.1675    7196.0318    8001.4942    5340.0855   -554.65192   -84.288899    848.67102    -2749.006 
 2979000    246.80729   -3918.5594   -3495.5401   -3918.5594            0    3455.0962    17.310187    20.389113    21.118387    7453.5101    3011.8121      3820.19    3533.2865   -238.47842   -265.16204   -161.46082    -3119.965 
 2980000    247.12237   -3897.8611   -3474.3018   -3897.8611            0    3743.5089    17.329402    20.411747     21.14183    7478.3597    4969.3206    2465.7822     3795.424     129.3215   -771.08544    141.76441   -3066.0189 
 2981000    255.21207   -3923.6746   -3486.2498   -3923.6746            0    4980.7037    17.259468    20.329373    21.056511    7388.1856    5609.5557    4763.5637    4568.9918   -1398.2447    32.702409   -143.26963   -2949.5834 
 2982000    234.73821   -3896.5693   -3494.2361   -3896.5693            0    4847.8744    17.284789    20.359198    21.087402    7420.7505    4459.0206    5263.0202    4821.5824   -814.70892    -1110.291   -304.16097   -2969.5795 
 2983000    246.43033   -3936.1123   -3513.7392   -3936.1123            0     4454.566    17.243741    20.310849    21.037324    7368.0075     6482.338    3657.0725    3224.2875   -588.73219   -48.563771   -763.30173   -3035.0745 
 2984000    249.90501   -3923.4438   -3495.1152   -3923.4438            0    2773.0473    17.356688    20.443886    21.175119      7513.74     2877.161    3031.9996    2409.9811   -638.61859   -375.39854    1321.3941   -3191.2442 
 2985000    244.95634    -3951.501   -3531.6542    -3951.501            0    2498.3489     17.30048     20.37768    21.106545    7440.9784    3682.2863    1474.6215    2338.1387    740.24765    384.01098    153.66546   -3260.5358 
 2986000    243.13676   -3923.6958   -3506.9677   -3923.6958            0    6045.3478    17.262303    20.332712    21.059969    7391.8265    6690.7735    6021.3476    5423.9224     -183.198   -2083.6184    1015.3364   -2855.2658 
 2987000    243.41043   -3934.8255   -3517.6284   -3934.8255            0    3114.1336    17.356236    20.443353    21.174567    7513.1529     3353.106    1631.4316     4357.863   -1034.2879    273.28721    536.86475   -3176.4077 
 2988000    259.36304     -3929.99   -3485.4506     -3929.99            0    4442.3271    17.263887    20.334578    21.061901    7393.8616    3910.6487    4643.0339    4773.2987   -79.473963   -653.72297    487.83727   -3006.4261 
 2989000    235.10144    -3909.971   -3507.0152    -3909.971            0     3490.098    17.290764    20.366237    21.094692    7428.4495    4210.8594    4490.5717    1768.8628   -362.47806    571.78157    1564.8658   -3128.9108 
 2990000    241.16623   -3931.5833   -3518.2326   -3931.5833            0    3069.9139    17.345326    20.430503    21.161257    7498.9934    3299.3327    1982.7824    3927.6265    15.348704    16.700789   -26.248427   -3182.4911 
 2991000    253.94819   -3973.9999   -3538.7414   -3973.9999            0    2641.4785    17.354823    20.441689    21.172843    7511.3178    3692.0001    3503.8077    728.62771     843.1412   -528.66254    119.49265   -3249.3809 
 2992000    247.72139    -3922.292    -3497.706    -3922.292            0    1129.3785      17.3314    20.414099    21.144267    7480.9456    1794.7057   -156.04445    1749.4743    -399.2826     304.2478   -1634.4089   -3374.4886 
 2993000     244.5745   -3892.3149   -3473.1226   -3892.3149            0    5087.7249     17.27083    20.342756    21.070372    7402.7862    7173.6246    2668.3774    5421.1726   -28.986691    459.75157   -346.00917   -2923.8414 
 2994000    246.70106   -3909.3041    -3486.467   -3909.3041            0    3968.1545    17.227923    20.292218    21.018026    7347.7499    6355.0508     2793.563    2755.8498    -877.7687   -1101.8674   -1269.6108   -3061.2419 
 2995000    259.18981   -3926.1353   -3481.8928   -3926.1353            0    3264.8144    17.291351    20.366927    21.095408    7429.2052    3538.2205    2980.8455    3275.3773   -795.92367   -555.68128   -1127.1834   -3128.1589 
 2996000    243.93278    -3932.671   -3514.5786    -3932.671            0    3762.4088    17.313888    20.393473    21.122902    7458.2918    2956.5705    4405.9897    3924.6663   -170.44385   -1554.7739   -1199.5414   -3105.3356 
 2997000    239.20081   -3927.8666   -3517.8846   -3927.8666            0    4459.1524    17.268714    20.340264    21.067791     7400.066    4521.8241    5252.9871    3602.6462   -1097.6704    52.201975    1804.7201   -3036.6422 
 2998000    253.58451   -3924.5464   -3489.9113   -3924.5464            0    4144.6028    17.339859    20.424064    21.154588    7491.9052    3831.4942     4314.084    4288.2302    181.21401   -384.49062   -794.15602   -3037.0647 
 2999000    243.00439   -3940.9964   -3524.4952   -3940.9964            0    5329.2702    17.246681    20.314312     21.04091    7371.7763    5891.0982    5880.0452    4216.6672    164.33919   -1670.4647    548.38087   -2951.5464 
 3000000     255.9189   -3908.0222   -3469.3859   -3908.0222            0     3732.741    17.304535    20.382457    21.111493    7446.2124    4278.5738    3185.4913     3734.158     937.9725    36.128715    419.93534   -3064.0276 
Loop time of 444.238 on 64 procs for 250000 steps with 864 atoms

Performance: 97.245 ns/day, 0.247 hours/ns, 562.761 timesteps/s
99.1% CPU use with 64 MPI tasks x 1 OpenMP threads

MPI task timing breakdown:
Section |  min time  |  avg time  |  max time  |%varavg| %total
---------------------------------------------------------------
Pair    | 21.226     | 25.631     | 29.944     |  46.6 |  5.77
Bond    | 0.26348    | 0.28473    | 0.29796    |   1.1 |  0.06
Kspace  | 197.76     | 204.56     | 211.44     |  23.5 | 46.05
Neigh   | 4.6053     | 5.1231     | 5.7444     |  14.2 |  1.15
Comm    | 93.024     | 98.735     | 104.68     |  31.4 | 22.23
Output  | 1.5355     | 1.5365     | 1.5424     |   0.1 |  0.35
Modify  | 99.313     | 101.5      | 105.63     |  15.4 | 22.85
Other   |            | 6.866      |            |       |  1.55

Nlocal:        13.5000 ave          20 max           7 min
Histogram: 1 0 4 17 11 11 14 4 0 2
Nghost:        2149.69 ave        2193 max        2106 min
Histogram: 2 1 7 12 10 13 8 5 3 3
Neighs:        4149.27 ave        6137 max        1789 min
Histogram: 1 0 4 7 18 10 11 6 5 2

Total # of neighbors = 265553
Ave neighs/atom = 307.35301
Ave special neighs/atom = 2.0000000
Neighbor list builds = 12150
Dangerous builds = 0

unfix		3
unfix		2
unfix		1

write_data	data.final.${pid}
write_data	data.final.0
System init for write_data ...
PPPM initialization ...
  extracting TIP4P info from pair style
  using 12-bit tables for long-range coulomb (../kspace.cpp:340)
  G vector (1/distance) = 0.37423802
  grid = 24 24 25
  stencil order = 5
  estimated absolute RMS force accuracy = 0.0030744991
  estimated relative force accuracy = 9.2587628e-06
  using double precision FFTW3
  3d grid and FFT values/proc = 2730 288
Last active /omp style is kspace_style pppm/tip4p/omp
WARNING: Not all mixed pair coeffs generated from mixing. Use write_data with 'pair ij' option to store all pair coeffs. (../write_data.cpp:312)

write_restart   restart.lmp.${pid}
write_restart   restart.lmp.0
System init for write_restart ...
PPPM initialization ...
  extracting TIP4P info from pair style
  using 12-bit tables for long-range coulomb (../kspace.cpp:340)
  G vector (1/distance) = 0.37423802
  grid = 24 24 25
  stencil order = 5
  estimated absolute RMS force accuracy = 0.0030744991
  estimated relative force accuracy = 9.2587628e-06
  using double precision FFTW3
  3d grid and FFT values/proc = 2730 288
Last active /omp style is kspace_style pppm/tip4p/omp
Total wall time: 0:07:28
