LAMMPS (30 Jul 2021)
  using 1 OpenMP thread(s) per MPI task
package omp 0
using multi-threaded neighbor list subroutines
echo both

include		in.partitions
variable        pid world 0
include		in.temp
variable        temperature equal 237.54
variable	tempDamp equal 100.0
include		in.pressure
variable        pressure equal 3750.0
variable        pressureDamp equal 1000.0 # This is 1 ps
include		in.seed
variable        seed world 745823

units		real
atom_style	full
read_restart	restart.lmp.${pid}
read_restart	restart.lmp.0
Reading restart file ...
  restart file = 30 Jul 2021, LAMMPS = 30 Jul 2021
  restoring atom style full from restart
  orthogonal box = (0.35727351 1.5123523 0.43587285) to (17.850299 22.116826 21.777323)
  4 by 4 by 4 MPI processor grid
  restoring pair style lj/cut/tip4p/long/omp from restart
  restoring bond style harmonic/omp from restart
  restoring angle style harmonic/omp from restart
  864 atoms
  576 bonds
  288 angles
Finding 1-2 1-3 1-4 neighbors ...
  special bond factors lj:    0        0        0       
  special bond factors coul:  0        0        0       
     2 = max # of 1-2 neighbors
     1 = max # of 1-3 neighbors
     1 = max # of 1-4 neighbors
     2 = max # of special neighbors
  special bonds CPU = 1.284 seconds
  read_restart CPU = 1.549 seconds
include 	in.setup
variable	out_freq equal 1000
variable	out_freq2 equal 10000
variable	out_freq3 equal 1000

timestep	2.0

neigh_modify    delay 7 every 1

include		in.tip4p
# This is TIP4P/Ice

# create groups ###
group ox type 2
288 atoms in group ox
group hy type 1
576 atoms in group hy

# set charges - beside manually ###
set group ox charge -1.1794
Setting atom values ...
  288 settings made for charge
set group hy charge 0.5897
Setting atom values ...
  576 settings made for charge

# ### TIP3P Potential Parameters ###
pair_style lj/cut/tip4p/long/omp 2 1 1 1 0.1577 8.5
pair_coeff 1 1*2 0.000 0.000
pair_coeff 2 2 0.21084 3.1668
bond_style  harmonic
bond_coeff  1 450 0.9572
angle_style harmonic
angle_coeff 1 55 104.52
kspace_style pppm/tip4p/omp 1.0e-5
pair_modify tail yes

thermo          ${out_freq}
thermo          1000
thermo_style    custom step temp pe etotal epair emol press lx ly lz vol pxx pyy pzz pxy pxz pyz enthalpy

restart 	${out_freq3} restart.lmp.${pid} restart2.lmp.${pid}
restart 	1000 restart.lmp.${pid} restart2.lmp.${pid}
restart 	1000 restart.lmp.0 restart2.lmp.${pid}
restart 	1000 restart.lmp.0 restart2.lmp.0


include         in.dump
dump            myDump all atom ${out_freq2} dump.water.${pid}
dump            myDump all atom 10000 dump.water.${pid}
dump            myDump all atom 10000 dump.water.0
dump            myDump2 all dcd ${out_freq2} dump.dcd
dump            myDump2 all dcd 10000 dump.dcd
dump_modify     myDump append yes
dump_modify     myDump2 append yes


variable natoms 	equal  "count(all)"                        # NUMBER ATOMS
variable H      	equal  "enthalpy/v_natoms"                 # ENTHALPY-per-atom
variable Vol      	equal  "vol/v_natoms"                 # volume-per-atom
fix AVG all 		ave/time ${out_freq} 1 ${out_freq} v_Vol v_H file vol_enthalpy.dat
fix AVG all 		ave/time 1000 1 ${out_freq} v_Vol v_H file vol_enthalpy.dat
fix AVG all 		ave/time 1000 1 1000 v_Vol v_H file vol_enthalpy.dat


timer           timeout 23:50:00 every 1000
New timer settings: style=normal  mode=nosync  timeout=23:50:00

fix 		1 all shake 1e-6 200 0 b 1 a 1
       0 = # of size 2 clusters
       0 = # of size 3 clusters
       0 = # of size 4 clusters
     288 = # of frozen angles
  find clusters CPU = 0.215 seconds
fix             2 all nph iso ${pressure} ${pressure} ${pressureDamp}
fix             2 all nph iso 3750 ${pressure} ${pressureDamp}
fix             2 all nph iso 3750 3750 ${pressureDamp}
fix             2 all nph iso 3750 3750 1000
fix             3 all temp/csvr ${temperature} ${temperature} ${tempDamp} ${seed}
fix             3 all temp/csvr 237.54 ${temperature} ${tempDamp} ${seed}
fix             3 all temp/csvr 237.54 237.54 ${tempDamp} ${seed}
fix             3 all temp/csvr 237.54 237.54 100 ${seed}
fix             3 all temp/csvr 237.54 237.54 100 745823

run             250000
PPPM initialization ...
  extracting TIP4P info from pair style
  using 12-bit tables for long-range coulomb (../kspace.cpp:340)
  G vector (1/distance) = 0.37334463
  grid = 24 24 25
  stencil order = 5
  estimated absolute RMS force accuracy = 0.0031751151
  estimated relative force accuracy = 9.5617647e-06
  using double precision FFTW3
  3d grid and FFT values/proc = 2730 288
Last active /omp style is kspace_style pppm/tip4p/omp
Neighbor list info ...
  update every 1 steps, delay 7 steps, check yes
  max neighbors/atom: 2000, page size: 100000
  master list distance cutoff = 10.8154
  ghost atom cutoff = 10.8154
  binsize = 5.4077, bins = 4 4 4
  1 neighbor lists, perpetual/occasional/extra = 1 0 0
  (1) pair lj/cut/tip4p/long/omp, perpetual
      attributes: half, newton on, omp
      pair build: half/bin/newton/omp
      stencil: half/bin/3d
      bin: standard
Per MPI rank memory allocation (min/avg/max) = 9.237 | 9.241 | 9.247 Mbytes
Step Temp PotEng TotEng E_pair E_mol Press Lx Ly Lz Volume Pxx Pyy Pzz Pxy Pxz Pyz Enthalpy 
13000000    245.12839   -3929.5767    -3509.435   -3929.5767            0     1815.694    17.493025    20.604473     21.34145    7692.1965    1595.5592    1352.0392    2499.4836    1168.7328    356.94718   -465.82555   -3305.7454 
13001000     235.7723   -3923.0032   -3518.8975   -3923.0032            0    3917.2522    17.454923    20.559594    21.294965    7642.0415    4052.3388    3260.9336    4438.4842    358.21858    892.15538   -1770.5775   -3082.3145 
13002000    240.04306   -3942.3387   -3530.9131   -3942.3387            0    3759.9089    17.458275    20.563542    21.299055    7646.4451    2839.3204    4336.3744    4104.0319   -196.75967    211.80628   -1578.9908   -3111.6248 
13003000    224.52164   -3905.6023   -3520.7799   -3905.6023            0    4639.5607    17.379959    20.471296    21.203509    7544.0024     4877.575    3617.1036    5424.0035    997.15161   -149.00984   -346.87053   -3010.3283 
13004000    223.71204   -3946.5373   -3563.1026   -3946.5373            0    3870.8952    17.338626    20.422612    21.153084    7490.3077    3234.4974     2457.387     5920.801   -577.99107   -292.86063   -92.124437    -3140.252 
13005000    225.93923   -3909.5532   -3522.3011   -3909.5532            0    4918.5881    17.362636    20.450891    21.182375    7521.4667    5329.0343    5979.6778    3447.0523    29.995491    1050.3817   -1364.2419    -2982.767 
13006000    238.60817   -3929.9471   -3520.9809   -3929.9471            0    2972.9947    17.410702    20.507507    21.241016    7584.1066    3286.2319    2225.0291    3407.7232   -598.20441   -567.26474   -230.79714   -3192.1486 
13007000     243.4213   -3954.0745   -3536.8587   -3954.0745            0    5181.6004    17.298236    20.375037    21.103808    7438.0835    4844.8286    5580.9266     5119.046    884.12315     786.6509   -686.35074   -2974.7752 
13008000    240.72768   -3941.1861   -3528.5871   -3941.1861            0    3239.2035    17.393104    20.486779    21.219546    7561.1328     2768.611     4006.509    2942.4906   -1934.7882   -1605.2281    126.03812   -3171.3957 
13009000    245.78349   -3953.6967   -3532.4322   -3953.6967            0    4328.8054    17.392959    20.486608    21.219369    7560.9434     4109.428    3584.0782      5292.91   -266.35894   -844.60428    421.44018   -3055.1009 
13010000    231.87348   -3925.2637   -3527.8405   -3925.2637            0    4649.5502    17.402841    20.498247    21.231425     7573.838    4909.5854    4178.1309    4860.9343     493.3112   -337.90503    537.39386   -3014.2667 
13011000    229.17926   -3925.0714    -3532.266   -3925.0714            0    5153.3473    17.351823    20.438156    21.169184    7507.4239    7213.5614    3939.8062    4306.6743   -649.63913    1076.4421    1298.9303   -2968.0359 
13012000    244.15237   -3916.2923   -3497.8235   -3916.2923            0    2948.9912    17.419685    20.518088    21.251975    7595.8523    3441.2595    1762.9323    3642.7817    647.53875    130.09733    1551.4437    -3171.141 
13013000    230.29323   -3891.8832   -3497.1685   -3891.8832            0    3550.1875     17.45646    20.561404    21.296841    7644.0609    4007.4309    4757.0167    1886.1148   -1155.7804    760.14469   -418.06845   -3101.3908 
13014000    242.24442   -3963.3061   -3548.1074   -3963.3061            0    2462.1946    17.409087    20.505605    21.239045    7581.9963    2591.5632    2537.8809    2257.1397   -732.58029   -882.92818    745.72818   -3275.8487 
13015000    233.39484   -3930.8257   -3530.7949   -3930.8257            0    4341.9245     17.38189     20.47357    21.205865    7546.5172     4761.645    3714.5858    4549.5427   -23.989781    1028.1463    522.13301   -3052.9305 
13016000    240.78264   -3948.4487   -3535.7555   -3948.4487            0    3222.6924    17.413235    20.510491    21.244106    7587.4173    4228.6275    3391.1624    2048.2873   -577.91667   -14.618597   -1617.0795   -3179.1495 
13017000    246.88261   -3955.7386   -3532.5902   -3955.7386            0    3533.3649    17.350635    20.436757    21.167735     7505.882    1651.4297     4166.423    4782.2421   -358.98261    148.76643   -40.323883   -3145.8083 
13018000    229.37944   -3961.3093   -3568.1608   -3961.3093            0    4219.0837     17.38514    20.477399    21.209831    7550.7517     2724.526    4995.0346    4937.6906    -1255.096   -822.36507    1033.9068   -3103.5555 
13019000    227.04479   -3928.7881   -3539.6411   -3928.7881            0    4518.4838    17.370061    20.459638    21.191434    7531.1212    3577.5434    5745.6456    4232.2623   -332.39557   -72.139658   -509.81306   -3043.3594 
13020000    225.98131   -3946.7194   -3559.3951   -3946.7194            0    2084.7171    17.441826    20.544167    21.278987    7624.8519    2432.9053    2408.1867    1413.0593    238.53717    151.90397   -804.48016   -3327.5733 
13021000    238.34143   -3963.8378   -3555.3287   -3963.8378            0    3450.4586     17.38566    20.478011    21.210465     7551.429    2525.0766    3056.2622    4770.0371   -701.19464   -1000.9353   -859.59179   -3175.3303 
13022000    237.60995   -3937.5956   -3530.3402   -3937.5956            0    4427.2781    17.392363    20.485906    21.218642    7560.1664    4257.8275    3330.1221    5693.8847    70.871013    663.44358   -228.55708   -3042.2006 
13023000    229.14188   -3963.0013   -3570.2599   -3963.0013            0    3904.6301    17.467377    20.574263     21.31016    7658.4116    4219.3168    4156.4632    3338.1104    112.43648    600.36168    1411.0098   -3134.1515 
13024000    250.79837   -3925.2663   -3495.4065   -3925.2663            0    4475.7655     17.38816    20.480955    21.213514    7554.6867     4127.916    5021.2814    4278.0993   -509.35681    46.441112    18.208409   -3002.2785 
13025000     239.2696   -3947.3889    -3537.289   -3947.3889            0    4243.2272    17.385011    20.477246    21.209673     7550.583    4567.0307    4266.3897     3896.261    214.06922     1280.995    567.25542   -3070.0354 
13026000    255.28165   -3943.2977   -3505.7537   -3943.2977            0    4557.3163    17.380137    20.471505    21.203726    7544.2341    5933.7729     3631.936      4106.24   -1337.7623   -629.11196   -593.07786   -3004.3353 
13027000    249.92651   -3942.7839   -3514.4185   -3942.7839            0    2906.7823    17.443556    20.546204    21.281097    7627.1209    2774.9513    3764.7509    2180.6446    456.95256    460.77696   -299.21658   -3191.0862 
13028000    220.68782   -3935.1185   -3556.8671   -3935.1185            0    3695.4774    17.385105    20.477357    21.209787    7550.7054    1298.2661    3994.9495    5793.2165   -978.27905    698.07858    1670.1742   -3149.9238 
13029000    223.95565   -3942.9956   -3559.1433   -3942.9956            0     2806.271    17.339688    20.423862    21.154379    7491.6833    2540.7804    2559.3891    3318.6436    877.64371   -235.31609   -65.031651   -3252.5343 
13030000    248.90177   -3929.2758   -3502.6667   -3929.2758            0     3277.414    17.380642      20.4721    21.204342    7544.8915     4609.909    3044.8961    2177.4368   -70.143847    144.18123   -3.8978845   -3142.0381 
13031000    248.39917   -3930.5071   -3504.7594   -3930.5071            0    3090.0952    17.291088    20.366618    21.095087    7428.8665    4260.7154    2395.7323     2613.838   -200.73998    860.78413    372.59876   -3169.9711 
13032000    238.34499   -3936.6099   -3528.0947   -3936.6099            0    2742.7748    17.312566    20.391916     21.12129    7456.5835    4623.4743    1968.2926    1636.5575    -403.5323    1097.2084    385.67493   -3229.8272 
13033000     241.8033    -3954.961   -3540.5185    -3954.961            0     2448.983    17.373671    20.463889    21.195838    7535.8169    1935.8271     3828.352      1582.77     228.9084   -509.00835   -860.26908   -3271.3699 
13034000    236.99821   -3966.8884   -3560.6816   -3966.8884            0    5052.9073    17.213958    20.275769    21.000989    7329.8964    4990.5884    4685.5017    5482.6318   -185.04869    320.01055    996.08528   -3020.5308 
13035000    229.28717    -3974.716   -3581.7256    -3974.716            0    4550.4989    17.329453    20.411807    21.141893    7478.4258    4332.5432    6583.9151    2735.0385    472.91772    1282.9619   -139.11727   -3085.4247 
13036000    236.34878   -3965.7618    -3560.668   -3965.7618            0    4736.0988    17.314674    20.394399    21.123861    7459.3077    5361.1919    5182.9271    3664.1775    665.20861    2005.6239   -486.86304   -3045.4451 
13037000    233.28187   -3923.9468   -3524.1096   -3923.9468            0    2451.8031    17.420995    20.519631    21.253573    7597.5656     3174.342    2276.4096    1904.6578   -241.36373   -203.68173    812.15068   -3252.4432 
13038000     238.8773   -3946.5412   -3537.1137   -3946.5412            0    4069.0118    17.351457    20.437724    21.168737    7506.9484    2424.9455    4994.9448    4787.1451    381.29042   -786.97046    -152.8152   -3091.6336 
13039000     229.2477   -3914.3176   -3521.3949   -3914.3176            0    4986.4871    17.284941    20.359377    21.087588    7420.9464     4476.132      4199.82    6283.5093    601.01255    1301.9579   -1486.1874   -2981.7229 
13040000    234.66072   -3928.5678   -3526.3674   -3928.5678            0     3549.845    17.271503    20.343549    21.071194    7403.6521    2359.1954    1948.7188    6341.6209   -569.61261   -1973.5581    272.62805    -3143.074 
13041000    233.55857   -3928.8652   -3528.5538   -3928.8652            0    2646.5767     17.36321    20.451568    21.183076    7522.2135      3555.56     511.5615    3872.6087   -650.75491     -1063.23   -190.53604   -3238.2143 
13042000    239.12446   -3957.0203   -3547.1692   -3957.0203            0    4741.9248     17.30487    20.382851    21.111901    7446.6442    4684.3808    5170.2935       4371.1    127.19665    878.65822     64.07986   -3032.1883 
13043000    243.53276   -3942.4311   -3525.0243   -3942.4311            0    2183.0173    17.405364     20.50122    21.234504    7577.1335    3205.7458    2516.3032    827.00293    186.31693    569.75328      1008.37   -3283.7906 
13044000    232.23529   -3940.1547   -3542.1114   -3940.1547            0    2260.1493    17.313552    20.393077    21.122493    7457.8577     1494.607    1789.0004    3496.8405    572.93817    571.18718   -1359.6888   -3296.2858 
13045000    233.41998   -4002.0266   -3601.9527   -4002.0266            0    3732.5146    17.260576    20.330678    21.057862    7389.6084    5199.7552    2434.3463    3563.4421   -1014.5077   -648.66723     781.1656   -3199.7001 
13046000    241.40107   -3954.0716   -3540.3185   -3954.0716            0     4166.847     17.35524    20.442181    21.173353    7511.8598    4930.6477    3891.1525    3678.7409   -759.51866   -1299.5405    180.28769   -3083.8288 
13047000    224.66446   -3946.1294   -3561.0622   -3946.1294            0    2438.9964    17.371441    20.461263    21.193118    7532.9163    1119.4366    3238.0095    2959.5429    98.225726   -571.30369    1537.8649   -3293.1144 
13048000    243.50938     -3960.02   -3542.6532     -3960.02            0    2891.2802    17.335374    20.418781    21.149116    7486.0934    3817.1023    3713.4232     1143.315    649.50059   -241.52181    609.61728   -3226.9919 
13049000    235.91016   -3941.9497   -3537.6077   -3941.9497            0    5141.6911    17.326214    20.407991    21.137941    7474.2325    5707.8326    5453.0302    4264.2105    532.18167    -667.5373   -189.55303   -2977.1428 
13050000    236.27816   -3976.5226   -3571.5499   -3976.5226            0    5255.4105    17.361358    20.449387    21.180816    7519.8068    4726.1922    5510.8071    5529.2323    508.66452    294.93789   -1402.8393    -2995.196 
13051000    240.53311    -3959.173   -3546.9075    -3959.173            0    2731.6075     17.39857    20.493217    21.226214    7568.2632    3172.6716    3149.9774    1872.1736    141.81851   -1583.9656   -379.02248   -3245.4053 
13052000    235.36979   -3979.6446   -3576.2288   -3979.6446            0     3579.678    17.359524    20.447226    21.178578    7517.4233     4008.782    3646.2215    3084.0304   -613.59136    1477.8342     11.42783   -3183.7747 
13053000    236.66535   -3971.4329   -3565.7966   -3971.4329            0    3930.7294    17.347888    20.433521    21.164383    7502.3175    3787.8675    5341.4781    2662.8427    763.74965   -674.73656   -213.85792   -3135.7213 
13054000    238.62557   -3954.8795   -3545.8835   -3954.8795            0    3962.2648    17.395939    20.490119    21.223005    7564.8313    4527.9922    3862.5642     3496.238    903.09586   -619.86956   -600.98606   -3108.7454 
13055000    238.80324   -3977.3513   -3568.0508   -3977.3513            0    3027.7817    17.318326    20.398701    21.128317    7464.0292    3516.3219    4946.7242    620.29887    1044.6555    -1075.406   -757.96451    -3238.461 
13056000    247.28642    -3959.194   -3535.3535    -3959.194            0    3783.2833    17.416566    20.514414     21.24817    7591.7726    3853.8619    3933.6985    3562.2894   -436.46992   -313.18297   -445.81454   -3116.4751 
13057000    247.78029   -3983.2851   -3558.5982   -3983.2851            0     4637.061    17.359639    20.447362     21.17872    7517.5736    5253.7176    3942.3542    4715.1113    670.19337   -754.04694   -782.75663   -3050.2089 
13058000    249.18524   -3982.9022   -3555.8072   -3982.9022            0    2814.8852    17.390497    20.483708    21.216366    7557.7332     2447.966    3228.0623    2768.6275   -524.83521   -150.82635    -1112.078   -3245.5455 
13059000     244.9101   -3978.3479   -3558.5803   -3978.3479            0    3420.6992    17.411068    20.507938    21.241462    7584.5852    4094.8717    2535.5629     3631.663    736.41737    610.73503    1296.1233   -3180.2052 
13060000    229.45913   -3981.7398   -3588.4548   -3981.7398            0    4496.6706    17.395865    20.490031    21.222915    7564.7343    5142.4181    4048.2552    4299.3385   -1372.1254    127.83216    681.86235   -3092.3646 
13061000    241.86468   -3958.8828    -3544.335   -3958.8828            0    2871.7303    17.467115    20.573955     21.30984    7658.0668    851.21275    4334.6379    3429.3404    593.21181    2101.5282   -569.09562   -3223.6056 
13062000    242.08033   -3948.0284    -3533.111   -3948.0284            0    2611.2362    17.406888    20.503014    21.236362    7579.1231    2779.7941    2902.7502    2151.1644    270.85779   -1143.9223    -317.6351   -3244.4813 
13063000    247.33313   -3923.1788   -3499.2582   -3923.1788            0     6477.782    17.301686    20.379101    21.108017    7442.5352    5432.7331    6768.6268    7231.9861    690.51391    961.07154     -752.862   -2796.1485 
13064000    237.09337   -3960.5826   -3554.2127   -3960.5826            0    4989.4244    17.429843    20.530053    21.264368     7609.148     4535.948    5188.0871    5244.2381     1684.186   -975.60691    208.87495   -3000.5282 
13065000    222.08161   -3968.1073    -3587.467   -3968.1073            0    6095.6413    17.352279    20.438692    21.169739    7508.0149     8187.279    5172.8442    4926.8009    659.40615   -1439.5953    1750.7867   -2920.0144 
13066000    254.41834   -3972.3177   -3536.2533   -3972.3177            0    3471.8084    17.451617      20.5557    21.290932    7637.7004    3865.6778    4804.4103    1745.3371    747.96896   -1157.0848    1969.8122   -3149.5355 
13067000    236.55327    -4002.486   -3597.0418    -4002.486            0    4307.6897     17.33706    20.420766    21.151172    7488.2772    4973.8305    4035.3107     3913.928    546.21356    507.86989    35.708973   -3126.6039 
13068000    233.47055   -3972.6444   -3572.4838   -3972.6444            0    3012.2707    17.437153    20.538663    21.273286     7618.726    3576.0443    2751.5139    2709.2539    -330.8926   -1331.4696    2.9947079   -3237.7865 
13069000    223.71868    -3999.076   -3615.6298    -3999.076            0    3847.4578     17.36536      20.4541    21.185699    7525.0078    4374.6668    4150.6971    3017.0094   -446.55252   -995.99164    1134.9285   -3193.3924 
13070000    234.82353   -3969.3927   -3566.9132   -3969.3927            0    3357.3406    17.453467    20.557878    21.293189    7640.1291    1793.4381    4936.9415    3341.6423   -273.49496    814.39324   -836.08211   -3192.8267 
13071000    231.59619   -3957.7059    -3560.758   -3957.7059            0    6058.0913    17.339244    20.423339    21.153837    7491.1077    6271.3717    7367.8974    4535.0047   -102.16994    -266.7793     56.85042   -2898.9108 
13072000    245.17746   -3922.2749   -3502.0492   -3922.2749            0    3968.1358    17.446878    20.550117     21.28515    7631.4793    3379.2734    4125.5105    4399.6236   -685.91469    886.19414    1045.0957   -3060.4064 
13073000    236.00845   -3979.2798   -3574.7694   -3979.2798            0    3772.9152    17.400892    20.495952    21.229047    7571.2936    3280.1998    5395.5029    2643.0428     371.4161    639.77486    418.14689   -3158.1658 
13074000    235.58393    -3975.411   -3571.6282    -3975.411            0    3207.2144    17.475706    20.584073     21.32032    7669.3711    4493.7513    2649.3871    2478.5047    485.54822    169.96858    598.38654   -3212.9015 
13075000    232.26548   -3965.3602   -3567.2651   -3965.3602            0    5600.7114    17.362288    20.450482    21.181951    7521.0152    5310.0946     7573.265    3918.7745    851.54528    395.09664    682.74322   -2952.9439 
13076000    214.92231   -3943.3348   -3574.9653   -3943.3348            0    4097.0552    17.407706    20.503978    21.237361    7580.1921    3229.6334    5420.6721      3640.86    434.84272   -85.845791    466.33782   -3122.0386 
13077000    225.29469   -3963.7397   -3577.5924   -3963.7397            0    2879.5991    17.382796    20.474638    21.206971    7547.6976    3568.7193    2930.7476    2139.3305   -259.57151   -383.01848   -185.61419   -3260.6192 
13078000    240.68043   -3929.1633   -3516.6453   -3929.1633            0    4003.1362    17.435622     20.53686    21.271418     7616.719      4829.07    2984.7181    4195.6206    1352.4277   -411.30963   -1085.1915   -3071.9688 
13079000    241.11237   -3978.6032   -3565.3448   -3978.6032            0    4108.8057     17.38543     20.47774    21.210184    7551.1291    3575.6502    4306.3783    4444.3886    380.31029   -1014.9043   -671.13708   -3112.8607 
13080000    246.39727   -3962.2177   -3539.9012   -3962.2177            0    3824.3341    17.424498    20.523757    21.257847    7602.1498    3044.0526     3352.495    5076.4549   -798.18851   -263.89109    738.33272    -3115.899 
13081000      230.232   -3965.2049   -3570.5952   -3965.2049            0    3387.6023     17.44988    20.553654    21.288813    7635.4197    3677.1764    3839.5446     2646.086   -915.63335   -727.50755   -2020.5331   -3193.3695 
13082000    244.16582   -4000.2681   -3581.7762   -4000.2681            0    2677.8766    17.448571    20.552112    21.287216    7633.7013    1164.0193    4647.1872    2222.4232   -847.93272   -3.6882744    122.16653    -3283.649 
13083000    230.78249   -3965.8566   -3570.3033   -3965.8566            0    2539.9048    17.449694    20.553435    21.288586     7635.176    2046.4552    3413.8245    2159.4347    116.70548    995.43403    1065.5374   -3287.4818 
13084000    250.88442   -3936.4256   -3506.4183   -3936.4256            0     3926.975    17.454463    20.559052    21.294404    7641.4377    4409.1784    3256.9266    4114.8198    2069.9635    -288.6969   -477.44772   -3068.7863 
13085000    238.72638   -3975.3684   -3566.1996   -3975.3684            0    4859.5546    17.416472    20.514303    21.248055    7591.6489    5279.3021    4649.4733    4649.8885   -539.98312   -519.83245    334.94905   -3028.1671 
13086000    236.78296   -3962.2125   -3556.3747   -3962.2125            0    3173.6231     17.43064    20.530992     21.26534    7610.1919     4707.512     1652.437    3160.9203    432.39008   -1742.7924    1099.9059   -3204.1442 
13087000    221.83284   -3956.1395   -3575.9256   -3956.1395            0    2876.2367    17.483765    20.593566    21.330153    7679.9874    2671.8883     2966.532    2990.2899   -316.53921   -560.92975    239.68592   -3253.7735 
13088000     252.5528   -3962.6113   -3529.7445   -3962.6113            0    3628.3377    17.493631    20.605187    21.342189    7692.9959    2025.0575    5867.5637    2992.3921    1541.3997    153.01704   -41.970577   -3122.6651 
13089000    229.86688   -3986.2372   -3592.2532   -3986.2372            0    4587.2067     17.45023    20.554066     21.28924    7635.8791    4797.2777    4106.2429    4858.0994   -591.45832   -838.39798   -602.62364   -3081.4152 
13090000    229.99087   -3950.1349   -3555.9384   -3950.1349            0    6025.7032     17.42452    20.523783    21.257874    7602.1788    6810.0801    5042.3725    6224.6569    29.907522   -699.69463    495.75496   -2887.8688 
13091000    229.33897   -3987.3543   -3594.2751   -3987.3543            0    5546.4264    17.454649    20.559271    21.294631    7641.6814    4281.3634    7097.3204    5260.5955   -273.50852   -2145.5972    1084.1909   -2976.1476 
13092000    238.05051   -3947.4829   -3539.4725   -3947.4829            0    3777.1462    17.504184    20.617616    21.355063    7706.9256    3931.3461    3728.1034    3671.9892    372.28204   -893.36833    637.71152   -3114.9303 
13093000    236.00335   -3983.6075   -3579.1059   -3983.6075            0    2214.9053    17.492628    20.604006    21.340966    7691.6727    1465.2396    2439.7962      2739.68   -1115.1942    -1438.385    2292.4586   -3330.6485 
13094000    237.94722   -3955.1122   -3547.2788   -3955.1122            0    3761.9228    17.441238    20.543474    21.278269    7624.0807    1485.1576    5528.1782    4272.4325   -453.83006    -522.5201    185.14198   -3128.9929 
13095000    239.26695   -3989.4468   -3579.3515   -3989.4468            0    4920.2941    17.392463    20.486024    21.218764    7560.2971    4101.9679    5401.6531    5257.2612   -1100.9608   -71.992061    442.37845   -3036.8439 
13096000    243.78553   -3949.1619   -3531.3219   -3949.1619            0    3481.7123    17.500297    20.613038    21.350321    7701.7928    3266.0817    3261.5575    3917.4977    417.06044    977.18578    315.73776   -3140.2464 
13097000    232.60231   -3951.5426   -3552.8702   -3951.5426            0    3694.2781    17.394868    20.488857    21.221699    7563.4339    2674.0297    4090.6671    4318.1376    -667.2678    487.75457    1225.6769   -3145.3731 
13098000    222.02501   -3949.0189   -3568.4756   -3949.0189            0    1521.4473    17.427711    20.527542    21.261767    7606.3559    1958.9735    1113.1701    1492.1982    1358.7173    762.47587   -91.139583   -3399.7001 
13099000    233.77144   -3950.6455   -3549.9693   -3950.6455            0    3641.6358    17.500744    20.613565    21.350867    7702.3838    3328.9883    2657.9479     4937.971   -663.21909     1492.615    603.58619   -3140.8994 
13100000    241.31844   -3989.6786    -3576.067   -3989.6786            0    3449.5921    17.450443    20.554316    21.289499    7636.1585    2979.8332    2302.9002    5066.0428    1173.4443    1052.4697     -1097.71   -3191.9013 
13101000     243.5026   -4011.9899   -3594.6348   -4011.9899            0    3070.7639    17.426285    20.525862    21.260027    7604.4891     3359.224     1920.066    3933.0017   -387.70712    -215.6153   -798.51861   -3254.0758 
13102000    242.21345   -3949.6253   -3534.4797   -3949.6253            0    4074.5812     17.35999    20.447776    21.179148    7518.0297    4721.5667     1946.319    5555.8579   -1217.5537   -455.79814   -1233.4432   -3087.7314 
13103000    234.35505   -3955.8834   -3554.2069   -3955.8834            0    3907.1139    17.407675    20.503942    21.237323     7580.152    2415.6423    4261.9386    5043.7607   -247.23315   -1664.9564    430.44371   -3122.2804 
13104000      237.569   -3975.6378   -3568.4527   -3975.6378            0    5755.2578    17.369193    20.458616    21.190375    7529.9925    5279.9561    4232.8791    7752.9383   -233.82522    633.54078     -81.6655   -2936.4263 
13105000    253.24718   -3975.4986   -3541.4416   -3975.4986            0    3635.9487    17.402105    20.497381    21.230527    7572.8774    2717.6604    4580.9037     3609.282    1030.3935   -206.88052   0.65116087   -3139.8778 
13106000    237.60401   -3988.2651     -3581.02   -3988.2651            0    3224.2886    17.374762    20.465174    21.197169    7537.2368    3870.6192    1657.8044    4144.4421    658.14354   -589.06499   -485.04724   -3226.5969 
13107000     234.6958   -3960.3908   -3558.1302   -3960.3908            0     4302.492    17.294132    20.370203    21.098801    7432.7905    4130.6418    4022.2127    4754.6214     698.9761    332.25386   -789.57879   -3091.7417 
13108000    244.60415   -3951.8449   -3532.6017   -3951.8449            0    3183.7987    17.361897    20.450021    21.181474    7520.5069     2476.686    4735.5267    2339.1833    669.94255     -1633.88    891.83955   -3183.4063 
13109000    238.17088   -3965.8445   -3557.6278   -3965.8445            0    3357.9579    17.399021    20.493748    21.226765    7568.8522    2821.5605     2023.185    5229.1282    1468.1771    1719.0881   -680.34663   -3186.9632 
13110000    227.65195   -3949.0344   -3558.8468   -3949.0344            0    3446.5169    17.367748    20.456913    21.188612    7528.1127    3357.7282    4221.8115    2760.0111   -37.221589   -266.16565   -205.21104   -3180.4543 
13111000    238.81697   -3942.0563   -3532.7322   -3942.0563            0    3313.5492    17.422359    20.521237    21.255237    7599.3498    3518.9779    2797.4967     3624.173   -917.58289    193.12397    770.01831   -3165.4957 
13112000    230.08788   -3945.7892   -3551.4265   -3945.7892            0    2876.9342    17.477045     20.58565    21.321954    7671.1341    5115.0715    547.16582    2968.5653   -230.72897   -761.75913   -1050.4026   -3229.5677 
13113000    236.02848   -3960.9842   -3556.4395   -3960.9842            0     3320.434    17.423616    20.522718     21.25677    7600.9948    4119.1039    2971.3014    2870.8965   -147.76599   -623.20586    -224.5389   -3188.3604 
13114000    260.71947     -3947.48   -3500.6158     -3947.48            0    3832.0686    17.415368    20.513004    21.246709    7590.2064    2880.3701    4408.1187    4207.7169   -818.11873   -145.61155   -702.16676   -3076.4235 
13115000    246.19042   -3950.8698   -3528.9078   -3950.8698            0     3040.394    17.376207    20.466876    21.198932    7539.1177    4221.9873    999.46974     3899.725   -588.12442    2002.4695    109.15807   -3194.6156 
13116000    228.19459   -3942.2926   -3551.1749   -3942.2926            0    4865.6137     17.33842    20.422368    21.152831    7490.0396    6493.3828    3856.4016    4247.0568    588.30553    189.55436     703.8164   -3019.6818 
13117000    231.94101   -3977.4647   -3579.9257   -3977.4647            0    4656.2661    17.369012    20.458401    21.190154    7529.7561    4959.2285    5385.3614    3624.2083    993.10686   -750.93614   -502.28924   -3068.6036 
13118000    226.59253   -3969.8344   -3581.4626   -3969.8344            0    4279.7084    17.395029    20.489046    21.221894    7563.6432    5160.3908    4308.2463    3370.4881   -955.18527    784.82073   -977.72733   -3109.3766 
13119000     236.9651   -3961.4467   -3555.2967   -3961.4467            0    4318.2168    17.433337    20.534168    21.268631    7613.7249    5301.3994    3017.4701    4635.7809    452.42909    955.13136   -845.31577   -3075.8089 
13120000    241.06579   -3986.3605    -3573.182   -3986.3605            0    4007.6574    17.422561    20.521476    21.255484     7599.615     2752.931    4533.3669    4736.6742    264.65993   -1526.6883   -33.891425   -3129.0029 
13121000    232.86974   -3975.9243   -3576.7935   -3975.9243            0      3775.48     17.41169    20.508671    21.242221    7585.3977    3358.5326    4330.9171    3636.9902    787.94711    180.14397   -184.56783   -3159.1301 
13122000    243.40239   -3950.2348   -3533.0514   -3950.2348            0    4895.0361    17.380356    20.471763    21.203993     7544.519    3690.5942    6206.1417    4788.3723   -902.78569    540.71703    966.30424   -2994.4551 
13123000      231.537   -3994.0483   -3597.2018   -3994.0483            0    2517.6638    17.470112    20.577485    21.313496    7662.0092    2591.0301    2358.7211    2603.2403   -907.89185     -617.983   -198.51154   -3315.8716 
13124000    234.93219   -3932.7877   -3530.1219   -3932.7877            0     3799.651    17.381461    20.473065    21.205342    7545.9586     4455.245    3672.7409    3270.9672   -1631.3633   -463.15811    17.376067   -3111.9701 
13125000    241.68388   -3921.7241   -3507.4862   -3921.7241            0    4067.8429    17.421112    20.519768    21.253715    7597.7181    3073.1095    3470.0695    5660.3496    33.437448    3.5864134     660.1589   -3056.7492 
13126000     238.0634   -3960.6025   -3552.5699   -3960.6025            0    3627.4871    17.466982    20.573797    21.309677     7657.891    4295.7297    3562.2281    3024.5034   -3.4987813    1058.8467   -510.48306   -3147.4432 
13127000    247.77528   -3959.4414   -3534.7631   -3959.4414            0    6481.4869    17.340197    20.424462       21.155    7492.3432    6583.2605     5313.854    7547.3461    625.63619   -278.52894    932.34638   -2826.5431 
13128000    242.51623   -3970.1889   -3554.5244   -3970.1889            0    1732.9559    17.398811    20.493501    21.226509     7568.578    1825.0687    1906.2269     1467.572   -66.765959     114.4681    494.71753   -3363.2408 
13129000    245.95666   -3952.5863   -3531.0251   -3952.5863            0    2411.1413    17.406111      20.5021    21.235415    7578.1089    2499.0671    3196.0714    1538.2853    860.93214    533.82767    1218.6132   -3264.5483 
13130000    227.71654   -3980.8026   -3590.5042   -3980.8026            0    3638.7967     17.44061    20.542735    21.277503    7623.2575    2804.5388    5728.3452     2383.506   -790.63597    1137.2605   -418.22831   -3185.9523 
13131000    236.94759   -3992.3568   -3586.2367   -3992.3568            0    3698.1226    17.370855    20.460573    21.192403    7532.1542    2693.9746    3759.5377    4640.8555   -660.12873   -660.55253   -1142.0603   -3180.0026 
13132000    244.12835    -3943.227   -3524.7994    -3943.227            0    2707.7883    17.451046    20.555027    21.290236    7636.9508    3641.8621    2737.4055    1744.0973   -960.88254    139.03883   -185.47687   -3223.2138 
13133000    236.53888   -3985.7543   -3580.3348   -3985.7543            0    3296.1837     17.38737    20.480025    21.212551    7553.6571     3300.365    2864.9016    3723.2847   -101.56656   -988.63277   -635.27592   -3217.2195 
13134000    230.55882   -4006.0582   -3610.8883   -4006.0582            0    1451.3987    17.485505    20.595615    21.332275    7682.2794    2329.5375    1760.6574    264.00133    417.59846    968.03343    754.43518   -3448.2762 
13135000    223.05035   -3979.4835   -3597.1828   -3979.4835            0     3960.171    17.292701    20.368518    21.097055    7430.9461    4403.9566    3201.3442    4275.2123    1806.6712   -1754.0464   -196.32836   -3168.0083 
13136000    227.23939   -3954.9862   -3565.5057   -3954.9862            0    3523.5488    17.325413    20.407048    21.136964    7473.1964    2913.0764    3159.8585    4497.7114    874.21988   -150.75283   -839.97333    -3181.478 
13137000    228.79461   -3990.8126   -3598.6664   -3990.8126            0     4458.032    17.339687    20.423861    21.154378    7491.6821    5388.8237     3896.384    4088.8882    309.55478   -529.23245    -1670.166   -3111.5885 
13138000    252.44613   -4000.1327   -3567.4487   -4000.1327            0    3305.0264    17.345395    20.430585    21.161342    7499.0836    3720.6741    2415.4555    3778.9495     329.8922   -1702.8738   -1798.3144   -3205.9897 
13139000    214.74124   -3980.1095   -3612.0503   -3980.1095            0    5302.6296    17.341732    20.426269    21.156872    7494.3328    5939.8087    5499.4648    4468.6152    379.93899   -256.39054    537.36036    -3032.488 
13140000    234.74053   -3977.7543    -3575.417   -3977.7543            0    4517.9691    17.376848    20.467631    21.199714     7539.952    4079.9821    4043.3511     5430.574   -176.24696   -1225.6258   -363.10315     -3078.61 
13141000    243.37664   -4006.7161   -3589.5769   -4006.7161            0    4524.4693    17.289817    20.365121    21.093536    7427.2284    3388.8372    4390.7294    5793.8413    78.552902   -397.70893   -1582.6874   -3099.4932 
13142000    232.18702   -3972.4059   -3574.4453   -3972.4059            0    3530.0823    17.402921    20.498342    21.231522    7573.9425     4799.116    2196.7419     3594.389    1066.3732   -87.175368   -586.67213   -3184.5188 
13143000    228.49506   -3959.7599   -3568.1272   -3959.7599            0    4083.4433    17.367403    20.456507    21.188191    7527.6642    4407.1627    3442.0868    4401.0803    514.58504   -288.44075    -2262.781   -3119.8335 
13144000     245.7684   -3986.1037   -3564.8651   -3986.1037            0    3193.0291    17.399702     20.49455    21.227596    7569.7408    2673.6397    3221.6849    3683.7626   -602.07344   -1720.7754   -492.34377   -3212.3646 
13145000    247.10361   -3956.1615   -3532.6343   -3956.1615            0    4362.2358    17.331194    20.413857    21.144016    7480.6789    4909.4039    3841.0478    4336.2558   -302.88135   -408.10321   -758.31996    -3056.723 
13146000    238.48586   -3994.4285   -3585.6719   -3994.4285            0    3288.2562    17.421924    20.520725    21.254706    7598.7808    3330.4178    3450.4895    3083.8613    225.01644     282.4928    994.69693   -3221.2659 
13147000    231.91668    -3994.228   -3596.7308    -3994.228            0    4160.8515    17.324052    20.405445    21.135303    7471.4354    2925.3109    5104.7471    4452.4966   -1106.8894   -869.25079   -865.06663    -3143.351 
13148000    238.17012   -4010.7962   -3602.5808   -4010.7962            0    2660.8007    17.341015    20.425425    21.155997    7493.4032    3161.2251    1737.4627    3083.7143    940.99652   -1114.4947   -418.16942   -3311.7989 
13149000    247.45786   -3960.1029   -3535.9686   -3960.1029            0    1371.9883    17.354371    20.441157    21.172292    7510.7312    1227.0481    1705.9663    1182.9506    1187.4267   -752.18525    607.78995   -3385.6861 
13150000      243.524   -3993.2436   -3575.8518   -3993.2436            0    3301.6495    17.248448    20.316393    21.043066    7374.0428    2251.0826    2959.3599    4694.5061    37.334705    477.24682    393.50674    -3220.783 
13151000     254.4374   -3969.4003   -3533.3033   -3969.4003            0    3290.5082    17.214156    20.276001     21.00123    7330.1483    3730.2919    2319.5459    3821.6868   -168.12206    52.892485   -72.294158   -3181.5391 
13152000    220.32776   -3962.6374   -3585.0031   -3962.6374            0    4647.0435    17.223121    20.286562    21.012168    7341.6079    3663.4114    4586.4773    5691.2418   -389.86146   -143.59856    453.78087    -3087.445 
13153000    245.93117   -3986.9281   -3565.4105   -3986.9281            0    4359.3139    17.266367      20.3375    21.064928    7397.0492    4371.0245    4266.4355    4440.4818   -584.13497    -1256.347    562.43654   -3095.1348 
13154000     228.2351   -3980.9713   -3589.7841   -3980.9713            0    2869.5923    17.274037    20.346534    21.074285    7406.9115    3110.3855    3098.6132    2399.7782   -990.33604   -1549.4594   -1166.4432   -3279.8044 
13155000    235.45422    -3973.672   -3570.1115    -3973.672            0    3743.5978    17.236593     20.30243    21.028603    7358.8489    4517.7652    3792.2093    2920.8187   -175.91059   -1995.4144     514.9993   -3168.3439 
13156000    223.60653   -3984.8016   -3601.5477   -3984.8016            0    4794.4528     17.25362    20.322486    21.049377    7380.6788    5613.9968    4298.0572    4471.3044    1540.0782    625.91263    88.687028   -3085.4745 
13157000    235.29593    -3983.839   -3580.5498    -3983.839            0    4313.7977    17.289209    20.364405    21.092795    7426.4451    5952.5289    2022.2906    4966.5737    1149.0092    260.12354   -141.10968   -3113.3349 
13158000    231.97161   -3974.2347   -3576.6433   -3974.2347            0    4197.8268    17.316576    20.396639    21.126182    7461.7664     3469.451    3979.6675    5144.3619   -1445.1252    129.96737    765.31409   -3119.8266 
13159000    228.13245   -3954.6088   -3563.5976   -3954.6088            0     4012.078    17.328205    20.410337     21.14037    7476.8098    4718.3125     2706.771    4611.1506   -1017.8597    838.33079   -107.48075   -3126.1141 
13160000    242.37327   -3936.6783   -3521.2588   -3936.6783            0    3682.0287    17.302354    20.379888    21.108831    7443.3968    3333.6519    4555.9209    3156.5134   -839.05852    1817.7239   -758.52785   -3121.5587 
13161000    227.54665   -3963.5045   -3573.4973   -3963.5045            0    4113.3863    17.316737    20.396828    21.126378    7461.9743     4310.588     4411.492    3618.0788    1141.7854    1003.6122    1042.5889   -3125.8571 
13162000    236.72901   -3957.4454      -3551.7   -3957.4454            0     1696.407    17.371697    20.461565     21.19343    7533.2496    752.89492    1439.4439    2896.8822   -158.28172   -130.15926    -589.3101   -3365.3247 
13163000    248.24607   -3967.6177   -3542.1324   -3967.6177            0    3866.3039    17.380468    20.471896    21.204131    7544.6658    3450.7412    4340.8143    3807.3562    870.17587    -1242.523    -879.5942   -3116.7183 
13164000    244.92966   -3991.1502   -3571.3491   -3991.1502            0    2604.2943    17.376001    20.466634     21.19868    7538.8494    2263.3184    4607.6977    941.86682    523.82339    510.64301    336.00713   -3285.0164 
13165000    230.72947   -3966.4658   -3571.0034   -3966.4658            0     4291.494    17.353998    20.440718    21.171837    7510.2471    4013.0975    3112.1906    5749.1939    890.16953   -399.39177   -354.69968   -3100.9593 
13166000    250.41164   -3972.2109   -3543.0139   -3972.2109            0    5227.7159    17.326395    20.408205    21.138162    7474.4672    4588.8666    7842.6044    3251.6768    1025.0341   -336.92464   -542.19997    -2973.154 
13167000    235.81792   -4009.4786   -3605.2948   -4009.4786            0    3103.7498    17.397952     20.49249    21.225461    7567.4576    3007.8738    2851.4003    3451.9752     358.1134   -564.70783    983.74661   -3262.7537 
13168000    245.57977   -3948.2873    -3527.372   -3948.2873            0    3158.8054     17.44515    20.548082    21.283042    7629.2125    2107.4909    4197.1113    3171.8141   -665.65073   -819.04401    1748.0082   -3175.9099 
13169000     245.9268   -3950.2223   -3528.7122   -3950.2223            0    4823.7497    17.377088    20.467915    21.200007    7540.2651    4350.1187    4628.1969    5492.9334    579.32576    1955.3777   -424.06328   -2998.2588 
13170000    246.26456   -3976.6516   -3554.5626   -3976.6516            0    3729.6411    17.403735    20.499302    21.232517    7575.0065    2797.2458    4922.1837    3469.4938    397.61095   -53.676372   -274.08638   -3142.5353 
13171000    236.68209   -3966.5489   -3560.8839   -3966.5489            0    3153.5797    17.402097    20.497371    21.230517    7572.8668    1852.6881    5100.3834    2507.6675   -76.382463    869.09766   -221.16003   -3212.5947 
13172000     234.4091   -3951.2817   -3549.5125   -3951.2817            0    3382.2727    17.354573    20.441394    21.172538    7510.9931    2803.7308    3356.0365    3987.0508    272.43698    689.02938   -943.80278   -3179.0179 
13173000    240.22726   -3978.1829   -3566.4416   -3978.1829            0    3442.7485    17.416429    20.514252    21.248002    7591.5927    3716.1574    4580.4071    2031.6809     714.0465    1257.3431   -1037.4714   -3185.2756 
13174000    232.12452   -3968.5403   -3570.6868   -3968.5403            0    4836.7696    17.381444    20.473045    21.205321    7545.9369    4164.5979    5406.9533    4938.7577    520.45026   -1137.8501    1163.5713   -3038.4015 
13175000    237.98867   -3977.1407   -3569.2363   -3977.1407            0    2453.8109    17.457144    20.562209    21.297674    7644.9587    3537.2748    2381.5416    1442.6163    629.96457   -466.79308   -334.29847   -3295.6514 
13176000    236.68856   -3975.3603   -3569.6842   -3975.3603            0    7262.8712    17.258201    20.327881    21.054965    7386.5589    7079.3064    8014.7927    6694.5145    717.69466    763.07137    303.06743   -2787.2886 
13177000    249.07415   -3962.4893   -3535.5847   -3962.4893            0    4239.2972    17.361172    20.449168    21.180589     7519.565    4824.4735    4133.0553     3760.363    425.01614    1776.3403   -94.343908   -3070.6816 
13178000    240.16102    -3954.792   -3543.1642    -3954.792            0    2625.4754    17.475036    20.583285    21.319504    7668.4901     2355.651    3335.0876    2185.6875   -1043.0149    6.4175329    1210.3414   -3249.5388 
13179000     242.5535   -3976.0743   -3560.3459   -3976.0743            0    3307.1995    17.443728    20.546407    21.281307    7627.3466     3732.251    1369.7552    4819.5922   -602.68474    524.99395   -484.69158   -3192.4629 
13180000    234.41765   -3987.6767   -3585.8929   -3987.6767            0    3791.2132    17.403217     20.49869    21.231884    7574.3291    4326.0618    3909.6529     3137.925    644.47384    658.64877   -1157.6523    -3167.101 
13181000    234.48785   -3951.7299   -3549.8258   -3951.7299            0     4364.156    17.400473    20.495459    21.228537    7570.7474    4732.0825    3682.8375    4677.5479   -1067.1032    255.58602   -148.15323   -3067.9724 
13182000    249.81939   -3952.7583   -3524.5765   -3952.7583            0    3041.2203    17.473494    20.581468    21.317622    7666.4601    3114.7896    3015.1641    2993.7072    319.26344   -441.27637    55.243883   -3184.5454 
13183000    227.62716    -3949.561   -3559.4158    -3949.561            0    5153.1497    17.344021    20.428965    21.159665    7497.3009    6387.0668    5266.0643    3806.3181    906.32262   -459.63019    -579.1573   -2995.9681 
13184000      228.216   -3946.4737   -3555.3193   -3946.4737            0    4045.6217    17.367448    20.456559    21.188245    7527.7221    5101.7783    3955.2357    3079.8511    117.98052    361.96413   -267.46657   -3111.1743 
13185000    234.79722   -3938.5236   -3536.0892   -3938.5236            0    2948.9561    17.415971    20.513714    21.247444    7590.9945    2759.2124    2770.6814    3316.9745    -147.7316    560.85409   -1255.7577   -3209.6195 
13186000    228.24359   -3906.8748   -3515.6731   -3906.8748            0    3528.4286    17.397938    20.492473    21.225444    7567.4389    2919.6555    3870.4119    3795.2182    866.10417   -568.49304   -145.24687    -3126.264 
13187000    234.46425   -3968.2005   -3566.3368   -3968.2005            0    3264.7492    17.486966    20.597336    21.334057    7684.2055    3667.2649    2030.3605    4096.6221   -834.97956   -460.69159   -635.06063   -3200.4685 
13188000    241.13686   -3924.4631   -3511.1628   -3924.4631            0    6151.7726    17.437716    20.539326    21.273973    7619.4633    7953.1743    5192.0234    5310.1201   -18.899845   -1172.6904   -476.47906   -2827.5652 
13189000    230.65113   -3981.4943   -3586.1662   -3981.4943            0    3080.2839    17.432955    20.533718    21.268164    7613.2242    4528.4921    1039.8464    3672.5131    -145.5678    438.09622    617.04289   -3244.1589 
13190000    235.62742   -3925.0982   -3521.2409   -3925.0982            0    3498.9358    17.500783    20.613611    21.350915    7702.4351    5423.2006    2159.6641    2913.9428   -321.21931    3.6340184    829.48483    -3128.198 
13191000    248.67088   -3986.6599   -3560.4465   -3986.6599            0    3110.1521     17.44213    20.544525    21.279357    7625.2504    2612.5754    3528.0991     3189.782    381.99071    633.02453    96.307366   -3214.5775 
13192000    239.79167   -3966.5327    -3555.538   -3966.5327            0     4470.726    17.430634    20.530984    21.265332    7610.1833      5563.31    5006.0077    2842.8604   -793.49196   -481.19884    -264.6175   -3059.3468 
13193000    238.63706   -3938.8122   -3529.7964   -3938.8122            0    2128.7409     17.47353     20.58151    21.317666    7666.5069    4500.2128    616.71819    1269.2918   -369.08212   -1356.9654   -376.30108   -3291.7859 
13194000    252.42461   -3957.4629   -3524.8158   -3957.4629            0     4364.552    17.437568    20.539152    21.273792    7619.2693    5798.7363    3558.6342    3736.2856    47.905286   -1808.9063    672.73561   -3039.8301 
13195000    225.49327   -3946.1269   -3559.6392   -3946.1269            0    4144.8217    17.380159    20.471532    21.203754    7544.2634    4952.4381    3873.9181     3608.109   -567.29539    -1293.077    1150.9195   -3103.6037 
13196000    236.55815   -3954.5127   -3549.0601   -3954.5127            0    3100.1722    17.388293    20.481112    21.213677    7554.8602    3305.0578    2731.0429    3264.4161   -309.58486    -349.2476    935.16827   -3207.4835 
13197000    227.61293   -3925.0191   -3534.8983   -3925.0191            0    3337.9396    17.353518    20.440152    21.171251    7509.6234    3467.3198    3225.7714    3320.7275   -1488.5141   -1145.5646    1012.0392   -3169.3267 
13198000    236.27021   -3924.7388   -3519.7797   -3924.7388            0    3213.3702    17.361433    20.449475    21.180908    7519.9043    4602.0627    4261.4692    776.57863   -654.59632   -948.97379    322.68031   -3167.3691 
13199000    242.66867   -3938.6783   -3522.7525   -3938.6783            0    3658.8307    17.356513     20.44368    21.174906    7513.5133    4056.4867    2473.7187    4446.2866     1557.001   -604.12379   -63.759365   -3121.8292 
13200000    235.50236   -3960.0112   -3556.3682   -3960.0112            0    3166.0572     17.39941    20.494207     21.22724    7569.3602    2553.0792    2148.4166    4796.6758   -521.60682   -310.67575    848.32344   -3206.8629 
13201000    221.66967   -3912.8017   -3532.8675   -3912.8017            0    3312.7454    17.336613     20.42024    21.150628     7487.699    2858.3514    4122.3985    2957.4862    146.61484    323.62485    1274.3042   -3171.1143 
13202000    237.85697   -3922.8453   -3515.1666   -3922.8453            0     2963.026    17.286805    20.361573    21.089862    7423.3475    3391.7324    3541.7792    1955.5663    5.7470972    336.45038   -189.08804   -3194.3838 
13203000     233.1762   -3985.9913   -3586.3353   -3985.9913            0    4943.5921    17.348794    20.434588    21.165488    7503.4927    5266.6246    3934.2722    5629.8794    32.859806    556.75895    631.15533   -3045.3544 
13204000    232.18195   -3979.4564   -3581.5045   -3979.4564            0    2518.5752    17.383538    20.475511    21.207875    7548.6636     3547.114    2252.4518    1756.1598    859.05595   -484.35218   -55.034097   -3304.2357 
13205000    219.92931   -3956.3767   -3579.4254   -3956.3767            0     2964.486    17.385361    20.477659      21.2101     7551.039    3266.6775    2074.4572    3552.3234     -1067.28   -594.82973   -237.85824   -3252.9638 
13206000    231.14892   -3982.9673   -3586.7859   -3982.9673            0    5102.3914    17.403387    20.498891    21.232092    7574.5517    4341.0522    5646.8263    5319.2956     949.0084   -57.259616   -164.80435   -3023.1397 
13207000    238.12288   -3965.2344   -3557.0999   -3965.2344            0    2929.3203     17.41688    20.514784    21.248552    7592.1825    2573.2082    3454.1001    2760.6525    35.487986    45.357908   -221.86513   -3232.7533 
13208000     244.6827   -3948.3354   -3528.9576   -3948.3354            0    5098.6612    17.396931    20.491286    21.224215    7566.1246    6578.5505     4608.882    4108.5512   -739.00065   -1057.1056   -895.06595   -2966.3501 
13209000    241.01091   -3978.1525    -3565.068   -3978.1525            0    3516.1278    17.443548    20.546195    21.281087    7627.1104     3833.664    3610.9778    3103.7415    464.42536    869.94272   -60.519584   -3173.9565 
13210000    245.92453   -3975.4771   -3553.9709   -3975.4771            0    1185.0165    17.496563     20.60864    21.345766    7696.8641   -42.542449    2225.7382    1371.8537    947.62465   -393.12219    323.46242   -3420.9517 
13211000    235.54216   -3995.8437   -3592.1325   -3995.8437            0    3367.0335    17.404982    20.500769    21.234037    7576.6337    4374.5728    3445.3723    2281.1555    181.54942   -554.30829    952.58022    -3220.084 
13212000    229.67208     -3952.18   -3558.5299     -3952.18            0    4845.7181    17.406524    20.502586    21.235918    7578.6476    5390.5658    4212.6969    4933.8917    859.90533   -730.14758    698.18917   -3022.9482 
13213000    255.39486   -3973.5603   -3535.8222   -3973.5603            0    4790.0526    17.372355     20.46234    21.194233    7534.1054    4591.0487    3580.5655    6198.5436    519.17485    1506.4629   -585.05161   -3009.5047 
13214000    241.34921   -3996.7842     -3583.12   -3996.7842            0    4742.8632    17.433928    20.534864    21.269352    7614.4991    6299.7404    5122.4638    2806.3853    285.27042   -216.47164   -453.50013   -3056.4266 
13215000    224.39341   -4022.0701   -3637.4674   -4022.0701            0    3989.7045    17.455282    20.560016    21.295403     7642.513    5119.3118    4610.1203    2239.6813    1491.3392   -554.54091   -2389.2444   -3192.7821 
13216000    219.24027   -3966.4541   -3590.6837   -3966.4541            0    5579.9416    17.386231    20.478684    21.211162    7552.1734     6765.439    4592.4399     5381.946    887.81348   -49.778052   -169.20054    -2976.105 
13217000    224.89505   -3995.8876   -3610.4251   -3995.8876            0    3042.8601    17.459039    20.564442    21.299987    7647.4488    5449.8738    2629.2797    1049.4268    278.88813   -729.63171   -288.83845   -3271.0543 
13218000    228.20081    -3961.368   -3570.2397    -3961.368            0    3788.2194    17.424302    20.523526    21.257608    7601.8932    2937.7928    3580.8901    4845.9752    597.84916    881.61088    792.63607   -3150.2556 
13219000    237.57952   -3970.5508   -3563.3477   -3970.5508            0    3639.8538     17.39093    20.484219    21.216894    7558.2981    2827.0488    4591.0635    3501.4492    1475.4737     853.4472    298.22277   -3162.1265 
13220000    223.29108   -3980.2888   -3597.5755   -3980.2888            0    2970.2741    17.415986     20.51373    21.247462    7591.0133    1916.4293    3725.6928    3268.7003    787.00301   -1242.9285    673.45113    -3268.745 
13221000    235.17685   -3978.1635   -3575.0784   -3978.1635            0    3872.8525    17.439155    20.541021    21.275729    7621.3501    4229.4804     4285.928    3103.1491   -1126.5598    79.605099    314.15601   -3144.6125 
13222000    238.37471   -3992.5872   -3584.0211   -3992.5872            0     3022.813    17.371366    20.461174    21.193025    7532.8178    2577.1344    3152.0872    3339.2176    1722.0695   -473.34532    65.587786   -3251.9396 
13223000    229.30803   -3974.5646   -3581.5385   -3974.5646            0    4433.7414     17.33231    20.415172    21.145378    7482.1251    6006.4764    4552.6269    2742.1208    165.17568   -518.10157    93.274101   -3097.7325 
13224000    233.17557   -3958.5716   -3558.9167   -3958.5716            0     3943.877    17.348994    20.434823    21.165732    7503.7516    1876.8357    6404.6523    3550.1429   -1629.7918   -61.845856    1620.0585   -3127.3204 
13225000    234.96321   -3986.2723   -3583.5534   -3986.2723            0     4222.368     17.32473    20.406244     21.13613    7472.3123    3535.2488    4714.0758    4417.7793    1070.0241   -740.03737   -239.25493   -3123.4166 
13226000    245.69202   -3980.5984   -3559.4907   -3980.5984            0    3453.5441    17.414521    20.512006    21.245676    7589.0991    5192.9484     2626.173     2541.511    1624.2163   -783.09727   -520.39372   -3177.2551 
13227000    244.36745   -3938.4652   -3519.6278   -3938.4652            0    4067.6997    17.356223    20.443338    21.174552    7513.1361    3535.3529    3725.7642     4941.982     514.1402   -727.61972   -2486.3545   -3073.9243 
13228000    240.25741   -3965.9347   -3554.1417   -3965.9347            0    3784.9841     17.37432    20.464654     21.19663     7536.662    2558.5745    3601.5278    5194.8501    331.64589    416.90103    365.06598   -3138.1171 
13229000    236.44846   -3957.2118   -3551.9472   -3957.2118            0     4544.886    17.374877     20.46531    21.197309    7537.3869     5064.477    3722.4349    4847.7459   -528.82542   -1201.1899    1083.9779   -3052.3504 
13230000    236.77827    -3943.818   -3537.9882    -3943.818            0    5691.9535    17.354634    20.441467    21.172613    7511.0728    5756.8606    4114.2277    7204.7722   -665.97223    -168.9726    599.82947   -2914.4843 
13231000    248.56116   -3996.8346   -3570.8093   -3996.8346            0    4332.9157    17.409859    20.506514    21.239988    7583.0054    4450.0791    4617.6379      3931.03   -845.35762   -734.78086   -1758.4355   -3091.6306 
13232000    238.93016   -3973.5155   -3563.9973   -3973.5155            0    2266.8321    17.453349    20.557739    21.293045     7639.974    1670.0263    3298.3935    1832.0764    576.49297   -1491.7776     1639.021   -3311.4242 
13233000    241.78707   -3999.4362   -3585.0215   -3999.4362            0     4625.251     17.31697    20.397103    21.126663    7462.2759    6666.1697    2229.4236    4980.1599   -239.11136    105.89695   -16.448372   -3081.6571 
13234000    252.61493   -3993.2435   -3560.2702   -3993.2435            0    4004.8938    17.356499    20.443663    21.174888    7513.4944    4355.0564    3654.2128    4005.4123    -294.6829    572.36008    582.34387   -3121.4275 
13235000    226.12562   -3963.8265    -3576.255   -3963.8265            0    5595.7995    17.369861    20.459402     21.19119    7530.8607    5861.3464    4585.3659    6340.6863    358.33642    302.93633    99.734811    -2961.669 
13236000    232.09308   -3966.8839   -3569.0843   -3966.8839            0    4905.4508    17.321156    20.402034     21.13177     7467.689    2902.3266    5402.6458    6411.3799    1215.5916   -316.16123     113.5872   -3034.8386 
13237000    238.41465   -3971.3695   -3562.7349   -3971.3695            0      2966.95    17.448405    20.551917    21.287014    7633.4841    3877.5322    2320.7211    2702.5966   -260.21134   -707.39119    334.71547   -3232.4347 
13238000    233.86657   -3932.1442   -3531.3049   -3932.1442            0    2619.1282    17.443853    20.546554     21.28146    7627.5108    1749.2269    2383.9828    3724.1749   -897.82283   -438.24213   -24.940862   -3239.9546 
13239000    233.36039   -3947.5761   -3547.6043   -3947.5761            0    3989.7441    17.326688     20.40855    21.138519    7474.8466     5358.936    2990.0162    3620.2801    906.29762    163.27216   -335.82491   -3112.6705 
13240000    242.07318   -3944.7677   -3529.8626   -3944.7677            0    5639.3153    17.333115     20.41612     21.14636    7483.1677    5039.5495    6679.4314    5198.9651    1567.7495   -2065.7107    31.981272   -2914.4197 
13241000     243.3248   -3973.7104     -3556.66   -3973.7104            0    4180.7518    17.329343    20.411677    21.141758    7478.2828    5957.6723    2983.0822    3601.5011   -36.720875   -1468.6239   -593.53235   -3100.6943 
13242000    229.69897   -3923.7501   -3530.0539   -3923.7501            0    3792.7708    17.427073     20.52679    21.260989     7605.521    5286.5427    1921.6724    4170.0971    259.51435    -430.3131    583.82877   -3109.3646 
13243000    240.88757   -3927.8463   -3514.9732   -3927.8463            0     3750.413    17.432874    20.533623    21.268066    7613.1186    4865.5039    2862.9447    3522.7905    422.15668   -709.58543   -201.49212   -3098.5667 
13244000      240.927   -3941.5374   -3528.5968   -3941.5374            0     4684.902    17.376953    20.467756    21.199843    7540.0895    5494.1525    3754.4436    4806.1098   -441.31166    -268.3025     1221.268    -3013.424 
13245000    244.49359   -3936.8739   -3517.8203   -3936.8739            0    3349.1226    17.426375    20.525968    21.260137    7604.6064    3583.4773    2292.6696    4171.2211    376.61585    180.88654    1094.5515   -3146.3845 
13246000    232.74017   -3942.3913   -3543.4827   -3942.3913            0     4459.062    17.419628    20.518021    21.251906    7595.7777     4115.728    4562.2533    4699.2046    407.37314       -280.3   -348.13886   -3049.5228 
13247000    235.81947    -3967.969   -3563.7825    -3967.969            0    2633.9359    17.416066    20.513826     21.24756    7591.1191    1289.6533     2413.756    4198.3984   -1017.2829   -734.02964   -1764.3326    -3272.183 
13248000     246.9509   -3948.3341   -3525.0687   -3948.3341            0    2941.8752     17.46244    20.568448    21.304136    7651.9195    3231.9141    1721.4506    3872.2609   -76.867968    1322.1962   -940.29853   -3196.7689 
13249000    235.29714   -3973.1989   -3569.9076   -3973.1989            0    3919.6969    17.390874    20.484153    21.216826    7558.2251     3757.649    3154.6524    4846.7892    951.40192    1325.0014   -104.60807   -3137.8435 
13250000    228.44279   -3926.7541    -3535.211   -3926.7541            0    3046.0729    17.496304    20.608335     21.34545    7696.5221    2876.0236    3007.5112    3254.6841   -680.83964   -400.13581   -160.37643   -3193.3019 
Loop time of 566.218 on 64 procs for 250000 steps with 864 atoms

Performance: 76.296 ns/day, 0.315 hours/ns, 441.526 timesteps/s
99.0% CPU use with 64 MPI tasks x 1 OpenMP threads

MPI task timing breakdown:
Section |  min time  |  avg time  |  max time  |%varavg| %total
---------------------------------------------------------------
Pair    | 19.514     | 24.989     | 30.425     |  50.0 |  4.41
Bond    | 0.28689    | 0.2992     | 0.32181    |   1.5 |  0.05
Kspace  | 262.07     | 277.62     | 287.51     |  34.7 | 49.03
Neigh   | 4.4299     | 5.4071     | 6.134      |  21.9 |  0.95
Comm    | 110.74     | 122.13     | 136.72     |  55.5 | 21.57
Output  | 1.8355     | 1.8374     | 1.85       |   0.2 |  0.32
Modify  | 123.46     | 126.84     | 134.22     |  23.1 | 22.40
Other   |            | 7.101      |            |       |  1.25

Nlocal:        13.5000 ave          19 max           9 min
Histogram: 4 6 9 4 9 6 13 5 1 7
Nghost:        2097.64 ave        2142 max        2053 min
Histogram: 5 4 10 8 3 10 8 6 4 6
Neighs:        4012.19 ave        5959 max        2249 min
Histogram: 5 6 6 6 12 8 8 5 5 3

Total # of neighbors = 256780
Ave neighs/atom = 297.19907
Ave special neighs/atom = 2.0000000
Neighbor list builds = 11138
Dangerous builds = 0

unfix		3
unfix		2
unfix		1

write_data	data.final.${pid}
write_data	data.final.0
System init for write_data ...
PPPM initialization ...
  extracting TIP4P info from pair style
  using 12-bit tables for long-range coulomb (../kspace.cpp:340)
  G vector (1/distance) = 0.37332914
  grid = 24 24 25
  stencil order = 5
  estimated absolute RMS force accuracy = 0.0031768855
  estimated relative force accuracy = 9.5670962e-06
  using double precision FFTW3
  3d grid and FFT values/proc = 2730 288
Last active /omp style is kspace_style pppm/tip4p/omp
WARNING: Not all mixed pair coeffs generated from mixing. Use write_data with 'pair ij' option to store all pair coeffs. (../write_data.cpp:312)

write_restart   restart.lmp.${pid}
write_restart   restart.lmp.0
System init for write_restart ...
PPPM initialization ...
  extracting TIP4P info from pair style
  using 12-bit tables for long-range coulomb (../kspace.cpp:340)
  G vector (1/distance) = 0.37332914
  grid = 24 24 25
  stencil order = 5
  estimated absolute RMS force accuracy = 0.0031768855
  estimated relative force accuracy = 9.5670962e-06
  using double precision FFTW3
  3d grid and FFT values/proc = 2730 288
Last active /omp style is kspace_style pppm/tip4p/omp
Total wall time: 0:09:30
