LAMMPS (30 Jul 2021)
Processor partition = 0
  using 2 OpenMP thread(s) per MPI task
using multi-threaded neighbor list subroutines
variable        pid world 0 1
variable        phase world IceV IceIII

shell cd ${phase}
shell cd IceV
include Restart.lmp
echo both
log log.lammps
#include		in.partitions
include		in.temp
variable        temperature equal 111.47
variable	tempDamp equal 100.0
include		in.pressure
variable        pressure equal 6972.3
variable        pressureDamp equal 1000.0 # This is 1 ps
include		in.seed
variable        seed equal 745823

units		real
atom_style	full
read_restart    restart.lmp.${pid}
read_restart    restart.lmp.0
Reading restart file ...
  restart file = 30 Jul 2021, LAMMPS = 30 Jul 2021
  restoring atom style full from restart
  triclinic box = (-3.1782464 -0.024830598 0.025240086) to (14.788245 22.604830 19.204758) with tilt (-0.13612169 -6.7803040 0.072862345)
  2 by 4 by 4 MPI processor grid
  restoring pair style lj/cut/tip4p/long/omp from restart
  restoring bond style harmonic/omp from restart
  restoring angle style harmonic/omp from restart
  1008 atoms
  672 bonds
  336 angles
Finding 1-2 1-3 1-4 neighbors ...
  special bond factors lj:    0        0        0       
  special bond factors coul:  0        0        0       
     2 = max # of 1-2 neighbors
     1 = max # of 1-3 neighbors
     1 = max # of 1-4 neighbors
     2 = max # of special neighbors
  special bonds CPU = 0.002 seconds
  read_restart CPU = 0.009 seconds

include 	in.setup
variable	out_freq equal 1000
variable	out_freq2 equal 10000
variable	out_freq3 equal 1000

timestep	2.0

neigh_modify    delay 7 every 1

include		in.tip4p
# This is TIP4P/Ice

# create groups ###
group ox type 2
336 atoms in group ox
group hy type 1
672 atoms in group hy

# set charges - beside manually ###
set group ox charge -1.1794
Setting atom values ...
  336 settings made for charge
set group hy charge 0.5897
Setting atom values ...
  672 settings made for charge

# ### TIP3P Potential Parameters ###
pair_style lj/cut/tip4p/long/omp 2 1 1 1 0.1577 8.5
pair_coeff 1 1*2 0.000 0.000
pair_coeff 2 2 0.21084 3.1668
bond_style  harmonic
bond_coeff  1 450 0.9572
angle_style harmonic
angle_coeff 1 55 104.52
kspace_style pppm/tip4p/omp 1.0e-5
pair_modify tail yes

thermo          ${out_freq}
thermo          1000
thermo_style    custom step temp pe etotal epair emol press lx ly lz vol pxx pyy pzz pxy pxz pyz enthalpy

restart 	${out_freq3} restart.lmp.${pid} restart2.lmp.${pid}
restart 	1000 restart.lmp.${pid} restart2.lmp.${pid}
restart 	1000 restart.lmp.0 restart2.lmp.${pid}
restart 	1000 restart.lmp.0 restart2.lmp.0


include         in.dump
dump            myDump all atom ${out_freq2} dump.water.${pid}
dump            myDump all atom 10000 dump.water.${pid}
dump            myDump all atom 10000 dump.water.0
dump            myDump2 all dcd ${out_freq2} dump.dcd
dump            myDump2 all dcd 10000 dump.dcd
dump_modify     myDump append yes
dump_modify     myDump2 append yes


variable natoms 	equal  "count(all)"                        # NUMBER ATOMS
variable H      	equal  "enthalpy/v_natoms"                 # ENTHALPY-per-atom
variable Vol      	equal  "vol/v_natoms"                 # volume-per-atom
fix AVG all 		ave/time ${out_freq} 1 ${out_freq} v_Vol v_H file vol_enthalpy.dat
fix AVG all 		ave/time 1000 1 ${out_freq} v_Vol v_H file vol_enthalpy.dat
fix AVG all 		ave/time 1000 1 1000 v_Vol v_H file vol_enthalpy.dat



fix 		1 all shake 1e-6 200 0 b 1 a 1
Finding SHAKE clusters ...
       0 = # of size 2 clusters
       0 = # of size 3 clusters
       0 = # of size 4 clusters
     336 = # of frozen angles
  find clusters CPU = 0.000 seconds
fix             2 all nph tri ${pressure} ${pressure} ${pressureDamp}
fix             2 all nph tri 6972.3 ${pressure} ${pressureDamp}
fix             2 all nph tri 6972.3 6972.3 ${pressureDamp}
fix             2 all nph tri 6972.3 6972.3 1000
fix             3 all temp/csvr ${temperature} ${temperature} ${tempDamp} ${seed}
fix             3 all temp/csvr 111.47 ${temperature} ${tempDamp} ${seed}
fix             3 all temp/csvr 111.47 111.47 ${tempDamp} ${seed}
fix             3 all temp/csvr 111.47 111.47 100 ${seed}
fix             3 all temp/csvr 111.47 111.47 100 745823


run             250000
PPPM initialization ...
  extracting TIP4P info from pair style
  using 12-bit tables for long-range coulomb (../kspace.cpp:340)
  G vector (1/distance) = 0.37971988
  grid = 24 27 32
  stencil order = 5
  estimated absolute RMS force accuracy = 0.0024093832
  estimated relative force accuracy = 7.255786e-06
  using double precision FFTW3
  3d grid and FFT values/proc = 5355 672
Last active /omp style is kspace_style pppm/tip4p/omp
Neighbor list info ...
  update every 1 steps, delay 7 steps, check yes
  max neighbors/atom: 2000, page size: 100000
  master list distance cutoff = 10.8154
  ghost atom cutoff = 10.8154
  binsize = 5.4077, bins = 5 5 4
  1 neighbor lists, perpetual/occasional/extra = 1 0 0
  (1) pair lj/cut/tip4p/long/omp, perpetual
      attributes: half, newton on, omp
      pair build: half/bin/newton/tri/omp
      stencil: half/bin/3d/tri
      bin: standard
Setting up Verlet run ...
  Unit style    : real
  Current step  : 30250000
  Time step     : 2
Per MPI rank memory allocation (min/avg/max) = 10.31 | 10.32 | 10.33 Mbytes
Step Temp PotEng TotEng E_pair E_mol Press Lx Ly Lz Volume Pxx Pyy Pzz Pxy Pxz Pyz Enthalpy 
30250000    114.22274   -5149.4021   -4920.9425   -5149.4021            0    5604.2063    17.966492     22.62966    19.179518    7797.9241    5080.2954    6178.9777    5553.3458    682.12864   -265.39086    1428.5852   -4283.6057 
30251000     112.9446   -5164.9052    -4939.002   -5164.9052            0     6768.521    17.764142    22.822805    19.152013    7764.7537    6663.9033    6213.6733    7427.9863     724.6795    -515.4976    803.08867   -4172.5282 
30252000    113.05691   -5161.1457   -4935.0179   -5161.1457            0    7113.8005    17.770637    22.858543    19.140011    7774.8804    8112.3807    6421.1409      6807.88   -738.21237    588.71364   -83.486816   -4128.3936 
30253000    110.59964   -5160.2746   -4939.0617   -5160.2746            0    7225.6761     17.86589    22.505033    19.314554    7765.8501    8187.1219    7427.5339    6062.3724    44.428814   -351.79968    948.52071   -4120.7036 
30254000    107.54435   -5163.2737   -4948.1717   -5163.2737            0    7791.0608    17.712144    22.876917    19.112683    7744.4448    8354.0029    7468.0874    7551.0921    929.70744    776.60546   -58.662734   -4068.2121 
30255000    107.82148   -5157.1043    -4941.448   -5157.1043            0    5209.4462    17.935364    22.697099    19.227565    7827.1715    5587.2915    4828.3675    5212.6796       357.92    538.28612    -686.4361   -4346.7831 
30256000    115.40629   -5161.1885   -4930.3616   -5161.1885            0    6953.5638    17.891565    22.762477    19.123945    7788.3479    7343.9928    7167.4549    6349.2436   -134.48197    210.32866   -175.14842   -4140.5406 
30257000    112.53929   -5161.8506   -4936.7581   -5161.8506            0    6545.6325    17.739757    22.881937     19.17737     7784.478    7290.4468    5987.2762    6359.1745     651.1173    80.520581     96.32593   -4193.6414 
30258000    109.68067   -5154.2333   -4934.8584   -5154.2333            0    7058.9888    18.001993    22.670619    19.068789     7782.284    5888.7362    7303.3181    7984.9119    479.79702   -314.27776   -920.97323    -4133.687 
30259000    110.57485    -5143.986   -4922.8227    -5143.986            0    7419.4438    17.762818    22.822916    19.210829    7788.0566    8130.5291    7174.4289    6953.3735   -119.19011    239.52916    26.008325   -4080.1162 
30260000    116.28193   -5161.1128   -4928.5346   -5161.1128            0    7011.6576    17.927638    22.575594    19.217904     7778.006    5853.5851    7465.5425    7715.8451    645.93572   -925.90953    382.69788   -4133.1726 
30261000    112.49821   -5165.2059   -4940.1956   -5165.2059            0    6846.0947    17.897597    22.769035    19.081792    7776.0403    7064.7729     6533.415    6940.0963   -759.86366   -83.703068   -642.12909   -4163.8103 
30262000    117.82718   -5154.3229    -4918.654   -5154.3229            0    6929.9821    17.896603    22.717823    19.127855    7776.8475    6841.5557    7165.9683    6782.4221   -1028.3438    573.62901   -705.60871   -4132.6739 
30263000    115.35551   -5157.3314   -4926.6061   -5157.3314            0    6270.7145    17.884666    22.695456    19.262875    7818.8134    6439.5563    6009.3539    6363.2334    266.36957    121.94615    1246.7085   -4211.5604 
30264000     112.2175   -5162.0712   -4937.6224   -5162.0712            0    7434.2553    17.873194    22.726811    19.087839    7753.4934     6065.938    8556.0042    7680.8236   -77.565772   -260.83417    405.92823    -4096.981 
30265000    111.08839   -5162.5189   -4940.3284   -5162.5189            0    5359.3289    17.932908    22.599444    19.308577    7825.2594    5408.7979    6246.5198    4422.6689   -70.249849    957.47162   -446.30455   -4328.7037 
30266000    110.06641   -5155.1669   -4935.0205   -5155.1669            0    7659.9821    17.798477    22.807977    19.115018     7759.689    8123.4444    7526.6259     7329.876    120.47049    754.54859    151.89543   -4068.1625 
30267000    113.05806    -5159.511    -4933.381    -5159.511            0    7559.1497    17.884415    22.582332    19.216208    7760.8841     5985.391      8087.71    8604.3482    295.44038   -211.29885    -411.6476   -4077.8021 
30268000    110.65987   -5164.5531   -4943.2197   -5164.5531            0    7911.8109    17.800018    22.700542    19.171476    7746.6189     8572.054    7852.0056    7311.3731    -479.7487    -324.5351   -506.20125   -4049.3711 
30269000    112.75168   -5161.4558   -4935.9385   -5161.4558            0    6732.3395     17.96813    22.693088     19.05492    7769.6887    5957.7717    6738.9159     7500.331   -216.81014   -495.53083    1307.2562   -4173.0773 
30270000     113.3229   -5161.9095   -4935.2497   -5161.9095            0    7333.6989    17.723871    22.744397    19.235055    7754.0116     7568.748    6818.6184    7613.7303     24.08675   -703.51381     62.25385   -4105.9235 
30271000    107.37989   -5162.0271    -4947.254   -5162.0271            0    7380.0737    17.924586    22.586377    19.197688    7772.2122    6228.1028    7708.4359    8203.6823     1160.227    -897.7818    1109.2384   -4110.7246 
30272000    110.01369   -5158.1329    -4938.092   -5158.1329            0    5816.9254    17.810475    22.874588    19.187624    7817.1776    7190.7827    5194.6764     5065.317   -934.24481    305.14618   -944.21743   -4274.9304 
30273000    110.10118   -5170.2706   -4950.0546   -5170.2706            0    5625.7421    17.978431    22.645285    19.143355    7793.7709    4869.7438    5780.8344    6226.6481   -185.77899    147.91877   -430.63207   -4310.6094 
30274000    120.55894   -5153.8779   -4912.7451   -5153.8779            0    7009.1791    17.780047    22.820192    19.135425    7764.0854    7166.9894    7132.5871    6727.9608   -71.989755   -759.03403    171.06542   -4119.0872 
30275000    111.22417   -5142.1674   -4919.7053   -5142.1674            0    7764.4457    17.877775    22.660269    19.160745    7762.3093    7897.4866     8060.117    7335.7334    835.48627    411.55765     743.6405   -4040.7287 
30276000    113.11808   -5154.1202   -4927.8701   -5154.1202            0    6957.0256     17.86906     22.74412    19.166519    7789.5808    7288.4724    6458.8105    7123.7938    375.05966    628.23496    539.72143   -4137.5308 
30277000    115.32314   -5155.6133   -4924.9528   -5155.6133            0     5811.071    17.868065    22.721572     19.23411    7808.8665    5450.5995    5757.6223    6224.9911   -300.19638   -12.504206    -1617.912    -4263.163 
30278000    110.88996     -5159.28   -4937.4864     -5159.28            0    8420.2116    17.894227    22.618966    19.118746    7738.2918    8116.8302    8134.6573    9009.1473    855.28806   -154.57285    1496.1083    -3987.223 
30279000    109.16735   -5151.2216   -4932.8734   -5151.2216            0    7469.3252     17.76346    22.913906    19.100698    7774.5621    8284.9314    6858.5319    7264.5122   -1586.5683    72.681011    -1194.896   -4085.9713 
30280000    117.28653    -5158.667   -4924.0794    -5158.667            0    7982.1306    17.882452    22.667732    19.139594    7758.3228    6543.9451    9001.8066    8400.6399   -16.289221     480.5231   -378.02059   -4020.9239 
30281000    115.17142   -5155.1399   -4924.7828   -5155.1399            0    6475.7397    17.810548    22.752621    19.227893    7791.8471    7312.3872    5948.7502    6166.0816    725.08739   -140.06143    910.92693    -4188.905 
30282000    112.76341   -5156.9307     -4931.39   -5156.9307            0    6359.1255    17.836399     22.73579    19.244016    7803.9223    7413.7092    6240.8555    5422.8117    -698.7142   -179.00431   -591.48692   -4207.6439 
30283000    109.48875   -5152.6867   -4933.6957   -5152.6867            0    7195.5759    17.922211    22.743964    19.084468    7779.2515    5821.1658    7477.9262    8287.6357    477.82355     -75.1802    1307.7137   -4117.3403 
30284000    104.77641   -5157.9987   -4948.4329   -5157.9987            0    6437.0598    17.889457    22.776739    19.111046    7787.0536    5594.8271     6854.109    6862.2432   -119.04928     142.7912   -911.68731   -4217.4006 
30285000    110.39614   -5172.5542   -4951.7483   -5172.5542            0    6556.5141    17.910189    22.688278    19.134823    7775.4608    6928.6008    6330.6706    6410.2708   -57.744861   -67.312172   -223.04133   -4208.2584 
30286000    106.21315   -5160.4448   -4948.0054   -5160.4448            0    7046.8615     17.79339    22.788753    19.168334    7772.5518      7642.81    7202.9511    6294.8232   -852.96122    923.05588    945.21223   -4149.2106 
30287000    109.23682   -5155.9029   -4937.4158   -5155.9029            0    5934.9449    17.911746    22.715168    19.202321     7812.816    5723.1508    5911.6686    6170.0154   -127.89172   -219.83661    1296.0674   -4261.1768 
30288000    114.01621   -5165.0689   -4937.0224   -5165.0689            0    7301.0983    17.779871    22.753617    19.202921    7768.6639    8185.8969    6635.5252    7081.8728    1036.7916    -256.0598    664.97883   -4109.8226 
30289000    108.70835   -5154.5956   -4937.1655   -5154.5956            0    7335.6782    17.913728    22.582633      19.2203    7775.3637    6768.8739    7603.1753    7634.9852   -976.43471   -295.48665   -115.67075   -4105.3311 
30290000    112.39529   -5157.4711   -4932.6667   -5157.4711            0    6820.3684     17.72475    23.003282    19.020238    7755.0724    6926.2532     6105.384     7429.468     1078.173    987.67588    29.175043   -4161.2845 
30291000    113.28617   -5165.4212   -4938.8349   -5165.4212            0     5853.873    17.889274    22.624142    19.282197    7804.0735    5089.2451    6872.1971    5600.1769   -793.40675    10.706126   -86.043655   -4272.5798 
30292000    111.43651   -5160.4199   -4937.5331   -5160.4199            0    5953.3254    17.886177    22.820002    19.130102    7808.1921    5743.2159    5427.1923     6689.568     844.9039   -1044.6284    190.04278   -4259.6013 
30293000    113.62027    -5154.303   -4927.0484    -5154.303            0     8271.509    17.880441    22.641965    19.174342       7762.7    7915.8724    8946.8944    7951.7602    424.11888    877.70025   -1597.5606   -3990.6224 
30294000    109.63451    -5166.194   -4946.9115    -5166.194            0    7354.0486    17.823329    22.566521    19.292973    7759.8372    9061.2898    7064.5208    5936.3352    881.86031    286.65631    889.67661   -4114.6592 
30295000    110.63932   -5170.6851   -4949.3927   -5170.6851            0    6887.1326    17.794319    22.827591    19.142395    7775.6681    7064.0443    5863.5982    7733.7554     534.6604   -1062.1389    831.41184   -4168.3909 
30296000    109.92378   -5163.2424   -4943.3812   -5163.2424            0    7898.7906    17.945191    22.576887    19.121714    7747.0963    6899.5026    8426.6868    8370.1825   -665.03334   -87.487729    42.102273   -4050.9486 
30297000    114.79753   -5168.2808   -4938.6716   -5168.2808            0    6635.8774    17.804162    22.912509    19.091496    7788.1472    6019.2368    5958.5031    7929.8923    689.01502   -281.03438    1604.9332   -4184.9544 
30298000    115.61322   -5175.5315   -4944.2908   -5175.5315            0    7016.9104     17.93052    22.606672    19.152778    7763.5667    6411.4556    6979.8072    7659.4684    105.71487    20.389172    805.90386   -4149.8105 
30299000    115.13964   -5159.3585    -4929.065   -5159.3585            0     6732.136    17.820757     22.93703    19.036278    7781.1784    6853.5909    6440.4925    6902.3247   -444.68719     284.2137    759.69385   -4165.0988 
30300000    111.00567    -5169.549   -4947.5239    -5169.549            0    6743.9717    17.873629    22.614456    19.230659    7773.0787    7744.5017    6184.1613     6303.252    220.71556   -806.19601   -655.33715   -4183.0113 
30301000    118.15978   -5144.2467   -4907.9125   -5144.2467            0    7460.8507    17.838617    22.823132    19.095767    7774.5189    8702.7025    7061.9096    6617.9399    939.49856   -191.72353    1808.2557   -4061.9761 
30302000     112.3055   -5163.8527   -4939.2278   -5163.8527            0     8383.847    17.920603    22.508031    19.190516    7740.6385    8159.5415    8752.7468    8239.2527    2028.2744    496.22886    1472.5612   -3992.7814 
30303000    112.50662   -5178.1903   -4953.1632   -5178.1903            0    6673.7969    17.836279    22.703571    19.174695    7764.7394    6140.9704    6946.6862     6933.734   -261.04219   -20.975191    -158.8798   -4197.4174 
30304000     112.0949    -5142.535   -4918.3314    -5142.535            0    7359.6167    17.741324    22.796133    19.222962    7774.4113    7641.6451    7062.4331     7374.772    32.501749   -189.84319   -1820.2498   -4083.8847 
30305000    112.09564   -5149.8123   -4925.6072   -5149.8123            0    7567.5862    17.881648    22.662682    19.145085    7758.4711    7243.3507    7884.2537     7575.154    40.403996   -838.96305    337.34873   -4069.3398 
30306000    117.82714   -5151.8937   -4916.2249   -5151.8937            0    6353.9515     17.78486    22.737883      19.2953    7802.8277    7985.3416    5922.5847    5153.9283     39.96821   -215.05801   -799.94161   -4193.1691 
30307000    106.38574   -5164.6586    -4951.874   -5164.6586            0    5980.5379    17.794922    22.772237    19.235646    7794.8645    6242.6994    6497.2855    5201.6288   -243.53312   -60.412652    347.39653   -4272.0058 
30308000    116.61807   -5170.5214   -4937.2709   -5170.5214            0    6648.4228    17.916311    22.611769    19.243693    7795.9952    7236.8425    6312.3163    6396.1097    630.09489    491.05364    457.46226   -4181.3678 
30309000    110.13226   -5161.2942   -4941.0161   -5161.2942            0    6103.9112    17.879728    22.849539    19.089948    7799.0749    6513.8098    5242.7319    6555.1918   -911.42368   -274.82912   -782.26983    -4246.748 
30310000    113.71547   -5160.3329    -4932.888   -5160.3329            0    8495.3309    17.860905    22.560915     19.19311    7734.0242    7315.7773    9278.1251    8892.0904    448.61417    797.65369    -696.5924   -3974.6757 
30311000    119.75849   -5163.8196   -4924.2878   -5163.8196            0    6711.0073    17.799739     22.73857    19.217163     7777.966    7133.5834    6627.7838    6371.6548    907.53905   -687.46668    488.66087   -4163.0337 
30312000    113.79776    -5139.355   -4911.7454    -5139.355            0    7068.1448    17.995388      22.6142    19.088381    7768.0416     6414.058    7851.7378    6938.6387    441.76538    506.82478    1263.0111   -4111.0029 
30313000    118.73607   -5161.6388    -4924.152   -5161.6388            0    7073.7226    17.833179    22.705878    19.225112    7784.5935    6939.1045    7529.6784    6752.3847    122.38056    453.77746   -1116.5926   -4121.0701 
30314000    111.68667   -5160.6146   -4937.2274   -5160.6146            0    7865.3301    17.867351    22.681043    19.117603    7747.4116    8135.4671    7768.3152    7692.2079   -553.41791   -621.59662    531.95602   -4048.5391 
30315000    108.79055   -5164.2767   -4946.6822   -5164.2767            0    6462.7654    17.713977    22.903414    19.194627    7787.4624    6844.0808    6861.9195    5682.2959    647.10257    288.65549    424.00222    -4212.692 
30316000    115.15059     -5151.69   -4921.3746     -5151.69            0    6859.9852    18.014081    22.543013     19.18944    7792.6719    6229.7059     7956.118    6394.1315    478.35615    1242.0515   -855.93897   -4141.7501 
30317000    110.51734   -5160.4692   -4939.4209   -5160.4692            0     7608.001    17.745816     22.90937    19.080426    7757.0604    7376.9652    7358.3707     8088.667    612.34453   -458.24779   -76.907823   -4078.7371 
30318000    115.73734    -5163.157    -4931.668    -5163.157            0    8089.8556    17.869995    22.679633    19.117177    7747.9039    8682.7524    8010.2932     7576.521   -438.97011    -617.9225   -58.987183   -4017.5529 
30319000     109.1033   -5168.2635   -4950.0434   -5168.2635            0    7094.2839    17.936633    22.559126     19.21918    7776.7484    6469.4447    7592.7524    7220.6548   -1578.8968   -80.983147   -721.29736   -4145.4388 
30320000    114.02635   -5162.5883   -4934.5215   -5162.5883            0    7087.8662    17.825077    22.850934    19.124615    7789.8319    6367.4364    7309.8025    7586.3598    29.495229    578.15886   -232.51848   -4129.2923 
30321000    114.28921   -5166.6352   -4938.0426   -5166.6352            0    6581.8233     18.00798    22.594464     19.18833    7807.3604    5767.9368    7547.9005    6429.6325    278.13486    283.79295    93.471864   -4188.6208 
30322000    119.26368   -5148.1976   -4909.6555   -5148.1976            0    7793.8168    17.764098      22.8519    19.096091    7751.9319     7663.881    7869.6246    7847.9447   -30.329482   -64.237266    1089.4258   -4028.5336 
30323000    110.71464   -5172.8487   -4951.4057   -5172.8487            0    7864.8154    17.858761    22.596299    19.194988    7745.9817    7319.4442    8438.0123    7836.9897    863.12642    465.46623     846.7252   -4062.9396 
30324000    108.28321   -5169.9629   -4953.3831   -5169.9629            0    6690.8851    17.924391    22.699014    19.134647    7785.2369     5720.715    7198.3895    7153.5507    20.697031    535.32317   -391.34949    -4193.702 
30325000    113.13121   -5165.2656   -4938.9892   -5165.2656            0    7802.5177    17.711415    22.810537     19.18837    7752.2333     9321.328    7594.0013    6492.2237   -1003.4038   -1027.2438   -824.73721   -4056.8493 
30326000    110.17394   -5149.9349   -4929.5734   -5149.9349            0    7750.2223    17.997786    22.456067    19.205456    7762.0671    8536.7276    7575.9366    7138.0027    460.90204   -369.00348   -1560.8178   -4052.2344 
30327000    108.02454   -5174.2542   -4958.1918   -5174.2542            0    6547.1202    17.775927    22.969722    19.054492    7780.1038    5632.3466    6496.2382    7512.7758   -413.77381    37.111878    686.22086   -4215.3239 
30328000    113.25601   -5148.5278   -4922.0018   -5148.5278            0    5483.3766    17.935178    22.781764    19.188944    7840.5067    5108.4082    5770.9846    5570.7371    13.618653   -132.20385    -465.3386    -4295.001 
30329000    112.70336   -5173.6343   -4948.2137   -5173.6343            0    6062.7805    17.834933    22.757473    19.213915    7798.5057    6979.4108    5810.3252    5398.6054    -1175.372   -404.30852   -391.34493   -4258.6743 
30330000     117.0857   -5159.2883   -4925.1025   -5159.2883            0    7184.6862    17.936512    22.811492    19.051809     7795.211    6409.5792     6952.515    8191.9643    529.02165    306.52673    -33.76999   -4108.3103 
30331000    109.69413   -5156.5846   -4937.1828   -5156.5846            0     4791.666    17.918185    22.670617     19.29602    7838.3581    5101.6621    4634.2188    4639.1171   -475.10368    22.275704   -366.41882   -4389.4263 
30332000    111.86941   -5172.4829   -4948.7302   -5172.4829            0    6588.0308    17.792468    22.902844    19.079096    7774.6956    6318.4224    5713.1546    7732.5154    1075.9806   -668.68567    120.99325     -4201.74 
30333000    111.97477    -5158.042   -4934.0786    -5158.042            0    6840.5511     17.92536    22.662981    19.176372    7790.2495    6829.9046     6662.156    7029.5927    869.71125    97.678372    1539.3614   -4156.9044 
30334000     109.1486   -5141.4579   -4923.1472   -5141.4579            0    6267.7044    17.942025    22.737606    19.111515    7796.7086    6527.1554    5616.8586    6659.0994   -354.87092   -423.30685   -1154.1072   -4210.4653 
30335000    109.87798    -5158.257   -4938.4875    -5158.257            0    8475.1817    17.824519    22.758028    19.072463    7736.7615     7589.909     8665.565    9170.0711   -614.30312    153.65132   -33.371774   -3982.2096 
30336000    106.83787   -5157.6003   -4943.9113   -5157.6003            0    7036.3625    17.880921    22.739591    19.120965    7774.6769    6889.0264    7035.4743     7184.587    507.85738    271.26205    88.880745   -4146.0885 
30337000      107.919   -5155.4022   -4939.5509   -5155.4022            0    8071.7047     17.90815     22.64789    19.107391    7749.6104     7883.489    7780.7354    8550.8898   -294.57132   -397.56829    395.34852   -4027.2859 
30338000    112.63989   -5163.1977    -4937.904   -5163.1977            0    6396.7172    17.908687    22.734999    19.152185    7797.8888    6405.6641    6107.3096     6677.178   -799.12932   -455.91616   -444.05281   -4210.4424 
30339000    105.42353   -5167.6571    -4956.797   -5167.6571            0    6925.5454    17.831431    22.744212    19.137092    7761.2745    6492.4193    7805.5815    6478.6353   -357.60493    384.21625      60.4349    -4172.893 
30340000    111.57107   -5164.0798   -4940.9238   -5164.0798            0    7373.3299     17.93904    22.592042    19.165364    7767.3303    7307.7554    8158.7149    6653.5192   -1163.5368   -487.65979   -126.16147   -4105.6837 
30341000     110.3792   -5163.5879   -4942.8158   -5163.5879            0    7541.1521    17.786829    22.788481    19.127532    7753.0548     8416.238    7092.8062    7114.4121   -303.22028    314.23508   -1406.7984   -4090.1351 
30342000    109.64518   -5160.8929   -4941.5889   -5160.8929            0    6588.8886     17.89444    22.657853    19.220243    7792.8397    6215.1393    7022.0576     6529.469   -785.36734    438.63627   -654.93637    -4192.758 
30343000    109.97446   -5144.0292   -4924.0667   -5144.0292            0    8510.1253    17.762224    22.776497    19.133094    7740.5081    7527.0257     8836.292    9167.0581   -42.435573   -160.17493   -39.949961    -3963.381 
30344000    112.95018   -5165.0069   -4939.0926   -5165.0069            0    6861.9457    17.823799    22.802493    19.139024     7778.617    7160.7459    6475.5784     6949.513   -865.88945    639.91693    631.48519   -4160.6518 
30345000    105.71579   -5163.4459   -4952.0013   -5163.4459            0    7635.3906    17.903191     22.47985    19.262294     7752.323    8341.1245    8334.8269    6230.2205    196.28007    599.87371   -1212.9556   -4088.7465 
30346000    108.63915   -5143.9643   -4926.6726   -5143.9643            0    7502.9046    17.762488    22.894919     19.04184     7743.759    7556.3717    7314.3308    7638.0113    342.19193     137.3276    291.54718   -4079.3337 
30347000    112.12835   -5161.9004   -4937.6299   -5161.9004            0    6303.0477    17.896185    22.555733    19.316714    7797.4151    6564.7846    7078.4205     5265.938   -694.14521   -34.861149    30.565769   -4220.8643 
30348000    108.81933   -5155.0545   -4937.4024   -5155.0545            0    6876.2562    17.891983    22.741027    19.126658    7782.2943    7511.0394    6177.7172    6940.0119    1018.2424   -162.14636   -706.53381   -4156.9694 
30349000    109.55769   -5161.8896   -4942.7607   -5161.8896            0    5490.8834    17.931756    22.728908    19.178585     7816.601    6319.7563    5210.3046    4942.5895   -478.36662   -629.09744    1397.9405   -4316.8159 
30350000    112.15563   -5164.0044   -4939.6793   -5164.0044            0    7857.8157    17.847529     22.75485    19.100407    7757.0162    7998.3962     7499.899    8075.1518   -419.45999    -349.9635    -1778.307   -4050.7393 
30351000    105.08325   -5164.9089   -4954.7294   -5164.9089            0    6943.2733    17.805934     22.76658    19.148497    7762.4221    7410.2832    7102.5547     6316.982   -675.24649    700.23432    233.11419   -4168.7025 
30352000    109.99845   -5158.4431   -4938.4326   -5158.4431            0    6016.0518    17.995828    22.660547     19.13987    7805.1494    7484.7542    5425.3589    5138.0424    86.985853   -692.81453   -1806.3016   -4253.6248 
30353000    114.24675   -5159.1244   -4930.6168   -5159.1244            0    7256.4369    17.806677    22.818307    19.135499    7775.1023    7549.2184    6486.7468    7733.3456   -218.07239   -269.42441    857.85954   -4107.7957 
30354000    112.51096    -5160.526   -4935.4902    -5160.526            0     6186.712    17.767177    22.766037    19.303382    7807.9902    7747.5882    5400.5398    5412.0079   -943.60987   -443.81599   -1627.9742   -4230.9998 
30355000    119.03194   -5156.9241   -4918.8456   -5156.9241            0     6407.747    17.852169    22.821645    19.178029    7813.4332    6000.7354    6786.4472    6436.0585    605.11666    889.64212   -201.01474    -4188.677 
30356000    108.87339   -5169.7438   -4951.9836   -5169.7438            0    6993.3231    17.904666    22.668131    19.185174     7786.597    8561.5033    6311.4996    6106.9663    259.85249    189.14534    449.44693   -4157.8251 
30357000     111.1812   -5153.9376   -4931.5615   -5153.9376            0    6684.9607    17.857252    22.759068    19.165555     7789.158    6957.9952    6561.8208    6535.0661   -476.02732   -996.96971   -62.048892   -4172.1708 
30358000    112.99832   -5156.5509   -4930.5403   -5156.5509            0    7149.6733    17.900486    22.702073    19.159419    7785.9691    7172.3939    6897.3028    7379.3234    640.52583   -914.60707    956.99214   -4118.6923 
30359000    106.14939    -5156.207   -4943.8951    -5156.207            0    6398.9539    17.913659    22.706366    19.171874    7798.2382    6802.0765    6049.4969    6345.2882    1060.7568    796.79657    1191.9117   -4216.1465 
30360000    115.81611   -5160.4209   -4928.7743   -5160.4209            0    5858.5772    17.935189    22.675982    19.203966     7810.215    5511.2743    6519.7613    5544.6961    427.01061    720.81756   -178.09136   -4261.4591 
30361000    118.76387   -5154.4633   -4916.9209   -5154.4633            0    8255.1047    17.814541    22.710657    19.141768    7744.3749    7994.4508    7942.9024     8827.961   -399.56698   -899.00723   -978.80009   -3984.5583 
30362000     112.5394   -5159.9364   -4934.8437   -5159.9364            0    7307.4446    17.916897     22.72148    19.125245    7785.8569    6986.8921    6970.7359    7964.7057   -216.13167    549.69342     105.2534   -4105.0926 
30363000    110.63106   -5166.1687    -4944.893   -5166.1687            0    6353.0155    17.832728    22.755845    19.199971    7791.3249    5873.1817    6421.2061    6764.6586    240.80441    775.35597    1638.8654   -4223.0095 
30364000    115.16772   -5159.4519   -4929.1022   -5159.4519            0    6436.1152    17.979592    22.592207    19.161041    7783.1893    5745.1851    6840.9903    6722.1703    148.11099   -422.78545    135.32689   -4198.5398 
30365000    109.22238   -5152.2545   -4933.7963   -5152.2545            0    7199.2292    17.796418    22.744988    19.170516    7759.8283    7382.9486    7233.6536    6981.0855   -88.398824   -93.781751     1117.931   -4119.0657 
30366000    108.51828   -5167.3289   -4950.2789   -5167.3289            0    5659.3614    17.849352    22.737365     19.26176    7817.3319     6520.407    5022.5837    5435.0935    1534.0714   -389.80201    256.96165   -4305.0678 
30367000    103.88314   -5156.2745   -4948.4954   -5156.2745            0    7695.5226    17.904661    22.710695    19.075231    7756.5097    7647.2413    7357.1358    8082.1906   -957.25926   -1.8864677    230.40803   -4077.9722 
30368000    108.91647   -5165.9834    -4948.137   -5165.9834            0    6017.8568     17.94119    22.629243    19.231134    7807.7547    5596.4922    6461.0253     5996.053   -451.93722    1066.3729   -2169.2073   -4262.8952 
30369000    110.69945   -5167.1969   -4945.7843   -5167.1969            0    7096.5703    17.833413    22.868717     19.06619    7775.7126    7420.4802    6854.0537     7015.177    712.94896    735.80267    1255.0186   -4141.0276 
30370000    108.58707   -5160.3044   -4943.1169   -5160.3044            0    6754.6232     17.87716    22.531499    19.360298    7798.3127    7191.3459    7659.6753    5412.8484    188.42663    359.75425   -646.50069   -4174.9109 
30371000    108.68754   -5166.8903   -4949.5018   -5166.8903            0    6280.0346    17.881428    22.898731     19.06851    7807.8304    7088.4434    5121.9284    6629.7319   -1477.9453   -19.518214   -802.21756   -4234.3993 
30372000    116.68979   -5156.3158   -4922.9218   -5156.3158            0    8234.0934    17.871856    22.603309     19.19238    7753.0129    8060.0507    9006.8958    7635.3336    169.76758    93.446545    931.30031    -3991.895 
30373000    110.95699   -5162.0205   -4940.0928   -5162.0205            0    7284.0672    17.769993    22.737677    19.229804    7769.7707     8423.076    6717.4055    6711.7202    562.44139   -397.33151    663.76367    -4114.705 
30374000    115.10891   -5160.5505   -4930.3185   -5160.5505            0    7079.7642    17.861672    22.748651    19.149301    7780.9151    6758.9299    7245.9893    7234.3734    707.07094      780.952     319.8025   -4126.9304 
30375000    113.42279   -5153.9574   -4927.0978   -5153.9574            0    7217.6238    17.903843    22.629348     19.20509    7780.9866    5971.4306    7693.1056     7988.335   -167.62041   -81.012818      78.5155   -4108.0584 
30376000    106.37487   -5156.7837   -4944.0208   -5156.7837            0    6866.9995    17.822923    22.777724    19.165957    7780.7198    7519.8689     7043.912    6037.2176    1242.9706   -420.67759    1191.3823   -4164.7962 
30377000     108.4156   -5164.7804   -4947.9359   -5164.7804            0    6481.3546    17.838877    22.635436    19.296369    7791.6953    7776.4805    5895.2927    5772.2905     422.4968   -675.00149    1011.9892   -4211.4344 
30378000    109.10794   -5165.8669   -4947.6376   -5165.8669            0    5554.5682    17.789427    22.984616    19.094563    7807.4449     5775.267    4967.6885    5920.7492    767.59958   -149.66526    490.60502   -4315.1746 
30379000    116.03927   -5150.4003   -4918.3074   -5150.4003            0    6928.3538    17.947828    22.563778     19.26354    7801.1715    6584.2776    8033.1498     6167.634    372.11349    317.03944   -974.91285   -4130.0542 
30380000    106.32465   -5159.4925   -4946.8301   -5159.4925            0    7706.3495    17.802328    22.801691    19.063945    7738.4974    6710.2967    8315.6996    8093.0522    1987.5865    116.02582    1548.6597   -4077.1066 
30381000    108.72916   -5172.9078    -4955.436   -5172.9078            0    7414.1866    17.839617    22.741293    19.176091    7779.6621    7004.9321    7325.1883    7912.4396     595.3675    371.16636   -2093.4114   -4114.2343 
30382000    114.56847   -5152.9661   -4923.8151   -5152.9661            0    6796.3279    17.802665    22.659148    19.287676    7780.5176    7469.6627     7216.382    5702.9388   -515.66484    258.97767    596.31613   -4152.6298 
30383000    113.60558   -5151.3356   -4924.1105   -5151.3356            0    7681.4664    17.886877     22.67432    19.151194    7767.2032    7694.3246    7752.1103    7597.9642   -248.70955    178.93193   -1240.5499   -4053.9794 
30384000    107.41575   -5164.5879   -4949.7431   -5164.5879            0      6433.37    17.854992    22.777289    19.198836    7807.9421    6959.4418    6314.3289    6026.3393   -737.94154   -298.99735    246.59666   -4217.1699 
30385000    107.48414   -5158.6399   -4943.6583   -5158.6399            0    8225.3277    17.933844    22.663362    19.119674    7771.0231    8652.6419    7461.3778    8561.9633    29.316416    647.44648   -668.26873   -4011.4622 
30386000    113.96047   -5155.8505   -4927.9155   -5155.8505            0    8053.6552      17.7163    22.941143    19.076841     7753.442    8373.3597    7647.3752    8140.2307   -1803.2105   -96.415397   -1555.4962   -4017.2404 
30387000    111.34466   -5163.5488   -4940.8458   -5163.5488            0    6915.2708    17.846952    22.509993    19.360848    7777.9256     6765.121    8759.8544    5220.8369    1248.7618    331.69167   -104.22882   -4156.4254 
30388000    112.69206   -5163.6991    -4938.301   -5163.6991            0    7149.7369    17.925224    22.667614      19.1495    7780.8641    6623.8298    7319.8881    7505.4928   -128.15249    346.88198   -528.80751   -4126.9781 
30389000    110.42311   -5174.1097   -4953.2498   -5174.1097            0      5999.45    17.875724    22.717503    19.201976    7797.7654    7195.4593    5149.1827    5653.7081    612.18054   -69.399183    1086.2666   -4270.9779 
30390000    113.02526   -5157.9813   -4931.9168   -5157.9813            0    7627.8191    17.919094     22.63018    19.162105      7770.47    5927.9688    7950.7093     9004.779   -430.92596    285.68393   -99.940358   -4067.4993 
30391000    115.75701   -5167.8192   -4936.2909   -5167.8192            0    7301.7574    17.725772    22.873182    19.114929    7750.0488    7934.8432    6137.6371    7832.7919   -528.05094   -768.42818   -452.32973   -4110.9988 
30392000    117.53697   -5172.5654   -4937.4769   -5172.5654            0    7057.8854    17.952363    22.586295    19.157571    7767.9615    6284.1526    7464.5326    7424.9709   -1186.2876    140.89138   -508.35107    -4137.905 
30393000    109.18432    -5161.109   -4942.7268    -5161.109            0    6546.3786    17.817873    22.868163    19.104024    7784.1646    6967.3287    6514.7825    6157.0245    605.21222    166.40987    719.39954   -4199.5554 
30394000    112.69682   -5162.0992   -4936.6916   -5162.0992            0    7494.9708    17.875128    22.591055    19.213686    7758.8327    7563.5738    7836.6908    7084.6477   -63.050885   -326.45802    -1013.306   -4088.6011 
30395000    115.45705   -5163.9088   -4932.9805   -5163.9088            0    7827.3995    17.867777    22.665763    19.133291      7748.73    6732.3567     8355.666    8394.1759   -540.14492   -1138.8181   -637.23236   -4048.4274 
30396000    116.55054     -5172.68   -4939.5645     -5172.68            0    7742.0622    17.748501    22.722658    19.196295    7741.7338    8235.3274    7051.8725    7938.9867   -426.54738    189.61586   -359.69384    -4065.445 
30397000    103.47795   -5158.5405   -4951.5718   -5158.5405            0    7476.0979    17.954812    22.703172    19.050901    7765.7412    5049.3552    7878.9616    9499.9769    244.00667    739.93428    152.54641   -4104.8636 
30398000    112.94317   -5168.0982   -4942.1979   -5168.0982            0    8017.6834      17.8785    22.595374    19.175582    7746.3868    7880.1035    8331.0729    7841.8738    204.10965   -245.63325   -682.98806   -4036.4153 
30399000    114.10979   -5153.5618   -4925.3282   -5153.5618            0    6454.4643    17.806703    22.873494    19.105259    7781.6008    6550.1512    5460.8135    7352.4282    -239.3533   -287.33083    434.81824   -4192.8325 
30400000    111.78404   -5168.1449    -4944.563   -5168.1449            0    6400.1501      17.8567    22.736531    19.167724    7782.0844    6883.2368    6184.0613    6133.1523    316.45153   -306.38868   -183.99652   -4218.1862 
30401000    117.57873   -5154.2078   -4919.0358   -5154.2078            0    5706.1688    17.835617    22.689537    19.299159      7810.02    5357.8959    6156.8425    5603.7679   -335.36048      627.526    318.30725   -4269.0967 
30402000    111.78855   -5155.5944   -4932.0035   -5155.5944            0    7340.3118    17.837585    22.815629     19.09415    7770.8557    6797.0571    7747.8471    7476.0314    480.62267    909.02647    204.91345   -4100.1263 
30403000    113.58006   -5153.4881    -4926.314   -5153.4881            0    8439.5503     17.88986    22.616338    19.144592    7745.9614    7765.4086    9077.9673     8475.275   -350.55958    444.79835    1639.2321   -3972.9241 
30404000    106.23156   -5148.9996   -4936.5233   -5148.9996            0    8438.6473    17.872225    22.724764    19.068811    7744.6469    8973.1094    8830.9558    7511.8768   -51.978016   -790.87856   -353.99796   -3983.3973 
30405000    108.58721   -5160.9553   -4943.7674   -5160.9553            0    7324.7626    17.877295    22.625229    19.206032    7768.4157    7217.3086    6982.7403    7774.2388    92.727405    -494.4118   -53.976209    -4113.913 
30406000    107.26509   -5166.0205   -4951.4771   -5166.0205            0    7070.9002     17.82927    22.822496    19.097099     7770.771     8289.787    6081.3227    6841.5907   -1032.3247    247.38911    399.40128    -4150.141 
30407000    109.39959   -5161.2387    -4942.426   -5161.2387            0    5741.0737    17.931907    22.688058    19.173397    7800.5075    6560.5042    5252.2946    5410.4223   -613.04563   -759.95264   -841.36714   -4289.3077 
30408000    106.10457   -5160.7883   -4948.5661   -5160.7883            0    7570.0705    17.901486    22.454653    19.300483     7758.247    8101.5217    8119.8565    6488.8333   -448.31946     483.4522    774.17604   -4092.0423 
30409000     111.8351   -5168.1906   -4944.5066   -5168.1906            0    7437.4118    17.833881    22.852202    19.016591    7750.0873    7645.0806    6479.5348      8187.62   -1183.3438   -282.95214     265.4814   -4103.8777 
30410000    112.64266   -5163.6766   -4938.3773   -5163.6766            0    5268.0728    17.965043    22.617884    19.250072    7821.9059    5850.2595    5693.8063    4260.1527   -203.76743   -92.962332    -98.34025   -4337.4247 
30411000    110.78033   -5170.2311   -4948.6567   -5170.2311            0    6261.3239    17.965908    22.714983    19.052458    7775.2184    5394.3717    6544.7387    6844.8613    393.48952   -654.77827    708.16165   -4238.6627 
30412000    107.19822   -5150.6103   -4936.2006   -5150.6103            0    6732.7144    17.856203    22.748224    19.161565    7783.3681    5990.8191    7387.6951     6819.629   -519.17813   -212.05772   -361.45075   -4171.9538 
30413000    108.33049   -5162.4642   -4945.7898   -5162.4642            0    5610.3989    17.919562     22.65795    19.284685    7829.9781    6330.1315    5095.2907    5405.7744   -534.07598   -722.23808   -1816.4011    -4305.126 
30414000     108.1531    -5156.449   -4940.1295    -5156.449            0     8006.388    17.873533    22.769547    19.021714    7741.3099    8108.2659    7611.3938    8299.5041    437.55284   -411.45604    805.01222   -4036.2158 
30415000     111.2673    -5162.761   -4940.2127    -5162.761            0    6937.6535    17.816115    22.530106    19.348673    7766.5374    7568.1858    7406.5282    5838.2465   -100.94714    323.83822   -81.317831   -4154.4056 
30416000    119.53578   -5155.5596   -4916.4733   -5155.5596            0     7531.024    17.848109    22.828404    19.037544    7756.7303    6897.4935     6705.773    8989.8054   -307.05889   -1516.0541       -423.9   -4064.5341 
30417000    113.31447   -5172.2747   -4945.6318   -5172.2747            0    5846.2421    18.000144    22.558785    19.262991    7821.9567    5823.4878     7029.775    4685.4635    843.47506   -193.88873    1694.3882   -4278.7205 
30418000    110.45328   -5148.4658   -4927.5456   -5148.4658            0    6266.8745    17.856443    22.858032    19.084381    7789.5408    5826.1388    6513.5066    6460.9783   -1430.3017    675.99624   -572.54778   -4215.6132 
30419000    115.61561   -5153.8181   -4922.5726   -5153.8181            0    7214.7249      17.8956     22.69461    19.173362    7786.9475    7852.8901    7182.7452    6608.5393   -496.31883   -277.24366   -43.138792    -4103.235 
30420000    111.56039   -5155.6496   -4932.5151   -5155.6496            0    8159.6733    17.790527    22.694561    19.184818    7745.8361    8170.2727    7784.3833     8524.364    404.40225   -715.78111    935.85825    -4010.757 
30421000    116.96688   -5167.8735   -4933.9253   -5167.8735            0    6105.2213    17.922004    22.787038    19.063676    7785.4029     6990.855    5266.8045    6058.0044    416.75663    454.26926    901.84835   -4240.7255 
30422000    106.87109   -5162.0801   -4948.3247   -5162.0801            0    6086.2618     17.85589    22.721806    19.236421    7804.5633    6191.7935    5829.1196    6237.8722   -789.58146   -24.200427    67.459988   -4255.5769 
30423000    104.41317   -5160.7998   -4951.9605   -5160.7998            0    5822.8765    17.924544    22.728665    19.125041    7791.5602    5546.0232    5785.9688    6136.6376   -139.20595   -566.65389   -4.7244622   -4290.2959 
30424000    111.58422   -5162.6527   -4939.4705   -5162.6527            0    7479.3374    17.715603    22.754788    19.264943    7765.9837    8835.9086     6982.639    6619.4646   -198.01247    1000.7028    9.0680684   -4092.3689 
30425000    108.47473   -5158.1845   -4941.2217   -5158.1845            0    6867.1066     17.93571    22.662135    19.128636    7775.0537    6355.3655    7588.7693    6657.1849   -399.44528    145.68863   -309.89914   -4162.5523 
30426000    113.73371   -5165.7714     -4938.29   -5165.7714            0    7763.5692    17.811842    22.604663    19.222925    7739.7394    7980.5741    8068.6814    7241.4522    382.84673   -56.669218    17.501562   -4061.9681 
30427000    115.26574   -5160.2775   -4929.7318   -5160.2775            0    5082.3069    17.915561    22.909814    19.091762    7836.0643    4771.8977    5107.7804    5367.2427    524.26635   -128.50996   -239.86195   -4348.9209 
30428000    114.31684   -5163.0388    -4934.391   -5163.0388            0    7216.5366    17.945746    22.617582    19.207492    7796.1169    7418.7873    7092.0055    7138.8171   -558.63177    360.13781    822.48482   -4113.8825 
30429000    111.54102   -5154.8065   -4931.7107   -5154.8065            0    6466.1992    17.851522    22.835141    19.162199    7811.3176    5114.5193    7308.6998    6975.3785    963.04986    323.75299    356.12747   -4195.0809 
30430000    111.09405   -5156.5122   -4934.3104   -5156.5122            0    6797.6379    17.917318    22.707079    19.168996    7798.9051    7036.8999    6624.9601    6731.0537   -1505.2155    0.3593137   -544.75105   -4161.1536 
30431000    109.36128   -5162.1984   -4943.4623   -5162.1984            0    7331.3594    17.890826    22.638103    19.166997    7762.9087    6443.8382    7328.2418    8221.9984    208.05726    -742.8944   -1315.6266   -4113.4493 
30432000    113.07161   -5162.9547   -4936.7975   -5162.9547            0    6471.7976    17.767828    22.878897     19.20118    7805.4387    7562.5377    6390.9473    5461.9077   -789.30159    469.60948    406.48812   -4200.0848 
30433000    109.43131   -5167.7133   -4948.8371   -5167.7133            0    6894.2721    17.955198    22.560098    19.218815    7784.9851     6164.972    7521.9198    6995.9245   -370.64243    240.64306   -1714.2026   -4166.0889 
30434000    105.62383   -5160.0462   -4948.7855   -5160.0462            0    7095.8479    17.842922    22.768706    19.101469    7760.1677    5649.2885    7231.0559    8407.1992    268.05357    974.61665     837.3735   -4145.7194 
30435000    116.46876   -5157.8527   -4924.9008   -5157.8527            0    7304.5087    17.763884     22.69877    19.286595    7776.7083     8599.513    6980.5231      6333.49   -210.47409    18.367143   -438.34856   -4096.4576 
30436000    113.89567   -5163.8057   -4936.0002   -5163.8057            0    5990.7626    17.891699    22.683052    19.254185    7814.0865    5549.3112     5745.252    6677.7247   -575.02411   -795.79801   -761.27773   -4253.2903 
30437000    108.63443    -5166.298   -4949.0157    -5166.298            0    5526.2355    17.913296      22.7316     19.19492     7816.131    4719.4513    6103.1259    5756.1291   -761.87696   -110.18053    197.86682   -4319.0787 
30438000    111.88617   -5156.0696   -4932.2834   -5156.0696            0    6398.3674    17.976156    22.739072    19.115632    7813.7266    5925.7684    6438.8709    6830.4629    486.56741    704.16592    174.07216   -4203.1562 
30439000    110.07293   -5168.1643   -4948.0049   -5168.1643            0    7309.7336    17.803614    22.946375    18.992602    7759.0169    6729.1566    7312.4821    7887.5622   -654.91289    596.47651    722.84007   -4120.8552 
30440000    118.81861   -5153.6362   -4915.9843   -5153.6362            0     7118.863    17.927952    22.598238    19.205649     7780.979    6459.9814    7104.6777      7791.93    583.38776    -229.9123    896.17873   -4108.1528 
30441000    114.52521   -5161.1145   -4932.0499   -5161.1145            0    7026.8278    17.715945    22.978496     19.09455    7773.1199    7330.7728    6622.4584    7127.2521   -1533.7104    -300.5756   -668.62073   -4135.4678 
30442000    111.33394   -5152.9746    -4930.293   -5152.9746            0    7165.0921    17.961987    22.520072    19.213362    7771.9054    6661.3133    8059.6557    6774.3074   -654.81257     250.9032   -805.57915   -4118.1637 
30443000    108.37055   -5157.5807   -4940.8262   -5157.5807            0     6735.513    17.759246    22.858921    19.165472    7780.3611    7060.5907    6644.7551    6501.1932   -2.2383919    495.45011    1010.9662    -4176.557 
30444000     113.4083   -5164.1994   -4937.3688   -5164.1994            0     6304.967    17.963501    22.588407    19.258389    7814.4163    6131.0048    6491.8889    6292.0073    334.10652   -239.83346   -662.90851   -4218.8217 
30445000    107.38411   -5149.7587   -4934.9772   -5149.7587            0    6679.0215    17.786944    22.844752    19.155501    7783.6145     7060.435    6495.5347    6481.0948   -355.82642    25.286995   -520.15692   -4176.8012 
30446000    108.95353   -5157.1498   -4939.2293   -5157.1498            0    7375.6185    17.719072    22.918375    19.137393     7771.549    7526.6449    7184.5049    7415.7059    353.58348   -594.54507    726.21548   -4103.2762 
30447000    109.24111   -5153.7429   -4935.2471   -5153.7429            0    7557.7626    17.980053    22.606493    19.066007    7749.6824    6670.5232    7364.0322    8638.7323   -408.91881   -605.99586    593.30246     -4081.06 
30448000    110.64583   -5160.0924    -4938.787   -5160.0924            0       6762.8    17.754603    22.918372    19.105234    7774.0457     7918.129    6283.3128    6086.9582   -73.762546     267.5239   -1274.2729   -4172.0445 
30449000    113.56474   -5155.6348   -4928.4912   -5155.6348            0    8169.6508    17.957122    22.582109    19.137464     7760.427     7150.723    8505.5217    8852.7077     235.1207   -353.59026    535.41778   -4003.8676 
30450000    112.23407   -5170.4615   -4945.9795   -5170.4615            0    5067.9822    17.776756    22.863797    19.229431    7815.6897     5296.805    4918.0965    4989.0451    1003.7942    232.51363    419.37103   -4368.3116 
30451000    114.58031   -5168.4461   -4939.2714   -5168.4461            0    7317.2262    17.834006     22.66566    19.260397    7785.4286    8033.8396     7223.328    6694.5111   -1601.3916    158.15744    345.08863   -4108.4553 
30452000    109.19312   -5164.0994   -4945.6996   -5164.0994            0    6532.5626    17.881486    22.655608    19.257678    7801.5924    7480.7674    6113.2457    6003.6747    479.27466   -249.27508    126.98231   -4202.4363 
30453000     108.8122   -5170.4697   -4952.8319   -5170.4697            0    6317.4965    17.819536    22.982023    19.056427    7804.1593    5978.5687    5672.6538     7301.267    279.72344   -266.56386    1058.5367   -4233.8018 
30454000    108.60538   -5169.1116   -4951.8874   -5169.1116            0    6779.8136    17.942151    22.512625    19.259029    7779.2015    7226.7139    7044.0979     6068.629   -619.81405   -190.36327    -146.2341   -4182.7062 
30455000    110.31814   -5172.1733   -4951.5234   -5172.1733            0    6829.0148    17.875821    22.803141    19.135721    7800.1958    7763.3014    5578.7807    7144.9623    239.34026   -200.83181    -624.5726   -4174.6693 
30456000    107.77324   -5163.2138    -4947.654   -5163.2138            0    6504.7335    17.861631    22.730279    19.185373    7789.2591    6082.5074    6744.4868    6687.2064   -943.14604   -402.69252   -929.11341    -4208.727 
30457000    112.49374   -5166.2595   -4941.2581   -5166.2595            0     5810.588    17.889127    22.674848    19.236087    7802.7964    6115.3723    5372.2285    5944.1633    296.26545    -154.4929   -74.193118   -4280.0377 
30458000    116.73289   -5164.2226   -4930.7424   -5164.2226            0    5766.1506    17.755926    22.994348     19.11777    7805.5165    4955.3455    5991.3036    6351.8026   -1244.3448    997.75495   -74.821797   -4274.3501 
30459000    112.36146   -5163.9327    -4939.196   -5163.9327            0    7188.2485    17.958644    22.469927    19.305999    7790.5383    6344.5131    8520.9719    6699.2605    -697.6059    331.56514    814.75428   -4122.4887 
30460000    111.59822   -5153.7375   -4930.5273   -5153.7375            0    6262.4456    17.739852     22.94026    19.142107    7790.0113    5698.7811    6569.9681    6518.5878    243.19435    174.73945   -343.51819    -4219.055 
30461000    113.88897   -5164.3194   -4936.5274   -5164.3194            0     6788.813    17.904028       22.551    19.289893    7788.3659    6511.6533    7664.2784    6190.5072   -82.950763    289.04931   -168.94013   -4165.4178 
30462000    107.56311   -5153.2535    -4938.114   -5153.2535            0    7192.2693    17.808419    22.735326    19.255587    7796.2058    7412.6675    7579.9653    6584.1751    417.28267    1455.5076    480.79695   -4120.3554 
30463000    111.10958   -5158.3098   -4936.0769   -5158.3098            0    7237.1442    17.908236    22.695841    19.096359    7761.5713    6767.3184    7186.6872    7757.4269    834.46786   -316.46804   -362.38192   -4116.8716 
30464000    111.56574    -5158.796   -4935.6507    -5158.796            0    8854.8987    17.895114    22.726655      19.0086    7730.7232    8270.9836    8644.1981    9649.5145   -469.36982   -17.215063    1249.3816   -3937.3081 
30465000    104.76164   -5160.4143    -4950.878   -5160.4143            0    8665.9094     17.77294    22.765582    19.078824    7719.5079    9504.9726    8198.7959    8293.9597    355.63905    315.75026   -784.71989   -3975.2604 
30466000    112.98364   -5173.8306   -4947.8494   -5173.8306            0    5314.9166    18.014585     22.50887     19.30033    7826.0513    4300.4319    6043.7402    5600.5778    56.297877    232.41466    469.74765   -4341.2317 
30467000    102.39206   -5155.7452   -4950.9484   -5155.7452            0    7543.6083    17.816843    22.717029    19.140688    7747.1118    6180.6204    8324.5706     8125.634   -243.76975    280.13899    560.83681   -4098.6438 
30468000    113.02467     -5155.18   -4929.1167     -5155.18            0    7605.0421    17.804565    22.880838    19.019284      7748.14    7753.2068    6665.3474    8396.5721   -470.14451   -549.82165    551.67659   -4069.7571 
30469000    112.06334   -5169.2035    -4945.063   -5169.2035            0    5791.9639     17.89279    22.626007    19.277584    7804.3836    5697.4043    6105.5604     5572.927    481.65636   -151.04349   -477.53495   -4285.8278 
30470000    108.39804   -5168.5062   -4951.6968   -5168.5062            0    6236.3611    17.917715    22.812442    19.036872     7781.261    6380.8429    5724.8462    6603.3941    219.32577    361.42305   -128.25784   -4243.9838 
30471000    110.97292   -5164.2305   -4942.2709   -5164.2305            0    6833.8353    17.768039    22.709832    19.241023    7763.9294    8067.0308    6575.7911    5858.6842   -1086.6804     -1537.32   -21.370143    -4168.483 
30472000    109.72021   -5174.5821   -4955.1281   -5174.5821            0    6927.1178    17.870998    22.699365    19.185112    7782.6382    6612.5206    7239.1601    6929.6726    93.583044   -390.29822    1045.7154   -4168.8878 
30473000    107.89342   -5167.5722    -4951.772   -5167.5722            0    6634.2303    17.949471    22.648585    19.175547    7795.4374    7174.3993    6323.2058    6405.0857    -267.4097    1063.9824    707.04507   -4197.5366 
30474000     112.2623   -5162.0095    -4937.471   -5162.0095            0    6888.4528    17.832223     22.70142    19.178487    7763.7734    5815.9853    7726.1046    7123.2685    -76.54241    553.91379   -598.56541   -4157.5144 
30475000    111.31339   -5170.0448   -4947.4043   -5170.0448            0    5899.2686    17.910833    22.626664    19.219545    7788.9591    6088.9103    5749.7388    5859.1566   -392.61245   -1658.6932   -350.80626   -4277.2829 
30476000    111.60475   -5169.8184   -4946.5951   -5169.8184            0    5718.5276     17.85678    22.775298    19.188733    7803.9328    5562.4574    5600.3352    5992.7901    392.95513    336.28594    494.31457    -4295.756 
30477000    116.35713   -5143.0094   -4910.2808   -5143.0094            0    8101.4918    17.887287    22.620272    19.181542    7761.1452    7028.6728     8714.951    8560.8516    247.75678     1374.418    471.36727   -3993.2864 
30478000    111.89159   -5149.8455   -4926.0485   -5149.8455            0    7412.2466    17.917174    22.642914    19.166265    7775.6966    6694.1029    7546.8944    7995.7424   -849.61276   -381.62644    -15.13266   -4085.4956 
30479000    116.83058   -5164.7272   -4931.0516   -5164.7272            0    6785.7804     17.78685    22.811001    19.165487    7776.1254    5778.0692    7241.6605    7337.6115    926.42279   -555.03809    41.178248   -4161.4979 
30480000    117.30188     -5154.92   -4920.3017     -5154.92            0    6563.3173    17.951587    22.766465    19.085745    7800.2328    5565.3869    6559.0483    7565.5168   -765.05915   -39.714314    623.56223   -4173.6693 
30481000    113.50791    -5158.296   -4931.2662    -5158.296            0    5922.1213    17.965149    22.643774    19.200951    7810.9233    5179.9355    6601.6037    5984.8246    -613.5909   -216.68036   -116.96421   -4256.6519 
30482000    108.96574   -5155.8801   -4937.9352   -5155.8801            0    6158.9825    17.890048     22.87981     19.06407    7803.3222    6211.3981    6048.7322    6216.8172     776.6716   -487.24089    172.63163   -4237.0217 
30483000    109.71844   -5166.2828   -4946.8324   -5166.2828            0    5872.4875    17.926345    22.610315    19.267354    7809.4497    5265.3049    6371.8814    5980.2763   -1091.5324   -117.86111   -65.409001   -4277.9983 
30484000    115.59254   -5157.0136   -4925.8143   -5157.0136            0    6281.0497      17.7776       22.876    19.122072    7776.5717    6800.3688    6078.8126    5963.9677   -365.15901   -382.20067   -1027.3796   -4213.4596 
30485000    108.26756   -5166.6718   -4950.1233   -5166.6718            0    6578.3948    17.998601    22.473393    19.243752    7783.8984    6396.4585    7323.3329    6015.3929   -696.43277    307.03855   -488.24487   -4203.3427 
30486000    111.31993   -5163.6375   -4940.9839   -5163.6375            0    7303.9962      17.7818    22.758072    19.192627    7766.8629     6841.082    7274.7681    7796.1386   -300.22449   -92.372248    -1015.708   -4113.6476 
30487000    110.05403   -5164.0176    -4943.896   -5164.0176            0    5744.1646    17.823294    22.884687    19.153055    7812.1577    5400.4574    5471.9941    6360.0425    221.95236   -774.95711    386.70609   -4289.4501 
30488000       112.64   -5155.4984   -4930.2045   -5155.4984            0     7420.877    17.864171    22.662428    19.215737    7779.4044    7402.8441    7647.5434    7212.2437   -994.18315    565.33802    394.40881   -4088.2716 
30489000    112.90375   -5162.0286   -4936.2071   -5162.0286            0    6924.2255    17.928147    22.792948    19.046596    7783.1117    5880.3748    7269.1345    7623.1673    218.03262    977.61862    139.20094   -4150.2473 
30490000    112.53762   -5157.8894   -4932.8002   -5157.8894            0    6269.1445    17.845959    22.817593    19.165961    7804.4145    5703.8906    6526.2313    6577.3116     65.29018   -148.60509   -617.06783   -4219.2501 
30491000     106.0293   -5158.5569   -4946.4852   -5158.5569            0    7568.7394    17.830594      22.6938    19.176961    7759.8408     7831.719    7592.3622    7282.1371    441.06452   -36.576445    1271.0802   -4089.9361 
30492000    112.03991   -5167.7482   -4943.6546   -5167.7482            0    7374.3231     17.97152    22.657913    19.083051    7770.5638    6057.4985      7361.68    8703.7908    151.55926   -277.43839    999.46368   -4107.9542 
30493000    113.25339   -5151.6852   -4925.1644   -5151.6852            0    7308.9241    17.787978    22.755659    19.224354    7781.5793    8370.1056    7537.1424    6019.5244   -148.55292    416.23867   -1172.1774   -4095.7013 
30494000    114.35778   -5157.1184   -4928.3887   -5157.1184            0    7115.3341    17.963837     22.68241    19.075217    7772.4473    5716.6406    7750.9945    7878.3672   -325.46103    28.423184    842.24506   -4121.8431 
30495000    119.35928   -5156.8959   -4918.1626   -5156.8959            0     7674.331    17.815651    22.870765    19.040841    7758.3348    8880.2107    6667.3852    7475.3972    245.99805   -155.20602    593.17977   -4049.8323 
30496000    112.92773   -5169.9437   -4944.0742   -5169.9437            0    4436.4962    17.896865    22.727445    19.265046    7836.0575    5728.2567    4016.4164    3564.8157   -552.74766     -1003.23    684.37481   -4437.0676 
30497000    115.63436   -5170.3656   -4939.0826   -5170.3656            0    6221.3242    17.846254    22.798978    19.176859    7802.6105    5781.2925    5965.8041    6916.8759    285.42196    177.95919   -217.10362    -4231.139 
30498000    111.71287   -5152.8847   -4929.4452   -5152.8847            0    7361.8139    17.915258    22.664097    19.150623    7775.7879    7464.7206    7201.1601    7419.5611   -1811.4478   -417.08982   -797.37591   -4094.6016 
30499000    106.99164   -5153.9111   -4939.9146   -5153.9111            0    8013.7968    17.763145    22.510894     19.34757    7736.4021     8289.749    8682.6655    7068.9758    1018.5213    103.25393   -184.35654    -4035.738 
30500000    117.13473    -5151.576   -4917.2921    -5151.576            0    8314.5614    17.718161    22.819374    19.129949    7734.5703    8535.5428    7913.4412    8494.7004   -1450.8153    847.12892   -2118.7086   -3979.4031 
Loop time of 463.48 on 64 procs for 250000 steps with 1008 atoms

Performance: 93.208 ns/day, 0.257 hours/ns, 539.398 timesteps/s
194.4% CPU use with 32 MPI tasks x 2 OpenMP threads

MPI task timing breakdown:
Section |  min time  |  avg time  |  max time  |%varavg| %total
---------------------------------------------------------------
Pair    | 35.234     | 40.492     | 45.227     |  39.7 |  8.74
Bond    | 0.91939    | 1.2348     | 1.6735     |  16.8 |  0.27
Kspace  | 225.09     | 232.72     | 240.92     |  30.7 | 50.21
Neigh   | 1.207      | 1.3419     | 1.4307     |   5.8 |  0.29
Comm    | 75.036     | 79.334     | 85.21      |  36.4 | 17.12
Output  | 0.46681    | 0.46713    | 0.46878    |   0.0 |  0.10
Modify  | 89.903     | 91.523     | 94.72      |  11.4 | 19.75
Other   |            | 16.37      |            |       |  3.53

Nlocal:        31.5000 ave          34 max          28 min
Histogram: 2 1 0 4 0 8 9 0 5 3
Nghost:        2960.25 ave        2979 max        2936 min
Histogram: 2 2 2 2 5 3 6 4 4 2
Neighs:        10800.9 ave       11701 max        9585 min
Histogram: 2 1 0 4 6 2 9 1 4 3

Total # of neighbors = 345629
Ave neighs/atom = 342.88591
Ave special neighs/atom = 2.0000000
Neighbor list builds = 2977
Dangerous builds = 0

unfix		3
unfix		2
unfix		1

write_data	data.final.${pid}
write_data	data.final.0
System init for write_data ...
PPPM initialization ...
  extracting TIP4P info from pair style
  using 12-bit tables for long-range coulomb (../kspace.cpp:340)
  G vector (1/distance) = 0.37945819
  grid = 24 27 32
  stencil order = 5
  estimated absolute RMS force accuracy = 0.0024541963
  estimated relative force accuracy = 7.3907392e-06
  using double precision FFTW3
  3d grid and FFT values/proc = 5355 672
Last active /omp style is kspace_style pppm/tip4p/omp
WARNING: Not all mixed pair coeffs generated from mixing. Use write_data with 'pair ij' option to store all pair coeffs. (../write_data.cpp:312)

write_restart   restart.lmp.${pid}
write_restart   restart.lmp.0
System init for write_restart ...
PPPM initialization ...
  extracting TIP4P info from pair style
  using 12-bit tables for long-range coulomb (../kspace.cpp:340)
  G vector (1/distance) = 0.37945819
  grid = 24 27 32
  stencil order = 5
  estimated absolute RMS force accuracy = 0.0024541963
  estimated relative force accuracy = 7.3907392e-06
  using double precision FFTW3
  3d grid and FFT values/proc = 5355 672
Last active /omp style is kspace_style pppm/tip4p/omp
Total wall time: 0:07:43
