LAMMPS (30 Jul 2021)
Processor partition = 1
  using 2 OpenMP thread(s) per MPI task
using multi-threaded neighbor list subroutines
variable        pid world 0 1
variable        phase world IceIII Liquid

shell cd ${phase}
shell cd Liquid
include Restart.lmp
echo both
log log.lammps
#include		in.partitions
include		in.temp
variable        temperature equal 257.62
variable	tempDamp equal 100.0
include		in.pressure
variable        pressure equal 2125.0
variable        pressureDamp equal 1000.0 # This is 1 ps
include		in.seed
variable        seed equal 745823

units		real
atom_style	full
read_restart	restart.lmp.${pid}
read_restart	restart.lmp.1
Reading restart file ...
  restart file = 30 Jul 2021, LAMMPS = 30 Jul 2021
  restoring atom style full from restart
  orthogonal box = (0.25549208 1.3924672 0.31169974) to (17.952080 22.236711 21.901496)
  2 by 4 by 4 MPI processor grid
  restoring pair style lj/cut/tip4p/long/omp from restart
  restoring bond style harmonic/omp from restart
  restoring angle style harmonic/omp from restart
  864 atoms
  576 bonds
  288 angles
Finding 1-2 1-3 1-4 neighbors ...
  special bond factors lj:    0        0        0       
  special bond factors coul:  0        0        0       
     2 = max # of 1-2 neighbors
     1 = max # of 1-3 neighbors
     1 = max # of 1-4 neighbors
     2 = max # of special neighbors
  special bonds CPU = 0.002 seconds
  read_restart CPU = 0.008 seconds
include 	in.setup
variable	out_freq equal 1000
variable	out_freq2 equal 10000
variable	out_freq3 equal 1000

timestep	2.0

neigh_modify    delay 7 every 1

include		in.tip4p
# This is TIP4P/Ice

# create groups ###
group ox type 2
288 atoms in group ox
group hy type 1
576 atoms in group hy

# set charges - beside manually ###
set group ox charge -1.1794
Setting atom values ...
  288 settings made for charge
set group hy charge 0.5897
Setting atom values ...
  576 settings made for charge

# ### TIP3P Potential Parameters ###
pair_style lj/cut/tip4p/long/omp 2 1 1 1 0.1577 8.5
pair_coeff 1 1*2 0.000 0.000
pair_coeff 2 2 0.21084 3.1668
bond_style  harmonic
bond_coeff  1 450 0.9572
angle_style harmonic
angle_coeff 1 55 104.52
kspace_style pppm/tip4p/omp 1.0e-5
pair_modify tail yes

thermo          ${out_freq}
thermo          1000
thermo_style    custom step temp pe etotal epair emol press lx ly lz vol pxx pyy pzz pxy pxz pyz enthalpy

restart 	${out_freq3} restart.lmp.${pid} restart2.lmp.${pid}
restart 	1000 restart.lmp.${pid} restart2.lmp.${pid}
restart 	1000 restart.lmp.1 restart2.lmp.${pid}
restart 	1000 restart.lmp.1 restart2.lmp.1


include         in.dump
dump            myDump all atom ${out_freq2} dump.water.${pid}
dump            myDump all atom 10000 dump.water.${pid}
dump            myDump all atom 10000 dump.water.1
dump            myDump2 all dcd ${out_freq2} dump.dcd
dump            myDump2 all dcd 10000 dump.dcd
dump_modify     myDump append yes
dump_modify     myDump2 append yes


variable natoms 	equal  "count(all)"                        # NUMBER ATOMS
variable H      	equal  "enthalpy/v_natoms"                 # ENTHALPY-per-atom
variable Vol      	equal  "vol/v_natoms"                 # volume-per-atom
fix AVG all 		ave/time ${out_freq} 1 ${out_freq} v_Vol v_H file vol_enthalpy.dat
fix AVG all 		ave/time 1000 1 ${out_freq} v_Vol v_H file vol_enthalpy.dat
fix AVG all 		ave/time 1000 1 1000 v_Vol v_H file vol_enthalpy.dat


timer           timeout 23:50:00 every 1000
New timer settings: style=normal  mode=nosync  timeout=23:50:00

fix 		1 all shake 1e-6 200 0 b 1 a 1
Finding SHAKE clusters ...
       0 = # of size 2 clusters
       0 = # of size 3 clusters
       0 = # of size 4 clusters
     288 = # of frozen angles
  find clusters CPU = 0.001 seconds
fix             2 all nph iso ${pressure} ${pressure} ${pressureDamp}
fix             2 all nph iso 2125 ${pressure} ${pressureDamp}
fix             2 all nph iso 2125 2125 ${pressureDamp}
fix             2 all nph iso 2125 2125 1000
fix             3 all temp/csvr ${temperature} ${temperature} ${tempDamp} ${seed}
fix             3 all temp/csvr 257.62 ${temperature} ${tempDamp} ${seed}
fix             3 all temp/csvr 257.62 257.62 ${tempDamp} ${seed}
fix             3 all temp/csvr 257.62 257.62 100 ${seed}
fix             3 all temp/csvr 257.62 257.62 100 745823

run             250000
PPPM initialization ...
  extracting TIP4P info from pair style
  using 12-bit tables for long-range coulomb (../kspace.cpp:340)
  G vector (1/distance) = 0.37238629
  grid = 24 24 25
  stencil order = 5
  estimated absolute RMS force accuracy = 0.0032863749
  estimated relative force accuracy = 9.8968204e-06
  using double precision FFTW3
  3d grid and FFT values/proc = 3822 576
Last active /omp style is kspace_style pppm/tip4p/omp
Neighbor list info ...
  update every 1 steps, delay 7 steps, check yes
  max neighbors/atom: 2000, page size: 100000
  master list distance cutoff = 10.8154
  ghost atom cutoff = 10.8154
  binsize = 5.4077, bins = 4 4 4
  1 neighbor lists, perpetual/occasional/extra = 1 0 0
  (1) pair lj/cut/tip4p/long/omp, perpetual
      attributes: half, newton on, omp
      pair build: half/bin/newton/omp
      stencil: half/bin/3d
      bin: standard
Setting up Verlet run ...
  Unit style    : real
  Current step  : 500000
  Time step     : 2
  Walltime left : 23:49:59.95
Per MPI rank memory allocation (min/avg/max) = 10.20 | 10.20 | 10.21 Mbytes
Step Temp PotEng TotEng E_pair E_mol Press Lx Ly Lz Volume Pxx Pyy Pzz Pxy Pxz Pyz Enthalpy 
  500000    261.16927   -3857.6513   -3410.0162   -3857.6513            0    1185.1462    17.696588    20.844243    21.589796    7963.8712    271.41968     2121.067     1162.952    399.44451   -792.17281    1921.4479   -3272.3675 
  501000    263.38012   -3877.7489   -3426.3244   -3877.7489            0    2595.1921    17.578399    20.705033    21.445606    7805.3713    2842.6335    2345.2386    2597.7042   -88.547607   -603.02819    703.47029   -3130.9051 
  502000    255.00653   -3874.7327   -3437.6602   -3874.7327            0    1068.5127    17.721018    20.873018      21.6196    7996.8985    1104.2459    1234.8437    866.44844    255.46874    -579.6025    -242.6595   -3313.0433 
  503000    264.38028   -3891.4829   -3438.3441   -3891.4829            0    2105.6818    17.704136    20.853134    21.599005    7974.0661    1917.7695    1928.0479    2471.2281    199.52098    578.12117    846.89886   -3193.4669 
  504000    247.42309   -3895.9652   -3471.8905   -3895.9652            0    1145.8844    17.667299    20.809744    21.554063    7924.3936    384.13007     1156.739    1896.7841   -235.85504    521.65611   -343.78592   -3339.4616 
  505000    261.60207   -3864.6315   -3416.2545   -3864.6315            0    1034.8123    17.766289    20.926341    21.674831    8058.3426    1462.7149    1713.0855    -71.36357   -376.87435   -84.645233    649.53233   -3294.6407 
  506000    273.68791   -3884.1117     -3415.02   -3884.1117            0    3321.6204    17.699078    20.847176    21.592834    7967.2332    3796.4066    4084.0392    2084.4154     374.5616    997.23014   -1226.0993   -3029.0679 
  507000    273.31476   -3892.6614   -3424.2092   -3892.6614            0      2034.01    17.721255    20.873297     21.61989    7997.2193    897.15783    2070.4491    3134.4231   -957.24627    1156.4038    205.04703   -3186.9801 
  508000    261.46193   -3853.9736   -3405.8368   -3853.9736            0    1967.3348    17.817344    20.986478    21.737118    8128.0148    2006.1376    2305.4169      1590.45     885.1927   -124.79052   -76.607076   -3172.6314 
  509000    265.61052   -3838.4193   -3383.1719   -3838.4193            0    2063.8557    17.770543    20.931353    21.680022    8064.1337    2814.7323    2770.5021    606.33276   -248.34806     559.4586   -1262.4468   -3140.4478 
  510000    248.68012   -3833.4679   -3407.2387   -3833.4679            0    2655.5866    17.694768    20.842099    21.587575    7961.4137    3470.2967    2390.8973    2105.5658   -762.27016    479.53633    -248.1274    -3098.901 
  511000    252.52425   -3857.0945   -3424.2766   -3857.0945            0    3354.4464    17.603721    20.734858    21.476498    7839.1507    3449.6436    3417.5599    3196.1357    619.18296   -451.36565   -1230.6493   -3040.7763 
  512000    255.41519   -3801.8895   -3364.1166   -3801.8895            0    1931.7187    17.694318     20.84157    21.587027    7960.8072    309.81989    2794.3123     2691.024    -445.2647    695.09613    125.61672   -3139.8437 
  513000    268.54018   -3850.5514   -3390.2827   -3850.5514            0    1434.6101    17.655424    20.795757    21.539576    7908.4255    2700.3128    1049.3455    554.17194    389.12185   -388.13791    1419.5143   -3224.8202 
  514000    252.28031   -3884.3354   -3451.9356   -3884.3354            0    1006.9754      17.6712     20.81434    21.558823    7929.6448    1585.5694    991.63964    443.71724   -310.32654    184.30346    1248.5625   -3335.4832 
  515000    267.11951   -3878.4618   -3420.6281   -3878.4618            0    555.26292    17.786877    20.950592    21.699949    8086.3904    744.66234    722.40333     198.7231    9.3932501    332.97204   -508.39753    -3355.145 
  516000    260.85904   -3887.4274    -3440.324   -3887.4274            0    1427.9205    17.692789    20.839768    21.585161    7958.7429    1106.7845    2556.5936    620.38351   -477.62672   -411.32361     1237.467   -3274.5851 
  517000    261.00439   -3879.4403   -3432.0877   -3879.4403            0    2304.4297     17.61089    20.743302    21.485245    7848.7319    2793.9241    2825.3794    1293.9855    154.28758    375.35629    1642.7279   -3168.3095 
  518000    252.14092   -3921.0401   -3488.8792   -3921.0401            0    2750.7978    17.716364    20.867537    21.613923    7990.5996    2127.7581    2535.5543    3589.0809   -518.61225   -322.40809   -292.70334   -3168.3158 
  519000    262.81913   -3893.2399   -3442.7769   -3893.2399            0    4234.2427    17.617991    20.751666    21.493907    7858.2295    5232.5491    4023.5023    3446.6767   -500.41841    363.54929    1555.6036   -2957.5148 
  520000    244.05966    -3862.708   -3444.3981    -3862.708            0    3517.3871    17.673274    20.816783    21.561353     7932.437    3410.2592    2288.9364    4852.9657    1494.2347    593.64235   -781.58654    -3037.484 
  521000    242.74033   -3869.6289   -3453.5802   -3869.6289            0    2211.9865    17.812775    20.981096    21.731544     8121.763    2795.3215    2042.9183    1797.7197    415.43193   -134.41291    25.484677   -3191.5758 
  522000    259.11835   -3838.8029   -3394.6829   -3838.8029            0    2543.7943    17.737099     20.89196     21.63922    8018.6891      2546.13    1911.0341     3174.219    1862.3255    398.71494   -268.79186   -3097.2005 
  523000    251.25918   -3885.9541   -3455.3044   -3885.9541            0    2509.0361    17.623227    20.757833    21.500295    7865.2381     4809.137   -905.82443    3623.7958   -576.53416   -31.364147    290.80658   -3167.5018 
  524000    269.81495   -3853.8972   -3391.4436   -3853.8972            0    3368.7844    17.633019    20.769367    21.512242     7878.356    3768.3927    3433.9245     2904.036    519.51009   -333.90203   -1072.4252   -3004.3778 
  525000    247.59124   -3848.0726   -3423.7097   -3848.0726            0    761.99931    17.720072    20.871904    21.618447    7995.6183    2428.7212    211.18628   -353.90953   -590.83768   -342.00127    631.34491   -3334.8546 
  526000    265.73717   -3862.3107   -3406.8463   -3862.3107            0     2468.273    17.759269    20.918073    21.666267    8048.7949    1570.8922    3887.2104    1946.7165    462.37655   -535.52285   -410.31476    -3117.112 
  527000      271.376     -3891.04   -3425.9108     -3891.04            0    416.51356    17.797554    20.963168    21.712975    8100.9613   -661.44434    2047.8374   -136.85237     -1445.33    537.72151    212.32693   -3376.7022 
  528000    254.57749   -3906.5755   -3470.2384   -3906.5755            0    2073.6785    17.610203    20.742492    21.484406    7847.8129    3516.0676     2489.899    215.06887    -1144.841   -1285.2618   -1384.4623   -3232.9011 
  529000     254.3707   -3913.9936   -3478.0109   -3913.9936            0     891.4758    17.677431    20.821679    21.566424    7938.0355    359.90709    2185.8147    128.70565   -390.77724    29.579116   -546.38703   -3374.8064 
  530000    262.50042   -3882.7007    -3432.784   -3882.7007            0    2154.4043    17.689332    20.835696    21.580944    7954.0787    2864.9659    1298.0652    2300.1819    731.51004   -1406.2431    399.37717   -3182.8686 
  531000    263.57363   -3898.2835   -3446.5274   -3898.2835            0    -345.1495    17.819742    20.989302    21.740043    8131.2966    -915.6045    673.08734   -792.93134    348.64778     398.9987    977.14853   -3487.4575 
  532000      256.508   -3890.6077   -3450.9618   -3890.6077            0    2702.7768    17.731616    20.885502     21.63253    8011.2549    1828.0722    1968.5957    4311.6625    1229.8018    414.77557    1202.0467   -3135.1803 
  533000    260.44581   -3907.1922    -3460.797   -3907.1922            0    2219.1646     17.75494    20.912974    21.660985    8042.9096    2432.1871     2931.465    1293.8416    344.84802   -642.23843     931.8128   -3200.4944 
  534000    244.64528   -3925.7554   -3506.4417   -3925.7554            0     2124.342     17.70887    20.858709     21.60478    7980.4634    1026.9645    3358.1131    1987.9485    98.284077   -369.74878    446.09669   -3259.1962 
  535000    243.64155   -3927.9853    -3510.392   -3927.9853            0    2943.7846    17.671203    20.814343    21.558826    7929.6482    3245.2869    2447.9341    3138.1329    53.696483   -879.37978     67.49875   -3169.9557 
  536000    245.26604   -3912.8325   -3492.4549   -3912.8325            0    2296.0138     17.61418    20.747178    21.489259     7853.132    1447.9841     1814.796    3625.2614    -55.98015   -248.34667    410.11239   -3229.4927 
  537000    265.08041   -3924.6873   -3470.3485   -3924.6873            0    3087.0356    17.669732     20.81261    21.557031     7927.668    2666.3225    3963.9669    2630.8175   -593.56158   -874.79833    353.28224    -3113.435 
  538000    270.59273   -3945.1119   -3481.3253   -3945.1119            0    1016.0871    17.661143    20.802493    21.546553    7916.1133    1205.7533    2166.0872   -323.57927   -621.82357   -260.12565    19.602497   -3364.0196 
  539000    273.32745    -3952.946   -3484.4721    -3952.946            0     296.5802    17.756264    20.914534    21.662601    8044.7097   -1238.1823   -361.58354    2489.5065    1021.3519    520.76934    36.642957   -3449.6762 
  540000    257.58734   -3922.5321   -3481.0363   -3922.5321            0    689.92504    17.736424    20.891165    21.638396    8017.7735    1188.1307    290.08113    591.56326   -1622.6682    785.35514   -1199.4611   -3400.3626 
  541000     250.4083   -3910.7223    -3481.531   -3910.7223            0    212.89403    17.805255    20.972239     21.72237    8111.4818   -146.13787    184.59069    600.22926    14.032038   -376.52384     369.2662   -3456.3462 
  542000    247.65085   -3894.4768   -3470.0117   -3894.4768            0      105.002    17.702711    20.851456    21.597267    7972.1408   -400.79642    1621.2503   -905.44788    872.83127    1394.3062   -676.16586   -3457.8036 
  543000     263.1543   -3890.2029   -3439.1654   -3890.2029            0    3327.1625    17.768394    20.928821    21.677399    8061.2074    2161.6448      2057.77    5762.0728    265.60047   -617.02409   -407.78197   -3048.0094 
  544000    256.54926   -3889.8469   -3450.1303   -3889.8469            0    1840.0277    17.725556    20.878363    21.625137    8003.0434    3220.5935    1066.0697    1233.4198    259.09616    267.43537   -155.40407   -3235.3693 
  545000    256.26156   -3935.9443   -3496.7208   -3935.9443            0    1212.5013    17.669787    20.812676    21.557099     7927.743    1699.6277    1131.1503    806.72595    254.48866    911.69647   -41.831126   -3356.5338 
  546000    283.11677   -3933.3297   -3448.0773   -3933.3297            0    1643.7346     17.67854    20.822986    21.567778    7939.5303    2173.9028    264.25494    2493.0461   -799.19199    1270.5882   -467.93459   -3257.7494 
  547000    242.71438   -3891.8772   -3475.8731   -3891.8772            0    3319.6791    17.655202    20.795496    21.539306    7908.1279    3437.8753    4056.9065    2464.2555   -553.60229   -1228.4115    323.46548   -3093.0081 
  548000    263.28519   -3893.5988   -3442.3369   -3893.5988            0    2157.7402    17.597517    20.727551     21.46893    7830.8661    3439.6128    2659.8907    373.71708    560.79656    166.93214    1236.1634   -3195.9119 
  549000    255.69291   -3861.2074   -3422.9585   -3861.2074            0    3298.3645    17.607771    20.739629     21.48144    7844.5632    3586.0436    3235.0378     3074.012    982.40256   -241.65585    909.78658   -3045.6094 
  550000    256.11819   -3857.6444   -3418.6666   -3857.6444            0    2400.5813    17.537106    20.656395    21.395229    7750.4942     1662.852    3399.3768    2139.5152    1015.9781    2214.5987    183.34138   -3147.3216 
  551000    267.04943   -3886.3147   -3428.6011   -3886.3147            0   -200.18683       17.729     20.88242    21.629339    8007.7095    414.11905   -1229.7457    215.06611    642.29525    236.07984      764.654   -3451.9797 
  552000    262.64412   -3915.2519   -3465.0889   -3915.2519            0    1713.6036    17.656165     20.79663     21.54048     7909.422    370.14536    2410.4225    2360.2429    191.78308    923.15043   -749.37605   -3267.4233 
  553000    259.63914   -3934.3062   -3489.2936   -3934.3062            0    1768.9869    17.582103    20.709395    21.450125    7810.3061    2165.1509    971.71344    2170.0965    1158.4046   -119.99192   -465.99004   -3287.7966 
  554000    268.23214   -3888.5105   -3428.7698   -3888.5105            0    2048.8605    17.608341      20.7403    21.482135     7845.325    2168.2253   -402.02379    4380.3799    231.79741    950.56272   -362.25923   -3194.3473 
  555000    266.30803   -3925.6471   -3469.2042   -3925.6471            0    2246.7627    17.636847    20.773876    21.516912     7883.488    2642.3625    1033.9832    3063.9424    323.19536   -341.95376   -1655.4167   -3210.8881 
  556000     273.4185   -3887.6531   -3419.0231   -3887.6531            0    3862.2071    17.503525     20.61684    21.354259    7706.0555    3253.6656    4097.8376     4235.118    501.41596   -327.45495    6.6554992   -2984.9693 
  557000    277.14616   -3930.0073   -3454.9883   -3930.0073            0    3042.4587    17.587067    20.715242    21.456181    7816.9238    2360.9223    2949.2456    3817.2082    1230.6958   -898.38625    228.22143   -3108.1425 
  558000    257.04951    -3887.547   -3446.9729    -3887.547            0    2909.0427    17.598405    20.728597    21.470013    7832.0516    2860.7344     2488.762    3377.6317    -112.3173    233.17487   -1531.6171    -3114.695 
  559000    275.47468   -3891.9823   -3419.8281   -3891.9823            0    2355.7726    17.644483     20.78287    21.526228     7893.732    2476.3481    2508.5755    2082.3941    237.19091   -611.21437    862.44155   -3148.6269 
  560000    255.34028   -3920.4228   -3482.7783   -3920.4228            0    1263.7653    17.718244    20.869751    21.616216    7993.1438   -325.23475    2268.4422    1848.0885    187.92179   -941.80487   -834.44386   -3335.4589 
  561000    251.23951   -3871.4924   -3440.8765   -3871.4924            0     1431.916    17.769764    20.930435    21.679071    8063.0729   -187.51973    2536.5428    1946.7249    821.62101   -123.15385    839.02904   -3272.4951 
  562000    251.45414   -3852.5365   -3421.5527   -3852.5365            0    627.73268    17.754318    20.912241    21.660226    8042.0644    695.88659   -324.67481    1511.9863     416.6268   -274.00794    325.87353   -3347.9289 
  563000    268.29246   -3847.1934   -3387.3493   -3847.1934            0    3433.0771     17.70394    20.852903    21.598766     7973.801    4059.2556    2264.9499    3975.0259   -367.41614    9.7985707   -119.80911   -2988.1178 
  564000    259.19842   -3891.1904   -3446.9332   -3891.1904            0    2072.0798    17.722627    20.874913    21.621563    7999.0765    2466.2249    157.67997    3592.3344   -373.87707   -1143.3982   -55.331227   -3205.2078 
  565000    261.77424    -3927.962   -3479.2899    -3927.962            0     3244.738    17.590631     20.71944    21.460529    7821.6769    3633.2227    3928.0632    2172.9281    1559.7704    465.60475    800.46414   -3109.1589 
  566000    260.62365   -3854.2844   -3407.5844   -3854.2844            0    937.24495    17.838327    21.011193    21.762717    8156.7651    1137.9011      1097.61     576.2237    1534.9512    202.74588    22.514096   -3296.0916 
  567000    247.76993   -3888.5356   -3463.8665   -3888.5356            0    3136.9061    17.629464     20.76518    21.507905    7873.5923    3326.6482    2331.8178    3752.2523    338.79822   -349.50946   -301.51686    -3103.661 
  568000    257.64574   -3927.6335   -3486.0376   -3927.6335            0    2087.5634     17.76201    20.921302    21.669611    8052.5224    537.56797    2668.4087    3056.7135    478.32118   -83.713612    163.08639   -3240.8787 
  569000    243.97811   -3926.4434   -3508.2733   -3926.4434            0    2028.1397    17.718634    20.870211    21.616692    7993.6717    3028.1613      1456.45    1599.8078   -164.78501   -217.58565   -621.11077   -3271.8338 
  570000    255.39153   -3876.3553   -3438.6229   -3876.3553            0    807.46739    17.663737    20.805549    21.549717    7919.6015    948.10886    1108.5258    365.76755    929.80271   -1972.9858    378.18268    -3345.361 
  571000     259.0809   -3899.4443   -3455.3885   -3899.4443            0    1077.8591    17.723815    20.876313    21.623013    8000.6863    1772.9205    418.37189     1042.285   -166.98787    142.44435   -893.05942    -3329.622 
  572000    280.91712   -3864.5681   -3383.0858   -3864.5681            0    2596.5705    17.696525    20.844168    21.589719    7963.7852    1779.9175    1709.2112    4300.5827   -164.39002    439.87285   -1014.0838   -3081.5107 
  573000    250.02465   -3921.4085   -3492.8748   -3921.4085            0    2348.9676    17.645699    20.784302    21.527711    7895.3639    1589.8773    4224.0914    1232.9342   -43.784309    -581.9536   -287.03579   -3222.4011 
  574000     271.4908   -3927.9519    -3462.626   -3927.9519            0    2016.0402    17.656699     20.79726    21.541132    7910.1398       1652.3    2443.4028    1952.4179    22.643834   -399.50057    431.87925    -3230.053 
  575000    265.31757   -3900.5925   -3445.8473   -3900.5925            0    3431.7202    17.616886    20.750365     21.49256     7856.752     3444.236    3550.3411    3300.5833    309.27792    23.342673    719.93793   -3052.6316 
  576000     241.6138   -3864.4825   -3450.3647   -3864.4825            0    3039.3154    17.677052    20.821232    21.565962     7937.525    2140.7555    2238.5714    4738.6194   -45.342839   -1254.0697    1087.5835   -3098.5316 
  577000    249.94979   -3897.9057   -3469.5003   -3897.9057            0    2706.3064    17.635813    20.772659    21.515651    7882.1025    2244.5216    3684.2793    2190.1182   -455.34138    33.762917   -846.00444   -3158.4039 
  578000    270.31692   -3857.4921   -3394.1781   -3857.4921            0    2850.6091    17.574314    20.700221    21.440622    7799.9309    4262.3183    3219.9637    1069.5454   -1649.0985   -1094.6574    -759.4072     -3069.91 
  579000    246.37952   -3873.0821   -3450.7961   -3873.0821            0    2990.8132    17.596892    20.726814    21.468167    7830.0306    2727.0296    3046.3731    3199.0369   -1598.7955   -78.274699    481.06492   -3109.2663 
  580000    283.01196   -3886.6145   -3401.5417   -3886.6145            0    2276.7239     17.54131    20.661347    21.400358    7756.0695    2218.7508    2467.9824    2143.4385   -426.51218    288.93115   -1076.9769   -3144.0116 
  581000    261.61618    -3895.681   -3447.2798    -3895.681            0    3744.4427    17.601236    20.731931    21.473467    7835.8318    2936.2069    3441.5204    4855.6008    607.64656    324.81118    -1170.119    -3019.374 
  582000     259.3871   -3927.7649   -3483.1843   -3927.7649            0    2231.2881    17.597226    20.727207    21.468574    7830.4765    2321.3162    2949.2468    1423.3013    1184.8456     715.1921    850.51599   -3228.3724 
  583000    241.22022   -3890.4813   -3477.0381   -3890.4813            0    1289.1689    17.762573    20.921965    21.670298    8053.2883    3471.0986   -662.59409    1059.0023    1262.9826    93.048211    147.40887   -3325.6266 
  584000    273.47905   -3869.3712   -3400.6375   -3869.3712            0    1456.6694    17.643176    20.781331    21.524634    7891.9791    3302.2826    -143.6717    1211.3972   -201.94481   -338.06463   -964.10071     -3232.98 
  585000    267.63182   -3928.4307   -3469.7189   -3928.4307            0    2707.5315    17.601316    20.732025    21.473564    7835.9381    3228.4125    3496.0996    1398.0822    30.974914    848.96005   -623.27659   -3160.3046 
  586000    249.57473   -3885.5811   -3457.8186   -3885.5811            0    1245.6691    17.693751    20.840902    21.586335    7960.0413      1638.02    1353.5682    745.41915   -236.19814    102.97803   -1178.0634     -3313.21 
  587000    258.87557   -3912.1164   -3468.4126   -3912.1164            0    2689.0064    17.636482    20.773446    21.516467    7882.9991    2586.8238    1467.1759    4013.0194   -1491.4196   -1391.5184    200.29648   -3159.2697 
  588000    266.58144   -3878.7445   -3421.8331   -3878.7445            0    1171.2023     17.74822    20.905059    21.652787     8033.781    1973.7284    1186.4675    353.41099   -343.04451     797.8744     593.3379   -3284.6098 
  589000    249.58505   -3932.3753   -3504.5951   -3932.3753            0    2382.5442    17.713769     20.86448    21.610756    7987.0885    2319.1214     1349.495    3479.0162    965.02313    524.67954    203.55236    -3227.068 
  590000    253.90289   -3898.9127   -3463.7319   -3898.9127            0    1388.8816    17.731595    20.885477    21.632504    8011.2261    1036.3694    645.86654    2484.4088    307.31362     2116.954   -140.80678   -3301.4612 
  591000    248.10147   -3921.9158   -3496.6784   -3921.9158            0    1716.4499     17.66842    20.811065    21.555431    7925.9029    920.48003    1551.2337    2677.6361   -1227.7639   -1268.4839   -150.09494    -3298.272 
  592000    268.77697   -3909.2037   -3448.5292   -3909.2037            0     3093.173    17.672661    20.816061    21.560606    7931.6119    4125.7599    2802.3327    2351.4263   -629.35259   -751.08323    1014.1253   -3090.7282 
  593000    262.74616   -3932.1121   -3481.7742   -3932.1121            0    3120.8628    17.606949     20.73866    21.480436    7843.4633    4662.2595    1956.4898    2743.8392     1022.302   -740.00641   -1243.9819   -3124.7823 
  594000    248.17291   -3884.8314   -3459.4715   -3884.8314            0    1873.4893    17.654898    20.795138    21.538934    7907.7191    1960.8799    688.98954    2970.5983    924.59561   -1670.3789    -531.2732   -3243.4095 
  595000    265.45228   -3946.4382   -3491.4621   -3946.4382            0    1851.8476    17.701574    20.850116    21.595879    7970.6047    2772.7484   -217.96297    3000.7573    323.13988    553.93054    518.02586   -3276.1976 
  596000    261.17915    -3887.226   -3439.5739    -3887.226            0    2557.4034    17.681316    20.826255    21.571165     7943.271    2663.2457    2473.9236    2535.0408    296.65645    -1199.727    100.62296   -3143.3129 
  597000    264.36348   -3912.5617   -3459.4517   -3912.5617            0    2578.0628    17.702993    20.851788     21.59761    7972.5214     2172.003     1417.696    4144.4896    149.70634   -609.02804    1422.4948   -3159.6977 
  598000    250.35637   -3927.5671   -3498.4649   -3927.5671            0    2341.8838    17.664927    20.806951     21.55117    7921.2033    3691.8968    1743.3005     1590.454   -980.92035    836.50329   -442.70584   -3227.9243 
  599000    255.42259   -3900.5689   -3462.7833   -3900.5689            0    3264.2358    17.589087    20.717621    21.458645    7819.6165    3258.2953    2637.4137    3896.9985   -89.133154   -586.72734    108.05259   -3090.5263 
  600000    244.63756   -3897.8391   -3478.5387   -3897.8391            0    2523.0349    17.636744    20.773755    21.516786    7883.3502     3616.646    3723.4677    228.99104    956.06438   -192.91002    137.11119   -3188.4639 
  601000    248.83488   -3929.3119   -3502.8174   -3929.3119            0    2466.2111    17.653442    20.793423    21.537158    7905.7627    1590.7826    1990.4505    3817.4003   -475.11722   -27.787524   -1009.8393   -3218.4696 
  602000     267.6577   -3902.6422    -3443.886   -3902.6422            0    1689.4166    17.601945    20.732766    21.474331    7836.7781    562.39352     1523.321    2982.5353   -388.65187   -662.14187   -495.68921   -3250.8003 
  603000    249.53884   -3848.5084   -3420.8073   -3848.5084            0    1712.3626    17.699657    20.847858     21.59354    7968.0145    1301.5117    1222.7611     2612.815    355.03947    33.676648     261.0322   -3221.8217 
  604000    254.29555   -3871.4717   -3435.6179   -3871.4717            0    3980.4198    17.581291    20.708438    21.449134    7809.2238    4669.4765    4119.4147    3152.3684    133.60398    236.99903    466.11579   -2982.2898 
  605000    265.48693   -3863.2768   -3408.2413   -3863.2768            0    3443.9915     17.60283    20.733808    21.475411      7837.96    3271.4405    4808.9482    2251.5859   -270.11876   -1345.2159    236.00608   -3014.5634 
  606000    252.20038    -3878.696   -3446.4332    -3878.696            0    2304.4143    17.734545    20.888951    21.636103    8015.2249    800.17634    2499.6219    3613.4446     835.4983   -349.38578   -297.62379   -3177.0614 
  607000    247.53261    -3853.931   -3429.6686    -3853.931            0    300.60943    17.827907     20.99892    21.750005    8142.4797    88.115737    795.43977    18.272773    2778.2021   -803.63058   -1020.4332   -3393.9713 
  608000    261.83031   -3874.5915   -3425.8233   -3874.5915            0    1816.9023    17.690776    20.837397    21.582705    7956.0268    218.39815    3448.9178    1783.3908    1072.9538    212.46887   -865.09382   -3215.0073 
  609000    255.72263   -3884.0809    -3445.781   -3884.0809            0    1014.9514    17.692944    20.839951     21.58535    7958.9519    1461.8329     1306.536     276.4852   -1087.2229   -783.40291   -1243.2113   -3327.9724 
  610000     251.3748   -3884.0577   -3453.2099   -3884.0577            0    3251.3188    17.710392    20.860502    21.606636    7982.5211    2539.5642    2883.8496    4330.5426   -366.70893   -315.92005     874.8319   -3074.7015 
  611000    273.13053   -3925.2662   -3457.1299   -3925.2662            0    2311.4617    17.723838    20.876339     21.62304    8000.7163    2503.5761    1385.7433    3045.0657   -1113.6942    1116.4909    89.120741   -3187.4233 
  612000    266.73241   -3929.3977   -3472.2275   -3929.3977            0    2590.9226    17.733253     20.88743    21.634527    8013.4736    3352.1681    3626.5074    794.09224     432.4871    322.84241   -244.84254   -3169.4308 
  613000     244.1079   -3887.9628   -3469.5702   -3887.9628            0    3117.1344    17.660234    20.801422    21.545444    7914.8906     2725.541    1469.5489    5156.3134    9.9280678    501.61245   -14.041968   -3109.7576 
  614000    261.77814   -3855.7826   -3407.1038   -3855.7826            0    1351.7979    17.649958    20.789319    21.532908    7901.0832    1408.8202    1179.2929    1467.2806    240.74271   -91.543303    456.50752   -3251.3372 
  615000    259.83577   -3872.4892   -3427.1396   -3872.4892            0    4223.1098    17.627571     20.76295    21.505595    7871.0559    3336.4617    4148.8349    5184.0328   -765.43225    936.19628   -1064.3062   -2942.3635 
  616000    248.30731   -3887.2997   -3461.7095   -3887.2997            0    1156.5802    17.738948    20.894137    21.641475    8021.1962    4.5766226    2067.0639    1398.1001    2363.4725    598.75578    746.53148   -3326.4116 
  617000    251.45986   -3914.8423   -3483.8487   -3914.8423            0     2426.141    17.545524     20.66631    21.405498    7761.6601    1293.9952    1915.1965    4069.2313    395.53556    820.79278    -434.8692   -3209.2196 
  618000    254.26286   -3902.8129   -3467.0151   -3902.8129            0    1770.5555    17.613648     20.74655    21.488609    7852.4196    3123.7647    1274.9713     912.9305   -548.51663    1045.2761    719.45946    -3264.252 
  619000    260.31124   -3860.0393   -3413.8748   -3860.0393            0    1870.2447    17.585355    20.713226    21.454092     7814.641    1008.9272    2697.5148    1904.2923    425.17792   -26.354949   -465.44765   -3200.7257 
  620000    260.70992   -3898.1491   -3451.3012   -3898.1491            0    1671.9689    17.649532    20.788818    21.532388    7900.5109    509.70459    2672.7705    1833.4317    200.09668   -880.99525    1298.8689   -3258.6555 
  621000    261.94352   -3902.9026   -3453.9404   -3902.9026            0    1194.8834    17.672227    20.815549    21.560075    7931.0268    652.93803     1938.149    993.56307    1671.5585    927.19349    1310.6063   -3315.7331 
  622000    278.85758   -3878.5231   -3400.5707   -3878.5231            0    679.65786    17.750043    20.907206    21.655011    8036.2573    1571.0728    1107.7646   -639.86382    382.76581   -229.51391   -1118.3907   -3320.9145 
  623000     245.3809   -3896.2801   -3475.7057   -3896.2801            0     1967.981    17.665234    20.807312    21.551544     7921.616     1637.945    2923.3872    1342.6108   -271.93452   -389.84797   -683.63692   -3248.3475 
  624000    252.80182   -3836.0335   -3402.7399   -3836.0335            0    2124.7411    17.601632    20.732397    21.473949    7836.3598    1649.7452    2900.4402     1824.038    910.72647    1948.8334    1134.6955   -3159.9133 
  625000    275.16721   -3827.8857   -3356.2585   -3827.8857            0    4629.2159    17.644741    20.783174    21.526543    7894.0788     6344.721    4587.5926     2955.334   -1154.4575    836.14998    539.13206   -2823.3106 
  626000    265.34423   -3851.7931   -3397.0022   -3851.7931            0    1951.4922    17.684488     20.82999    21.575034    7947.5456     2309.616     709.3642    2835.4965   -351.99627   -89.150275   -414.07132   -3170.8109 
  627000    267.14074   -3845.3672   -3387.4971   -3845.3672            0    1980.0266    17.645514    20.784085    21.527486    7895.1161     1421.399    2680.6029     1838.078   -530.12277   -122.08263     186.0589   -3159.5125 
  628000    246.94147   -3845.1842    -3421.935   -3845.1842            0    3690.4686    17.505145    20.618748    21.356236    7708.1955    4802.8178    3116.0424    3152.5457   -324.28149   -1017.2136    306.89496   -3007.0668 
  629000    276.83669   -3875.1359   -3400.6473   -3875.1359            0    1502.9117    17.471874     20.57956    21.315646    7664.3278    1073.8412    3278.1713    156.72255   -1533.5015   -433.00816   -764.20226   -3232.6573 
  630000    248.23707   -3882.5016   -3457.0317   -3882.5016            0    1841.9964    17.589734    20.718384    21.459435    7820.4805    2650.8408      1167.29    1707.8583   -999.35693    939.85243   -1663.6693   -3246.9453 
  631000    247.26931   -3875.2391    -3451.428   -3875.2391            0    1582.0386    17.510444     20.62499    21.362701    7715.1977    1331.6586    1020.1648    2394.2923   -655.36921    248.49208    531.69297   -3273.4197 
  632000    263.49703    -3847.993   -3396.3681    -3847.993            0     2263.988    17.581848    20.709094    21.449813    7809.9657    1997.2909    3033.6877    1760.9853   -308.23862   -1206.5014   -2029.6367   -3138.4991 
  633000    250.00614   -3889.9066   -3461.4046   -3889.9066            0    1914.4877    17.555732    20.678333    21.417952    7775.2147    1681.9284    1609.1803    2452.3544   -1269.3032   -816.68168   -435.84652   -3244.3141 
  634000    258.59599   -3915.5745   -3472.3499   -3915.5745            0    1206.7112    17.482648     20.59225     21.32879    7678.5152    998.52103    195.31156     2426.301   -220.61147   -1895.9778   -671.69966   -3337.2184 
  635000    248.88045   -3897.1001   -3470.5275   -3897.1001            0    690.27786    17.599548    20.729942    21.471407    7833.5767    1668.5805   -326.53337    728.78643   -78.220354   -727.83934    850.98677    -3391.667 
  636000    248.28257   -3865.0534   -3439.5056   -3865.0534            0    2638.2404    17.606903    20.738607    21.480381    7843.4032    3481.4018    2713.4136    1719.9059     140.8652  -0.58312453    722.30439   -3137.7226 
  637000    248.11496   -3897.8354   -3472.5749   -3897.8354            0    11.588835    17.640585    20.778278    21.521472    7888.5014    1344.1218    352.40673    -1661.762   -1407.5838    418.51447   -802.45637   -3471.2416 
  638000     253.2278   -3849.6078    -3415.584   -3849.6078            0    2955.1083     17.55154    20.673396    21.412838    7769.6465     2228.397    4316.3186    2320.6093    106.17999    112.34979   -2791.2486   -3080.7338 
  639000    235.58713   -3893.9144   -3490.1261   -3893.9144            0    1074.4794    17.571312    20.696684    21.436959    7795.9339    1023.5737    1356.9666    842.89793    2040.7755   -925.46563    2105.1333   -3367.9625 
  640000    247.79589   -3856.6788   -3431.9651   -3856.6788            0     727.7607    17.710176    20.860249    21.606374    7982.2303    1234.5777    1204.4327   -255.72826    -621.9558    160.48969   -668.65343   -3347.2446 
  641000    250.81854   -3886.1675   -3456.2731   -3886.1675            0    1011.8923    17.690286    20.836821    21.582108    7955.3661    1084.5655    137.05535    1814.0559    5.8217676    -411.3591    340.16646   -3338.8725 
  642000    256.51484   -3896.0658   -3456.4082   -3896.0658            0    3657.4965     17.55874    20.681877    21.421622    7779.2128    5733.4985    1974.5272    3264.4637     929.5175   -867.88764   -1466.5907   -3041.4585 
  643000    253.74898   -3894.9992   -3460.0821   -3894.9992            0    1571.0728    17.649171    20.788392    21.531947    7900.0255    780.70744    1403.3115    2529.1996    9.4767858    903.03132    135.61581   -3279.0729 
  644000    253.88889    -3858.848   -3423.6911    -3858.848            0    1860.4892    17.588745    20.717218    21.458227    7819.1603    1223.1858    2012.7106    2345.5713    417.53755   -997.13092   -94.978057   -3211.5313 
  645000    271.78532   -3871.6501   -3405.8194   -3871.6501            0    1484.1472    17.694177    20.841404    21.586855    7960.6166    1657.4466   -316.34745    3111.3424   -124.33505    122.54761   -1068.9333   -3233.5137 
  646000    251.30378   -3881.1876   -3450.4615   -3881.1876            0    2227.1787    17.572034    20.697535    21.437841    7796.8952    1940.4144    1646.0725    3095.0493   -1708.3459    986.59582  -0.64141268   -3197.2097 
  647000    242.31554   -3888.1539   -3472.8333   -3888.1539            0    2911.4407    17.615178    20.748353    21.490477    7854.4672    532.51215    4573.5101    3628.2999   -809.64663   -312.06562   -1874.1461   -3139.3297 
  648000    249.78748   -3908.0589   -3479.9317   -3908.0589            0    1918.1646     17.78113    20.943822    21.692936    8078.5539     2023.502    3066.6486    664.34329   -1180.7234    1277.7218    1407.8211   -3253.9385 
  649000     275.2023   -3894.1999   -3422.5126   -3894.1999            0    2009.2783    17.708681    20.858487    21.604549    7980.2082    3261.5929    2908.3941   -142.15224    622.57013     237.2766   -412.44592   -3188.6665 
  650000      251.122   -3875.1744   -3444.7599   -3875.1744            0    2315.3848    17.688228    20.834397    21.579597    7952.5901    2321.4555    2433.4303    2191.2686    6.7644914   -524.73388   -1638.5706   -3176.2207 
  651000    251.46044   -3876.5619   -3445.5673   -3876.5619            0     1316.842    17.842142    21.015687    21.767372         8162    1110.3408    1639.7061    1200.4791    1710.9392    482.83495     464.6236   -3288.8178 
  652000    238.01533   -3887.7771   -3479.8269   -3887.7771            0    2107.9135    17.648225    20.787277    21.530793    7898.7551    4422.7816    1469.9538    431.00499   -1290.0298    416.78997    11.578297   -3237.0053 
  653000    265.47211   -3897.4613   -3442.4512   -3897.4613            0    2490.9099    17.712884    20.863437    21.609677    7985.8915    3318.4252    3070.2137    1084.0908     938.6551    22.322489    -111.9806   -3152.3448 
  654000    245.08381   -3897.6488   -3477.5835   -3897.6488            0    1590.4318    17.739862    20.895214     21.64259    8022.4366    1748.7285    1972.0373    1050.5295    398.76787    463.38866   -236.44133   -3291.5046 
  655000    247.88664   -3873.6109   -3448.7417   -3873.6109            0    263.34707    17.834132    21.006252      21.7576    8151.0119    959.32152   -39.639672   -129.64063    909.48664     60.43826    318.57091   -3417.4366 
  656000    243.93439   -3906.2816   -3488.1864   -3906.2816            0    783.54585    17.747925    20.904711    21.652426    8033.3799    17.275436    838.30138    1495.0607    749.52113    257.02375    478.10347   -3396.3873 
  657000    252.35519   -3853.6407   -3421.1125   -3853.6407            0     3502.549    17.549483    20.670973    21.410328    7766.9154    3781.4747    3317.6005    3408.5719    99.370771    444.42246   -997.74168     -3024.37 
  658000    257.76924   -3884.8132   -3443.0056   -3884.8132            0    2047.9469    17.663938    20.805786    21.549963    7919.8726    1149.0911    2096.3157    2898.4338   -209.56021   -847.34285   -428.23332   -3206.4611 
  659000    251.05811    -3887.757    -3457.452    -3887.757            0     2897.887    17.613364    20.746216    21.488262    7852.0398     3462.528    1547.2473    3683.8859   -113.34506   -395.06476   -920.28294   -3125.6035 
  660000    272.80655    -3880.575   -3412.9939    -3880.575            0    1612.7658    17.608277    20.740225    21.482057    7845.2392    1533.7096    676.63132    2627.9565    781.38837    245.89351   -66.625083   -3228.4696 
  661000    243.43385   -3894.0615   -3476.8242   -3894.0615            0    2554.2443    17.592525     20.72167    21.462839    7824.2029    2603.0483    1192.3033    3867.3813   -778.16333   -122.18622    396.10236   -3185.3645 
  662000    253.26567   -3885.4845   -3451.3959   -3885.4845            0     1216.765    17.612635    20.745358    21.487374    7851.0655    473.89187    2881.7015    294.70148   -1654.6437   -548.49156    464.01269   -3312.0766 
  663000    255.92811   -3868.0692   -3429.4172   -3868.0692            0    2697.1095    17.692749    20.839722    21.585113    7958.6894    4006.7667    2001.4574    2083.1044     369.2434    -566.9295    623.30602   -3116.3655 
  664000    257.56276    -3902.152   -3460.6982    -3902.152            0    3634.3644    17.717682    20.869089     21.61553     7992.383    3236.4026    3947.5183    3719.1723   -646.72393   -798.04057    340.48805   -3037.0741 
  665000    271.36071   -3890.6805   -3425.5775   -3890.6805            0    1687.4725     17.63027    20.766129    21.508888    7874.6717    989.97603    2263.3916    1809.0498    -160.9191   -380.58992   -92.120455   -3231.7814 
  666000    262.75935   -3864.6557   -3414.2952   -3864.6557            0    2866.4945    17.620594    20.754732    21.497084    7861.7138    3419.6571     3502.001    1677.8254   -593.27203    802.64575    241.07835   -3085.6372 
  667000    260.68663   -3935.4557   -3488.6477   -3935.4557            0    2744.3779    17.631764    20.767889    21.510711    7876.6743    2527.0317    2985.3705    2720.7317    74.308652   -498.76843    288.64231   -3173.3922 
  668000    266.48586   -3866.9866   -3410.2389   -3866.9866            0    1515.6735    17.745591    20.901962    21.649579    8030.2112     1838.281    2073.4238    635.31563    842.99802    25.606172    374.48745   -3232.7348 
  669000    255.53731   -3858.7241   -3420.7418   -3858.7241            0    1475.2343    17.669615    20.812473    21.556889    7927.5114     1925.975    2051.3079    448.42006     -170.166     804.2568   -11.931367   -3250.1832 
  670000    257.17794   -3888.8711   -3448.0769   -3888.8711            0    2084.1111    17.665352    20.807451    21.551688    7921.7739     208.5519    3585.0532    2458.7283    735.10455    863.07126    286.31554   -3207.2976 
  671000     253.4395   -3907.3683   -3472.9817   -3907.3683            0     1337.689    17.748944    20.905912     21.65367    8034.7646    919.73236    485.38648    2607.9483    1202.0182   -164.52018   -267.41393   -3316.2329 
  672000    253.58766   -3907.7478   -3473.1073   -3907.7478            0    2142.4808    17.713113    20.863707    21.609956    7986.2011     2201.959     758.3009    3467.1827    932.30398   -787.18822    908.55078   -3223.5713 
  673000    254.48534   -3916.0895   -3479.9104   -3916.0895            0    1719.5593    17.748079    20.904893    21.652615    8033.5902     9.538627    2971.9582    2177.1811    522.38329    -943.3927   -674.17617   -3278.4439 
  674000    237.63543   -3874.4551   -3467.1561   -3874.4551            0    900.64269     17.74735    20.904034    21.651725    8032.5992     1495.074    -522.3165    1729.1706   -564.90261    710.67243   -427.59476   -3361.6483 
  675000    262.46534   -3903.9488   -3454.0922   -3903.9488            0    4193.6623    17.603974    20.735156    21.476807    7839.4889     2883.317    3957.8023    5739.8675   -207.32942   -85.876133    -1561.293    -2974.627 
  676000    261.13228   -3930.4989   -3482.9271   -3930.4989            0    2626.7639    17.628603    20.764165    21.506854    7872.4382    2490.7774    1818.2825    3571.2318   -132.08494   -261.22903    879.58583   -3181.3446 
  677000    268.57833   -3897.1479   -3436.8138   -3897.1479            0    1579.2262    17.610832    20.743234    21.485174     7848.655    2246.0161    970.75562     1520.907    1260.9701   -565.17588   -461.90349   -3256.0484 
  678000    274.77109   -3896.9528   -3426.0045   -3896.9528            0    2832.2213      17.6131    20.745905    21.487941     7851.687     2751.115    2853.9137    2891.6352    1076.3301   -789.54632   -681.43258   -3101.6903 
  679000    248.94143   -3866.7623   -3440.0852   -3866.7623            0     802.0994    17.635753    20.772588    21.515578    7882.0217    105.53345    1036.1834    1264.5814    324.40235    71.217698    564.12557   -3347.8829 
  680000    258.05652   -3886.0734   -3443.7734   -3886.0734            0    1214.2538     17.59747    20.727495    21.468872    7830.8027    672.45226    1127.8874    1842.4217    726.69214   -389.71075    994.51309   -3305.1005 
  681000    266.53049   -3895.4684   -3438.6443   -3895.4684            0    3152.5564    17.581284     20.70843    21.449125    7809.2143    3859.0936    4257.2135    1341.3621    -887.8486    147.80484   -144.74676   -3079.6016 
  682000    264.01473   -3852.0909   -3399.5787   -3852.0909            0    1993.0673    17.698469    20.846459    21.592091    7966.4111    1473.2235    2616.8357    1889.1428   -1158.6197   -436.88503   -535.78815   -3168.0203 
  683000    247.68133   -3861.2952   -3436.7779   -3861.2952            0    1690.0324    17.574312    20.700218     21.44062    7799.9278    1449.3695    1596.6172    2024.1106   -51.986806    889.17801    647.97744     -3244.53 
  684000    244.42195   -3872.8713   -3453.9404   -3872.8713            0    3365.6302    17.584126    20.711777    21.452592    7813.0018     3226.637    2451.6106     4418.643    723.05848   -1154.9809   -652.39071    -3070.445 
  685000    262.34386   -3851.6198   -3401.9714   -3851.6198            0    1604.2815    17.661196    20.802556    21.546618    7916.1852    570.97493    1988.7883    2253.0811   -1988.0294    640.10322    824.75549    -3216.758 
  686000    251.77898   -3823.8397   -3392.2992   -3823.8397            0    2591.5999    17.683691    20.829052    21.574062    7946.4717    1996.0905    2422.6084    3356.1009    829.26241    1850.0006     208.6249   -3091.9557 
  687000     254.0303   -3847.9383    -3412.539   -3847.9383            0    1264.3482    17.650474    20.789927    21.533538    7901.7765     800.6276    1513.1977    1479.2193    22.370833   -130.36743    704.29318   -3266.8364 
  688000    270.33164   -3860.3863   -3397.0471   -3860.3863            0    3110.3857    17.685646    20.831354    21.576446     7949.107    2669.6316    2209.0184    4452.5072    123.40657    238.99092   -731.24722   -3036.4614 
  689000    251.85872   -3896.0351   -3464.3579   -3896.0351            0    1116.0348    17.706113    20.855462    21.601416    7976.7372    776.46121    947.66855    1623.9745   -1004.7714    1212.2285    1188.8039   -3334.5267 
  690000    275.11727   -3852.4373   -3380.8957   -3852.4373            0    1543.2768    17.771514    20.932496    21.681206    8065.4552    694.91838    1753.2642    2181.6477   -1111.0235    157.17166    497.48062   -3199.3656 
  691000    263.36045   -3881.3908        -3430   -3881.3908            0    2432.1085    17.624707    20.759577    21.502102    7867.2208    2216.6719    2907.0711    2172.5824   -10.267381   -353.14647   -650.48647   -3150.9512 
  692000    251.20993   -3852.7663   -3422.2011   -3852.7663            0    788.13204    17.764808    20.924598    21.673025    8056.3285     272.0696    729.57736    1362.7492    -152.6301    315.81368   -381.55775   -3329.6008 
  693000    254.63253   -3865.7644   -3429.3329   -3865.7644            0     2689.316    17.737085    20.891943    21.639202    8018.6691    4364.0499    1331.5937    2372.3045   -1201.7572   -507.07536   -1370.0415   -3114.8334 
  694000    261.37297   -3871.7975   -3423.8132   -3871.7975            0    1215.7589    17.735289    20.889828    21.637011     8016.234    746.77523    1502.4282    1398.0731   -1764.3147    774.53236   -1740.0452   -3281.6806 
  695000    268.97191   -3907.1711   -3446.1625   -3907.1711            0    3004.7928    17.617073    20.750585    21.492788    7857.0017    3161.5186    3061.5627     2791.297    284.23131    1333.1661   -925.15499   -3101.8544 
  696000    256.61568   -3898.6074   -3458.7769   -3898.6074            0    2288.6939     17.67553     20.81944    21.564106    7935.4756    2341.5336    3154.5095    1370.0386    22.574113   -6.8181317    1092.1702   -3193.9046 
  697000    254.48117   -3879.2484   -3443.0764   -3879.2484            0    2103.3616    17.699313    20.847453    21.593121     7967.551    1755.3559    154.92764    4399.8012   -812.53538    564.31124    442.19959   -3198.6688 
  698000    244.34491   -3866.2152   -3447.4164   -3866.2152            0     1496.308     17.64244    20.780464    21.523735    7890.9905    2030.1386    977.29481    1481.4907   -1211.2044   -641.08859    970.42649   -3275.2182 
  699000    279.26909   -3908.1383   -3429.4806   -3908.1383            0    1726.9267    17.561524    20.685155    21.425018     7782.913     1798.021    1930.6616    1452.0974    414.81143   -1295.4362     1272.004   -3233.4644 
  700000     270.4289   -3917.3041   -3453.7982   -3917.3041            0   -897.12737    17.709332    20.859253    21.605343     7981.088   -594.16502   -814.40023   -1282.8169     237.9927   -286.70606    442.99399   -3558.2202 
  701000    250.17542   -3873.7074   -3444.9153   -3873.7074            0    1928.8157    17.629914     20.76571    21.508454    7874.1954   -2.2945337    2354.9239    3433.8177   -523.15217   -341.51417   -523.48461   -3223.4158 
  702000    259.21864   -3890.7035   -3446.4116   -3890.7035            0    1835.1207    17.680893    20.825756    21.570648    7942.7002    2408.9513    1267.9776    1828.4331    411.96937     878.9192   -1287.0368   -3233.8384 
  703000    250.66521   -3906.0606    -3476.429   -3906.0606            0    1515.7179     17.72513    20.877862    21.624617    8002.4668   -775.12836    2741.3534    2580.9287    176.37893   -677.41735   -163.37789   -3299.5329 
  704000     246.5342   -3878.5772    -3456.026   -3878.5772            0    1487.2758    17.658208    20.799036    21.542972    7912.1672    10.103081    2325.9838    2125.7404   -145.11152    106.18984   -422.15015    -3284.408 
  705000    244.58231   -3898.3299   -3479.1242   -3898.3299            0    701.52942     17.69297    20.839982    21.585382    7958.9874     70.27276    1663.9624    370.35306    1101.9684    38.668989   -2688.6286   -3397.6951 
  706000    252.24407   -3897.6293   -3465.2916   -3897.6293            0    2582.5064    17.681209    20.826129    21.571034    7943.1262    4572.1928    1119.4521    2055.8742   -607.53276    372.78084   -37.706759    -3166.128 
  707000    247.74867   -3872.1752   -3447.5424   -3872.1752            0    1156.6799    17.742198    20.897965     21.64544     8025.606   -544.49415    2617.5226    1397.0112   -502.02114   -517.55612   -113.19745   -3312.1586 
  708000    266.50168   -3867.6078   -3410.8331   -3867.6078            0    2335.5823    17.689673    20.836098    21.581359    7954.5382    2594.5753    2908.7695    1503.4022    763.90829    472.26948    47.222068    -3139.885 
  709000    253.00662   -3895.6949   -3462.0502   -3895.6949            0    1410.9487      17.7505    20.907744    21.655568    8036.8772    1003.4449    1296.5992     1932.802    113.10485    141.54072   -466.88998   -3296.6735 
  710000    264.87587   -3867.6335   -3413.6453   -3867.6335            0    399.25218    17.830107     21.00151    21.752688    8145.4937     1527.622   -1418.0169    1088.1514    63.531506    2080.6778   -187.09906   -3366.2167 
  711000    257.34453   -3889.0828   -3448.0031   -3889.0828            0    2165.3718    17.783898    20.947083    21.696314    8082.3279    1474.6275    2598.4736    2423.0142    -1335.379   -654.55995   -1515.7489   -3192.7654 
  712000    260.83811   -3868.6872   -3421.6196   -3868.6872            0    3127.2537    17.676717    20.820838    21.565554    7937.0744    2267.6853    2996.4634    4117.6122    471.43999    1527.1287    -270.5236   -3059.6272 
  713000    263.57897   -3873.3903    -3421.625   -3873.3903            0    2615.3618    17.722303    20.874532    21.621168    7998.6385    4681.8499    1973.7667    1190.4688   -461.27431   -1172.1038   -623.28313   -3116.5379 
  714000    259.02831   -3901.7753   -3457.8097   -3901.7753            0    3348.7872    17.737647    20.892606    21.639888    8019.4326    3870.8412    2537.8795     3637.641   -205.54789     140.6357   -110.95638   -3066.1516 
  715000    241.86982   -3929.1933   -3514.6367   -3929.1933            0     1833.977     17.73806    20.893091    21.640391    8019.9918     2366.645    2391.1207    744.16513    -1006.907   -2106.5703   -153.20901   -3300.1286 
  716000     262.1589   -3895.8904    -3446.559   -3895.8904            0     2547.908    17.735378    20.889932    21.637119    8016.3544    2149.3148    1842.9467    3651.4624    1741.7191   -39.556965    2349.0858   -3148.6823 
  717000    246.85572   -3887.9214   -3464.8192   -3887.9214            0    3537.0377    17.747248    20.903913    21.651601    8032.4607    4359.0671    2961.7596    3290.2865   -552.69001    505.85538   -40.043297   -3050.4722 
  718000     254.8823   -3869.7604   -3432.9008   -3869.7604            0    1542.0934    17.810673     20.97862    21.728979    8118.8885    1459.9713    1867.5591    1298.7497    498.00671   -1178.6756     324.8981   -3250.3082 
  719000    267.39323   -3887.7312   -3429.4284   -3887.7312            0    3888.1484    17.738788    20.893949     21.64128    8020.9794      3250.35    2812.6723     5601.423   -437.49065   -880.05608   -474.77934   -2974.6015 
  720000    253.26981   -3916.6457     -3482.55   -3916.6457            0    3263.4364      17.6644     20.80633    21.550527     7920.494    3687.3265    3921.9131    2181.0696    1692.1937    -347.6701   -1.2901931    -3105.583 
  721000     256.8618   -3893.9961   -3453.7438   -3893.9961            0    1637.7478    17.722372    20.874613    21.621252    7998.7317    2300.4899    1205.3053    1407.4482    271.66781    664.72374   -682.80825   -3262.6951 
  722000    257.43742   -3926.1136   -3484.8746   -3926.1136            0     -415.603    17.733903    20.888195     21.63532    8014.3546   -586.19766    681.37691   -1341.9883    1510.9558    227.68436   -1140.0054   -3533.4508 
  723000    240.79124   -3882.0407   -3469.3327   -3882.0407            0    2996.9022    17.719065    20.870718    21.617217    7994.2543    2030.2867    5011.1064    1949.3136    717.31956   -192.24761    77.891416   -3119.9299 
  724000    263.48457   -3907.8148   -3456.2113   -3907.8148            0    1497.2454    17.674418    20.818129    21.562748    7933.9767    820.07819    1832.3769    1839.2811    184.13581    803.05737    344.16497   -3282.9666 
  725000    253.39465   -3892.4838    -3458.174   -3892.4838            0    653.14452    17.730074    20.883685    21.630649    8009.1648     914.1188   -58.046127    1103.3609   -1051.7013   -202.78336     94.62193   -3381.8832 
  726000    261.57918   -3876.4664   -3428.1286   -3876.4664            0    1688.1861    17.733046    20.887186    21.634275     8013.193     1811.354    3088.8861     164.3182   -862.93441    1923.7877    854.20712   -3230.8401 
  727000     266.3507   -3833.0984   -3376.5825   -3833.0984            0    2498.1872    17.885935    21.067268    21.820798    8222.2466    2216.4716    2841.7252    2436.3647    604.52855   -865.39895   -514.05298   -3077.0173 
  728000    271.69579   -3888.5051   -3422.8278   -3888.5051            0    3435.3924    17.708607      20.8584     21.60446     7980.109    3429.6495    4308.0211    2568.5066    405.73676   -872.84214     273.9612    -3023.011 
  729000     266.8626   -3905.1493    -3447.756   -3905.1493            0    1212.0172    17.873046    21.052088    21.805075     8204.485     1105.908    1951.5069    578.63662   -882.70011    107.17544    1335.2338   -3302.7333 
  730000     254.6367   -3861.4458   -3425.0072   -3861.4458            0    1703.7628    17.814156    20.982723    21.733229    8123.6524    3228.2664    91.930853    1791.0911   -917.48728    267.21211   -345.37274   -3223.1537 
  731000    259.34764   -3867.2904   -3422.7774   -3867.2904            0    2986.8904    17.729084    20.882519    21.629441    8007.8235    3597.7602    3275.6066    2087.3045   -336.61333    663.42607    -1128.151   -3073.9508 
  732000    258.08728   -3879.8442   -3437.4914   -3879.8442            0    2111.5957     17.70264    20.851371    21.597179    7972.0436    2476.8478    1024.2024    2833.7369    408.78807   -486.24575    63.417594   -3191.9887 
  733000    257.45146   -3907.8117   -3466.5487   -3907.8117            0    1851.4163    17.728924     20.88233    21.629246    8007.6061    1947.0196     1009.614    2597.6152    -932.2689   -511.62596   -36.868687   -3250.3352 
  734000    267.04217    -3881.823   -3424.1218    -3881.823            0     2294.432    17.641275    20.779092    21.522314    7889.4278     1336.541    2070.3458     3476.409   -783.60409     1550.158   -1747.3994   -3160.1263 
  735000    243.95993   -3903.3352   -3485.1963   -3903.3352            0    399.49304    17.664102    20.805979    21.550163    7920.0928    1161.2222     630.7387   -593.48175   -707.17245   -1065.8109   -331.78135   -3439.0523 
  736000    258.65397   -3889.0893   -3445.7653   -3889.0893            0     2993.901    17.638545    20.775876    21.518984    7885.7657    2668.0851    3226.7463    3086.8717    -1355.902   -401.53181   -225.99989   -3101.4493 
  737000    260.40857   -3883.6846   -3437.3532   -3883.6846            0    1153.5529    17.757141    20.915566     21.66367    8045.9016    208.84584    901.61204    2350.2007     -692.303    348.39006    794.08205   -3301.9939 
  738000    266.16403   -3877.6797   -3421.4837   -3877.6797            0     557.7378    17.704992    20.854141    21.600048    7975.2217    2355.2072    331.44458   -1013.4383    73.518192    335.46874   -504.77416   -3356.6129 
  739000    260.29845   -3884.4573   -3438.3146   -3884.4573            0    1437.5243    17.743608    20.899627     21.64716      8027.52    1467.3891    415.95704    2429.2268   -954.54906   -608.70804   -1057.9865   -3270.0192 
  740000    262.55998   -3888.0714   -3438.0526   -3888.0714            0    2260.7042    17.662133     20.80366    21.547761    7917.4452    2703.2723    1522.3949    2556.4454   -358.43956    -748.1747    551.03199    -3177.014 
  741000    243.98811   -3867.7579   -3449.5706   -3867.7579            0    3336.3568    17.604442    20.735707    21.477378    7840.1141    5390.4667    4141.2906     477.3129   -248.25136    972.63616    424.34678   -3068.0915 
  742000     263.9595    -3872.106   -3419.6885    -3872.106            0    2345.5945     17.67271    20.816118    21.560665    7931.6777    1913.8552    2476.1453    2646.7829   -1082.1475    168.78284    149.00955   -3148.3609 
  743000    263.21922    -3831.924   -3380.7752    -3831.924            0    4737.4888    17.622551    20.757037    21.499471    7864.3328    6210.1614    4224.7081     3777.597    85.532637    404.94653   -129.64068   -2837.4173 
  744000    254.14903   -3838.4217   -3402.8189   -3838.4217            0    862.56984    17.799088    20.964975    21.714846     8103.056    151.05741    3.8770087    2432.7751   -351.24299    746.41296    14.875755   -3300.8849 
  745000    254.62408    -3847.272    -3410.855    -3847.272            0    1416.2821    17.725498    20.878295    21.625066    8002.9646    2231.8742    833.16729    1183.8049    210.58697    439.89787    -169.0692   -3245.5536 
  746000    255.42017   -3855.3731   -3417.5917   -3855.3731            0    3079.2293    17.617442    20.751019    21.493238    7857.4954    3247.7291    1460.1544    4529.8045   -230.53918    1221.4463    1158.1922    -3064.732 
  747000    262.90601   -3909.6684   -3459.0565   -3909.6684            0    3517.3326    17.598669    20.728907    21.470335    7832.4035    3417.7685    3663.4738    3470.7555    261.48113   -1085.1101   -158.09049   -3057.2801 
  748000     267.9995   -3862.0243   -3402.6824   -3862.0243            0    1189.7043    17.737593    20.892542    21.639822    8019.3592    2012.6814    621.78294    934.64857    555.24743   -536.93691   -469.56237   -3263.5415 
  749000    249.86602     -3911.58   -3483.3182     -3911.58            0     1766.875    17.730158    20.883785    21.630752    8009.2791    2593.5947    2234.4439    472.58647    526.27501   -237.45946   -194.36909   -3276.9346 
  750000    265.77511   -3860.1857   -3404.6562   -3860.1857            0    2275.4094    17.616399    20.749791    21.491965    7856.0995    2422.5761    2501.1495    1902.5025   -864.93684    1203.4446   -762.51572   -3143.9554 
Loop time of 383.576 on 64 procs for 250000 steps with 864 atoms

Performance: 112.624 ns/day, 0.213 hours/ns, 651.761 timesteps/s
192.2% CPU use with 32 MPI tasks x 2 OpenMP threads

MPI task timing breakdown:
Section |  min time  |  avg time  |  max time  |%varavg| %total
---------------------------------------------------------------
Pair    | 25.358     | 29.993     | 36.261     |  53.2 |  7.82
Bond    | 0.8849     | 1.1839     | 1.8935     |  20.5 |  0.31
Kspace  | 170.86     | 181.44     | 187.92     |  29.6 | 47.30
Neigh   | 3.3976     | 3.9651     | 4.4578     |  16.7 |  1.03
Comm    | 69.572     | 76.518     | 83.596     |  42.4 | 19.95
Output  | 7.7174     | 7.7177     | 7.7203     |   0.0 |  2.01
Modify  | 68.085     | 71.231     | 74.94      |  21.7 | 18.57
Other   |            | 11.53      |            |       |  3.01

Nlocal:        27.0000 ave          33 max          22 min
Histogram: 2 5 3 5 5 2 4 2 1 3
Nghost:        2389.78 ave        2426 max        2341 min
Histogram: 1 0 5 2 5 3 6 5 2 3
Neighs:        7857.62 ave        9834 max        5925 min
Histogram: 2 2 3 4 6 5 3 2 3 2

Total # of neighbors = 251444
Ave neighs/atom = 291.02315
Ave special neighs/atom = 2.0000000
Neighbor list builds = 13553
Dangerous builds = 0

unfix		3
unfix		2
unfix		1

write_data	data.final.${pid}
write_data	data.final.1
System init for write_data ...
PPPM initialization ...
  extracting TIP4P info from pair style
  using 12-bit tables for long-range coulomb (../kspace.cpp:340)
  G vector (1/distance) = 0.372763
  grid = 24 24 25
  stencil order = 5
  estimated absolute RMS force accuracy = 0.0032422228
  estimated relative force accuracy = 9.7638576e-06
  using double precision FFTW3
  3d grid and FFT values/proc = 3822 576
Last active /omp style is kspace_style pppm/tip4p/omp
WARNING: Not all mixed pair coeffs generated from mixing. Use write_data with 'pair ij' option to store all pair coeffs. (../write_data.cpp:312)

write_restart   restart.lmp.${pid}
write_restart   restart.lmp.1
System init for write_restart ...
PPPM initialization ...
  extracting TIP4P info from pair style
  using 12-bit tables for long-range coulomb (../kspace.cpp:340)
  G vector (1/distance) = 0.372763
  grid = 24 24 25
  stencil order = 5
  estimated absolute RMS force accuracy = 0.0032422228
  estimated relative force accuracy = 9.7638576e-06
  using double precision FFTW3
  3d grid and FFT values/proc = 3822 576
Last active /omp style is kspace_style pppm/tip4p/omp
Total wall time: 0:06:23
