LAMMPS (30 Jul 2021)
Processor partition = 1
  using 2 OpenMP thread(s) per MPI task
using multi-threaded neighbor list subroutines
variable        pid world 0 1
variable        phase world IceIII Liquid

shell cd ${phase}
shell cd Liquid
include Restart.lmp
echo both
log log.lammps
#include		in.partitions
include		in.temp
variable        temperature equal 263.08
variable	tempDamp equal 100.0
include		in.pressure
variable        pressure equal 4000.0
variable        pressureDamp equal 1000.0 # This is 1 ps
include		in.seed
variable        seed equal 745823

units		real
atom_style	full
read_restart	restart.lmp.${pid}
read_restart	restart.lmp.1
Reading restart file ...
  restart file = 30 Jul 2021, LAMMPS = 30 Jul 2021
  restoring atom style full from restart
  orthogonal box = (0.36849064 1.5255646 0.44955773) to (17.839082 22.103613 21.763638)
  2 by 4 by 4 MPI processor grid
  restoring pair style lj/cut/tip4p/long/omp from restart
  restoring bond style harmonic/omp from restart
  restoring angle style harmonic/omp from restart
  864 atoms
  576 bonds
  288 angles
Finding 1-2 1-3 1-4 neighbors ...
  special bond factors lj:    0        0        0       
  special bond factors coul:  0        0        0       
     2 = max # of 1-2 neighbors
     1 = max # of 1-3 neighbors
     1 = max # of 1-4 neighbors
     2 = max # of special neighbors
  special bonds CPU = 0.003 seconds
  read_restart CPU = 0.010 seconds
include 	in.setup
variable	out_freq equal 1000
variable	out_freq2 equal 10000
variable	out_freq3 equal 1000

timestep	2.0

neigh_modify    delay 7 every 1

include		in.tip4p
# This is TIP4P/Ice

# create groups ###
group ox type 2
288 atoms in group ox
group hy type 1
576 atoms in group hy

# set charges - beside manually ###
set group ox charge -1.1794
Setting atom values ...
  288 settings made for charge
set group hy charge 0.5897
Setting atom values ...
  576 settings made for charge

# ### TIP3P Potential Parameters ###
pair_style lj/cut/tip4p/long/omp 2 1 1 1 0.1577 8.5
pair_coeff 1 1*2 0.000 0.000
pair_coeff 2 2 0.21084 3.1668
bond_style  harmonic
bond_coeff  1 450 0.9572
angle_style harmonic
angle_coeff 1 55 104.52
kspace_style pppm/tip4p/omp 1.0e-5
pair_modify tail yes

thermo          ${out_freq}
thermo          1000
thermo_style    custom step temp pe etotal epair emol press lx ly lz vol pxx pyy pzz pxy pxz pyz enthalpy

restart 	${out_freq3} restart.lmp.${pid} restart2.lmp.${pid}
restart 	1000 restart.lmp.${pid} restart2.lmp.${pid}
restart 	1000 restart.lmp.1 restart2.lmp.${pid}
restart 	1000 restart.lmp.1 restart2.lmp.1


include         in.dump
dump            myDump all atom ${out_freq2} dump.water.${pid}
dump            myDump all atom 10000 dump.water.${pid}
dump            myDump all atom 10000 dump.water.1
dump            myDump2 all dcd ${out_freq2} dump.dcd
dump            myDump2 all dcd 10000 dump.dcd
dump_modify     myDump append yes
dump_modify     myDump2 append yes


variable natoms 	equal  "count(all)"                        # NUMBER ATOMS
variable H      	equal  "enthalpy/v_natoms"                 # ENTHALPY-per-atom
variable Vol      	equal  "vol/v_natoms"                 # volume-per-atom
fix AVG all 		ave/time ${out_freq} 1 ${out_freq} v_Vol v_H file vol_enthalpy.dat
fix AVG all 		ave/time 1000 1 ${out_freq} v_Vol v_H file vol_enthalpy.dat
fix AVG all 		ave/time 1000 1 1000 v_Vol v_H file vol_enthalpy.dat


timer           timeout 23:50:00 every 1000
New timer settings: style=normal  mode=nosync  timeout=23:50:00

fix 		1 all shake 1e-6 200 0 b 1 a 1
Finding SHAKE clusters ...
       0 = # of size 2 clusters
       0 = # of size 3 clusters
       0 = # of size 4 clusters
     288 = # of frozen angles
  find clusters CPU = 0.000 seconds
fix             2 all nph iso ${pressure} ${pressure} ${pressureDamp}
fix             2 all nph iso 4000 ${pressure} ${pressureDamp}
fix             2 all nph iso 4000 4000 ${pressureDamp}
fix             2 all nph iso 4000 4000 1000
fix             3 all temp/csvr ${temperature} ${temperature} ${tempDamp} ${seed}
fix             3 all temp/csvr 263.08 ${temperature} ${tempDamp} ${seed}
fix             3 all temp/csvr 263.08 263.08 ${tempDamp} ${seed}
fix             3 all temp/csvr 263.08 263.08 100 ${seed}
fix             3 all temp/csvr 263.08 263.08 100 745823

run             250000
PPPM initialization ...
  extracting TIP4P info from pair style
  using 12-bit tables for long-range coulomb (../kspace.cpp:340)
  G vector (1/distance) = 0.37345066
  grid = 24 24 25
  stencil order = 5
  estimated absolute RMS force accuracy = 0.0031630188
  estimated relative force accuracy = 9.525337e-06
  using double precision FFTW3
  3d grid and FFT values/proc = 3822 576
Last active /omp style is kspace_style pppm/tip4p/omp
Neighbor list info ...
  update every 1 steps, delay 7 steps, check yes
  max neighbors/atom: 2000, page size: 100000
  master list distance cutoff = 10.8154
  ghost atom cutoff = 10.8154
  binsize = 5.4077, bins = 4 4 4
  1 neighbor lists, perpetual/occasional/extra = 1 0 0
  (1) pair lj/cut/tip4p/long/omp, perpetual
      attributes: half, newton on, omp
      pair build: half/bin/newton/omp
      stencil: half/bin/3d
      bin: standard
Setting up Verlet run ...
  Unit style    : real
  Current step  : 8000000
  Time step     : 2
  Walltime left : 23:49:59.93
Per MPI rank memory allocation (min/avg/max) = 10.20 | 10.20 | 10.21 Mbytes
Step Temp PotEng TotEng E_pair E_mol Press Lx Ly Lz Volume Pxx Pyy Pzz Pxy Pxz Pyz Enthalpy 
 8000000    269.05731   -3821.4231   -3360.2681   -3821.4231            0    3949.9042    17.470591    20.578049     21.31408    7662.6394    3774.4737    4014.8603    4060.3786   -272.69287   -350.56187   -613.32698   -2918.8594 
 8001000     276.5496   -3888.5487   -3414.5522   -3888.5487            0    3421.2055    17.384134    20.476214    21.208603    7549.4406    5757.1584    1756.9457    2749.5123    406.31916    1021.1405    138.10005   -3037.8745 
 8002000    255.37155   -3865.4358   -3427.7377   -3865.4358            0    2252.4478    17.447504    20.550855    21.285914    7632.3007    2504.7757    3037.8369    1214.7308   -769.63544     1259.626   -381.73893   -3177.0194 
 8003000    247.69526   -3839.1362   -3414.5951   -3839.1362            0    3629.2987     17.45215    20.556328    21.291582    7638.4003    3778.6708    1409.0416    5700.1836   -749.66039   -499.29552    818.58772   -3010.2976 
 8004000    260.10237   -3913.6662   -3467.8597   -3913.6662            0    4494.3267    17.408331    20.504715    21.238123    7581.0091    5076.9544    4450.3225    3955.7032   -577.78371    399.85379    549.18551   -2970.9613 
 8005000     263.3716   -3849.3505   -3397.9406   -3849.3505            0    4025.2882    17.508153    20.622291    21.359906    7712.1697    3029.1315    4518.9751     4527.758    865.44463    240.40546    1943.3547      -2945.2 
 8006000    268.23359   -3846.5838   -3386.8406   -3846.5838            0    5009.5652    17.415779    20.513487     21.24721    7590.7436    2525.2338    6244.8443    6258.6174   -589.74131    1242.7981   -67.427116   -2832.2656 
 8007000    266.33867   -3867.7149   -3411.2196   -3867.7149            0    3993.9023    17.481856    20.591317    21.327823     7677.471    3987.2621    4210.5639     3783.881   -45.028827   -569.18992    1196.7297   -2964.0302 
 8008000    270.32229   -3879.4497   -3416.1265   -3879.4497            0     2647.599    17.516606    20.632249    21.370219    7723.3462    2221.4546    2551.8809    3169.4616   -15.795364    314.36166   -511.35637   -3117.9087 
 8009000    274.70182   -3848.4099   -3377.5803   -3848.4099            0    4916.3149    17.491811    20.603042    21.339968    7690.5941    6045.2446    4304.8189    4398.8812   -212.08595   -265.78841   -68.735546   -2826.1693 
 8010000    262.31685   -3840.9789   -3391.3768   -3840.9789            0    2873.8895      17.5088    20.623053    21.360695    7713.0244    2851.9993    3758.1495    2011.5195   -177.28687    2029.3281    83.115348   -3068.1029 
 8011000    252.40588   -3832.5187   -3399.9036   -3832.5187            0    4523.1448    17.409216    20.505757    21.239203    7582.1654     5035.889    3839.7673    4693.7782    591.74257    1064.1732   -574.15335   -2899.7428 
 8012000    277.99282   -3831.5555   -3355.0854   -3831.5555            0    3842.2682    17.448781     20.55236    21.287472    7633.9777    4785.5441    4485.4614    2255.7991    97.185053     561.8598   -714.97226   -2927.3113 
 8013000    257.91468   -3820.1877   -3378.1307   -3820.1877            0    4300.5846    17.412097     20.50915    21.242717    7585.9293    4012.5197    4237.5326    4651.7014    76.976282   -194.20408   -1130.2103   -2902.3442 
 8014000    257.33107   -3881.3133   -3440.2566   -3881.3133            0    4770.1744     17.30846     20.38708    21.116281    7451.2805    3209.3647     4987.348    6113.8106    1860.6076   -578.61195   -70.326429   -2921.8852 
 8015000    263.37064   -3876.1736   -3424.7653   -3876.1736            0     2605.949    17.360093    20.447896    21.179273    7518.1625    2469.4218    1735.8612     3612.564    1216.3762    591.32529    423.56315   -3139.0369 
 8016000     270.9207   -3885.8037   -3421.4549   -3885.8037            0    3815.2847    17.333828     20.41696    21.147229    7484.0904    4096.5359    4196.4042    3152.9141    -15.51826    943.87393   -1127.4359    -3005.025 
 8017000    250.44899   -3841.4859   -3412.2249   -3841.4859            0    3808.7185    17.351189    20.437409     21.16841    7506.6004    1343.5635    5993.4294    4089.1626      963.708   -541.12256   -1513.4709   -2995.2614 
 8018000    256.64626   -3914.7697   -3474.8868   -3914.7697            0    5198.6974    17.420468    20.519011    21.252931    7596.8767    5220.9878    5336.1787    5038.9256   -372.93927    1373.3909   -284.92677   -2898.9093 
 8019000    268.10978   -3871.8252   -3412.2942   -3871.8252            0    2853.5362    17.396603    20.490901    21.223815    7565.6974    2748.6065     2960.405     2851.597    1186.2345   -1552.0424    1186.3027   -3097.4409 
 8020000      251.911   -3883.3711   -3451.6042   -3883.3711            0    3223.2363    17.415637    20.513319    21.247036     7590.557    5274.0538    2649.7985    1745.8565   -330.94514    201.20725    798.65669   -3094.7904 
 8021000    258.42607   -3887.7915   -3444.8581   -3887.7915            0    4591.2706    17.383932    20.475976    21.208357     7549.178    6242.7028    4393.4388    3137.6702    387.79191   -88.371009    -950.5913   -2939.3729 
 8022000    272.11623   -3880.1684   -3413.7704   -3880.1684            0    4496.7348    17.477282     20.58593    21.322244     7671.447    4369.5362    4730.5301    4390.1381   -355.14978     1.547008    128.73207   -2910.6749 
 8023000    252.37317   -3889.9917   -3457.4327   -3889.9917            0    2256.6926    17.493386    20.604898     21.34189    7692.6722    2858.2734    2668.2132    1243.5911   -638.97045   -1319.3179   -304.61949    -3204.255 
 8024000    269.10551   -3809.7683   -3348.5307   -3809.7683            0    4512.1403    17.441686    20.544003    21.278817    7624.6694    4668.7811    5106.8141    3760.8258   -370.27363   -603.09039   -1231.3131   -2846.7898 
 8025000    256.70594   -3866.2596   -3426.2744   -3866.2596            0    2510.4972    17.538706    20.658279    21.397181    7752.6155    1607.6394    1634.2938    4289.5583   -315.08296   -456.39611   -366.50052   -3142.4277 
 8026000    275.54044    -3868.508   -3396.2411    -3868.508            0     5450.997    17.472883    20.580748    21.316876    7665.6554    5084.8768    5269.8439    5998.2702   -32.869098     692.7067   -489.96864    -2786.843 
 8027000    275.81726   -3881.7448   -3409.0034   -3881.7448            0    5036.0221    17.426147    20.525699    21.259858    7604.3076    5530.8196    4277.9846    5299.2621    492.85209   -796.97781    -1071.739   -2850.5034 
 8028000    260.06731   -3855.0576   -3409.3112   -3855.0576            0      4009.14    17.476236    20.584697    21.320967     7670.069    4855.7743    2960.2819    4211.3638    1330.3044    492.99876   -1497.1299   -2960.8484 
 8029000    262.30962   -3886.9951   -3437.4054   -3886.9951            0     2811.557     17.31452    20.394217    21.123673    7459.1086    2941.0885    3094.4038    2399.1787    619.55955    522.98732    1221.1122   -3131.5545 
 8030000    265.18932   -3835.8176   -3381.2922   -3835.8176            0    3568.8612    17.384934    20.477156    21.209579    7550.4826    1904.9897     4701.665     4099.929    1203.3665   -889.39632   -353.21534   -2988.3033 
 8031000    263.40155   -3815.2434   -3363.7821   -3815.2434            0    3321.0229      17.5116    20.626352    21.364111    7716.7263     5135.721    699.38803    4127.9597    542.45105    269.05968    675.93836   -2990.0324 
 8032000     259.9291   -3824.2101   -3378.7005   -3824.2101            0    5060.4262    17.338185    20.422092    21.152545    7489.7356     5861.765    3109.8873    6209.6263    486.88224   -543.07814   -1808.5551   -2825.9496 
 8033000    266.40734   -3838.1633   -3381.5502   -3838.1633            0    2291.9302    17.444686    20.547535    21.282476    7628.6033    1612.0265    4228.4385    1035.3256     1926.464   -118.09096    518.37289   -3126.5607 
 8034000    255.13252   -3858.2641   -3420.9757   -3858.2641            0    3602.0707    17.442537    20.545005    21.279855    7625.7851    4303.0385    2986.8413    3516.3325    921.20582   -514.13384   -804.98984   -3020.3741 
 8035000    257.11748   -3875.2177   -3434.5271   -3875.2177            0      4520.26    17.362056    20.450209    21.181668    7520.7142     7716.501    1650.0994    4194.1796    643.03287    987.65639    482.62705   -2938.7364 
 8036000    255.46699   -3843.2092   -3405.3475   -3843.2092            0    5291.0583     17.34286    20.427599    21.158249    7495.7961    6745.5088    3970.6562    5157.0099    1125.0381     336.2994    54.602392    -2826.937 
 8037000    263.62695    -3813.909   -3362.0614    -3813.909            0    2921.5509    17.431301     20.53177    21.266147    7611.0575    2225.2183    2676.3458    3863.0886   -923.94105   -1093.7421     1717.193   -3037.7708 
 8038000    266.08658   -3854.8281   -3398.7648   -3854.8281            0    2790.0361    17.491922    20.603173    21.340104    7690.7405    2505.8267    2669.8863    3194.3951   -234.29878    363.14735    428.28936     -3085.83 
 8039000    269.60423   -3890.3273   -3428.2348   -3890.3273            0    2378.7375    17.412691     20.50985    21.243443    7586.7066    1654.8297     3169.743    2311.6398   -454.78233    1301.3986    1024.0322    -3165.041 
 8040000    272.22014   -3905.6153   -3439.0393   -3905.6153            0    2160.6691    17.489826    20.600705    21.337547    7687.9764    757.76747      2884.06    2840.1798    556.24798   -246.97122   -1325.8636   -3196.7824 
 8041000     260.5767   -3887.0025    -3440.383   -3887.0025            0     3707.728     17.47062    20.578083    21.314116    7662.6777    4548.1762    4097.5653    2477.4424    528.53855   -454.20381   -188.89704   -3026.0359 
 8042000    259.81371   -3878.2705   -3432.9587   -3878.2705            0    3078.7307    17.399372    20.494162    21.227194    7569.3108    1840.9119    2427.8641     4967.416    915.59594    5.3005259   -257.94462   -3093.0957 
 8043000    258.19482    -3833.539   -3391.0019    -3833.539            0    5013.4754    17.334681    20.417964     21.14827    7485.1955    5936.6932    4025.9703    5077.7626    1699.2647   -1096.5158    159.55287   -2843.7114 
 8044000    263.86907    -3878.716   -3426.4534    -3878.716            0    5715.0528    17.310467    20.389443    21.118729    7453.8718    7035.1296    4925.5587      5184.47    268.98648   -437.99112      90.1435   -2805.1868 
 8045000    264.04649   -3922.9464   -3470.3798   -3922.9464            0    5392.1696    17.317197     20.39737    21.126939    7462.5689    6567.7638    5365.7852    4242.9599    -390.9881   -777.76238   -750.89101   -2883.5289 
 8046000    276.57173   -3879.6065    -3405.572   -3879.6065            0    2454.1352    17.440446    20.542542    21.277304    7623.0433    3387.8064     2277.612    1696.9873    795.12538   -760.49144    845.02622   -3132.7353 
 8047000    255.33601   -3852.1529   -3414.5157   -3852.1529            0    3237.0658    17.397235    20.491645    21.224586    7566.5221    3164.8026    4091.6079     2454.787    341.49019    348.26401   0.99329281   -3057.3056 
 8048000      265.587   -3846.5085   -3391.3015   -3846.5085            0    5591.9084    17.357851    20.445255    21.176537    7515.2502    6522.5498    5446.2715     4806.904    606.45438   -647.00389    283.63145   -2778.4159 
 8049000     275.2054   -3856.6503   -3384.9576   -3856.6503            0     3813.586    17.433057    20.533838    21.268288    7613.3572    3066.7926    3623.2907    4750.6748   -480.33802   -476.82857   -434.40616   -2961.5237 
 8050000    256.03887   -3870.1096   -3431.2678   -3870.1096            0    3624.7952    17.445066    20.547983     21.28294    7629.1021    3315.0089     4131.383    3427.9937    1396.5575   -36.904298    414.71221   -3027.9635 
 8051000    263.93473   -3826.0753   -3373.7002   -3826.0753            0    2556.6247     17.41285    20.510037    21.243636    7586.9137    4030.6384     2129.547    1509.6887    1281.5157   -310.19912   -177.32328   -3090.8164 
 8052000    262.46771    -3872.666   -3422.8053    -3872.666            0    5793.7776    17.363148    20.451495       21.183    7522.1327    7114.8385    6552.2655    3714.2287   -965.19682    1369.8197   -133.18162   -2787.2129 
 8053000    248.86312   -3826.6704   -3400.1276   -3826.6704            0     5458.273    17.398303    20.492903     21.22589    7567.9159    4528.0026    5915.0703    5931.7462    339.63864     -708.963    1047.3289   -2797.6964 
 8054000    266.19061   -3815.4608   -3359.2192   -3815.4608            0    3487.0823    17.397637    20.492118    21.225076    7567.0459    4752.8451    2262.9694    3445.4324    765.63652    85.536817   -176.22508   -2974.3932 
 8055000    263.85847   -3866.2136   -3413.9692   -3866.2136            0    3747.5023    17.362123    20.450288     21.18175    7520.8011    6169.7417    3144.5763    1928.1889    550.63526     528.1646   -188.10047   -3002.9313 
 8056000     267.4595   -3804.3581   -3345.9417   -3804.3581            0    4770.8277    17.331831    20.414608    21.144794    7481.5046    3790.1318     3943.876    6578.4754   -502.21665    1490.9514   -371.97784   -2825.3963 
 8057000    265.91979   -3849.8314    -3394.054   -3849.8314            0    3056.1187     17.37489    20.465325    21.197325    7537.4032    2123.9386    1863.7156    5180.7019   -648.15422   -783.21266   -505.92147   -3058.1092 
 8058000    260.82567    -3824.954   -3377.9077    -3824.954            0    5286.0624    17.377716    20.468655    21.200773    7541.0827     4424.576    4946.9963    6486.6149   -955.56291   -211.59124    756.24932   -2796.5521 
 8059000    256.95336   -3848.9593     -3408.55   -3848.9593            0    3343.6997    17.444846    20.547724    21.282671    7628.8134     5955.544    2563.9016    1511.6536    1733.0919    478.24729    1014.0318   -3036.5353 
 8060000    254.49297   -3887.4746   -3451.2823   -3887.4746            0    2675.6389    17.426505    20.526121    21.260295    7604.7765    1554.2647    3878.4593    2594.1926     1205.924    892.10093    897.94368   -3154.5329 
 8061000    256.79619   -3876.4462   -3436.3064   -3876.4462            0    3224.0415    17.451207    20.555217    21.290432    7637.1624    4671.9061    1746.6829    3253.5354    737.18224    1018.3593    -314.1675    -3077.212 
 8062000    268.32958   -3850.1341   -3390.2264   -3850.1341            0    2414.7892    17.481093    20.590418    21.326892    7676.4657    3114.2898    3730.7207    399.35717    1264.7889    -1171.179    904.31415   -3119.8826 
 8063000    266.11482   -3826.2678   -3370.1561   -3826.2678            0    4879.2121     17.43966    20.541616    21.276344    7622.0118    4413.0636    4898.1945    5326.3783    487.24164    1278.5806   -1315.9257   -2827.7867 
 8064000    257.32777    -3853.361     -3412.31    -3853.361            0    4089.1844    17.347773    20.433385    21.164242    7502.1677    2905.8838     4575.565    4786.1044   -242.55705    359.64189   -138.16718   -2964.9065 
 8065000     249.9516   -3867.6603   -3439.2518   -3867.6603            0    4046.9096    17.438271     20.53998     21.27465    7620.1911    5402.4984    3002.2366    3735.9937   -25.686954    1202.5551   -740.04961    -2989.508 
 8066000    267.77851   -3815.4491   -3356.4859   -3815.4491            0    4196.3799    17.369054    20.458452    21.190206    7529.8118    3715.3219     3365.265    5508.5528   -374.92044   -1352.5724    830.52878   -2895.6622 
 8067000    247.57459   -3855.2411   -3430.9068   -3855.2411            0    3213.5853    17.515973    20.631502    21.369446    7722.5078    2577.7407    3260.4368    3802.5785     570.1641   -91.177693   -1614.8891   -3068.9772 
 8068000    267.36646    -3859.979   -3401.7221    -3859.979            0    3375.0084    17.447841    20.551252    21.286326    7632.7441    3037.4482    3494.6554    3592.9214   -218.55109   -448.17129   -474.44573   -3026.0305 
 8069000    247.35589   -3863.2073   -3439.2478   -3863.2073            0     3152.094    17.398546    20.493189    21.226185    7568.2323     3599.543    2632.1853    3224.5536   -421.03368    183.34487    1328.1396   -3091.3358 
 8070000    252.72044   -3825.8709   -3392.7167   -3825.8709            0    2051.3321    17.449846    20.553613    21.288771    7635.3749    183.25397    3517.2663    2453.4759     239.1331    -654.3853   -2509.2625   -3164.2924 
 8071000    264.46885   -3881.7717   -3428.4812   -3881.7717            0    2789.8775     17.41121    20.508105    21.241635    7584.7703    2617.1394    3328.6355    2423.8577    162.21515     353.0917    -467.7418   -3119.8758 
 8072000    268.94766   -3814.6148   -3353.6477   -3814.6148            0    4829.6239    17.452899    20.557209    21.292495     7639.383    3203.9608    4659.1631    6625.7477     1306.603   -1431.2899     4.072974   -2815.5669 
 8073000    249.99194   -3904.8914   -3476.4138   -3904.8914            0    4486.3457    17.471229    20.578801    21.314859    7663.4793    3556.9628    2930.9976    6971.0767   -171.79993   -234.20756   -371.71593   -2975.0019 
 8074000    276.43113   -3912.3598   -3438.5663   -3912.3598            0    5278.4576     17.44112    20.543335    21.278126    7623.9263    5277.5588     6029.185    4528.6291    240.15603   -1336.6278    398.59095   -2851.6697 
 8075000      264.931   -3870.8081   -3416.7254   -3870.8081            0    4380.9905    17.404105    20.499737    21.232967     7575.489    4110.3362    3544.0675    5488.5677   -1109.4592   -524.27333    169.68035   -2932.7104 
 8076000    254.27407   -3859.9542   -3424.1371   -3859.9542            0    5686.4867     17.36287    20.451167    21.182661    7521.7713    6085.3553    5122.2011    5851.9038    1025.6494   -153.30855     225.5868   -2800.3448 
 8077000    252.42289   -3878.0906   -3445.4464   -3878.0906            0    3697.3727    17.469992    20.577343     21.31335    7661.8515     1406.268    6004.1465    3681.7036    282.33816   -781.64253   -286.20624   -3032.3011 
 8078000    273.84483   -3828.7458   -3359.3851   -3828.7458            0     4939.415     17.42025    20.518754    21.252665    7596.5915     5428.224    3436.0608    5953.9602   -1169.7946   -1058.6086   -939.80555   -2812.1547 
 8079000    265.22445   -3889.1043   -3434.5186   -3889.1043            0     3242.159    17.434739     20.53582    21.270341    7615.5616    2397.8404    3428.0362    3900.6005    721.86874   -536.68445     550.3588   -3074.4277 
 8080000    281.68892   -3867.0332    -3384.228   -3867.0332            0    3764.7391    17.524392    20.641419    21.379717    7733.6487    3478.9329    3671.8024     4143.482    142.20153   -735.61108   -1030.2437   -2959.6131 
 8081000    253.82855   -3837.1803   -3402.1268   -3837.1803            0    6945.6935    17.337601    20.421404    21.151833    7488.9793    6302.5864    7618.9151     6915.579    2596.6766     249.3631    405.73851   -2643.5245 
 8082000    260.82097   -3893.5537   -3446.5155   -3893.5537            0    3645.9814    17.430855    20.531245    21.265602    7610.4731    3719.4248    3915.5483    3302.9711    239.39189    162.28588     106.8504   -3041.8446 
 8083000     253.2065   -3873.4099   -3439.4226   -3873.4099            0    2888.3558    17.504384    20.617853    21.355308    7707.1907    2794.6663     2585.918    3284.4832    -379.3649    973.35464    885.14427   -3114.7672 
 8084000    274.36041   -3854.5961   -3384.3517   -3854.5961            0    2775.5511    17.448699    20.552263    21.287372    7633.8699    2454.4302    3700.1395    2172.0836    1178.9794    -252.9788    413.28965   -3075.3436 
 8085000    262.17968   -3883.3921   -3434.0251   -3883.3921            0    4142.2963    17.439538    20.541472    21.276196    7621.8523    4486.0186    2827.1276    5113.7427   -1279.5584    911.20824   -626.24591   -2973.5803 
 8086000    268.58899   -3868.6053    -3408.253   -3868.6053            0    4825.8563    17.374812    20.465233     21.19723     7537.302    4863.8603    4970.9471    4642.7613    657.96418    34.559035    1555.0026   -2877.7764 
 8087000    260.16933   -3903.4145   -3457.4932   -3903.4145            0    4169.9673    17.416917    20.514828    21.248598    7592.2314    3216.0333       4391.9    4901.9687    1454.5499   -969.40101   -754.50359    -2995.774 
 8088000    281.34376     -3888.13   -3405.9165     -3888.13            0    3848.9001    17.475779     20.58416     21.32041    7669.4683    4883.7741    3551.1535    3111.7728   -1345.9795    297.29455     271.7861   -2975.4119 
 8089000    253.17182   -3875.4735   -3441.5456   -3875.4735            0    3182.6193    17.395047    20.489067    21.221916    7563.6668    4445.8218    3370.0439    1731.9923   -643.59143    187.49693    464.10349   -3090.4762 
 8090000     256.1114   -3850.2342    -3411.268   -3850.2342            0    3199.7282     17.36866    20.457987    21.189724    7529.2985      2148.75    3914.4081    3536.0265    820.59906    884.10569   -1136.0832   -3059.9152 
 8091000    247.74906   -3861.3247   -3436.6913   -3861.3247            0    6464.4661    17.272354    20.344551    21.072231    7404.7462    6300.2901    5861.9786    7231.1298   -244.18157   -1621.7662    221.65758   -2738.5896 
 8092000    252.18528   -3836.7655   -3404.5286   -3836.7655            0    3621.2477    17.344225    20.429206    21.159913    7497.5653    3861.4818    2932.7357    4069.5256   -1574.4869   -1038.4201   -2633.8889   -3008.5658 
 8093000    259.24282   -3885.1749   -3440.8416   -3885.1749            0    3590.1865    17.411648    20.508622     21.24217    7585.3434    4411.9977    4367.0289    1991.5329   -151.55591     1457.772    -910.8266   -3043.6792 
 8094000    267.43733   -3867.9449   -3409.5664   -3867.9449            0    4156.3097    17.414831     20.51237    21.246053    7589.5034    3863.1261    4385.1677    4220.6353    1582.2453    1044.4128   -1128.9172   -2949.5248 
 8095000    257.44514    -3868.619   -3427.3668    -3868.619            0    6340.8079    17.438789     20.54059    21.275282      7620.87    6553.8335    6962.8263     5505.764    165.69769   -411.60583   -625.41045   -2722.6331 
 8096000     267.3354   -3841.2198   -3383.0161   -3841.2198            0    5801.3899    17.305669    20.383792    21.112876    7447.6757     5783.343    6681.6168      4939.21    1415.0771    504.97855   -1737.4913   -2752.8882 
 8097000    262.37643   -3866.5962    -3416.892   -3866.5962            0    2714.9867    17.408847    20.505323    21.238753    7581.6834    2211.5579    2145.8641    3787.5381    57.491523   -266.06832    824.82982    -3116.693 
 8098000    250.00545   -3890.5785   -3462.0777   -3890.5785            0    3149.0368    17.366418    20.455346    21.186989    7526.3832    1425.1969    3374.9087    4647.0047   -76.763407   -854.30389    1914.1765    -3116.425 
 8099000    279.93265   -3897.7126   -3417.9176   -3897.7126            0    3206.5106     17.34737     20.43291    21.163751    7501.6447    5204.2287    1899.0608    2516.2424   -1257.8595    428.53098     1010.948   -3067.1132 
 8100000    253.30601    -3894.363   -3460.2052    -3894.363            0    4542.4063    17.360057    20.447854    21.179229    7518.1164    5734.0919    2637.1883    5255.9385   -285.15806   -1365.8853    359.12666   -2962.1575 
 8101000    253.34225   -3899.4843   -3465.2644   -3899.4843            0    4204.8827    17.376114    20.466767    21.198818    7538.9967    4442.1404    3288.6593    4883.8483    223.50634   -746.23356   -105.59191   -3002.9437 
 8102000    273.91945   -3883.2895   -3413.8009   -3883.2895            0    4239.0787    17.353745     20.44042    21.171529    7509.9187      4546.14    2391.6574    5779.4386    649.28836   -947.90162    74.406346   -2949.5181 
 8103000    262.90523   -3855.6537   -3405.0432   -3855.6537            0    3253.0909    17.442615    20.545096    21.279949    7625.8871    3696.7407    3096.8309    2965.7012    1206.3523   -445.92408   -1855.3243   -3043.2482 
 8104000    262.86462   -3882.0272   -3431.4863   -3882.0272            0    3909.8783     17.36777    20.456939    21.188639    7528.1419    3049.4607    4914.3609    3765.8133   -120.92968   -289.75776    796.80244   -3002.2198 
 8105000    280.51393   -3875.5496   -3394.7584   -3875.5496            0    4834.4304    17.435665     20.53691     21.27147     7616.775    6117.4831    4676.3069    3709.5013   -321.19129    428.60644   -582.67362    -2857.736 
 8106000    253.53611   -3875.8005   -3441.2483   -3875.8005            0    5290.0602    17.423652    20.522761    21.256815    7601.0428    3667.1948    6313.1138    5889.8719    422.61609   -274.19705    219.92205   -2854.8271 
 8107000    268.17106   -3891.6645   -3432.0285   -3891.6645            0    3399.1852    17.351455    20.437722    21.168735    7506.9462    3696.1296    2244.8213    4256.6048    1283.9386   -122.19028   -212.86698    -3059.882 
 8108000    259.37702   -3849.9933   -3405.4299   -3849.9933            0    2250.4821    17.461327    20.567136    21.302778    7650.4557    1935.1983    942.84656    3873.4013   -353.24782   -962.27314   -355.22139   -3154.3345 
 8109000    256.59268   -3840.4918   -3400.7007   -3840.4918            0    3638.6425     17.47862    20.587506    21.323876     7673.209    5146.2924    3424.1018    2345.5333    880.59453   -43.423158    1434.7238   -2993.5152 
 8110000    249.40662   -3847.9031   -3420.4287   -3847.9031            0    4215.1971    17.442299    20.544725    21.279564     7625.473    6376.1597    2381.7834    3887.6483    -377.8996    2380.4766    -385.4015   -2951.6579 
 8111000    261.55193   -3849.5711     -3401.28   -3849.5711            0     3125.685    17.445401    20.548378    21.283349    7629.5421    2180.4272     3418.914    3777.7137    822.03464   -532.32784    -44.53179    -3053.488 
 8112000     247.8791   -3820.1481   -3395.2918   -3820.1481            0    2790.0937    17.420785    20.519383    21.253317    7597.2905    2837.3688    555.84943    4977.0629   -108.90336   -1185.8458    1044.1212   -3086.1531 
 8113000     265.8949   -3871.8273   -3416.0926   -3871.8273            0    4204.8988    17.415764     20.51347    21.247191    7590.7236     3458.895    3895.9406    5259.8609   -699.45496    911.62902   -801.24162    -2950.598 
 8114000    281.98925    -3857.603   -3374.2831    -3857.603            0    4440.8371    17.399409    20.494205    21.227238    7569.3581     2759.841     4237.268    6325.4022    116.55713   -1396.9751     706.5241   -2884.0532 
 8115000    277.83168   -3858.9395   -3382.7456   -3858.9395            0    4695.7581    17.369908    20.459457    21.191247    7530.9219    3505.6932    5004.9465    5576.6347    1304.1569   -1290.2112    1632.3146   -2867.0068 
 8116000     261.9612   -3894.4365    -3445.444   -3894.4365            0    3135.8262    17.404795     20.50055    21.233809    7576.3903    3035.3638    1751.5239    4620.5909    -596.5884    388.96832    127.17979   -3098.9544 
 8117000    254.29587   -3901.3305   -3465.4761   -3901.3305            0    5449.5146    17.383584    20.475565    21.207931    7548.7235    4773.8286     6145.828    5428.8873   -1140.7284   -487.51235   -237.29089   -2865.5369 
 8118000     260.8239    -3889.733   -3442.6897    -3889.733            0    3930.5477    17.425658    20.525124    21.259263    7603.6685    5483.5196    3508.8109    2799.3128   -1611.9602    591.15967   -712.38502   -3006.8246 
 8119000    263.75412   -3856.4717   -3404.4061   -3856.4717            0    4909.7886    17.433375    20.534213    21.268677    7613.7748    5028.6964    4346.8049    5353.8645    473.56417   -661.53247    1623.2113   -2859.2276 
 8120000    266.96976   -3900.2947   -3442.7177   -3900.2947            0    4048.2616    17.396573    20.490865    21.223779    7565.6584    3103.6741    2606.8185    6434.2922   -485.51838    1320.8063   -493.40542   -2996.0432 
 8121000     254.2842   -3877.9227   -3442.0883   -3877.9227            0    4759.2488    17.482298    20.591838    21.328363    7678.0536    4367.6776    4393.2158     5516.853   -825.52615   -1508.8926    64.651661   -2909.1641 
 8122000    263.66477   -3843.1431   -3391.2307   -3843.1431            0     3225.823    17.541706    20.661812     21.40084    7756.5941    2680.9677    2910.4243    4086.0771   -1303.1166       1102.7   -236.77151   -3026.3192 
 8123000    245.68631   -3883.2359    -3462.138   -3883.2359            0    4723.5317    17.554181    20.676506     21.41606    7773.1543     4407.484    5312.0409    4451.0701    218.56417   -305.76596   -908.00988    -2926.662 
 8124000    272.56249   -3875.0476   -3407.8848   -3875.0476            0    4475.1384    17.492015    20.603283    21.340218    7690.8639    5812.9197    4865.1406    2747.3548    268.13508   -1062.6673   -564.66297   -2905.9382 
 8125000    271.24862   -3865.5217   -3400.6108   -3865.5217            0      4005.45    17.480851    20.590134    21.326598    7676.1475    5575.3117    3402.4455    3038.5927    -29.27499   -1577.3902   -437.84771   -2952.2058 
 8126000    267.80427   -3876.7456   -3417.7382   -3876.7456            0     2890.886    17.453837    20.558314     21.29364    7640.6152    1756.1373    3473.2712    3443.2496    297.64154   0.13724061    562.38131   -3095.6052 
 8127000    256.67177   -3855.7149   -3415.7883   -3855.7149            0    4944.7782    17.456442    20.561383    21.296818    7644.0369    4744.0439    4314.3901    5775.9006    1843.9268   -724.47481    56.160828   -2864.5423 
 8128000    268.99911   -3863.9504   -3402.8951   -3863.9504            0     5066.741    17.429389    20.529518    21.263814    7608.5528    6531.4129    4913.4298    3755.3802   -104.30612   -118.96059    365.20903   -2840.6746 
 8129000    278.39233   -3868.7127   -3391.5577   -3868.7127            0    4369.5137    17.416809      20.5147    21.248466    7592.0901    4881.7836     3744.202    4482.5554    880.56653   -360.33437    -1063.173   -2907.7528 
 8130000    254.85334    -3879.729   -3442.9191    -3879.729            0    3994.1712    17.454216     20.55876    21.294102    7641.1125     6069.046    1944.3407    3969.1268    26.551716    -1099.802   -450.96442   -2997.8175 
 8131000    259.50744   -3907.7764   -3462.9895   -3907.7764            0    4971.7829    17.408505    20.504919    21.238335    7581.2359    4356.6999    6154.6571    4403.9918   -1180.6853     916.8889    -782.4223   -2913.2866 
 8132000    267.96169   -3839.6525   -3380.3753   -3839.6525            0    5551.4029    17.309353    20.388132    21.117371    7452.4335    5542.6851    6343.9209    4767.6026    143.46917    1047.8881    648.89404    -2777.015 
 8133000    254.79462   -3849.3286   -3412.6193   -3849.3286            0    4536.0817    17.358883    20.446471    21.177796    7516.5905    3040.2191    5996.3836    4571.6424    438.57139   -1551.6013    -984.0591   -2915.3661 
 8134000    251.19148   -3870.1413   -3439.6077   -3870.1413            0    3728.6093    17.359457    20.447148    21.178498    7517.3373    4038.0747    4895.2107    2252.5425    844.10731   -734.04723    233.18937   -3030.8304 
 8135000    252.11924    -3862.711   -3430.5872    -3862.711            0    4742.1169    17.269544    20.341242    21.068803    7401.1329    4279.7388    4483.1549    5463.4571    1283.9757   -426.30398    840.81709   -2918.7329 
 8136000    257.34526   -3840.9977   -3399.9167   -3840.9977            0    4702.0441    17.307827    20.386334    21.115508    7450.4618    3511.0559    6631.3153    3963.7611    -165.7513    320.77676    300.87944   -2889.0051 
 8137000    268.62419   -3884.5386    -3424.126   -3884.5386            0    4969.4996    17.331323    20.414009    21.144174    7480.8466    5074.8103    6046.0239    3787.6647   -410.67057   -623.17521    712.08882   -2881.9512 
 8138000    251.60167   -3825.4808   -3394.2442   -3825.4808            0    4808.9892    17.355342    20.442301    21.173477    7511.9926    5743.4426    6283.7495    2399.7755   -157.93327   -1404.4523    812.33142   -2867.3968 
 8139000    246.64136   -3866.7076   -3443.9728   -3866.7076            0     3885.852    17.406522    20.502584    21.235916    7578.6457    3475.7709    5418.9368    2762.8483   -1234.4016   -931.76995   -1154.5278   -3014.4821 
 8140000    262.23575   -3864.4743   -3415.0112   -3864.4743            0    3977.2544    17.355186    20.442117    21.173287      7511.79    2258.5974    4935.2031    4737.9627   -730.26488    258.89449   -1322.9294    -2979.296 
 8141000    254.04898    -3868.799   -3433.3677    -3868.799            0    4291.6447    17.301713    20.379132    21.108049    7442.5694    4772.9694    3639.8393    4462.1255   -878.50863    1329.8247   -237.44786    -2967.543 
 8142000    249.18281    -3860.616   -3433.5252    -3860.616            0    1324.9019     17.36727     20.45635    21.188029    7527.4914    1031.7332    1216.6367    1726.3358   -985.83925    335.79528   -366.38789   -3288.0765 
 8143000    258.76391   -3863.1528   -3419.6403   -3863.1528            0    5238.2125    17.279551    20.353029    21.081012    7414.0066    4129.3925    6129.9289    5455.3161    -964.7348   -79.652596   -333.38305    -2853.255 
 8144000    263.27476   -3859.7536   -3408.5097   -3859.7536            0    3482.8627    17.399113    20.493857    21.226877    7568.9721    3618.6785    2807.5665     4022.343   -110.70512   -176.53173   -379.47243   -3024.0515 
 8145000    268.11731   -3828.8209    -3369.277   -3828.8209            0      3643.26    17.414163    20.511584    21.245239    7588.6311     3184.341    2595.8036    5149.6353   -1284.2443   -801.12281   -279.53221   -2966.0686 
 8146000    252.67462   -3825.6429   -3392.5672   -3825.6429            0    3913.0739    17.403502    20.499027    21.232232    7574.7017    3024.1462    5040.7696    3674.3059    111.32024   -883.57671   -524.00695   -2960.2929 
 8147000    257.34945    -3871.525   -3430.4369    -3871.525            0    3044.4496    17.415282    20.512902    21.246603    7590.0931    3831.9059    2405.5399    2895.9029     200.2113   -2115.2971    561.79633   -3093.4354 
 8148000    250.42641   -3873.5384   -3444.3161   -3873.5384            0    2831.8089    17.508832    20.623091    21.360734    7713.0667    2074.5773    2571.7997    3849.0499   -257.61894    447.97714   -311.53889    -3125.774 
 8149000    273.99823   -3848.6624   -3379.0388   -3848.6624            0     3300.712    17.415986    20.513731    21.247463    7591.0143    2901.3151    2807.1089     4193.712   -1200.5575    1060.4994    1239.3219   -3013.6264 
 8150000    261.92805    -3879.115   -3430.1793    -3879.115            0    4328.2781    17.414545    20.512034    21.245704    7589.1299    5271.9336     2848.811    4864.0896   -511.53752   -1157.6673   -340.23025   -2951.1269 
 8151000    263.29593   -3836.0895   -3384.8093   -3836.0895            0    4669.3577    17.459634    20.565143    21.300713    7648.2315    4440.1402    3798.3805    5769.5525    355.54316    -964.0098   -1578.7717   -2863.9816 
 8152000    249.83638   -3888.4398   -3460.2288   -3888.4398            0     2375.354    17.515925    20.631446    21.369387    7722.4446     688.4639    3186.1052    3251.4928    277.19212   -630.51306    -299.9385   -3192.7071 
 8153000    262.07985   -3870.1877   -3420.9918   -3870.1877            0    4046.9776    17.457994    20.563211    21.298712    7646.0766    4672.2255    4274.8337    3193.8735    193.83396   -996.81795   -88.705157   -2969.7126 
 8154000    254.44867   -3886.4939   -3450.3776   -3886.4939            0    2708.3317    17.468614    20.575719    21.311668    7660.0378    5011.5743    2102.6656    1010.7552   -418.53469   -126.39937     650.7921   -3147.8196 
 8155000    259.79732   -3840.9772   -3395.6935   -3840.9772            0    5587.2375    17.321952    20.402972    21.132741    7468.7185    5483.3766    5445.1795    5833.1563   -916.60735   -2975.6437    230.73107   -2787.1115 
 8156000    239.82387   -3897.9708   -3486.9209   -3897.9708            0    5066.2318    17.377065    20.467887    21.199978    7540.2342    5071.5971    4807.9455    5319.1529    382.20064    335.62886   -1983.9649   -2929.8047 
 8157000    246.95288   -3862.7608    -3439.492   -3862.7608            0    2774.3571    17.490705    20.601741     21.33862    7689.1365    1892.7972    2054.3894    4375.8845   -520.88943   -1223.0905    590.68659   -3128.3807 
 8158000    248.37224   -3879.8506   -3454.1491   -3879.8506            0    4268.7736    17.440323    20.542397    21.277153    7622.8815    3026.3481    4113.4319    5666.5409    983.90666   -126.68173   -708.23003   -2979.5814 
 8159000    255.18935   -3848.1632   -3410.7773   -3848.1632            0    2325.6771    17.484467    20.594393    21.331009    7680.9123    4090.0479    532.58096    2354.4023    441.09049    700.58143    481.12054   -3150.2591 
 8160000    275.45139   -3844.3107   -3372.1965   -3844.3107            0    4154.1318    17.384396    20.476522    21.208923    7549.7822    3434.7472    3988.3872     5039.261    240.20236    1228.7258    155.11572   -2914.8023 
 8161000    267.40211   -3897.8673   -3439.5492   -3897.8673            0    3610.7997    17.362921    20.451228    21.182723    7521.8381    4194.4365    2702.5409    3935.4216     1607.473    916.21058    691.65344   -3043.4506 
 8162000    246.38951   -3844.3566   -3422.0534   -3844.3566            0    3222.1018    17.527022    20.644517    21.382926    7737.1321    3009.9134    3573.2448    3083.1471    38.034628   -412.20597    624.51245   -3058.4775 
 8163000    254.43923   -3835.8774   -3399.7773   -3835.8774            0     6680.333    17.436024    20.537333    21.271908    7617.2454    5571.7515    7641.0879    6828.1594     1676.344    362.30382   -827.12106    -2657.661 
 8164000    256.96067   -3876.5123   -3436.0905   -3876.5123            0    3611.7681    17.486451     20.59673     21.33343    7683.5275    2392.0144    3996.9377    4446.3522    904.42795   -210.31309    406.62468   -3031.3689 
 8165000     256.2602   -3847.1501   -3407.9289   -3847.1501            0    4552.4534    17.396273    20.490512    21.223413    7565.2668    2617.2198    4623.5814    6416.5589     -255.956   -925.77307   -825.48432   -2905.6491 
 8166000    261.88978   -3857.2596   -3408.3895   -3857.2596            0    4970.0731    17.333693    20.416801    21.147065    7483.9158    4525.2477    4503.6742    5881.2975   -1122.9876    478.33347    104.89899   -2865.9297 
 8167000    265.24482   -3938.6203   -3483.9997   -3938.6203            0    4093.8284    17.409448     20.50603    21.239486    7582.4679    4699.7561    2916.2632    4665.4658     340.3584    385.15707    730.66846   -3031.2939 
 8168000    274.03192   -3867.9985   -3398.3171   -3867.9985            0    4791.8454    17.398252    20.492843    21.225827     7567.849    3659.3308    5691.4628    5024.7426    1175.9797    1734.9754    1027.5042   -2869.4444 
 8169000    269.70394   -3871.8276   -3409.5643   -3871.8276            0    1812.4256    17.494458    20.606161    21.343198    7694.0868    739.78037    1902.7422    2794.7541   -660.14758    1011.5789   -19.645588   -3206.1914 
 8170000    258.69289   -3857.2372   -3413.8465   -3857.2372            0    3984.1537    17.436969    20.538447    21.273062    7618.4846    2414.1819    3210.3794    6327.8997   -192.88266   -699.71259   -723.66986    -2971.176 
 8171000    255.27228   -3856.9918   -3419.4638   -3856.9918            0    2994.4922    17.363575    20.451998    21.183521    7522.6882    2682.8745    3350.0257    2950.5762    124.34713   -1331.6852   -250.40544    -3090.936 
 8172000    262.08833   -3864.6888   -3415.4784   -3864.6888            0    4284.6269    17.336121     20.41966    21.150027    7487.0606    6034.3895    3274.8375    3544.6537   -142.12272    564.76437    1710.7055   -2947.6353 
 8173000    252.38009   -3851.3924   -3418.8216   -3851.3924            0    4103.3713    17.398698    20.493368    21.226371    7568.4305    6422.6653    2565.3035    3322.1451   -493.34668    924.94189    1211.6284   -2965.9005 
 8174000    249.53784   -3870.7712   -3443.0718   -3870.7712            0    2140.9362    17.549317    20.670777    21.410126     7766.695    387.97219    4007.0099    2027.8264    532.79887   -1154.2714   -946.42403   -3200.5695 
 8175000    268.44846   -3841.6068   -3381.4953   -3841.6068            0    4135.1029    17.503994    20.617392    21.354831    7706.6748     2813.382    5385.0976     4206.829   -1542.3405     995.1905     979.8449   -2916.7348 
 8176000    261.41542   -3879.5468   -3431.4897   -3879.5468            0    4115.3344    17.487984    20.598535      21.3353    7685.5478    2583.7707    3732.3585    6029.8739    553.47317   -438.46974   -318.73204   -2970.2191 
 8177000    271.68797   -3841.0866   -3375.4227   -3841.0866            0     4430.735    17.422482    20.521382    21.255387     7599.511    3973.3059    4434.6694    4884.2298    129.12433   -386.34343   -790.52363   -2884.3596 
 8178000    266.42116   -3808.1822   -3351.5454   -3808.1822            0    5616.6385    17.384268    20.476371    21.208766    7549.6149    6006.8594    2482.0763    8360.9797   -394.22002    -635.4679    458.46019   -2733.1345 
 8179000    262.18518   -3862.5547   -3413.1783   -3862.5547            0    2383.8727    17.427556    20.527359    21.261578    7606.1529    2241.4625    3246.8477    1663.3079   -899.59401    97.924015    487.75789   -3148.7402 
 8180000    264.93605   -3885.7504   -3431.6591   -3885.7504            0     2767.986    17.397926    20.492458    21.225429    7567.4229    2942.4076    2583.2437    2778.3069    723.49271    653.95061    1573.7237   -3126.1756 
 8181000    258.39554   -3849.7034   -3406.8222   -3849.7034            0    4542.9687    17.390785    20.484048    21.216717    7558.1094    4699.8691    4520.6857    4408.3512   -154.05744   -303.33359    616.64013   -2906.0632 
 8182000    272.04764   -3837.1058   -3370.8255   -3837.1058            0    2394.8941    17.482531    20.592112    21.328647    7678.3605    2173.5988    498.09442     4512.989    1704.5183    -358.7376   -14.220769   -3102.6428 
 8183000    253.54805   -3876.9438   -3442.3711   -3876.9438            0     3520.801    17.475843    20.584234    21.320487    7669.5513    3659.5891     3553.963    3348.8507    357.79442    226.23915   -31.656436   -3048.5606 
 8184000    258.54757   -3868.5779   -3425.4362   -3868.5779            0    4386.1189    17.449197    20.552849    21.287979    7634.5228    3990.3313    3984.8917    5183.1339   -184.13692    2348.4486   -46.813602   -2937.0783 
 8185000    260.31806    -3820.728   -3374.5518    -3820.728            0    4004.0883    17.362858    20.451154    21.182646    7521.7561    3802.8264    4366.0101    3843.4283   -367.76184   -191.64184    90.451357   -2935.3149 
 8186000    274.66652   -3857.5994   -3386.8304   -3857.5994            0    5286.9726    17.366326    20.455239    21.186878    7526.2643    4110.8986    7315.8411    4434.1783    96.520856    193.15714    511.59478   -2806.5172 
 8187000    249.93181   -3856.4592   -3428.0847   -3856.4592            0    5064.3008    17.381453    20.473056    21.205332    7545.9487    6411.0557    4531.2206     4250.626    84.826807   -593.03768   -1182.6741   -2870.7588 
 8188000    279.20629   -3830.8678   -3352.3177   -3830.8678            0    6174.1836    17.298182    20.374974    21.103742    7438.0142      6491.22     5276.847    6754.4838   -255.23532    337.85371    120.90404   -2682.5682 
 8189000    249.72397   -3872.8857   -3444.8674   -3872.8857            0    3129.7003    17.388769    20.481673    21.214257    7555.4807    2843.9146    4178.7052    2366.4812   -733.51231    1694.8454   -875.82831    -3100.009 
 8190000    284.74752   -3874.2122   -3386.1647   -3874.2122            0    2158.3338    17.419096    20.517394    21.251257    7595.0816    3690.2692    1530.1667    1254.5655    393.65419    82.691521    484.02263   -3147.0937 
 8191000     255.7662   -3859.6786   -3421.3041   -3859.6786            0    5127.3825     17.27052    20.342391    21.069994    7402.3878    7640.5076    3848.6527    3892.9871   -237.67308    1855.0807    1214.5691   -2867.7712 
 8192000    262.56403   -3853.2144   -3403.1887   -3853.2144            0    2776.4887    17.454752    20.559392    21.294757    7641.8169    4313.1361    1993.7391    2022.5911   -219.83707   -1099.4278   -480.59355   -3093.7544 
 8193000    250.35265   -3832.2274   -3403.1315   -3832.2274            0    3612.5188    17.384152    20.476235    21.208625    7549.4642    5245.2326    4100.9168    1491.4071    13.813782   -525.66166   -697.19505   -3005.3889 
 8194000    268.94316   -3813.2051   -3352.2457   -3813.2051            0    6175.9216    17.277976    20.351173     21.07909    7411.9791    6419.8685    5675.1566    6432.7396   -386.42938   -514.35741      248.663   -2684.6526 
 8195000    259.51917    -3855.581   -3410.7741    -3855.581            0      3491.44     17.40263    20.497999    21.231167    7573.5626    2867.7374    4414.3812    3192.2015    364.38705    788.69513    375.32607   -3025.1353 
 8196000    266.38819   -3835.1242   -3378.5439   -3835.1242            0    3574.2046     17.44451    20.547328    21.282261    7628.3724    4059.0013    4866.7337    1796.8789   -523.09449    1134.7105   -64.667026   -2980.9066 
 8197000    248.46632   -3808.3344   -3382.4717   -3808.3344            0    4193.8594    17.328937    20.411199    21.141263    7477.7577    3503.8112    4769.0342    4308.7328   -609.07026    182.13887   -936.66503   -2925.1086 
 8198000    265.69157   -3858.0172    -3402.631   -3858.0172            0    4368.2919    17.395212    20.489262    21.222118    7563.8826    3972.7922    5247.9981    3884.0854   -702.26287   -1380.4729    538.73146   -2920.7583 
 8199000    281.41596   -3863.5322   -3381.1949   -3863.5322            0     5509.896    17.374981    20.465432    21.197436    7537.5218    4952.7018    6654.9563    4922.0298    749.49029   -602.84328     869.6085   -2775.5084 
 8200000    262.29117   -3867.9427   -3418.3846   -3867.9427            0    4391.6706    17.399564    20.494388    21.227427    7569.5606    4206.6816    4531.3944     4436.936    781.81486   -454.84915   -827.69521   -2933.5693 
 8201000     261.5544   -3878.3882   -3430.0929   -3878.3882            0    4717.2047    17.424427    20.523673     21.25776    7602.0565    4649.4427     4095.328    5406.8432   -516.62095     1178.231   -313.79759   -2907.1049 
 8202000    262.97818   -3861.5271   -3410.7915   -3861.5271            0    3515.4536    17.386928    20.479504    21.212011    7553.0812    3314.9653    3299.1654    3932.2302   -478.19164   -248.11645   -23.561202   -3023.5504 
 8203000    264.10246   -3872.1918   -3419.5292   -3872.1918            0    1933.1003    17.491517    20.602697     21.33961    7690.2069    1206.9199    2393.5916    2198.7895    721.28423   -39.738495   -534.23961   -3202.7247 
 8204000    252.50163   -3853.4562    -3420.677   -3853.4562            0    3297.3883    17.448792    20.552372    21.287485    7633.9915    1796.7594     4333.352    3762.0536   -405.19336    553.83597    328.51662   -3053.5658 
 8205000    245.97803   -3850.5229    -3428.925   -3850.5229            0    3628.8708    17.485488    20.595596    21.332255    7682.2581    3874.6084    3617.6265    3394.3774    32.121006    805.75908  -0.77932533   -3022.3541 
 8206000    266.57963   -3891.3882   -3434.4798   -3891.3882            0    3905.8933    17.437781    20.539402    21.274052    7619.5482    4659.2436    2887.5766    4170.8598   -166.02622    433.29292   -189.90428   -3000.4441 
 8207000    264.05182   -3885.0184   -3432.4426   -3885.0184            0    2679.0852    17.477112     20.58573    21.322036     7671.223    1685.2497    2404.6249    3947.3812   -1672.1654   -1613.6987    547.63656   -3132.7148 
 8208000    250.74723   -3843.0009   -3413.2288   -3843.0009            0    3991.7685    17.410268    20.506996    21.240487    7583.5401    1936.2766    3761.1396    6277.8892   -202.46003   -730.55713   -921.30202   -2971.7465 
 8209000    251.75208   -3841.9526   -3410.4582   -3841.9526            0    3951.2828    17.277245    20.350313    21.078199    7411.0385    4791.1575    3639.3349    3423.3559   -457.49196    787.33146    737.81392   -2983.3941 
 8210000    265.77008   -3807.4453   -3351.9244   -3807.4453            0    7207.4272    17.279814    20.353339    21.081333    7414.3449     8044.976    6845.4603    6731.8452   -123.50398   -74.191965   -431.98306   -2572.5809 
 8211000    259.63283   -3878.7364   -3433.7346   -3878.7364            0    2614.9864    17.432705    20.533424     21.26786    7612.8972    4120.8507    1256.7394    2467.3691    205.79424    636.63842   -1238.8037   -3143.4023 
 8212000    265.98375   -3845.5028   -3389.6157   -3845.5028            0    4039.9674    17.386917    20.479491    21.211998    7553.0665     3780.945    2178.1746    6160.7826   -655.83041    248.47058   -265.88137   -2944.5983 
 8213000     285.3332   -3874.8214   -3385.7701   -3874.8214            0    4466.9593    17.451186    20.555192    21.290407    7637.1348    4775.9138    4405.5072    4219.4571   -792.55808    544.08907     97.06664   -2888.2412 
 8214000    266.17591   -3858.4065   -3402.1901   -3858.4065            0    4277.5218    17.477002      20.5856    21.321902    7671.0785    4285.2577    4550.6599    3996.6478   -423.85553   -1003.0489    -121.9466   -2923.6431 
 8215000    248.44156   -3902.0705   -3476.2502   -3902.0705            0    3359.0852    17.386769    20.479318    21.211818    7552.8746    3521.4483    5068.8476    1486.9598    111.09465    290.44434    -64.16956   -3106.2439 
 8216000    265.55781   -3870.4031   -3415.2461   -3870.4031            0    3957.1155    17.401445    20.496604    21.229723    7572.0165    4992.1658    2801.4264    4077.7544    153.88033  -0.83135368   -445.74483   -2978.2615 
 8217000    252.41352   -3864.5106   -3431.8824   -3864.5106            0    4956.5106    17.330991    20.413618    21.143769    7480.4166    3003.8872    6601.4194    5264.2254   -746.50054    546.51696    907.10546   -2891.1558 
 8218000    260.91096   -3844.8277   -3397.6352   -3844.8277            0    5332.8423    17.414049    20.511449    21.245099    7588.4812    3260.5601    7008.6037    5729.3629   -485.64619    1946.4125    441.64213   -2807.4484 
 8219000    258.06136   -3823.6938   -3381.3855   -3823.6938            0    4363.6255    17.416367     20.51418    21.247928    7591.5127    4119.2649    5589.8329    3381.7787   -852.59841    172.29365    1292.8104   -2898.2692 
 8220000    252.53362   -3867.2974   -3434.4634   -3867.2974            0    4177.7228    17.361548    20.449611    21.181049    7520.0539    4919.5418    4586.9755     3026.651    1685.4934   -1250.6805   -701.09244   -2976.2831 
 8221000    264.39181   -3842.1322   -3388.9737   -3842.1322            0    4688.7237     17.36466    20.453275    21.184844    7524.0975    5164.3026    6211.6706    2690.1979    1310.0191   -2184.8118   -1609.2593   -2874.4742 
 8222000    256.07634   -3871.7128   -3432.8068   -3871.7128            0    2188.6806    17.400743    20.495776    21.228865    7571.0991    601.10728    3140.7341    2824.2005    268.93977   -512.81007    974.63869   -3191.1398 
 8223000    259.39959   -3882.2143   -3437.6122   -3882.2143            0    2224.2391    17.429541    20.529697       21.264    7608.7525    1986.1666     2107.318    2579.2326    414.48424    1507.6017   -351.92327   -3190.7977 
 8224000    267.56372   -3862.4043   -3403.8092   -3862.4043            0     3104.753    17.396984    20.491349     21.22428    7566.1945    3864.1983    2275.5194    3174.5412    -850.1333   -122.48874    173.70302   -3061.2147 
 8225000     254.2636   -3892.8106   -3457.0115   -3892.8106            0    5785.4052    17.403703    20.499263    21.232477    7574.9641    5163.3695    6322.9019    5869.9441   -976.09564    196.06211   -602.33228     -2817.88 
 8226000    267.16786   -3880.2754   -3422.3588   -3880.2754            0    2665.2483     17.41587    20.513595    21.247321    7590.8629    2650.2157    1474.8813    3870.6479   -1043.4582   -1143.7219    549.33878   -3127.3026 
 8227000    283.58571   -3868.6853   -3382.6291   -3868.6853            0    4529.3849    17.369869    20.459411    21.191199    7530.8706     4447.101    5065.4795    4075.5741    193.45686   -1592.9269   -832.71434   -2885.1667 
 8228000    261.44757   -3857.4436   -3409.3314   -3857.4436            0    6792.5113    17.370048    20.459622    21.191418    7531.1043    6593.0864    5638.5359    8145.9117    418.91875   -583.20847    620.21198   -2663.2866 
 8229000    255.88724   -3868.9377   -3430.3558   -3868.9377            0    3599.3276    17.433489    20.534347    21.268816    7613.9239     1221.223    4686.8332    4889.9267    -407.9613   -598.72921    153.29135   -3030.6818 
 8230000    263.49614   -3843.7028   -3392.0794   -3843.7028            0    3949.5496    17.390216    20.483378    21.216023    7557.3675    4333.5302     4559.049    2956.0696   -618.40033   -637.74823    1410.5867   -2956.7741 
 8231000     270.9375   -3878.7999   -3414.4223   -3878.7999            0    4259.3004    17.352853    20.439369    21.170441    7508.7612    5367.5129    4411.7573    2998.6311    341.17145   -761.49339    -419.3161   -2947.9966 
 8232000    271.37037   -3873.3355    -3408.216   -3873.3355            0    4344.8345     17.37279    20.462852    21.194763    7534.6708    4859.1808    4608.3946    3566.9279    614.90907    868.60995   -1401.4267   -2930.7819 
 8233000    263.53749   -3867.2905   -3415.5963   -3867.2905            0    4519.6182    17.363407      20.4518    21.183316    7522.4692    2723.0532    5225.5003     5610.301    99.717297    114.48595   -1475.0952   -2919.7603 
 8234000    274.54879   -3847.2707   -3376.7035   -3847.2707            0    4554.4029    17.388238    20.481048     21.21361    7554.7891     4582.185    3231.0982    5849.9256    79.719692    686.84525    787.27382   -2874.9046 
 8235000    252.98945   -3863.5905   -3429.9753   -3863.5905            0    3878.1225    17.382199    20.473934    21.206242    7546.9194    4946.2992    1685.0853    5002.9829    1326.3986   -756.16215    514.13537   -3003.1333 
 8236000    252.26697   -3846.6658   -3414.2888   -3846.6658            0    3893.2706    17.416211    20.513995    21.247736    7591.3075    3444.6143    3788.9832    4446.2143    1250.3554   -134.03085   -1630.8057   -2983.2593 
 8237000    263.81114   -3867.8911   -3415.7278   -3867.8911            0    4458.5849    17.387776    20.480503    21.213046    7554.1859    6275.6869    3149.4938    3950.5739    699.06339   -120.07218    59.254587   -2924.5253 
 8238000    270.56713   -3840.6122   -3376.8694   -3840.6122            0    2980.3953    17.412024    20.509064    21.242629    7585.8343     1760.194     3699.178    3481.8139    1292.0405    1584.8561   -466.49024   -3047.1434 
 8239000    262.21209   -3858.4672   -3409.0447   -3858.4672            0    1874.3475    17.429349    20.529471    21.263765    7608.5004    845.45391     3115.488    1662.1006    903.60394   -832.26862    371.00588    -3201.063 
 8240000    263.64204   -3838.6196   -3386.7461   -3838.6196            0    4568.9382     17.41266    20.509813    21.243404    7586.6652    5055.4582    3601.0444    5050.3119   -839.18929   -798.66261    176.01859   -2881.2218 
 8241000    265.87855   -3877.7304   -3422.0236   -3877.7304            0    1471.9478    17.419793    20.518215    21.252106    7595.9925    395.93344    1545.9191     2473.991    428.74396    974.96816    24.350942   -3258.9616 
 8242000    263.19111   -3836.4587   -3385.3581   -3836.4587            0    2647.5352    17.446963    20.550218    21.285254    7631.5911    1878.3723    3089.2127    2975.0207    478.54101    374.22802   -835.25104   -3090.6903 
 8243000     274.2994   -3834.0771   -3363.9373   -3834.0771            0    5037.7004    17.411861    20.508872    21.242429    7585.6209     3427.429    6205.0232    5480.6489    1017.6896    115.23205   -1979.0554   -2806.6241 
 8244000    267.11745   -3838.0101   -3380.1799   -3838.0101            0    4690.4535    17.374905    20.465344    21.197344    7537.4239    2604.6197    6429.5085    5037.2324    1030.2693    801.60324    1087.7324    -2864.579 
 8245000    275.06714   -3852.3782   -3380.9225   -3852.3782            0    4687.4903    17.430295    20.530585    21.264919    7609.7397    4164.3286    5555.1722      4342.97    -2088.672   -1231.3868   -797.21355   -2860.7037 
 8246000    261.20885   -3856.0984   -3408.3953   -3856.0984            0    2885.8712    17.428086    20.527983    21.262224    7606.8463    3248.6101    1651.6047    3757.3987   -502.00892    452.14396    -53.72816   -3088.2424 
 8247000    265.74535   -3864.3309   -3408.8525   -3864.3309            0    3821.7609    17.371291    20.461086    21.192934    7532.7207    3413.4098    4023.2149    4028.6579      1212.19   -883.60375   -320.05503   -2989.0053 
 8248000    286.46027   -3898.1123   -3407.1292   -3898.1123            0    3417.2881    17.385355    20.477652    21.210093    7551.0317    2678.7384    4223.9774    3349.1484     660.3949    -960.1634    196.89685   -3030.8036 
 8249000    248.79798   -3883.6387   -3457.2075   -3883.6387            0    2431.8513    17.461129    20.566903    21.302536    7650.1954    715.65522    4405.4372    2174.4615   -714.30615    816.44498    397.76987   -3185.8852 
 8250000    267.45323   -3867.6517    -3409.246   -3867.6517            0    3414.0101    17.444972    20.547872    21.282825    7628.9787    4083.2039    3468.8128    2690.0137    214.72388    675.16207     696.6264   -3029.4004 
Loop time of 377.844 on 64 procs for 250000 steps with 864 atoms

Performance: 114.333 ns/day, 0.210 hours/ns, 661.649 timesteps/s
192.2% CPU use with 32 MPI tasks x 2 OpenMP threads

MPI task timing breakdown:
Section |  min time  |  avg time  |  max time  |%varavg| %total
---------------------------------------------------------------
Pair    | 24.259     | 31.51      | 40.431     |  62.0 |  8.34
Bond    | 0.76798    | 1.1795     | 2.0087     |  22.1 |  0.31
Kspace  | 168.58     | 178.89     | 192.09     |  38.0 | 47.35
Neigh   | 3.8486     | 4.2264     | 4.86       |  15.1 |  1.12
Comm    | 69.122     | 77.621     | 82.058     |  44.0 | 20.54
Output  | 0.51664    | 0.51689    | 0.51821    |   0.0 |  0.14
Modify  | 67.532     | 70.629     | 73.69      |  18.9 | 18.69
Other   |            | 13.27      |            |       |  3.51

Nlocal:        27.0000 ave          34 max          21 min
Histogram: 1 1 3 9 6 5 5 0 1 1
Nghost:        2450.00 ave        2489 max        2406 min
Histogram: 4 1 1 1 6 4 7 4 1 3
Neighs:        8106.28 ave       10381 max        5630 min
Histogram: 1 0 2 5 4 10 6 1 1 2

Total # of neighbors = 259401
Ave neighs/atom = 300.23264
Ave special neighs/atom = 2.0000000
Neighbor list builds = 14208
Dangerous builds = 0

unfix		3
unfix		2
unfix		1

write_data	data.final.${pid}
write_data	data.final.1
System init for write_data ...
PPPM initialization ...
  extracting TIP4P info from pair style
  using 12-bit tables for long-range coulomb (../kspace.cpp:340)
  G vector (1/distance) = 0.37357185
  grid = 24 24 25
  stencil order = 5
  estimated absolute RMS force accuracy = 0.0031492451
  estimated relative force accuracy = 9.4838582e-06
  using double precision FFTW3
  3d grid and FFT values/proc = 3822 576
Last active /omp style is kspace_style pppm/tip4p/omp
WARNING: Not all mixed pair coeffs generated from mixing. Use write_data with 'pair ij' option to store all pair coeffs. (../write_data.cpp:312)

write_restart   restart.lmp.${pid}
write_restart   restart.lmp.1
System init for write_restart ...
PPPM initialization ...
  extracting TIP4P info from pair style
  using 12-bit tables for long-range coulomb (../kspace.cpp:340)
  G vector (1/distance) = 0.37357185
  grid = 24 24 25
  stencil order = 5
  estimated absolute RMS force accuracy = 0.0031492451
  estimated relative force accuracy = 9.4838582e-06
  using double precision FFTW3
  3d grid and FFT values/proc = 3822 576
Last active /omp style is kspace_style pppm/tip4p/omp
Total wall time: 0:06:17
