LAMMPS (30 Jul 2021)
  using 1 OpenMP thread(s) per MPI task
package omp 0
using multi-threaded neighbor list subroutines
echo both

include		in.partitions
variable        pid world 0
include		in.temp
variable        temperature equal 266.25
variable	tempDamp equal 100.0
include		in.pressure
variable        pressure equal 9750.0
variable        pressureDamp equal 1000.0 # This is 1 ps
include		in.seed
variable        seed world 745823

units		real
atom_style	full
read_restart    restart.lmp.${pid}
read_restart    restart.lmp.0
Reading restart file ...
  restart file = 30 Jul 2021, LAMMPS = 30 Jul 2021
  restoring atom style full from restart
  triclinic box = (-3.1125701 -0.23465574 0.010380833) to (14.722569 22.814655 19.219617) with tilt (0.035308841 -6.2556460 0.43290694)
  4 by 4 by 4 MPI processor grid
  restoring pair style lj/cut/tip4p/long/omp from restart
  restoring bond style harmonic/omp from restart
  restoring angle style harmonic/omp from restart
  1008 atoms
  672 bonds
  336 angles
Finding 1-2 1-3 1-4 neighbors ...
  special bond factors lj:    0        0        0       
  special bond factors coul:  0        0        0       
     2 = max # of 1-2 neighbors
     1 = max # of 1-3 neighbors
     1 = max # of 1-4 neighbors
     2 = max # of special neighbors
  special bonds CPU = 0.005 seconds
  read_restart CPU = 0.018 seconds

include 	in.setup
variable	out_freq equal 1000
variable	out_freq2 equal 10000
variable	out_freq3 equal 1000

timestep	2.0

neigh_modify    delay 7 every 1

include		in.tip4p
# This is TIP4P/Ice

# create groups ###
group ox type 2
336 atoms in group ox
group hy type 1
672 atoms in group hy

# set charges - beside manually ###
set group ox charge -1.1794
Setting atom values ...
  336 settings made for charge
set group hy charge 0.5897
Setting atom values ...
  672 settings made for charge

# ### TIP3P Potential Parameters ###
pair_style lj/cut/tip4p/long/omp 2 1 1 1 0.1577 8.5
pair_coeff 1 1*2 0.000 0.000
pair_coeff 2 2 0.21084 3.1668
bond_style  harmonic
bond_coeff  1 450 0.9572
angle_style harmonic
angle_coeff 1 55 104.52
kspace_style pppm/tip4p/omp 1.0e-5
pair_modify tail yes

thermo          ${out_freq}
thermo          1000
thermo_style    custom step temp pe etotal epair emol press lx ly lz vol pxx pyy pzz pxy pxz pyz enthalpy

restart 	${out_freq3} restart.lmp.${pid} restart2.lmp.${pid}
restart 	1000 restart.lmp.${pid} restart2.lmp.${pid}
restart 	1000 restart.lmp.0 restart2.lmp.${pid}
restart 	1000 restart.lmp.0 restart2.lmp.0


include         in.dump
dump            myDump all atom ${out_freq2} dump.water.${pid}
dump            myDump all atom 10000 dump.water.${pid}
dump            myDump all atom 10000 dump.water.0
dump            myDump2 all dcd ${out_freq2} dump.dcd
dump            myDump2 all dcd 10000 dump.dcd
dump_modify     myDump append yes
dump_modify     myDump2 append yes


variable natoms 	equal  "count(all)"                        # NUMBER ATOMS
variable H      	equal  "enthalpy/v_natoms"                 # ENTHALPY-per-atom
variable Vol      	equal  "vol/v_natoms"                 # volume-per-atom
fix AVG all 		ave/time ${out_freq} 1 ${out_freq} v_Vol v_H file vol_enthalpy.dat
fix AVG all 		ave/time 1000 1 ${out_freq} v_Vol v_H file vol_enthalpy.dat
fix AVG all 		ave/time 1000 1 1000 v_Vol v_H file vol_enthalpy.dat



fix 		1 all shake 1e-6 200 0 b 1 a 1
       0 = # of size 2 clusters
       0 = # of size 3 clusters
       0 = # of size 4 clusters
     336 = # of frozen angles
  find clusters CPU = 0.001 seconds
fix             2 all nph tri ${pressure} ${pressure} ${pressureDamp}
fix             2 all nph tri 9750 ${pressure} ${pressureDamp}
fix             2 all nph tri 9750 9750 ${pressureDamp}
fix             2 all nph tri 9750 9750 1000
fix             3 all temp/csvr ${temperature} ${temperature} ${tempDamp} ${seed}
fix             3 all temp/csvr 266.25 ${temperature} ${tempDamp} ${seed}
fix             3 all temp/csvr 266.25 266.25 ${tempDamp} ${seed}
fix             3 all temp/csvr 266.25 266.25 100 ${seed}
fix             3 all temp/csvr 266.25 266.25 100 745823


run             250000
PPPM initialization ...
  extracting TIP4P info from pair style
  using 12-bit tables for long-range coulomb (../kspace.cpp:340)
  G vector (1/distance) = 0.38339305
  grid = 24 30 32
  stencil order = 5
  estimated absolute RMS force accuracy = 0.0019553785
  estimated relative force accuracy = 5.8885644e-06
  using double precision FFTW3
  3d grid and FFT values/proc = 4080 384
Last active /omp style is kspace_style pppm/tip4p/omp
Neighbor list info ...
  update every 1 steps, delay 7 steps, check yes
  max neighbors/atom: 2000, page size: 100000
  master list distance cutoff = 10.8154
  ghost atom cutoff = 10.8154
  binsize = 5.4077, bins = 5 5 4
  1 neighbor lists, perpetual/occasional/extra = 1 0 0
  (1) pair lj/cut/tip4p/long/omp, perpetual
      attributes: half, newton on, omp
      pair build: half/bin/newton/tri/omp
      stencil: half/bin/3d/tri
      bin: standard
Per MPI rank memory allocation (min/avg/max) = 9.342 | 9.347 | 9.350 Mbytes
Step Temp PotEng TotEng E_pair E_mol Press Lx Ly Lz Volume Pxx Pyy Pzz Pxy Pxz Pyz Enthalpy 
23250000    274.41375   -4793.0395   -4244.1781   -4793.0395            0     9804.681    17.835139     23.04931    19.209236      7896.68    9684.2052    11165.443    8564.3945   -440.81173    875.68618   -914.36956   -3115.0223 
23251000     270.5962   -4825.7124   -4284.4865   -4825.7124            0    9651.0393    17.894664    23.069328    19.152124     7906.339    10659.925    8415.9859    9877.2068    1080.4541    1328.9806     923.5271   -3171.6653 
23252000    259.29453   -4806.6575   -4288.0364   -4806.6575            0    8670.7854    17.868446    23.050037    19.271401    7937.2799    6625.9506    9688.0023    9698.4033   -1524.7724    2308.6687   -398.53802   -3284.3315 
23253000    266.43492   -4821.7554   -4288.8526   -4821.7554            0     8600.783    17.964819    22.948824    19.169082    7902.8652    7500.1572    9212.2134    9089.9783   -104.12551   -484.92627     1118.205   -3297.5678 
23254000    257.94432   -4832.5097   -4316.5892   -4832.5097            0    9859.7015    17.792621    22.810849    19.451981    7894.8743    10853.639    11094.357    7631.1078   -268.95007     418.7211    1398.2374   -3181.3566 
23255000    252.32446   -4782.9504   -4278.2703   -4782.9504            0    8252.1234    18.061254    22.942636     19.12203    7923.6487    6280.7865    8899.8114    9575.7724   -2280.4401   -849.82314    1057.6511    -3324.669 
23256000     268.4452   -4796.9071   -4259.9835   -4796.9071            0    10820.907    17.830632    22.801632    19.373447    7876.6141    9575.3872    11121.137    11766.197   -1921.9936    180.91243    708.75651   -3016.9607 
23257000    292.65438   -4864.5161   -4279.1712   -4864.5161            0    9958.3096    17.923139    22.918611    19.164325    7872.1956    9184.1619    10680.309    10010.458   -565.58022    457.18859    49.424114   -3135.8786 
23258000    257.34241   -4785.1838   -4270.4672   -4785.1838            0    11565.204    17.904128    22.899361    19.179203    7863.3409    9891.4378    11306.409    13497.764   -360.25573      551.609   -1364.8068    -2944.184 
23259000    266.25504   -4775.1965   -4242.6535   -4775.1965            0    9802.8537     17.83462    23.003354    19.312376    7923.0197    11127.533    8954.1848    9326.8427    838.53126    744.05333    1173.5464   -3109.9425 
23260000    266.40385   -4793.2095   -4260.3689   -4793.2095            0    10574.614    17.984071    23.143758    19.019166    7916.1379    11199.444    8321.7794    12202.619   -60.961729   -551.06306    1753.6195   -3039.5429 
23261000    260.85661   -4807.7271   -4285.9817   -4807.7271            0    10712.717    17.754803     22.93101    19.342382    7874.9719    13112.668    10335.315     8690.169   -27.430475   -72.006096   -1831.6071   -3055.6434 
23262000    281.36161   -4796.5632   -4233.8052   -4796.5632            0    7584.0435    18.071693    22.964148    19.162288     7952.369    6969.9244    7615.8719    8166.3342    1655.8987    798.20694    1023.9954   -3354.2294 
23263000    276.90832   -4790.4582   -4236.6073   -4790.4582            0    9436.0275    17.704018    23.025732    19.397161    7907.2136    10463.385    9398.7463    8445.9515   -3344.0832   -667.64567   -1474.0875   -3148.4578 
23264000       273.17   -4823.2357    -4276.862   -4823.2357            0    9765.8887      17.8005    22.881481    19.354609    7883.1673    8753.2673    10609.252    9935.1467    527.72033    -223.9776    2562.3781   -3154.0982 
23265000    268.17215   -4804.4475   -4268.0701   -4804.4475            0    9494.2687    17.980302    22.841126    19.281277    7918.6343    9679.5669    10790.351     8012.888    409.68735    2035.5252   -85.390076    -3171.623 
23266000    266.11146   -4800.5404   -4268.2846   -4800.5404            0    9333.7997      17.9501    22.891707     19.26589    7916.5165    8391.0273    9842.5057    9767.8661    709.99557   -1126.4453    2308.5912   -3190.6575 
23267000     263.6367   -4793.8825   -4266.5766   -4793.8825            0    10098.846    17.983241    22.651591    19.310236    7866.0056    10061.413    11409.581    8825.5442   -1276.0389    117.23464   -605.92598   -3108.0609 
23268000    267.81634   -4832.1727   -4296.5069   -4832.1727            0    11394.739     17.94883     22.68022    19.305687    7859.0249    11743.965    11980.942    10459.309    557.56412    1028.1587   -1032.4958   -2990.4896 
23269000    272.28501   -4817.8781   -4273.2744   -4817.8781            0    10649.925    17.939141    22.651914    19.348419     7862.344    10188.529    12641.632     9119.614    810.19008   -91.647969    131.69157    -3052.109 
23270000    261.83458   -4802.9825    -4279.281   -4802.9825            0    9645.6964    18.196735    22.675708    19.151398    7902.3238    8759.6543    9971.5359    10205.899    423.54391   -919.65753     366.0231   -3167.6406 
23271000    262.77457   -4830.5931   -4305.0115   -4830.5931            0    8100.2954    17.921797    22.781946    19.433331    7934.5011    7537.3776    8154.3006    8609.2081    111.93947    866.27178   -446.44307   -3367.6732 
23272000    260.90449    -4802.321   -4280.4798    -4802.321            0    9413.5566    17.936384    22.922064    19.316271    7941.6712    10702.669    8726.5763    8811.4244    98.605503   -814.95187   -360.84035    -3190.191 
23273000    261.15418   -4835.1403   -4312.7997   -4835.1403            0    9487.3833    17.829437    22.957295    19.290514    7895.9091    8532.2352    10252.731    9677.1834    1847.7466     576.0331   -492.53154    -3220.292 
23274000    278.58115   -4790.2751   -4233.0784   -4790.2751            0    8237.5283    17.974611    23.014621    19.152787    7923.1028    7170.1791    9479.0955    8063.3104    -335.3835   -1116.7573   -1102.6819   -3281.2293 
23275000    287.09739   -4815.9504   -4241.7201   -4815.9504            0    10679.939    17.668865    23.049031    19.302785    7861.0629    9682.3989    10602.987     11754.43   -621.52951    35.432657    896.21015   -3017.3128 
23276000    268.47932   -4797.0418     -4260.05   -4797.0418            0    9235.8383    17.812344    23.115907    19.199371    7905.3118    9251.4417    8403.7623    10052.311     471.2632    15.469235     191.4311   -3195.2422 
23277000    283.39368   -4806.0859   -4239.2635   -4806.0859            0     9545.461     17.74041    23.296712    19.154355    7916.3649    10657.314    10172.727    7806.3422   -1165.9882   -413.42433   -1574.6901   -3137.2203 
23278000    265.90898   -4814.1585   -4282.3077   -4814.1585            0    11810.743    17.667387    23.096206    19.237778    7849.9676    12452.281    10847.913    12132.037    1565.7525   -362.15979    3246.4306   -2930.1698 
23279000    266.51856   -4804.7145   -4271.6445   -4804.7145            0     10353.99    17.896656    22.964092    19.203424     7892.232    10369.439    9801.0341    10891.497   -2239.4449    371.56647   -1753.8081   -3079.8991 
23280000     271.2395   -4786.8656   -4244.3531   -4786.8656            0     11497.47    17.882247    22.847718    19.280151    7877.2633    12635.719    12019.188    9837.5043    1222.8504    -348.2094     1491.141    -2923.503 
23281000    272.33949   -4805.1861   -4260.4735   -4805.1861            0    7298.1391    17.970586     22.91605    19.419198    7997.1141    7892.3708    6510.6698    7491.3766    217.93776    760.25831    3081.7756   -3409.2937 
23282000     269.9481   -4808.9876   -4269.0581   -4808.9876            0    8166.5739    17.973549    22.930966    19.269691     7942.019    6144.1857    8402.9137    9952.6221   -761.55589    531.58354   -906.04054   -3323.1548 
23283000    262.32998   -4794.2241   -4269.5317   -4794.2241            0    8496.2156    17.982692    22.751906     19.35708    7919.7657    7239.8269    10071.682    8177.1378   -374.82932   -146.01833    1054.3306   -3288.2047 
23284000    265.94579   -4839.2814   -4307.3569   -4839.2814            0     10189.96    17.949887    22.902356    19.211253    7897.6442    10361.864    10834.316    9373.6993   -1288.1023    14.259616    220.13332   -3133.6872 
23285000    265.87939   -4832.1017   -4300.3101   -4832.1017            0    12391.653     17.88513    22.690445     19.21772     7798.965    13130.169    12299.083    11745.708    -98.03897    625.35136     1390.535   -2890.8846 
23286000    252.88106   -4812.4223   -4306.6289   -4812.4223            0    9361.2506     18.01589    22.667661    19.383132    7915.6462    9099.0732    9567.5247    9417.1538   -749.36716    -166.0967   -609.34712   -3225.9514 
23287000    276.51698   -4822.4804   -4269.4123   -4822.4804            0    9062.0052    18.073122    22.627032    19.306514    7895.2272    9635.4666    8930.2512    8620.2978   -230.69372   -95.542911   -428.98963   -3225.9787 
23288000    273.63983   -4820.0419   -4272.7284   -4820.0419            0    10225.757    18.115088    22.496254    19.323728    7874.8368     8609.276     11603.34    10464.655    544.26415    -870.0929    195.84675   -3098.3369 
23289000    270.76024   -4823.3668   -4281.8128   -4823.3668            0    9327.1456    17.952131    22.650907    19.448439    7908.3587     9756.295    9073.0681    9152.0738    1197.8943     1017.923    1605.1273   -3206.0637 
23290000    271.57212   -4825.2471   -4282.0693   -4825.2471            0    9107.7044    18.098538    22.683217    19.297811    7922.3896    8612.2979    10171.972    8538.8437    602.70798      138.422   -426.48806   -3229.7658 
23291000    258.40393   -4786.9079   -4270.0681   -4786.9079            0    9406.1502    18.073108    22.694435    19.318746    7923.7573     9275.254    10439.162    8504.0346   -10.317553    562.59657     683.0752   -3183.0946 
23292000    263.26375   -4799.7674   -4273.2073   -4799.7674            0     10320.04    17.859027     22.80436    19.353776    7882.0897    12415.513    10047.644     8496.963   -955.55893   -96.480172   -1789.1954   -3086.8961 
23293000    265.04201   -4787.5175   -4257.4007   -4787.5175            0    9448.9751    17.977992    23.027496     19.13877    7923.2237    9522.7809     9437.646    9386.4984    90.432181   -31.060261   -1293.4738   -3165.5519 
23294000    267.36212   -4857.8813   -4323.1241   -4857.8813            0    8279.6145    17.835651     23.07644     19.29014       7939.5    8838.9476    7477.1831     8522.713    1444.8252     301.7898    346.44609   -3364.4319 
23295000    266.58293   -4836.0431   -4302.8443   -4836.0431            0    10085.526    17.699265    23.201113      19.0747    7832.8855    10217.248    10047.136    9992.1952    1603.8509    94.699118     2340.987   -3150.7282 
23296000    262.44114   -4810.9097    -4285.995   -4810.9097            0    12531.036    17.626932    23.028565    19.220288    7801.9563    15017.228    11122.094    11453.786   -135.23879   -467.79869   -180.74749   -2860.1695 
23297000    268.18656   -4807.5083    -4271.102   -4807.5083            0    10410.679    17.829171    23.016351    19.165397    7864.7595     10048.24    10004.494    11179.303    -704.4142   -178.65789   -1494.4342   -3077.0029 
23298000     263.2126   -4824.2211   -4297.7634   -4824.2211            0    9225.0208    17.762079    23.248874    19.085028    7881.1304     9872.253    8726.3814    9076.4281    381.25115    851.78029   -451.72413   -3237.4561 
23299000    267.94298   -4786.1524   -4250.2334   -4786.1524            0      11094.2     17.82346    23.145362    19.089643    7875.0588    10821.388    11753.279    10707.933   -441.42675    24.405778    236.44836   -2976.0683 
23300000    265.16517   -4825.2527   -4294.8896   -4825.2527            0    10095.136    17.714111    23.178199    19.213347    7888.6387    11804.845    9563.2368    8917.3244    2127.0931   -933.91133   -259.15277   -3133.4675 
23301000    267.97848   -4760.6781   -4224.6881   -4760.6781            0     6463.538    17.963957    23.151545    19.370363    8056.0055    6542.4927    6681.6946    6166.4267    678.35218    789.04643   -390.52853   -3465.2962 
23302000    256.18637   -4814.1331   -4301.7287   -4814.1331            0    10583.128    17.785315    23.022726    19.200702    7862.0434    9592.2921    11354.709    10802.382    1649.2307    456.93419    1668.4997   -3088.2689 
23303000    251.14301   -4810.7131    -4308.396   -4810.7131            0    11454.312    17.796608    22.842158    19.290856    7841.9826    12583.153    11141.043    10638.741    879.49863   -1059.9879   -1134.2262   -2998.3976 
23304000    284.93967   -4817.0899   -4247.1754   -4817.0899            0    9228.4042    17.788217    23.008615    19.335224    7913.5634    8877.2029    9899.0646     8908.945    -1555.578   -342.86396   -5.6279203   -3182.1142 
23305000    276.71349   -4806.9812     -4253.52   -4806.9812            0    10665.005    17.968603    22.808865    19.184908    7862.8086    9765.4647    11172.423    11057.128   -1091.4071     918.5172    315.12894   -3030.5532 
23306000    274.85259   -4778.3067   -4228.5676   -4778.3067            0    9983.6022    18.091582    22.654523    19.331673    7923.2053    8608.8518    10660.859    10681.095    1045.3498     1096.655    1674.6853   -3074.9441 
23307000     252.8455   -4820.1183   -4314.3961   -4820.1183            0    8267.8972    18.022051    22.729356    19.414748    7952.8553    7964.4263    9567.1044    7272.1608   -1168.8633   -11.182294   -1618.5855   -3355.4503 
23308000    261.28638   -4800.3619   -4277.7569   -4800.3619            0    9276.7154    17.981909    22.850179    19.333482    7943.9313    9616.6326    9660.5926    8552.9211   -1302.1944   -591.77143   -334.72891   -3203.0115 
23309000    272.95871   -4816.9961   -4271.0449   -4816.9961            0    10206.208    17.984267    22.609446    19.280643    7839.7852    9316.4819    10973.761    10328.382    -183.1347   -824.02985    1111.4523   -3104.1158 
23310000    262.31155   -4813.5207   -4288.8652   -4813.5207            0    9429.0103    18.077244    22.823208    19.202931    7922.7583    9892.1076     7996.474    10398.449   -344.65003    -886.8188   -780.01482   -3199.3873 
23311000     265.9263   -4782.8179   -4250.9324   -4782.8179            0    10331.227    17.950515    22.889949    19.199531     7888.826     9524.185    10651.789    10817.706    2048.6738    685.41883   -218.15021   -3062.3203 
23312000    282.44831   -4792.6088   -4227.6773   -4792.6088            0    8025.0987     17.81596    23.062582    19.421335    7979.8778    9319.9541    7556.2309    7199.1109   -796.60648    246.51921   -945.13526   -3293.7297 
23313000    283.43567    -4818.733   -4251.8266    -4818.733            0    8565.6883     18.00533    22.972759    19.159019    7924.7858    6727.4012    8893.8478    10075.816   -58.039255   -103.47914   -699.14748   -3261.8483 
23314000    269.38241   -4826.6777   -4287.8796   -4826.6777            0    8421.0611    17.811697    22.940014    19.426694    7937.7583    8609.3484    7788.7181    8865.1169   -203.63885   -487.73394    345.31826   -3313.0234 
23315000    258.89267   -4820.5946   -4302.7773   -4820.5946            0    9904.4735    18.024634    22.884466    19.093662    7875.8324     8617.213    9881.8725    11214.335   -1142.7483   -445.78437   -2591.1557   -3165.1402 
23316000    266.81548   -4764.9474   -4231.2835   -4764.9474            0    11863.587    17.796084     22.75153    19.407821    7857.9968    13529.348    11501.619    10559.793     423.0982    535.97537    1013.1927   -2871.7067 
23317000    269.83354   -4826.6773   -4286.9769   -4826.6773            0    8526.4417    18.183976    22.673104    19.215668    7922.3739    7482.8891    9099.6137    8996.8222    1340.6333   -937.63083     1190.236   -3301.8344 
23318000    270.32892   -4819.3689   -4278.6777   -4819.3689            0    8591.0162    17.901053    22.742453    19.478934     7930.144    9238.5786    7879.5944    8654.8755    129.13367   -2148.7945   -821.10571   -3285.1007 
23319000    263.69236   -4845.6403    -4318.223   -4845.6403            0    9428.0466     17.98519    22.773449     19.23867    7879.8673    7274.3554    10152.193    10857.592    2422.8023     481.1817    799.15925   -3234.7539 
23320000    262.58821   -4795.6894   -4270.4805   -4795.6894            0    9877.1829    17.965096    22.855193    19.285402    7918.5037     8812.501    10540.392    10278.656    190.70381    1603.2124   -137.17005   -3129.8313 
23321000    270.79651   -4814.7837   -4273.1572   -4814.7837            0    9985.7724     17.92094    22.910596    19.132313     7855.334    7439.5129    10723.778    11794.027     209.7053    164.07332     153.6812   -3129.1672 
23322000    277.63131    -4777.233   -4221.9361    -4777.233            0    9057.3466     17.85043    23.060547    19.272023    7933.1487    7839.4876    10026.629    9305.9234   -1032.9865   -204.06412   -2662.3655   -3174.0298 
23323000    269.51085   -4853.7582   -4314.7032   -4853.7582            0    10587.127    17.857948    22.971318    19.140943    7852.0091    11279.621    9399.9685    11081.791   -956.93071   -2297.1396    1341.9015   -3102.3343 
23324000    247.72267   -4818.2863   -4322.8103   -4818.2863            0    9393.2382    17.777698    23.089983    19.260453    7906.1603     9395.685    9227.9421    9556.0876    758.03364    361.00416    91.315528   -3239.7395 
23325000    270.75698   -4829.7368   -4288.1894   -4829.7368            0    9741.1909    17.976165    23.015404    19.060974    7886.0719    9162.4182    8568.7436    11492.411   -1028.5173   -944.17105    -143.7361   -3167.8524 
23326000    267.75136   -4806.7509   -4271.2151   -4806.7509            0     8321.237    17.767614    23.086902    19.382072    7950.5096    8470.1157     8195.446    8298.1493   -1875.1224   -1013.5109   -780.44517   -3306.3675 
23327000    254.71105   -4841.4127   -4331.9591   -4841.4127            0    8975.6005    17.907989    22.909602    19.206317    7879.6777    6536.5054    10295.533    10094.763    115.14396    601.42508    1049.6692   -3300.5099 
23328000    273.38325   -4780.0641   -4233.2638   -4780.0641            0     10050.72    18.118874    22.618325    19.327535     7920.783    10321.755    9971.9852    9858.4188     1009.059     651.4698    1622.7099   -3072.2399 
23329000    248.89794   -4792.5062   -4294.6796   -4792.5062            0    11060.804    17.890892    22.730693    19.327022    7859.7659    9953.1152    11849.741    11379.556    770.11684    195.08617    1938.5336   -3026.8169 
23330000    279.34916   -4805.8664   -4247.1336   -4805.8664            0    9161.6749    18.076146    22.769463    19.275609    7933.5348    7511.8557    10310.604    9662.5655    653.65755   -675.09546   -783.82267   -3187.1052 
23331000    273.94963   -4809.3454   -4261.4123   -4809.3454            0    10582.845    17.879621    22.687161    19.371197    7857.6906    9676.9178    11059.964    11011.653    -1290.486    -884.4482    41.270386   -3048.6567 
23332000    259.51116   -4835.2841   -4316.2297   -4835.2841            0    8687.2153    18.132045    22.706898    19.281123    7938.4723    7909.1446    9473.7615    8678.7397    1559.1926    116.11273    1838.5596   -3310.4719 
23333000    267.31793   -4798.0947   -4263.4258   -4798.0947            0    9534.1228    17.984001    22.724126    19.343046    7904.9361    10399.245    9474.6504    8728.4724   -313.09562   -340.02947   -981.49469   -3164.2808 
23334000    273.27522   -4779.6997   -4233.1155   -4779.6997            0    10235.542    18.090557    22.620707    19.266339     7884.194    12031.749     10139.25    8535.6274     -82.6436    781.47587    623.50455   -3056.2034 
23335000    275.00805   -4856.3425   -4306.2924   -4856.3425            0    8852.7665    17.861963    22.788323    19.457834    7920.1978    9180.4474    8462.3817    8915.4705   -853.31012   -648.61695   -197.96908   -3283.7274 
23336000    263.47351   -4822.6468   -4295.6673   -4822.6468            0    8848.4741    17.973855    22.977104    19.187982    7924.3897    7663.7495      9055.74     9825.933    549.02183   -379.41946   -18.538991   -3273.0571 
23337000    258.06014   -4813.9812   -4297.8291   -4813.9812            0     8045.853    17.571716    23.269851    19.383585    7925.7775    8720.8441    8688.5046    6728.2102    -1165.478    989.75257     820.2762   -3367.8143 
23338000    262.73259   -4802.7668   -4277.2691   -4802.7668            0    8416.8047    17.882826    23.281664    19.077673    7942.8356    9044.7351     7663.221     8542.458    1342.2177   -537.37892    1039.7386   -3302.2824 
23339000    250.84932   -4831.4919   -4329.7622   -4831.4919            0    9995.3467    17.781536     23.07926    19.219139    7887.2404    10366.806    10601.568    9017.6668    331.05831   -704.72051   -333.37592   -3180.0244 
23340000    265.40628   -4821.4237   -4290.5783   -4821.4237            0    9718.0022    17.898546    22.919863    19.218879    7884.2031    10719.685    8905.0621    9529.2596   -1303.6408    806.17254    -594.6638   -3173.1731 
23341000    264.35192   -4818.5279   -4289.7914   -4818.5279            0    10903.952    18.008126    22.790847    19.186206    7874.4114     10228.45    11527.487    10955.919   -780.11764   -981.97642   -592.57119   -3037.5792 
23342000     264.1088   -4811.0663   -4282.8161   -4811.0663            0    11048.729    17.806039    22.731962     19.42837    7863.9477    10018.337    12577.293    10550.557   -391.08103    1236.7601   -461.01125   -3015.6638 
23343000    269.99861   -4790.2022   -4250.1717   -4790.2022            0     11383.15    17.958492    22.882178    19.193554    7887.1961    10531.294    12300.682    11317.475   -45.307938    811.60198   -1431.3611   -2940.8059 
23344000    268.61478   -4825.8694   -4288.6066   -4825.8694            0     8370.046    17.881836    23.159022    19.207243    7954.2153    6554.1851    8923.5807    9632.3721   -343.27343    835.37155   -1272.2922   -3317.6472 
23345000     259.7965   -4830.2906   -4310.6655   -4830.2906            0    11149.763    17.775767    22.964662    19.167974    7824.6449    11950.939    10342.952    11155.397    282.77689   -559.44395    4.4549884   -3038.3168 
23346000    273.80259   -4805.9608   -4258.3218   -4805.9608            0    10557.046    17.720235    23.087724    19.231452    7867.9696    11052.745    10642.138    9976.2552   -776.41378    866.94225    277.41884   -3046.9402 
23347000    271.70711   -4828.6607   -4285.2129   -4828.6607            0    9219.3413    17.822834    23.151688    19.125007    7891.5262    11580.316    8043.4782    8034.2294   -641.57172    498.17537    398.46169   -3224.1606 
23348000    258.27401   -4799.8695   -4283.2896   -4799.8695            0    9371.7753    17.778145    22.993795    19.400342    7930.6082    9496.3041    9285.3636    9333.6583    366.93349    292.24864    2202.6884    -3199.352 
23349000    269.15619   -4835.9115   -4297.5658   -4835.9115            0    9309.7307    17.905117    22.972443    19.200989    7897.8329    9591.6096    9882.4749    8455.1075    118.13902     191.3154   -1373.7083   -3225.2544 
23350000    264.78207   -4792.7218    -4263.125   -4792.7218            0    11726.648     17.75689    23.019749    19.162019    7832.6507    13954.357    10857.648    10367.939   -93.797693   -911.78231    814.45255   -2923.5762 
23351000    257.39177   -4835.2185   -4320.4032   -4835.2185            0    8571.4016    17.698138    22.999746    19.467131     7924.148    12139.628    7263.5597     6311.017    -288.1657   -1339.1406    1329.3627   -3329.8443 
23352000    254.00525   -4791.9642   -4283.9223   -4791.9642            0    8515.3108    17.941675    23.040701     19.24176    7954.3276    8371.7364    9148.6764    8025.5197    5.6888776    2250.4156    1236.8424   -3296.0976 
23353000    266.79662   -4791.5192    -4257.893   -4791.5192            0    10863.285    17.875968    22.758501     19.38272    7885.4766    11522.658     11926.72    9140.4774     1350.147    668.81037    1142.0874    -3008.598 
23354000    271.78921   -4804.2362   -4260.6242   -4804.2362            0    10495.356    17.988105    22.738255    19.202283    7854.0817    10449.142    9985.6374    11051.289   -378.98202   -843.60135   -75.303976    -3058.447 
23355000    262.42729     -4760.65    -4235.763     -4760.65            0    9531.1961    17.958127    22.925345     19.28887    7941.1556    9269.3478    9507.5601    9816.6803    546.75279   -1201.1506   -757.06982   -3131.9208 
23356000    256.43971   -4835.1367   -4322.2256   -4835.1367            0    7822.4402    17.901034    22.917942    19.412688    7964.1493    7898.2232    8721.0378    6848.0597     547.0152    440.06393    -1213.448   -3413.6574 
23357000     268.5948   -4809.0191   -4271.7963   -4809.0191            0    9333.2708    18.040787    22.889593    19.165476    7914.3117    9291.9121    10155.285    8552.6151    1647.7648    290.98764    1647.2254   -3194.5304 
23358000    273.51808   -4807.1532   -4260.0832   -4807.1532            0    8890.6593    17.794131    22.957174    19.381707     7917.485    10846.799    7898.5539    7926.6251   -891.40231   -1097.4841   -188.23961   -3233.4931 
23359000        262.2   -4810.8609   -4286.4285   -4810.8609            0    9516.3467    17.677497    23.302987    19.150335    7888.7601    8818.4762    9937.6752    9792.8886   -1077.7989   -86.467308    988.79761   -3191.5778 
23360000    258.01559    -4774.343   -4258.2799    -4774.343            0    10161.173    17.760929    23.212438     19.16802    7902.4853    8067.7627    10807.919    11607.837    630.08523    357.14189    678.40847   -3087.2084 
23361000     281.7208   -4795.4721   -4231.9957   -4795.4721            0    9632.0372    17.756394    23.335115    19.025842    7883.3096    9302.9155    10000.019     9593.177   -150.07241    224.03525   -1318.6807   -3124.6006 
23362000    260.15432   -4788.8534   -4268.5126   -4788.8534            0    10552.345    17.826868    22.923612    19.224875    7856.3646    12094.169    10570.164    8992.7016   -1461.8713    137.37599    52.927387   -3059.4563 
23363000    256.94047   -4798.6648   -4284.7521   -4798.6648            0    11155.774    17.918205    22.692759    19.232269    7820.1004    13158.909    9470.3368    10838.076   -1887.6055   -607.20184    358.84736   -3012.4568 
23364000     280.3873    -4825.893   -4265.0838    -4825.893            0    8377.1955    17.977141    22.932968    19.246873    7934.8926    6731.8108    8748.0302    9651.7456   -331.40533    1082.3789     301.3451   -3295.6557 
23365000    262.80448   -4801.3893   -4275.7479   -4801.3893            0    9302.8816    17.725997    23.018262    19.405419    7917.8311    10920.005    7262.3332     9726.307    314.87438   -449.22749   -377.47554   -3201.5121 
23366000    265.60225   -4836.7759   -4305.5386   -4836.7759            0    8032.2014    18.008434    22.853315    19.258898    7926.0464    7338.9853    8076.0855    8681.5333   -575.11168    405.28147    364.30061   -3377.0703 
23367000      262.164   -4836.2174    -4311.857   -4836.2174            0     8991.725    17.583503    23.008201    19.498033    7888.2174    10330.293    8728.1432    7916.7387    176.05424     -509.971   -618.54434   -3277.4349 
23368000    267.10947   -4830.8494   -4296.5975   -4830.8494            0    11201.781    17.933458    22.802372     19.15447    7832.7493    11070.859    12142.229    10392.256    1322.4211   -1247.1746    734.25051   -3016.9888 
23369000     262.5242   -4831.8827   -4306.8018   -4831.8827            0    9514.2237    17.920686    22.846782    19.297443    7900.9524    10917.861    8901.9417    8722.8679    847.97088    453.36434   -2677.5305   -3210.5037 
23370000     278.2287   -4838.0153   -4281.5236   -4838.0153            0    10301.155    18.043947     22.50505    19.420085    7886.1066     10916.75    10153.279    9833.4372    1264.4034    713.16989    1367.6493   -3096.7797 
23371000    261.20144   -4825.5222   -4303.0871   -4825.5222            0    9642.0987    17.859099    22.872595    19.321571    7892.5515    10414.175    9728.3077    8783.8138     937.5579   -115.47515    1119.4985   -3193.2355 
23372000    268.60658   -4785.7906   -4248.5442   -4785.7906            0    10291.423    17.884393     22.83893    19.342632     7900.699    10674.183    9980.1304    10219.956   -1604.8761   -563.92485    1287.7154   -3062.7295 
23373000    261.94531    -4801.385    -4277.462    -4801.385            0    10055.962    18.008667    22.666771    19.311529    7882.9337    8650.1383    10594.082    10923.666    795.49305   -764.28529    2009.3859   -3121.3834 
23374000    269.66195   -4800.6654   -4261.3082   -4800.6654            0    11917.254    18.017058    22.421938    19.433269    7850.6009    10318.842    13757.473    11675.446    1428.2658    539.80823   -60.097639   -2896.8665 
23375000    265.66964   -4788.9827   -4257.6106   -4788.9827            0    9584.4133    18.136818    22.722606    19.257088    7936.1497    7612.8701     9451.178    11689.192    662.57942   -291.33525   -541.75875   -3148.3048 
23376000     260.0159   -4809.0076   -4288.9437   -4809.0076            0    9439.2743    17.855217    22.756354     19.38473    7876.3966     11386.49    10236.719    6694.6143   -1177.7377   -652.86164   -1443.4442   -3204.6621 
23377000    262.82548   -4826.5346   -4300.8511   -4826.5346            0    7750.2915    17.869768    22.928525    19.288648     7903.088    7718.5511    8167.2416    7365.0817    1195.9731    151.52639    862.56628   -3407.5647 
23378000    255.70929   -4819.4234   -4307.9732   -4819.4234            0    9068.6819    18.065544    22.970561    19.059988    7909.4314     7388.046    10428.794    9389.2057   -362.64758    240.96775   -1724.4774   -3261.8922 
23379000    271.60768   -4783.7475   -4240.4986   -4783.7475            0    8889.7519    17.868801    22.765717    19.506386    7935.1213    8740.6196    10166.098    7762.5377    1143.5169    920.79034   -1360.3255   -3211.7266 
23380000    250.04054   -4820.1069   -4319.9949   -4820.1069            0    8882.0548    17.933348     22.80908    19.302756    7895.6608    7871.1264     8775.835    9999.2029   -1344.0479    -527.4122   -2824.3576   -3297.2253 
23381000    245.55083   -4801.0578   -4309.9258   -4801.0578            0    11918.324    17.853633    22.749377    19.280493    7830.9464    12782.319    11488.695    11483.958    1800.4759   -274.33008    6.1987402   -2948.7778 
23382000    279.94499   -4818.1513   -4258.2268   -4818.1513            0    7966.3088    18.002531    22.819284    19.392809    7966.6601    7722.5937    8731.4452    7444.8875   -1456.9076    195.06382   -632.68557   -3332.6567 
23383000    267.72315   -4794.6824    -4259.203   -4794.6824            0    8221.0711    18.183006    22.447262    19.562913    7984.7729    7836.4924    10273.926    6552.7945   -1699.6394   -456.33762    697.64393   -3301.8616 
23384000    260.42993   -4828.9846   -4308.0925   -4828.9846            0    9944.3041    17.930153    22.667217    19.357392    7867.3601    9556.5752    10393.385    9882.9523   -234.25035    330.67832   -792.10049   -3167.1092 
23385000    264.71887   -4825.1716   -4295.7012   -4825.1716            0    11038.651     17.89729    22.825369     19.23152    7856.3119    11501.709    11882.278    9731.9662   -1967.1785   -107.30911   -216.94001   -3030.9339 
23386000    276.13594   -4813.1137   -4260.8077   -4813.1137            0    8710.7215    17.977802    22.987193    19.207308    7937.5971    6767.4896     10139.65     9225.025    1585.3192    947.43586    894.30087   -3252.4396 
23387000    274.32822   -4833.7132   -4285.0229   -4833.7132            0    10408.907     17.75162    22.874627    19.351172    7857.7696    8997.6351    10745.552    11483.535   -217.74692   -928.52142   -973.15516   -3092.1881 
23388000    265.31005   -4805.3472   -4274.6943   -4805.3472            0    11413.785    17.910052    22.975373    19.090081    7855.3795    11311.728    11001.128    11928.499   -1598.5273    1158.3517   -1886.6371   -2967.1008 
23389000    250.72768   -4805.5459   -4304.0596   -4805.5459            0    10348.743    17.692118    23.169348    19.147264    7848.7475    11615.757    10105.306    9325.1667    1573.0437   -618.53942   -741.54418    -3119.481 
23390000    278.67289   -4815.8934   -4258.5132   -4815.8934            0    8234.1514    17.829056    23.278548    19.058009    7909.7317    9134.9751    7137.1343    8430.3447   -1795.6712   -307.39494   -1157.4542     -3308.66 
23391000    263.85357   -4811.7685   -4284.0287   -4811.7685            0     9515.883    17.707174    23.118901    19.222936    7869.3013    10545.809    8783.1809    9218.6595     505.6504    14.468402    185.18038   -3191.9319 
23392000    269.03462   -4812.9206   -4274.8181   -4812.9206            0    10281.902    17.912472    23.113569    18.994543    7864.1424    9380.4643    9669.5277    11795.715   -571.38061    900.78288    179.78378   -3095.5821 
23393000    256.99779   -4803.6386   -4289.6113   -4803.6386            0    10076.643    17.476202    23.356616     19.24401    7855.1153    11476.134    9846.6186    8907.1748   -1171.3011     541.7431    541.53416   -3135.2432 
23394000     270.5118   -4812.3929   -4271.3359   -4812.3929            0     9666.783    17.867504    23.198632    19.038918    7891.6626    7963.2348    10073.184     10963.93    1261.7838    962.58275   -617.95042   -3158.7684 
23395000    258.84407   -4800.9382   -4283.2181   -4800.9382            0    8364.2405    17.867878     23.05565    19.284652    7944.4195      7155.54    8924.0395    9013.1418   -1676.2947    600.33529   -2835.4962    -3314.127 
23396000    259.41414   -4815.1869   -4296.3266   -4815.1869            0    9513.9278    17.907536    23.074317    19.100743    7892.5068    9211.1119    8851.5495    10479.122   -1531.4092   -68.897678   -546.51492   -3201.2344 
23397000    261.83056   -4835.3943   -4311.7008   -4835.3943            0    11254.605    17.766364    22.950272    19.229908    7840.8581    9856.4559    11949.352    11958.008   -295.50904    264.25316    602.14371   -3024.7268 
23398000    253.30772   -4808.2006   -4301.5538   -4808.2006            0    8936.1501    17.988737    22.884667    19.232395    7917.3281    8823.9479    10012.951    7971.5517    -81.08646   -790.58311    97.315104   -3269.7313 
23399000    268.60755   -4796.4718   -4259.2235   -4796.4718            0    8955.0656    17.922077    23.024865     19.18865    7918.2614    8975.9583    7524.8776    10364.361    1677.9155    49.278831   -1221.9166   -3225.0951 
23400000    255.18112   -4801.9812   -4291.5874   -4801.9812            0    9929.7782    17.863166    22.999373    19.163231    7873.0528    9390.0671    11146.478    9252.7899    518.35099   -84.389764    890.94397   -3151.4463 
23401000     267.0751   -4767.4857   -4233.3025   -4767.4857            0    8950.0028    17.766235    23.231526    19.289516     7961.492    9560.7137    8519.3617    8769.9331    1044.0771    136.85104    652.67604    -3194.116 
23402000    265.19148   -4806.7272   -4276.3115   -4806.7272            0    9138.7851    17.771199    23.284314     19.12939    7915.5535    8903.7834    8567.2019      9945.37   -415.70443   -449.88124    435.33369   -3221.3281 
23403000    272.76048   -4819.6135   -4274.0588   -4819.6135            0    8989.3015    18.024173    22.794951    19.313961    7935.3368    7376.7204    9653.2041      9937.98   -203.71824    2022.3931   -420.62773   -3233.7382 
23404000    254.87891   -4798.5781   -4288.7888   -4798.5781            0    10292.363    17.932466    22.726607      19.2973     7864.501    12246.015     10598.67    8032.4025   -359.18491   -620.06527   -475.16313   -3108.2993 
23405000    263.70871   -4822.3927   -4294.9427   -4822.3927            0    10528.064     17.82135    22.820463    19.372584    7878.6643    12227.671    10282.413    9074.1074    212.49387   -1493.0727    1236.4025   -3085.2446 
23406000    257.04058   -4832.9107   -4318.7978   -4832.9107            0    9215.3616    17.971896     22.78134    19.238762    7876.8084    7293.3923    9722.5366    10630.156    332.89126    226.02731   -488.55496   -3260.1816 
23407000    262.58315   -4811.6619   -4286.4632   -4811.6619            0    11265.192    17.919006    22.588533     19.39404    7850.0102    10441.651    11486.144     11867.78    989.27122   -172.91181    161.04972   -2996.7751 
23408000    264.35961   -4833.6009   -4304.8491   -4833.6009            0    11278.893    17.982252    22.616567    19.294437     7846.986    8735.9178     12694.12    12406.642   -325.51017    1557.4975    2875.5096   -3014.0898 
23409000    257.51851   -4817.1987   -4302.1299   -4817.1987            0     9889.805    17.942579    22.750486    19.342725    7895.7465    8627.5503    11243.775    9798.0902    120.02797   -4.6175759   -432.97542   -3163.3053 
23410000    277.22268   -4830.7816    -4276.302   -4830.7816            0    10503.483    17.974129    22.631633     19.34544    7869.4133    12779.015    10628.549    8102.8861   -291.90703   -58.808303    658.45482   -3070.8453 
23411000      267.397   -4833.0396   -4298.2126   -4833.0396            0    10732.799    17.796443    23.046872    19.168143    7861.8588     11553.66    10586.055    10058.681    831.12448    1763.1865   -133.97173   -3067.6205 
23412000    261.32574   -4797.9237   -4275.2399   -4797.9237            0     10438.64    17.792967    23.065578    19.231693    7892.7839    12033.744    10592.747    8689.4308   -994.91209    540.22711   -620.19566   -3073.6672 
23413000    260.27595   -4807.6022   -4287.0181   -4807.6022            0    9828.3006    17.806379    23.193639    19.129957    7900.5715    9461.5187    9552.6638    10470.719    1838.2257    168.76598    1438.4712   -3154.5843 
23414000    269.77459   -4837.7123   -4298.1298   -4837.7123            0    7991.3901     17.69394    23.552687    19.052686    7940.0128    8011.3372    7025.0656    8937.7674   -1632.1494   -531.53724    486.18752   -3372.7512 
23415000    262.87496   -4824.8976   -4299.1153   -4824.8976            0    6892.7094    17.767282    23.322244    19.185126    7949.7959    7447.6765    5385.7526    7844.6991    852.11904   -577.90124   -1036.9914   -3499.9772 
23416000    270.01829   -4788.2438   -4248.1739   -4788.2438            0    8801.9784    17.809387    23.210513     19.18634    7930.9615    8958.0276    8448.6419    8999.2656    1181.7577    282.49127   -242.52281   -3230.0936 
23417000    254.27572    -4797.627   -4289.0442    -4797.627            0    12452.426    17.687654    23.222955    19.026302    7815.2363     13446.37    11285.199    12625.707   -827.81449   -545.69131   -506.47206   -2869.7515 
23418000    262.79884   -4781.9967   -4256.3666   -4781.9967            0    9409.4861    17.721206    23.300506    19.132877    7900.2152    10047.784    8395.3112    9785.3632   -88.342123    596.60271   -2260.9323   -3172.2382 
23419000    280.80052   -4807.1357      -4245.5   -4807.1357            0    8966.7478    17.917699    23.133629    19.129531    7929.2177    8389.1025    7697.4166    10813.724    482.72549   -241.13477   -71.228628   -3208.5897 
23420000    269.48038   -4812.2708   -4273.2768   -4812.2708            0    8959.3191    17.580714    23.395451    19.181238    7889.4107    9664.8464     9214.292    7998.8188   -227.04672    178.71618    486.12801   -3242.4268 
23421000     271.0177   -4804.7076   -4262.6388   -4804.7076            0    8435.6059    17.686109    23.411011    19.122921    7917.8394     9188.592    7461.5578    8656.6678    1159.5948   -328.13122    -347.2952   -3288.5493 
23422000    269.92707   -4839.8545   -4299.9671   -4839.8545            0    8610.8626    17.803937    23.168872    19.163463    7904.8737    8773.3989    8121.3902    8937.7988   -1547.5352    311.76672    131.18364   -3307.2683 
23423000    258.07908   -4827.8915   -4311.7015   -4827.8915            0    9190.3816    17.801258     22.99323    19.291723    7896.2648     8329.804    9987.9739    9253.3668    378.67011    1715.0351    426.52169   -3253.3471 
23424000    262.97264    -4824.793   -4298.8152    -4824.793            0    8464.7206    17.822818    23.153635    19.261571    7948.5383    8350.9516    6101.4275    10941.783    -344.3509   -454.89154   -1074.5894    -3317.574 
23425000    257.56977   -4804.2253    -4289.054   -4804.2253            0    10203.368     17.83842    22.949162    19.209361    7863.8665    10635.723    9507.2897    10467.091    255.69023   -1596.2479   -109.85805   -3118.8662 
23426000    259.78416   -4800.7321   -4281.1317   -4800.7321            0    10844.836    17.919704    22.801056    19.236686    7859.8828    11257.708    10304.853    10971.947   -344.87758   -229.50113     1601.334   -3038.0062 
23427000    279.24403   -4812.9492   -4254.4267   -4812.9492            0    8416.5794    17.998507    23.011868    19.076871    7901.2447    7863.4357    7699.7963    9686.5062   -2206.6807   -1035.2909    390.28035   -3284.5712 
23428000    268.38474   -4801.1971   -4264.3945   -4801.1971            0    11034.717    17.852893    22.739946    19.437816    7891.2445    12634.877    9878.0698    10591.205     1453.422   -86.634266    871.24874   -2994.4562 
23429000    276.43649   -4804.0872   -4251.1801   -4804.0872            0    11173.485    17.944321    22.694487    19.306754    7862.4277     9940.075    11357.889    12222.492    1698.8667   -708.97303   -1123.5925   -2969.9674 
23430000     255.5227    -4790.116    -4279.039    -4790.116            0    8807.4998    17.975306    22.838339     19.32665    7934.0949    6307.5642    10092.771    10022.165   -78.229537   -204.43606    243.26876   -3259.9176 
23431000    265.10142   -4825.5969   -4295.3613   -4825.5969            0    11040.893    17.860764    22.708133    19.298694     7827.253    10362.657    11536.012    11224.011    1618.8781   -468.04393    427.21962   -3035.0162 
23432000    264.00844   -4807.9891   -4279.9396   -4807.9891            0    9469.4758    18.106638    22.665466    19.344453    7938.8746     9074.232    8554.3348    10779.861   -457.83309    52.508276   -719.89027   -3183.5605 
23433000    266.79362   -4843.3472    -4309.727   -4843.3472            0    9189.2173    18.020779    22.708145    19.304079    7899.5855    8343.6623    9983.6447     9240.345    1452.8136    266.80816   -408.52735   -3251.0616 
23434000     260.6279   -4826.9817   -4305.6937   -4826.9817            0     9314.749    17.907204    22.695324    19.441342    7901.1519     10536.32    8967.1173    8440.8099   -1066.6679   -2344.3212    -2088.427   -3232.3533 
23435000     281.6352    -4814.836   -4251.5308    -4814.836            0    9927.4986    17.914734    22.846371    19.289504    7894.9369    10180.131    9225.8981    10376.466    1070.7237   -988.26946     1849.591    -3108.483 
23436000    269.41086   -4806.3668   -4267.5118   -4806.3668            0    8814.1746     17.85366    23.014123    19.298879    7929.6454     8595.761    8608.1593    9238.6034    434.91286   -348.82346    284.12011     -3248.19 
23437000    264.40101   -4810.3674   -4281.5327   -4810.3674            0    12100.421    17.847708     22.88633    19.179429     7834.193    13220.175     10491.91    12589.178    449.49798    431.48764   -606.27729   -2899.0152 
23438000    284.39632    -4821.417   -4252.5892    -4821.417            0    9909.0119    17.935176     23.16073    18.938038    7866.7052    8753.3275    9377.4286    11596.279    604.41148   -534.22861     813.2964   -3115.7498 
23439000    256.55015   -4831.6677   -4318.5357   -4831.6677            0    8001.5603    17.855539    22.950464     19.26754    7895.7014    7962.1453    8872.5031    7170.0325   -631.57165   -367.24708    -1017.454   -3397.1504 
23440000    266.46048   -4762.8848    -4229.931   -4762.8848            0    10752.142    17.798067    23.004121    19.282227    7894.7011    11528.841    10985.137    9742.4472    2014.9872    129.91259    1117.4606   -2991.9711 
23441000    264.89619   -4799.2463   -4269.4212   -4799.2463            0    9289.6119    17.760077     23.27241    19.110245    7898.6427    9948.6944     9243.244    8676.8973     1090.518  -0.79521199   -1382.7304   -3199.3174 
23442000    266.49081   -4803.4888   -4270.4743   -4803.4888            0    10611.156    17.806925    23.085378    19.153089     7873.444    13196.123    9580.0636    9057.2826    917.70507    94.857208    460.71859   -3052.0365 
23443000    269.92577   -4823.5976   -4283.7128   -4823.5976            0      8941.32     17.81303    23.044382    19.147688    7859.9394    11005.033    7138.4183    8680.5087   -777.08002    -844.4676    878.02673   -3258.7768 
23444000    268.59642   -4802.0545   -4264.8284   -4802.0545            0    10275.765    17.697334    23.036533    19.256531     7850.603    9462.9382    10781.248    10583.109    1472.1497     934.7859   -1423.1655   -3088.3253 
23445000    262.85746     -4797.18   -4271.4326     -4797.18            0    10403.232    17.735195    23.075445     19.23963    7873.7708    12421.648    9274.8728    9513.1759   -888.87727    248.38184   -440.30159   -3076.8204 
23446000    264.89302   -4830.9558    -4301.137   -4830.9558            0    7118.7229    18.053755    23.000697    19.215351     7979.154    7066.2432    6502.7449    7787.1806    1073.7047    265.43484    1165.8248   -3472.7471 
23447000    265.39224   -4814.8476   -4284.0303   -4814.8476            0    9813.1952    17.986268    22.743008    19.344776    7913.2096    11144.047    10112.546    8182.9929     721.6663   -200.65644   -314.28027   -3151.5283 
23448000    268.97632   -4806.2753   -4268.2894   -4806.2753            0    10946.513    18.069516    22.647572    19.240398    7873.7611    10890.988    11640.849    10307.702    918.50304    304.98033   -57.710177   -3011.2933 
23449000     268.9759   -4784.7086   -4246.7236   -4784.7086            0    10601.959    17.807069    22.639375    19.549575    7881.2337    13067.559    10152.393     8585.926    2044.5979   -939.67974    874.18134   -3028.1374 
23450000    255.80922    -4803.086    -4291.436    -4803.086            0    9804.5293    17.904458    22.865749     19.24629    7879.4087    8619.6065    10538.846    10255.136   -1511.7498    164.90197    217.59652   -3164.7672 
23451000     264.0378   -4810.4569   -4282.3486   -4810.4569            0    9363.1093    17.895349    23.030308    19.197672    7912.0403     11111.73    8780.6794    8196.9182    1467.4343    272.15063   -261.96512   -3201.9489 
23452000    275.40845   -4829.4608   -4278.6099   -4829.4608            0     10237.24    17.760736    22.937888    19.263217    7847.7145    10715.991    10934.154    9061.5763    399.37558   -776.46496   -633.09645   -3106.9489 
23453000    254.27486     -4829.33   -4320.7489     -4829.33            0    8495.7986    17.860661    23.118962     19.20074    7928.3688    8278.3303     8305.697    8903.3685    136.00453     435.2648    316.26874   -3338.4041 
23454000    268.04734   -4857.9414   -4321.8136   -4857.9414            0    9441.7568    17.890571    22.903512    19.235939    7882.0591    9939.1266    8910.6872    9475.4567    161.33438   -371.50768   -1821.4038   -3236.4672 
23455000     264.0588   -4831.8809   -4303.7307   -4831.8809            0    10324.735    17.665587    23.028373    19.369207    7879.5818    11690.353    9963.6554     9320.196    -210.6294    646.69989    500.97764   -3117.2574 
23456000    267.71657   -4834.1698   -4298.7036   -4834.1698            0    7876.8378    17.856153    23.076065    19.229385     7923.463    8938.8641    7146.1337    7545.5156   -311.11359    63.733946    804.06497    -3388.491 
23457000    261.05513   -4806.8838   -4284.7412   -4806.8838            0    9897.9388    17.768716    23.029726    19.309194    7901.4891    9749.1533    9893.0681    10051.595   -1160.9552    803.02476    734.81815   -3144.1511 
23458000    264.79321   -4789.8484   -4260.2293   -4789.8484            0    8329.9215    17.983722     23.15256    19.110722    7957.1163    8860.6426    7660.0256    8469.0962    316.70178    528.80428   -828.30314   -3293.5721 
23459000    272.57384   -4839.9266   -4294.7453   -4839.9266            0    7350.9298    17.876508    23.012171     19.33066    7952.1942    7657.0036    7795.6174    6600.1685   -299.38183    802.16851   -1973.9034   -3442.2242 
23460000    273.46314   -4806.9034   -4259.9433   -4806.9034            0    9630.2617    17.908602    22.984811    19.184645    7896.8955     9584.052    10287.685    9019.0485     427.1413    89.767139    1647.4713   -3150.8442 
23461000    265.22868   -4809.9793   -4279.4891   -4809.9793            0    7728.7789    17.827698    23.018399    19.415167    7967.3061    7492.4543     8367.517    7326.3653   -2087.5524   -295.49843    76.710575   -3381.4438 
23462000    265.22729   -4808.4002   -4277.9128   -4808.4002            0    10260.611    17.924521    22.924528    19.102008    7849.2286    10727.677    8932.8284    11121.327   -3159.7795   -1462.5617    465.41485   -3103.3505 
23463000     265.8531   -4809.3744   -4277.6354   -4809.3744            0    9757.2762    17.862286    22.922089    19.276771    7892.6984    9994.2701    10010.907    9266.6514   -491.82885     161.9215   -1041.4714   -3154.5055 
23464000    264.72365   -4810.9557   -4281.4757   -4810.9557            0    10841.457    17.942457    22.891257    19.168943    7873.1715     10040.07    12431.802    10052.498   -1866.4146    1137.9264   -100.73078   -3036.6366 
23465000    260.43815   -4846.8527   -4325.9442   -4846.8527            0    11161.339    17.779602    22.833851    19.293534    7832.7266     10494.34    11764.899    11224.776    315.41654    56.119584   -663.43668    -3050.959 
23466000    267.30045   -4821.6621   -4287.0281   -4821.6621            0    9150.7432    17.984964    22.765505    19.311495    7906.8366    7541.3983    10701.404    9209.4277    1182.0255    627.04548   -189.35956   -3231.8276 
23467000    265.23952   -4852.6587   -4322.1469   -4852.6587            0    7674.5067    17.918504    22.942028    19.367479    7961.7153    6666.4648    9362.9374    6994.1178    167.50109    513.82873   -542.70094   -3431.0334 
23468000    270.42827   -4810.0268   -4269.1368   -4810.0268            0    7790.2317    18.053448    22.891474    19.234422    7949.0101    7558.5045    7534.4682    8277.7223     606.0973   -2367.9971   -235.27676   -3366.0296 
23469000       262.23    -4807.522   -4283.0296    -4807.522            0    9980.7139     17.80637    22.926749    19.285408     7873.117    10423.439     10958.56    8560.1434     944.0299    1394.5463   -690.68992   -3137.0307 
23470000    253.65077   -4827.4193   -4320.0864   -4827.4193            0    8326.8153    18.014648    22.829676    19.221483    7905.1918    6879.6818    8931.6871    9169.0769    620.26915    557.13508    699.24159   -3360.0952 
23471000    267.04251   -4814.2914   -4280.1734   -4814.2914            0    11127.558    17.685365    23.071789    19.222142    7843.2685    13535.395    9923.3174     9923.961    -467.5653    -824.8809    373.84325   -3007.3363 
23472000     259.8103   -4838.0368   -4318.3841   -4838.0368            0    10422.065      17.9013    22.967558    19.145131    7871.5041    9789.6272    10367.524    11109.044    170.49198    22.765682   -814.75603   -3121.9538 
23473000    244.32243   -4805.8195   -4317.1444   -4805.8195            0    8836.0809    17.728276    23.181053    19.209464    7894.3235      10229.7     8230.261    8048.2818    348.59341   -693.25396    496.85648   -3299.8411 
23474000    285.65702   -4853.2974   -4281.9481   -4853.2974            0    9141.6507     18.03609    22.920801    19.142071     7913.363    8385.6747    9104.5567    9934.7206    1757.4742    324.84776    249.57131   -3226.9259 
23475000     259.4505   -4815.5791   -4296.6461   -4815.5791            0    11459.558    17.718577    23.018586    19.205978    7833.2849    10558.424    11994.565    11825.686    156.04007     1066.547    583.98862   -2987.5013 
23476000    263.76516   -4822.9776   -4295.4147   -4822.9776            0    8643.7951    17.853103    23.129648    19.211486    7933.1141    8832.4494    7264.5007    9834.4353    945.48526   -138.85434   -525.13433   -3295.3593 
23477000    301.24221   -4804.6392   -4202.1175   -4804.6392            0    12386.738    17.644714    23.302054    19.068439    7840.1426    12416.321    11856.328    12887.564   -712.58016     446.6064    17.831067   -2785.8125 
23478000    266.63158   -4792.5772   -4259.2811   -4792.5772            0    9031.1708    17.855589    23.165639    19.200032    7941.8268    10742.909    7987.6834    8362.9203   -242.58054    538.93208    1087.2362   -3213.2603 
23479000    266.68089   -4799.4608   -4266.0661   -4799.4608            0    9775.2484    17.570004    23.331141    19.269433    7899.0848    10808.067    9434.6889    9082.9895   -236.97256    -36.41397    916.44753    -3139.957 
23480000    282.20727   -4798.9449   -4234.4955   -4798.9449            0    9183.4987    17.934055      23.0193    19.168659    7913.3861     7293.758    9086.9154    11169.823   -1636.8213   -753.51557   -1659.4088   -3174.6406 
23481000    272.21824   -4792.2586   -4247.7885   -4792.2586            0    11552.767    17.830602    22.805056     19.34469    7866.0906    11925.406     11014.19    11718.707    184.29778   -916.60197    2099.1756   -2922.4681 
23482000     266.0578   -4804.2116   -4272.0632   -4804.2116            0    10080.894    18.037915    22.756414    19.272132    7910.7911    10644.957    10047.738    9549.9877   -124.28212   -1193.3951   -809.01411   -3109.0226 
23483000    257.80425   -4798.5797   -4282.9393   -4798.5797            0     12434.55    17.769707    22.691216    19.411596     7827.071    14274.113    11559.959    11469.577   -939.09361    -1242.648    646.66149   -2863.5379 
23484000    270.46964   -4800.7444   -4259.7717   -4800.7444            0     11390.81    17.907068    22.939941    19.161476    7871.2866    11479.181    11287.505    11405.745    195.14255   -5.4388456    667.35876   -2952.1678 
23485000    268.37675   -4842.6757    -4305.889   -4842.6757            0    10466.325    17.948316    22.710307    19.300094    7866.9456    8380.4812    12023.636    10994.857   -1168.9218   -38.254008   -1360.5083   -3105.0736 
23486000    270.15818   -4839.4639   -4299.1141   -4839.4639            0    8389.4062    18.133735    22.635914    19.398781    7962.6886    8668.4914    8045.9122     8453.815   -895.27165   -119.86844   -1447.2718   -3324.8722 
23487000    249.07322   -4792.5699   -4294.3927   -4792.5699            0    9587.7028    18.021069    22.627354    19.379305    7902.2817    10052.021    10170.259    8540.8288   -433.89268    376.57761   -1256.9996   -3189.4419 
23488000    264.39203   -4781.4474   -4252.6307   -4781.4474            0    9425.6774    17.815946    22.704874    19.518373     7895.354    9340.6954     10488.03    8448.3063    188.00117   -583.85849     1474.573   -3167.3051 
23489000    273.72969    -4826.647   -4279.1538    -4826.647            0    10841.437    18.077414    22.631569    19.226409     7865.913    10514.666    11184.268    10825.375   -1542.4334    398.78652   -1123.9577   -3035.4646 
23490000    267.34055   -4791.2238   -4256.5096   -4791.2238            0    9362.9785    18.080894    22.525306    19.431606    7914.0591    9966.8874    9373.3719     8748.676   -1.5548966   -622.65976    -1504.483   -3175.8493 
23491000    245.85379   -4800.6421   -4308.9041   -4800.6421            0    9571.9227     18.01036    22.594448    19.405629    7896.8131    9931.4981     10094.42    8689.8494   -235.83239   -104.18439   -516.49874   -3206.5353 
23492000    261.38067   -4820.1228   -4297.3292   -4820.1228            0    7713.2007    18.181152    22.500796    19.442045    7953.5539    7384.8067    9264.2176    6490.5779   -1804.1034    25.786898   -489.09869   -3402.6409 
23493000    273.37551    -4795.228   -4248.4433    -4795.228            0    10669.878     18.11707    22.498759    19.334638    7881.0226    8372.8388    11786.335    11850.459    32.574179    538.55829    179.88205   -3022.0834 
23494000    274.66346    -4805.974   -4256.6132    -4805.974            0    10781.664    17.904136    22.509809    19.544757    7876.9026    10479.935    12126.691    9738.3656    -528.7383    436.46291     66.61292   -3018.0529 
23495000    269.66706   -4779.7139   -4240.3465   -4779.7139            0    9995.5994    18.000324    22.661999    19.383462    7906.9663     7939.365    11011.539    11035.894    464.96917   -1017.3509    934.05111    -3087.704 
23496000    263.40922   -4812.6996   -4285.8486   -4812.6996            0    8107.7501     17.95211    22.917933     19.21555    7905.7623    7192.6981    8053.0571    9077.4952    184.87663    211.76529    -644.6955   -3351.0458 
23497000    269.40598   -4826.4127   -4287.5675   -4826.4127            0    8188.6385    17.866288    23.084669    19.194874    7916.6827     10876.48    6348.9596    7340.4763    155.06308     324.8791   -1307.8753   -3342.1343 
23498000    270.22287   -4784.0568   -4243.5776   -4784.0568            0    11012.275    17.721946     23.16482    19.145185    7859.5907    11804.035    9064.8669    12167.923    1529.9467   -124.15508    106.70217   -2981.3059 
23499000    258.57488   -4813.1411   -4295.9594   -4813.1411            0    7768.9508    17.856286    23.271891    19.076586    7927.2665    7310.4909    7533.7068    8462.6548   -496.05739    143.02306   -2671.4166   -3397.7828 
23500000    271.53429   -4779.3386   -4236.2365   -4779.3386            0    10637.825    17.643602    23.357474    19.095223    7869.3317    11552.578    9415.1534    10945.743    178.63491   -432.37821    1139.8264   -3015.3745 
Loop time of 490.683 on 64 procs for 250000 steps with 1008 atoms

Performance: 88.041 ns/day, 0.273 hours/ns, 509.494 timesteps/s
99.1% CPU use with 64 MPI tasks x 1 OpenMP threads

MPI task timing breakdown:
Section |  min time  |  avg time  |  max time  |%varavg| %total
---------------------------------------------------------------
Pair    | 28.399     | 32.63      | 36.597     |  33.2 |  6.65
Bond    | 0.27096    | 0.28018    | 0.29348    |   0.8 |  0.06
Kspace  | 230.14     | 237.05     | 246.25     |  21.7 | 48.31
Neigh   | 4.427      | 5.0172     | 5.4707     |  11.0 |  1.02
Comm    | 90.422     | 98.182     | 107.36     |  35.0 | 20.01
Output  | 1.6901     | 1.6915     | 1.7101     |   0.2 |  0.34
Modify  | 105.63     | 109.09     | 113.28     |  22.8 | 22.23
Other   |            | 6.748      |            |       |  1.38

Nlocal:        15.7500 ave          20 max          12 min
Histogram: 4 5 5 12 0 17 11 6 2 2
Nghost:        2513.23 ave        2531 max        2495 min
Histogram: 5 5 5 8 6 9 10 7 6 3
Neighs:        5306.75 ave        6798 max        4019 min
Histogram: 4 5 5 11 15 3 11 6 2 2

Total # of neighbors = 339632
Ave neighs/atom = 336.93651
Ave special neighs/atom = 2.0000000
Neighbor list builds = 9794
Dangerous builds = 0

unfix		3
unfix		2
unfix		1

write_data	data.final.${pid}
write_data	data.final.0
System init for write_data ...
PPPM initialization ...
  extracting TIP4P info from pair style
  using 12-bit tables for long-range coulomb (../kspace.cpp:340)
  G vector (1/distance) = 0.38392683
  grid = 24 30 32
  stencil order = 5
  estimated absolute RMS force accuracy = 0.0019016469
  estimated relative force accuracy = 5.7267531e-06
  using double precision FFTW3
  3d grid and FFT values/proc = 3825 384
Last active /omp style is kspace_style pppm/tip4p/omp
WARNING: Not all mixed pair coeffs generated from mixing. Use write_data with 'pair ij' option to store all pair coeffs. (../write_data.cpp:312)

write_restart   restart.lmp.${pid}
write_restart   restart.lmp.0
System init for write_restart ...
PPPM initialization ...
  extracting TIP4P info from pair style
  using 12-bit tables for long-range coulomb (../kspace.cpp:340)
  G vector (1/distance) = 0.38392683
  grid = 24 30 32
  stencil order = 5
  estimated absolute RMS force accuracy = 0.0019016469
  estimated relative force accuracy = 5.7267531e-06
  using double precision FFTW3
  3d grid and FFT values/proc = 3825 384
Last active /omp style is kspace_style pppm/tip4p/omp
Total wall time: 0:08:10
