LAMMPS (30 Jul 2021)
Processor partition = 0
  using 2 OpenMP thread(s) per MPI task
using multi-threaded neighbor list subroutines
variable        pid world 0 1
variable        phase world IceV IceIII

shell cd ${phase}
shell cd IceV
include Restart.lmp
echo both
log log.lammps
#include		in.partitions
include		in.temp
variable        temperature equal 221.47
variable	tempDamp equal 100.0
include		in.pressure
variable        pressure equal 7619.5
variable        pressureDamp equal 1000.0 # This is 1 ps
include		in.seed
variable        seed equal 745823

units		real
atom_style	full
read_restart    restart.lmp.${pid}
read_restart    restart.lmp.0
Reading restart file ...
  restart file = 30 Jul 2021, LAMMPS = 30 Jul 2021
  restoring atom style full from restart
  triclinic box = (-3.1475309 -0.14085060 0.0076410787) to (14.757530 22.720850 19.222357) with tilt (-0.31895682 -6.6871482 0.32853397)
  2 by 4 by 4 MPI processor grid
  restoring pair style lj/cut/tip4p/long/omp from restart
  restoring bond style harmonic/omp from restart
  restoring angle style harmonic/omp from restart
  1008 atoms
  672 bonds
  336 angles
Finding 1-2 1-3 1-4 neighbors ...
  special bond factors lj:    0        0        0       
  special bond factors coul:  0        0        0       
     2 = max # of 1-2 neighbors
     1 = max # of 1-3 neighbors
     1 = max # of 1-4 neighbors
     2 = max # of special neighbors
  special bonds CPU = 0.002 seconds
  read_restart CPU = 0.010 seconds

include 	in.setup
variable	out_freq equal 1000
variable	out_freq2 equal 10000
variable	out_freq3 equal 1000

timestep	2.0

neigh_modify    delay 7 every 1

include		in.tip4p
# This is TIP4P/Ice

# create groups ###
group ox type 2
336 atoms in group ox
group hy type 1
672 atoms in group hy

# set charges - beside manually ###
set group ox charge -1.1794
Setting atom values ...
  336 settings made for charge
set group hy charge 0.5897
Setting atom values ...
  672 settings made for charge

# ### TIP3P Potential Parameters ###
pair_style lj/cut/tip4p/long/omp 2 1 1 1 0.1577 8.5
pair_coeff 1 1*2 0.000 0.000
pair_coeff 2 2 0.21084 3.1668
bond_style  harmonic
bond_coeff  1 450 0.9572
angle_style harmonic
angle_coeff 1 55 104.52
kspace_style pppm/tip4p/omp 1.0e-5
pair_modify tail yes

thermo          ${out_freq}
thermo          1000
thermo_style    custom step temp pe etotal epair emol press lx ly lz vol pxx pyy pzz pxy pxz pyz enthalpy

restart 	${out_freq3} restart.lmp.${pid} restart2.lmp.${pid}
restart 	1000 restart.lmp.${pid} restart2.lmp.${pid}
restart 	1000 restart.lmp.0 restart2.lmp.${pid}
restart 	1000 restart.lmp.0 restart2.lmp.0


include         in.dump
dump            myDump all atom ${out_freq2} dump.water.${pid}
dump            myDump all atom 10000 dump.water.${pid}
dump            myDump all atom 10000 dump.water.0
dump            myDump2 all dcd ${out_freq2} dump.dcd
dump            myDump2 all dcd 10000 dump.dcd
dump_modify     myDump append yes
dump_modify     myDump2 append yes


variable natoms 	equal  "count(all)"                        # NUMBER ATOMS
variable H      	equal  "enthalpy/v_natoms"                 # ENTHALPY-per-atom
variable Vol      	equal  "vol/v_natoms"                 # volume-per-atom
fix AVG all 		ave/time ${out_freq} 1 ${out_freq} v_Vol v_H file vol_enthalpy.dat
fix AVG all 		ave/time 1000 1 ${out_freq} v_Vol v_H file vol_enthalpy.dat
fix AVG all 		ave/time 1000 1 1000 v_Vol v_H file vol_enthalpy.dat



fix 		1 all shake 1e-6 200 0 b 1 a 1
Finding SHAKE clusters ...
       0 = # of size 2 clusters
       0 = # of size 3 clusters
       0 = # of size 4 clusters
     336 = # of frozen angles
  find clusters CPU = 0.002 seconds
fix             2 all nph tri ${pressure} ${pressure} ${pressureDamp}
fix             2 all nph tri 7619.5 ${pressure} ${pressureDamp}
fix             2 all nph tri 7619.5 7619.5 ${pressureDamp}
fix             2 all nph tri 7619.5 7619.5 1000
fix             3 all temp/csvr ${temperature} ${temperature} ${tempDamp} ${seed}
fix             3 all temp/csvr 221.47 ${temperature} ${tempDamp} ${seed}
fix             3 all temp/csvr 221.47 221.47 ${tempDamp} ${seed}
fix             3 all temp/csvr 221.47 221.47 100 ${seed}
fix             3 all temp/csvr 221.47 221.47 100 745823


run             250000
PPPM initialization ...
  extracting TIP4P info from pair style
  using 12-bit tables for long-range coulomb (../kspace.cpp:340)
  G vector (1/distance) = 0.37980505
  grid = 24 27 32
  stencil order = 5
  estimated absolute RMS force accuracy = 0.0023878492
  estimated relative force accuracy = 7.1909371e-06
  using double precision FFTW3
  3d grid and FFT values/proc = 5355 672
Last active /omp style is kspace_style pppm/tip4p/omp
Neighbor list info ...
  update every 1 steps, delay 7 steps, check yes
  max neighbors/atom: 2000, page size: 100000
  master list distance cutoff = 10.8154
  ghost atom cutoff = 10.8154
  binsize = 5.4077, bins = 5 5 4
  1 neighbor lists, perpetual/occasional/extra = 1 0 0
  (1) pair lj/cut/tip4p/long/omp, perpetual
      attributes: half, newton on, omp
      pair build: half/bin/newton/tri/omp
      stencil: half/bin/3d/tri
      bin: standard
Setting up Verlet run ...
  Unit style    : real
  Current step  : 8250000
  Time step     : 2
Per MPI rank memory allocation (min/avg/max) = 10.31 | 10.32 | 10.33 Mbytes
Step Temp PotEng TotEng E_pair E_mol Press Lx Ly Lz Volume Pxx Pyy Pzz Pxy Pxz Pyz Enthalpy 
 8250000    230.47948   -4904.5039   -4443.5165   -4904.5039            0    9678.0968    17.905061      22.8617    19.214716    7865.3543    9236.0214    9991.2152    9807.0539    -550.3399    1137.8548   -1216.2497   -3333.3602 
 8251000    220.45101   -4917.4627   -4476.5335   -4917.4627            0    9113.0801    17.930674    22.770367    19.246083     7857.945    10748.754     8813.331    7777.1556    506.27294    301.42365   -543.13452   -3432.1739 
 8252000    218.55074   -4915.9536   -4478.8251   -4915.9536            0    7112.2538    18.023921    22.749881    19.428436    7966.4762    6649.8446     6918.234     7768.683    175.73534   -115.07504   -317.57791   -3652.5029 
 8253000    215.00212   -4913.0411   -4483.0103   -4913.0411            0    6934.5101    18.001012    22.817414    19.318366    7934.7589    8545.4294    6216.3696    6041.7312    720.10358   -976.90214    954.95927   -3680.5466 
 8254000     217.4218   -4937.5931   -4502.7226   -4937.5931            0    6457.8558     17.92268     22.82287    19.341747    7911.6836    6213.6946    7297.2097    5862.6631   -720.16025   -679.97667    288.73886   -3757.5907 
 8255000    216.21603   -4895.1336   -4462.6749   -4895.1336            0    9042.1467    17.819536    22.959526    19.255691    7878.0444    11125.401    7004.4218    8996.6176    992.84435   -479.49396   -519.07716   -3423.7937 
 8256000     228.3268   -4919.1246   -4462.4428   -4919.1246            0    7577.7154    18.011925    22.887839    19.230923    7928.0256    8084.7724    6951.9753    7696.3986    243.44555    91.145218    1495.1235   -3586.2913 
 8257000    219.27834   -4916.3814   -4477.7976   -4916.3814            0    6863.2402    17.856986    22.869504    19.423726    7932.2694    9332.1669    4761.0229    6496.5307   -840.68946   -106.29025    681.63307   -3683.8304 
 8258000    221.12661   -4908.2655    -4465.985   -4908.2655            0    7651.6286     17.90921    22.852412     19.30854    7902.3798    9787.3634    7061.0553    6106.4671    143.82426    692.27046    758.11315   -3584.1493 
 8259000    230.83729    -4908.684   -4446.9809    -4908.684            0    8407.9937    18.075627    22.797405    19.110778    7875.1194    6446.2263    8284.5728    10493.182   -500.60399   -716.33703   -670.15111   -3481.3183 
 8260000    224.09585    -4908.635   -4460.4157    -4908.635            0    7490.2055    17.885785    22.961083    19.310562    7930.4037    8851.7995    7241.1311     6377.686    -96.79899   -537.83132    1040.6307   -3594.1224 
 8261000    220.23082    -4914.955   -4474.4661    -4914.955            0    6435.8192    17.929703    23.164036    19.106079    7935.2187    6140.0383    5569.6227    7597.7967   -210.53787    310.71983   -348.54962   -3729.6679 
 8262000    239.34313   -4904.7273   -4426.0115   -4904.7273            0     6982.221    17.842758    23.042595    19.260729    7918.9223    7441.1213    7157.3471    6348.1946   -1082.8727    300.08619    532.44837   -3619.6393 
 8263000    236.39148   -4905.4485   -4432.6364   -4905.4485            0     9174.591    17.781874    22.861217     19.28601    7840.0574    9270.3485    9289.7074    8963.7173   -445.34792    434.29179   -1472.5723    -3383.621 
 8264000    223.33539   -4925.2251   -4478.5268   -4925.2251            0    7719.5871    18.064167    22.839597    19.130645    7892.8888    7074.6598    7337.5012    8746.6003   -1842.2748   -536.41809   -1511.2994   -3589.9275 
 8265000    224.05498   -4920.1537   -4472.0161   -4920.1537            0    8192.7413    17.900018    22.714213    19.496663    7927.0471    9305.4293    7725.5638    7547.2308    963.79855   -66.042837     1410.113   -3524.8709 
 8266000    218.85188   -4905.4842   -4467.7534   -4905.4842            0    8412.3177    18.035289    22.736019    19.244434    7891.1935    8917.2385    8354.8589    7964.8555    -271.4538    1462.2399   -2450.1972   -3499.6221 
 8267000    223.01033   -4908.8013   -4462.7531   -4908.8013            0    8453.2058    18.023959    22.736628     19.20618    7870.7704    7300.6452     8773.149    9285.8232    39.053702   -635.66073    1273.8321    -3492.434 
 8268000    222.98235   -4934.6542   -4488.6619   -4934.6542            0     6623.315     17.79866    22.799886    19.549464    7933.3177    8292.8348    6916.9837    4660.1265   -903.22921    1048.5457   -885.32793    -3722.349 
 8269000    225.58566   -4923.8797   -4472.6806   -4923.8797            0    7553.4076    17.937136    22.899774     19.25747    7910.1281    6915.0402    8298.9167    7446.2658   -392.84801    558.72671   -629.34826   -3601.3111 
 8270000    227.67203   -4921.7444   -4466.3723   -4921.7444            0    9107.1208    17.951657    22.912263    19.031465    7827.8908    9419.4082    7987.6957    9914.2585   -247.89793   -719.73117      1615.92   -3426.6873 
 8271000    207.48672   -4903.7362   -4488.7371   -4903.7362            0    9486.7775    17.843628     22.75629    19.349688    7857.0336    9986.2062    9789.7571    8684.3691   -4.7364045   -966.35602    738.45609   -3401.6779 
 8272000    217.89473   -4903.1657   -4467.3493   -4903.1657            0    7283.4072    18.042821    22.778607    19.253252    7912.9003    6821.9466    7725.9753    7302.2996   -939.16833    304.29794   -876.82817   -3626.8329 
 8273000    217.92287   -4928.9209   -4493.0482   -4928.9209            0    9176.1459     17.96592    22.815135     19.24932     7890.198    9200.7667    9936.8529    8390.8182   -2390.7115    418.34748   -456.28345    -3437.145 
 8274000    225.46374   -4881.3294   -4430.3741   -4881.3294            0    7295.9189     17.94117    22.829895    19.361879    7930.5296    7391.3798    7439.4576    7056.9194    714.40355    945.87007    2118.8246   -3586.5381 
 8275000    238.04523   -4928.0579    -4451.938   -4928.0579            0    6840.3985    18.039747    22.778582    19.325909    7941.3997      9050.34    6224.3527    5246.5028   -749.28357   -851.48156    -479.2862   -3659.7024 
 8276000    220.44844   -4895.7035   -4454.7794   -4895.7035            0    8209.7545    18.043912    22.658829    19.338439    7906.5964    7455.4771    8836.2221    8337.5645    169.22281    870.31238    537.96523   -3508.1159 
 8277000    223.05468   -4890.2186   -4444.0817   -4890.2186            0    6509.7695    18.031193    22.747939     19.43848    7973.1296    5640.9405    7074.9412     6813.427    932.81349   -227.93471    668.98953   -3687.1262 
 8278000    217.56724   -4920.4718   -4485.3105   -4920.4718            0    7759.0605    17.938958    22.732662    19.397477    7910.2967    8590.9738    8034.0599    6652.1477    908.73698   -813.37475   -546.61315   -3590.1976 
 8279000    223.69574   -4915.7266   -4468.3075   -4915.7266            0    7740.4369    17.934853    22.830501    19.274836    7892.3068    8517.2117    7407.9666    7296.1326    1000.0175    915.78362   -1206.2204   -3577.3739 
 8280000    225.89941    -4903.292   -4451.4653    -4903.292            0    7564.5457    17.994834    22.938067    19.176585     7915.456    7799.2394    7373.7202    7520.6775    531.65722   -183.56732    350.41356   -3578.2232 
 8281000    220.58074   -4893.6833   -4452.4945   -4893.6833            0    6342.5231    18.071165     23.06523    19.147511    7980.9808    6003.8657    6187.7265    6835.9771   -1509.4066    196.00151    -805.9731   -3714.2602 
 8282000     219.2649   -4893.0771   -4454.5202   -4893.0771            0    8258.9936    17.882684     23.02242    19.204611    7906.5897    6193.6968     8883.565     9699.719    666.67767    842.77988    472.56153   -3502.1797 
 8283000    226.02812   -4920.6471   -4468.5629   -4920.6471            0    8733.2377    18.020966    22.903922    19.089124    7879.0511     9052.375      7610.57     9536.768   -655.66316    -894.0399   -1134.9715   -3465.0451 
 8284000    212.46716   -4920.0803   -4495.1197   -4920.0803            0     7235.896    17.998313    22.738186    19.393113    7936.6121    7549.6391     7044.913     7113.136   -585.94518    435.89891   -415.60794    -3657.584 
 8285000    217.47873   -4935.8409   -4500.8566   -4935.8409            0    8189.3065    17.899651    22.673671    19.447929    7892.9571    8807.8731    8685.5905    7074.4559   -251.77863    134.85936    278.16743   -3558.1799 
 8286000    218.96991   -4937.5667   -4499.5998   -4937.5667            0    5804.0973    18.015278    22.903017    19.163612    7906.9873    4230.8768    5856.5638    7324.8512    -691.9634   -986.01873    1559.3449   -3830.2986 
 8287000    229.81959   -4926.6042   -4466.9366   -4926.6042            0    7898.0236     17.74725    23.117956    19.204886    7879.3835    8049.1508    6993.4394    8651.4807   -929.52625    575.00877    -267.6294   -3559.3532 
 8288000    224.45377   -4925.8965   -4476.9612   -4925.8965            0    7501.3096    17.986594    22.879298    19.184567    7894.8451    7411.4965    6843.6057    8248.8267     -91.5446   -613.77552    348.59783   -3613.2738 
 8289000    216.95816    -4913.136   -4479.1929    -4913.136            0    7973.3765    17.945111    22.850853     19.25853    7897.1743    7337.8826    8653.0489    7929.1981    1323.2095    1671.8948    1188.3679   -3560.8816 
 8290000    223.81544   -4916.7491   -4469.0906   -4916.7491            0    7106.7169    17.844696    22.878832    19.422476     7929.533    9240.2455    6815.7503     5264.155   -834.48844    1375.5003    -643.2001   -3647.2407 
 8291000    217.79961   -4902.9467   -4467.3205   -4902.9467            0    8385.6186    17.900404    23.019564    19.140874    7887.1788    6842.2129    9018.5103    9296.1326   -131.14718    1242.4009     180.4847   -3502.7529 
 8292000    224.49665   -4916.0498   -4467.0288   -4916.0498            0    8542.1099    17.957729     22.95142    19.195757    7911.6349    7428.2157     8619.981    9578.1331   -478.04387    814.42716   -2684.0361   -3481.4138 
 8293000    223.23794   -4895.6928   -4449.1893   -4895.6928            0    8235.3349    17.892608    22.688095    19.460114    7899.8177    8636.5741    9543.5651    6525.8656    1570.1818   -358.62477    601.49173   -3500.3903 
 8294000    210.79326   -4915.2235    -4493.611   -4915.2235            0    9443.3021    18.027781    22.662672    19.269038     7872.514    8713.3914    10178.036    9438.4791   -635.60728    603.50919   -36.200058   -3409.4015 
 8295000     210.4651   -4917.5951   -4496.6389   -4917.5951            0    7516.1914    17.995835    22.616844    19.402486    7896.9864    7416.1532     8107.108    7025.3131    355.01664    135.59973   -1539.2785   -3631.0033 
 8296000    224.24648   -4941.0115   -4492.4908   -4941.0115            0    7455.9313      17.9055    22.731111    19.419446    7903.9459    9556.6741    7419.5127     5391.607    469.98608   -28.939879    -24.23969   -3633.0386 
 8297000     226.7147   -4925.8353   -4472.3778   -4925.8353            0    8144.7272     18.03831    23.048197    18.983327    7892.3282    7693.4341    7412.8332    9327.9144   -237.24595    1250.6834    2201.8949   -3534.9074 
 8298000    229.71646   -4948.4813     -4489.02   -4948.4813            0    7290.3279    18.015361    22.795356    19.278923    7917.2091    6849.8131    7480.3036     7540.867    134.22628   -68.771481    1665.0431   -3647.2468 
 8299000    224.54021   -4907.5654   -4458.4572   -4907.5654            0    6290.5616    17.877146    22.884919    19.431627    7949.8098    7050.3764    6353.5741    5467.7343    430.79344   -629.80839    341.78096   -3729.1306 
 8300000    219.64417   -4929.4378   -4490.1223   -4929.4378            0    8204.6284    17.869763    22.879173    19.304006    7892.3542    8509.7078    8148.1486    7956.0289   -316.73692   -167.96476   -1398.0801   -3545.7541 
 8301000    228.23704   -4867.2154   -4410.7131   -4867.2154            0    7522.2723    17.982337    23.050317    19.136184    7931.9206    4929.2081    7604.8415    10032.767    396.01317    1630.0835    1652.6139   -3540.5447 
 8302000    220.13671   -4930.5742   -4490.2736   -4930.5742            0    7600.2133    17.812022    23.007007    19.325077    7919.4416    6469.7682    8044.1239    8286.7479     210.8022    1727.3946   -970.46817   -3612.4722 
 8303000    225.20544    -4956.234   -4505.7953    -4956.234            0    7643.2771     17.94985    22.740369    19.348672    7897.8612    9366.1964    7650.0297    5913.6051   -252.70079    1309.3784    567.40161   -3625.4258 
 8304000     230.6846   -4906.3649   -4444.9672   -4906.3649            0    8000.2284    18.052514    22.775666    19.247949     7913.949    7980.5012    7273.3216    8746.8625   -3.4250154   -382.36437    422.80157   -3521.6062 
 8305000    231.93875   -4924.4854   -4460.5792   -4924.4854            0    8137.2201    18.028121    22.756229    19.235771    7891.5143    9117.8589    8097.7954     7196.006   -251.83102    908.63311    465.52798   -3524.0694 
 8306000    229.21569   -4890.4958   -4432.0361   -4890.4958            0    9404.8591    17.885663    22.781686    19.402879    7906.0054    8824.1132    9506.8634    9883.6005   -780.49495    864.86471   -97.821458   -3347.6466 
 8307000    212.22936   -4927.7694   -4503.2845   -4927.7694            0    6298.0504     18.01763    22.989716    19.161531     7937.093    5623.6302     7096.345    6174.1761    1457.4046    1007.8546    656.75893   -3774.2577 
 8308000    217.34482    -4907.055   -4472.3385    -4907.055            0    6326.2598    17.941089    23.003301    19.317454    7972.3958    6295.2558    5918.1675     6765.356   -225.86794    100.38887   -739.94702   -3736.7892 
 8309000    214.94353   -4910.3147   -4480.4011   -4910.3147            0    6112.4532    17.941421    23.037691    19.260289    7960.8345    5685.3898    5785.0829    6866.8868   -4.5133114   -1077.1444   -1138.8856   -3770.7416 
 8310000    225.49294   -4921.4596   -4470.4458   -4921.4596            0    7438.1639     17.84526    22.847297    19.382373    7902.5028    10214.299    6665.6822    5434.5108    689.12492   -93.194205    600.02109   -3613.1982 
 8311000    223.02992   -4895.2383   -4449.1509   -4895.2383            0    8391.3698      17.9616    22.805995     19.25237    7886.3901    9058.1937    8100.0526     8015.863    189.49489   -60.326602   -794.74719   -3484.0182 
 8312000     239.0254   -4904.8717   -4426.7914   -4904.8717            0    9315.6774    17.852438     22.84813    19.255312     7854.142    7472.6875    9541.6947     10932.65    923.17891    1423.3558   -375.39139   -3359.7308 
 8313000     225.8601   -4899.8516   -4448.1035   -4899.8516            0    6372.2542    17.970174    22.985852    19.275812    7962.0626    7282.6323    5243.0807    6591.0496    348.14621    86.200182    145.67177   -3708.1668 
 8314000    220.63002   -4924.6694   -4483.3821   -4924.6694            0    6777.2384    18.079104    22.831201    19.205908    7927.5779    5011.7142     7846.172    7473.8291    258.93371     1558.994   -1080.7255   -3699.8277 
 8315000    214.93068   -4920.6403   -4490.7523   -4920.6403            0     8089.159    18.072868    22.652567    19.309284    7905.1601    5697.3291    9264.1167    9306.0313    2205.3615    522.12027    2052.3709   -3558.1641 
 8316000    230.97419   -4900.4158   -4438.4389   -4900.4158            0      7890.38     18.03519     22.58105    19.451391    7921.6475    5378.9268    9678.5814    8613.6319   -195.85173    177.84807   -725.03859   -3526.8704 
 8317000     221.2281   -4923.0882   -4480.6047   -4923.0882            0    9168.9203    18.008306    22.732433    19.234572    7874.1072    8821.7981    9468.8389     9216.124    150.01778   -738.04107     1466.938   -3427.6846 
 8318000     225.4464   -4927.8095   -4476.8888   -4927.8095            0    6489.1965    17.937446     22.90138     19.31749    7935.4757    7141.3784    6144.2539    6181.9571   -776.46356   -532.64589   -327.28256   -3725.8891 
 8319000    211.79601   -4930.5537   -4506.9356   -4930.5537            0    6909.2292    17.948505    23.004536    19.237703    7943.1902    5983.2005     6862.271    7882.2163   -437.11216    245.09927   -753.37936   -3706.5478 
 8320000    228.05795   -4915.5926   -4459.4486   -4915.5926            0    7378.0538    17.897715    22.934141    19.308137    7925.3861    7782.0422    7479.7338    6872.3853    1669.8289    1596.3964    1948.8517   -3606.6663 
 8321000    223.56389   -4920.2076   -4473.0522   -4920.2076            0    5886.3159    18.095773    23.029274    19.158262    7983.8708    4811.8452    5963.0096    6884.0928   -840.97168   -159.66511   -465.62613   -3787.6698 
 8322000    236.40244   -4906.2311    -4433.397   -4906.2311            0     5498.161    17.976365    22.929775    19.384778    7990.2893    7217.1517    3999.0033    5278.3281    284.13165     26.82714   -624.62947   -3792.6954 
 8323000    210.82182   -4924.6956   -4503.0259   -4924.6956            0    8478.0593    18.038196    22.561766    19.347742    7874.0191    9457.7836    8275.4171    7700.9773   -1008.7754     163.0776    2329.7759   -3529.4522 
 8324000    213.63032    -4937.477     -4510.19    -4937.477            0    6965.3477    18.067153    22.864044    19.235609    7946.0024    7928.8532    5924.3279     7042.862    38.075987   -290.48211    855.44097   -3703.0156 
 8325000    212.57475    -4917.442   -4492.2663    -4917.442            0     5675.565    17.879723    23.001147    19.414906    7984.4605    6054.7088     5630.301    5341.6853   -1269.9169   -128.89737   -384.21038   -3831.3741 
 8326000    236.36941   -4940.4764   -4467.7084   -4940.4764            0    6866.0011    18.049175    22.969709    19.119189    7926.5153    7437.2063    6200.7083    6960.0886   -1627.3194    141.56713   -180.89902    -3673.998 
 8327000    215.20245   -4946.4506   -4516.0191   -4946.4506            0    7078.4704    17.953112    23.083335    19.141022    7932.3783    7284.0562    6127.6859     7823.669   -1090.7415    786.66605   -501.96415    -3697.142 
 8328000    235.97608   -4909.4563    -4437.475   -4909.4563            0    6966.6194    17.766557    23.109092     19.29766    7923.0208    7797.8329    6305.2758    6796.7494   -1020.9211   -247.01293    249.41682   -3632.4882 
 8329000    220.42733   -4924.5111   -4483.6292   -4924.5111            0    7514.3094    17.910019    23.172149    19.019941    7893.5349    8925.8882    5911.2751    7705.7649    107.52981    932.43007   -454.35304   -3618.5886 
 8330000    225.81072   -4897.9482   -4446.2989   -4897.9482            0    6945.3305    18.097134    22.971213    19.118397    7947.7684    4897.7398    6976.1041    8962.1476    1190.4591    489.60884    1364.2344   -3641.2653 
 8331000    229.19322    -4928.749   -4470.3343    -4928.749            0    6836.0369    17.786486    23.006303     19.38307     7931.577    6752.3298    6768.7464    6987.0346    1227.8642    5.0833206   -695.08994   -3679.5831 
 8332000    214.54805   -4922.8166    -4493.694   -4922.8166            0    7045.7982    17.923396    22.977329    19.210926    7911.6695    7369.6824     6249.332    7518.3802   -591.53097    86.921714   -1404.4517   -3680.7246 
 8333000    223.42219    -4903.353   -4456.4811    -4903.353            0    6966.4475    17.942438    22.859669    19.271693     7904.443    8087.6965    5891.2004    6920.4456    580.71702   -614.18935    1455.3726   -3653.4016 
 8334000    224.10149    -4887.451   -4439.2204    -4887.451            0    7807.8192    17.981109    22.670719    19.415038    7914.4368    7945.6171    8387.9302    7089.9104    293.18681   -523.72161    724.61482   -3538.0111 
 8335000    220.05564   -4930.1722   -4490.0337   -4930.1722            0    6869.2563     18.15469    22.674829    19.303173     7946.238    6909.7893    6995.5867     6702.393    215.19957    -47.16374   -1145.2768   -3693.9712 
 8336000    218.16466   -4915.1228   -4478.7665   -4915.1228            0    8260.9773    17.955592    22.674784    19.419664    7906.5057    8666.3858    7772.6163    8343.9298   -62.655199   -95.276083   -191.49664   -3526.2075 
 8337000    214.44032   -4905.4368   -4476.5296   -4905.4368            0    8396.6178    17.957473    22.500734    19.548491    7898.6909    11878.968      7015.63    6295.2553   -106.25461    -1657.612    1575.2194   -3509.2871 
 8338000    219.72332   -4919.2687    -4479.795   -4919.2687            0    4944.9993    18.244649    22.661718    19.321714    7988.6613    3851.4752    5517.1462    5466.3766   -1151.1013    315.31163   -673.42873   -3903.6707 
 8339000    215.17189   -4946.3029   -4515.9325   -4946.3029            0    8085.5996    17.889274    22.691357    19.387994    7870.2054    8149.4441    8850.7932    7256.5614    1626.0367    1126.9935    1827.7966   -3587.8765 
 8340000    223.88024   -4928.2317   -4480.4435   -4928.2317            0    8208.8714    17.870182    23.135382    19.079204    7887.9818    9755.4983    7234.8044    7636.3116    2066.5955    -682.7439    943.07284   -3536.1104 
 8341000    216.06311   -4917.1449    -4484.992   -4917.1449            0    7310.3166    17.779016    23.086774    19.232699    7894.2561    7490.7313    6821.4497    7618.7688    4.7061666    483.16333   -1935.1056   -3643.3579 
 8342000    233.87514   -4947.8462   -4480.0671   -4947.8462            0    7947.7899    17.904838    22.882719    19.230158    7878.8146    7140.0277    8929.3379    7774.0042    1072.0293    687.08719   -300.56673   -3566.8308 
 8343000    223.26833   -4897.3328   -4450.7685   -4897.3328            0    7708.6103    18.099139     22.67491    19.283888    7914.0374    7284.9204    7817.5257    8023.3847   -1538.1112    377.15486   -708.95473   -3561.0552 
 8344000    214.81829   -4905.6091    -4475.946   -4905.6091            0    8647.6931    18.122511    22.366838    19.519767    7912.2058    8433.8255    10079.343    7429.9105   -592.54293     994.9217   -491.13892   -3478.0765 
 8345000    210.39726   -4941.3024   -4520.4819   -4941.3024            0    4110.2616    18.127171    22.552353    19.585874    8006.9083    4858.3969    4370.3516    3102.0363   -1422.6622   -78.293351   -2467.6829   -4040.5162 
 8346000    227.53426   -4926.5374   -4471.4408   -4926.5374            0    6217.1221    18.039495    22.806713    19.331083     7953.225    6229.7234    6295.8925    6125.7505   -85.777497   -601.32337   -1482.5738   -3750.3191 
 8347000    210.56352   -4887.5363   -4466.3833   -4887.5363            0     9106.812    17.918948    22.857905    19.222486    7873.3307    8681.7539    8347.9443    10290.738    1805.5084   -913.78904    1490.1534   -3420.6986 
 8348000    228.24656   -4930.2718   -4473.7505   -4930.2718            0    7847.7962    17.815948    22.980441     19.29602    7900.1445    7632.4546    9084.8133    6826.1208   -187.80906    173.18342   -267.52916   -3569.5627 
 8349000    217.37604   -4916.9404   -4482.1614   -4916.9404            0    7259.9449    17.827654     23.12485    19.219679    7923.5398    6166.4834    8271.9604    7341.3909    711.04816   -108.61711    752.50841   -3643.2261 
 8350000    224.82643   -4925.4173   -4475.7366   -4925.4173            0    8185.3713    17.803399    23.041581    19.208298    7879.5984    8258.6313    9226.7737    7070.7088   -314.37143    148.91018   -50.560525   -3535.1076 
 8351000     215.6293   -4947.8964   -4516.6112   -4947.8964            0    7356.6545    17.985917    22.814711    19.330639    7932.2019    7359.4883    8119.6884    6590.7868    434.43657    708.05912    160.73337   -3665.5711 
 8352000    222.87794   -4927.0361   -4481.2527   -4927.0361            0    4973.3631    18.012343    22.921051    19.406261    8012.1049    5954.5412    3584.2986    5381.2495   -418.04517   -148.10261    944.28328   -3900.1235 
 8353000    219.06502   -4897.4386   -4459.2815   -4897.4386            0    7456.1842    17.984787    22.770697    19.411654    7949.5792    7056.5295    8584.0286    6727.9946    134.80691   -1001.0837    2010.7153   -3594.8379 
 8354000    224.31276    -4901.664   -4453.0108    -4901.664            0    8526.9364    17.993148    22.771198    19.210078    7870.8594    8622.7024    9450.8442    7507.2627    -2405.667    803.12576   -3316.6969   -3474.2173 
 8355000    232.67579   -4891.8401   -4426.4597   -4891.8401            0    8211.6012    17.757375    22.743356    19.516834    7882.1136    8829.0966    8773.2911     7032.416    1274.5595    117.41308     1978.833   -3482.5153 
 8356000    211.53173   -4914.7398   -4491.6502   -4914.7398            0    9665.7227    17.983353     22.82477     19.13077     7852.529    9496.6975    9666.7429    9833.7278   -1064.4398    329.78539   -1865.8961   -3384.7212 
 8357000    217.58694   -4899.1441   -4463.9433   -4899.1441            0    8895.4335    17.907186    22.777786    19.279202    7863.7178    9598.5835    8145.7407    8941.9765    84.374917    227.58179    235.24321   -3443.7772 
 8358000    233.07053   -4922.0669    -4455.897   -4922.0669            0    8728.0225    18.034235    22.849941    19.186372    7906.3436    8106.0956    8424.4391    9653.5329   -122.06162   -119.70328   -974.59691   -3449.5044 
 8359000    225.23582    -4935.734   -4485.2345    -4935.734            0    8361.3995    17.903837     22.86629     19.24837    7880.1735    8975.2835    8017.4471    8091.4679   -181.31539    783.35973    13.809084    -3524.307 
 8360000    236.69461   -4920.4262   -4447.0077   -4920.4262            0    8575.7723    17.837917    22.866356    19.284652    7865.9812    9431.8522    9459.9815    6835.4833   -1153.5902    137.97982   -3.3350344   -3463.2186 
 8361000    235.26077   -4904.7111   -4434.1605   -4904.7111            0      8833.43    18.126576    22.714235    19.087987    7859.1216    6801.4921    9297.8822    10400.916   -637.16756    700.38317    855.16209   -3421.6972 
 8362000    223.54166   -4912.2986   -4465.1876   -4912.2986            0    6615.3314    17.872985    22.920435    19.319672    7914.4313    7859.2687     5683.747    6302.9784   -731.21116   -1198.1486   -1474.0937   -3701.6205 
 8363000    214.57154   -4917.1963   -4488.0267   -4917.1963            0    8607.0112    17.833026     22.95138    19.251455    7879.4771    9915.6064    7612.7974    8292.6299    1408.7933   -150.73516    -45.78132   -3498.9599 
 8364000    220.53061    -4891.926   -4450.8375    -4891.926            0    8389.4508    17.944761    23.175361    18.971184    7889.6661    9038.3843    6223.8629    9906.1052   -1530.7913   -749.25674   -640.85072   -3485.5247 
 8365000    216.52913   -4904.2052   -4471.1202   -4904.2052            0    9730.8437    17.793029    23.016788    19.221526    7871.9522    9706.4774    9201.7383    10284.315    151.93634    570.51441    2218.8852    -3353.977 
 8366000    217.08256   -4930.8975   -4496.7056   -4930.8975            0    8059.4692    17.884515    22.920067    19.270569    7899.2817     8350.325    7859.8119    7968.2708    263.71928    303.59077   -1887.4626   -3568.2312 
 8367000     217.3046   -4925.5892   -4490.9532   -4925.5892            0    8525.7222    17.903475    22.725397    19.347709     7871.878    8220.4947    9146.2835    8210.3883    1054.8419   -608.06674   -326.91169   -3512.1724 
 8368000    206.51315   -4902.2311   -4489.1793   -4902.2311            0    9054.9877    17.991458    22.727635    19.186773    7845.5346    9947.9926    8482.0579    8734.9125    880.57546    569.46564   -1262.2256    -3453.116 
 8369000    218.73087   -4926.1317   -4488.6429   -4926.1317            0    9518.0594    17.949403    22.692986    19.296141    7859.8111      9887.66    9255.8849    9410.6333    1130.3871    537.86136   -673.66507   -3397.6136 
 8370000    223.82328   -4922.6729   -4474.9987   -4922.6729            0    7976.7385    18.010989    22.679675    19.295851    7882.0341    7397.0829    8724.1125    7809.0202      -541.07    26.805861    1045.2097   -3558.0615 
 8371000     214.4981   -4925.4064   -4496.3837   -4925.4064            0    6958.3369    18.084538    22.508636    19.463344    7922.7152    8750.6113    7397.7604     4726.639    1181.4429   -533.66034    763.82912   -3692.3849 
 8372000    224.01959   -4895.8247   -4447.7578   -4895.8247            0    6106.7303    18.031202    22.672606    19.442456    7948.3552    7732.4522    6152.0373    4435.7015   -903.89794   -260.59909   -1132.4389   -3739.8741 
 8373000    210.74603   -4905.3136   -4483.7955   -4905.3136            0    5793.1139    17.984393    22.830805    19.472124    7995.2187    5306.1255    6394.3765    5678.8399   -1520.6644    4.1334267   -972.98579   -3808.3065 
 8374000    228.86079   -4928.9766   -4471.2267   -4928.9766            0    5085.5006     18.04683    22.870305    19.399062     8006.701    7287.9429    5017.4764    2951.0827   -500.32898   -718.67123    136.59385   -3877.3952 
 8375000    234.58895   -4918.1311   -4448.9243   -4918.1311            0    7232.9412    18.047683     22.91679    19.180072    7932.7815    5612.1252    7247.7891    8838.9093   -1455.1778   -405.47862   -711.58896   -3612.1346 
 8376000    217.22232    -4926.172   -4491.7006    -4926.172            0     5772.161    17.845895    22.941776    19.484999    7977.4806    6687.7261    6308.2015    4320.5555    64.434931    575.69206    1053.4593   -3820.1479 
 8377000     207.9159    -4907.103   -4491.2455    -4907.103            0    7143.4541    17.932859    22.980835    19.254157    7934.8705    6042.6852    8038.8004    7348.8766    218.51867   -43.193696    1347.9353   -3664.5911 
 8378000    215.10822   -4923.9098   -4493.6668   -4923.9098            0    6961.3398    17.991036    22.940594    19.275145    7955.3352     4783.436    7207.7546    8892.8289    499.29538    1034.3272     1924.733   -3686.0093 
 8379000    227.44728   -4895.7625   -4440.8399   -4895.7625            0    6638.8757    18.005057    22.977904    19.211815    7948.2826    7296.4332    5573.1412    7047.0527    382.94811    354.03531    1205.4356   -3671.2777 
 8380000    204.72747   -4916.0206   -4506.5404   -4916.0206            0    7292.7712    17.891726    23.012508    19.215315    7911.5886    7507.6315    6609.2798    7761.4024   -1059.4514    1056.5662    1342.4225   -3665.0829 
 8381000    210.23977   -4924.6516   -4504.1461   -4924.6516            0     9158.626    17.891493    22.848418    19.214249    7854.6372     10356.88    8730.1314    8388.8663    -331.8482    -514.9029    1472.2116   -3455.0087 
 8382000    223.58121   -4891.8802   -4444.6902   -4891.8802            0    8824.3056    17.841718    22.865885    19.334957    7888.0178    9021.2771    9363.4975    8088.1423   -1050.2409   0.84984802   -318.58764    -3429.554 
 8383000     229.9555   -4916.3824    -4456.443   -4916.3824            0    8432.7627    17.966075    22.892092     19.14937    7875.7728    7884.7444    8681.0876     8732.456   -362.70354    -392.6827    1247.5518   -3487.8553 
 8384000    209.81168   -4919.6984   -4500.0491   -4919.6984            0    7679.4078    17.856631     22.91574    19.334935    7911.8149    8840.6146    7340.9293    6856.6794    1161.8755    -331.4937    1379.4055   -3613.9552 
 8385000     210.3521   -4907.1735   -4486.4433   -4907.1735            0    8335.4354    17.789296    22.941082    19.307959    7879.6878    11500.259    7875.1089    5630.9386    472.05233   -1488.1038     390.6045   -3528.5587 
 8386000    229.07825   -4916.3318    -4458.147   -4916.3318            0    7822.0882    18.060403    22.718678    19.276381    7909.2625     6999.629    7748.6742    8717.9613   -51.498478   -405.63318    1111.5017    -3555.881 
 8387000    218.19808   -4919.7139   -4483.2908   -4919.7139            0    8762.1831    17.968981    22.611562    19.353299    7863.3756    8566.2472    9197.4244    8522.8777    566.26558    1024.3287    301.21832     -3478.45 
 8388000    228.09039   -4931.3251   -4475.1161   -4931.3251            0    8190.4341    17.956479    22.552934    19.432739    7869.7011     8199.609    8984.1733    7387.5201    1232.4714     255.8465    1635.3795   -3535.0875 
 8389000    215.17762   -4932.2795   -4501.8976   -4932.2795            0    7076.0975    18.117615    22.565466    19.377476    7922.1403    7687.9407    8217.3137    5323.0381    111.83105    1205.3003    1267.5187   -3684.3516 
 8390000     225.5611   -4911.8111    -4460.661   -4911.8111            0    6070.9405    18.235998    22.553188    19.364645     7964.289    5029.8514    7152.9497    6030.0203    524.47726   -109.54621    85.198293   -3755.5153 
 8391000    230.12334   -4944.1523   -4483.8772   -4944.1523            0    7430.7178     17.87537    22.841353    19.360049    7904.6619    7792.2089    8028.2311    6471.7135   -863.37109    915.92157    -352.8197   -3627.2537 
 8392000    226.08073   -4925.0318   -4472.8424   -4925.0318            0    7789.9082    17.889027    22.913448     19.25326    7891.8977    6621.4676    7596.9111     9151.346    220.91187    -457.5361     1182.843   -3576.2611 
 8393000    214.56494   -4906.5111   -4477.3547   -4906.5111            0    8020.5552    17.850628    23.163669     19.03565    7870.9755    7425.9307    7177.1063    9458.6286    220.08073   -764.74587    16.587743   -3556.6743 
 8394000    219.46011   -4903.7204   -4464.7731   -4903.7204            0    8529.7664    17.710503     22.94591    19.311838    7848.0144    10822.975    7892.1991    6874.1256   -279.35764   -1000.8465    1211.1388   -3488.4966 
 8395000    219.98825   -4916.9517    -4476.948   -4916.9517            0    7283.7891    17.990098    22.938509    19.223595    7932.9246    8661.0243    5426.3152    7764.0277   -1052.9919   -980.67889    501.26304   -3634.2604 
 8396000    215.74283   -4926.5122   -4494.9999   -4926.5122            0     5989.076    17.990929    23.137529    19.071586    7938.8458    5725.9226    5289.0305    6952.2749    384.42611   -439.42584    675.53869   -3801.5851 
 8397000     209.7461   -4932.4993   -4512.9812   -4932.4993            0      5209.17    17.821149    23.129778    19.360921    7980.5564     6764.806    4322.4292    4540.2748    138.58664     -147.579    76.122521   -3906.6952 
 8398000     218.8934   -4922.8347   -4485.0209   -4922.8347            0    7073.7571    17.949092    22.894225    19.283665    7924.2471    8330.8397    6133.1614    6757.2702    -880.1473   -1039.4446   -637.87139   -3667.5279 
 8399000    222.70645   -4893.3001   -4447.8597   -4893.3001            0    8435.3769    17.913446     22.77903    19.396034    7914.5697    6775.8857    10019.664     8510.581   -501.79966    399.75444    191.12992   -3474.1989 
 8400000    220.64566   -4925.3089   -4483.9904   -4925.3089            0    6703.4486    17.965448    22.821722    19.311116    7917.6049    7228.1748    6952.7544    5929.4165   -1562.7474    -340.4919    -421.5232   -3709.9422 
 8401000     226.9713   -4885.8113   -4431.8407   -4885.8113            0    7898.6528    18.096279    22.797082    19.221298    7929.5995    8277.2112    7313.0524    8105.6949    492.76463   -704.89737     2545.145   -3518.4004 
 8402000    225.59183   -4918.2004   -4466.9888   -4918.2004            0    7712.2724    17.913166    22.821763    19.351995    7911.2897    7659.8665    7828.2774    7648.6732   -2684.4343    113.09125   -869.72501   -3577.1619 
 8403000    225.55277   -4917.2714    -4466.138   -4917.2714            0    7129.2144     18.11182    22.800123    19.236711    7943.8328    6063.1194    6867.4303    8457.0935   -361.07128    -596.4246    182.58504   -3640.1996 
 8404000     227.6903    -4938.286   -4482.8772    -4938.286            0    8135.9821    17.837012    22.668977    19.485789    7879.0168    9489.1052    8018.7969    6900.0443   -91.530453     815.8828    350.33669   -3547.9929 
 8405000    215.82566   -4910.7549   -4479.0769   -4910.7549            0    8889.0034    18.023921     22.48748    19.414112     7868.783    9207.6298    10533.137    6926.2435   -207.04105    340.33703   -308.42721   -3458.9915 
 8406000    208.99833   -4916.3944    -4498.372   -4916.3944            0     7877.446    18.018226    22.666924    19.291766       7879.1    8443.5096    8593.7314    6595.0971   -942.26513    236.78027   -1169.1913   -3593.1857 
 8407000    227.19853   -4936.1125   -4481.6874   -4936.1125            0    7945.9035    17.723549    22.842393    19.409151    7857.7613    8193.8951    8296.6469    7347.1686    1042.8217    -584.7572    20.277084   -3571.1076 
 8408000    211.23177   -4921.3102   -4498.8206   -4921.3102            0    9786.7988    17.883858    22.847198    19.223606    7854.6891    10628.337     8611.884    10120.176   -115.53709     -1093.73    -1268.484   -3377.7175 
 8409000    212.47867   -4917.7436     -4492.76   -4917.7436            0    7073.4231    18.119214    22.891763    19.112059    7927.3141    5400.6636     7708.803    8110.8028    568.72517    1176.2831   -634.07856   -3674.9892 
 8410000    233.66214   -4940.6973   -4473.3442   -4940.6973            0    7491.0491    17.743278    22.986961     19.42482    7922.6857    8397.3935    7222.6193    6853.1345   -114.19649   -302.85952    636.63593   -3607.7966 
 8411000    217.64998   -4933.6087   -4498.2818   -4933.6087            0    7054.5314    17.768936    22.979701    19.333166     7894.212     9561.953    6807.3223    4794.3189    -910.0437    460.96972    808.76098   -3686.1008 
 8412000    222.97054   -4923.8989   -4477.9303   -4923.8989            0    5816.1629    17.947553     23.10429    19.180607    7953.5354     5725.832     4919.694    6802.9627    412.89761   -514.92481    378.91004   -3803.2894 
 8413000    222.79013   -4917.0161   -4471.4083   -4917.0161            0    7294.1311    17.867719    23.012016    19.126962    7864.4761     6508.344    7285.3608    8088.6885    130.59156    259.81774   -1343.2961   -3634.8057 
 8414000    214.23933   -4912.4111    -4483.906   -4912.4111            0    9218.2379     17.94389    22.908834    19.202101    7893.4766    9979.9652    8556.5249    9118.2236    2.2089146   -959.49793   -70.978364   -3422.7185 
 8415000     218.4412   -4930.0254    -4493.116   -4930.0254            0    6776.4466    17.902826     22.88246    19.387378    7942.2466    7179.5826    6366.4844    6783.2727    997.84976   -760.15257    550.57696   -3708.2034 
 8416000     229.1892   -4894.3139   -4435.9071   -4894.3139            0     8471.915    18.048526    22.559023    19.399242    7898.5392    9396.2724    8707.1807    7312.2918    1079.5176   -356.75595    276.64666   -3460.0095 
 8417000    217.63754   -4928.1933   -4492.8913   -4928.1933            0    5180.9553    18.151742     22.56419    19.490731     7983.001    4281.8403    5833.1112    5427.9145    -232.6327    -116.1675   -335.49689   -3889.7044 
 8418000    226.68204   -4908.4814   -4455.0893   -4908.4814            0    6144.6961    18.064352    22.702041    19.377621     7946.717    5359.5204    6335.2838    6739.2842    19.259539   -748.84898    849.10104   -3742.9515 
 8419000    230.49491   -4904.2067   -4443.1884   -4904.2067            0    5460.1798    17.990367    22.848366    19.375611    7964.3539    6115.1369    5732.7257    4532.6769   -1083.2304   -1387.8221   -59.419152    -3808.978 
 8420000    226.77807   -4922.8259   -4469.2417   -4922.8259            0    7090.1295      17.8504    22.923511    19.387554    7933.2672    7351.3621    7569.6359    6349.3906   -628.20226   -101.33458    2139.9069   -3648.9239 
 8421000    222.39376   -4906.0541   -4461.2391   -4906.0541            0     8755.891    17.921667    23.098875    19.055535    7888.4264    9469.1213    8381.8701    8416.6815    898.15002   -79.101796    381.12545   -3453.9211 
 8422000    219.28775   -4934.3078   -4495.7052   -4934.3078            0    7543.7679    17.868344    22.952212    19.279563     7906.896    6004.2948     8167.064     8459.945    46.053155    894.61782    1143.4083   -3625.8034 
 8423000    221.67636   -4936.7671    -4493.387   -4936.7671            0    7967.2139    18.021736     22.92632    19.069215    7878.8673    8450.6312    8512.1357    6938.8749    463.02196    1720.4495   -325.34109   -3577.9127 
 8424000    218.98356   -4924.5597   -4486.5655   -4924.5597            0    5708.3544    18.024554    22.949648    19.219485    7950.2775    5236.2655    6245.4984    5643.2994    382.94069   -55.097866   -598.42394    -3824.701 
 8425000    217.12062   -4911.8009   -4477.5328   -4911.8009            0    8874.7516    17.897336    22.728532     19.36996    7879.3156    9773.4816    7500.0832    9350.6899    1101.6408   -238.36795    1151.4854   -3457.7197 
 8426000    225.15012   -4930.6249   -4480.2969   -4930.6249            0    8402.2924    18.129015    22.571349    19.198343    7855.8914    6577.7592    9586.5632    9042.5549   -90.872107   -549.13067   -351.80483   -3517.6452 
 8427000    224.05453   -4907.4403   -4459.3036   -4907.4403            0    6139.1431    18.078258    22.571191     19.48913    7952.4968    5515.0569    7785.9835    5116.3889    417.82176   -618.95689   -588.05671   -3747.2918 
 8428000    221.07635   -4910.4837   -4468.3037   -4910.4837            0    6565.3976    17.974963    22.760322    19.381013    7929.0815    6330.5009    6424.1417    6941.5502    1346.4405     169.4727   -72.396282   -3709.0974 
 8429000    223.26308   -4911.9267    -4465.373   -4911.9267            0    6057.7341    18.059015    22.880925    19.223086    7943.1132    6080.6039    5091.0902    7001.5081   -394.71328    -1523.766    713.21341    -3763.632 
 8430000    214.84287    -4894.516   -4464.8038    -4894.516            0     6891.325    17.928455     22.96493    19.259966    7929.8231    7669.7892    5697.1639     7307.022   -32.859927   -900.19112    297.34235   -3667.8335 
 8431000    226.96687   -4941.1652   -4487.2035   -4941.1652            0    8400.8262    17.766998    23.019698    19.272515    7882.2836    8141.1759    8880.2984    8181.0045    -145.1094   -466.24481   -1278.5146   -3521.4863 
 8432000    220.81195   -4912.5554   -4470.9042   -4912.5554            0    6703.3969    18.011079    22.926912    19.215864    7934.9684    6625.6552    5657.8301    7826.7054    933.01632   -979.24589    1497.6046   -3695.1645 
 8433000    214.25461   -4924.8298   -4496.2942   -4924.8298            0    7744.8029     17.99133     22.74988    19.285912    7893.7354    7563.2706    9194.0418    6477.0962   -610.67805    1332.0402    1369.8333   -3604.6967 
 8434000    215.23687   -4937.2444    -4506.744   -4937.2444            0    7874.0576    17.882521    22.880573    19.369279    7925.1791    8975.3465    7007.9605    7638.8658    1157.2676   -761.12521    585.62522   -3596.6556 
 8435000    229.87802   -4913.6996   -4453.9152   -4913.6996            0    8117.4018    17.898866    22.889485    19.280076    7898.9669    7774.6393    8632.6553    7944.9109   -482.58786    841.31293   -445.48752   -3518.8041 
 8436000    215.42997    -4896.407   -4465.5204    -4896.407            0    7143.9682     17.89335    23.093644    19.237367     7949.316    6782.2329    7432.3683    7217.3034   -35.687764   -189.99133    382.57993   -3637.3015 
 8437000     234.0419   -4955.5789   -4487.4662   -4955.5789            0    7044.2153    17.765808    23.174435    19.220998     7913.526    8953.5595    6294.8874    5884.1991   -600.08449    405.93052   -778.05778   -3674.4886 
 8438000    234.51419   -4930.0498   -4460.9924   -4930.0498            0    6975.1356    17.920515    23.307171     19.01736    7943.1046    7662.4542    5381.9273    7881.0253   -603.33721   -283.38038   -1814.0212   -3652.9785 
 8439000    208.12759   -4909.3659    -4493.085   -4909.3659            0    9266.3952    17.863906    22.641975    19.415022    7852.8737     11574.31     8308.605    7916.2702    203.26353   -380.71228    694.07681   -3431.8408 
 8440000    233.79643   -4900.3227   -4432.7009   -4900.3227            0    7969.8149    18.036487    22.681683    19.288258    7890.7856     8329.661    7124.0564    8455.7272    436.94407   -502.35737     -127.185   -3515.5425 
 8441000    229.98877   -4925.4775   -4465.4716   -4925.4775            0    7452.4769    18.125784    22.564587    19.330182    7906.0602    6898.5398     8123.489    7335.4018    305.93989   -679.08336   -525.10278   -3606.1877 
 8442000    228.25984   -4915.1452   -4458.5973   -4915.1452            0    8861.2626     17.93877     22.57377    19.444035    7873.7776    9259.5412    9219.0325     8105.214    -884.9218   -1518.6225   -326.23012   -3441.0499 
 8443000    233.44874   -4940.0891   -4473.1627   -4940.0891            0    8387.5899    17.820624    22.828513    19.332403    7864.7762    8208.0738    9531.2615    7423.4344   -719.20466   -11.846875    1443.3667   -3511.1088 
 8444000    222.32446   -4912.9631   -4468.2867   -4912.9631            0    7616.9913    18.068288    22.809664     19.20556     7915.218    6222.9918    7897.9647    8730.0174   -216.56303    47.685342    1641.4045   -3589.0167 
 8445000    220.09977   -4914.0319   -4473.8052   -4914.0319            0     7370.719    18.105093    22.574225    19.414094     7934.704    7136.0655     8238.061    6738.0305   -789.37629    991.27866    131.77163   -3620.8691 
 8446000    211.37589   -4910.1737   -4487.3959   -4910.1737            0    6103.3167    17.942164    22.731979    19.526991     7964.296    6959.0528    6379.2863    4971.6109   -153.64007    169.52439    2447.2658    -3778.489 
 8447000    218.02534   -4909.3024   -4473.2248   -4909.3024            0    5939.6708    18.124375    22.685888    19.326703    7946.5129    4850.2595    6796.3898    6172.3631    951.78021    389.97616   -330.70495    -3784.866 
 8448000    225.18188   -4927.5947   -4477.2031   -4927.5947            0    6769.6612    17.918517    22.729746    19.520685    7950.4499      8417.13    6449.2591    5442.5946    475.01945   -519.55831   -50.977781   -3692.2666 
 8449000    230.36781   -4918.8387   -4458.0746   -4918.8387            0     6269.749    18.001613    22.964332    19.166885     7923.495    5717.4732    6199.4754    6892.2984    391.19539   -868.04506   -805.60198   -3733.5672 
 8450000     221.6103    -4922.509    -4479.261    -4922.509            0     8132.176    17.840309    22.874047    19.279523    7867.5893    9827.3452    7369.5181    7199.6648   -1384.6421   -457.75756   -897.72179   -3546.1693 
 8451000    224.76487   -4926.9416   -4477.3841   -4926.9416            0    7722.4332    17.872964    22.802064    19.374829    7896.0267    5884.8088       8769.9    8512.5907   -801.76489   -206.32977   -394.94807   -3588.1039 
 8452000    218.47096   -4915.3886   -4478.4197   -4915.3886            0     8178.437    18.082947    22.730157    19.185708    7885.8671    5816.8663    9177.2774    9541.1672    849.49593    19.710056   -987.16789   -3537.8399 
 8453000    206.01321   -4910.8817   -4498.8299   -4910.8817            0     7474.762    17.961574    22.636369    19.460767    7912.4522    6990.3689    8352.4619    7081.4551   -125.86682    363.00449   -1640.3728   -3636.2797 
 8454000    215.32009   -4936.3149   -4505.6481   -4936.3149            0    6915.9684    17.983513    22.808924    19.309013    7920.2596    7019.9668    7266.5097    6461.4288    1036.4413    379.54304    748.68388   -3706.7924 
 8455000    211.10392   -4926.1274   -4503.8935   -4926.1274            0    6858.2839    18.056995    22.959871    19.213343    7965.5886    7050.2076    6394.0349    7130.6092    11.959884    556.41309    813.72267   -3707.1671 
 8456000    208.57883   -4916.4277   -4499.2443   -4916.4277            0    6285.8832    17.980244    22.921242    19.324521    7964.2058    5067.6814    7024.5963    6765.3719     213.8674    207.51142    939.05965   -3769.1404 
 8457000    222.37023   -4919.6755   -4474.9076   -4919.6755            0    7815.8422    17.968417    22.831636    19.333985    7931.7355    8690.9482    7539.6111    7216.9672    383.68535    612.93044   -555.06079   -3570.8005 
 8458000    227.90907   -4908.7679   -4452.9216   -4908.7679            0    7578.9067    17.794418    23.215023     19.13373    7904.1025    8461.3229    5811.6061     8463.791    400.40623    -969.4983    -2645.813   -3579.2765 
 8459000    220.16639   -4912.5499     -4472.19   -4912.5499            0    6665.7806    17.754916    23.172393    19.196824     7898.032    8006.7264    4262.4885    7728.1268    806.95929   -18.594458    169.84168    -3704.394 
 8460000    226.35688   -4911.3018   -4458.5601   -4911.3018            0    7685.3201    17.770204    23.223606    19.133334    7896.1014    8863.5921    5350.9891     8841.379    1157.3228   -266.80608    958.58352   -3573.5452 
 8461000    224.20776   -4918.0023   -4469.5591   -4918.0023            0    7212.7899    17.840389    23.051369    19.256039     7918.957    9375.1276    6037.4524    6225.7896    79.788044    780.95606    1463.9156   -3636.5549 
 8462000    226.36731   -4923.3787   -4470.6161   -4923.3787            0    9087.1221    17.844247    22.961757    19.248309    7886.7111    9550.4109    8884.7817    8826.1738   -642.28548    630.92873   -61.430845    -3425.419 
 8463000    210.73219   -4893.8699   -4472.3795   -4893.8699            0    8551.3742    17.883181     22.79007    19.347184    7885.1181    9503.6491    8315.3263    7835.1472   -439.64042     -1173.46   -1084.1472   -3489.0026 
 8464000    216.58387   -4910.8698   -4477.6753   -4910.8698            0    8897.7384    17.887424    22.729109    19.371852    7875.9209    9752.1301    7824.3897    9116.6954   -1468.8856    86.369632   -195.81809   -3455.6612 
 8465000    209.99387    -4940.679   -4520.6653    -4940.679            0     7430.509      18.0023    22.834985    19.236037    7907.5937     7637.707    7660.9473    6992.8727    1342.6104    96.034444    983.72456   -3663.7482 
 8466000    224.45343   -4927.8343   -4478.8998   -4927.8343            0    7882.9627    18.009439    22.722299     19.26497    7883.5312    6432.4254    7847.4848    9368.9778    104.16224    658.00344   -864.40894   -3572.5702 
 8467000    207.01439   -4924.8452   -4510.7909   -4924.8452            0    7401.3878    17.932369    22.777511     19.43779    7939.4573    7078.6994    7466.7237    7658.7404   -193.75982    211.23155     219.9916   -3653.7928 
 8468000    226.05007   -4907.3888   -4455.2607   -4907.3888            0    9465.1497    17.941483    22.843375     19.22843    7880.6572    10884.802    8850.5902    8660.0564    1284.3642     384.1356    2482.6909   -3367.4187 
 8469000    220.38657   -4927.4934   -4486.6931   -4927.4934            0    7199.3022    17.970205    22.867194    19.264075     7916.151    7807.2451    6262.0274    7528.6342   -571.51342    314.52545      925.246   -3655.5412 
 8470000    223.15535   -4948.8321   -4502.4938   -4948.8321            0    8122.6068    17.778214    22.824616    19.384963    7866.0483    9157.7631     8957.214    6252.8433   -41.675272    641.48754    679.81867   -3570.6826 
 8471000    210.18628   -4902.8055   -4482.4069   -4902.8055            0    7306.3617    17.911116    23.090229    19.053686    7880.0668    8958.8744    6215.6474    6744.5633    817.47691   -496.26355    504.50738   -3642.7402 
 8472000    208.30253   -4915.4868    -4498.856   -4915.4868            0    10487.137    17.730225    23.001234     19.16325    7815.1002    12383.173     8972.841    10105.397    47.734619   -1743.7496    406.24177   -3303.5823 
 8473000    213.53055   -4927.1687   -4500.0813   -4927.1687            0     8826.862    17.759341    23.087538    19.208598     7875.899    10763.874    8565.7436    7150.9683    1150.8151    656.45022    115.88573   -3486.2111 
 8474000    228.66347   -4936.6379   -4479.2827   -4936.6379            0    6161.8199    17.906604    23.115928    19.181916     7939.928    6069.8568    6179.6419    6235.9611   -80.860274    591.48216    123.79379   -3765.7704 
 8475000    220.58444   -4940.4487   -4499.2525   -4940.4487            0    6864.3583    17.925085    22.872073     19.26114    7896.7569    7253.2762    6125.4316    7214.3671    1641.2096   -323.35915    1521.5582   -3708.7112 
 8476000    218.57996   -4916.5403   -4479.3533   -4916.5403            0    8328.8281    18.029922    22.731534    19.233015    7882.6086    9818.1606    7948.1035    7220.2201   -847.33615    28.069548   -910.74104   -3521.8733 
 8477000    231.95879    -4880.003   -4416.0568    -4880.003            0    8332.9296    18.053733    22.523596    19.412655    7893.8646    9649.8277    8268.1289    7080.8323   -141.76304    514.91493    2058.3494   -3456.7373 
 8478000    225.82272   -4898.3447   -4446.6714   -4898.3447            0    8612.1465    18.101042    22.464795     19.35874    7871.9643    8718.8805    9663.8256    7453.7334   -5.0500449   -382.70246    2200.0826    -3457.958 
 8479000    234.13762   -4928.7481   -4460.4439   -4928.7481            0    7783.2061    18.084121    22.641451    19.330012    7914.6878    7005.0055    8788.1661    7556.4466   -941.84627     523.0263   -486.91699   -3562.0471 
 8480000    226.09396   -4892.4532   -4440.2374   -4892.4532            0    6874.5188    18.004312    22.728771    19.437251    7954.0322    6137.3505    8994.6077    5491.5982    103.36078      38.6359    712.09738   -3642.7835 
 8481000    230.15809   -4913.6038   -4453.2592   -4913.6038            0    6035.6465    17.899013    22.994798    19.308415    7947.0382    6333.5852    6241.3394     5532.015    -1350.862   -438.06339   -1292.0265   -3753.7313 
 8482000    221.43905   -4920.5171   -4477.6116   -4920.5171            0    6633.9409    17.975297    22.960669    19.226374     7935.202    3880.4774    8154.9506    7866.3947    84.488926   -1316.9325    305.85925    -3709.887 
 8483000    224.44169   -4936.9455   -4488.0344   -4936.9455            0    8587.3023    17.864882    22.906723    19.234511    7871.2599    10482.083    8783.4596    6496.3642    1059.0557    83.596555    145.17096   -3502.2614 
 8484000     230.4142   -4915.5118    -4454.655   -4915.5118            0    7654.7299    17.889978    22.852917    19.292707    7887.5951    6859.9787    7716.6263    8387.5848     143.7994   -193.18892     -2016.69   -3574.1124 
 8485000    219.68941   -4940.7308   -4501.3248   -4940.7308            0    8057.2341    18.166688    22.746824    19.120969    7901.4432    7733.4062    8169.8694    8268.4269   -234.86298    756.53294    171.39358   -3572.8539 
 8486000    215.12136   -4916.3938   -4486.1245   -4916.3938            0    6935.3374    17.963935    22.869684    19.326142    7939.7498    7299.0093    7356.8681    6150.1346    587.59336    682.78607    220.93535   -3683.0602 
 8487000    206.70221   -4902.4035   -4488.9735   -4902.4035            0    5303.3368    17.922136    23.019801    19.339038     7978.591    5915.1142    5455.1598    4539.7363   -501.24394   -951.61893    426.01963   -3871.8795 
 8488000    223.60298   -4895.4869   -4448.2534   -4895.4869            0    8124.7879    17.880962    23.060623    19.080975    7867.9659    8220.5476    7728.1955    8425.6205    1198.1913   -42.969356   -1468.9396   -3515.9647 
 8489000    218.46591   -4909.5383   -4472.5795   -4909.5383            0    7534.8275    17.852286    23.025131    19.244383     7910.427    10129.749    6041.2382    6433.4952    754.93755   -646.04843    411.72476   -3603.3206 
 8490000    229.20095   -4922.0296   -4463.5994   -4922.0296            0    7086.8563    17.785113     23.04075    19.314753    7914.8444    7098.3796    6607.7507    7554.4387    96.102792   -873.57709    1012.3316   -3645.5644 
 8491000    215.10992   -4918.3155    -4488.069   -4918.3155            0     8883.168    17.958864    22.883757    19.105919    7851.8887     9861.187    8720.1232    8068.1939    5.8134872    645.74735    1805.4922    -3470.842 
 8492000    217.39879   -4920.9629   -4486.1385   -4920.9629            0    7878.4075    18.004694    22.843892    19.222979    7906.3589     7475.806    7427.4215    8731.9949    668.64301    1030.2344    1370.5599   -3577.7098 
 8493000    237.82089   -4919.8616   -4444.1904   -4919.8616            0    8348.5558    17.884574    22.735719    19.388655    7883.7886    8653.8547    9090.2214    7301.5911    143.35212    670.92079    145.18658   -3484.2988 
 8494000    220.21466   -4898.9676   -4458.5111   -4898.9676            0    7337.5645    17.991706    22.783495    19.299576    7911.1653    8358.1907    7602.0493    6052.4534    528.34054    486.73507    1066.8055   -3611.9306 
 8495000     218.4193   -4883.4441   -4446.5785   -4883.4441            0    7455.7322    18.062219     22.92345    19.199513    7949.5271    7135.6727    6649.8084    8581.7156   -253.29558   -627.25493     981.3045    -3582.193 
 8496000    223.84851   -4931.7949   -4484.0703   -4931.7949            0    5307.5855    17.972924    22.778758    19.505519    7985.5768    5375.0354    5920.8752    4626.8458   -59.466334    -141.1316   -1057.0371   -3865.9412 
 8497000    224.98533   -4936.6022   -4486.6037   -4936.6022            0    6815.0341    18.036489    22.816739    19.278658    7933.8204    6851.8061    5675.4876    7917.8087   -588.24838   -465.83325    -104.9017    -3698.059 
 8498000    221.56672   -4902.9593   -4459.7985   -4902.9593            0     8065.637       17.959     22.92541    19.221885    7913.9851    7297.0836    8316.0233     8583.804   -308.77522     680.1038   -435.78215    -3528.884 
 8499000    216.50615   -4922.5138   -4489.4747   -4922.5138            0    7061.3577    17.829282     22.94814    19.414338    7943.3544    8593.6646    6324.4734     6265.935   -221.25462    316.23977   -1334.8579    -3671.447 
 8500000    214.38438    -4880.611   -4451.8157    -4880.611            0     8350.895    17.977329    22.780876    19.365137    7930.7844    7315.3484    9300.2768    8437.0598    812.40242     718.8656    1367.9555   -3485.9315 
Loop time of 484.388 on 64 procs for 250000 steps with 1008 atoms

Performance: 89.185 ns/day, 0.269 hours/ns, 516.115 timesteps/s
194.6% CPU use with 32 MPI tasks x 2 OpenMP threads

MPI task timing breakdown:
Section |  min time  |  avg time  |  max time  |%varavg| %total
---------------------------------------------------------------
Pair    | 35.533     | 40.333     | 48.106     |  37.8 |  8.33
Bond    | 0.98439    | 1.2206     | 1.6931     |  13.9 |  0.25
Kspace  | 236.27     | 243.54     | 251.64     |  27.0 | 50.28
Neigh   | 2.6979     | 3.0558     | 3.397      |  11.5 |  0.63
Comm    | 76.832     | 84.861     | 94.265     |  44.2 | 17.52
Output  | 0.50661    | 0.50688    | 0.50825    |   0.0 |  0.10
Modify  | 93.64      | 96.131     | 99.204     |  15.9 | 19.85
Other   |            | 14.74      |            |       |  3.04

Nlocal:        31.5000 ave          38 max          26 min
Histogram: 1 3 4 5 3 9 3 1 1 2
Nghost:        2912.62 ave        2926 max        2898 min
Histogram: 2 2 2 5 0 8 7 3 1 2
Neighs:        10551.8 ave       12672 max        8628 min
Histogram: 1 3 4 5 3 8 4 1 1 2

Total # of neighbors = 337658
Ave neighs/atom = 334.97817
Ave special neighs/atom = 2.0000000
Neighbor list builds = 6819
Dangerous builds = 0

unfix		3
unfix		2
unfix		1

write_data	data.final.${pid}
write_data	data.final.0
System init for write_data ...
PPPM initialization ...
  extracting TIP4P info from pair style
  using 12-bit tables for long-range coulomb (../kspace.cpp:340)
  G vector (1/distance) = 0.37978413
  grid = 24 27 36
  stencil order = 5
  estimated absolute RMS force accuracy = 0.0023807074
  estimated relative force accuracy = 7.1694295e-06
  using double precision FFTW3
  3d grid and FFT values/proc = 5670 1296
Last active /omp style is kspace_style pppm/tip4p/omp
WARNING: Not all mixed pair coeffs generated from mixing. Use write_data with 'pair ij' option to store all pair coeffs. (../write_data.cpp:312)

write_restart   restart.lmp.${pid}
write_restart   restart.lmp.0
System init for write_restart ...
PPPM initialization ...
  extracting TIP4P info from pair style
  using 12-bit tables for long-range coulomb (../kspace.cpp:340)
  G vector (1/distance) = 0.37978413
  grid = 24 27 36
  stencil order = 5
  estimated absolute RMS force accuracy = 0.0023807074
  estimated relative force accuracy = 7.1694295e-06
  using double precision FFTW3
  3d grid and FFT values/proc = 5670 1296
Last active /omp style is kspace_style pppm/tip4p/omp
Total wall time: 0:08:04
