LAMMPS (30 Jul 2021)
Processor partition = 1
  using 2 OpenMP thread(s) per MPI task
using multi-threaded neighbor list subroutines
variable        pid world 0 1
variable        phase world IceV IceIII

shell cd ${phase}
shell cd IceIII
include Restart.lmp
echo both
log log.lammps
#include		in.partitions
include		in.temp
variable        temperature equal 221.47
variable	tempDamp equal 100.0
include		in.pressure
variable        pressure equal 7619.5
variable        pressureDamp equal 1000.0 # This is 1 ps
include		in.seed
variable        seed equal 745823

units		real
atom_style	full

read_restart	restart.lmp.${pid}
read_restart	restart.lmp.1
Reading restart file ...
  restart file = 30 Jul 2021, LAMMPS = 30 Jul 2021
  restoring atom style full from restart
  orthogonal box = (0.088204175 0.14488301 0.029984941) to (19.911797 19.855118 20.670013)
  4 by 2 by 4 MPI processor grid
  restoring pair style lj/cut/tip4p/long/omp from restart
  restoring bond style harmonic/omp from restart
  restoring angle style harmonic/omp from restart
  972 atoms
  648 bonds
  324 angles
Finding 1-2 1-3 1-4 neighbors ...
  special bond factors lj:    0        0        0       
  special bond factors coul:  0        0        0       
     2 = max # of 1-2 neighbors
     1 = max # of 1-3 neighbors
     1 = max # of 1-4 neighbors
     2 = max # of special neighbors
  special bonds CPU = 0.002 seconds
  read_restart CPU = 0.008 seconds
include 	in.setup
variable	out_freq equal 1000
variable	out_freq2 equal 10000
variable	out_freq3 equal 1000

timestep	2.0

neigh_modify    delay 7 every 1

include		in.tip4p
# This is TIP4P/Ice

# create groups ###
group ox type 2
324 atoms in group ox
group hy type 1
648 atoms in group hy

# set charges - beside manually ###
set group ox charge -1.1794
Setting atom values ...
  324 settings made for charge
set group hy charge 0.5897
Setting atom values ...
  648 settings made for charge

# ### TIP3P Potential Parameters ###
pair_style lj/cut/tip4p/long/omp 2 1 1 1 0.1577 8.5
pair_coeff 1 1*2 0.000 0.000
pair_coeff 2 2 0.21084 3.1668
bond_style  harmonic
bond_coeff  1 450 0.9572
angle_style harmonic
angle_coeff 1 55 104.52
kspace_style pppm/tip4p/omp 1.0e-5
pair_modify tail yes

thermo          ${out_freq}
thermo          1000
thermo_style    custom step temp pe etotal epair emol press lx ly lz vol pxx pyy pzz pxy pxz pyz enthalpy

restart 	${out_freq3} restart.lmp.${pid} restart2.lmp.${pid}
restart 	1000 restart.lmp.${pid} restart2.lmp.${pid}
restart 	1000 restart.lmp.1 restart2.lmp.${pid}
restart 	1000 restart.lmp.1 restart2.lmp.1


include         in.dump
dump            myDump all atom ${out_freq2} dump.water.${pid}
dump            myDump all atom 10000 dump.water.${pid}
dump            myDump all atom 10000 dump.water.1
dump            myDump2 all dcd ${out_freq2} dump.dcd
dump            myDump2 all dcd 10000 dump.dcd
dump_modify     myDump append yes
dump_modify     myDump2 append yes


variable natoms 	equal  "count(all)"                        # NUMBER ATOMS
variable H      	equal  "enthalpy/v_natoms"                 # ENTHALPY-per-atom
variable Vol      	equal  "vol/v_natoms"                 # volume-per-atom
fix AVG all 		ave/time ${out_freq} 1 ${out_freq} v_Vol v_H file vol_enthalpy.dat
fix AVG all 		ave/time 1000 1 ${out_freq} v_Vol v_H file vol_enthalpy.dat
fix AVG all 		ave/time 1000 1 1000 v_Vol v_H file vol_enthalpy.dat


timer           timeout 02:55:00 every 1000
New timer settings: style=normal  mode=nosync  timeout=02:55:00

fix 		1 all shake 1e-6 200 0 b 1 a 1
Finding SHAKE clusters ...
       0 = # of size 2 clusters
       0 = # of size 3 clusters
       0 = # of size 4 clusters
     324 = # of frozen angles
  find clusters CPU = 0.000 seconds
fix             2 all nph aniso ${pressure} ${pressure} ${pressureDamp}
fix             2 all nph aniso 7619.5 ${pressure} ${pressureDamp}
fix             2 all nph aniso 7619.5 7619.5 ${pressureDamp}
fix             2 all nph aniso 7619.5 7619.5 1000
fix             3 all temp/csvr ${temperature} ${temperature} ${tempDamp} ${seed}
fix             3 all temp/csvr 221.47 ${temperature} ${tempDamp} ${seed}
fix             3 all temp/csvr 221.47 221.47 ${tempDamp} ${seed}
fix             3 all temp/csvr 221.47 221.47 100 ${seed}
fix             3 all temp/csvr 221.47 221.47 100 745823


run             250000
PPPM initialization ...
  extracting TIP4P info from pair style
  using 12-bit tables for long-range coulomb (../kspace.cpp:340)
  G vector (1/distance) = 0.37202008
  grid = 24 24 24
  stencil order = 5
  estimated absolute RMS force accuracy = 0.0035335701
  estimated relative force accuracy = 1.0641241e-05
  using double precision FFTW3
  3d grid and FFT values/proc = 3211 432
Last active /omp style is kspace_style pppm/tip4p/omp
Neighbor list info ...
  update every 1 steps, delay 7 steps, check yes
  max neighbors/atom: 2000, page size: 100000
  master list distance cutoff = 10.8154
  ghost atom cutoff = 10.8154
  binsize = 5.4077, bins = 4 4 4
  1 neighbor lists, perpetual/occasional/extra = 1 0 0
  (1) pair lj/cut/tip4p/long/omp, perpetual
      attributes: half, newton on, omp
      pair build: half/bin/newton/omp
      stencil: half/bin/3d
      bin: standard
Setting up Verlet run ...
  Unit style    : real
  Current step  : 8250000
  Time step     : 2
  Walltime left : 2:54:59.92
Per MPI rank memory allocation (min/avg/max) = 10.18 | 10.19 | 10.19 Mbytes
Step Temp PotEng TotEng E_pair E_mol Press Lx Ly Lz Volume Pxx Pyy Pzz Pxy Pxz Pyz Enthalpy 
 8250000    229.54154   -4762.4913   -4319.8011   -4762.4913            0    7179.0702    19.823593    19.710235    20.640028    8064.6301    8408.0977    6610.9539    6518.1591   -29.108202     1593.078    1082.7037   -3475.4394 
 8251000    218.91316    -4786.986   -4364.7936    -4786.986            0    7204.9917    19.787867     19.65829    20.693587    8049.7151    7402.6493    7331.1832    6881.1427    580.26595    1757.1518    1092.2288   -3518.9503 
 8252000    224.10675   -4782.4538   -4350.2451   -4782.4538            0    7584.8637    19.935922     19.83101    20.416146    8071.5126    7702.1155    6763.9701    8288.5056   -341.65774    525.45246   -353.06365   -3457.3949 
 8253000    218.50483   -4782.4236   -4361.0187   -4782.4236            0    7056.9337     19.78341    19.844561    20.643129    8104.3494    7888.6633    5877.8096    7404.3281   -159.82581    1049.5744   -748.60309   -3526.9341 
 8254000    209.70243   -4791.0466   -4386.6179   -4791.0466            0    7809.8117    19.786236    19.687398    20.742277    8079.9363      7507.45    9202.9614    6719.0236      319.672    496.95808   -196.78168   -3466.3285 
 8255000    223.95176   -4794.3062   -4362.3964   -4794.3062            0    5844.3032    20.007638    19.811297    20.504547    8127.5361     5421.971    5806.5086    6304.4301    92.963963   -8.5025299   -86.003168   -3669.6607 
 8256000    224.68952   -4779.3336   -4346.0009   -4779.3336            0     6354.941    19.865181    19.946414    20.644971    8180.3454    7022.3081    4673.4678    7369.0471   -86.932798    1051.5051   -564.51067   -3587.8441 
 8257000      225.056   -4775.3478   -4341.3084   -4775.3478            0    9023.1151    19.644483    19.848818     20.61469    8038.0752    9222.4911      9643.11    8203.7443    877.95011   -622.94026   -1142.9842   -3283.5549 
 8258000    227.94624   -4782.2974   -4342.6839   -4782.2974            0     8450.997    20.053278    19.596053    20.488726    8051.3539    6974.8458    8861.9022     9516.243   -13.890804   -862.28496   -1106.5708   -3350.3616 
 8259000    225.67528   -4769.2111   -4333.9773   -4769.2111            0    7649.9535    19.819382    19.957286    20.577728     8139.337    7040.5266    8160.5176    7748.8161   -48.180853    2415.5845    7.8982503   -3425.8981 
 8260000    221.86534   -4760.2128   -4332.3268   -4760.2128            0    7403.7744    19.700617    19.884283    20.538181     8045.476    5844.4048    8096.3193    8270.5991     -632.211    524.34224    712.69707   -3463.6048 
 8261000    218.10044   -4778.1679   -4357.5429   -4778.1679            0    8053.6538    20.016796    19.744355    20.554349    8123.4635    6643.0117    9950.7458     7567.204   -215.08587     164.5237   -950.53087   -3403.4073 
 8262000    232.15012    -4756.721   -4308.9999    -4756.721            0    7836.5874     19.62264    19.829947    20.729285    8066.0946    10493.429    6690.0366    6326.2964   -751.81247   -463.86638    652.15878   -3387.1373 
 8263000    231.21504   -4766.5422   -4320.6245   -4766.5422            0    8002.0932    19.987497    19.978262    20.355265    8128.1716    8230.5861    6979.1989    8796.4947    -260.6259    823.49763   -1327.7295    -3372.048 
 8264000     210.8331     -4776.48   -4369.8707     -4776.48            0    7498.1739    19.894193    19.789479    20.647241    8128.7301    8195.0298     7435.988     6863.504     221.9095   -501.09837    -366.0435   -3480.9682 
 8265000    224.29441   -4798.6686    -4366.098   -4798.6686            0    7198.6282    20.023399    19.766228     20.62288    8162.2693    6185.2214    7894.7489    7515.9143    238.83975    302.60801   -1116.6226   -3509.1854 
 8266000    225.86762    -4767.544   -4331.9393    -4767.544            0     9239.801    19.551926    19.892769    20.478904    7965.1046    10371.268    7713.2199     9634.915   -635.67352     1256.852   -218.93887   -3258.6174 
 8267000    219.93819   -4777.1729   -4353.0036   -4777.1729            0    6195.6647    19.853674    19.871273    20.501639    8088.2612    6311.1557    4934.6259    7341.2124    -248.5854    34.949009   -242.45949   -3622.1693 
 8268000     212.1612    -4779.173   -4370.0023    -4779.173            0    7890.4744    19.846956    20.001961    20.285716    8052.9839    6990.1445    8374.3844    8306.8943    784.38456   -454.55133   -726.05221   -3443.3094 
 8269000    220.58669   -4787.9363   -4362.5164   -4787.9363            0    7758.9348    19.789253    20.058168    20.456855    8120.0651    8098.0291    7069.8373     8108.938   -464.71691   -190.02367   -1272.5064   -3443.6814 
 8270000    217.28475   -4772.4533   -4353.4013   -4772.4533            0    9337.0709    19.600762    19.931698    20.515426    8014.8944    11046.554    8221.4565    8743.2018    -514.3717    405.50773    763.58418   -3262.0003 
 8271000    214.28752   -4795.2294   -4381.9579   -4795.2294            0    6066.5804    19.851357    19.917182    20.681157    8176.9796    7342.0329    4476.8379    6380.8702   -71.403313   -795.33073    131.16597   -3658.5008 
 8272000     226.4078   -4788.8258   -4352.1793   -4788.8258            0    8627.8543    19.968845     19.70422     20.51041    8070.2414    8065.6093    8532.2158    9285.7379    91.648464   -406.47488   -215.82468   -3336.7137 
 8273000    215.02772   -4796.1352   -4381.4362   -4796.1352            0    6142.2827     20.01462    19.916058    20.447054    8150.4479    5876.0451    6254.1344    6296.6687  0.042959732   -672.28289    969.51369    -3651.328 
 8274000    232.19944   -4761.3694   -4313.5533   -4761.3694            0    6636.1861    19.757939    20.013985    20.647039     8164.564    7487.7912      5417.84    7002.9271   -170.39298      976.534    1328.7765   -3523.3707 
 8275000    235.58309   -4779.8868    -4325.545   -4779.8868            0    8206.2088    19.743909    19.884257    20.560516    8071.9136    8499.5246    8278.0276    7841.0742   -262.20796    461.47048   -503.74806   -3359.5053 
 8276000    228.56428   -4771.9015   -4331.0961   -4771.9015            0    7029.2027    19.850719    19.775694    20.673475    8115.6155    7547.8723    6917.5187    6622.2171    165.93802    224.73119    1110.1709   -3499.1342 
 8277000      228.571   -4754.8703   -4314.0519   -4754.8703            0    9944.5738    19.869077    19.959182    20.315828    8056.6586    9572.8517    10278.524    9982.3457    167.07212    437.87282    30.305919   -3145.5834 
 8278000    220.57874   -4797.9163   -4372.5116   -4797.9163            0    7117.4259    19.987107    19.817705    20.565035    8145.7815    7961.8116    7193.9697    6196.4965    243.63811   -40.235435    605.18027   -3526.9766 
 8279000    225.27773   -4778.4503   -4343.9832   -4778.4503            0     8182.165    19.968411    19.847465     20.38979    8080.9293    6333.1112    8864.8687    9348.5151    443.61698    1422.6748   -383.75006   -3379.6982 
 8280000    232.51968   -4779.5019   -4331.0681   -4779.5019            0    6603.3876    19.568378    19.904866    20.682329    8055.8902    6318.0932    6816.9892    6675.0805    372.33593    346.65348    150.14944   -3555.2566 
 8281000    221.33435   -4751.7687   -4324.9068   -4751.7687            0    8229.6225    20.077076    19.592188    20.586387    8097.7349    8564.5695    7982.0553    8142.2425   -687.66984    -1390.777   -314.42062   -3353.0118 
 8282000    231.89533   -4803.3037    -4356.074   -4803.3037            0    5400.9329    19.730224    19.939832    20.692716    8140.8732    6268.0565    4453.3314    5481.4108   -578.60356   -487.79885    878.18848   -3714.8413 
 8283000     224.0306   -4782.2359   -4350.1741   -4782.2359            0    6915.8813    19.777465    19.895876    20.508706    8069.9705    5703.6714    7351.0289    7692.9435    288.69873    -471.8961   -734.80556   -3536.2285 
 8284000    217.43044    -4776.758   -4357.4251    -4776.758            0     8524.089    19.916562    19.805429    20.277499    7998.5821    9032.3016    7547.2281    8992.7373   -683.53909     1613.176    99.039909   -3363.0806 
 8285000    212.55049   -4809.3969   -4399.4754   -4809.3969            0    7572.8631    19.865589    19.860405    20.574598     8117.474    8117.9862    6854.9986    7745.6045    433.67448     506.6271    1699.1684   -3502.9617 
 8286000    212.83528    -4791.369   -4380.8983    -4791.369            0    7466.1392    19.502501     19.95361    20.819616    8101.8553    10784.909    6253.3423    5360.1664    -537.3133    138.27645   -254.04355   -3498.7198 
 8287000    226.01687   -4792.6132   -4356.7207   -4792.6132            0    7267.5278     19.97448    19.855197    20.409018    8094.1602    6870.1243    6690.1805    8242.2787    274.94983   -78.349455   -290.44062   -3498.8252 
 8288000    229.30868   -4789.4908   -4347.2498   -4789.4908            0    6513.9569    19.721346    20.044061    20.600641    8143.3481    8981.5934    3964.5315    6595.7457   -56.847861    24.746033    278.45731   -3573.6368 
 8289000    208.74974   -4770.5707   -4367.9793   -4770.5707            0     9641.692    19.791657    19.733861    20.584341    8039.5397    7255.3127    12753.752    8916.0115   -147.71226    786.15586    -153.2619   -3237.5059 
 8290000      219.097   -4782.0184   -4359.4714   -4782.0184            0    8048.3781    19.907059     19.79068    20.517458    8083.3498    7728.1354    8460.6279    7956.3709   -85.409679     245.0307   -338.66206   -3410.6693 
 8291000    218.22518   -4781.1499   -4360.2843   -4781.1499            0    7205.7646    19.698442    20.041419    20.660432     8156.423     8476.808     5994.485    7146.0008    298.04341     766.0845    23.505758   -3503.1365 
 8292000    215.71328   -4779.7811   -4363.7599   -4779.7811            0    8617.0721    19.941524    19.728696    20.515967    8071.3971    8449.3428    8206.1133    9195.7602   -371.19473     203.2953    -65.62848    -3349.418 
 8293000    219.23411   -4754.7719   -4331.9604   -4754.7719            0    8686.1624    19.682364    19.741611     20.77354    8071.7991    9824.5892     8571.601     7662.297   -47.759781    544.46935    709.85222   -3309.4349 
 8294000    223.61538   -4807.9317   -4376.6707   -4807.9317            0    10034.307    20.204182    19.606918    20.284845    8035.6738    6854.3355    12587.937    10660.649   -988.95534    17.891813    132.70613   -3200.7295 
 8295000    217.63165   -4814.2125   -4394.4916   -4814.2125            0    8159.7095    19.688989    20.025669    20.544066    8100.2208    8578.1283    8199.6101    7701.3903    488.02174    2077.0094    -305.2398   -3430.5572 
 8296000    217.83575   -4797.6895   -4377.5749   -4797.6895            0     7796.645    19.845521    19.861758    20.625694    8129.9668    7956.3829    7370.0742    8063.4779   -349.02225   -652.54092   -354.90687   -3453.1483 
 8297000    230.54116   -4793.8852   -4349.2671   -4793.8852            0    8981.0641    20.053339     19.61883    20.376127    8016.4381    8413.8513    9393.1091     9136.232    346.76051   -506.27001   -358.88307   -3299.2772 
 8298000    210.97317   -4788.1468   -4381.2674   -4788.1468            0    7715.9518    19.621731    19.917565    20.660172    8074.3488    8448.4681    7829.8249    6869.5623     29.17914   -563.57665   -216.81062    -3472.667 
 8299000    217.30805   -4754.9529    -4335.856   -4754.9529            0    9273.1459     20.07496    19.604402    20.590952    8103.7255    9961.6085    8582.9825    9274.8467   -161.16073   -1596.5434   -570.71758   -3239.9137 
 8300000    211.87288   -4781.3512   -4372.7365   -4781.3512            0    7289.0974    19.787488    19.750286    20.612218    8055.4312    7614.0992    6693.2205    7559.9725     689.3121   -448.92005    757.21164   -3516.4119 
 8301000    241.67235   -4758.0148   -4291.9293   -4758.0148            0    9090.7426     19.82192    19.692442    20.678372    8071.6374    10250.783    8949.0254    8072.4192   -370.95626    349.80368   -376.05556   -3221.7984 
 8302000    216.34672    -4787.898   -4370.6551    -4787.898            0    8922.4795    19.840784     19.75012    20.540803    8049.0756    10404.893    8127.7695    8234.7762   -997.99956    1000.0781   -639.21932   -3323.2675 
 8303000    213.35954   -4799.0807   -4387.5989   -4799.0807            0    8989.5451    19.828511    20.023738    20.308436    8063.2795      7739.95    8982.2981    10246.387   -572.71909    919.09613    1037.3756   -3330.4764 
 8304000    224.86324   -4767.3974   -4333.7298   -4767.3974            0    7641.2973    19.783925    19.562067    20.876825    8079.6336    7295.5867     8263.632    7364.6731   -430.91699   -247.47984   -480.47936   -3433.3315 
 8305000    222.99583   -4785.2087   -4355.1424   -4785.2087            0    7411.7402    19.893552     19.84047    20.532136    8103.9812    6100.6584    8337.9254    7796.6369    201.73644   -717.47055    608.00711   -3479.1618 
 8306000     233.0751   -4765.1397   -4315.6348   -4765.1397            0    8821.0414    19.767648     20.10431    20.385504    8101.5035    9289.0005     7800.881    9373.2426   -52.518931    229.26481    481.98258     -3273.41 
 8307000    213.88745   -4798.2586   -4385.7587   -4798.2586            0    8009.8887    19.929737    19.721703    20.632798    8109.6869    9552.9236    7637.1149    6839.6276   -151.29363   -7.4488845   -1358.4488   -3438.4174 
 8308000    223.20558   -4791.8637    -4361.393   -4791.8637            0    7704.2536     19.73892     19.92189    20.779221      8171.15    9063.2249    7263.8555    6785.6805    469.82971    520.64371    641.67519   -3443.2937 
 8309000    224.59195   -4786.6962   -4353.5517   -4786.6962            0    6560.6417    19.771373     19.97634    20.388016    8052.4442    6942.0807    4114.8182     8625.026    62.686953   -738.16829     1291.727    -3583.092 
 8310000    232.16572    -4799.012   -4351.2609    -4799.012            0    10230.696    19.717567    19.803209    20.489517    8000.5643    11848.282    9713.2966    9130.5087   -37.486749   -761.92559   -1105.5122   -3157.5431 
 8311000    223.46527   -4770.5482   -4339.5767   -4770.5482            0    9110.4003    19.710983    19.809669    20.561074    8028.4425    9299.8709    7993.2212    10038.109   -868.33033    245.46887    558.36344   -3272.8709 
 8312000    231.92738   -4758.9791   -4311.6876   -4758.9791            0    7231.0307    19.629102    19.779661    20.821538    8084.1073    8630.0627    7781.2608    5281.7687   -1.6072394   -102.80995    704.81468   -3459.1605 
 8313000    230.47037   -4770.7797   -4326.2982   -4770.7797            0    6661.7692    19.754795    19.966246    20.517638    8092.7532    8444.8632    4215.8996    7324.5449   -23.709036    -326.9073   -711.11931   -3540.0462 
 8314000    217.29705    -4767.252   -4348.1764    -4767.252            0    8091.5848    20.093807    19.618887     20.45417    8063.4045     5508.844    10897.315    7868.5959    -816.3293    1049.8528    1183.3901   -3396.6345 
 8315000    219.61919   -4781.8628   -4358.3087   -4781.8628            0      8047.54    19.773059    19.745815    20.615802    8049.1342    9869.0329    6949.7158    7323.8714   -579.37834    580.34198    143.84772   -3413.6211 
 8316000    230.02572   -4772.2014   -4328.5775   -4772.2014            0    6421.5983    20.037772    19.918797      20.5124    8187.0792    5324.9902    5927.3834    8012.4212   -47.386815      61.5897   -939.29383   -3561.8377 
 8317000    225.55042   -4805.5528   -4370.5598   -4805.5528            0    6776.2581     19.87481    19.965033    20.488358    8129.8057    6342.5489    6587.9595    7398.2658    6.8215652    903.73176    543.00445   -3567.1336 
 8318000    214.71724    -4772.257   -4358.1567    -4772.257            0    8525.7107    19.807349    19.951596    20.397388    8060.8078    8272.6612    8803.8849    8500.5859   -38.865274    633.78344    893.67404    -3355.886 
 8319000    212.19164   -4796.3844    -4387.155   -4796.3844            0    7496.5619    19.788001    19.751029    20.724105    8099.6719    7334.9099    8130.3845    7024.3914   -568.67094   -1126.6209   -313.69231   -3501.6206 
 8320000    223.08913   -4777.2009   -4346.9547   -4777.2009            0    7030.0731    19.676037    20.043982    20.569181    8112.2001    7422.0604    7324.7698    6343.3891    640.30317   -1065.7429   -1224.9024     -3515.24 
 8321000    220.16811   -4777.3755   -4352.7628   -4777.3755            0    6752.2432    19.766043     19.87252    20.714764    8136.7817    6303.8206    7643.1745    6309.7346    -411.6331   -533.23291   -160.97999   -3551.4969 
 8322000     238.3207   -4757.9222   -4298.3007   -4757.9222            0    6125.6579    19.897277    19.888851    20.415927     8079.276    5496.4329     5731.406    7149.1347    -401.6784    1984.1161    1059.9423    -3576.527 
 8323000    221.43507   -4816.3161     -4389.26   -4816.3161            0    6419.8923    19.887323    19.828893     20.60308    8124.6928    6618.4139    7175.7507    5465.5123    57.940878    558.43816   -228.85505   -3628.5649 
 8324000      217.756   -4792.7655   -4372.8047   -4792.7655            0    9129.3658    19.657824    19.911302    20.565684    8049.6736    8780.7791    9336.9163     9270.402    307.01926   -668.97784    415.34993   -3301.0515 
 8325000    216.81669   -4788.7926   -4370.6434   -4788.7926            0    8017.2474    19.755442    19.938089    20.580739    8106.4597    8279.8463    7416.7698    8355.1261   -542.01676   -326.73351    -750.5619   -3422.8091 
 8326000    213.46602   -4761.9973   -4350.3101   -4761.9973            0    7632.5996    19.922164     19.67414    20.623428    8083.3823    7307.2685    8514.5831     7075.947    21.665527   -40.211117     191.6809   -3450.5194 
 8327000    213.74865   -4808.9773   -4396.7451   -4808.9773            0    7539.8381    20.022667    19.783254    20.512252      8125.18    8395.0718    8509.1007    5715.3417    141.70522    580.24985    -268.9841   -3503.2938 
 8328000    228.02794    -4759.094   -4319.3229    -4759.094            0    8990.7268    19.816036    19.929438    20.416591    8062.9699    10159.773    8114.0072    8698.4003    444.06731    1499.7972   -579.61344   -3262.1021 
 8329000    221.44836   -4793.2503   -4366.1685   -4793.2503            0    8538.8446    19.775246    19.902669    20.548373    8087.4323    9848.7387    7797.0069    7970.7882   -127.13308    1114.4859    907.29279   -3359.0382 
 8330000    217.31447   -4746.1233    -4327.014   -4746.1233            0     9868.352    19.845416    19.641408    20.562868    8015.2399    8885.6132    11379.969    9339.4738   -218.93616   -990.02001   -112.98403   -3173.4624 
 8331000    229.71898   -4786.8336   -4343.8013   -4786.8336            0     6852.231    19.671864    19.735649    20.851628    8095.3737    7790.8591       6994.1     5771.734   -648.12161    266.45125    240.87891   -3534.8082 
 8332000    223.82288   -4816.2022    -4384.541   -4816.2022            0    6044.4659    20.066694    19.848404    20.432615     8138.144     5168.005    6397.3744    6568.0184    43.561676   -33.017058   -855.13918   -3667.1446 
 8333000    219.69534    -4764.811   -4341.1101    -4764.811            0    6903.5956    19.965479    19.895068    20.517677    8149.9202    5901.4165    6904.7331    7904.6373    389.79759   -21.303707    895.81942    -3520.561 
 8334000    230.65692    -4768.248   -4323.4068    -4768.248            0    7156.1043    20.082653    19.611219    20.670918    8141.1441    6536.0591    6869.6115    8062.6422    3.3403525    -253.2466   -1211.5104   -3473.7608 
 8335000    217.02562   -4784.7477   -4366.1955   -4784.7477            0     6896.102    19.705545    19.701169    20.748527    8055.0402    6912.7913    7158.7913    6616.7234   -602.24108    29.633391    848.39718   -3556.0794 
 8336000    223.57514     -4799.17   -4367.9866     -4799.17            0    7726.1221    19.820412    19.699907    20.704034    8084.1026    7689.0096    7589.3273    7900.0294    51.715926    260.69427    1278.7818   -3457.0896 
 8337000    216.65161   -4782.2237   -4364.3929   -4782.2237            0    8377.7148    19.806698    19.840045    20.466762    8042.7366     8151.358    8581.5356    8400.2508   -560.95753   -503.19854    1119.7324   -3381.7283 
 8338000    220.38912    -4784.518    -4359.479    -4784.518            0    7727.9816    19.803986     19.78408    20.697969    8109.5397    6864.2564    8969.0113    7350.6771   -746.10061   -533.40738   -943.22324   -3445.4959 
 8339000    206.06742   -4790.1859   -4392.7675   -4790.1859            0     8279.649    19.845054    19.734116    20.549639    8047.7441    9973.9958    6119.1411    8745.8102    940.49199   -58.566591   -94.173569   -3421.0009 
 8340000    217.82896   -4784.4695    -4364.368   -4784.4695            0    7966.7593    19.783138    19.636739    20.801289    8080.8083    8837.6352     8047.802    7014.8406     214.9865    426.00228   -1196.7752   -3425.4831 
 8341000    225.49612   -4807.3767   -4372.4885   -4807.3767            0    8413.2859    19.957397     19.64857    20.648307      8096.91    7935.0942    9780.0961    7524.6675   -268.03362    1409.1057   -469.41795   -3379.0045 
 8342000    227.04695    -4796.953   -4359.0738    -4796.953            0    8675.3596    19.873199     19.79465    20.506304    8066.8316    10587.115     7818.471    7620.4925   -206.66986    165.38926    1683.6358   -3338.4484 
 8343000    230.69206   -4783.7233   -4338.8143   -4783.7233            0     6299.768    19.834121    20.128566    20.321246    8112.8998    7570.9232    4009.5043    7318.8765   -295.34275    557.65858     981.2281   -3593.4363 
 8344000    218.40037   -4787.2895    -4366.086   -4787.2895            0    7659.3218    19.972324    19.671218    20.725295    8142.5529    5672.0983    9371.9767    7933.8903   -262.56168   -1514.9113   -119.42579   -3456.5356 
 8345000    208.62198   -4787.9324   -4385.5874   -4787.9324            0    8986.1156    19.746624    19.848708    20.462356    8020.1175    9740.5524    7709.2808    9508.5137    583.84627    -633.7415    445.50512   -3334.5247 
 8346000    231.03313    -4788.235   -4342.6682    -4788.235            0    7875.9671    19.975831    19.911923    20.372643    8103.3651    7580.8377    7434.5031    8612.5606    605.14499    246.28395    129.11276   -3411.8921 
 8347000    228.39728   -4791.8842   -4351.4008   -4791.8842            0    8740.4823    19.828047    19.890675    20.433906    8058.9942    6916.9703    9917.1306    9387.3461   -250.44026    157.61941   -476.27613    -3324.113 
 8348000    215.87064   -4785.0317    -4368.707   -4785.0317            0    7008.1098     19.88036    19.793557    20.712442    8150.4091    7980.9254    7315.6643    5727.7396   -164.34237   -242.02467    542.62767   -3535.6855 
 8349000    225.00997   -4798.7715   -4364.8208   -4798.7715            0    7293.1743    19.991014    19.776713    20.499305    8104.5345    6288.2356    7886.9294     7704.358   -357.58395    690.25406   -365.47097   -3502.7945 
 8350000    223.83207   -4776.0363   -4344.3573   -4776.0363            0    8521.3592    19.840043     19.62598    20.588082    8016.5934    8959.7505    9402.4106    7201.9166   -248.80826   -610.94513    1557.0691   -3348.0929 
 8351000    212.34613   -4797.1093    -4387.582   -4797.1093            0    8051.0468    19.892586    19.650914    20.650775    8072.5424    7418.4813    9422.6768    7311.9822    163.06411   -681.62017     1041.192   -3439.7342 
 8352000    219.41538   -4776.5521   -4353.3911   -4776.5521            0    7282.9001    19.757009    20.082467    20.397003    8092.9085    5311.8223    7780.8144    8756.0635   -392.40445    364.28743   -1502.7516    -3493.814 
 8353000    221.92414   -4770.1191   -4342.1197   -4770.1191            0    6748.0855    20.037029    19.584005    20.741885     8139.225    5096.9563    8860.5111     6286.789   -384.75884    366.96454   -197.21814   -3541.1068 
 8354000    217.42581   -4764.8051   -4345.4811   -4764.8051            0    6976.2721     19.85556    19.943314    20.498869    8117.2581    7416.6595    6352.0369    7160.1199    307.21827    927.03197    677.34617   -3519.6169 
 8355000    239.65878   -4780.4153   -4318.2132   -4780.4153            0    6256.6921    19.906674    19.784234    20.685907    8146.9023    7841.1484    5200.6249    5728.3031   -162.35672   -619.31322   -26.271773   -3574.8293 
 8356000    221.06626    -4802.136   -4375.7911    -4802.136            0    7428.4473    19.742962    19.892597    20.471364    8039.8985    6919.9602    8308.7671    7056.6145    317.03745    922.07186   -52.011001   -3504.7784 
 8357000    227.37356   -4787.0187   -4348.5097   -4787.0187            0    7846.6283     19.90455    19.862054     20.36546    8051.3876    9883.0732    5775.9367    7880.8749   -22.417485    1157.6972    65.119011   -3427.1489 
 8358000    214.29061   -4754.6457   -4341.3683   -4754.6457            0    7627.4292    19.881306     19.83988    20.624336    8135.1192    6918.7007    7948.6507    8014.9364    1066.7906   -633.92488    637.55585    -3436.432 
 8359000    225.39759   -4783.8127   -4349.1145   -4783.8127            0    8983.9788    19.782961    19.648016    20.618976    8014.5123    8058.1084    8650.0108    10243.817   -569.82069   -339.07436    696.51509   -3299.0362 
 8360000    219.46633   -4756.3404   -4333.0812   -4756.3404            0    9210.9674    19.637787    19.913891    20.606635    8058.5288    10358.565    8868.2182    8406.1189   -222.85277    647.25158       25.524   -3250.5588 
 8361000    225.73734   -4772.1565    -4336.803   -4772.1565            0    8497.1111    19.896646    19.975781    20.461383    8132.3985     7978.324    8492.9226    9020.0866    382.61579    1259.2456   -203.33846   -3329.0228 
 8362000     223.3698   -4774.1884   -4343.4009   -4774.1884            0    7396.9598    19.923265    19.671839    20.736117    8127.0494    5964.7931    9233.2909    6992.7955    14.909704   -749.58898   -503.36521   -3466.6786 
 8363000    217.27059   -4794.7446     -4375.72   -4794.7446            0    7643.4105    19.865039    19.880377    20.390747    8052.8048    7682.2134    6533.0152    8715.0031    353.02855   -770.01216   -398.58874   -3478.0634 
 8364000    214.64864   -4767.3824   -4353.4145   -4767.3824            0     5619.137    19.911588    19.751567    20.713861    8146.4518    5704.9988    6026.3689    5126.0432    464.51719   -287.17103    493.44262   -3685.8181 
 8365000    223.60819   -4780.1237   -4348.8765   -4780.1237            0     7218.001    19.658964    19.983702    20.534874    8067.3075    8142.5849    7114.1999    6397.2181   -985.76071    281.45132   -232.60646   -3499.6541 
 8366000    220.72941   -4810.2645   -4384.5692   -4810.2645            0    6753.8568    19.818946    19.923802     20.57045    8122.6281    7844.9676    6036.8592    6379.7436   -27.539725    971.52691   -466.74126    -3584.506 
 8367000    210.39691   -4794.5087   -4388.7405   -4794.5087            0    7422.1392    19.701208    19.932173    20.683291     8122.078    7535.7667     7440.283     7290.368    56.660416   -667.21541   -593.50608    -3509.572 
 8368000     211.6896   -4780.8866   -4372.6254   -4780.8866            0    7421.5359    19.929085    19.958385     20.38302    8107.3938    6316.9101    7805.0451    8142.6526   -407.39409    25.020351   -140.35946   -3495.1177 
 8369000    204.81596   -4776.7737   -4381.7689   -4776.7737            0     7789.443    19.849322    19.821874    20.614961    8110.9716    8564.6155    7276.4498    7527.2637     39.19289    408.55866    281.44391   -3460.3541 
 8370000    224.42228   -4785.4053   -4352.5881   -4785.4053            0     7881.714    19.628741    19.863473    20.729444    8082.3061     9248.798    8142.5528    6253.7911   -284.44342    1368.6588    1275.9248   -3423.5535 
 8371000    220.25753   -4813.8289   -4389.0437   -4813.8289            0    6779.4762    19.927172    19.924413    20.405539     8101.758    5423.9554    7463.4216    7451.0517    27.199819    963.00291    140.44483   -3588.0091 
 8372000    213.94378   -4747.1796    -4334.571   -4747.1796            0    5995.8769    20.111647    19.821109    20.467061      8158.89    6807.8556    4177.0842    7002.6908   -365.47401    758.62868    472.65371   -3621.1274 
 8373000    218.02325   -4777.2072    -4356.731   -4777.2072            0    6589.8904    19.799187    19.830802    20.605652    8090.4747    6622.8055    5219.9354    7926.9305    120.94556   -108.58604     947.0124   -3579.1815 
 8374000    222.91385   -4785.4275   -4355.5194   -4785.4275            0     6826.566    19.739004    19.877657    20.698103    8121.2142     6149.942    7758.4242     6571.332   -728.82745    626.72078   -926.42511   -3546.9838 
 8375000      226.118   -4768.6261   -4332.5385   -4768.6261            0    8125.9375    19.773299    20.063062    20.434601    8106.6703    7452.4333    8355.0547    8570.3245    440.62199   -2099.7478    53.479567   -3371.8295 
 8376000    212.00813     -4797.82   -4388.9445     -4797.82            0    5787.4355     20.07917    19.748603    20.563436    8154.1337    5163.5106      6158.34     6040.456   -406.10595    698.88648    34.802638   -3700.7046 
 8377000    228.62574   -4806.3564   -4365.4324   -4806.3564            0    7197.9351    19.915787    19.612478    20.724779    8095.0556    6370.3285    7972.2851    7251.1918   -811.62426    776.62651   -40.227098    -3515.658 
 8378000    213.36251   -4781.1159   -4369.6284   -4781.1159            0    6788.4204    19.890377    19.824181    20.586182    8117.3463    7806.1264     5815.092     6744.043     413.6103    664.71367    799.03558   -3565.9937 
 8379000    236.06382    -4770.555   -4315.2861    -4770.555            0    7524.6172    19.877275    20.095361    20.296052    8107.0756     6491.467    7434.5558    8647.8289   -97.256357   -291.65759   -159.67284   -3425.6252 
 8380000    202.84247   -4787.1048   -4395.9061   -4787.1048            0    8505.0782    19.812151    19.748757    20.691811    8095.9886    8600.4182     10053.13    6861.6867    718.23904    836.50059    514.34756   -3391.6971 
 8381000    209.86032   -4795.2409   -4390.5076   -4795.2409            0     8502.512    19.894302    19.738656    20.574412    8079.3001    8469.7207    8343.7896    8694.0257    721.32826    1761.0908    384.45684    -3388.671 
 8382000     230.3821   -4766.7183    -4322.407   -4766.7183            0    7101.5127    19.858247    19.924946    20.432004    8084.4226    7556.8437    5894.2791    7853.4155   -358.88631   -715.92064   -123.38904   -3485.1173 
 8383000    232.69223   -4769.5223   -4320.7558   -4769.5223            0    7984.2166    19.899641    19.656287    20.579333    8049.6693    7747.0482    7625.3352    8580.2664   -396.21916    781.37243   -760.18548   -3383.4393 
 8384000    217.01888   -4797.9821    -4379.443   -4797.9821            0    6996.7593    19.661676     20.07883    20.594348    8130.3077    8999.5835    4369.9489    7620.7455   -392.94345     -206.572   -60.930307   -3549.8219 
 8385000     218.4186   -4773.5328   -4352.2941   -4773.5328            0    9103.8281    19.796539    19.976324    20.293702    8025.3893    10943.516    6283.0094    10084.959   -192.72899    690.94658    148.14045   -3286.7632 
 8386000    228.22256   -4789.0296   -4348.8832   -4789.0296            0    7637.0106    19.770428     19.80663    20.669564    8093.9024    6408.3938    9590.9313    6911.7068   -61.887567   -981.56068   -209.59459   -3447.4008 
 8387000    219.41266   -4789.3116   -4366.1558   -4789.3116            0    8157.1511      19.8849    19.717206    20.497999    8036.7461    5812.0268    8974.4844    9684.9422   -137.57528    606.13535   -779.29809   -3410.0749 
 8388000    218.01839   -4778.0233   -4357.5565   -4778.0233            0     8202.825    19.747021     19.71038     20.63635    8032.1069     9421.108    8679.7223    6507.6447   -691.73938   -532.33214    669.43773   -3396.6773 
 8389000    212.13172   -4790.5009    -4381.387   -4790.5009            0    10268.945    19.905418    19.520516    20.530582    7977.4456    9249.4557    11248.186    10309.192    75.893426    470.42081    859.33633   -3186.6686 
 8390000    224.78259   -4780.9491   -4347.4369   -4780.9491            0    5664.6741     19.81821    19.901612    20.593024    8122.1836    4127.4501    7074.9285    5791.6436    84.678622   -375.83015    65.464727   -3676.4352 
 8391000    213.80766   -4778.2414   -4365.8954   -4778.2414            0    7415.9904     19.77518    19.974385    20.494697    8095.3453    8889.9826    6569.0191    6788.9696    -119.9786   -497.59209    1508.0097   -3490.3464 
 8392000    226.65932   -4804.6252   -4367.4936   -4804.6252            0    6425.9245    19.896315    19.894866    20.570968    8142.6993    6583.1808    5765.6929    6928.8998   -132.69369   -808.64654   -334.95014   -3604.3963 
 8393000    222.50776   -4802.3018   -4373.1769   -4802.3018            0    5366.9218     19.97759    19.979829     20.53606    8196.9445     4337.341    6538.6399    5224.7844   -399.97957    663.80706   -829.88329   -3731.5935 
 8394000    223.45035   -4788.6294   -4357.6866   -4788.6294            0     6675.209     19.97177    19.885936    20.495066    8139.7662    5685.0995    7471.5772    6868.9504   -549.67668   -132.26721   -350.62668   -3565.2716 
 8395000    218.12268   -4776.9396   -4356.2716   -4776.9396            0    8230.5474    19.665095    19.933098    20.631976    8087.4516    7867.2045    9259.7991    7564.6386    322.96972   -736.33784     863.5201   -3385.5017 
 8396000     219.0159   -4799.9562   -4377.5656   -4799.9562            0    6275.2976    20.018866    19.649234    20.687225    8137.4313    6448.0417    6809.3822     5568.469     116.2355     -926.785    727.72899   -3632.8378 
 8397000    219.80656   -4798.3429   -4374.4275   -4798.3429            0    7160.1881    19.729789    19.974125    20.462798    8064.0875     7415.355    6195.6166    7869.5929   -317.75011    820.61833     486.8521   -3532.3432 
 8398000    212.63909    -4788.148   -4378.0556    -4788.148            0    8046.0172    19.727042    19.925304    20.588589    8092.7012    7485.0954    8750.4171    7902.5391    563.47214   -888.79693   -1092.1667   -3428.4345 
 8399000    229.30112   -4782.3943   -4340.1678   -4782.3943            0    7173.8465    19.953669    19.686832    20.676418    8122.2042    7908.4609    6653.0263    6960.0524   -497.74068     609.7623    351.90584   -3490.3969 
 8400000    221.56276   -4801.7355   -4374.4331   -4801.7355            0     5901.821    19.996785    19.962104    20.380736    8135.5395    6386.4296    5083.6817    6235.3517     293.3988   -1737.0734   -683.63003   -3674.1909 
 8401000    230.26456   -4777.1343   -4333.0497   -4777.1343            0    5249.5192    19.809353     19.91715    20.726285    8177.4697    6356.4668     4932.823    4459.2677   -80.419453   -1165.0695    734.59505    -3706.992 
 8402000    222.86131   -4770.9516   -4341.1448   -4770.9516            0     7163.288    19.877765    20.055259    20.367208    8119.4633    7096.4422    6799.5667    7593.8549   -222.21402    438.61566   -1083.3854   -3492.9109 
 8403000    218.28246   -4788.9579   -4367.9818   -4788.9579            0    6407.8086    19.951927    19.810505    20.595797    8140.6486    5066.4279    6433.1951    7723.8028   -21.603889     1436.921    64.738577   -3607.2275 
 8404000    214.08421   -4763.8971   -4351.0177   -4763.8971            0    8872.4531    19.880666     19.56861    20.755688    8074.7307    9444.5553    8544.4463    8628.3577   -25.579739   -77.701159   -56.919476   -3306.1828 
 8405000    225.62264   -4793.0894   -4357.9572   -4793.0894            0    7407.1676    19.748562    19.955161    20.483636    8072.3089    8836.9932    7662.9354    5721.5743   -211.62894    1015.5958    619.38263   -3485.9384 
 8406000    216.18146   -4784.7893   -4367.8652   -4784.7893            0    7730.3201    19.932834    19.995772    20.204039    8052.7724    6388.8854    7875.9201    8926.1549   -690.39624    1136.3236    172.39248   -3460.0054 
 8407000    229.34454   -4794.1777   -4351.8675   -4794.1777            0    5670.1115    20.085273    19.699129    20.530761    8123.2498    5298.3015    5090.8317    6621.2012    985.71043   -272.94172   -505.27383   -3680.1336 
 8408000    213.98344    -4790.884    -4378.199    -4790.884            0    7709.1416    19.423256    19.930483    20.729807    8024.8164    8181.1487    8747.3665    6198.9096   -32.467743    324.75595    961.16781   -3475.9695 
 8409000    221.25537   -4808.0591   -4381.3495   -4808.0591            0    7290.6439    20.078182    19.705805    20.553483    8132.1242    5142.3339    9717.1922    7012.4056   -719.60869   -704.41633    716.86159   -3516.6887 
 8410000    225.23501   -4788.0462   -4353.6615   -4788.0462            0    6017.2553    19.854099     19.89783     20.51916    8106.1654    6329.2068    4580.1645    7142.3948   -735.35681   -968.99389    39.963477    -3642.301 
 8411000    207.82955   -4774.3715   -4373.5547   -4774.3715            0    7470.1901    19.766926    19.611147    20.832578    8075.7921     7086.503    8841.5818    6482.4854    476.54483   0.65611843   -328.28387   -3493.7371 
 8412000    218.50757   -4771.7364   -4350.3262   -4771.7364            0    5776.8433    19.540159    19.981775    20.690912    8078.7055    8071.4416     4542.665    4716.4231   -297.34772    -60.26653   -577.73702   -3669.7007 
 8413000    226.71765   -4782.6422   -4345.3981   -4782.6422            0     8520.119    19.952782    19.604864    20.510711    8023.2074    8313.3509    8206.2456    9040.7606   -900.23349    1284.9445    719.03637   -3348.4569 
 8414000    223.89815   -4801.9862   -4370.1798   -4801.9862            0    8401.5821    19.731653     19.92396    20.566222    8085.2536    8245.9113    7918.8805    9039.9545    2.4034066   -910.64799   -481.53654   -3379.5062 
 8415000    224.10245   -4798.2073   -4366.0069   -4798.2073            0    8141.0974    19.972565    19.798973    20.470058    8094.6038    8808.9542    6632.2494    8982.0887    412.10843   -165.54054    1212.6151   -3404.9382 
 8416000     227.6921   -4778.9669   -4339.8435   -4778.9669            0     7745.806    19.821361    19.741838    20.667702    8087.4804    7112.1986    7345.1029    8780.1167     236.5963    2081.4139   -585.56964   -3426.2443 
 8417000     217.1054   -4772.8626   -4354.1566   -4772.8626            0    8874.2763    19.789849    19.885659    20.494086    8065.1236    9885.3592    8650.1774    8087.2922   -945.96979    2211.7156    1263.3431   -3310.3504 
 8418000    230.23608   -4771.9255   -4327.8959   -4771.9255            0    6815.0539    20.121494    19.847849    20.314328    8112.9002    5308.2118    7803.4453    7333.5045    702.90996    1586.1368   -539.18193   -3521.5501 
 8419000    230.41083   -4777.8603   -4333.4937   -4777.8603            0    9063.1813    19.738477    19.953949    20.540739    8090.1871    9727.7475    8442.9155    9018.8808   -115.12758    1130.4569    275.20276   -3264.1554 
 8420000    219.68019   -4762.9361   -4339.2644   -4762.9361            0    9875.3161    19.779841    19.693496    20.607126    8027.1808    9208.2387    11397.691    9020.0183    243.86141   -361.37955    383.66051   -3183.1789 
 8421000    225.62157   -4776.9099   -4341.7797   -4776.9099            0    7701.2261    20.014919    19.785289    20.529645     8129.759    5771.1389    8925.4049    8407.1344   -122.52966   -243.76551    1103.8059   -3428.6901 
 8422000    223.30341    -4806.297   -4375.6376    -4806.297            0    6529.7397    20.107838    19.922224    20.349977    8152.0553    5480.2465    7405.7946    6703.1779    -676.4228    348.84895   -907.21072    -3599.321 
 8423000    212.84283   -4795.3279   -4384.8426   -4795.3279            0    6174.7338    19.804895    19.800561    20.787108    8151.6237    7963.6014    4802.0971    5758.5029   -53.564829   -1090.8206    282.44945   -3650.7713 
 8424000    227.46468   -4801.4388   -4362.7541   -4801.4388            0     6833.567    20.080038    19.874576     20.36467    8127.1781    5530.6196    7348.0352    7622.0463    697.21466    619.81582    825.71012   -3552.7949 
 8425000    227.34605   -4802.3478   -4363.8918   -4802.3478            0    6654.9442    19.863887    19.874472    20.642114    8149.1817    7410.7426    7607.8244    4946.2657    95.116256    518.83327    318.74709   -3572.9686 
 8426000    217.31829   -4794.4926    -4375.376   -4794.4926            0    9481.7324    19.554083    19.764039     20.76715    8025.8324     13086.47    6855.3298    8503.3968   -285.63317    1748.3194   -449.49034   -3265.5531 
 8427000    220.90816   -4782.1232   -4356.0832   -4782.1232            0    6999.7513    19.765866    19.977784    20.525766    8105.1777    7912.1645    5196.8279    7890.2614   -906.36935    65.353821    555.18344   -3528.6727 
 8428000     215.4779   -4771.1678   -4355.6006   -4771.1678            0    7693.3717    19.790973    19.714204     20.73379    8089.5635    7513.6883    8109.6864    7456.7403    618.73112   -206.39008    150.38318   -3447.9521 
 8429000    227.47875   -4772.8966   -4334.1847   -4772.8966            0    7539.5255    19.768011    19.778186    20.780632    8124.7159    9672.6784    7398.3276    5547.5707    705.06529   -781.50036    -1043.864   -3440.8215 
 8430000    223.81656   -4781.4193   -4349.7702   -4781.4193            0    6726.2379     19.91149    19.953335    20.422096    8113.7116    7023.8181    5521.6845    7633.2112   -438.30248    1617.1816     -620.914   -3553.8534 
 8431000    225.53383   -4808.4593   -4373.4984   -4808.4593            0    7847.2921    19.822791     19.85582    20.734916    8161.2166    7471.3555    6987.6742    9082.8467   -1017.5976   -464.35686   -95.176914   -3439.4903 
 8432000    218.54238   -4773.6687   -4352.1913   -4773.6687            0    8068.8598    20.061691    19.807929    20.367223    8093.5381    9210.3237     6992.503    8003.7528   -978.54948   -181.88351    627.81773   -3399.7758 
 8433000    209.66443   -4786.5555      -4382.2   -4786.5555            0    8092.7358    19.792956    19.915598    20.442454    8058.1814    8906.7639     6808.857    8562.5864    302.46027    1031.2937    -505.7237   -3431.1392 
 8434000    206.71276   -4781.3377   -4382.6748   -4781.3377            0     8372.059    19.790891    19.734566      20.7131    8089.8045    7130.7028    10790.406    7195.0687   -367.43904   -292.05359   -1589.7516   -3394.9267 
 8435000    230.88386   -4787.6594   -4342.3805   -4787.6594            0    8371.4359    19.989246    19.980806    20.465673    8174.0153    8887.9133     7257.407    8968.9876   -75.346948   -175.10044    866.43169   -3344.4247 
 8436000    220.18361   -4768.7379   -4344.0953   -4768.7379            0    5947.7771    19.912525    20.026762    20.541962    8191.7932    5867.8373    5719.0414    6256.4525    -234.9802    101.80395   -195.72393   -3633.5209 
 8437000    221.53689   -4791.7533   -4364.5008   -4791.7533            0    9257.2006    19.708417    19.670187    20.680792    8017.2861    8798.0228    10143.741    8829.8382    714.22147   -369.89498   -291.56714   -3282.1129 
 8438000     231.1309   -4789.1774    -4343.422   -4789.1774            0    8985.0389    19.839202    19.768872    20.563328    8064.9094    8844.3078    9244.2494    8866.5596    390.10235   -42.414635    629.87408   -3286.6159 
 8439000    213.97914   -4795.3595   -4382.6827   -4795.3595            0    7357.1359    19.976669    19.910137    20.330673    8086.2861    7493.5401    8010.2214    6567.6462   -69.190405   -85.144191    572.66887   -3515.0543 
 8440000    228.50228   -4754.9229   -4314.2371   -4754.9229            0    8804.0115    19.730925    19.867762    20.504412    8037.9209    8947.6386    8657.3675    8807.0282    158.50927    812.54519   -459.06647   -3282.1883 
 8441000    215.99259   -4768.9723   -4352.4125   -4768.9723            0    8782.0328    19.807542    19.851709    20.623323      8109.37    8277.2945    8098.9661    9969.8378    3.3490112   -573.19704    332.86172   -3313.7892 
 8442000    218.02345   -4768.5806   -4348.1041   -4768.5806            0    9226.7677    19.735518    19.912531     20.54069    8072.1647    9065.0651    10520.182    8095.0561    523.47638    10.122969   -604.81855   -3261.8898 
 8443000    214.30109   -4756.7495   -4343.4518   -4756.7495            0    7466.0577    19.844742    19.848058    20.605201    8115.9681    6490.9789    8329.6964    7577.4978   -477.54519    255.96109   -590.47782   -3459.7463 
 8444000     227.1493   -4773.0201   -4334.9435   -4773.0201            0    8415.2053    19.880632    19.995771    20.374743    8099.5426    6692.6963    8632.6967    9920.2229    -620.2385   -846.60214    469.78523   -3340.9099 
 8445000    212.23097   -4759.3536   -4350.0483   -4759.3536            0    8020.4714    19.816353     19.72156    20.722989    8098.7389    9060.5523     7844.669    7156.1929   -672.79782    120.39811   -580.02005    -3402.736 
 8446000    213.79179   -4782.1449   -4369.8294   -4782.1449            0    7559.3211    19.869156     19.98071    20.524073    8148.0539    7806.9782    7101.6847    7769.3004   -382.19406    327.54788   -956.36098   -3471.5477 
 8447000    212.24206   -4767.5681   -4358.2415   -4767.5681            0    7790.8535    19.925226    19.902692    20.400109    8089.9822     7472.485    6957.0365     8943.039   -721.80131    324.86168    703.80895   -3439.0447 
 8448000    236.11766   -4811.5989   -4356.2261   -4811.5989            0    7802.4979    20.004822    19.762149    20.521653    8112.9947    6536.9063     9065.414    7805.1732    874.97095   -13.174635   -496.30649   -3433.0369 
 8449000    226.47027   -4771.8537   -4335.0867   -4771.8537            0    8385.5921    19.915348    19.829614    20.484093    8089.4483     9268.372    6630.8479    9257.5565    233.81623    545.11914   -532.40612   -3345.7855 
 8450000    215.78037   -4785.6177   -4369.4671   -4785.6177            0    7373.1461    19.719103    20.039961     20.54851    8120.1557    7752.8449    6944.4525    7422.1408   -58.480615   -772.84358   -1923.9719   -3496.3086 
 8451000    214.31062   -4782.1056   -4368.7896   -4782.1056            0    6455.0185    19.994169    19.757554    20.655092    8159.5022    6411.3019     7030.104    5923.6496   -140.52454    385.53452    -574.7296   -3600.6555 
 8452000    225.80892   -4796.5595    -4361.068   -4796.5595            0    6237.6222    19.905092    19.929779    20.457967    8115.7591    7556.4442    5188.9671    5967.4552    83.902949   -626.36395   -255.14874   -3622.7829 
 8453000    211.60431   -4783.8773   -4375.7806   -4783.8773            0    8210.5831    19.863658    19.839494    20.658585    8141.2371    9758.9292    7372.1255    7500.6946   -173.83928   -979.69551     295.6635   -3400.9249 
 8454000    215.63994   -4801.4763   -4385.5966   -4801.4763            0    7417.5654    19.959691     19.63042    20.703432     8111.959    5467.0002    9498.2786    7287.4174   -140.89302   -531.53318    711.21197   -3508.0645 
 8455000    210.31583   -4790.1842   -4384.5724   -4790.1842            0    7406.9824    19.691071    19.907301    20.562343    8060.3576    8036.4886     7734.971    6449.4876    163.29573   -597.59514   -921.08833   -3513.8665 
 8456000    222.28943   -4812.4469   -4383.7431   -4812.4469            0    7547.5494    19.761415    19.861506    20.544877    8063.6888    6992.6909    7456.5164    8193.4411    380.25259    1382.9205    576.31874   -3496.1465 
 8457000    220.03678   -4791.6262   -4367.2667   -4791.6262            0    7004.3729     20.04334    19.822074    20.559919    8168.4672    8000.0597    7264.7826    5748.2764   -135.95292   -132.17334   -69.639889   -3532.8448 
 8458000    219.47692   -4769.6434   -4346.3637   -4769.6434            0     7352.431    19.794251    19.721376    20.672878    8070.0686     6651.476    7817.9741    7587.8429    180.16744    928.94792   -552.85501   -3481.0291 
 8459000    211.83794   -4766.6666   -4358.1193   -4766.6666            0    8010.7089    19.920493    19.647729    20.522541    8032.3677    7226.5702    9425.9972    7379.5592    183.50911    229.48093    1324.8793   -3419.7141 
 8460000    228.64484   -4767.9939   -4327.0331   -4767.9939            0    7827.5267    19.832465     19.88064    20.430568    8055.4075    6884.3429    8051.4678    8546.7693    109.59752    392.78244    862.00444   -3407.4564 
 8461000    219.90873   -4775.6062   -4351.4937   -4775.6062            0    8947.5006    19.721611     19.88606    20.533844    8053.0686    10614.426    9317.5263    6910.5496   -109.95716    1269.3461    1425.4341   -3300.6478 
 8462000    223.32148   -4788.2462    -4357.552   -4788.2462            0    6958.4061    19.901553    19.752745    20.538142    8073.7552    6610.1446    7521.1329    6743.9409   -616.76925   -6.9858305    1580.2168   -3538.2175 
 8463000     225.3174   -4769.1214   -4334.5778   -4769.1214            0    7394.3228    19.901893    19.785983    20.599479    8111.6324    7682.4068     6267.724    8232.8375   -190.79831   -145.79756   -71.019034   -3459.8307 
 8464000    231.64552   -4802.9419    -4356.194   -4802.9419            0     6225.384    19.799943     19.91585     20.66543    8149.0545    4670.0657    7155.0205    6851.0659    134.67289   -421.81408    -1475.791   -3616.3345 
 8465000    213.60396   -4808.1806   -4396.2274   -4808.1806            0     8564.061    19.756298    19.979906    20.397638    8051.5389    9185.7504    7956.8865     8549.546   -804.23922    526.69003    375.85857   -3390.6059 
 8466000    215.87203   -4797.6104    -4381.283   -4797.6104            0    6127.0438    20.045184    19.779641    20.561727    8152.4481    3749.5556    7510.4063    7121.1696   -325.60324   -704.46508   -209.49909   -3652.8076 
 8467000    214.73146   -4809.0224   -4394.8948   -4809.0224            0    7366.6342    19.955895    19.824594    20.462319    8095.2518    5972.1729    8823.7259    7304.0037   -180.79424    477.05685    102.43557    -3525.183 
 8468000    227.64421   -4780.7784   -4341.7474   -4780.7784            0    7428.1038    19.802083    19.874923    20.653372    8128.4415    7520.6727    7659.2546    7104.3842   -302.81075   -709.48591   -42.796486    -3461.183 
 8469000    226.93603   -4776.7599   -4339.0946   -4776.7599            0    8194.4933    20.001338    19.805813    20.298885     8041.256    7553.9392    7610.9982    9418.5425   -310.38361   -603.81874   -465.26281    -3378.098 
 8470000     221.4714   -4806.5103   -4379.3841   -4806.5103            0    8546.1436    19.740829    19.979132    20.384404    8039.7032    6836.9943    9569.5329    9231.9037    428.43403    717.20691   -1223.6597   -3377.3417 
 8471000    212.25922   -4774.1362   -4364.7764   -4774.1362            0     8845.422    19.837667    19.820502    20.595849     8098.134    10539.318    7862.0252    8134.9224    67.673726    1526.8508    602.13049   -3320.1057 
 8472000    208.87485   -4777.6512   -4374.8185   -4777.6512            0    7419.5574    19.852705    19.982681    20.503214     8133.836    6638.6559     7193.981    8426.0354    18.573247    487.77838    414.14713   -3494.6835 
 8473000    222.32214   -4800.1615   -4371.3945   -4800.1615            0    7227.7853    19.949645    19.796086    20.530029    8107.8196    6881.7775    6746.0279    8055.5506   -220.68946    -453.0484    894.66744   -3516.7506 
 8474000    224.86049    -4796.267   -4362.6046    -4796.267            0    6998.1273    19.916991    19.880733    20.518108    8124.4398    5918.3914    8653.7429    6422.2476   -737.49446    286.36563   -766.16465   -3533.4202 
 8475000    220.16344   -4810.5197    -4385.916   -4810.5197            0    7493.2305     19.92368      20.0002     20.45107    8149.2931    7100.0076    7036.3509    8343.3331    126.82912     525.2411   -1093.3145   -3495.3524 
 8476000    225.14145   -4789.3386   -4355.1343   -4789.3386            0    8272.1005    19.877511    19.807809    20.519366    8079.0887    7060.0614    9223.7473    8532.4927   -453.80231    -396.1579    2.7378932   -3380.4723 
 8477000    237.90842    -4775.529   -4316.7026    -4775.529            0    5057.3126    19.970299    20.037169    20.530872    8215.3929    3937.9823     5187.328    6046.6275     284.6629    538.73461   -118.78634   -3710.7704 
 8478000    234.11076   -4791.9562   -4340.4539   -4791.9562            0    7256.3829    19.845395    19.722737    20.734781    8115.7074      8863.67    5909.4105    6996.0681    -275.9969     530.6546    419.46541   -3481.5937 
 8479000    233.70914   -4792.3056   -4341.5778   -4792.3056            0    7886.1776    20.102808    19.827237    20.283174    8084.5311    6690.2907    8504.2954    8463.9466   -335.92381   -796.62583   -415.18343   -3411.7613 
 8480000    240.47112   -4787.7356   -4323.9668   -4787.7356            0    8329.8699    19.624359    19.821311    20.702416    8052.8365    9646.6609    8089.4718    7253.4772    268.37703     110.4368   -1117.0225   -3345.6872 
 8481000    226.06449   -4768.4556   -4332.4713   -4768.4556            0    9269.7619    19.819149     19.83234    20.440595    8034.3823    8647.5085    9350.3904    9811.3867   -705.41463    349.57969   -587.35519   -3246.3034 
 8482000    219.73519   -4772.1317   -4348.3539   -4772.1317            0    8136.5151    19.757773    19.751924    20.642866    8055.9615    11221.734    5825.8737    7361.9374    408.03089    331.00438     475.7778   -3392.4116 
 8483000    223.59976   -4795.5312   -4364.3002   -4795.5312            0    7757.3992    19.885714    19.687159    20.577224    8055.8433     7276.542    8198.0494    7797.6062    1080.9191    383.56395   -115.55672   -3452.9128 
 8484000    224.23703    -4770.213   -4337.7531    -4770.213            0    8418.8888    19.745175    19.841652    20.612729    8075.5908    9431.9043      6659.24     9165.522   -1000.1196    -489.9274    71.912574   -3346.2251 
 8485000    204.32881   -4768.3181   -4374.2528   -4768.3181            0    9247.1969    19.843399    19.905635     20.45173    8078.3406    8906.2039    10496.184    8339.2033   -220.52453     227.0945    1381.9629   -3284.8006 
 8486000    225.38712   -4815.9247   -4381.2467   -4815.9247            0    7489.9649    19.954489    19.863245    20.579064    8156.7365    6807.8958    8740.1801    6921.8187   -432.82893    240.73927   -1042.6255   -3490.2582 
 8487000    214.68736   -4776.3949   -4362.3522   -4776.3949            0    6609.2045    19.994401     19.91044    20.456819     8143.805    6358.7545    6683.6974    6785.1616   -573.99407    792.55113   -363.61521   -3577.3833 
 8488000    226.38602   -4786.0186   -4349.4141   -4786.0186            0    5661.0254      19.8398    19.830592    20.695206    8142.2179    6879.7811    5288.2577    4815.0375   -203.86147   -436.51363    224.66438   -3677.1906 
 8489000    227.63266   -4801.9846   -4362.9759   -4801.9846            0    6685.2108     20.03039    19.917126    20.392954    8135.7239    4822.0587    8556.4653    6677.1085   -34.527079    1389.6422   -211.90015   -3569.7677 
 8490000    224.03531   -4786.4174   -4354.3465   -4786.4174            0    8350.2004    19.904903    19.980343    20.431582     8125.779    7340.9549     7855.849    9853.7973   -10.458165   -930.51063   -614.29923   -3364.7963 
 8491000    217.22974   -4805.5799   -4386.6341   -4805.5799            0    6387.8925    19.901297    19.707329    20.776294    8148.4918    7217.8403    6642.4548    5303.3824   -221.32863    595.99215   -530.86615   -3627.5136 
 8492000    219.13321   -4772.6134   -4349.9965   -4772.6134            0    8742.3458    19.936717    19.670093    20.513307    8044.4383     6090.584    10018.627    10117.826    -525.2379   -912.72219   -816.05327   -3324.3456 
 8493000    235.67516   -4790.5774   -4336.0581   -4790.5774            0    7662.7935    19.957046    19.866699    20.405299    8090.3057    8569.8213    7013.9615    7404.5976    336.03045   -597.66599   -249.20529   -3431.9342 
 8494000    225.69074   -4779.5238   -4344.2602   -4779.5238            0    8190.2682    20.001395    19.681686    20.550456    8089.9162    7870.5479    7892.8982    8807.3585    -608.8413    530.86511    667.42919   -3377.9467 
 8495000    237.06837    -4776.171   -4318.9647    -4776.171            0    5555.6865    19.888538      19.9209    20.552921    8143.0172    4167.9784    6959.4596    5539.6214    706.35068   -314.71065   -590.41154    -3659.185 
 8496000    222.28907   -4775.7198   -4347.0167   -4775.7198            0    6637.0101    19.805045    20.008899    20.482205    8116.6297    5642.6439    5537.2888    8731.0977   -588.54034    718.78738    802.32026   -3561.3757 
 8497000    223.73898   -4787.6475    -4356.148   -4787.6475            0    8731.5847    19.828472    19.722413     20.62101    8064.1614    6264.1834    10903.129    9027.4415     716.6015    267.32752    726.77669    -3329.248 
 8498000    226.28389   -4772.2514   -4335.8439   -4772.2514            0    7065.5291    20.052068    19.556308      20.5712    8066.8814    6713.2567    7086.9083    7396.4224    -111.3894   -304.74278   -1058.7641   -3504.6042 
 8499000    221.02226    -4788.856    -4362.596    -4788.856            0    9234.1791    19.555559    19.994362    20.535939    8029.5712    10395.341    8943.1747    8364.0219    411.13249    140.32131    131.51303   -3281.2454 
 8500000    226.14222   -4753.4878   -4317.3535   -4753.4878            0    7839.6198    19.904535     19.99936    20.375146    8110.8969    7780.6075    8045.5329    7692.7189   -349.27075      1204.07   -299.35482   -3390.0119 
Loop time of 400.078 on 64 procs for 250000 steps with 972 atoms

Performance: 107.979 ns/day, 0.222 hours/ns, 624.879 timesteps/s
195.5% CPU use with 32 MPI tasks x 2 OpenMP threads

MPI task timing breakdown:
Section |  min time  |  avg time  |  max time  |%varavg| %total
---------------------------------------------------------------
Pair    | 26.575     | 36.635     | 44.641     |  74.4 |  9.16
Bond    | 1.0931     | 1.2121     | 1.436      |   8.8 |  0.30
Kspace  | 170.17     | 181.73     | 194.44     |  38.7 | 45.42
Neigh   | 1.8242     | 2.0965     | 2.3793     |  13.7 |  0.52
Comm    | 70.624     | 81.016     | 92.054     |  62.3 | 20.25
Output  | 0.61804    | 0.61847    | 0.62056    |   0.1 |  0.15
Modify  | 79.773     | 84.068     | 89.277     |  30.0 | 21.01
Other   |            | 12.7       |            |       |  3.17

Nlocal:        30.3750 ave          36 max          24 min
Histogram: 4 0 3 2 2 5 8 4 2 2
Nghost:        2664.22 ave        2682 max        2644 min
Histogram: 2 3 1 3 4 4 6 5 2 2
Neighs:        9690.41 ave       12768 max        6731 min
Histogram: 1 2 4 2 7 7 4 2 2 1

Total # of neighbors = 310093
Ave neighs/atom = 319.02572
Ave special neighs/atom = 2.0000000
Neighbor list builds = 5790
Dangerous builds = 0

unfix		3
unfix		2
unfix		1

write_data	data.final.${pid}
write_data	data.final.1
System init for write_data ...
PPPM initialization ...
  extracting TIP4P info from pair style
  using 12-bit tables for long-range coulomb (../kspace.cpp:340)
  G vector (1/distance) = 0.37195578
  grid = 24 24 24
  stencil order = 5
  estimated absolute RMS force accuracy = 0.0035356779
  estimated relative force accuracy = 1.0647589e-05
  using double precision FFTW3
  3d grid and FFT values/proc = 3211 432
Last active /omp style is kspace_style pppm/tip4p/omp
WARNING: Not all mixed pair coeffs generated from mixing. Use write_data with 'pair ij' option to store all pair coeffs. (../write_data.cpp:312)

write_restart   restart.lmp.${pid}
write_restart   restart.lmp.1
System init for write_restart ...
PPPM initialization ...
  extracting TIP4P info from pair style
  using 12-bit tables for long-range coulomb (../kspace.cpp:340)
  G vector (1/distance) = 0.37195578
  grid = 24 24 24
  stencil order = 5
  estimated absolute RMS force accuracy = 0.0035356779
  estimated relative force accuracy = 1.0647589e-05
  using double precision FFTW3
  3d grid and FFT values/proc = 3211 432
Last active /omp style is kspace_style pppm/tip4p/omp
Total wall time: 0:06:40
