LAMMPS (30 Jul 2021)
Processor partition = 0
  using 2 OpenMP thread(s) per MPI task
using multi-threaded neighbor list subroutines
variable        pid world 0 1
variable        phase world IceV IceIII

shell cd ${phase}
shell cd IceV
include Restart.lmp
echo both
log log.lammps
#include		in.partitions
include		in.temp
variable        temperature equal 138.97
variable	tempDamp equal 100.0
include		in.pressure
variable        pressure equal 7181.2
variable        pressureDamp equal 1000.0 # This is 1 ps
include		in.seed
variable        seed equal 745823

units		real
atom_style	full
read_restart    restart.lmp.${pid}
read_restart    restart.lmp.0
Reading restart file ...
  restart file = 30 Jul 2021, LAMMPS = 30 Jul 2021
  restoring atom style full from restart
  triclinic box = (-3.0891648 -0.099334040 0.048780823) to (14.699164 22.679333 19.181217) with tilt (-0.28369519 -6.2131429 0.14273073)
  2 by 4 by 4 MPI processor grid
  restoring pair style lj/cut/tip4p/long/omp from restart
  restoring bond style harmonic/omp from restart
  restoring angle style harmonic/omp from restart
  1008 atoms
  672 bonds
  336 angles
Finding 1-2 1-3 1-4 neighbors ...
  special bond factors lj:    0        0        0       
  special bond factors coul:  0        0        0       
     2 = max # of 1-2 neighbors
     1 = max # of 1-3 neighbors
     1 = max # of 1-4 neighbors
     2 = max # of special neighbors
  special bonds CPU = 0.002 seconds
  read_restart CPU = 0.006 seconds

include 	in.setup
variable	out_freq equal 1000
variable	out_freq2 equal 10000
variable	out_freq3 equal 1000

timestep	2.0

neigh_modify    delay 7 every 1

include		in.tip4p
# This is TIP4P/Ice

# create groups ###
group ox type 2
336 atoms in group ox
group hy type 1
672 atoms in group hy

# set charges - beside manually ###
set group ox charge -1.1794
Setting atom values ...
  336 settings made for charge
set group hy charge 0.5897
Setting atom values ...
  672 settings made for charge

# ### TIP3P Potential Parameters ###
pair_style lj/cut/tip4p/long/omp 2 1 1 1 0.1577 8.5
pair_coeff 1 1*2 0.000 0.000
pair_coeff 2 2 0.21084 3.1668
bond_style  harmonic
bond_coeff  1 450 0.9572
angle_style harmonic
angle_coeff 1 55 104.52
kspace_style pppm/tip4p/omp 1.0e-5
pair_modify tail yes

thermo          ${out_freq}
thermo          1000
thermo_style    custom step temp pe etotal epair emol press lx ly lz vol pxx pyy pzz pxy pxz pyz enthalpy

restart 	${out_freq3} restart.lmp.${pid} restart2.lmp.${pid}
restart 	1000 restart.lmp.${pid} restart2.lmp.${pid}
restart 	1000 restart.lmp.0 restart2.lmp.${pid}
restart 	1000 restart.lmp.0 restart2.lmp.0


include         in.dump
dump            myDump all atom ${out_freq2} dump.water.${pid}
dump            myDump all atom 10000 dump.water.${pid}
dump            myDump all atom 10000 dump.water.0
dump            myDump2 all dcd ${out_freq2} dump.dcd
dump            myDump2 all dcd 10000 dump.dcd
dump_modify     myDump append yes
dump_modify     myDump2 append yes


variable natoms 	equal  "count(all)"                        # NUMBER ATOMS
variable H      	equal  "enthalpy/v_natoms"                 # ENTHALPY-per-atom
variable Vol      	equal  "vol/v_natoms"                 # volume-per-atom
fix AVG all 		ave/time ${out_freq} 1 ${out_freq} v_Vol v_H file vol_enthalpy.dat
fix AVG all 		ave/time 1000 1 ${out_freq} v_Vol v_H file vol_enthalpy.dat
fix AVG all 		ave/time 1000 1 1000 v_Vol v_H file vol_enthalpy.dat



fix 		1 all shake 1e-6 200 0 b 1 a 1
Finding SHAKE clusters ...
       0 = # of size 2 clusters
       0 = # of size 3 clusters
       0 = # of size 4 clusters
     336 = # of frozen angles
  find clusters CPU = 0.000 seconds
fix             2 all nph tri ${pressure} ${pressure} ${pressureDamp}
fix             2 all nph tri 7181.2 ${pressure} ${pressureDamp}
fix             2 all nph tri 7181.2 7181.2 ${pressureDamp}
fix             2 all nph tri 7181.2 7181.2 1000
fix             3 all temp/csvr ${temperature} ${temperature} ${tempDamp} ${seed}
fix             3 all temp/csvr 138.97 ${temperature} ${tempDamp} ${seed}
fix             3 all temp/csvr 138.97 138.97 ${tempDamp} ${seed}
fix             3 all temp/csvr 138.97 138.97 100 ${seed}
fix             3 all temp/csvr 138.97 138.97 100 745823


run             250000
PPPM initialization ...
  extracting TIP4P info from pair style
  using 12-bit tables for long-range coulomb (../kspace.cpp:340)
  G vector (1/distance) = 0.38010167
  grid = 24 27 32
  stencil order = 5
  estimated absolute RMS force accuracy = 0.0023663501
  estimated relative force accuracy = 7.1261931e-06
  using double precision FFTW3
  3d grid and FFT values/proc = 5355 672
Last active /omp style is kspace_style pppm/tip4p/omp
Neighbor list info ...
  update every 1 steps, delay 7 steps, check yes
  max neighbors/atom: 2000, page size: 100000
  master list distance cutoff = 10.8154
  ghost atom cutoff = 10.8154
  binsize = 5.4077, bins = 5 5 4
  1 neighbor lists, perpetual/occasional/extra = 1 0 0
  (1) pair lj/cut/tip4p/long/omp, perpetual
      attributes: half, newton on, omp
      pair build: half/bin/newton/tri/omp
      stencil: half/bin/3d/tri
      bin: standard
Setting up Verlet run ...
  Unit style    : real
  Current step  : 24500000
  Time step     : 2
Per MPI rank memory allocation (min/avg/max) = 10.31 | 10.32 | 10.34 Mbytes
Step Temp PotEng TotEng E_pair E_mol Press Lx Ly Lz Volume Pxx Pyy Pzz Pxy Pxz Pyz Enthalpy 
24500000    147.29593   -5083.9408   -4789.3308   -5083.9408            0    8821.4442    17.788329    22.778667    19.132436    7752.3564    7503.7303      10168.8    8791.8025    891.63702    665.07528   -1448.7168   -3791.9768 
24501000    137.58544   -5100.7871   -4825.5992   -5100.7871            0    5031.1023     17.89234    22.715653    19.294706    7842.0664    4889.1088    5715.8884    4488.3098    368.74072    426.11813    45.995506   -4250.1996 
24502000    140.17752   -5102.4136   -4822.0413   -5102.4136            0    7924.8807    17.928113    22.715649    19.199563    7818.9978    6800.3419    8285.3821    8688.9181   -60.762984    102.40108   -28.551525   -3918.3508 
24503000    135.46014   -5095.9434   -4825.0064   -5095.9434            0    7035.4792    17.982145    22.723184    19.107856    7807.6917    6524.1396    7295.0499     7287.248    491.36987   -16.226684    79.974223   -4023.8962 
24504000    135.40954     -5116.14   -4845.3042     -5116.14            0    7295.0034    18.021145    22.732071    19.078633    7815.7138    6170.0245    7262.2268    8452.7588    571.01244    1526.8757    1823.9988   -4013.7893 
24505000    135.36114    -5089.651    -4818.912    -5089.651            0    8014.6247    17.892211    22.823542    19.059622    7783.2567    7928.4969    7235.6787    8879.6986   -579.22229   -298.41297    144.21402   -3909.1655 
24506000    141.48057   -5097.5984   -4814.6198   -5097.5984            0    7510.5159    17.855093    22.763039    19.198737    7803.0615    7177.4293    7960.6643    7393.4543   -207.38293    139.84591    281.17955   -3959.9257 
24507000    139.83023   -5104.3916   -4824.7139   -5104.3916            0    7142.4661    17.843056     22.66365    19.300338    7804.8404    7272.4095    7494.9568     6660.032    490.42324     -1067.63    -1257.958   -4011.7185 
24508000    137.77541   -5097.0426   -4821.4747   -5097.0426            0    7052.8895    17.861444    22.767643    19.260499     7832.532    6856.7703     7686.376    6615.5221   -1859.8297   -425.86307   -396.50324   -4015.8271 
24509000    145.24738   -5096.3477    -4805.835   -5096.3477            0    6405.1551     17.78201    22.945947    19.192934    7831.1979    7631.2462    5116.9234    6467.2959    473.47064   -1772.7265   -874.36426   -4074.3023 
24510000    146.98486   -5115.0044   -4821.0166   -5115.0044            0    5622.8077    17.939069    22.683591    19.318147    7860.9885    6997.5632    5075.1572    4795.7026   -193.37766    115.63772    929.20264   -4176.3928 
24511000    141.66587   -5104.4291   -4821.0798   -5104.4291            0    8396.6074     17.85584    22.693248    19.176685    7770.5272    8522.1978    8272.3197    8395.3046   -155.56881    1110.7537    195.47663   -3869.5329 
24512000    144.01804   -5084.6956   -4796.6417   -5084.6956            0    7989.8789    17.949879    22.680742    19.143909    7793.8027    6440.0351    8575.0894    8954.5123    550.74159    1012.5278   -16.638094   -3888.4752 
24513000    141.41506   -5085.6659   -4802.8183   -5085.6659            0    7495.7254    17.890953    22.756794    19.194619    7814.9111    7464.0582    8157.1521    6865.9658    400.98618     478.0874   -63.359343    -3948.512 
24514000     139.4517   -5103.0825   -4824.1619   -5103.0825            0     7730.353      17.8687     22.77212     19.14899    7791.8806    7352.9191    7899.5896    7938.5502    1413.7869    107.01268    887.27256   -3945.7109 
24515000    141.43882   -5101.4654   -4818.5703   -5101.4654            0    7442.4529    17.882202    22.852529    19.090544    7801.4182    6443.3121     7026.976    8857.0705    708.05062   -166.02093    2049.7332   -3971.8002 
24516000    137.99809   -5093.2414   -4817.2282   -5093.2414            0    7196.4727    17.837122    22.833259    19.145228    7797.4613    7307.3167    7019.6274    7262.4739   -196.14109   -459.77096   -237.08066   -3998.8599 
24517000     142.1375   -5107.8535   -4823.5609   -5107.8535            0    6329.8513    17.978323    22.658192    19.270129    7849.8085     7187.495    6010.3925    5791.6664    1912.9889   -696.46168    15.311517   -4098.9106 
24518000    137.62588    -5105.744   -4830.4753    -5105.744            0    7486.6374    17.894808    22.853606    19.020681    7778.7147     7896.993    6454.5789    8108.3405   -1036.6004   -395.77915    372.14251   -3981.1569 
24519000    134.83293   -5093.8632   -4824.1806   -5093.8632            0    7143.2724    17.866573    22.775729    19.159256    7796.3651    8273.9748    7019.5112     6136.331    1444.9107    247.88222    47.744872   -4011.9764 
24520000    141.86111   -5108.5552   -4824.8155   -5108.5552            0    6362.6221    17.950207    22.662657    19.298851    7850.7607    6730.0888    6389.2473    5968.5303    520.76086    999.77162    564.02257   -4096.3252 
24521000    137.47184   -5112.6797    -4837.719   -5112.6797            0     7380.531    17.839452    22.898956    19.088646    7797.8039    7481.7845    7068.7902    7591.0182    464.22385   -87.129316       553.83   -3998.3831 
24522000    138.32329   -5107.6291   -4830.9654   -5107.6291            0    5827.8426    17.934705    22.717633    19.309015    7867.1504    6827.7819    5467.2073    5188.5386    78.605439   -739.54396   -857.99089   -4162.3118 
24523000     134.0191   -5100.2302   -4832.1754   -5100.2302            0    8389.1149    17.756819    22.689277    19.271891    7764.4401     9486.747    8468.3835     7212.214   -616.65851    -75.48823    790.95815   -3882.2223 
24524000    145.31722   -5087.1369   -4796.4845   -5087.1369            0    7224.9327      17.7569     22.90553    19.210184    7813.3813    7807.2943    6190.4505    7677.0533    861.32175   -1253.5681    401.74635   -3973.2023 
24525000    143.73281   -5092.9056   -4805.4222   -5092.9056            0    8168.4389    17.928421    22.685724    19.167843      7795.93    8357.0367    8060.5648    8087.7154   -574.67786    7.8623484   -240.00917   -3876.7063 
24526000    144.42883   -5095.8086   -4806.9331   -5095.8086            0    7857.6924    17.897977    22.783288    19.102156    7789.3773    6836.7526     8619.909    8116.4156    1336.9606    464.06889    1275.0636   -3914.2987 
24527000    144.99435   -5093.8396    -4803.833   -5093.8396            0    7757.7014     17.80152     22.87513    19.180643    7810.5898    8555.2541    7729.4686    6988.3817    191.46811   -107.48798    389.86558   -3920.1575 
24528000    134.48688   -5101.1657   -4832.1753   -5101.1657            0    5961.6659    17.942107    22.660963    19.286244    7841.5053    5978.6151    5700.0181    6206.3644    444.25057    304.76646     1236.937   -4150.3974 
24529000    140.41608   -5103.2314   -4822.3819   -5103.2314            0    6717.3388    17.827144    22.959071    19.107868    7820.7486    6402.5579    6956.2649    6793.1936    1079.8042    1154.7927    758.40086   -4056.2184 
24530000    139.81726   -5092.3925   -4812.7407   -5092.3925            0    7824.5548    17.969548    22.743628    19.123421    7815.6027    6228.4108    8597.1824    8648.0712   -155.99467    -308.4993   -576.87212    -3920.878 
24531000    141.82231   -5086.0832    -4802.421   -5086.0832            0    6134.5055    18.110617    22.578506    19.118327    7817.6879    5424.5433    6262.2223    6716.7509    696.26533   -27.364848    738.97465   -4103.0079 
24532000     138.8772   -5087.1268   -4809.3552   -5087.1268            0    6979.3675    17.778777    23.106511    18.991721    7801.9036     8667.071    6032.3593     6238.672    83.320754   -1106.4385   -1764.0191   -4015.2235 
24533000    138.61059   -5090.1227   -4812.8844   -5090.1227            0    9107.2725    17.849274    22.629522    19.243655    7772.9073    9448.8514    9158.6465    8714.3197    624.66744    1216.1826    1096.2892   -3780.4851 
24534000    137.27735   -5109.5432   -4834.9715   -5109.5432            0    7197.5528    17.961883    22.704516    19.112373    7794.3289    6928.1873    7727.8405    6936.6307    331.46488    178.10576   -33.172446   -4016.8092 
24535000    131.36959   -5101.4703   -4838.7149   -5101.4703            0    7260.1121    17.845882    22.949675     19.06092    7806.5366    7278.6394    6755.6719    7746.0251   -717.51493     -370.448   -924.32786   -4012.1487 
24536000       129.78   -5098.0464   -4838.4704   -5098.0464            0    6876.1454    18.053369    22.614418    19.163311    7823.7367    5623.5623    7802.5563    7202.3176     149.6586    886.97797    1670.5719   -4053.8941 
24537000    143.11839   -5106.5342   -4820.2797   -5106.5342            0    6538.2047    17.912691    22.791038    19.161922    7822.8322    6961.1373    6091.6537     6561.823     739.5207   -342.64887    1663.5363   -4074.3491 
24538000    143.02193   -5107.3413   -4821.2798   -5107.3413            0    7482.1983    17.845779    22.782561    19.118527    7773.0683    6755.0925    7828.9448    7862.5575    1575.2536    798.02286   -1169.5511   -3973.0811 
24539000    138.93612   -5105.3155   -4827.4261   -5105.3155            0    7208.4183    17.943798    22.593337    19.315382    7830.6544    6633.2992     8166.154    6825.8016   -306.21463    901.27329      416.203   -4004.2099 
24540000    139.71578   -5091.9162   -4812.4674   -5091.9162            0    9327.1048    17.784673    22.833121    19.093777    7753.5934    8890.8838    9112.2894    9978.1412   -692.08651    848.78485   -3334.5088   -3757.7751 
24541000    139.97152   -5098.2719   -4818.3116   -5098.2719            0    6861.4515    18.033234    22.447601    19.285961    7807.0116    6994.0053     7332.858    6257.4913   -797.70504   -168.25366    200.08074   -4037.0855 
24542000    134.46344   -5088.9184   -4819.9749   -5088.9184            0     6997.981      17.8546    22.904346    19.071506    7799.2531    5352.4366    7786.0195    7855.4868    470.72613    314.05084    1145.6365   -4023.9958 
24543000    141.70753   -5092.5909   -4809.1584   -5092.5909            0    7201.5645    17.983972    22.619897    19.190481    7806.6029    5807.5212    7430.6407    8366.5315    258.32493    -98.24197    1718.3586   -3989.2509 
24544000    131.85894   -5096.9712    -4833.237   -5096.9712            0    8875.8333    17.792872    22.724321    19.140317    7739.0223     8086.783    8527.6039    10013.113    906.40229    27.549374   -1018.4903   -3831.4599 
24545000    130.92915   -5096.3338   -4834.4594   -5096.3338            0    7902.3849    17.809423    22.735034    19.224198     7783.836     8442.053    7893.3546     7371.747   -632.03713    441.75551   -2013.3965   -3937.3864 
24546000    137.17937   -5113.2812   -4838.9055   -5113.2812            0    5405.0425    18.086924    22.757581    19.057987    7844.5464    3358.1095    6426.8579      6430.16   -1309.5846    467.88829   -996.59468   -4220.5434 
24547000    133.86677   -5092.7926   -4825.0425   -5092.7926            0    7099.3263    17.985072    22.781396    19.054999    7807.3105    6806.3605    6793.8025    7697.8158   -519.21029    193.33841   -79.095283   -4016.7018 
24548000    134.07484   -5101.8449   -4833.6787   -5101.8449            0    7469.1293    17.985179    22.673819    19.130558    7801.3018    6644.5334    7369.5841    8393.2705   -72.294404   -457.77716    99.632837   -3983.8861 
24549000     139.8659   -5096.7568   -4817.0077   -5096.7568            0    6720.8858    17.914003    22.822086    19.147516    7828.1731    6221.1874     6845.612    7095.8581    252.65343   -776.40474    61.759173   -4049.7119 
24550000    133.08315   -5102.6015   -4836.4188   -5102.6015            0    7047.5909    17.931953    22.748728    19.139274    7807.4674    6395.2627    6832.8303    7914.6796   -856.44718   -249.51454   -1800.0681   -4033.9525 
24551000    144.37102   -5073.1001   -4784.3402   -5073.1001            0    8122.4352    17.778085    22.788934    19.236478    7793.5363    9378.7144    8237.3069    6751.2841     101.5716    410.66363   -623.19932   -3861.1383 
24552000    137.42421   -5109.6262   -4834.7608   -5109.6262            0    7169.5738     17.86543    22.705393    19.234875    7802.4658    7683.0913    7342.1862    6483.4439    244.10638    294.34783    339.09936   -4018.9281 
24553000     134.1055   -5113.0545   -4844.8269   -5113.0545            0    5989.4027    17.919878    22.691537    19.277128    7838.6504    5760.2605    6290.6198    5917.3279     36.19746     816.5159     1257.048   -4160.1263 
24554000    143.64772   -5090.9559   -4803.6427   -5090.9559            0    7381.4048    17.877993    22.636659    19.299088    7810.3029    8395.7541      8727.47    5020.9903    2090.1156    1641.1936    1175.0518   -3962.8619 
24555000     142.2155   -5101.0033   -4816.5547   -5101.0033            0    5907.5685    17.844593    22.719867    19.346301    7843.5087    6080.3593    6498.4368    5143.9093   -514.07685    753.18447    -317.0331   -4140.7907 
24556000    148.50641   -5095.7454   -4798.7142   -5095.7454            0    7698.8427    17.864316    22.711985    19.239117    7805.9655    7847.3682    7237.2355    8011.9242    450.21136    75.324633   -189.71143   -3922.2626 
24557000    129.80991     -5095.72   -4836.0841     -5095.72            0    8262.3437    17.997442    22.633044    19.113294      7785.55    7824.6031    8102.1028    8860.3251   -662.97299    47.735782   -1650.3384   -3897.9424 
24558000    138.85288   -5100.6217   -4822.8988   -5100.6217            0    7602.3764    17.831382    22.938979    19.076505    7802.9332    9363.5659    6159.9617    7283.6015    891.70407    -388.7327     40.70431   -3957.7653 
24559000     136.7165   -5098.3942   -4824.9443   -5098.3942            0    7170.6036    17.908683    22.743424      19.1545    7801.7194    6271.0657    7986.5024    7254.2427   -1762.0022    596.94066    51.274854   -4009.0725 
24560000    139.52377   -5103.6518   -4824.5871   -5103.6518            0    7154.9857    17.874816    22.649281    19.250801      7793.72    6559.0836    7048.5422    7857.3313   -3.9294361   -453.87152    479.61321    -4011.327 
24561000    139.46935   -5087.3455   -4808.3896   -5087.3455            0    7538.5269    17.753945    22.998544    19.119107    7806.6157    7868.2106     6775.446    7971.9241    1092.7252    760.49787    1178.0872   -3950.1171 
24562000    146.40373   -5090.6066    -4797.781   -5090.6066            0    7430.0555    17.982975    22.679923    19.147007    7809.1549    6815.1909    6755.4346     8719.541    1084.1752    -438.0125   -149.66984   -3951.5831 
24563000    142.99979   -5095.5212    -4809.504   -5095.5212            0    6602.5918    17.941039    22.600479    19.320151    7833.8595    6974.5788    6993.2533    5839.9431     1043.325   -6.7668419     1409.429   -4055.1658 
24564000    140.32178   -5109.7292   -4829.0683   -5109.7292            0    6203.1589    17.854831    22.870878    19.190055    7836.3675     7721.496    5661.3691    5226.6117   -536.45026    284.04689    37.920694   -4120.1379 
24565000    138.50376   -5108.2016    -4831.177   -5108.2016            0    7507.9264     17.91109     22.52973    19.299728    7788.0584    6783.4004    8137.6147    7602.7641   -618.79427   -654.80465    1573.1552   -3978.4204 
24566000     141.2566   -5081.8682   -4799.3375   -5081.8682            0     8773.273    17.783419      22.7913     19.16091    7766.0553    8711.0875    8887.2622    8721.4694    662.40906   -153.09595   -685.99305    -3805.677 
24567000    139.38112   -5106.8101   -4828.0307   -5106.8101            0     8056.328     17.96332    22.683738     19.14886    7802.6861    6026.6364    8784.7256    9357.6219    -770.8463    654.85799    -1322.812   -3911.2675 
24568000    135.64913   -5096.7307   -4825.4156   -5096.7307            0     6808.609    17.985386    22.825665    19.087185    7835.8314     4896.455     7557.914     7971.458   -262.38283    970.96602   -606.95737   -4047.3444 
24569000    138.83608   -5117.6088   -4839.9195   -5117.6088            0    6668.4951    17.993206    22.505072    19.265998    7801.5424    5702.5896    7988.9343    6313.9614    1442.6106    782.10572    129.04384   -4081.1948 
24570000    141.55145   -5101.1552   -4818.0348   -5101.1552            0    8051.1068    17.805235    22.741665    19.252459     7795.719    8189.2193    7924.0485    8040.0526    1350.9298    345.50059    894.95715   -3902.6838 
24571000    138.49453   -5097.5217   -4820.5156   -5097.5217            0    7578.6028    17.741503    22.892655    19.222483    7807.2135    8132.8569     7976.569    6626.3824     165.9951    1103.5702    919.89024   -3957.6143 
24572000    150.60201   -5094.4053   -4793.1827   -5094.4053            0    7056.0842    17.914338    22.520905    19.376398    7817.3515    6401.9667    7010.0256    7756.2602   -251.96505   -330.84807    1348.4301   -3988.7323 
24573000    133.35672   -5109.4489    -4842.719   -5109.4489            0    5955.7177    17.816683    22.915411     19.16753    7825.6543     6660.316    5488.1004    5718.7367    684.71405   -819.02897    515.90675   -4162.9981 
24574000    133.72639    -5107.849   -4840.3797    -5107.849            0    7935.8811    17.807802    22.688249    19.281422    7790.2318    7986.8765    7754.3965    8066.3704   -465.04656   -1165.8686   -331.57942   -3938.7641 
24575000    134.28589   -5097.6376   -4829.0492   -5097.6376            0    7492.9615    17.942125    22.769668    19.095646    7801.2632    5735.1818    7856.0936    8887.6091   -471.24585    307.97467   -59.849554   -3976.5494 
24576000    138.75751   -5099.4626   -4821.9304   -5099.4626            0    6672.8695    17.901705    22.918012    19.058278    7819.0681    5771.2196    7275.6679    6971.7209   -395.60843    56.832242   -667.41576   -4061.0025 
24577000    137.76368   -5120.2834   -4844.7391   -5120.2834            0    7923.1809    17.995685    22.478934    19.236722    7781.7121    7525.2795    8590.1671     7654.096   -222.64969   -551.50953   -1317.1366   -3945.5508 
24578000    149.40915   -5092.6519   -4793.8152   -5092.6519            0    8425.6573    17.715273    22.950839     19.13083    7778.2201     9004.162    8174.8551    8097.9549   -1248.0991    458.36505    17.130067   -3838.0308 
24579000    142.85498    -5116.498   -4830.7704    -5116.498            0    7352.4086    17.988186    22.703164    19.107517    7803.2947    4878.3607    7862.2851    9316.5799    640.37885    169.18516   -1588.1836   -3994.0439 
24580000    142.42132    -5092.355   -4807.4948    -5092.355            0     6820.795    17.963072    22.606415    19.207287    7799.7077     5870.136    7405.2716    7186.9775   -1013.5857    30.207564   -1313.7927   -4031.6243 
24581000     136.5032   -5088.4807   -4815.4575   -5088.4807            0    7028.2529    17.788207    22.978402    19.113219    7812.4243    7553.9393    6085.7191    7445.1001    516.68379    -363.9729    1934.9159   -4014.6851 
24582000    141.26162   -5118.2195   -4835.6788   -5118.2195            0    7696.3472    17.845369    22.653362    19.255438     7784.157    8568.6081    7325.1031    7195.3304    474.86063   -525.26421    150.12737   -3961.9591 
24583000    137.74819   -5092.1542   -4816.6408   -5092.1542            0    6434.2224    17.677765     23.01906    19.229157    7824.8346    7584.5187    6157.8279    5560.3206   -604.95392    933.80348   -1571.6007   -4082.3854 
24584000    146.96287   -5093.7722   -4799.8283   -5093.7722            0     6979.356    17.895067    22.580695    19.350486    7819.2036    8275.0696    7168.7737    5494.2249    191.18054    169.52032    717.05891    -4003.937 
24585000    137.48022   -5105.6712   -4830.6938   -5105.6712            0    7634.0995    17.864852    22.750558    19.201616    7804.2153    7608.4166    7111.7006    8182.1814    86.392507   -693.51681    768.56526   -3961.8075 
24586000     140.4494   -5111.7678   -4830.8517   -5111.7678            0    7134.7592    17.772507    22.877397    19.172024    7795.1284    7568.1777    6615.3467    7220.7531    -569.4949    30.444958    69.313227    -4019.744 
24587000     139.2935   -5112.9634   -4834.3592   -5112.9634            0    7381.6766     17.77091    22.723514    19.331028    7806.2078    8411.8159    7955.9873    5777.2265   -254.50619    597.78222   -591.84265   -3993.9883 
24588000    135.31348   -5098.7645   -4828.1208   -5098.7645            0    5800.9754    17.883776    22.903627    19.179738    7856.0846    4915.7928    6155.0566    6332.0768    671.04353     516.0946   -499.46408    -4163.486 
24589000    133.10609   -5114.3425   -4848.1139   -5114.3425            0    7073.7091    17.911767    22.739756     19.16915    7807.7712      7130.31    7125.4757    6965.3416   -1446.4607   -111.10138    94.520215   -4042.6424 
24590000    142.50234   -5112.7867   -4827.7644   -5112.7867            0    7483.4231    17.853092    22.676625    19.230618    7785.4748    6669.5383    8047.8417    7732.8894   -5.5590422    -1.176283   -1159.5304   -3978.0729 
24591000    134.94473   -5098.8068   -4828.9007   -5098.8068            0    7344.8132    17.878373    22.646453    19.213269    7779.1015    8116.4048    7033.2781    6884.7567    570.25834   -781.08727    522.72692     -3995.63 
24592000    143.08154   -5112.4353   -4826.2545   -5112.4353            0    8132.9973    17.904605    22.867574    19.011838    7784.1096    7123.2178    8176.2674    9099.5066    876.94768    139.20691    1393.1775   -3902.9702 
24593000    143.46164   -5100.4783   -4813.5373   -5100.4783            0     6368.558    17.944686    22.769174    19.137327    7819.2378    6534.0594     6170.797    6400.8176   -120.61698    164.15607    460.56695   -4087.2952 
24594000    140.00213   -5102.2322   -4822.2106   -5102.2322            0     7309.759    17.890351    22.772418    19.132704    7794.7891    7467.3477    6603.4251    7858.5043   -648.39228    -453.1083    63.613677   -3991.2445 
24595000    135.60084   -5116.7515   -4845.5331   -5116.7515            0    6932.7174    17.770429    22.844042    19.211287    7798.7916      9707.95    5134.3312    5955.8709   -1543.5288   -1013.5234   -63.272061    -4057.024 
24596000    143.12235   -5106.2728   -4820.0104   -5106.2728            0    7376.7845    17.880058    22.678562     19.29792    7825.1908     7293.573    7110.9529    7725.8277   -286.47012   -594.69711   -282.39368   -3978.1542 
24597000    135.83752    -5098.934   -4827.2422    -5098.934            0    7006.7096    17.883693    22.796882    19.202901    7828.8776     7644.643    6394.5106    6980.9751    464.12245    52.168854   -413.12137   -4027.2431 
24598000    138.96136   -5104.7164   -4826.7765   -5104.7164            0    6602.6872    17.822398    22.866045    19.197637    7823.5697    6673.4065     5771.023    7363.6322   -336.06903    538.55653    620.61591   -4073.4182 
24599000    135.31564   -5097.3747   -4826.7267   -5097.3747            0    6987.3414    17.908119    22.702722    19.189213    7801.6249    6450.0378    7788.7354    6723.2511    824.91822    98.882252    1758.3879   -4031.7161 
24600000    135.32942   -5097.3915    -4826.716   -5097.3915            0    6908.5069    17.850445    22.826916    19.207337    7826.4252    7816.7356    6675.6453    6233.1397   -22.634811    365.43114   -302.38031   -4038.1764 
24601000    130.15272   -5106.8837   -4846.5622   -5106.8837            0    7054.2686    17.933672    22.684642     19.16116    7795.1222    5561.1425    8284.5586    7317.1048   -215.98234    523.19777   -1299.7502   -4044.6057 
24602000    141.59003   -5102.9607   -4819.7631   -5102.9607            0    7665.5382     17.93697    22.700443    19.115835    7783.5316    7387.7582    8364.5136     7244.343     1042.238    319.68301   -390.32241   -3949.6109 
24603000    149.06317   -5107.3218    -4809.177   -5107.3218            0    7281.3546    17.955688    22.882828    18.945286    7784.1809    6657.3231    6356.5517     8830.189   -631.17345   -399.87736   -52.024436   -3982.5664 
24604000    143.07585   -5102.0373    -4815.868   -5102.0373            0    6664.8086    17.940736     22.68869    19.248193    7835.0115     7186.239    6545.7626    6262.4242    -743.3221   -377.50026   -529.82253   -4054.3096 
24605000    145.12417   -5092.3864   -4802.1201   -5092.3864            0    8474.0594    17.868017    22.714854    19.190901    7788.9996    8766.9293    9177.5138    7477.7352    291.82197    638.20284    -826.1827    -3839.513 
24606000    131.89925   -5109.8773   -4846.0626   -5109.8773            0       5966.6    17.942086    22.946425    19.091073    7859.9233    6402.1183    5248.8162    6248.8654   -1304.6917    329.74842    780.92242   -4162.1177 
24607000    142.99775   -5110.0784   -4824.0653   -5110.0784            0    5094.6606    17.939536    22.795234    19.208163    7854.9079    3819.6994    5874.8648    5589.4177   -988.01847   -497.25342    -81.95932   -4240.4425 
24608000    138.40843   -5091.2883   -4814.4543   -5091.2883            0    7778.7185    17.810503    22.730854    19.266073      7799.83     8512.035    7982.2958    6841.8247    714.33262   -858.55197    136.88139   -3929.6055 
24609000    136.90733   -5101.8417   -4828.0101   -5101.8417            0      7364.85    17.855158     22.69859    19.223283    7790.9451    7425.6625     7619.327    7049.5606    437.15418    -167.5537    148.47438   -3991.1942 
24610000    142.84169   -5097.5716   -4811.8705   -5097.5716            0    5408.8604    17.954796    22.734096    19.209846    7841.1915    4588.9918    5854.9743    5782.6152   -506.01484   -224.98088   -2592.3462   -4193.3363 
24611000    142.57799   -5085.1507   -4799.9771   -5085.1507            0    7898.0151    17.958639    22.731012    19.094644    7794.7783    6941.6172    8651.3802    8101.0478   -163.84468    511.90521   -462.09066   -3902.1399 
24612000    141.30024   -5102.4206   -4819.8027   -5102.4206            0    6634.2859    17.942622    22.765395    19.175159    7832.4938    6480.3002    7115.8053    6306.7522   -406.80816    620.47478   -699.28675   -4061.9756 
24613000    140.83848   -5110.6592   -4828.9649   -5110.6592            0    7087.1421    17.940184     22.69921    19.145111    7796.4252    8264.2891    6559.8157    6437.3216    55.433039     198.3978      799.164   -4023.1365 
24614000    139.09164    -5085.392   -4807.1915    -5085.392            0    8340.3366    18.012677    22.694611    19.029607    7779.1263    7140.9696    8456.4773    9423.5628   -487.94616    500.47998    1331.7605   -3860.9755 
24615000    133.59122   -5093.0865   -4825.8875   -5093.0865            0     6517.243     18.04241    22.599434    19.260822    7853.5666    6829.5125    6737.6856     5984.531   -375.31327    178.19734    -1584.631   -4079.4272 
24616000    130.42024   -5100.2491   -4839.3925   -5100.2491            0    7925.8047     17.83678    22.912775    19.091745    7802.6076    8654.2879    7356.0714    7767.0546    207.25901    227.16201    205.82664   -3937.4912 
24617000    132.97393   -5109.3299   -4843.3656   -5109.3299            0    6979.3161    17.940937     22.66995    19.224798    7819.1126    6109.3563    7556.7582    7271.8339   -1428.9894    442.46178     -134.801   -4047.4881 
24618000    133.40089   -5108.9371   -4842.1188   -5108.9371            0    5201.1319    17.886121    22.749191    19.308849      7856.67    6358.7996    4680.4192    4564.1768    593.04979   -347.34927   -459.91148   -4246.1654 
24619000    134.95257   -5104.4409   -4834.5191   -5104.4409            0    6401.7237    17.699634    22.943368    19.220607    7805.2812    8088.1139    6057.5282    5059.5291   -57.343584    -711.0008    208.97372    -4105.798 
24620000    135.05456     -5096.21   -4826.0842     -5096.21            0    7569.3437     17.94486    22.455307    19.382572    7810.3495    9291.7319    8134.2557    5282.0436   -100.44126    -177.0772    339.60674    -3963.891 
24621000    134.56236   -5103.9059   -4834.7646   -5103.9059            0    7008.5837    17.818641     22.88089    19.102022    7788.0159    7888.9769    6489.0648    6647.7093    1016.9498    762.18258    1677.9288   -4038.7281 
24622000    148.65753   -5106.7297   -4809.3963   -5106.7297            0    7493.1329    17.812422    22.677544    19.335686    7810.4955    9705.9087    7276.4384    5497.0517    155.01544   -740.24004   -144.15052    -3955.868 
24623000    136.43454    -5101.994    -4829.108    -5101.994            0    6024.0188    17.933208    22.682318    19.283714    7843.9734    6905.6221    6081.1101    5085.3243    319.83797   -462.97815     -395.447   -4139.9825 
24624000    141.58944    -5101.135   -4817.9387    -5101.135            0    6628.8583    17.934729    22.887453    19.061397    7824.3271    6283.2686     6068.854    7534.4522    305.22931   -154.45818   -771.04838   -4061.5211 
24625000    139.89049     -5088.57   -4808.7717     -5088.57            0    7229.4726    18.011327    22.563262    19.187526    7797.7013    7235.5885    6911.6646    7541.1648    -469.6134   -483.28691     862.0784   -3986.6254 
24626000    139.24195   -5110.5758   -4832.0747   -5110.5758            0    5877.7545    17.678089     22.92534    19.323718     7831.443    7656.9467    5006.0668    4970.2499    216.41977   -615.95073   -1572.8961   -4160.7554 
24627000    138.01101   -5111.4891     -4835.45   -5111.4891            0    6405.0651    17.915968    22.701249    19.254894    7831.2512    5752.1304    7332.6292    6130.4356    177.87435    1133.5811     1388.538   -4103.9226 
24628000    136.88557   -5110.4131   -4836.6251   -5110.4131            0    7366.9937    17.953836    22.662486     19.17438    7801.6438     7374.982    6912.4836    7813.5155   -789.65317    155.94113   -108.78479   -3998.4161 
24629000    139.92314   -5075.3699   -4795.5064   -5075.3699            0    7492.8843    17.792972    23.034989    19.031892    7800.4287    7512.3031    6138.6808     8827.669    1169.3053   -537.07569    889.26734   -3943.1065 
24630000    138.84938   -5120.0761   -4842.3602   -5120.0761            0    6837.5509     17.92792    22.569096     19.32906    7820.8652     7519.271    7180.2772    5813.1044   -319.30836    -575.2489     308.7841    -4062.474 
24631000    132.74273   -5112.0781   -4846.5763   -5112.0781            0     7258.157    17.832779    22.762902    19.245062    7812.0673    6078.4644    8274.7448    7421.2619   -4.3005866      802.356    1342.0322   -4019.6473 
24632000    145.43719     -5093.04   -4802.1476     -5093.04            0    7630.8253    17.671497    23.026143    19.147446    7791.2187     8021.004    7233.2216    7638.2505    107.61732     782.9895    974.43453   -3935.0803 
24633000     144.9911    -5099.987   -4809.9869    -5099.987            0    7344.1071    17.931017    22.667718    19.173059    7792.9902    7765.7995    6627.1745    7639.3474   -246.47333    -242.3181    1842.2096   -3975.3088 
24634000    132.86967   -5103.8575   -4838.1017   -5103.8575            0    7276.5582    17.848141    22.848889    19.163856    7815.2158    6431.3766     7373.945    8024.3532   -716.25008    771.04873   -734.11551   -4008.7421 
24635000    133.07737   -5095.9996   -4829.8284   -5095.9996            0    6839.9274    17.883976    22.643162    19.302492    7816.5395     6035.561    7608.5205    6875.7007   -604.35254    1086.9353   -1052.2916   -4050.1026 
24636000    143.38874   -5098.8283   -4812.0331   -5098.8283            0    7183.9321    17.830733    22.832865    19.176062    7807.0873    7927.7662    6942.3364    6681.6937   -700.64611    260.85267     3.596077   -3994.0824 
24637000    143.08968   -5118.0942   -4831.8971   -5118.0942            0    7815.9244    17.839817    22.755986    19.167831    7781.4231    9145.6356    7519.6706     6782.467   -1483.3996    478.85586   -815.74884   -3944.9142 
24638000    137.91968   -5096.3064     -4820.45   -5096.3064            0    9133.7707    17.905349    22.563737    19.223784    7766.6313    9228.8116    9374.7975     8797.703    1069.5968   -419.56577   -251.31793   -3785.8829 
24639000    138.68161   -5113.4263    -4836.046   -5113.4263            0    8046.9702    17.725119    22.859081    19.191367    7775.9566    8541.9025    8096.5179    7502.4901    683.71091   -126.48769   -366.69038   -3923.4845 
24640000    140.82319   -5097.9845   -4816.3207   -5097.9845            0    7042.7488    17.940756    22.643467    19.234773     7813.952    7228.1489    7626.4601    6273.6376   -146.67905   -167.32234   -881.51771   -4013.7398 
24641000    142.45152   -5112.2927   -4827.3721   -5112.2927            0    6961.6111    17.922466    22.678599    19.168409    7791.1231    6602.7218    7409.0381    6873.0733    -577.8067    -214.5491    344.56896   -4036.3553 
24642000    137.11188   -5101.7454   -4827.5047   -5101.7454            0    6276.2113    18.024144    22.846049    19.026839    7834.8811    5211.5633    5611.5053    8005.5652   -485.90344   -1158.0441   -303.65002   -4110.3616 
24643000    140.89418   -5108.8758     -4827.07   -5108.8758            0    9478.2292    17.885779    22.657954    19.115675     7746.726    9207.5365    9632.9692    9594.1818    66.910572    -402.7215   -54.039802   -3756.2381 
24644000    139.17626   -5098.7317    -4820.362   -5098.7317            0    8760.7185     17.91823    22.794025    19.037086    7775.2901    8602.6779    8530.2473    9149.2302    273.25801    555.19926    61.003584   -3826.9436 
24645000    141.97312   -5109.9364   -4825.9726   -5109.9364            0    7514.3439    17.959756    22.792119    19.075066    7808.2044    7257.2428    6992.0539    8293.7349   -937.57536    139.27228   -978.74351   -3970.2793 
24646000    134.86565   -5101.2321   -4831.4841   -5101.2321            0    7145.6102    18.001724    22.656191    19.146976    7809.1038    6617.2824    6791.1374    8028.4108    1140.1746   -28.759845    548.82719   -4017.6865 
24647000    135.93178    -5114.257   -4842.3766    -5114.257            0    6890.0539    17.890312    22.771493    19.148623    7800.9403    7582.1596    6579.8269    6508.1751   -113.80725   -469.96767    245.06357   -4058.5041 
24648000      139.496    -5107.397   -4828.3878    -5107.397            0    7637.5437    17.720346     22.89653    19.163896    7775.4526    8464.8858    7064.2819    7383.4633   -393.95651   -985.37804    660.13571   -3962.3133 
24649000     142.7922   -5095.7054   -4810.1034   -5095.7054            0    6482.1559    17.977177    22.724356    19.192075     7840.342    5709.8072    6498.6686    7237.9918     1214.364    -461.5435    1396.6978    -4068.912 
24650000    139.78844   -5115.3023   -4835.7081   -5115.3023            0    7161.8614    17.909442    22.604083    19.279123    7804.7003    7095.1314    8753.2541    5637.1987    329.74989    829.31983    919.10229   -4020.5196 
24651000    146.67034   -5087.9741   -4794.6153   -5087.9741            0    8187.3964    17.669106    22.856943    19.248701    7773.8139    11321.923    6971.0806    6269.1859    898.58874   -203.88192    673.41204   -3866.3847 
24652000    140.09094   -5101.8293   -4821.6301   -5101.8293            0    7643.8838    17.978125    22.506447    19.276518    7799.7368    8199.0216    7458.6315    7273.9984    767.30193   -200.47412    649.79543   -3952.1294 
24653000    131.18671   -5077.4826    -4815.093   -5077.4826            0    7533.8093    17.751187    22.941728    19.123636    7787.9649    8305.1775    6431.7792    7864.4711   -14.630647     328.7869   -968.13417   -3959.4068 
24654000    139.97207   -5105.9509   -4825.9894   -5105.9509            0      7621.46    17.897716    22.678314    19.184888    7786.9545    6847.0332     8349.171    7668.1758    977.64118   -5.0183508    182.97091   -3960.4603 
24655000    139.69637   -5109.5887   -4830.1787   -5109.5887            0     7638.046    17.858905    22.698129      19.2157    7789.3482    7590.3928    7810.3037    7513.4416    944.77771   -314.08974    1485.1573   -3962.4993 
24656000    142.27928   -5122.2521   -4837.6759   -5122.2521            0    7334.2422    17.778855    22.843944    19.160376    7781.7793    6421.6119    7525.7258     8055.389    614.83951    447.60359   -383.39644   -4005.3182 
24657000    136.68982   -5104.7014   -4831.3048   -5104.7014            0    6650.0784    17.897398    22.620192    19.338268    7828.9544    4941.3077    8061.3177    6947.6099    1323.9059   -98.530985    1507.3209    -4072.017 
24658000    132.31428   -5105.9037   -4841.2588   -5105.9037            0    7109.2186    17.792108     22.92462    19.134799    7804.6504    6868.1887     6476.616    7982.8512    939.92125   -393.26488    1126.5612   -4032.0675 
24659000    133.56266    -5105.518   -4838.3762    -5105.518            0    8184.9521     17.89467    22.616075    19.269897    7798.6657     7833.755    8484.2223     8236.879    358.24408   -286.85348   -470.60321   -3907.4562 
24660000    136.93315   -5093.7489   -4819.8657   -5093.7489            0    7747.3945    17.841509    22.769135    19.207805    7802.8969    8034.2097    7624.3134    7583.6605    77.624884    335.79462    1757.9738   -3938.2335 
24661000    137.42774   -5109.9537   -4835.0812   -5109.9537            0    7908.1563    17.883747    22.642867    19.211147    7779.3486    8082.7016    7931.1533    7710.6139    168.35693   -153.47376   -157.00854   -3937.8707 
24662000    139.46999   -5105.2495   -4826.2923   -5105.2495            0    5897.1203    18.016358    22.729033     19.12964    7833.4802    5333.1652    5618.3396    6739.8561   -621.74404   -116.18275   -966.75605    -4152.586 
24663000    134.21435   -5099.1351   -4830.6898   -5099.1351            0    5518.8751    17.845438    22.912882     19.16608    7836.8265    6044.2624    5052.5036    5459.8592   -848.03132    467.45743   -776.48254   -4199.9261 
24664000    130.21627   -5089.8215   -4829.3729   -5089.8215            0     7377.591    17.941083    22.585083    19.257003    7802.9541    7132.9515    7947.0201    7052.8014   -415.06721   -396.89874   -676.45517   -3989.8172 
24665000    140.10296   -5110.7145   -4830.4913   -5110.7145            0    6084.7292    17.856332    22.731543    19.319816    7841.9514    6539.3185    6513.3256    5201.5435   -959.48189    318.93589   -1602.3534   -4134.6002 
24666000    142.49629   -5089.4773   -4804.4671   -5089.4773            0      5381.92    17.805143    22.925025     19.22394    7846.8921    5901.6441    4683.5626    5560.5534   -1295.0297   -827.11297   -504.89096   -4188.5662 
24667000     137.4321   -5108.2189   -4833.3377   -5108.2189            0    7172.7483    18.068295     22.44825    19.276708    7818.6635    6522.2228     7369.847     7626.175   -577.36949   -271.00852    49.689451   -4015.4494 
24668000    134.86011   -5082.2638   -4812.5269   -5082.2638            0    5846.9778    17.968807    22.905149    19.044608    7838.3455    5004.2622    4974.1452     7562.526   -154.01365   -680.95181   -491.50069   -4144.1341 
24669000    149.19752   -5103.5653   -4805.1519   -5103.5653            0    7370.3006    17.934371    22.709012    19.182956    7812.6781    6883.1094    7863.3145    7364.4779    717.44725    1364.3954   -376.75317   -3965.3806 
24670000    136.04519   -5097.0175   -4824.9103   -5097.0175            0    6928.1015    17.891228    22.775456    19.218667    7831.2393    6333.8135     7685.872    6764.6189   -526.30725    422.06985    494.66544   -4033.6478 
24671000    140.02422   -5100.2207   -4820.1549   -5100.2207            0    7710.3419    17.940933    22.802671    19.063374    7798.8491    7544.7831    7882.3544    7703.8882   -133.26729    248.67452    845.13138   -3943.1944 
24672000    140.20285   -5117.3302   -4836.9071   -5117.3302            0    6558.3512    18.006464    22.664289    19.198835    7835.1159    6623.7208     6347.796     6703.537   -269.92863    145.12963    410.63403   -4087.5032 
24673000    133.12644   -5107.6373    -4841.368   -5107.6373            0    7004.2149    17.845251    22.826243    19.214588    7826.8713    7534.4872    7526.9483    5951.2092     244.6912   -191.46399   -20.368081   -4041.8586 
24674000      139.737   -5110.1309   -4830.6397   -5110.1309            0     6714.782    18.034149      22.6143    19.161515     7814.634    5101.0949    7042.7531     8000.498   -214.80327   -56.801378   -95.343586   -4065.3666 
24675000    140.95381   -5108.5277   -4826.6027   -5108.5277            0    7721.2194    17.855705    22.944134    18.984173    7777.5064    7110.3112    7019.9656    9033.3813    229.12587   -399.32729   -717.60754   -3950.8083 
24676000    132.82893   -5097.1327   -4831.4584   -5097.1327            0    6603.2162    17.950482    22.696933    19.229696    7834.5799    7909.3894    6289.4022     5610.857   -189.24165   -842.19058    528.18919   -4076.9795 
24677000    140.20558   -5089.9091   -4809.4807   -5089.9091            0    6980.3515    17.867004    22.717466    19.220736    7801.5634    8358.4727    6590.7124    5991.8694   -828.66787   -242.01117   -144.33651   -4015.2716 
24678000    137.73621   -5095.7745    -4820.285   -5095.7745            0    6338.8243    17.795717    22.839414    19.250347    7824.1833     7374.262    6029.9899    5612.2211    -374.7344    85.811713   -556.38408   -4096.9764 
24679000    144.08201   -5105.5839   -4817.4021   -5105.5839            0    7520.8963    18.000274    22.446496    19.335811    7812.5003    7835.3535    7950.1593    6777.1761   -760.84718    21.718659   -1566.7081   -3960.4914 
24680000    142.70749   -5099.2968   -4813.8642   -5099.2968            0    8248.9159    17.676361    22.852996    19.226558    7766.7182    7938.7051     8761.273    8046.7697   -566.70866    254.63796   -1182.6802   -3879.5127 
24681000    138.95021   -5105.5207   -4827.6031   -5105.5207            0    8029.3817    17.804673    22.702839    19.208853     7764.538    8012.9845     8394.144    7681.0167    309.50756    -2.797203   -289.56687   -3918.3734 
24682000    146.27197   -5107.6847   -4815.1227   -5107.6847            0    8425.3771    17.886824    22.669821    19.160529     7769.424    8331.4072    7796.7481    9147.9758    762.34044   -147.42213    628.70077    -3860.451 
24683000    135.10704   -5107.6409   -4837.4101   -5107.6409            0     7131.089    17.851061    22.913794    19.095451    7810.7181    7433.3761    6370.2094    7589.6814    -550.6614   -451.93879   -790.50371   -4025.0984 
24684000    135.01321   -5107.7206   -4837.6775   -5107.7206            0    8966.5671    17.950374    22.511733    19.238333    7774.0952    10372.991    8527.2885    7999.4213   -164.82446   -245.61571   -896.11366   -3821.0731 
24685000    136.26168   -5083.9846   -4811.4444   -5083.9846            0    6999.0526    17.945063    22.803092    19.095411    7813.8981    7104.4722    7062.8785    6829.8071   -218.73492    761.00399   -463.85416   -4013.8486 
24686000     140.6585   -5095.5829   -4814.2485   -5095.5829            0    7969.9526     17.98365    22.688106    19.095665     7791.317    7305.1973    8164.6415    8440.0191    557.90579    355.30739    134.22342   -3908.6358 
24687000    138.24732   -5112.4926   -4835.9809   -5112.4926            0    6721.2573    18.029232    22.644617    19.176339    7829.0289    6244.4997    6505.4732     7413.799   -967.61224    144.94191   -1452.5496   -4068.5588 
24688000    144.94422   -5106.9464     -4817.04   -5106.9464            0    6212.2259    17.907666    22.937723    19.093637     7842.923    7017.3913    5538.8647    6080.4217    -214.7323    224.06731   -31.431846   -4106.4795 
24689000    137.39914    -5118.992   -4844.1768    -5118.992            0    6839.1057    17.912444    22.822347    19.090945    7804.4545    6458.8414     5982.267    8076.2088   -296.58377   -891.10695   -1393.7209     -4065.75 
24690000    146.85885    -5092.027   -4798.2912    -5092.027            0    8741.7832    17.934916    22.687262    19.115226    7777.8736    8087.4146    9369.3293    8768.6057   -984.85232   -362.03346    1101.8645   -3806.6906 
24691000    148.15251   -5113.5759   -4817.2525   -5113.5759            0    7751.9859    17.886865    22.823732    19.079112    7788.9524    7039.3833    6650.8697    9565.7047   -72.786652   -1117.8314   -683.81824   -3936.6744 
24692000    140.49036   -5094.6317   -4813.6336   -5094.6317            0    8019.1616    17.893399    22.726477     19.15526     7789.562    6528.9471    8502.5184    9026.0191     406.5736    248.31353    1661.0346   -3902.6346 
24693000    134.46128   -5091.4014   -4822.4623   -5091.4014            0    8090.5262    17.777656    22.740148    19.267906    7789.3694    7263.7432    8944.6601    8063.1755   -745.74188    43.538939   -19.117007   -3903.3788 
24694000    142.40133   -5105.6968   -4820.8765   -5105.6968            0    6053.1815    17.763773    22.922306    19.206789    7820.7478    5761.4541    6720.0277    5678.0626   -636.57667    32.693279    147.47186   -4130.4653 
24695000    139.17002   -5105.3739   -4827.0167   -5105.3739            0    6806.6792    17.991026    22.654684    19.212751    7830.7526    6790.6604    6996.2816    6633.0954   -376.15278   -102.14649   -1158.8312   -4049.6701 
24696000    136.30224   -5101.7498   -4829.1284   -5101.7498            0    7223.7399    17.773243    22.940241    19.137036    7802.6002    9022.3658    6066.5204    6582.3335   -253.56338    229.07701    335.86684    -4007.118 
24697000    148.20651    -5117.328   -4820.8967    -5117.328            0    8324.1188    17.896753    22.509989    19.319908     7783.135    8068.6587    8649.3837     8254.314    410.12602   -805.82226   -1140.1072   -3876.0339 
24698000    138.86947   -5103.4343   -4825.6782   -5103.4343            0    7108.5265    17.821206    22.807063    19.210145    7807.9515    6247.1691    7632.3635     7446.047   -897.47631   -357.06891   -866.03399   -4016.2234 
24699000    140.41001   -5094.5079   -4813.6705   -5094.5079            0    6921.2219    17.951913    22.817029    19.126038    7834.2035    6597.0069    7594.0204    6572.6384    499.68791    98.232057    2502.1799   -4022.8945 
24700000    142.56567   -5111.2154   -4826.0665   -5111.2154            0    7052.4756    17.858744    22.828239    19.127626    7798.0208    6307.7735    7145.9338    7703.7193   -418.46148    361.55008   -1846.2024   -4024.0157 
24701000    138.07994   -5101.2274   -4825.0504   -5101.2274            0    6305.5178    17.954834    22.696472    19.211135    7828.7563    5491.4162    7143.3274    6281.8098   -969.17882     79.29638   -3374.2276   -4105.1218 
24702000    138.78282   -5103.0406   -4825.4578   -5103.0406            0    7308.4723    17.908853    22.677653    19.194353    7795.4169    7773.2856    6875.8375    7276.2939   -1078.8197   -508.91645   -144.96006    -3994.571 
24703000    135.49002   -5112.8702   -4841.8734   -5112.8702            0    7316.6476    17.858848    22.902979    19.103337    7813.6628    6656.9555    7248.2509    8044.7366   -1525.3389    675.08208    1126.6845   -4008.1103 
24704000    137.17081   -5118.1276    -4843.769   -5118.1276            0    6826.7305    18.054229    22.440233    19.289027    7814.7779    6727.4435    7276.0624    6476.6856    619.54227    178.13918   -999.83701    -4065.723 
24705000    139.10997   -5121.5331    -4843.296   -5121.5331            0    7208.6157    17.823972    22.963997    19.084408    7811.4322    7873.9122    6293.9828     7457.952    366.94197    481.25833     1009.968    -4022.078 
24706000     134.0092   -5097.9346   -4829.8996   -5097.9346            0    8247.0289    17.788649    22.728407    19.179342    7754.3551    9283.5888    8513.7797    6943.7184    161.16458    -18.36445    407.50682   -3897.2488 
24707000    140.32505   -5105.7705   -4825.1031   -5105.7705            0    7294.8593    17.865772    22.508744    19.408308     7804.781    8392.8283    7725.5659    5766.1836    1090.9632   -737.08263    286.60015   -3994.7677 
24708000    144.20146   -5100.7978   -4812.3771   -5100.7978            0    8179.1373    17.722927    22.781839    19.284536    7786.3411    9498.7546    7994.8434     7043.814    324.26891    320.20315    851.65343   -3883.5886 
24709000    139.05762   -5102.3038   -4824.1714   -5102.3038            0    7039.6009    17.881949    22.793681    19.151595    7806.1032    5874.5336    7404.1875    7840.0816    92.152298    423.18757    947.12337    -4022.755 
24710000    146.23175   -5107.8056    -4815.324   -5107.8056            0    7013.2368    17.922289    22.715889    19.168507    7803.8964    5613.0624    7368.5717    8058.0763    403.72592   -60.350602    373.34911   -4017.1348 
24711000    140.53299    -5100.904   -4819.8207    -5100.904            0    7840.9914    17.916212    22.609997     19.24638    7796.4296      8390.04    8012.3281    7120.6061   -714.29997    435.72435    537.12354    -3928.277 
24712000    137.40295   -5103.9894   -4829.1665   -5103.9894            0    5539.7378    17.893421    22.874878    19.140295    7834.3107    5752.2496    4197.7697    6669.1942    66.435018   -3.6050572   -715.57982   -4196.2216 
24713000    131.03392   -5082.7727   -4820.6887   -5082.7727            0    8178.1522    17.993743    22.684396     19.10216     7797.066    7967.7695    8169.6234    8397.0638   -741.65575     1372.754   -1.8813931   -3890.7329 
24714000    137.88141   -5108.3371   -4832.5573   -5108.3371            0    6336.8487     17.93298      22.6916     19.26551     7839.676    7001.8285    5508.8103    6499.9073    8.1901175   -269.80194   -992.87729   -4108.0424 
24715000    135.87282   -5125.9585   -4854.1961   -5125.9585            0    6264.9741     17.93539    22.697196    19.198351    7815.3236    6173.3721    6011.3495    6610.2007    218.16165   -465.69507   -875.13509   -4140.1238 
24716000    138.13217   -5101.1424    -4824.861   -5101.1424            0    8105.4448    17.897576    22.713501    19.158252    7788.1473    7623.3338    8103.8244    8589.1764    626.58949   -124.83779    360.85497   -3904.2272 
24717000    134.53629   -5116.3216   -4847.2324   -5116.3216            0    7591.8219    17.888591    22.711975     19.20504     7802.724    7784.4385    6935.4983     8055.529   -624.30277   -707.91826    752.01341   -3983.3231 
24718000    147.44985   -5108.4762   -4813.5583   -5108.4762            0    7888.5536    17.839019    22.724944    19.181482    7775.9948    7736.0006    8509.0148    7420.6454   -82.943539   -494.16063    1147.7487   -3918.9576 
24719000    141.29873   -5111.2264   -4828.6115   -5111.2264            0    6458.6306    17.855646    22.688035    19.338641    7834.2676    6490.2585    6640.8681    6244.7652     1059.636    888.90084   -407.59528   -4090.6822 
24720000    137.17942   -5116.7913   -4842.4155   -5116.7913            0    7610.3665    17.929289    22.551838    19.274019    7793.2264    7872.0852    7437.7355    7521.2787   -133.14946   -166.06845    -135.6691     -3977.45 
24721000    133.37241    -5093.923   -4827.1617    -5093.923            0    7246.6144    17.816429    22.893739    19.150239    7811.0887    7069.0458    6825.0384    7845.7589   -864.93961    23.795919    781.36144   -4001.6512 
24722000     132.9176   -5112.1591   -4846.3075   -5112.1591            0    6177.7855    17.906822    22.740188    19.259045    7842.3698    4513.0309     6882.254    7138.0717   -1024.2361    973.07853   -2596.2955   -4139.7361 
24723000    132.81795   -5107.0215   -4841.3692   -5107.0215            0    7315.8569    17.934359    22.604955    19.258962    7807.6866    6983.7991    8311.9576    6651.8141    -382.2811    261.11678   -2554.5767   -4008.3337 
24724000    138.43843   -5106.0202   -4829.1262   -5106.0202            0     7560.649    17.874828     22.81177    19.159447    7812.3886    7130.9625    7330.0347    8220.9499   -498.64361    1.6841535   -145.32726   -3967.6986 
24725000    132.61748   -5097.0988   -4831.8474   -5097.0988            0    7040.0444     17.88192    22.477284      19.4117    7802.2805    6794.3656    7274.7667    7051.0009     272.9022     -22.8489    941.22132   -4030.7731 
24726000    132.91516   -5094.3971   -4828.5504   -5094.3971            0    7732.7692    17.789871    22.914042    19.123646    7795.5219    7403.5468    7710.5843    8084.1764    546.26974    94.839392   -793.71108   -3949.4142 
24727000    147.89771   -5088.3347    -4792.521   -5088.3347            0    7453.2963     17.89352    22.602164    19.276687    7796.1143    7666.2111    7662.4295    7031.2484    666.89284    85.532951   -35.494388   -3945.0936 
24728000      140.915   -5090.2677   -4808.4203   -5090.2677            0    8461.8438    17.903565    22.609386    19.186188    7766.3503    7724.1525    9148.0622    8513.3168   -1265.0486    166.30351    122.13269   -3849.9959 
24729000    142.38776   -5105.1616   -4820.3685   -5105.1616            0    6263.6862    17.807193    22.946259    19.141741    7821.4775    5494.0917    6297.7009    6999.2658    956.18983     306.9247    513.73544   -4105.8809 
24730000    141.85661   -5085.3027    -4801.572   -5085.3027            0    7438.5577     17.90716    22.667474    19.257799    7816.9349    5607.2194    8426.5232    8281.9304    122.95978    981.54865   -631.19291   -3953.5617 
24731000    144.02004    -5101.517   -4813.4592    -5101.517            0     6316.757    17.926651    22.702399    19.225944    7824.5361    5031.4829    6847.5031     7071.285   -710.80593   -490.03532    1497.1686   -4092.6361 
24732000    140.18078   -5100.6183   -4820.2395   -5100.6183            0    8250.4097    17.781438    22.879418    19.120961    7778.9606    10052.163    7065.6581    7633.4082    304.53165   -998.16087    28.732514   -3884.2457 
24733000    139.33276    -5103.455   -4824.7723    -5103.455            0    9176.2782    17.983317    22.499913    19.134387    7742.2142    9407.7462    9596.8264    8524.2621   -128.05236    11.257543     129.7748    -3788.658 
24734000    144.80298   -5099.6671   -4810.0433   -5099.6671            0    7109.8298    18.019319    22.621564    19.148808    7805.5361    7448.9007     6909.679    6970.9097    165.79913   -112.46998     1265.905   -4000.6905 
24735000    133.00771   -5104.3426   -4838.3107   -5104.3426            0    7508.3245    17.875119    22.931795    19.003296    7789.6135    7476.4822    6591.8076    8456.6837   -1119.8611    57.279307    151.41226   -3985.3386 
24736000     139.3414    -5109.115    -4830.415    -5109.115            0    7320.7237     17.89209    22.560724    19.330954    7803.1042    8149.4242    7367.9419    6444.8051   -288.21128    211.02762    187.97964   -3997.3146 
24737000    133.80783   -5094.6854   -4827.0532   -5094.6854            0    7621.1056    17.639985    22.963631    19.202733     7778.607    7632.2321    8186.6235    7044.4613    234.16596    353.90661   -579.58404   -3962.4921 
24738000    141.83839   -5102.8975   -4819.2033   -5102.8975            0    6274.9233    17.926466    22.685372    19.261194    7832.9217    6678.3649    6694.3803    5452.0247   -548.25743    357.54465   -222.20482   -4102.3866 
24739000    144.55689    -5106.436   -4817.3044    -5106.436            0    7250.1018    17.881588     22.73417    19.131592    7777.4333    6727.0179    7924.0547    7099.2328    335.90734   -394.52402    -173.9266   -3994.9552 
24740000    139.30612    -5091.886   -4813.2565    -5091.886            0    8493.2854    17.707473    22.900235    19.221175    7794.2881    9974.4183    8118.7227    7386.7153    263.39181    229.86812   -61.889455   -3847.8104 
24741000    134.62644   -5104.3101   -4835.0406   -5104.3101            0    7121.2351    17.887034    22.467745    19.409831    7800.4485    8090.0116    7720.8646    5552.8289    681.04914    563.88574    335.31784   -4024.9179 
24742000    138.55474   -5108.6158   -4831.4892   -5108.6158            0    5968.8305    17.796123    22.979948     19.18796    7846.9924    6675.8828    4950.2612    6280.3476     285.5474   -103.66572    144.59908   -4148.4142 
24743000    139.81437   -5091.9649   -4812.3189   -5091.9649            0    5836.8587    17.940299    22.582316    19.386301      7854.04    6007.2423    5975.1936    5528.1402    72.363367   -1195.1288    661.46258   -4143.7469 
24744000    143.73478   -5099.4435   -4811.9562   -5099.4435            0    7789.0048    17.768648    22.726541    19.296532    7792.3241    6763.8228    8048.3821    8554.8095    1208.0276    513.64848    100.12427   -3926.7899 
24745000    140.97684   -5091.1476   -4809.1765   -5091.1476            0    5686.1159    17.896536    22.797919    19.223692    7843.3389    5685.5302    6431.2849    4941.5327    -315.0956     309.4248    447.38402   -4158.7585 
24746000    136.83971   -5102.3263     -4828.63   -5102.3263            0    6271.6281    17.938795    22.733908    19.185839    7824.3481    6061.2801    5876.5577    6877.0466   -529.79432   -642.37628   -398.14985    -4112.974 
24747000     135.1736   -5095.5969    -4825.233   -5095.5969            0    6863.5759    17.811807     22.91317    19.156994    7818.4474    7367.7335    6754.4899    6468.5042   -832.77133   -609.79514   -1507.3946   -4042.6204 
24748000     137.9437   -5087.5412   -4811.6368   -5087.5412            0     7095.992    17.954294    22.510334    19.310059    7804.2987    6767.5454    7623.5606    6896.8699   -1511.5979   -66.731265   -881.73292   -4003.9874 
24749000    136.20561   -5105.0128   -4832.5848   -5105.0128            0    6949.3591    17.851926    22.750457    19.178192    7789.0205    6353.5632    6771.2932    7723.2208    841.50819     87.87493   -1616.2688   -4043.1732 
24750000    138.46708   -5082.2415   -4805.2903   -5082.2415            0     7563.842    17.803877    22.787249    19.281015    7822.3347    8145.0038    7405.4678    7141.0543   -922.45948    316.87572   -4.2326273   -3942.4017 
Loop time of 485.148 on 64 procs for 250000 steps with 1008 atoms

Performance: 89.045 ns/day, 0.270 hours/ns, 515.307 timesteps/s
194.6% CPU use with 32 MPI tasks x 2 OpenMP threads

MPI task timing breakdown:
Section |  min time  |  avg time  |  max time  |%varavg| %total
---------------------------------------------------------------
Pair    | 37.133     | 40.352     | 45.093     |  30.3 |  8.32
Bond    | 0.9834     | 1.2149     | 1.6418     |  11.1 |  0.25
Kspace  | 235.45     | 245.05     | 257.97     |  35.1 | 50.51
Neigh   | 1.5906     | 1.7472     | 2.0581     |  11.2 |  0.36
Comm    | 71.365     | 82.88      | 88.184     |  51.5 | 17.08
Output  | 0.53471    | 0.53501    | 0.53655    |   0.0 |  0.11
Modify  | 94.48      | 96.716     | 98.857     |   8.5 | 19.94
Other   |            | 16.65      |            |       |  3.43

Nlocal:        31.5000 ave          37 max          27 min
Histogram: 1 1 4 5 5 6 4 4 1 1
Nghost:        2947.62 ave        2964 max        2923 min
Histogram: 1 0 3 1 6 3 4 8 3 3
Neighs:        10680.3 ave       12608 max        9115 min
Histogram: 1 2 4 7 5 6 4 2 0 1

Total # of neighbors = 341769
Ave neighs/atom = 339.05655
Ave special neighs/atom = 2.0000000
Neighbor list builds = 3704
Dangerous builds = 0

unfix		3
unfix		2
unfix		1

write_data	data.final.${pid}
write_data	data.final.0
System init for write_data ...
PPPM initialization ...
  extracting TIP4P info from pair style
  using 12-bit tables for long-range coulomb (../kspace.cpp:340)
  G vector (1/distance) = 0.37862983
  grid = 24 27 32
  stencil order = 5
  estimated absolute RMS force accuracy = 0.002553626
  estimated relative force accuracy = 7.690169e-06
  using double precision FFTW3
  3d grid and FFT values/proc = 5355 672
Last active /omp style is kspace_style pppm/tip4p/omp
WARNING: Not all mixed pair coeffs generated from mixing. Use write_data with 'pair ij' option to store all pair coeffs. (../write_data.cpp:312)

write_restart   restart.lmp.${pid}
write_restart   restart.lmp.0
System init for write_restart ...
PPPM initialization ...
  extracting TIP4P info from pair style
  using 12-bit tables for long-range coulomb (../kspace.cpp:340)
  G vector (1/distance) = 0.37862983
  grid = 24 27 32
  stencil order = 5
  estimated absolute RMS force accuracy = 0.002553626
  estimated relative force accuracy = 7.690169e-06
  using double precision FFTW3
  3d grid and FFT values/proc = 5355 672
Last active /omp style is kspace_style pppm/tip4p/omp
Total wall time: 0:08:05
