LAMMPS (30 Jul 2021)
Processor partition = 1
  using 2 OpenMP thread(s) per MPI task
using multi-threaded neighbor list subroutines
variable        pid world 0 1
variable        phase world IceV IceIII

shell cd ${phase}
shell cd IceIII
include Restart.lmp
echo both
log log.lammps
#include		in.partitions
include		in.temp
variable        temperature equal 138.97
variable	tempDamp equal 100.0
include		in.pressure
variable        pressure equal 7181.2
variable        pressureDamp equal 1000.0 # This is 1 ps
include		in.seed
variable        seed equal 745823

units		real
atom_style	full

read_restart	restart.lmp.${pid}
read_restart	restart.lmp.1
Reading restart file ...
  restart file = 30 Jul 2021, LAMMPS = 30 Jul 2021
  restoring atom style full from restart
  orthogonal box = (0.087711165 0.15887265 0.096327972) to (19.912290 19.841128 20.603670)
  4 by 2 by 4 MPI processor grid
  restoring pair style lj/cut/tip4p/long/omp from restart
  restoring bond style harmonic/omp from restart
  restoring angle style harmonic/omp from restart
  972 atoms
  648 bonds
  324 angles
Finding 1-2 1-3 1-4 neighbors ...
  special bond factors lj:    0        0        0       
  special bond factors coul:  0        0        0       
     2 = max # of 1-2 neighbors
     1 = max # of 1-3 neighbors
     1 = max # of 1-4 neighbors
     2 = max # of special neighbors
  special bonds CPU = 0.002 seconds
  read_restart CPU = 0.007 seconds
include 	in.setup
variable	out_freq equal 1000
variable	out_freq2 equal 10000
variable	out_freq3 equal 1000

timestep	2.0

neigh_modify    delay 7 every 1

include		in.tip4p
# This is TIP4P/Ice

# create groups ###
group ox type 2
324 atoms in group ox
group hy type 1
648 atoms in group hy

# set charges - beside manually ###
set group ox charge -1.1794
Setting atom values ...
  324 settings made for charge
set group hy charge 0.5897
Setting atom values ...
  648 settings made for charge

# ### TIP3P Potential Parameters ###
pair_style lj/cut/tip4p/long/omp 2 1 1 1 0.1577 8.5
pair_coeff 1 1*2 0.000 0.000
pair_coeff 2 2 0.21084 3.1668
bond_style  harmonic
bond_coeff  1 450 0.9572
angle_style harmonic
angle_coeff 1 55 104.52
kspace_style pppm/tip4p/omp 1.0e-5
pair_modify tail yes

thermo          ${out_freq}
thermo          1000
thermo_style    custom step temp pe etotal epair emol press lx ly lz vol pxx pyy pzz pxy pxz pyz enthalpy

restart 	${out_freq3} restart.lmp.${pid} restart2.lmp.${pid}
restart 	1000 restart.lmp.${pid} restart2.lmp.${pid}
restart 	1000 restart.lmp.1 restart2.lmp.${pid}
restart 	1000 restart.lmp.1 restart2.lmp.1


include         in.dump
dump            myDump all atom ${out_freq2} dump.water.${pid}
dump            myDump all atom 10000 dump.water.${pid}
dump            myDump all atom 10000 dump.water.1
dump            myDump2 all dcd ${out_freq2} dump.dcd
dump            myDump2 all dcd 10000 dump.dcd
dump_modify     myDump append yes
dump_modify     myDump2 append yes


variable natoms 	equal  "count(all)"                        # NUMBER ATOMS
variable H      	equal  "enthalpy/v_natoms"                 # ENTHALPY-per-atom
variable Vol      	equal  "vol/v_natoms"                 # volume-per-atom
fix AVG all 		ave/time ${out_freq} 1 ${out_freq} v_Vol v_H file vol_enthalpy.dat
fix AVG all 		ave/time 1000 1 ${out_freq} v_Vol v_H file vol_enthalpy.dat
fix AVG all 		ave/time 1000 1 1000 v_Vol v_H file vol_enthalpy.dat


timer           timeout 02:55:00 every 1000
New timer settings: style=normal  mode=nosync  timeout=02:55:00

fix 		1 all shake 1e-6 200 0 b 1 a 1
Finding SHAKE clusters ...
       0 = # of size 2 clusters
       0 = # of size 3 clusters
       0 = # of size 4 clusters
     324 = # of frozen angles
  find clusters CPU = 0.001 seconds
fix             2 all nph aniso ${pressure} ${pressure} ${pressureDamp}
fix             2 all nph aniso 7181.2 ${pressure} ${pressureDamp}
fix             2 all nph aniso 7181.2 7181.2 ${pressureDamp}
fix             2 all nph aniso 7181.2 7181.2 1000
fix             3 all temp/csvr ${temperature} ${temperature} ${tempDamp} ${seed}
fix             3 all temp/csvr 138.97 ${temperature} ${tempDamp} ${seed}
fix             3 all temp/csvr 138.97 138.97 ${tempDamp} ${seed}
fix             3 all temp/csvr 138.97 138.97 100 ${seed}
fix             3 all temp/csvr 138.97 138.97 100 745823


run             250000
PPPM initialization ...
  extracting TIP4P info from pair style
  using 12-bit tables for long-range coulomb (../kspace.cpp:340)
  G vector (1/distance) = 0.37226616
  grid = 24 24 24
  stencil order = 5
  estimated absolute RMS force accuracy = 0.0035007128
  estimated relative force accuracy = 1.0542293e-05
  using double precision FFTW3
  3d grid and FFT values/proc = 3211 432
Last active /omp style is kspace_style pppm/tip4p/omp
Neighbor list info ...
  update every 1 steps, delay 7 steps, check yes
  max neighbors/atom: 2000, page size: 100000
  master list distance cutoff = 10.8154
  ghost atom cutoff = 10.8154
  binsize = 5.4077, bins = 4 4 4
  1 neighbor lists, perpetual/occasional/extra = 1 0 0
  (1) pair lj/cut/tip4p/long/omp, perpetual
      attributes: half, newton on, omp
      pair build: half/bin/newton/omp
      stencil: half/bin/3d
      bin: standard
Setting up Verlet run ...
  Unit style    : real
  Current step  : 24500000
  Time step     : 2
  Walltime left : 2:54:59.93
Per MPI rank memory allocation (min/avg/max) = 10.19 | 10.19 | 10.19 Mbytes
Step Temp PotEng TotEng E_pair E_mol Press Lx Ly Lz Volume Pxx Pyy Pzz Pxy Pxz Pyz Enthalpy 
24500000    146.70174   -4943.7785   -4660.8519   -4943.7785            0      8261.21    19.824579    19.682256    20.507342    8001.8096    7793.9432    9189.2998    7800.3871    562.33437   -383.41449   -211.66955   -3696.7837 
24501000    138.17199   -4952.3378   -4685.8615   -4952.3378            0    10348.147    19.904633    19.573594    20.332141    7921.5079    9940.6966    10725.225    10378.519   -70.314287     1181.507    -767.0542   -3490.3704 
24502000    147.37147   -4975.6453    -4691.427   -4975.6453            0     7534.008    19.717126    19.704128     20.54104    7980.3741    8661.7224    6680.8905    7259.4112    311.87822   -69.499354    53.108854   -3814.5772 
24503000    141.62107   -4967.7326   -4694.6045   -4967.7326            0    7616.9204    19.838078    19.706875    20.433041    7988.2266    6214.9213    8917.4021    7718.4378   -671.13904    837.63596    774.67694   -3807.2326 
24504000    130.92216   -4964.4849   -4711.9904   -4964.4849            0    7113.0229     19.74119    19.842039    20.373709    7980.4931    7571.4528    6915.8275    6851.7885   -273.30726   -1015.0713    521.26115   -3884.1249 
24505000    132.77111   -4951.2709   -4695.2106   -4951.2709            0    6627.8305    19.822371      19.9966    20.256231     8029.165    8466.2132    4313.5522    7103.7261    224.62007   -382.24768     -112.263   -3919.1106 
24506000    141.88515   -4953.9462   -4680.3088   -4953.9462            0    8138.9198     19.70025    19.830598    20.403804     7971.108    6488.0007    9396.2832    8532.4756    59.677452    315.28114    360.19569   -3734.1558 
24507000    138.80595   -4966.3073   -4698.6084   -4966.3073            0      5564.57    19.812449    19.912684    20.465023    8073.8412    6094.5983    4581.2515    6017.8601   -847.45707    1513.7768    377.86701   -4043.3876 
24508000    137.21718   -4958.7534   -4694.1185   -4958.7534            0    7835.1239    19.797772    19.728064    20.572143    8034.8974    7965.8181    8404.1268     7135.427   -177.76757   -869.97681   -808.11448   -3775.9929 
24509000    140.81098   -4940.7411   -4669.1753   -4940.7411            0    8805.0767    19.698014    19.678207    20.467077     7933.481    9815.4384     8196.208    8403.5838   -224.35191    1384.7025      -212.08   -3650.4131 
24510000    139.83475   -4961.5657   -4691.8827   -4961.5657            0    7028.5314     19.94122    19.703275    20.496312    8053.1517    6581.4337    7891.7038    6612.4566   -401.67306    205.45461    124.03715    -3866.403 
24511000    146.34133   -4981.0416   -4698.8101   -4981.0416            0    6590.1389    19.885757    19.769553    20.489442    8055.0662    7258.5625    6053.2129    6458.6411   -360.20584    1515.4659    125.45693   -3924.6343 
24512000    145.09674   -4950.5932   -4670.7619   -4950.5932            0    7703.6322    19.869923    19.726398    20.451117    8016.0612    7895.8737    7785.9555    7429.0672    198.60793     645.4316   -534.46136   -3770.1609 
24513000    140.71924   -4942.0479    -4670.659   -4942.0479            0    6922.2062     19.80147    19.790561    20.427859    8005.3145    7741.6581     6481.042    6543.9185   -558.18457    436.97786    20.844794   -3862.4963 
24514000     136.1325   -4963.9401   -4701.3971   -4963.9401            0    7117.9896    19.630479    19.899258    20.483923    8001.6747    7510.4967    7562.6764    6280.7957   -76.884402   -76.053689    1145.6393   -3870.7546 
24515000    132.53127   -4953.1425   -4697.5448   -4953.1425            0    6721.8469    19.610185     19.82206    20.602152    8008.3503    7704.8957    6274.5849    6186.0602    37.043585   -4.1049838    415.77561   -3912.4763 
24516000    142.45911   -4964.6673   -4689.9229   -4964.6673            0    8624.7323    19.769273    19.682651    20.548631    7995.7127    8347.5259     10344.77    7181.9014    444.85432    267.30879   -853.65399   -3684.1992 
24517000    141.48423   -4965.2078   -4692.3436   -4965.2078            0    7006.1742    19.824147    19.641772    20.561473    8006.2547    7049.3212      7669.34    6299.8615   -88.582474   -1222.1573    95.013126   -3874.2816 
24518000     135.7363   -4970.4736   -4708.6948   -4970.4736            0    7953.6744    19.743209     19.76221    20.486923    7993.3715    7776.9526      8181.85    7902.2206   -765.55295    228.97413    128.33418   -3781.4942 
24519000    133.02684   -4953.8696   -4697.3162   -4953.8696            0     7669.846    19.772851    19.790901    20.448724    8002.0464    8825.5403    6389.6042    7794.3935   -90.029359    53.559503    466.71119   -3802.2326 
24520000    131.23889   -4947.9131   -4694.8078   -4947.9131            0     7870.332    19.703356    19.872817    20.413695    7993.2108    7784.2213    8314.7799    7511.9948   -99.057408    1321.9173   -521.90515   -3777.3414 
24521000    142.40725    -4981.423   -4706.7786    -4981.423            0    6685.9426    19.809167    19.817445    20.395787    8006.7145    7180.3041    5864.9462    7012.5774    591.03153    796.15158     152.6135    -3926.063 
24522000     139.3415   -4959.9335   -4691.2017   -4959.9335            0    7965.7698    19.710852     20.01428    20.287358    8003.3328    8343.2217    7464.1739    8089.9138    381.98667   -189.81458    957.64454   -3761.4339 
24523000    137.94759   -4973.9784   -4707.9349   -4973.9784            0    7326.0129    19.792266    19.789657    20.452449    8010.8594    6909.9211    6911.9414     8156.176     -283.595   -109.56238    947.02693   -3852.0356 
24524000     147.8261   -4949.7616   -4664.6665   -4949.7616            0    9347.9442    19.602752    19.743978    20.629092    7984.2074    10997.301    7963.2132     9083.318    559.25234    491.71889   -602.68893   -3576.1781 
24525000     142.4116   -4954.3802   -4679.7275   -4954.3802            0    6676.1509    19.700294     19.84308    20.514395    8019.3749    6991.2236     7926.307     5110.922   -190.80036    1028.4353    -300.6655   -3898.9225 
24526000    146.07723   -4963.7911   -4682.0689   -4963.7911            0    5770.7401    19.571026     19.99692    20.604606    8063.8234    5978.9871    5096.6194    6236.6139    410.70606   -979.20112   -420.07616   -4003.4148 
24527000    142.35993   -4949.6385   -4675.0854   -4949.6385            0     7441.149    19.759771     19.87048    20.426305    8020.1055     8453.449    6611.0103    7258.9878    319.78662    392.46385    356.21082   -3804.7313 
24528000    135.28234   -4959.7466   -4698.8432   -4959.7466            0    7528.7197    19.775985    19.702724    20.548308    8006.4584    8433.7602    7939.2724    6213.1265    120.59827   -1225.4406    425.93651   -3819.7448 
24529000    140.18103   -4955.9738   -4685.6229   -4955.9738            0    8735.9001    19.606485    19.847109    20.547062    7995.5205     8219.697    9162.1163    8825.8871   -314.00399    1627.7563   -143.31447   -3666.9604 
24530000    141.87685   -4956.4523   -4682.8309   -4956.4523            0      7197.17    19.869196    19.757418    20.436936     8022.806    8211.8538     5370.216    8009.4402    130.54201    155.93254    847.37149   -3840.7304 
24531000    141.09754   -4958.2464    -4686.128   -4958.2464            0    6578.4661    19.846959    19.836893     20.54389    8088.1705    6339.3044    6551.7484    6844.3456   -118.11786    738.16894   -1290.3827   -3910.1474 
24532000    139.00819   -4950.4809   -4682.3919   -4950.4809            0    8456.0871    19.872588    19.713611    20.331127    7964.9319    7253.2958    9047.6403    9067.3253     185.0755    204.58071    527.98746   -3700.1298 
24533000    137.92085   -4956.7131   -4690.7211   -4956.7131            0    6624.3111    19.934398    19.824134    20.286635    8016.9167    5890.8868    7562.3524     6419.694    88.596158    577.36862   -79.445681   -3916.2166 
24534000    135.54611   -4963.1432   -4701.7311   -4963.1432            0    7800.2087    19.745336    19.891135    20.355377    7994.7196    7279.0882     8021.693    8099.8447   -312.05418    731.39265    -674.9063   -3792.2675 
24535000    132.54024   -4969.6916   -4714.0766   -4969.6916            0    8238.7873    19.675101    19.717267     20.53804    7967.5113    8989.8899     7488.893     8237.579   -461.61644    1123.9427    627.78259   -3756.7461 
24536000    133.31784   -4969.0494   -4711.9348   -4969.0494            0     6677.351    19.770644    19.802262    20.486539    8020.5511    7352.4919     6054.321    6625.2402    -643.4776    498.31302    102.19264   -3930.8749 
24537000    141.17621   -4968.9018   -4696.6316   -4968.9018            0    7654.1164    19.807943    19.846601    20.426163    8029.9402    8102.4276    6962.2011    7897.7206   -100.78099    1068.5891   -507.06497     -3800.27 
24538000    141.19048    -4953.773   -4681.4753    -4953.773            0    7895.2989    19.709812    19.907135    20.412328    8009.1012    9018.5676    6669.9199    7997.4092   -519.73522   -646.42072   -1273.6977   -3759.2686 
24539000    129.70937    -4951.395   -4701.2396    -4951.395            0    8404.8261     19.76235    19.830466    20.388484    7990.1781    7047.2259    9956.1111    8211.1411   -640.16451    93.234419   -188.20977   -3721.8373 
24540000    143.29377   -4971.5486   -4695.1945   -4971.5486            0    6384.5174    19.711409     19.91153    20.362398    7991.9217     8159.471    4088.4684    6905.6129   -188.21519    704.25746    1467.0471   -3951.0536 
24541000    133.50815   -4945.8037    -4688.322   -4945.8037            0    7870.4993    19.722927     19.63445    20.655253    7998.7223    7171.7399    9653.7306    6786.0274    287.28118    1508.2774   -501.97967   -3770.2033 
24542000    135.53971    -4966.491   -4705.0912    -4966.491            0    5648.5806    19.804565    19.835895     20.51808    8060.3487    4584.2244    6706.1381    5655.3794   -299.32351   -128.86507    56.599897   -4041.0898 
24543000    142.40374   -4955.3357   -4680.6982   -4955.3357            0     7415.672     19.83197     19.64111    20.527477    7995.9021     6644.578    7478.8942    8123.5438    231.32553    1373.5989   -579.26218   -3815.9416 
24544000    135.06881   -4974.9143   -4714.4228   -4974.9143            0    5283.7932    19.945845    19.744683    20.496959    8072.2021    4492.8865    5953.4182    5405.0748    245.63953    326.29003     266.1381   -4092.3893 
24545000    139.63587   -4977.2523   -4707.9528   -4977.2523            0    7915.4878    19.784473    19.731058    20.341333    7940.6171    8045.2249    8116.0679    7585.1706    373.26719   -722.92654      66.9365   -3791.2937 
24546000    132.97463   -4961.7878    -4705.335   -4961.7878            0    6487.6909    19.678227    19.911247    20.556829    8054.5364    6643.2794     6953.137    5866.6562    25.663248   -1255.4269    -593.6328   -3943.2444 
24547000    132.28675   -4946.6185   -4691.4924   -4946.6185            0    7593.1958    19.768841    19.807633    20.352998     7969.704    7064.7858    7683.8873    8030.9142   -402.77487    490.19268    48.243102   -3808.9355 
24548000    132.11253   -4965.7297   -4710.9395   -4965.7297            0    7366.2196     19.82122    19.877737    20.305941    8000.5614     7045.801    8142.4982    6910.3595    403.60975   -472.16562    139.86031   -3851.4492 
24549000    141.15479   -4966.9443   -4694.7154   -4966.9443            0    6357.3897    19.770094     19.82525    20.582917    8067.4136    8006.2878    5063.8754    6002.0059   -124.37575    454.74898   -655.42782    -3946.737 
24550000    141.39524    -4974.205   -4701.5124    -4974.205            0    8132.7469    19.602855    19.669764    20.607415    7945.8798    9250.8881    8946.6474    6200.7053   -293.49901   -686.64585    -835.2462   -3759.0693 
24551000     139.5132   -4928.6325   -4659.5696   -4928.6325            0    7418.0287    19.922455    19.672058    20.531631    8046.6682    6159.8994    9097.7071    6996.4796   -303.02999    203.54808   -186.09215   -3789.0461 
24552000    139.09905   -4982.0061   -4713.7419   -4982.0061            0    5230.5544    20.042506    19.812327    20.428288    8111.8419    4430.5786    5667.9905    5593.0942    235.03855    535.90429   -472.21419   -4094.9521 
24553000    131.25639   -4967.0168   -4713.8778   -4967.0168            0    6598.8596     19.87058    19.612341    20.648814    8047.0204    5016.9605    8241.9983    6537.6199    873.80288   -142.52197      122.921   -3939.4519 
24554000    148.14515   -4970.2775   -4684.5672   -4970.2775            0    6072.7937    19.796066    19.768649    20.534968    8036.1848    4909.5367    7115.9283    6192.9161    85.554982     620.2139    394.45832   -3972.8387 
24555000    142.21616   -4963.7998    -4689.524   -4963.7998            0    9014.0395    19.941397    19.680519    20.383924    7999.8143    7338.3441    10772.356    8931.4183    -16.88647   -813.83852    143.72364   -3637.8642 
24556000    144.29373   -4952.6913   -4674.4087   -4952.6913            0     6418.595    19.918661    19.717888    20.550901    8071.4472    7137.4455    5708.5283    6409.8114    155.15545    843.12405    356.53647   -3918.8517 
24557000    130.69648   -4966.6493   -4714.5902   -4966.6493            0    5967.7928    19.735898    19.750104    20.628098    8040.5446     5312.438     7016.876    5574.0645    -310.5878    914.09034   -681.04181   -4014.7883 
24558000    139.51569   -4962.1184   -4693.0506   -4962.1184            0    8322.9501    19.693783     19.86399    20.408911     7983.907    8183.5611    8674.7684    8110.5208    154.74914   -200.35163    556.00828   -3723.9505 
24559000    140.44975   -4968.6772    -4697.808   -4968.6772            0    7329.7626    19.926194    19.706456    20.458649     8033.593    6010.0369    8147.9263    7831.3246    236.33874    240.18263   -232.25861   -3839.0405 
24560000    142.79862   -4972.9917   -4697.5925   -4972.9917            0    6934.6216    20.032606    19.729803    20.322197    8032.1325    6118.2232    7661.4196     7024.222   -96.932776    475.05972   -647.37074   -3885.2681 
24561000    136.73939   -4956.0072   -4692.2938   -4956.0072            0    6336.7658    19.947571    19.710319    20.436287    8034.9962    4212.0593    7458.9542    7339.2839   -90.161102   -927.46982   -1106.6056   -3949.7377 
24562000    144.76191   -4945.5921   -4666.4066   -4945.5921            0    6812.7074    19.713052    19.992619    20.322343    8009.3512    8036.5834     5306.105    7095.4337    63.058319    1043.2496    427.48423   -3870.6267 
24563000    144.56186   -4958.7197     -4679.92   -4958.7197            0    7780.1746    19.764619    19.905372    20.393003    8023.0583    7947.6812    7309.6375    8083.2051    545.21313   -627.81294   -5.6105573   -3769.5768 
24564000    140.46665   -4963.6376   -4692.7359   -4963.6376            0    7536.8067    19.585055    19.962617    20.522195    8023.5411    8507.1258    6704.5491    7398.7451   -205.64215   -6.4702626   -1135.9747   -3810.8156 
24565000    136.23435   -4963.4753   -4700.7359   -4963.4753            0    6731.1794    19.755818    19.819178    20.476102    8017.2964    7416.6075    6054.9112    6722.0194   -615.63054    573.30393   -389.78011   -3913.6991 
24566000    140.93701    -4950.119   -4678.3102    -4950.119            0    5684.1847    19.940625    19.803187    20.413933    8061.2156    6390.9174     5403.866    5257.7707   -273.41306    78.974558   -783.18842   -4010.0515 
24567000    135.17356   -4967.1528   -4706.4592   -4967.1528            0    7458.4213    19.790134     19.85935    20.431765    8030.0761    6339.9963    8262.8738    7772.3938   -466.41897    774.37213   -221.11702   -3833.0004 
24568000    140.24409   -4960.6153   -4690.1428   -4960.6153            0    7471.0502    19.585279    19.841994    20.571824    7994.4368    8141.9095    7448.9229    6822.3183   -126.96402    430.94235   -1213.9838   -3819.0881 
24569000    135.29772   -4975.8486   -4714.9156   -4975.8486            0    8008.7717    19.645083    19.803374     20.55953    7998.4574    6748.5424    8399.5214    8878.2515   -588.92547    1422.2316    200.30276    -3780.698 
24570000    141.81265   -4957.1102   -4683.6126   -4957.1102            0    6554.4132    19.782755    19.835048    20.376234    7995.4689    7143.9016    5656.0672    6863.2709    203.57879    883.40505    747.53382   -3919.3305 
24571000    141.09371   -4966.1139   -4694.0029   -4966.1139            0    6388.6072    19.895448     19.84092    20.439929    8068.5392    5834.1791    6214.8915     7116.751   -393.74815    764.35719    81.991141   -3942.2467 
24572000    152.24807     -4963.44   -4669.8168     -4963.44            0    6588.7418      19.7868    19.842351    20.544274    8066.0236    6852.6773    5780.0641    7133.4842   -434.96033    326.13302    865.37772   -3894.7523 
24573000     132.8048   -4968.7111   -4712.5859   -4968.7111            0    8218.4465    19.596904    19.751663    20.558349    7957.5496    9142.6343    7879.6739    7633.0314   -671.10345   -91.867539   -224.34442    -3758.813 
24574000    129.70993    -4957.443   -4707.2865    -4957.443            0    6724.1674    19.749932    19.759542     20.55432    8021.3153    6898.0716    6970.0073    6304.4233   -19.830994    564.95475    736.45652   -3920.6755 
24575000    136.73987   -4962.3932   -4698.6788   -4962.3932            0    7685.8986    19.965135    19.785894    20.268788    8006.7399     7827.382    7054.2009    8176.1129    -1143.391    321.72311   -123.16344   -3801.1958 
24576000    141.56074   -4967.0079   -4693.9961   -4967.0079            0    7754.2116     19.83006    19.778164     20.37968    7992.9545    6968.4157    7896.5195    8397.6996    408.64315    163.04442    288.16169   -3790.0951 
24577000    132.17634   -4969.6394   -4714.7262   -4969.6394            0    7537.1788    19.645299    19.774305    20.532339    7976.2415    8122.1554    7856.1726    6633.2083    -144.7824   -62.510086    425.72203   -3837.9616 
24578000    138.21981   -4942.4481   -4675.8796   -4942.4481            0    7123.1085    19.874978    19.608144    20.548937    8008.1555    6508.5365    8337.1535    6523.6354    -366.7009   -193.28151    134.96049   -3843.9665 
24579000    134.60545   -4965.3386   -4705.7407   -4965.3386            0    7343.3338    20.028792    19.707261    20.344262    8030.1369    6182.1314    7540.6825    8307.1874   -231.77344    819.47925   -1116.9943   -3845.7532 
24580000    141.56164   -4946.8786   -4673.8651   -4946.8786            0    8103.9757    19.784184    19.760268    20.366485    7962.0892    5823.3513    9468.2315    9020.3441    348.79873    639.41938    812.94265   -3732.8404 
24581000    141.60636   -4960.8748   -4687.7751   -4960.8748            0    7270.1179    19.791493    19.877017      20.3047    7987.7846    5720.4297    8704.0808    7385.8432   -494.80145    806.85852   -907.21745   -3840.8525 
24582000    143.57624   -4991.8532   -4714.9543   -4991.8532            0    5999.6233    19.809985    19.870526    20.470996    8058.0968    6378.8445    4918.2609    6701.7644    307.95177    1127.1975    663.84787   -4009.8841 
24583000    141.22026   -4966.6364   -4694.2812   -4966.6364            0    6895.8813    19.831906    19.789828    20.513292    8050.8518    6161.5044    7334.3508    7191.7888   -130.25948   -842.28515    1323.0518   -3884.6122 
24584000    141.19659   -4945.0652   -4672.7557   -4945.0652            0    6461.5573    19.835923    19.819454    20.415112     8025.939    8141.7209    5774.1459     5468.805    319.73155   -745.17347   -119.34298   -3916.4299 
24585000    133.86091   -4965.2994   -4707.1374   -4965.2994            0    6181.2254    19.925886    19.889594    20.269976    8033.3521    5669.7406    5967.7141    6906.2216   -333.43615     973.3631     115.2595   -3982.9562 
24586000    135.50689   -4962.4226   -4701.0861   -4962.4226            0    6881.7603    19.748193    19.715643    20.582784    8013.8723    8143.7177    6176.8156    6324.7475   -241.57647   -106.80802    -379.7617   -3896.7865 
24587000    136.42058   -4964.7002   -4701.6016   -4964.7002            0    8484.5178    19.878987    19.643974    20.536004    8019.3564      7321.65     10555.96    7575.9436    250.92065    1170.9391   -559.28075   -3709.3026 
24588000    141.61437   -4967.9763   -4694.8611   -4967.9763            0    6687.3681    19.727946    19.877072    20.465644    8025.2707    6090.3671     7107.787    6863.9501   -253.12682   -116.11548    1354.8249   -3912.1692 
24589000    135.99558   -4983.6412   -4721.3623   -4983.6412            0    7039.8443    19.753559    19.907917     20.40088    8022.6914    7563.0151    6329.1292    7227.3887    525.31131   -29.312273     1050.845   -3897.6813 
24590000    129.15424   -4956.9136   -4707.8288   -4956.9136            0    5053.3475    19.605145    19.935354     20.73958    8105.7643    5861.1195    5247.3315    4051.5916   -72.591653    170.26137    591.95574   -4110.4511 
24591000    130.52671   -4961.2662   -4709.5344   -4961.2662            0    5995.5512    19.749821     20.00018    20.409392    8061.7092    6245.6545    4739.5427    7001.4566   -202.11091   -552.14472   -74.529442   -4004.6269 
24592000    134.36365   -4953.4314   -4694.2998   -4953.4314            0    7331.5286    19.725146    19.857564    20.392567    7987.6328    6460.5279    7289.1283    8244.9295    77.808655    927.79969   -424.41043   -3840.2395 
24593000    139.14383   -4956.2123   -4687.8617   -4956.2123            0    6633.7906    19.861728    19.917413    20.388869    8065.7196    6604.6597    6517.1814    6779.5306   -10.707664    201.89487   -580.14001   -3907.5273 
24594000    138.52993   -4959.4251   -4692.2585   -4959.4251            0    8308.0159    19.732427    19.807739    20.447052    7991.8278    7075.6277    8915.4317    8932.9883   -406.09113   -489.41685    805.63691   -3723.9376 
24595000    133.49569   -4977.3487    -4719.891   -4977.3487            0    6356.0763    19.694953    19.905199    20.537624    8051.4049    6989.8465    6800.2514    5278.1311    520.97358    911.67777   -103.21485   -3973.5511 
24596000    142.71707   -4959.2685   -4684.0266   -4959.2685            0    7368.4177    19.816749    19.696454    20.481288    7994.2497    8241.0181    6403.0463    7461.1886   -479.37505   -341.14497    95.789863   -3824.9581 
24597000    135.45156   -4946.0206   -4684.7908   -4946.0206            0    8041.7256    19.715917    19.730432    20.420779    7943.7557    7107.2336    8445.0303    8572.9128    223.59128    413.52111    101.41859   -3753.1446 
24598000    140.17528   -4967.3794   -4697.0396   -4967.3794            0     7212.302    19.769841      19.8568    20.449713    8027.8574    6748.4462    7301.5114    7586.9485    384.75405    358.61419   -314.25357   -3852.6372 
24599000    137.58809   -4961.8451   -4696.4949   -4961.8451            0    5619.0386    19.647019    19.938769    20.467024    8017.6984    6005.4905    5653.5241    5198.1011   -64.565189   -170.15958    472.89998   -4039.4612 
24600000    141.07083   -4967.8295   -4695.7625   -4967.8295            0    6766.6237    19.701361    19.948384    20.376863    8008.3173    6727.2125    6841.2676     6731.391     -16.5759    255.60984    472.78789   -3905.4676 
24601000    138.60169   -4988.0801   -4720.7751   -4988.0801            0    7580.6678    19.811141    19.835963    20.406208    8019.0899    8055.2502    6312.6973     8374.056   -266.34814    346.86478   -16.829076   -3834.2145 
24602000    142.91612   -4969.3267   -4693.7009   -4969.3267            0    7113.5441    19.794397    19.815079    20.397786    8000.5739     8193.943    5449.9802    7696.7091    2.9277972   -1121.5696    695.34978   -3863.6915 
24603000    141.68537   -4958.7396   -4685.4875   -4958.7396            0    6643.7564    19.678664    19.916075    20.492075      8031.29    6285.9304     6425.246    7220.0929    301.55307     1550.162   -504.44347   -3907.3167 
24604000    143.41146   -4965.2212   -4688.6402   -4965.2212            0    6595.6119     19.59877    19.901181    20.610515    8038.8979    7009.2587    5792.1593    6985.4178   -36.703461    -385.9433    569.83317   -3915.3767 
24605000    141.86724    -4951.051   -4677.4481    -4951.051            0    6211.0937     19.87751    19.719476    20.608904    8078.1562    7356.0709    6058.1573    5219.0529   -85.312842    276.82345    496.41045   -3945.7091 
24606000    139.81097   -4976.2593   -4706.6221   -4976.2593            0    7308.8618    19.924592    19.810176    20.245318     7991.023    5499.3831    8142.4924      8284.71    309.45078   -958.99583    750.77367   -3854.8409 
24607000    138.34836   -4949.7198   -4682.9033   -4949.7198            0    8934.0942    19.642556    19.703094    20.459959    7918.3956    8487.0065    9101.3067    9213.9693     96.00785     91.97898   -214.20679   -3651.1791 
24608000    136.99648   -4949.1968   -4684.9875   -4949.1968            0    6873.1408    19.752379    19.712836    20.560999    8005.9475    5886.5124    7484.3908    7248.5194    58.444367    555.34138    370.74972   -3882.4897 
24609000    132.36409   -4947.2843    -4692.009   -4947.2843            0    8526.5422    19.613865    19.848828    20.532965    7993.7347    8543.3031    6934.4858    10101.838   -514.43119    736.29901    6.5696753   -3697.9811 
24610000    143.36774   -4952.7248   -4676.2281   -4952.7248            0    7382.8946    19.789517    19.794064    20.428274    8002.0603    7106.5902    8039.0831    7003.0104   -337.99437    780.99069   -82.044839   -3814.6307 
24611000    140.84641   -4949.8951    -4678.261   -4949.8951            0    6238.1473    19.968922    19.752488    20.401806    8047.2048    6361.3145    5660.2591    6692.8682    167.83986   -29.416653    -360.7293   -3946.1506 
24612000    140.60554   -4962.7861   -4691.6165   -4962.7861            0    5761.6587    19.843725    19.698027    20.678653    8082.9181    6253.9974    5767.1238    5263.8549   -330.70759    783.41142   -1575.7997    -4012.426 
24613000    133.24281   -4967.8002   -4710.8303   -4967.8002            0    7499.2507    19.884129    19.896276    20.281071    8023.5999    7082.3709    7074.5773    8340.8038   -107.99235    666.32689   -294.85093   -3833.2982 
24614000    139.45215   -4949.5348   -4680.5896   -4949.5348            0    7499.2404    19.907132    19.676409    20.331455    7963.8487    7274.2854    7417.4773    7805.9585    446.03279    779.85575    298.40155   -3809.5936 
24615000    136.94851   -4955.5269   -4691.4102   -4955.5269            0    7151.1674    19.720017    19.796036    20.409579     7967.454    5390.5297    8367.3621    7695.6104   -43.794428    348.54468    16.503487   -3860.4649 
24616000    133.34282   -4971.5549   -4714.3921   -4971.5549            0    5685.4657    19.839073     19.86594    20.418759    8047.4791    5091.1279    7274.7787    4690.4905    292.08265   -486.46074    791.13382   -4047.1218 
24617000    137.08092    -4973.572   -4709.1999    -4973.572            0    6413.0317    19.740234    19.910435    20.411109     8022.314    7132.8581    5143.5591    6962.6779   -425.85663   -103.36286    919.42138    -3958.893 
24618000    129.82966   -4959.0212   -4708.6337   -4959.0212            0    7333.7239    19.675691    19.768895    20.581367    8005.4659    6850.9189    8238.7613    6911.4915    293.47245    301.33835   -1757.3414   -3852.4104 
24619000    136.59492   -4966.0131   -4702.5783   -4966.0131            0    6425.2358    19.866657    19.676646    20.391621    7971.2716    7004.0679    5697.3075    6574.3319    166.09527    710.97578    881.73185   -3955.6265 
24620000    142.99554    -4970.387    -4694.608    -4970.387            0     7098.149    19.995921    19.723576    20.296885    8004.9103    6346.2754    6723.5563    8224.6152   -885.41282    438.00187   -515.59068    -3865.946 
24621000     139.2905   -4979.7435   -4711.1101   -4979.7435            0    7976.1871    19.916557    19.649475    20.446176    8001.6085    8557.0891     7085.819     8285.653    38.474131    15.033614    130.75378   -3780.3269 
24622000    144.20847   -4963.0613   -4684.9431   -4963.0613            0    6525.0426    20.002679     19.83873    20.316221      8062.04    5841.8826    5918.2213    7815.0241   -314.92882   -398.29622    132.47547   -3917.7509 
24623000    133.22034   -4957.7818   -4700.8551   -4957.7818            0    6160.8972    19.907896    19.784994    20.543064    8091.4533    6504.3304    5778.8297    6199.5316    277.80623    1177.9757    908.47441   -3973.8351 
24624000    140.58693    -4962.645   -4691.5113    -4962.645            0    6845.7582     19.82531    19.798705    20.433081    8020.3001    7287.2106     5882.663    7367.4011   -276.26961   -1620.0117   -150.84408   -3890.7776 
24625000    138.66711   -4944.1986   -4676.7674   -4944.1986            0    7424.2876    19.765821    19.925737    20.318243    8002.3106    8413.7133    5826.7054     8032.444   -36.326026    257.04482   -576.79003   -3810.3123 
24626000    130.26503    -4966.838   -4715.6109    -4966.838            0    8433.7541    19.764445    19.786079    20.524446    8026.3078    8830.9119    8946.4694    7523.8811    53.866024     935.1423   -1037.1557   -3728.3939 
24627000    137.82043   -4954.3066   -4688.5083   -4954.3066            0    8221.3411    19.583553      19.7204    20.517824    7923.8915    8253.2381     8974.536    7436.2491    143.48537    1105.7911   -425.50874   -3738.4351 
24628000    134.48582   -4959.5615   -4700.1943   -4959.5615            0    7938.0108    19.750276    19.731841    20.502074     7989.849    8477.3786    7832.5892    7504.0646   -471.69124   -394.29975   -36.236601   -3775.2275 
24629000    144.66801   -4954.5633   -4675.5588   -4954.5633            0    6485.6163    19.784882    19.715014    20.583616    8028.8293    7872.4695    6048.3131    5536.0663   -233.47955    51.451682     273.8184   -3916.1435 
24630000    136.74326   -4979.9705   -4716.2496   -4979.9705            0    6377.8926    19.609359    19.973736     20.45314    8010.9256    6616.7743    5669.9206    6846.9828    366.69342    72.186288   -141.00552   -3971.1132 
24631000    135.21259   -4969.2066   -4708.4378   -4969.2066            0    9255.4694    19.600994    19.878747     20.39075    7945.1167    10284.446    9048.7453    8433.2166    27.982197   -17.505324   -217.08748   -3635.9938 
24632000    139.76373   -4951.0541    -4681.508   -4951.0541            0    6138.8237    19.633076    19.989843    20.524148    8054.9503    8166.6566    4559.3621    5690.4524    169.02748    -51.92476    287.02359   -3960.3609 
24633000    134.11189   -4935.9556   -4677.3095   -4935.9556            0     6810.423    19.617853    19.935221    20.498914    8016.8434    7378.0027    5716.8977    7336.3687   -149.79558    1181.0568   -100.92551   -3881.0523 
24634000    136.50326   -4965.6449   -4702.3869   -4965.6449            0    6859.0094    19.638188    19.926339    20.502886    8023.1322     6604.534    6579.3263    7393.1679    24.801465    844.27314    475.85978     -3899.82 
24635000    136.37069   -4958.7221   -4695.7198   -4958.7221            0    6658.5835    19.742788    19.925934    20.318726    7993.2546    5305.1374    6162.8677    8507.7453   -74.450461   -1116.0951   -1074.3062   -3919.5059 
24636000    140.84354   -4957.1023   -4685.4737   -4957.1023            0    7321.5599    19.878974    19.714936    20.375348    7985.3575    6774.2676    7684.1633    7506.2489    128.90276    148.78581   -781.81285   -3832.8177 
24637000     132.6519   -4957.9613    -4702.131   -4957.9613            0    7521.4814    19.568328    19.871079    20.514823    7977.0617     7247.568    7548.5293    7768.3469    394.54599    336.85474   -500.23397   -3827.1024 
24638000    135.52403    -4962.899   -4701.5295    -4962.899            0    6288.5864    19.784725     19.70248    20.570999    8018.7429    8340.3028    4742.9112    5782.5453    370.96481    347.94606    330.37469   -3966.1099 
24639000    130.70946   -4969.9195   -4717.8353   -4969.9195            0    7608.7489    19.803578    19.795317    20.416856    8003.7775    8044.7626    7023.4215    7758.0628     930.6185     148.5779    463.85406   -3829.6897 
24640000    137.14622   -4952.9393   -4688.4413   -4952.9393            0    7747.7742    19.623325    19.922792    20.448211    7994.2571    9616.9074    6358.6219    7267.7933    341.72674   -429.61409   -583.28782   -3785.1435 
24641000    138.56603   -4962.7039   -4695.4677   -4962.7039            0     7197.471    19.483145    19.796867     20.64886    7964.3733    7760.5749     7108.158    6723.6803   -554.99278    482.01165   -753.37234   -3859.4655 
24642000    140.49079   -4964.1385   -4693.1902   -4964.1385            0    6583.1376    19.833143    19.768665    20.374484     7988.321    7253.9659    6408.3212    6087.1257   -7.0297636    -418.1893    230.89598    -3926.245 
24643000    136.06246   -4961.0328   -4698.6249   -4961.0328            0    8139.5962    19.593747    19.830997     20.48005    7957.8009     8172.936    8313.3516    7932.5009    -126.6676   -508.61803   -16.329076    -3753.973 
24644000    141.31723    -4960.249   -4687.7068    -4960.249            0    7808.9006    19.834145    19.573226    20.504485    7960.2144    7566.0221    7582.1286    8278.5512    182.44334   -198.78095   -928.43471   -3781.1594 
24645000     142.0015   -4971.2151   -4697.3533   -4971.2151            0    6471.4101    19.757993    19.925365    20.372151     8020.215    8707.4537     3974.794    6731.9828    -117.5307    882.39793   -234.05455   -3940.4144 
24646000    135.38952   -4965.5835   -4704.4734   -4965.5835            0    6941.0657    19.750077    19.923012    20.339456    8003.1899    5744.0153    8078.9607    7000.2212   -192.63556    381.44234   -145.47748   -3894.3239 
24647000    132.29714   -4970.7659   -4715.6198   -4970.7659            0    6291.6884    19.821421    19.821523      20.4692    8042.1591    7603.1706    5443.0807    5828.8138   -1008.6573    654.22376    14.641357   -3977.6888 
24648000    135.88537   -4971.6515   -4709.5851   -4971.6515            0    6449.3582    19.714306    19.793593    20.527375      8010.13    6677.4413    6335.9995    6334.6338     208.5305    512.59624    410.89687   -3956.1741 
24649000    145.01546   -4965.8491   -4686.1746   -4965.8491            0    7577.1802    19.746201    19.857674    20.447532    8017.7557    7966.1537    8452.2627    6313.1241    181.81944    87.947334    192.36921   -3800.1693 
24650000     138.7943   -4970.5611   -4702.8846   -4970.5611            0    7044.2444    19.802297    19.873434    20.452195    8048.7495    7441.2715    7279.1654    6412.2963    12.159974   -482.83299    185.55697   -3876.0118 
24651000    145.17796   -4952.8521   -4672.8642   -4952.8521            0    7684.4531    19.761811    19.875048    20.414118    8017.9908    8380.2023     6741.466    7931.6911   -854.01168   -124.38467   -264.98421    -3774.289 
24652000     147.0638   -4965.4884   -4681.8634   -4965.4884            0     7321.593    19.540881    20.004789    20.396454    7973.2023    7432.3367    7008.0328    7524.4094   -288.76536   -807.12683   -911.71733   -3830.5015 
24653000    142.52311   -4979.7925   -4704.9247   -4979.7925            0    6866.3627    19.813377    19.856482     20.45645    8048.0575     7312.455    6740.1024    6546.5307   -108.64603    543.46719    190.51958   -3899.0014 
24654000    145.12554   -4977.6159   -4697.7291   -4977.6159            0    7035.3063    19.793619    19.824794    20.487198    8039.2669    8323.7466    6107.3487    6674.8236   -327.59476    484.00278    442.13016   -3872.8784 
24655000    135.63159   -4961.5566   -4699.9797   -4961.5566            0    7689.6877    19.680789    19.838095    20.534582    8017.3042    8280.6252    7381.1408    7407.2971     208.8622    543.28666    153.45325   -3800.8694 
24656000      135.329   -4969.1484    -4708.155   -4969.1484            0    6917.5813    19.826222    19.796118    20.404307    8008.3279    6381.1481    7092.6536    7278.9421    377.47141    1558.5302    143.34607   -3900.2282 
24657000    139.77942    -4961.842   -4692.2657    -4961.842            0    6280.5003    19.847499    19.824567     20.44417    8044.1285    7704.6198    4470.1164    6666.7648    -252.1797      374.387   -788.90703   -3955.4665 
24658000    130.37267   -4969.8256    -4718.391   -4969.8256            0    6249.4917     19.83857    19.864721    20.430379    8051.3604     6106.263    6196.2145    6445.9976    161.63686    683.80363     538.0448   -3984.5704 
24659000    136.49319   -4970.5109   -4707.2723   -4970.5109            0    7853.2195    19.793787    19.680945    20.553966    8007.0121    7718.6713    8754.0839    7086.9034    217.66499    16.205941   -655.35416     -3790.22 
24660000    135.92076   -4955.1035   -4692.9689   -4955.1035            0    8329.9435    19.756052    19.709638    20.578223    8012.8436    9027.0575    9242.1122    6720.6607   -501.82768     449.9582    1611.2034   -3719.5391 
24661000    139.28415   -4974.5719   -4705.9507   -4974.5719            0    6859.0124    19.811285     19.74807    20.493635    8017.8199    6359.3823     8125.976    6091.6788   -607.65683    171.51266   -473.41538   -3903.9148 
24662000    139.09688   -4964.9547   -4696.6947   -4964.9547            0     6125.026    19.955035    19.843746    20.314833    8044.3214    4270.6794    7405.9059    6698.4927   -311.38657    358.61865   -1332.1981   -3978.1178 
24663000    149.06136   -4976.3777   -4688.9003   -4976.3777            0    8460.5077    19.875711    19.699266     20.44029     8003.128    8374.1671    7724.2949    9283.0611    193.00259    112.74048    -299.3353   -3701.4117 
24664000    136.85398   -4967.8157   -4703.8813   -4967.8157            0     7853.158    19.697185    19.664744    20.663318    8003.7315    9300.6139    7004.4566    7254.4037   -320.31749   -1001.1762   -44.146319   -3787.2119 
24665000    135.41067   -4960.4633   -4699.3124   -4960.4633            0    6907.4252    19.876584    19.783459     20.46434    8047.1429    5613.9845    7777.3288    7330.9623    25.430058    109.61371    1625.8291   -3888.6617 
24666000    135.06008   -4958.2076   -4697.7328   -4958.2076            0    6004.3349    19.918394    19.832067    20.511279    8102.4252    4823.3524    6923.0844     6266.568   -172.17669    991.88228    156.19497   -3988.2272 
24667000    140.92792   -4968.4024    -4696.611   -4968.4024            0    6465.2503     19.74139      19.8767    20.460694    8028.6471    6313.0426    7026.8609    6055.8473     173.8858    469.19984   -220.91652   -3939.5976 
24668000    138.96449   -4950.4397   -4682.4349   -4950.4397            0    6641.7433    19.767543    19.903044    20.433498    8039.2383    6080.9873    7151.3049    6692.9378    123.87333   -758.73679    143.21621   -3903.7301 
24669000    148.59007   -4964.7771   -4678.2086   -4964.7771            0    6086.1162     19.85073     19.69626    20.579844    8046.4137    5799.6396    6972.1918    5486.5171   -331.62312   -40.124999    836.86389   -3964.0109 
24670000    135.11144   -4953.2398    -4692.666   -4953.2398            0    6623.5531    19.583338     19.94541    20.542591     8023.889       7378.2    6855.7043     5636.755   -549.02639     66.19336    920.91962   -3917.5765 
24671000    142.96794   -4955.3534   -4679.6277   -4955.3534            0    6867.1432     19.83916    19.894406    20.257118    7995.2476    6232.8423    5882.1924    8486.3949    381.31619   -244.89857    1441.0569   -3878.9017 
24672000     134.2578   -4960.7045    -4701.777   -4960.7045            0    7667.2791    19.860567    19.687822    20.429743    7988.2604    8079.0354    7190.3146    7732.4872   -296.81366     264.1982   -264.88767   -3808.5345 
24673000    132.61429   -4962.7578        -4707   -4962.7578            0    7865.3183    19.819037    19.645987    20.532385    7994.5831    7793.0037    8501.1788    7301.7725    199.65226    38.131495    356.58818   -3789.9605 
24674000    137.29071   -4957.4117    -4692.635   -4957.4117            0    8498.5826    19.685528    19.809957    20.493237    7991.7367     9426.137    8352.1021    7717.5087   -365.82748   -962.15291   -1095.6199   -3702.1143 
24675000    132.83395   -4952.4454    -4696.264   -4952.4454            0    7520.8651    19.668825    19.718223    20.566423    7976.3641    7721.3644     7924.603    6916.6279   -319.06878    1366.2806    564.66016   -3821.3836 
24676000    136.00452    -4965.343   -4703.0468    -4965.343            0    9490.9951    19.717336     19.77446    20.363281    7939.6368    10705.548    8571.9446    9195.4932    469.19972    609.73817     200.3874   -3604.0706 
24677000    137.98614   -4959.8786   -4693.7607   -4959.8786            0    6258.1637     19.87385    19.808015      20.3495    8010.8151    5508.4238    6209.0735    7056.9938   -575.31332    21.524377   -521.52641   -3962.6224 
24678000    145.10359    -4983.627   -4703.7825    -4983.627            0    6183.6103    19.915229    19.845263    20.495378    8100.2438     6022.542    5537.3284    6990.9604    504.12871   -155.06745    1037.0474   -3973.2895 
24679000    143.57072   -4960.2634   -4683.3752   -4960.2634            0    6661.1218    19.918914    19.695266    20.471994    8031.3334    7029.5795    6211.7384    6742.0477   -234.50886    102.78382    365.07166   -3903.1663 
24680000    136.95129   -4945.6957   -4681.5737   -4945.6957            0    7908.8944    19.746677    19.742853    20.461874    7977.1788    7914.6171    8081.1917    7730.8744   -171.90127    702.07322     698.2062    -3761.461 
24681000     139.5608   -4973.4753   -4704.3205   -4973.4753            0    6781.1867    19.856989    19.836467    20.383412    8028.8734    6392.0727    6498.3388    7453.1486   -210.93775   -460.61187    -326.3074   -3910.2918 
24682000    129.13869   -4941.0658   -4692.0109   -4941.0658            0    8100.1842    19.741317    19.770646    20.409508    7965.8022    6176.9304    11299.089     6824.533    505.39837   -91.958721    982.46356   -3750.9878 
24683000    128.98217   -4958.1415   -4709.3886   -4958.1415            0    8507.0555    19.812323    19.673461    20.426563    7961.8037    10155.359    7007.5541     8358.253    -214.6647    548.62776   -1005.7518    -3721.594 
24684000    132.97556   -4964.6808   -4708.2262   -4964.6808            0    6546.9038    19.805475    19.862293    20.351582    8005.9492    6784.8665    6454.2066    6401.6385    298.85246    318.36727     1115.514   -3943.8192 
24685000    141.35051   -4953.0285   -4680.4221   -4953.0285            0    7933.1161    19.796404     19.87945    20.320503    7996.9641    7079.2734    8776.9842    7943.0909    87.367279    536.18072   -757.49382   -3755.2025 
24686000    145.45831    -4961.463   -4680.9344    -4961.463            0    7291.1563    19.795577    19.684856    20.597318    8026.2203    7886.8709    7402.8989    6583.6992   -418.23785    182.99852   -340.10686    -3827.474 
24687000    140.67497   -4975.1012   -4703.7977   -4975.1012            0    5966.2072    19.626186    19.988167     20.42567    8012.8165    6818.8341    4837.8711    6241.9165   -544.19702    527.26643    237.17861   -4006.5944 
24688000     142.8235    -4963.995   -4688.5479    -4963.995            0    7302.2178    19.906736    19.726424    20.412305    8015.6814    7915.8965    6875.0659    7115.6911    59.166081   -496.97371   -365.44158    -3834.915 
24689000    134.04103   -4967.0442   -4708.5348   -4967.0442            0    8018.0687    19.813879    19.574177    20.623079    7998.4628    8414.9211    8047.1014    7592.1836   -215.50319    83.170924    898.29302   -3773.2321 
24690000    143.42238   -4950.1459   -4673.5438   -4950.1459            0     6627.424    19.581133    19.732022    20.709653    8001.6994    7848.3837     6331.012    5702.8764   -320.95566    1395.8216    788.27231   -3900.1461 
24691000    138.48988    -4961.807   -4694.7176    -4961.807            0    7217.3857     19.65294    19.777418    20.606671    8009.4919    6964.6929    7973.7354     6713.729   -829.11287   -871.24412    745.26665   -3851.6532 
24692000    143.13479   -4971.2613   -4695.2138   -4971.2613            0    5787.6232    19.802457    19.829604    20.537602    8064.6006    5820.7922    4644.3539    6897.7236   -183.53871   -868.32895   -641.96181   -4014.5087 
24693000     141.3513   -4964.4874   -4691.8796   -4964.4874            0    7267.9714    19.567773    19.968098    20.486604    8004.7554    8257.9276    5777.6077     7768.379     119.5597    1081.1891   -1213.5046   -3843.4083 
24694000    142.16097   -4958.2113   -4684.0419   -4958.2113            0    7194.6924    19.788057    19.728842    20.575782     8032.692    6171.3255    8027.5923    7385.1594   -644.84021    646.11589   -948.48518   -3841.1939 
24695000    137.45214   -4960.4649   -4695.3769   -4960.4649            0    7428.2332    19.723041    19.959667    20.396821    8029.5212    9466.0223    5784.9906    7033.6867   -161.42855    28.651436    1208.0419   -3825.5134 
24696000    139.80836   -4970.0938   -4700.4616   -4970.0938            0    7375.3136    19.792742    19.736287    20.547376    8026.5286    6905.8085    7717.4298    7502.7024    -339.1638   -663.27897    272.61099   -3837.1171 
24697000    136.71369    -4960.935   -4697.2712    -4960.935            0    6522.9806    19.804793    19.860242    20.406306    8026.3712    7393.8517    5827.9363    6347.1538   -341.89918    542.11457      621.035   -3933.7146 
24698000    138.89761   -4960.5966   -4692.7209   -4960.5966            0    7984.0799    19.660969    19.781388    20.572158    8000.9497    8576.9909    8181.3184    7193.9305     271.1245   -384.19661    1381.8591   -3761.0934 
24699000    141.09985    -4955.677    -4683.554    -4955.677            0    6676.9592    19.711468    19.752422    20.651553    8040.6667    6276.2701    7993.8586     5760.749    434.49881    44.832022   -649.57689   -3900.5812 
24700000    133.60784   -4959.6847   -4702.0108   -4959.6847            0    6159.9221    19.700217     19.73736    20.604403    8011.6159    7862.5798    5676.8761    4940.3105   -82.071316    233.47833    1052.0989   -3982.2781 
24701000     134.1879   -4955.4529   -4696.6602   -4955.4529            0    7152.2046     19.80583    19.748527    20.427551    7989.9501    5065.9282    8666.6437    7724.0418   -421.82427   -730.37282    659.34814    -3863.248 
24702000    139.27924   -4969.0155   -4700.4038   -4969.0155            0    5737.4355     19.75099    19.946258    20.478988    8067.8678    6142.0346    4832.6395    6237.6324   -531.83424    399.43392    611.38568   -4025.3281 
24703000     141.5728   -4982.1673   -4709.1322   -4982.1673            0    7807.5773    19.629751    19.844162    20.529079    7996.8149    8999.6978    6368.3106    8054.7235    253.74028    588.63047   -681.35452   -3798.5708 
24704000    133.26921   -4969.0915   -4712.0706   -4969.0915            0    5841.2772    19.723226    19.873544    20.525834    8045.5193     5054.728    6355.5871    6113.5166    -417.5889   -663.45955    137.96165   -4026.6806 
24705000    135.19704   -4974.2108   -4713.4719   -4974.2108            0    9491.3594    19.687289    19.806953    20.467282     7981.119    9613.3343    9724.4216    9136.3222    178.72205    28.126553    126.79582   -3608.7115 
24706000    138.10953   -4986.3278   -4719.9719   -4986.3278            0    6172.5284    19.913499    19.949746    20.338896    8080.0178    5416.9972     6270.374    6830.2138   -576.21352    1463.2982   -96.590473   -3992.6087 
24707000    135.49339    -4952.964   -4691.6536    -4952.964            0    7237.3881    19.713064    19.879657    20.374324    7984.4723     7842.356    6274.5152     7595.293    426.99845    12.362864   -948.46453   -3848.8935 
24708000    134.15844   -4946.6082   -4687.8723   -4946.6082            0    7506.6369    19.662921    19.878405     20.47925    8004.6731    8023.7705    7296.2698    7199.8704    234.78909   -18.520631   -122.50283    -3811.548 
24709000    136.72562   -4965.1963   -4701.5095   -4965.1963            0    7110.1456    19.823315    19.732729    20.599953    8058.0446    4685.2931    8592.3008    8052.8428    644.67902    697.31968   -409.02552   -3865.9371 
24710000    139.49456   -4947.9288   -4678.9018   -4947.9288            0    7214.9806    19.856261    19.714811    20.534894    8038.6396    9009.0045    5725.1896    6910.7475   -266.85063    19.620027   -1112.8204   -3833.0513 
24711000    147.04939   -4979.0982   -4695.5011   -4979.0982            0    5743.2601    19.828028    19.763917    20.506938    8036.2487    5938.7262    6381.2588    4909.7952    466.84658   -215.03609   -571.98538   -4022.3885 
24712000    140.89701   -4966.4965   -4694.7648   -4966.4965            0    7510.3024    19.829891    19.808072    20.400875    8013.2989    8328.6383    7158.9276    7043.3415    114.22469   -31.431128     381.6102   -3817.0677 
24713000    143.88208   -4956.4902   -4679.0015   -4956.4902            0    6964.4021    19.770753    19.669075    20.566294    7997.6645    6301.1426    7629.5419    6962.5218   -436.81707    337.59453   -903.48196   -3866.6895 
24714000    139.78977    -4963.518   -4693.9217    -4963.518            0    7140.1424    19.943617    19.731496    20.369181    8015.6273    5216.1533    8035.5942    8168.6797   -567.18646    666.27588    505.27966   -3859.2411 
24715000    132.48487   -4977.1619   -4721.6537   -4977.1619            0    6965.0726    19.969447    19.704275    20.372028    8016.0563    7686.6078    6354.6813    6853.9286   -86.561162    20.213311   -203.39215   -3907.3952 
24716000    137.47455   -4966.8476   -4701.7164   -4966.8476            0    7045.0949    19.924466    19.728217    20.357176    8001.8801    6501.0286    6974.4178    7659.8383   -649.61066     237.4259    131.16037   -3879.5593 
24717000    132.99902   -4970.4019   -4713.9021   -4970.4019            0    5719.4726    19.659753     19.83508    20.551377    8014.0667     5924.235    6212.0343    5022.1487     309.2336    285.14266    -1342.334   -4045.4276 
24718000    137.17875   -4947.9329   -4683.3722   -4947.9329            0    7722.1556    19.842349    19.814529    20.402098    8021.4273    8701.0296    7040.7648    7424.6725   -391.10684    133.42514   -392.80822   -3780.0013 
24719000    143.54124   -4966.3944   -4689.5631   -4966.3944            0    6246.1254    19.523179    20.043002    20.465068    8008.0446    7019.5224    4698.5224    7020.3314    83.270783   -386.35774    284.37004   -3960.0836 
24720000    137.75099   -4979.4019   -4713.7375   -4979.4019            0    6923.5381    19.874442    19.853681    20.370112     8037.656    7936.5983     5411.299     7422.717   -90.928073   -51.537866   -327.08029   -3902.1537 
24721000    140.87292   -4971.1401   -4699.4548   -4971.1401            0    6822.0786    19.756126     19.75713    20.492546    7998.7397    6351.4776    7646.3114    6468.4469   -529.80556    1337.6909   -912.74625   -3903.6361 
24722000    143.29143   -4980.6572   -4704.3076   -4980.6572            0    7751.5103    19.701863    19.831114    20.417992    7977.5118    8329.8108    7626.3515    7298.3687   -230.57083    75.082147   -618.11678   -3802.4672 
24723000    138.03658   -4971.4446   -4705.2294   -4971.4446            0    7340.1001     19.89789    19.840494    20.334733    8027.8265    6061.7969    6949.6714     9008.832   -532.03611    -98.05973   -1100.6542    -3845.868 
24724000    142.01115   -4975.5974    -4701.717   -4975.5974            0    5855.3125     19.97399     19.92043    20.284923    8071.1779    5566.3126    5188.4642    6811.1608    -92.57248    530.17709     335.6076    -4012.489 
24725000    142.28773   -4975.3891   -4700.9753   -4975.3891            0    8165.6392     19.57644    19.803199    20.532328    7959.8934    11973.224    5130.7649    7392.9289   -573.31663    804.72909    5.2487217   -3753.0517 
24726000    144.60757   -4985.4595   -4706.5717   -4985.4595            0     5127.016    19.911216    19.881938    20.433772    8089.1903    5051.7079    4892.0988    5437.2414    164.49679   -40.926752   -596.10942   -4101.7245 
24727000    141.19478   -4930.8906   -4658.5846   -4930.8906            0    8458.7739    19.797642    19.794427    20.450142    8014.0625    7810.8859    9223.2625    8342.1732   -78.200501    392.39976   -669.42771   -3669.9495 
24728000    145.88332   -4965.7121   -4684.3638   -4965.7121            0    7711.2068    19.970709    19.718545    20.364634    8019.4566    8761.0577    6032.7003    8339.8623    91.197043    878.45027    1077.1867   -3782.4954 
24729000    147.25146   -4971.5277   -4687.5408   -4971.5277            0    7343.7034    19.659187    19.771494    20.606999    8009.7651    8748.3548    6662.3894    6620.3661    610.94745    688.74449   -1056.6911   -3829.6919 
24730000    151.90807    -4967.942   -4674.9745    -4967.942            0    6789.2765    19.680212    19.720864    20.629577    8006.5613    7908.3689    6245.6832    6213.7774   -221.39021    104.36815   -337.42157   -3882.2078 
24731000    141.42172   -4958.6822   -4685.9385   -4958.6822            0    7514.5635    19.676816    19.849245    20.531524    8018.9963    7377.6898    7466.1591    7699.8415    495.73668    844.26591    1248.2643    -3807.119 
24732000    138.39933   -4958.6764   -4691.7617   -4958.6764            0    7297.4012    19.908123    19.727732     20.32184    7981.2428    7304.3501    7688.6153    6899.2382   -162.96145    1316.2462    467.27727    -3842.357 
24733000    142.56171   -4980.8448   -4705.9025   -4980.8448            0    6145.3047    19.816679    19.931862    20.315526    8024.2939    6114.5212    6228.5321    6092.8608   -452.80434    507.43463    390.83379   -3986.7415 
24734000    142.76255   -4957.8841   -4682.5545   -4957.8841            0     8426.294     19.80113    19.666855    20.492394    7980.2701    8840.7524    7992.8567    8445.2729    188.13734    1052.6854   -267.64046   -3701.8682 
24735000    140.83366   -4979.8184   -4708.2088   -4979.8184            0    7866.5419    19.768074    19.675303    20.547383    7991.7578     8506.917    7183.2762    7909.4326   -365.26229    127.37797    312.18726   -3791.3508 
24736000     133.6257   -4968.7388   -4711.0304   -4968.7388            0    6766.5707    19.911006      19.8369    20.403215    8058.7115    4995.4505    7890.5207    7413.7409   -95.670941    176.53374   -1129.4472   -3915.7686 
24737000    135.90261   -4958.1909   -4696.0913   -4958.1909            0    7018.5558    19.821171    19.793551    20.419127    8011.0634    5280.0586    8495.0646    7280.5443    397.93457    40.858017    220.36331   -3876.0914 
24738000     135.6115    -4951.512   -4689.9739    -4951.512            0    6461.5865    19.735187    19.914343    20.503437    8058.1234    7054.6222    5106.1712    7223.9661    98.691675     1051.126    717.48845   -3930.6117 
24739000    140.98146   -4975.9374   -4704.0428   -4975.9374            0    5949.3756     19.73715    19.922565    20.549187    8080.2413    6462.1235    5292.5314    6093.4719   -134.61724   -167.78396      241.057   -4002.9563 
24740000    141.33417   -4967.3313   -4694.7565   -4967.3313            0    7140.6813    19.645366    19.883142     20.59032    8042.8182    8370.4681    6162.1258      6889.45    563.83123    344.80123    810.22136   -3857.1814 
24741000    138.12621   -4973.5332   -4707.1452   -4973.5332            0    7492.8274    19.842299    19.687515    20.494413    8006.0518    7525.4506    7591.4942    7361.5373   -78.252167    1232.6543    573.72545   -3832.2823 
24742000    139.27978    -4964.905   -4696.2922    -4964.905            0    7195.1468    19.807435    19.780323    20.453818    8013.7539    6877.8825    7433.2068    7274.3511    128.40763   -359.77908   -1142.3655   -3855.3783 
24743000    137.94109   -4952.9387   -4686.9077   -4952.9387            0    7454.7489    19.927022    19.828329    20.285834    8015.3297    6717.3301    7524.9412    8121.9754   -211.95403   -681.43794    291.31704   -3815.4821 
24744000    145.23077   -4967.7973   -4687.7076   -4967.7973            0    7609.5632    19.836571    19.777382     20.39361    8000.7281    6731.7601    7934.5929    8162.3366    171.88771    428.24077     638.1742   -3799.8054 
24745000    147.11845   -4955.2061   -4671.4758   -4955.2061            0    6970.0527     19.69816    19.730453    20.548803    7986.3666    5219.6769    8346.2968    7344.1844    -408.3281    571.50256   -884.12266   -3859.6531 
24746000    139.72089   -4954.6515    -4685.188   -4954.6515            0    7413.8825    19.878258    19.673171    20.415532    7983.8684    6541.6748     7792.369    7907.6037   -427.57663   -24.580828   -68.631617   -3821.9412 
24747000    137.98197   -4962.4107   -4696.3008   -4962.4107            0    6629.0993    19.611222    19.942932    20.491404    8014.2959    6166.5469    7289.5768    6431.1743    -107.3536    320.38734   -244.37738   -3921.4898 
24748000    140.15982   -4953.4659   -4683.1559   -4953.4659            0    7338.4917    19.751767    19.947815    20.340889    8014.4035    8591.4046    5166.4803    8257.5903   -237.81106   -130.93174   -783.14924   -3825.4194 
24749000     132.7831   -4964.7938   -4708.7104   -4964.7938            0    7457.0259    19.682524    19.844526    20.535637    8021.0216    5752.7652     9303.069    7315.2436   -364.62411    110.46502    612.99789   -3836.3997 
24750000    139.90056   -4944.2601   -4674.4501   -4944.2601            0    6717.7482     19.76456    19.836573    20.523242    8046.3653    7521.8392    5320.6441    7310.7614   -59.429105   -297.44264    -382.6501   -3886.1359 
Loop time of 415.249 on 64 procs for 250000 steps with 972 atoms

Performance: 104.034 ns/day, 0.231 hours/ns, 602.049 timesteps/s
194.1% CPU use with 32 MPI tasks x 2 OpenMP threads

MPI task timing breakdown:
Section |  min time  |  avg time  |  max time  |%varavg| %total
---------------------------------------------------------------
Pair    | 26.886     | 36.361     | 47.572     |  81.0 |  8.76
Bond    | 1.0606     | 1.2464     | 1.795      |  13.0 |  0.30
Kspace  | 180.49     | 194.6      | 208.92     |  53.0 | 46.86
Neigh   | 0.99801    | 1.175      | 1.3181     |   9.0 |  0.28
Comm    | 71.925     | 79.426     | 86.647     |  46.1 | 19.13
Output  | 0.49913    | 0.4995     | 0.50117    |   0.0 |  0.12
Modify  | 81.429     | 83.811     | 87.553     |  14.9 | 20.18
Other   |            | 18.13      |            |       |  4.37

Nlocal:        30.3750 ave          36 max          22 min
Histogram: 1 1 2 2 2 7 5 7 2 3
Nghost:        2703.66 ave        2729 max        2673 min
Histogram: 2 1 2 1 3 7 9 5 1 1
Neighs:        9764.44 ave       12745 max        6651 min
Histogram: 1 1 3 3 7 7 4 4 1 1

Total # of neighbors = 312462
Ave neighs/atom = 321.46296
Ave special neighs/atom = 2.0000000
Neighbor list builds = 3045
Dangerous builds = 0

unfix		3
unfix		2
unfix		1

write_data	data.final.${pid}
write_data	data.final.1
System init for write_data ...
PPPM initialization ...
  extracting TIP4P info from pair style
  using 12-bit tables for long-range coulomb (../kspace.cpp:340)
  G vector (1/distance) = 0.37212205
  grid = 24 24 24
  stencil order = 5
  estimated absolute RMS force accuracy = 0.0035182056
  estimated relative force accuracy = 1.0594972e-05
  using double precision FFTW3
  3d grid and FFT values/proc = 3211 432
Last active /omp style is kspace_style pppm/tip4p/omp
WARNING: Not all mixed pair coeffs generated from mixing. Use write_data with 'pair ij' option to store all pair coeffs. (../write_data.cpp:312)

write_restart   restart.lmp.${pid}
write_restart   restart.lmp.1
System init for write_restart ...
PPPM initialization ...
  extracting TIP4P info from pair style
  using 12-bit tables for long-range coulomb (../kspace.cpp:340)
  G vector (1/distance) = 0.37212205
  grid = 24 24 24
  stencil order = 5
  estimated absolute RMS force accuracy = 0.0035182056
  estimated relative force accuracy = 1.0594972e-05
  using double precision FFTW3
  3d grid and FFT values/proc = 3211 432
Last active /omp style is kspace_style pppm/tip4p/omp
Total wall time: 0:06:55
