#include		in.partitions
include		in.temp
variable        temperature equal 195.10
variable	tempDamp equal 100.0
include		in.pressure
variable        pressure equal 2093.6
variable        pressureDamp equal 1000.0 # This is 1 ps
include		in.seed
variable        seed equal 745823

units		real
atom_style	full
#include		in.box
read_restart	restart.lmp.${pid}
read_restart	restart.lmp.1
Reading restart file ...
  restart file = 30 Jul 2021, LAMMPS = 30 Jul 2021
  restoring atom style full from restart
  orthogonal box = (-0.010969263 0.20976604 0.14384414) to (18.218542 23.419412 22.069352)
  2 by 4 by 4 MPI processor grid
  restoring pair style lj/cut/tip4p/long/omp from restart
  restoring bond style harmonic/omp from restart
  restoring angle style harmonic/omp from restart
  864 atoms
  576 bonds
  288 angles
Finding 1-2 1-3 1-4 neighbors ...
  special bond factors lj:    0        0        0       
  special bond factors coul:  0        0        0       
     2 = max # of 1-2 neighbors
     1 = max # of 1-3 neighbors
     1 = max # of 1-4 neighbors
     2 = max # of special neighbors
  special bonds CPU = 0.003 seconds
  read_restart CPU = 0.009 seconds
include 	in.setup
variable	out_freq equal 1000
variable	out_freq2 equal 10000
variable	out_freq3 equal 1000

timestep	2.0

neigh_modify    delay 7 every 1

include		in.tip4p
# This is TIP4P/Ice

# create groups ###
group ox type 2
288 atoms in group ox
group hy type 1
576 atoms in group hy

# set charges - beside manually ###
set group ox charge -1.1794
Setting atom values ...
  288 settings made for charge
set group hy charge 0.5897
Setting atom values ...
  576 settings made for charge

# ### TIP3P Potential Parameters ###
pair_style lj/cut/tip4p/long/omp 2 1 1 1 0.1577 8.5
pair_coeff 1 1*2 0.000 0.000
pair_coeff 2 2 0.21084 3.1668
bond_style  harmonic
bond_coeff  1 450 0.9572
angle_style harmonic
angle_coeff 1 55 104.52
kspace_style pppm/tip4p/omp 1.0e-5
pair_modify tail yes

thermo          ${out_freq}
thermo          1000
thermo_style    custom step temp pe etotal epair emol press lx ly lz vol pxx pyy pzz pxy pxz pyz enthalpy

restart 	${out_freq3} restart.lmp.${pid} restart2.lmp.${pid}
restart 	1000 restart.lmp.${pid} restart2.lmp.${pid}
restart 	1000 restart.lmp.1 restart2.lmp.${pid}
restart 	1000 restart.lmp.1 restart2.lmp.1


include         in.dump
dump            myDump all atom ${out_freq2} dump.water.${pid}
dump            myDump all atom 10000 dump.water.${pid}
dump            myDump all atom 10000 dump.water.1
dump            myDump2 all dcd ${out_freq2} dump.dcd
dump            myDump2 all dcd 10000 dump.dcd
dump_modify     myDump append yes
dump_modify     myDump2 append yes


variable natoms 	equal  "count(all)"                        # NUMBER ATOMS
variable H      	equal  "enthalpy/v_natoms"                 # ENTHALPY-per-atom
variable Vol      	equal  "vol/v_natoms"                 # volume-per-atom
fix AVG all 		ave/time ${out_freq} 1 ${out_freq} v_Vol v_H file vol_enthalpy.dat
fix AVG all 		ave/time 1000 1 ${out_freq} v_Vol v_H file vol_enthalpy.dat
fix AVG all 		ave/time 1000 1 1000 v_Vol v_H file vol_enthalpy.dat


timer           timeout 23:50:00 every 1000
New timer settings: style=normal  mode=nosync  timeout=23:50:00

fix 		1 all shake 1e-6 200 0 b 1 a 1
       0 = # of size 2 clusters
       0 = # of size 3 clusters
       0 = # of size 4 clusters
     288 = # of frozen angles
  find clusters CPU = 0.001 seconds
fix             2 all nph aniso ${pressure} ${pressure} ${pressureDamp}
fix             2 all nph aniso 2093.6 ${pressure} ${pressureDamp}
fix             2 all nph aniso 2093.6 2093.6 ${pressureDamp}
fix             2 all nph aniso 2093.6 2093.6 1000
fix             3 all temp/csvr ${temperature} ${temperature} ${tempDamp} ${seed}
fix             3 all temp/csvr 195.1 ${temperature} ${tempDamp} ${seed}
fix             3 all temp/csvr 195.1 195.1 ${tempDamp} ${seed}
fix             3 all temp/csvr 195.1 195.1 100 ${seed}
fix             3 all temp/csvr 195.1 195.1 100 745823


run             250000
PPPM initialization ...
  extracting TIP4P info from pair style
  using 12-bit tables for long-range coulomb (../kspace.cpp:340)
  G vector (1/distance) = 0.37188881
  grid = 24 27 25
  stencil order = 5
  estimated absolute RMS force accuracy = 0.0031267028
  estimated relative force accuracy = 9.4159725e-06
  using double precision FFTW3
  3d grid and FFT values/proc = 4410 672
Last active /omp style is kspace_style pppm/tip4p/omp
Neighbor list info ...
  update every 1 steps, delay 7 steps, check yes
  max neighbors/atom: 2000, page size: 100000
  master list distance cutoff = 10.8154
  ghost atom cutoff = 10.8154
  binsize = 5.4077, bins = 4 5 5
  1 neighbor lists, perpetual/occasional/extra = 1 0 0
  (1) pair lj/cut/tip4p/long/omp, perpetual
      attributes: half, newton on, omp
      pair build: half/bin/newton/omp
      stencil: half/bin/3d
      bin: standard
Per MPI rank memory allocation (min/avg/max) = 10.19 | 10.21 | 10.23 Mbytes
Step Temp PotEng TotEng E_pair E_mol Press Lx Ly Lz Volume Pxx Pyy Pzz Pxy Pxz Pyz Enthalpy 
 9250000    206.61759   -4365.2685    -4011.133   -4365.2685            0    1828.2052    18.229511    23.209646    21.925508     9276.693    1880.7046    1680.0719    1923.8391   -407.35069    691.54992   -472.69096   -3763.7932 
 9251000    192.28869   -4363.1685   -4033.5922   -4363.1685            0    2531.8886    17.925921    23.343041    22.067749      9234.15    3470.6849    2775.7663    1349.2147    7.9961968   -735.42427    294.43866   -3692.6212 
 9252000    194.18675   -4372.1837   -4039.3543   -4372.1837            0    2820.9719    17.927542    23.493096    21.973081    9254.4788    3752.0245    2378.2204    2332.6709    228.16583    5.5849176    884.30959   -3658.6159 
 9253000    188.12251   -4369.4277   -4046.9922   -4369.4277            0     1099.476    18.162541     23.18481    22.095301    9304.2219    1417.9802    65.832955    1814.6148   -659.71507       209.27    486.41017   -3897.8015 
 9254000     182.3333   -4384.0451   -4071.5321   -4384.0451            0     3058.998    17.946452    23.338217    21.963676    9199.2265    2257.7695    3475.6571    3443.5674   -258.09634   -58.924496   -930.45567    -3661.133 
 9255000    198.73768   -4368.5282   -4027.8987   -4368.5282            0    3712.9023    17.903915    23.489024    21.867485    9196.2717     3428.325    3326.4016    4383.9803    892.99041   -639.46241   -16.501342   -3529.9309 
 9256000    195.93922   -4362.5676   -4026.7345   -4362.5676            0    2006.5349    18.047315    23.137319    22.265298    9297.2425    1257.7774    3689.6204    1072.2069    442.30105    -476.4863    208.73652   -3754.6669 
 9257000    193.89572   -4370.8162   -4038.4856   -4370.8162            0    2111.9572    18.043246    23.632508     21.78414    9288.9133    2049.1875     1656.611    2630.0732    416.43641     10.97572    157.66816   -3752.3803 
 9258000    206.56825   -4382.8597   -4028.8087   -4382.8597            0    1080.6219    17.992562    23.395226    22.199472    9344.6469    1356.6422    494.77609    1390.4473    579.44881    322.93123    192.94613   -3881.5393 
 9259000     208.7276   -4374.4535   -4016.7015   -4374.4535            0    2020.8893    18.144786    23.376766    21.898281    9288.5157    1515.8645    2028.7281    2518.0752    305.38481    -276.6254    212.18114   -3742.9448 
 9260000    196.52733   -4370.2281    -4033.387   -4370.2281            0    2104.4007    17.805342    23.614898    22.132977    9306.2825    1239.2813    1708.7417    3365.1793   -914.98215    -278.9864    338.62218   -3747.7723 
 9261000    193.41526   -4374.5949   -4043.0878   -4374.5949            0    2172.2358    18.174719    23.271841    21.884956     9256.443   -36.370308    2596.8805    3956.1973     471.5107    595.04875    618.68492   -3749.8452 
 9262000    204.34587    -4358.924   -4008.6821    -4358.924            0    907.94232     17.97093    23.353344      22.1996    9316.7568    226.85069    2245.0154    251.96087    -283.2086      -814.15   -437.13395   -3885.3152 
 9263000    198.28082   -4364.7973   -4024.9508   -4364.7973            0    2160.3227    17.985249    23.581566    21.879128    9279.3833    1536.0997    1444.5505     3500.318    219.98692    358.87982   -460.50979   -3732.5937 
 9264000    190.20196   -4376.3631   -4050.3634   -4376.3631            0    3208.2834    17.922931    23.231069    22.098985    9201.3289    2890.4917    3908.4509    2825.9075   -549.69593    571.14575    863.19046   -3619.8377 
 9265000    191.30955   -4364.5974   -4036.6993   -4364.5974            0    2031.5311    18.034411    23.429147    21.931054    9266.5474    2737.1287    1450.0801    1907.3846   -197.60602    476.32001    233.69548    -3762.152 
 9266000    200.99554   -4379.6088   -4035.1093   -4379.6088            0    2922.1385    17.976989    23.327995    21.980547    9217.9188    2993.3639    3707.4909    2065.5606     643.9311    406.14539    340.99289   -3642.2749 
 9267000    198.60875   -4380.1406    -4039.732   -4380.1406            0    1710.7177     18.06837    23.335562    21.992784    9272.9405    2258.9725    2273.4746     599.7061   -1398.4021    389.84773    -311.7347   -3808.3809 
 9268000     185.0714    -4376.759    -4059.553    -4376.759            0    2301.5308    17.837508    23.490936    21.965972     9204.176    2716.5423    670.23451    3517.8155   -506.29423    561.06025   -260.01896   -3750.6105 
 9269000    198.75805   -4374.9345     -4034.27   -4374.9345            0    2454.1493     17.99483    23.407588    21.955336    9247.9292    1291.2575    3890.4168    2180.7737   -236.05704   -177.73441    -601.2962   -3703.2751 
 9270000    191.68068   -4380.4861    -4051.952   -4380.4861            0    1981.3787    18.093523     23.08087    22.137103    9244.7696    1345.2756    2490.1212    2108.7393   -40.934961   -152.32271   -729.18771   -3784.8116 
 9271000    192.95659   -4383.3418   -4052.6208   -4383.3418            0    2084.8261    17.907612    23.553142     21.95418    9259.8461    1599.0978    1191.5442    3463.8362    14.109188   -351.83777   -981.73213   -3771.0748 
 9272000     200.0866   -4366.7919   -4023.8503   -4366.7919            0    3609.5692    17.967059    23.252165    21.967023    9177.2293    3172.4739    3492.7015    4163.5323   -82.390704   -178.86632   -89.539109   -3540.7439 
 9273000    191.43412   -4382.9313   -4054.8198   -4382.9313            0    1758.4718    17.982856    23.365292    21.989309    9239.3508    2463.1673    1179.6877    1632.5604   -535.51751   -113.96167    81.864031   -3817.8719 
 9274000     204.1519   -4344.6986   -3994.7892   -4344.6986            0     3976.508     17.93859    23.401046    21.886418    9187.5192    3662.4093    2696.6191    5570.4954   -96.067869   -318.12991   -214.45749   -3461.9747 
 9275000    206.76654    -4387.952   -4033.5612    -4387.952            0    1961.8957    17.972205    23.171154    22.265899    9272.3384     2410.329    1576.9463    1898.4117   -409.24274   -237.32362   -406.01058   -3768.2589 
 9276000     190.0645   -4341.3142   -4015.5501   -4341.3142            0    2013.0891    18.006201    23.410477    22.014989    9280.0612    2847.6777     2396.704    794.88551    9.9038766   -93.030448    192.78015   -3743.0983 
 9277000    194.73728   -4356.0064   -4022.2334   -4356.0064            0    2715.6758    17.866659    23.510023      22.0649    9268.2636    3646.9972    3007.4518    1492.5783    -519.4052    659.11988   -384.07571   -3655.1606 
 9278000     195.7032   -4386.8063   -4051.3777   -4386.8063            0    3029.3253    18.014087    23.213166    22.061042    9225.1335     1866.169     2758.297      4463.51     325.7448    91.567596    449.72179    -3643.815 
 9279000    172.59854   -4361.3394   -4065.5114   -4361.3394            0    3574.9929    18.064826    23.290677    21.876416     9204.328    2852.2805    4718.2751    3154.4232    469.04022    -140.3358    66.198547   -3585.6198 
 9280000    206.30883   -4374.4405   -4020.8342   -4374.4405            0    2756.1335     17.84122    23.512246    22.037867    9244.6018    5001.7507    2053.6325    1213.0174    197.08383    648.85389   -206.79271   -3649.2439 
 9281000    199.51479   -4358.2515     -4016.29   -4358.2515            0      2707.23    18.077179    23.236121    22.012574    9246.2391    1330.6305    2757.9128    4033.1467    667.68959    686.62114    116.98107   -3651.2284 
 9282000    192.58739   -4355.7079   -4025.6197   -4355.7079            0    999.89017    18.045854    23.400377    22.065833    9317.9553    -606.7009    1417.2948    2189.0766     46.60769    240.15581   -98.769412   -3889.7418 
 9283000    202.21639   -4380.3016   -4033.7096   -4380.3016            0    1494.7142    17.782189    23.734842    21.977746    9275.8714    1696.0132    21.927831    2766.2014    381.49238   -207.98224    143.86052   -3831.5061 
 9284000    184.89243    -4376.112   -4059.2127    -4376.112            0    2143.2066    18.128511    23.295985    21.948949    9269.5136    2008.0142    1826.7004    2594.9053   -888.64261    44.716078   -1111.2841   -3769.4804 
 9285000    180.17496   -4372.3423   -4063.5286   -4372.3423            0    3152.2246     18.08359    23.351204    21.885063    9241.4845    1214.1035    3170.8659    5071.7044    263.05885     256.2786   -11.228925   -3638.6794 
 9286000     194.6062    -4391.362   -4057.8136    -4391.362            0    1963.8336    17.678254    23.472863    22.223169    9221.7095    2656.6667    949.92315    2284.9111   -1069.1933    218.02845   -824.09171   -3793.6993 
 9287000    205.71991   -4386.8885   -4034.2916   -4386.8885            0    1856.4826    18.054597    23.459239    21.935747    9290.8218    956.69922    1380.4073    3232.3411    845.52021   -147.96761   -153.26172   -3782.7436 
 9288000    188.40178   -4361.2418   -4038.3276   -4361.2418            0    2997.4761     18.10016    23.235749    21.987182    9247.1659    1792.2717    3178.4374    4021.7193   -1156.1916   -733.98997    566.76238   -3634.0866 
 9289000    203.79126   -4395.2109   -4045.9197   -4395.2109            0    1966.2939     17.82393     23.63758    22.044183    9287.5358    2944.6072    869.31237    2084.9622   -193.75963    244.28412   -406.15181   -3779.5868 
 9290000    189.87482   -4368.1978   -4042.7588   -4368.1978            0    1206.8553    18.001996    23.489358     21.97019    9290.2124    128.18264    2458.7444    1033.6388   -284.81832    403.33548   -993.73638   -3879.2441 
 9291000    187.43823   -4361.0089   -4039.7462   -4361.0089            0    2299.9951    18.176327    23.029776    22.122675    9260.4796     2104.942    3984.2082    810.83508   -672.25757    171.19715    281.30411   -3729.1213 
 9292000    194.51963   -4379.6181   -4046.2181   -4379.6181            0    2475.4814    17.900378    23.433592    22.029262    9240.6178    2976.3212     1034.873    3415.2499   -19.652938   -628.73962     109.4638     -3712.61 
 9293000    194.08083   -4364.5971   -4031.9492   -4364.5971            0    2511.7701    18.072844    23.435243    21.811912      9238.25    3112.8103    1167.3599      3255.14    36.249684   -22.987764    108.13772   -3693.5374 
 9294000    190.88511   -4358.3585    -4031.188   -4358.3585            0    2274.8516    17.926319    23.290323    22.180559    9260.5999    1855.3822    3042.9408    1926.2318   -516.66831    284.74994   -914.92419   -3723.9548 
 9295000    188.86018   -4400.9299     -4077.23   -4400.9299            0    611.77759    18.108644    23.511235    21.904986    9326.1922    429.18668     364.8291     1041.317   -706.51383   -154.31922   -439.30482   -3994.0204 
 9296000    200.15888   -4368.5577   -4025.4923   -4368.5577            0     1664.848    18.045058    23.300176    22.153714    9314.5959    940.87328    2466.3633    1587.3075   -492.33599    314.89235    755.52267   -3799.3329 
 9297000    191.96595   -4387.0321    -4058.009   -4387.0321            0    770.97952    17.974668    23.536566    21.958007    9289.5969    1637.3411    448.46689    227.13053   -728.00124    48.518622    15.314545   -3953.5573 
 9298000    197.13795   -4368.4883   -4030.6006   -4368.4883            0    1630.9596    17.928805     23.47184    22.056773    9281.9762    1836.9662    1776.7567    1279.1558    430.01662    219.21476    785.52765   -3809.8207 
 9299000    202.87976    -4379.441   -4031.7121    -4379.441            0    2105.1304     18.22472    23.216863     21.97803    9299.3625    2242.4857    3093.6379    979.26757   -252.10256    524.77974    348.37126   -3746.2108 
 9300000    193.28217   -4377.5252   -4046.2462   -4377.5252            0    2910.5982    17.946741    23.358947    21.962705    9207.1386    3212.8824    3447.3419    2071.5701   -384.58484   -644.63296    226.72421   -3655.4207 
 9301000    202.80188   -4366.6746   -4019.0792   -4366.6746            0    2240.8147    17.813978     23.52082    21.975515    9207.7269    1603.6118    2285.6778    2833.1545   -9.2608265   -1203.5913    385.44656   -3718.1708 
 9302000    185.38139    -4359.665   -4041.9277    -4359.665            0    1519.3165    18.061816    23.273237     22.10945    9293.8605    1897.3505     2378.473    282.12582   -267.00193   -379.41108   -410.82878   -3835.9974 
 9303000    191.16669   -4380.9983   -4053.3451   -4380.9983            0    1110.9486    17.980178     23.53956    21.896553    9267.6166    877.68827     1335.751    1119.4065    454.54913   -344.97437   -1117.8156   -3903.1908 
 9304000    194.74169   -4353.3192   -4019.5386   -4353.3192            0    2212.9821    17.843978    23.188101     22.34832     9247.019    2355.3655    3631.3235     652.2572    1450.8053   -223.34813   -195.25908   -3721.0996 
 9305000    193.15463   -4371.7077   -4040.6472   -4371.7077            0     1990.518    18.134437    23.345733    21.817812    9236.8263    1659.5586    2288.2446    2023.7508   -647.24158    250.08773    -649.7161   -3772.5053 
 9306000    196.16268    -4346.772   -4010.5559    -4346.772            0    1259.8882    17.892885    23.390277    22.212512    9296.3704    3182.9443    1158.3446   -561.62433   -716.71818    31.661747   -136.74309   -3839.7427 
 9307000    198.69648   -4378.9512   -4038.3922   -4378.9512            0    2156.3161    17.961505    23.533301    21.860609    9240.3376    2609.8526    2303.8884    1555.2073    -74.45584    670.29372   -228.72537   -3747.8053 
 9308000    191.61444   -4366.9902   -4038.5696   -4366.9902            0    2843.3984    18.035349     23.26321    22.002312    9231.2923    4102.8744    1858.3184    2569.0025   -405.62352    -284.4448    1065.3654   -3655.7659 
 9309000    195.19459   -4371.2644   -4036.7075   -4371.2644            0    2258.1905    17.993908    23.408737     21.99609    9265.0756    3742.1854    2274.5285    757.85766    604.33515    651.10496   -331.59548   -3731.5771 
 9310000    190.64132   -4394.6719   -4067.9192   -4394.6719            0    1037.9402    18.182295    23.418467    21.854673    9305.7522   -382.91389    475.94015    3020.7945   -579.45747   -266.76451    53.890753   -3927.0553 
 9311000    188.40493   -4366.5671   -4043.6475   -4366.5671            0    1269.4159    18.021318    23.347504    22.073703    9287.5721    624.73711    2007.7067    1175.8038    197.29306   -34.523359   -47.093172   -3871.7055 
 9312000    196.37563   -4362.5764   -4025.9953   -4362.5764            0    1671.3951    18.121971    23.521978    21.809237    9296.5055    1315.8031    2532.3688    1166.0135   -170.42694   -1100.7592   -166.15848   -3799.3876 
 9313000    202.76187   -4356.9454   -4009.4185   -4356.9454            0    1605.8798     17.97282    23.214924     22.19789    9261.7958     853.6182    2435.9086    1528.1125   -121.27403    83.081684    43.246432   -3792.5062 
 9314000    189.66284   -4364.3712   -4039.2955   -4364.3712            0    3071.3244    17.961179     23.65935    21.718014    9229.0664    3372.7901    1503.0458    4338.1374    424.98857    183.94086    473.71779   -3625.9061 
 9315000    193.94389   -4393.7304   -4061.3172   -4393.7304            0    2891.6465    17.920518    23.260191    22.067559    9198.5236    2816.7704    3025.6736    2832.4956   -937.55357     588.9556   -289.63978   -3673.3998 
 9316000    208.98502   -4376.3379   -4018.1448   -4376.3379            0    2581.9422     18.16638    23.367206    21.752441     9233.858    2573.9187    3417.3255    1754.5824   -620.73052    203.90682   -71.274952    -3670.444 
 9317000     181.4208   -4380.9273   -4069.9782   -4380.9273            0    2114.7441    17.816457    23.442827    22.137978    9246.3275    3368.7986    2467.4326    508.00097   -197.80726   -24.770134   -71.413679   -3784.8088 
 9318000    193.74611   -4373.3266   -4041.2524   -4373.3266            0    1618.5149    18.208445    23.284676    21.839994    9259.6713     1106.167    2600.9011    1148.4766    44.607448   -416.13259    114.21866   -3822.6836 
 9319000     191.7934   -4401.9896   -4073.2622   -4401.9896            0    2698.2376    17.946245     23.29533    21.998436    9196.7476    2358.5344    2077.4528    3658.7254   -117.92239    37.860157    712.81557   -3711.3608 
 9320000    196.21928   -4375.9681    -4039.655   -4375.9681            0    1658.9373    17.967979    23.506609    21.944607    9268.6611    2126.5439    319.70608     2530.562    809.70279   -644.84484   -939.02621   -3815.4099 
 9321000    196.63554   -4377.2395   -4040.2129   -4377.2395            0    2051.6354    18.060086    23.085359    22.171978    9244.0206    1880.9711    2066.7165    2207.2185   -243.92633    -485.0758    -102.6655   -3763.6226 
 9322000    203.65137    -4345.908   -3996.8566    -4345.908            0    2444.6255    17.996354    23.537713    21.862174     9260.664    1192.6627    3442.6141    2698.5997    634.60259    -120.8564    333.22788   -3666.6921 
 9323000    187.33732   -4388.3648   -4067.2751   -4388.3648            0    2656.3293    17.917779    23.491162      21.9968    9258.6608    3762.2951    2428.3656    1778.3271    167.78251      189.994    857.91703   -3708.5961 
 9324000    186.15763   -4365.6646   -4046.5968   -4365.6646            0    2082.9258    18.151941    23.229618    22.050453    9297.8526    2655.7889    2660.7682    932.22015    169.88788   -451.21212    440.91861   -3764.1529 
 9325000     196.5914   -4379.6058   -4042.6548   -4379.6058            0    2013.3644    17.999143    23.471531    21.961047    9277.8274    1952.5469    1785.8369    2301.7094   -629.25285   -326.81452     621.3589   -3770.2313 
 9326000    197.31017   -4386.9938   -4048.8109   -4386.9938            0    1749.2855     17.94808    23.469334     22.09035    9305.1069    2124.7913    2661.4087    461.65651    421.45344   -484.17522    185.75558   -3811.4233 
 9327000    188.84062   -4377.7501   -4054.0837   -4377.7501            0    1730.2921    18.150287    23.226391    21.959034    9257.1748     1418.737    2226.3708    1545.7684   -534.13554   -58.088082    273.07178   -3820.4832 
 9328000    196.73372   -4343.4771   -4006.2823   -4343.4771            0    1068.3766    17.737832    23.681225     22.09873    9282.6507    1312.8775    1033.5512    858.70098   -361.97507   -164.66576   -28.515245   -3861.6476 
 9329000    195.75903   -4385.7812   -4050.2569   -4385.7812            0    1268.1324    18.009961    23.430562    21.952747    9263.6971    1445.2407    131.04237     2228.114   -484.11505    -420.9559   -94.089421   -3878.9303 
 9330000    201.64947   -4355.3075   -4009.6872   -4355.3075            0    3352.1868    18.129751    23.278978    21.842929    9218.6347    2934.2726     3425.006     3697.282   -165.92014   -611.00474    65.267401   -3559.0047 
 9331000    195.98237   -4375.7046   -4039.7976   -4375.7046            0    1925.4146    17.776402    23.489488    22.183373    9262.8578      3058.13    239.60119    2478.5125    1113.7157   -56.840449     776.7502   -3779.6947 
 9332000    186.42055   -4379.0934   -4059.5749   -4379.0934            0    2245.7351    18.069372    23.425282    21.872377     9258.143    203.04968    3692.7328    2841.4227   -1083.4309   -601.34144    307.61082   -3756.3546 
 9333000    182.20151   -4375.2494   -4062.9622   -4375.2494            0    976.03782    18.024435    23.407169     22.07616    9313.9539    1851.8531    1432.4906   -356.23028    1123.0365   -452.64683    652.52103   -3930.3827 
 9334000    205.96795   -4360.2506   -4007.2286   -4360.2506            0    1243.7254    17.957742    23.468948    22.092391    9310.8233    1633.2194    724.94977     1373.007    230.31633   -527.24411   -449.34185   -3838.3446 
 9335000    192.61126   -4377.2892   -4047.1601   -4377.2892            0    2132.5274      18.1923    23.226077    21.959964    9278.8702    1621.5228    2280.9181    2495.1412   -490.90796    680.92959    284.28464   -3758.5805 
 9336000    199.71683   -4389.4476   -4047.1398   -4389.4476            0    1889.7017    17.960621    23.429329    22.086787    9294.2371    3753.0393    1708.4761    207.58961   -448.22839    150.98197   -245.30323   -3790.9966 
 9337000    200.16751   -4400.1851   -4057.1048   -4400.1851            0    1715.0701    17.975594    23.595458    21.906889    9291.6399    3197.4805    2014.5826   -66.852866   -130.87708   -575.66706    296.29525   -3824.6973 
 9338000    200.67248   -4362.8031   -4018.8574   -4362.8031            0    2502.2468    17.976045    23.251208    22.180357    9270.6076    2000.1375     2941.081    2565.5218    -60.00144   -561.72667    81.032723   -3680.5479 
 9339000    186.98752   -4391.4405   -4070.9503   -4391.4405            0    2088.8467    18.115937    23.506303     21.78891    9278.5612    928.90427    1956.3063    3381.3294   -263.63876    65.609071    532.65665   -3788.2911 
 9340000    197.68279   -4376.6794   -4037.8578   -4376.6794            0    2575.9005    17.919464    23.466268    22.082655    9285.8214    2357.8819     2265.358    3104.4617   -45.482204   -120.83188     737.9548   -3689.0186 
 9341000    189.41465   -4386.1696   -4061.5193   -4386.1696            0    2563.6057    18.333495    23.180947    21.763519    9249.2296    2565.5065    2987.3067    2138.0039   -1017.3812    127.98179    -570.4125   -3715.7132 
 9342000    200.32129   -4372.6139     -4029.27   -4372.6139            0    1035.2002     17.98454    23.518641    22.063717    9332.3329    315.42143     498.9114    2291.2677    43.744644   -112.24994     264.2822   -3888.3767 
 9343000    189.24737   -4383.8939   -4059.5304   -4383.8939            0    1446.3687    18.039265    23.613609    21.783484    9279.1577    -347.3289    1710.2569    2976.1781    107.01807    121.35819    -179.2306   -3863.7977 
 9344000    196.03354   -4388.2684   -4052.2737   -4388.2684            0    1475.1862    18.046627    23.319208    22.132006    9313.8799    1669.0376    840.54731    1915.9737   -496.77952   -104.99197    -339.8208   -3851.8941 
 9345000    188.93815   -4381.1245    -4057.291   -4381.1245            0    913.70953      18.0745    23.570243    21.870226    9317.1614    289.18828    1113.5113    1338.4291   -305.29409    211.65074    714.95533    -3933.135 
 9346000    192.91259   -4356.3447   -4025.6991   -4356.3447            0    1455.5474    17.786946    23.344282    22.356275    9282.8504    2610.5161     2008.097   -251.97091   -478.28219    742.53896    581.31871   -3828.6459 
 9347000    194.21191   -4369.5438   -4036.6712   -4369.5438            0    2391.2489    17.999454    23.488729    21.904595    9260.9192     1001.006    2118.1477     4054.593   -382.32401    599.81235     10.73689   -3713.7067 
 9348000    196.39961   -4406.2249   -4069.6027   -4406.2249            0    1276.2977    18.122835    23.003231    22.266092    9282.3724    1793.6488    1759.3498    275.89456   -284.74086    244.67154   -495.73695   -3896.8253 
 9349000    195.79182   -4364.3991   -4028.8186   -4364.3991            0    2391.2767    18.019651    23.485108    21.804383    9227.4722    2937.2462    1380.0203    2856.5636   -52.618902   -282.32333    -434.6911   -3707.0168 
 9350000    189.15158   -4379.4281   -4055.2288   -4379.4281            0    2205.5223    17.750265    23.423368    22.202308    9231.0759    3045.8827     1245.121    2325.5631    892.54463   -94.774131    471.11208   -3758.3086 
 9351000    194.93799   -4401.1596   -4067.0426   -4401.1596            0    1711.9509    18.222403    23.276716     21.84606    9266.1747    1387.3155    621.34221    3127.1951    259.96136   -220.84394   -572.20203   -3835.6935 
 9352000    191.45699   -4353.9116   -4025.7609   -4353.9116            0    2220.5183    17.871036    23.396963    22.067584    9227.0738    2025.6244    1449.2078    3186.7225    926.85732    601.88032    635.34913   -3726.9515 
 9353000    198.41294    -4376.008    -4035.935    -4376.008            0    2697.8624    18.012141    23.423699    21.828543    9209.7017    1760.0681    3667.1256    2666.3934    512.91405    19.817713   -253.69147   -3673.5742 
 9354000    192.90957   -4371.1229   -4040.4825   -4371.1229            0    1400.2896    17.936895    23.358356    22.116127    9266.1351    475.11694    2396.4073    1329.3444    75.661908   -122.06635    601.30259   -3851.2515 
 9355000    205.94326   -4373.7498   -4020.7701   -4373.7498            0    2907.8603    17.975144    23.301812    21.938458    9188.9985    3044.4155    3119.8797    2559.2858   -92.537553   -210.39718     1002.744   -3631.0816 
 9356000     185.1845   -4378.0396   -4060.6397   -4378.0396            0    2336.6671    17.763634    23.569169    22.070004    9240.1386    3321.0332    2034.5241    1654.4442   -166.75578   -505.89048    191.33897   -3745.7552 
 9357000    191.86669   -4385.6255   -4056.7726   -4385.6255            0    1088.9771     18.19017    23.231179    21.931841    9267.9373    920.02566    1556.8644    790.04116    754.62568    220.06367    143.43683   -3909.5828 
 9358000    192.07318   -4371.8421   -4042.6352   -4371.8421            0     1992.475    17.948392    23.311356    22.120324    9255.1738     2097.462    2590.2401    1289.7228    629.71651    340.94126   -299.45533   -3773.6965 
 9359000    194.52016    -4382.391   -4048.9901    -4382.391            0    2883.2512    17.994057    23.464355    21.886296    9240.8093    3354.9028    2200.6558    3094.1949   -543.71906   -425.12753   -70.168522   -3660.4209 
 9360000    197.73951   -4387.3971   -4048.4784   -4387.3971            0    1952.3327    18.089829    23.075182    22.167608    9253.3379    2718.7495    2088.4847    1049.7641    283.06187    452.88595    893.57589   -3785.0102 
 9361000    192.86696   -4364.0715   -4033.5041   -4364.0715            0    2812.8504    17.972985    23.635504    21.780465    9252.3535     1971.852    2281.5186    4185.1807     26.91372    25.247493   -778.94446   -3653.9491 
 9362000    196.37988   -4377.7534    -4041.165   -4377.7534            0    1547.8947    17.868634    23.332249    22.242603    9273.2839    2052.9996    2714.5559   -123.87141    770.32595     558.9523   -20.316088   -3831.8257 
 9363000    188.03047   -4370.6244   -4048.3466   -4370.6244            0    1165.9027    18.182535    23.385497    21.848439    9290.1231    907.07161    1354.2823    1236.3541   -11.585657   -286.50419   -33.184566    -3890.382 
 9364000    206.45993   -4365.4978   -4011.6325   -4365.4978            0    2258.4869    17.833989    23.515643    22.058026    9250.6445    2442.7613    1845.5976    2487.1017    302.25819    464.17283    246.54652   -3706.9375 
 9365000     202.8572    -4372.722   -4025.0317    -4372.722            0     1600.749    18.183257    23.292507    21.840009    9249.9789    814.58992    990.51634    2997.1408   -288.79037    -131.1026   -347.40764   -3809.0884 
 9366000    192.32248   -4379.8711    -4050.237   -4379.8711            0    2599.9402    17.978406     23.26704    21.967326    9189.0269    2068.0252    3237.6756    2494.1198    1.9200091   -179.08881   -2.0954154   -3701.8124 
 9367000    185.77227   -4384.9668   -4066.5595   -4384.9668            0    1533.6545    17.876238    23.582425    22.010889    9279.0216    2429.9137    1066.7133    1104.3365   -98.081603   -190.79483     88.47602   -3859.0176 
 9368000    203.12816   -4407.5362   -4059.3814   -4407.5362            0     2119.894     18.19772    23.177186    21.906814    9239.6797     1635.542    2841.3041    1882.8359    123.63731   -107.50055   -28.170223   -3773.7231 
 9369000    197.24399   -4371.5222   -4033.4527   -4371.5222            0    2409.5275    17.943827    23.393826    21.955896     9216.531    1958.3804    2062.9107    3207.2913   -477.81497   -631.91702    355.88185   -3709.5793 
 9370000    195.20715    -4386.132   -4051.5537    -4386.132            0    1704.6762    17.940873    23.460354    21.947394    9237.6411    815.13061    1970.4185    2328.4794     545.9793    710.90108   -114.52638   -3821.8971 
 9371000    198.89719   -4392.1098   -4051.2068   -4392.1098            0    1577.2464    18.075207    23.237364    22.028797    9252.5392    1629.3956    2006.9263    1095.4175   -398.97577    -6.900982   -251.07099   -3838.3751 
 9372000    211.17249   -4378.0739   -4016.1315   -4378.0739            0    2058.6214    17.821721    23.441226    22.067512    9218.9897    3470.6226    1943.4912    761.75039   -935.10225   -286.34266    252.92897   -3739.3509 
 9373000    190.19484   -4403.1267   -4077.1393   -4403.1267            0    827.14232    18.124392    23.458124    21.964345    9338.4542   -749.57979    2280.5848    950.42195    15.429368   -504.31367    374.54269   -3964.4893 
 9374000    200.99253   -4368.6664   -4024.1721   -4368.6664            0    2349.8645    17.934405    23.435485    22.043318    9264.8389    2631.2626    3103.1017    1315.2292   -400.27626   -122.80505    215.34723   -3706.6627 
 9375000    205.16543      -4366.9   -4015.2535      -4366.9            0    1525.2879     17.89898    23.594127    22.053371    9313.3767    1184.8275    1234.3264    2156.7099   -786.36678   -157.18188   -242.73446   -3808.0796 
 9376000    203.59346   -4388.4132    -4039.461   -4388.4132            0    988.88496    18.059204    23.325253    22.039966    9284.0163    746.10721    458.96014    1761.5875     392.2074    52.751097    886.68848   -3905.5681 
 9377000    195.29226   -4369.0804   -4034.3561   -4369.0804            0    2313.1988    17.897073    23.116045    22.231114    9197.2238    2792.1167    2858.1583    1289.3213    -595.9149     507.8754    -407.5171    -3724.082 
 9378000    198.90846   -4380.0049   -4039.0826   -4380.0049            0    2249.9081    17.984605    23.489989    21.931142    9264.9904    2898.0638    1577.7577    2273.9027    632.72509    711.14018    616.98772   -3735.0742 
 9379000    200.71665   -4361.2407   -4017.2193   -4361.2407            0    2596.5281    17.978681    23.407821    21.990768    9254.6333    2805.9155    1579.9729     3403.696   -105.57762    295.60921    870.92198   -3666.7676 
 9380000    183.80201   -4376.4703   -4061.4399   -4376.4703            0    2138.1622    18.062687    23.372002    21.954282    9268.2451    2992.4751    772.38844     2649.623   -313.30971   -478.54541   -299.00898   -3772.4292 
 9381000    196.23455   -4399.8442   -4063.5049   -4399.8442            0    2370.2667    17.883691    23.308663    22.070185    9199.8446     2291.557    2497.5252    2321.7181   -1071.3423   -486.20506   -102.35885   -3745.4855 
 9382000     197.6735   -4356.0131   -4017.2075   -4356.0131            0    2750.1012    17.965296    23.539509    21.742166    9194.6369    4444.9415    1209.4941    2595.8682   -4.9945643     469.7321   -952.15046   -3648.4345 
 9383000    189.55477   -4369.8218   -4044.9314   -4369.8218            0     2785.074    17.839515    23.327967    22.117248    9204.3052    4395.9794    3493.4359    465.80658   -121.14802    336.06492   -335.32655    -3671.076 
 9384000    183.52609   -4376.6337   -4062.0763   -4376.6337            0    2166.8455    18.151143    23.358969    21.844746    9261.9967    1734.9899    2026.3346     2739.212   -113.29977   -316.00511    418.63208   -3769.3859 
 9385000    184.40216   -4392.6068   -4076.5478   -4392.6068            0    1063.0683    17.900713    23.350275    22.241451    9296.6279    1332.3598    1846.6997    10.145335    76.465146   -52.330595      104.669   -3932.4151 
 9386000    190.57934   -4367.4229   -4040.7765   -4367.4229            0    2441.4411     17.99846     23.42259    21.925447    9243.1232    2131.1102    2492.1863    2701.0268   -607.00168   -249.81938    267.06775   -3711.6666 
 9387000    195.96938   -4387.2777   -4051.3929   -4387.2777            0    2567.3393    17.864154    23.330451     22.02072    9177.7687    2704.6866    3568.4838    1428.8474   -595.45227    -78.96412    66.629008   -3707.7588 
 9388000    197.73455   -4381.3907   -4042.4805   -4381.3907            0    2094.8589    18.222912    23.213267    21.900446      9264.18    1890.1802    1781.4818    2612.9147    349.71749   -342.91184   -697.28564   -3759.4471 
 9389000    182.26581   -4390.8157   -4078.4183   -4390.8157            0    1803.1124    17.814926    23.491695    22.036818    9222.4704     1313.335    1548.5836    2547.4185    114.88839   -277.17683    74.015602   -3835.8992 
 9390000    190.02709   -4368.5315   -4042.8315   -4368.5315            0    2470.7566    17.948496    23.383922    21.967378    9219.8455    862.76369     2830.173    3719.3331   -163.72315    79.484232   -443.22483   -3710.6087 
 9391000    190.60044   -4392.6604   -4065.9777   -4392.6604            0    1987.1202    18.190053    23.176345    21.964154    9259.6248    862.47835    2692.7995    2406.0829   -501.29154   -135.34424   -64.143908   -3797.6328 
 9392000    193.72341   -4390.1267   -4058.0914   -4390.1267            0    1252.8914    17.893968    23.552379    22.004018    9273.4952    2100.6194    1163.5245    494.53028    165.34507   -175.29517   -275.66613   -3888.6448 
 9393000    182.86619   -4366.2033   -4052.7769   -4366.2033            0    2006.8327    17.966058    23.454754     21.99688    9269.2536    4160.7805    992.91706    866.80046   -547.38455    251.48884    316.55599   -3781.4881 
 9394000    185.91806   -4367.5933   -4048.9361   -4367.5933            0    1747.4465    18.212254     23.08511    22.095394    9289.6084    772.47463    2568.2734    1901.5915    853.55861   -422.97511    185.87324   -3812.1931 
 9395000    201.51598    -4371.092   -4025.7005    -4371.092            0    3204.4543    17.836483     23.50645    21.916653    9189.0477    4223.4133    3179.8382    2210.1113    606.60284    201.39911    601.53143   -3596.2625 
 9396000    185.58886   -4372.7918   -4054.6989   -4372.7918            0    2323.3422    17.945373    23.308293    22.110043    9248.1006    2416.1727    2791.4048    1762.4492   -1342.1683    213.54418   -847.75235   -3741.3403 
 9397000    195.16228   -4400.1202   -4065.6187   -4400.1202            0    2234.3138    18.066915    23.485408    21.736171    9222.8502    2170.2432      1181.26     3351.438   -560.32388    219.46126    78.484851   -3765.0906 
 9398000    185.93422   -4386.1979    -4067.513   -4386.1979            0    2806.1532     17.89656    23.317945    22.039691    9197.4055    2760.7133    3095.4418    2562.3044    866.70303   -144.11184   -345.03516   -3691.1104 
 9399000    204.91263   -4365.6769   -4014.4636   -4365.6769            0    3552.7074    17.982393    23.564336    21.679154    9186.3927    2836.7352    3899.8402    3921.5467   -706.51075    236.95455   -577.23128   -3538.4928 
 9400000     193.3155   -4376.7872    -4045.451   -4376.7872            0    1826.7011    17.883009    23.404303    22.058869    9232.5047    1411.2422    2040.8257    2028.0354   -322.59847    7.2179537    119.38829   -3799.4919 
 9401000    199.48755   -4371.2259   -4029.3111   -4371.2259            0    2302.7775    18.114055    23.284697    21.967223    9265.3419    1947.9978    2084.0402    2876.2946    1192.3377   -112.38948    422.69674   -3718.1471 
 9402000    184.09179   -4383.8889   -4068.3619   -4383.8889            0    341.05607    17.978139    23.335824    22.221738    9322.7896    91.867263    66.332627    864.96832    255.23122   -569.33911    277.85622   -4021.9907 
 9403000    192.39773   -4364.3873   -4034.6242   -4364.3873            0     2046.346    17.883304    23.704204    21.799671    9241.0872     2100.068    704.74523    3334.2249    196.99418   -564.92014   -58.470634   -3758.8345 
 9404000     189.7113   -4385.8262   -4060.6675   -4385.8262            0     1900.936    18.007311    23.219782      22.1155     9247.062    2207.6424    1882.3909    1612.7748    604.39893   -500.49123     226.1876   -3804.3093 
 9405000    195.53222   -4384.0882   -4048.9526   -4384.0882            0    2225.1163    17.976984    23.408246     21.98315    9250.7222    2098.6819    2152.2842     2424.383    493.14846    24.545063    138.60025   -3748.7571 
 9406000    185.22256   -4398.3553   -4080.8901   -4398.3553            0    3366.9805    17.791912    23.515453    21.956129     9186.112    3652.6474    2626.2131    3822.0808   -486.24974    190.15395   -381.76985   -3629.8157 
 9407000     187.7038   -4376.2365   -4054.5186   -4376.2365            0    2489.8263    18.045223    23.260197    21.966577    9220.1511    2227.3478    2846.6869    2395.4441    932.75196    156.35241    230.53335   -3719.7205 
 9408000    200.57251   -4397.0655    -4053.291   -4397.0655            0    1566.6564    18.009857    23.550351    21.852159    9268.3411    627.50199    1292.4169    2780.0503    153.38239   -411.97525   -710.91062   -3841.5273 
 9409000    196.46063   -4381.6184   -4044.8916   -4381.6184            0    1596.6753    17.962189    23.266259    22.227706     9289.246    1781.5213    1471.2368    1537.2677   -607.18594    458.81016    350.90941   -3828.5834 
 9410000     195.9591   -4360.2501   -4024.3829   -4360.2501            0    1800.6945    18.123097    23.412997     21.88598     9286.572    2551.8448    678.07051    2172.1682    87.857378   -63.350148    505.68908   -3780.5056 
 9411000    186.78235   -4388.4457   -4068.3072   -4388.4457            0    1490.9812    17.895237    23.406399    22.100974    9257.2819    1238.7404     1889.405    1344.7983       31.456   -970.24873   -1015.5947   -3867.0128 
 9412000    197.11418   -4390.1974   -4052.3504   -4390.1974            0     1821.722    18.117785    23.339808    21.860158    9243.9092    965.34501    2705.0637    1794.7573   -129.74654   -33.846175    470.16313   -3806.7587 
 9413000    201.74774   -4388.6727   -4042.8839   -4388.6727            0    2052.6585    17.915651    23.365594    22.071592    9239.3852     3310.491    1520.7175    1326.7669    345.80498    55.466174   -104.42933   -3766.2945 
 9414000      199.553   -4398.1242   -4056.0972   -4398.1242            0    1847.4566    17.984721    23.419254    22.033621    9280.3129    2972.7293    1229.1787    1340.4618    801.78362   -716.12571   -206.73388   -3806.0553 
 9415000    190.39677   -4373.9902   -4047.6566   -4373.9902            0    1188.8969     18.03131    23.421298    22.028282    9302.9112     1283.267     1426.351    857.07256   -135.05036   -713.28468    388.71632   -3886.3549 
 9416000    191.43773     -4362.76   -4034.6423     -4362.76            0      1127.17    18.044855    23.376022    22.039292    9296.5465    2631.9342    191.43201    558.14392    1099.2859   -889.03001    93.095275     -3881.82 
 9417000    192.54358    -4394.569   -4064.5559    -4394.569            0    1659.7498    17.953746     23.56787    21.863539    9251.1531    2012.4106     1050.758    1916.0807   -185.26491   -152.11903   -327.41366   -3840.6249 
 9418000    201.19985   -4360.1726   -4015.3229   -4360.1726            0    1731.7432    17.995989    23.498292     22.02597    9314.2324    2214.3841    123.96064    2856.8849    93.887648   -1060.2563    235.26297   -3780.0855 
 9419000     195.6281    -4351.928   -4016.6281    -4351.928            0    597.03643    18.145282    23.211781    22.035961    9281.2011    752.83444    1675.4894   -637.21455    -782.1157    -284.5543   -180.86424   -3935.8152 
 9420000    192.92927   -4376.9171    -4046.243   -4376.9171            0    2489.7209     17.89447    23.451801    22.052171      9254.36     4103.188    494.47422    2871.5006   -674.12804   -946.22295   -16.719545   -3710.2169 
 9421000     187.6238   -4363.4443   -4041.8636   -4363.4443            0    1901.7452    18.039325    23.415707    21.927784    9262.3735    2036.1399    2545.7965    1123.2991   -280.18775    337.78033     556.7006   -3784.9716 
 9422000    188.14664   -4374.7892   -4052.3123   -4374.7892            0    1990.9192    18.131868    23.052738    22.133667    9251.6339    653.17321    3535.9938    1783.5907    48.670897   -419.66791    -173.1581   -3783.6864 
 9423000    189.80824   -4379.0718   -4053.7469   -4379.0718            0    3097.1274    17.875401    23.553253     21.89424    9217.9971    3115.2817     2160.169    4015.9314   -399.17061   -239.86936   -782.48907   -3637.3845 
 9424000    188.25585   -4380.0057   -4057.3416   -4380.0057            0    2694.0016    18.087509     23.15094    22.025364    9222.9633     2906.055    3648.0887    1527.8611    -399.5933   -649.81151   -31.284903   -3694.9783 
 9425000    191.37544   -4362.9554   -4034.9444   -4362.9554            0    1056.0037    18.113024    23.366982    22.053009    9333.8634    956.08777    625.62443    1586.2989    158.84368    119.38281   -240.94356   -3891.1961 
 9426000    183.70433   -4364.8097   -4049.9468   -4364.8097            0    1637.5993     17.80171    23.622987      22.0878    9288.5729    2938.0525    1582.9731    391.77242    -1375.894    184.36845    256.74493   -3828.1105 
 9427000    198.82449   -4364.0683   -4023.2899   -4364.0683            0    2010.7157    18.078866    23.287331    21.961825    9246.1158    1455.3901    1127.0778    3449.6792    628.81916   -544.50534    370.05461   -3752.1548 
 9428000    206.10493   -4385.5272   -4032.2704   -4385.5272            0     2299.643    17.978033    23.539897    21.945515    9287.3648    1083.2415    2585.4615    3230.2261   -935.34332    294.16567    779.00791   -3720.7914 
 9429000     198.0279   -4381.1306   -4041.7176   -4381.1306            0    2684.9636    17.962312    23.157763    22.101738    9193.5929    3976.6676    2775.2731    1302.9502    12.878415    436.39796   -236.14247     -3681.72 
 9430000    191.11138   -4377.3775   -4049.8191   -4377.3775            0     1675.042    18.105243    23.383723     21.97788    9304.7309    283.73503    2707.0328     2034.358   -344.68759   -24.277857    336.87239    -3822.516 
 9431000    206.00516   -4388.8129   -4035.7271   -4388.8129            0    2136.7973    17.903716    23.435559    21.970618    9218.5106    2629.5864    1054.6887    2726.1169    -814.2894    131.83091    415.91435   -3748.4507 
 9432000    203.17815   -4367.0117   -4018.7713   -4367.0117            0     2307.456    18.159094    23.385321    21.785318    9251.2711    1631.3552    2033.8454    3257.1675   -649.60316   -30.655228   -190.19132   -3707.4486 
 9433000    182.58128   -4372.1738   -4059.2357   -4372.1738            0    1874.1176    17.936986    23.356931     22.16182    9284.7595    2238.5139    1765.5763    1618.2626    345.43211    445.50178    112.17629   -3805.4639 
 9434000    188.41217   -4385.5892   -4062.6572   -4385.5892            0    1687.6832    18.039295    23.485347    21.915722    9284.7956     1862.034    751.76007    2449.2555    662.69898    315.97004   -568.71943   -3834.1293 
 9435000    190.25477   -4350.3676   -4024.2775   -4350.3676            0    2889.5674    17.913408    23.231846    22.220464    9247.3022     3887.405    3065.9057    1715.3915   -531.35398   -620.50952   -133.27608   -3634.5834 
 9436000    192.53835    -4355.407   -4025.4029    -4355.407            0    2605.9747    18.073698    23.495441    21.840981    9274.7616    1636.3208    2246.0541    3935.5492     186.5161    182.50651   -75.093002   -3672.9112 
 9437000    184.79449   -4368.4891   -4051.7577   -4368.4891            0    1226.1933    17.896482    23.305349    22.290553    9297.0279    2718.4377    1367.0926   -406.95051   -638.53182   -91.534503   -373.95203   -3885.5011 
 9438000    202.29485   -4365.5675    -4018.841   -4365.5675            0    2877.2868    18.091885    23.520018    21.698114    9233.0132    3083.2633    1705.6708    3842.9262   -547.13977    -798.2104    351.00379   -3631.4028 
 9439000    188.27817   -4385.9568   -4063.2545   -4385.9568            0     1301.288    17.972643    23.314515    22.185266    9296.1469       1668.9    2099.8591    135.10491    253.20201    348.71353   -201.15439   -3886.8327 
 9440000    207.36544   -4357.7258   -4002.3086   -4357.7258            0    2862.0163    18.061163     23.47794    21.692546    9198.4835    3342.1551    2369.6793    2874.2144   -1009.5995   -377.90376     989.3878   -3618.3678 
 9441000    189.26372   -4356.9797   -4032.5882   -4356.9797            0    2146.8325    17.806918    23.419519    22.184478    9251.5804    2475.7874    1606.1135    2358.5967   -393.82665   0.48774224    265.55269   -3742.9272 
 9442000    199.56548   -4377.6356   -4035.5872   -4377.6356            0    1863.2143    18.152232    23.414343     21.84388    9284.1427    724.24886    2644.6744    2220.7196   -348.89826   -773.67189    171.53159   -3783.3086 
 9443000    191.73132   -4364.1248   -4035.5039   -4364.1248            0    2213.6748    17.984565    23.301659    21.982298    9212.1262    749.22946    3780.2455    2111.5495    28.346795     27.83174     601.8255    -3738.098 
 9444000    199.02401   -4361.5444   -4020.4241   -4361.5444            0    2126.0766    17.940359    23.627913    21.818871    9248.8721    2546.6968    1132.9209     2698.612   -604.76386   -377.48773     562.0238   -3733.6476 
 9445000    202.18473   -4393.8892   -4047.3515   -4393.8892            0    1549.6573    18.146403     23.07015    22.184264    9287.2255    1066.7256    1894.9403    1687.3059   -585.75292   -459.86939    71.543963   -3837.4587 
 9446000    194.51064    -4379.521   -4046.1364    -4379.521            0     1086.558    18.019916    23.431975    21.981722    9281.6108    1662.4238    677.28712    919.96301    168.13342    581.62307   -397.10044   -3899.0569 
 9447000    189.01581    -4358.105   -4034.1383    -4358.105            0    2775.7439    17.718609    23.450338    22.128246    9194.4492    3086.9919    2378.8315    2861.4084    419.81909     261.8741    183.09058   -3661.9343 
 9448000    200.89616    -4382.864   -4038.5349    -4382.864            0    1468.5364     18.17643    23.100124    22.081569    9271.5602    1303.8587    2470.8766    630.87383   -222.75535     269.9191   -470.59682    -3839.965 
 9449000    202.80924   -4369.8401    -4022.232   -4369.8401            0    3299.8455    17.913259    23.435986    21.935952    9209.0391     3365.194    4009.7578    2524.5847   -470.84367    423.30797    5.8951635   -3579.0483 
 9450000    198.25969   -4381.9645   -4042.1542   -4381.9645            0    1279.3808    17.991607    23.351318    21.988829     9238.117     2169.854    1062.2427    606.04564   -470.68473   -229.44441   -459.22102   -3869.7852 
 9451000    190.48179   -4368.1888   -4041.7095   -4368.1888            0    1947.9669    18.133713    23.327819    21.945178     9283.249    715.12683    2729.8307    2398.9432   -107.09527   -342.25093    -503.0063   -3777.9808 
 9452000    189.60758   -4355.0572   -4030.0763   -4355.0572            0    1741.9349    17.783998    23.598905    22.023089     9242.713     3063.379   -190.68549    2353.1114   -168.91347   -372.66475   -151.92665   -3795.2713 
 9453000     196.7736   -4394.3041   -4057.0409   -4394.3041            0    1257.4811    17.939947    23.474648    21.998316     9264.237    2858.0401    300.98718    613.41595    161.36827   -114.45178    803.83792   -3887.1434 
 9454000    190.22243    -4385.488   -4059.4533    -4385.488            0     2100.768    18.159058    23.268783    21.878498    9244.5222    1275.7725    3213.0362    1813.4953   -32.231239   -141.18008   -128.85605   -3776.2238 
 9455000    183.11512   -4380.6383   -4066.7852   -4380.6383            0    1838.1836    17.769871    23.476554    22.103499    9221.0349    1653.5058    2419.5132     1441.532    21.625402   -361.06213    326.56376   -3819.5875 
 9456000    192.07281   -4389.0735   -4059.8673   -4389.0735            0    1959.1053    18.047828    23.299349    21.943021    9227.0985    2045.0825    2746.8363    1085.3971    273.50493    758.95823    816.51407   -3796.2349 
 9457000    193.21899   -4377.8554   -4046.6847   -4377.8554            0    2291.3131     18.05993    23.143708    22.030806    9208.2988    1300.1469    3166.5527    2407.2396    300.47421   -24.094684    559.14124    -3738.976 
 9458000    202.40305   -4378.7455   -4031.8336   -4378.7455            0     1493.337    17.971154    23.629844    21.838196    9273.7118    3335.0474    301.15602    843.80746   -260.08999    286.26883   -180.05827   -3829.8634 
 9459000    189.99429   -4369.6193   -4043.9756   -4369.6193            0    3007.3002    17.840582    23.375094    22.163673    9242.8118    2453.8334    3183.9306    3384.1366    222.67241     262.9537    109.44233   -3638.6007 
 9460000    202.93179   -4369.5185   -4021.7004   -4369.5185            0     1980.646    18.155855    23.444402    21.773691    9268.0405     951.6737    1989.8125    3000.4519    77.586425   -9.8625425    625.30867   -3753.9867 
 9461000    198.79237   -4396.1136   -4055.3903   -4396.1136            0    1705.2615     17.92529    23.205706    22.274669    9265.5721    2217.6076    2674.0323    224.14451    219.37118   -348.69064   -493.31238   -3824.9603 
 9462000    201.44037   -4384.5513   -4039.2894   -4384.5513            0    2494.6443    17.995286    23.536612    21.822193     9242.748    2253.0708    1918.9595    3311.9027    320.11287    806.16729    87.627442   -3703.0213 
 9463000    200.51312   -4370.6249   -4026.9523   -4370.6249            0    1905.4922    17.952963    23.197007    22.294954    9284.8457    2594.0245    3487.3935   -364.94132    362.02033    205.25025    686.68285   -3768.9296 
 9464000     194.3123   -4383.8436    -4050.799   -4383.8436            0    1438.9244    18.055679     23.45532    21.909645    9278.7727    1109.2792    2083.9809     1123.513   -479.33153    756.64151   -369.69958   -3856.0818 
 9465000    179.10005   -4385.7973   -4078.8259   -4385.7973            0    3417.6632    17.766309    23.283516    22.209228     9187.117    2947.8037    3626.9054    3678.2805   -3.0837526    38.800123   -531.62717   -3620.9114 
 9466000    190.23916   -4382.1147   -4056.0512   -4382.1147            0    1198.4922    18.108345    23.568403    21.798772    9303.3841     290.1814    1257.5982    2047.6969   -18.416653   -677.13083    262.53299   -3893.4395 
 9467000    184.74838   -4380.0979   -4063.4455   -4380.0979            0    2032.5294    17.894985    23.373939    22.126607    9255.0348    3966.2908    1474.6507    656.64655    15.884682   -297.69523     26.97282   -3789.1045 
 9468000    196.92598   -4375.5028   -4037.9784   -4375.5028            0    1212.1442    18.087817     23.53961    21.975572    9356.7628    961.47846    1024.6492    1650.3048    69.028586   -380.98039   -517.86828   -3872.5706 
 9469000    192.36353   -4359.1941   -4029.4896   -4359.1941            0    3294.1686    17.995501    23.209736    22.159763    9255.4869    4161.8676    2537.0033    3183.6348   -373.07579    17.095259   -88.783399   -3584.8368 
 9470000     182.7007   -4377.6585   -4064.5158   -4377.6585            0    1125.3507    17.958272    23.674284     21.83181    9281.7775    1503.9476     612.2486     1259.856    40.937505   -92.771176   -580.02706   -3912.1825 
 9471000    191.64214    -4376.485   -4048.0169    -4376.485            0    2036.6521    17.927332    23.403411    22.077658    9262.9177    1548.8006    2734.7214    1826.4343    108.39901   -618.61843    632.84653   -3772.8852 
 9472000    187.28081   -4384.3998   -4063.4069   -4384.3998            0    2400.9356    18.138445    23.182805    21.998911    9250.5432    1537.6547    4168.2477    1496.9045    -247.7436    1093.1376    225.00819   -3739.4975 
 9473000    193.11977   -4387.0854   -4056.0847   -4387.0854            0    2412.2986    17.947613    23.469307     21.94761    9244.7292    2176.1495    2316.0855    2744.6607    303.26952    58.064432    84.073642   -3730.8468 
 9474000    192.31009   -4373.8274   -4044.2144   -4373.8274            0    2531.1093    17.883919    23.360449    22.086679     9227.293    3498.8504    3171.2376    923.23995    229.98495    224.51068    522.36633   -3703.6015 
 9475000    183.41262   -4368.1517   -4053.7887   -4368.1517            0    1434.0602    18.217015    23.205361    21.928885    9270.0503    1143.7704    2701.3901    457.02002    653.84621    531.04271    917.49376   -3859.9121 
 9476000    198.28204    -4379.371   -4039.5223    -4379.371            0    2530.8072    17.987962    23.338994     21.97035    9223.6132    2473.3416    1966.5975    3152.4825    45.323821    187.68609     256.8861   -3699.0859 
 9477000    213.94708   -4366.3759   -3999.6779   -4366.3759            0    2590.7114    17.952851    23.534476     21.90568    9255.3895    3782.8162    828.70329    3160.6149   -455.16934   -433.10993    537.94492   -3649.9828 
 9478000    188.42009   -4347.7547   -4024.8091   -4347.7547            0    2716.1156    18.140097    23.114732     22.08228    9259.1769    1438.9929    4565.4964    2143.8576   -898.61495   -39.686263     362.5559   -3658.0368 
 9479000    199.24056   -4374.9049   -4033.4134   -4374.9049            0    1713.2383    17.992101    23.542812    21.952836    9298.8845    2497.6209    1224.0665    1418.0275    -1446.331    436.51789    489.28102   -3801.0732 
 9480000    198.32178   -4353.8652   -4013.9485   -4353.8652            0    1927.9441    17.864927    23.397744     22.17617    9269.6163    2383.8674    1040.1961    2359.7689    970.14393    342.54961    98.341788   -3753.3138 
 9481000    199.48643   -4366.9641   -4025.0511   -4366.9641            0    2213.8488    18.150632     23.22585    21.857352    9214.2699    2043.3439    1745.1094     2853.093   -248.15015   -425.61378   -20.888211   -3727.5527 
 9482000    188.68587   -4360.3985   -4036.9974   -4360.3985            0    1627.6077    17.822674    23.722154    21.981083    9293.4309    3790.8845    142.73474    949.20395   -579.97044    505.44573   -108.82332   -3816.3993 
 9483000    189.64165   -4380.2139   -4055.1746   -4380.2139            0    1808.7154    18.041807    23.329504    21.944915    9236.7557    1231.2975    2660.9153    1533.9335   -147.27872    293.57225   -555.28013    -3811.525 
 9484000    202.24651   -4369.5961   -4022.9525   -4369.5961            0    3101.6542    18.097715    23.210478    21.979704    9232.7201    2506.9824    4314.1515    2483.8287    702.81074   -35.147909   -509.78645   -3605.3156 
 9485000    191.39588   -4383.8451   -4055.7991   -4383.8451            0    1510.3585    17.710176    23.722475    21.995228    9240.8376    2824.9082   -425.95087    2132.1182    35.445299    257.35007   -268.65551   -3852.2509 
 9486000    195.34363   -4386.5655   -4051.7532   -4386.5655            0    2786.3626    17.942795    23.424033    21.958028    9228.7971    2759.8748    2594.9308    3004.2822   -188.27142    79.809685    651.38454   -3676.7296 
 9487000    190.72349   -4370.7161   -4043.8225   -4370.7161            0    2591.3061    18.009424    23.136002    22.092236    9205.0855    2144.3151    3008.7115    2620.8917   -74.155715   -354.08938   -164.30529   -3695.9481 
 9488000      199.638   -4366.4307    -4024.258   -4366.4307            0    3382.8012    17.936302    23.529609    21.769772    9187.5879    1634.1134    2768.0904    5746.1998   -344.38518    835.13021    402.95764   -3570.9913 
 9489000    195.24333   -4373.1516   -4038.5112   -4373.1516            0    696.04362    17.916897    23.459162    22.137207     9304.609     1602.955    159.79964    325.37618    224.51419   -194.96631    200.81981   -3944.0593 
 9490000    193.24978   -4371.2989   -4040.0754   -4371.2989            0    2891.2193    18.117767    23.460321    21.614292    9187.1249    2102.3083    2254.5591    4316.7907    775.52971     350.5555    88.448053    -3652.696 
 9491000    187.99963   -4380.8062   -4058.5813   -4380.8062            0    1393.5546    18.060781    23.103636    22.224523    9273.6204    1009.2384    1251.9325    1919.4928    17.712924    464.47404   -569.72749   -3870.1082 
 9492000    204.30748   -4385.4441    -4035.268   -4385.4441            0    3500.3442    17.988485    23.445139    21.784768    9187.5635    2026.3575     3192.603    5282.0723   -799.14916    159.73406   -721.71565   -3566.2527 
 9493000    201.92938   -4368.1433   -4022.0433   -4368.1433            0    2549.4546    17.878166    23.435667    22.006428    9220.4018    2485.7879    2403.6293    2758.9465   -322.96726    635.13709   -510.41971   -3679.2179 
 9494000    199.78604   -4377.9764     -4035.55   -4377.9764            0    1592.0299    18.217417    23.093744    21.978374    9246.4856    815.88137    1864.1215    2096.0869    126.65057    551.29131    248.95034   -3820.8639 
 9495000    202.27728    -4364.248   -4017.5517    -4364.248            0     2390.639    17.960955    23.406189    21.961087    9232.3864    1567.5781    751.32265    4853.0164   -484.27945   -440.50271    278.80504   -3695.6644 
 9496000    192.61285   -4376.6654   -4046.5336   -4376.6654            0    1611.9828    17.863293    23.541733    21.990169     9247.589    1656.2791    941.08755    2238.5818   -44.430131   -180.29423   -552.57467    -3829.131 
 9497000    191.72505   -4377.0936   -4048.4834   -4377.0936            0    1907.6013    18.021681     23.39837     22.04402    9295.4774    2068.7371    2051.4557    1602.6113    895.28466   -348.32068    42.954545   -3789.8794 
 9498000    193.57626   -4349.7407   -4017.9576   -4349.7407            0    2283.0937    18.085007    23.190767    22.127022    9280.1876    2623.8091    2120.8012    2104.6708   -350.74187    914.79121    627.51789   -3708.9591 
 9499000    180.38162   -4366.7976   -4057.6297   -4366.7976            0    2784.4757    17.994413    23.332548    21.894424    9192.4944    3188.1018    3057.5471    2107.7782   -2.7606783   -54.712068   -213.34307   -3684.3342 
 9500000    199.81443   -4355.1555   -4012.6804   -4355.1555            0    2521.1876    17.687158    23.344295    22.390593    9244.9467    4412.9881    2679.8092    470.76561   -622.87963   -241.59182   -601.45415   -3672.7536 
Loop time of 409.082 on 64 procs for 250000 steps with 864 atoms

Performance: 105.602 ns/day, 0.227 hours/ns, 611.124 timesteps/s
193.8% CPU use with 32 MPI tasks x 2 OpenMP threads

MPI task timing breakdown:
Section |  min time  |  avg time  |  max time  |%varavg| %total
---------------------------------------------------------------
Pair    | 17.538     | 25.083     | 35.084     | 110.0 |  6.13
Bond    | 0.83029    | 1.0225     | 1.2086     |  10.1 |  0.25
Kspace  | 204.2      | 217.44     | 227.51     |  40.3 | 53.15
Neigh   | 1.2347     | 1.3107     | 1.4094     |   4.3 |  0.32
Comm    | 64.465     | 67.804     | 71.415     |  21.5 | 16.57
Output  | 0.67851    | 0.67888    | 0.68071    |   0.0 |  0.17
Modify  | 71.917     | 75.398     | 78.656     |  18.9 | 18.43
Other   |            | 20.34      |            |       |  4.97

Nlocal:        27.0000 ave          40 max          17 min
Histogram: 2 6 7 2 5 1 1 2 3 3
Nghost:        2134.66 ave        2240 max        2042 min
Histogram: 8 4 4 0 0 0 0 7 5 4
Neighs:        6566.38 ave        9794 max        4255 min
Histogram: 4 7 3 3 5 1 1 3 2 3

Total # of neighbors = 210124
Ave neighs/atom = 243.19907
Ave special neighs/atom = 2.0000000
Neighbor list builds = 4124
Dangerous builds = 0

unfix		3
unfix		2
unfix		1

write_data	data.final.${pid} nocoeff
write_data	data.final.1 nocoeff
System init for write_data ...
PPPM initialization ...
  extracting TIP4P info from pair style
  using 12-bit tables for long-range coulomb (../kspace.cpp:340)
  G vector (1/distance) = 0.37418148
  grid = 24 27 27
  stencil order = 5
  estimated absolute RMS force accuracy = 0.0027646822
  estimated relative force accuracy = 8.3257584e-06
  using double precision FFTW3
  3d grid and FFT values/proc = 4725 672
Last active /omp style is kspace_style pppm/tip4p/omp

write_restart   restart.lmp.${pid}
write_restart   restart.lmp.1
System init for write_restart ...
PPPM initialization ...
  extracting TIP4P info from pair style
  using 12-bit tables for long-range coulomb (../kspace.cpp:340)
  G vector (1/distance) = 0.37418148
  grid = 24 27 27
  stencil order = 5
  estimated absolute RMS force accuracy = 0.0027646822
  estimated relative force accuracy = 8.3257584e-06
  using double precision FFTW3
  3d grid and FFT values/proc = 4725 672
Last active /omp style is kspace_style pppm/tip4p/omp
Total wall time: 0:06:49
