LAMMPS (30 Jul 2021)
Processor partition = 1
  using 2 OpenMP thread(s) per MPI task
using multi-threaded neighbor list subroutines
variable        pid world 0 1
variable        phase world IceIh IceIII

shell cd ${phase}
shell cd IceIII
include Restart.lmp
echo both
log log.lammps
#include		in.partitions
include		in.temp
variable        temperature equal 207.72
variable	tempDamp equal 100.0
include		in.pressure
variable        pressure equal 1658.6
variable        pressureDamp equal 1000.0 # This is 1 ps
include		in.seed
variable        seed equal 745823

units		real
atom_style	full

read_restart	restart.lmp.${pid}
read_restart	restart.lmp.1
Reading restart file ...
  restart file = 30 Jul 2021, LAMMPS = 30 Jul 2021
  restoring atom style full from restart
  orthogonal box = (0.0021258310 0.0041079740 -0.16593831) to (19.997875 19.995893 20.865936)
  4 by 2 by 4 MPI processor grid
  restoring pair style lj/cut/tip4p/long/omp from restart
  restoring bond style harmonic/omp from restart
  restoring angle style harmonic/omp from restart
  972 atoms
  648 bonds
  324 angles
Finding 1-2 1-3 1-4 neighbors ...
  special bond factors lj:    0        0        0       
  special bond factors coul:  0        0        0       
     2 = max # of 1-2 neighbors
     1 = max # of 1-3 neighbors
     1 = max # of 1-4 neighbors
     2 = max # of special neighbors
  special bonds CPU = 0.002 seconds
  read_restart CPU = 0.007 seconds
include 	in.setup
variable	out_freq equal 1000
variable	out_freq2 equal 10000
variable	out_freq3 equal 1000

timestep	2.0

neigh_modify    delay 7 every 1

include		in.tip4p
# This is TIP4P/Ice

# create groups ###
group ox type 2
324 atoms in group ox
group hy type 1
648 atoms in group hy

# set charges - beside manually ###
set group ox charge -1.1794
Setting atom values ...
  324 settings made for charge
set group hy charge 0.5897
Setting atom values ...
  648 settings made for charge

# ### TIP3P Potential Parameters ###
pair_style lj/cut/tip4p/long/omp 2 1 1 1 0.1577 8.5
pair_coeff 1 1*2 0.000 0.000
pair_coeff 2 2 0.21084 3.1668
bond_style  harmonic
bond_coeff  1 450 0.9572
angle_style harmonic
angle_coeff 1 55 104.52
kspace_style pppm/tip4p/omp 1.0e-5
pair_modify tail yes

thermo          ${out_freq}
thermo          1000
thermo_style    custom step temp pe etotal epair emol press lx ly lz vol pxx pyy pzz pxy pxz pyz enthalpy

restart 	${out_freq3} restart.lmp.${pid} restart2.lmp.${pid}
restart 	1000 restart.lmp.${pid} restart2.lmp.${pid}
restart 	1000 restart.lmp.1 restart2.lmp.${pid}
restart 	1000 restart.lmp.1 restart2.lmp.1


include         in.dump
dump            myDump all atom ${out_freq2} dump.water.${pid}
dump            myDump all atom 10000 dump.water.${pid}
dump            myDump all atom 10000 dump.water.1
dump            myDump2 all dcd ${out_freq2} dump.dcd
dump            myDump2 all dcd 10000 dump.dcd
dump_modify     myDump append yes
dump_modify     myDump2 append yes


variable natoms 	equal  "count(all)"                        # NUMBER ATOMS
variable H      	equal  "enthalpy/v_natoms"                 # ENTHALPY-per-atom
variable Vol      	equal  "vol/v_natoms"                 # volume-per-atom
fix AVG all 		ave/time ${out_freq} 1 ${out_freq} v_Vol v_H file vol_enthalpy.dat
fix AVG all 		ave/time 1000 1 ${out_freq} v_Vol v_H file vol_enthalpy.dat
fix AVG all 		ave/time 1000 1 1000 v_Vol v_H file vol_enthalpy.dat


timer           timeout 02:55:00 every 1000
New timer settings: style=normal  mode=nosync  timeout=02:55:00

fix 		1 all shake 1e-6 200 0 b 1 a 1
Finding SHAKE clusters ...
       0 = # of size 2 clusters
       0 = # of size 3 clusters
       0 = # of size 4 clusters
     324 = # of frozen angles
  find clusters CPU = 0.001 seconds
fix             2 all nph aniso ${pressure} ${pressure} ${pressureDamp}
fix             2 all nph aniso 1658.6 ${pressure} ${pressureDamp}
fix             2 all nph aniso 1658.6 1658.6 ${pressureDamp}
fix             2 all nph aniso 1658.6 1658.6 1000
fix             3 all temp/csvr ${temperature} ${temperature} ${tempDamp} ${seed}
fix             3 all temp/csvr 207.72 ${temperature} ${tempDamp} ${seed}
fix             3 all temp/csvr 207.72 207.72 ${tempDamp} ${seed}
fix             3 all temp/csvr 207.72 207.72 100 ${seed}
fix             3 all temp/csvr 207.72 207.72 100 745823


run             250000
PPPM initialization ...
  extracting TIP4P info from pair style
  using 12-bit tables for long-range coulomb (../kspace.cpp:340)
  G vector (1/distance) = 0.37211785
  grid = 24 24 25
  stencil order = 5
  estimated absolute RMS force accuracy = 0.0034424025
  estimated relative force accuracy = 1.0366693e-05
  using double precision FFTW3
  3d grid and FFT values/proc = 3458 576
Last active /omp style is kspace_style pppm/tip4p/omp
Neighbor list info ...
  update every 1 steps, delay 7 steps, check yes
  max neighbors/atom: 2000, page size: 100000
  master list distance cutoff = 10.8154
  ghost atom cutoff = 10.8154
  binsize = 5.4077, bins = 4 4 4
  1 neighbor lists, perpetual/occasional/extra = 1 0 0
  (1) pair lj/cut/tip4p/long/omp, perpetual
      attributes: half, newton on, omp
      pair build: half/bin/newton/omp
      stencil: half/bin/3d
      bin: standard
Setting up Verlet run ...
  Unit style    : real
  Current step  : 9000000
  Time step     : 2
  Walltime left : 2:54:59.94
Per MPI rank memory allocation (min/avg/max) = 10.19 | 10.19 | 10.21 Mbytes
Step Temp PotEng TotEng E_pair E_mol Press Lx Ly Lz Volume Pxx Pyy Pzz Pxy Pxz Pyz Enthalpy 
 9000000    223.27105   -4795.2459   -4364.6489   -4795.2459            0    2708.7183    19.995749    19.991785    21.031875    8407.5071    3739.0078    2208.7175    2178.4297   -265.19912     419.6363    298.34469   -4032.5197 
 9001000    207.16552   -4810.6409   -4411.1048   -4810.6409            0    1319.6269    20.170779    20.001138     21.07198    8501.2486    229.74242    2683.3207    1045.8176   -92.737403   -316.76923    443.14032   -4247.4948 
 9002000    205.81105    -4808.381   -4411.4571    -4808.381            0    1298.3929    20.154637    20.228598    20.826092    8490.7985     410.1664    1110.5867    2374.4255    195.71652   -656.77047    397.83703   -4250.6776 
 9003000    204.33453    -4808.464   -4414.3877    -4808.464            0    891.93452    20.126679    20.010239    21.222643       8547.2    1675.6051    1071.0095   -70.811022    117.98549    1342.1176    729.44689   -4303.2061 
 9004000     196.6985   -4818.6563   -4439.3067   -4818.6563            0    1781.6231    20.177006    20.024135    20.951893    8465.1322     1301.909    2725.3416    1317.6187    -530.2598    -135.0294    390.24179   -4219.3559 
 9005000    204.17248   -4805.7829   -4412.0191   -4805.7829            0    1106.5575    20.100488    20.096045    21.033533    8496.2917    1143.6689    86.996442    2089.0072    227.72794     376.3459   -517.56478   -4274.9059 
 9006000    213.86791    -4810.052   -4397.5898    -4810.052            0    426.61901     20.13797     20.28362    20.954654    8559.3667    661.17042    796.88866   -178.20204    86.603317    606.10941   -598.46148   -4344.3351 
 9007000     207.7606   -4808.0129   -4407.3291   -4808.0129            0    1143.5483    19.987392    20.063576    21.170151    8489.6231    1546.0011    2162.4228   -277.77895   -25.693829   -321.32661    263.20707   -4265.7435 
 9008000    207.93956   -4806.9504   -4405.9215   -4806.9504            0    1724.6246    20.220181    20.012446    20.843496     8434.431    1652.2291    1277.9134    2243.7314   -932.63268     421.7617    947.91344   -4193.7797 
 9009000    211.34209   -4795.4314   -4387.8404   -4795.4314            0    1206.9556     20.21199    20.160779    21.064613    8583.6078    320.54801    1624.6665    1675.6523    528.51851    20.702772    487.82543   -4236.7499 
 9010000    214.24762   -4809.2044   -4396.0098   -4809.2044            0    3312.3625    19.925902    20.052807    21.105687     8433.205    4691.2843    3495.0515    1750.7518    26.356116   -229.08478    429.01346   -3988.6235 
 9011000    209.96829   -4826.1415      -4421.2   -4826.1415            0    731.66467    20.096007     20.10925    20.994883    8484.3603    672.85025    702.67348    819.47028    -510.8217    1236.9754   -1055.7047    -4330.667 
 9012000    212.98258   -4784.9606   -4374.2058   -4784.9606            0   -222.87652    20.126981    20.222671    21.027977    8558.8345   -1219.0466    682.03129   -131.61428    820.44364   -245.62689   -599.13131   -4402.0256 
 9013000    222.67346   -4811.7586   -4382.3141   -4811.7586            0    796.85828    20.067296    19.948254    21.139246    8462.1992    454.49879     1915.576    20.500014   -315.69474    1857.8297    124.31663   -4283.9718 
 9014000    212.05358   -4833.5307   -4424.5675   -4833.5307            0    1212.6746    20.030192    20.115196    20.983206    8454.3697    1099.6607    1508.0045    1030.3587   -340.62087     889.6773   -117.99123   -4275.0468 
 9015000    211.20045   -4822.3394   -4415.0216   -4822.3394            0    878.61572     19.99285    20.227541    21.004068    8494.1751   -196.12131    2024.2314    807.73711   -758.51948    83.569844    420.51467   -4306.1797 
 9016000    205.55711   -4803.6377   -4407.2035   -4803.6377            0    2425.8576    19.982988    20.011521     21.03861     8413.129    2011.7546     2568.547    2697.2712     970.9529   -371.51664   -136.83035   -4109.5584 
 9017000     206.8945   -4810.9409   -4411.9274   -4810.9409            0    2431.7483    20.089594    20.091778    20.925806    8446.4015    2140.9185    2648.9757    2505.3509   -462.27815    422.98567   -784.80517   -4112.3795 
 9018000    193.11139   -4805.4774   -4433.0458   -4805.4774            0   -168.93644    20.098659    19.936619    21.325215    8544.9992    97.307907    505.38612   -1109.5033    463.21302    1426.4729   -747.80761   -4454.0987 
 9019000    201.52948    -4806.234   -4417.5674    -4806.234            0    2739.3638    20.169123    20.053782    20.860571    8437.4164    3762.1456    2481.0117    1974.9342    781.08457   -650.46985   -245.46865   -4080.4858 
 9020000    201.52006   -4808.3867   -4419.7384   -4808.3867            0    2450.4413    20.143323    20.202623    20.909915    8509.2475     2483.226    1888.1119    2979.9858   -143.78957      403.254     457.5194   -4115.6419 
 9021000    205.30312   -4829.5975   -4433.6532   -4829.5975            0    1877.0112      20.0259    20.060598    21.227875    8527.9065    1648.3438    1868.5736    2114.1162    51.136189    999.05823   -894.46667   -4200.2078 
 9022000    212.39731   -4819.8387   -4410.2127   -4819.8387            0    1538.3171    20.125049    20.049236    21.011086    8477.8021    2751.0733    -182.2081    2046.0862    337.66996    278.11066     1594.307   -4220.0151 
 9023000    206.62539   -4832.1774   -4433.6829   -4832.1774            0    1149.8862    20.185829    20.179666    20.809957    8476.7963    2017.7883    388.38165    1043.4887   -461.42979   -227.18471   -352.06217   -4291.5278 
 9024000    220.55373    -4796.102   -4370.7456    -4796.102            0    2666.0601    20.097976    19.962703    21.146025    8483.9951    2662.5759    3506.0434    1829.5611    259.48888   -835.29066   -672.77019    -4040.873 
 9025000    204.97236   -4779.9388   -4384.6324   -4779.9388            0    2674.0605    20.188709    20.019488    20.852289      8427.82    2331.7289    2394.9713    3295.4814   -450.08359    -546.9527   -679.39371   -4055.9606 
 9026000     215.7827   -4799.9216   -4383.7665   -4799.9216            0    1615.8959    20.276267    19.922784    20.853436    8423.9479    1457.0176    1567.5139    1823.1561     94.44825    64.436636   -812.96117   -4185.2462 
 9027000    218.16829   -4793.7234   -4372.9675   -4793.7234            0    2233.3337    20.170762    19.809218    21.257638    8493.8509     2692.873    2358.8914    1648.2366   -620.72694    1231.0163   -571.27238   -4096.3153 
 9028000    200.76398   -4809.7866   -4422.5964   -4809.7866            0    2749.5281    20.069431    20.149764     20.93264    8465.0405    3714.6787    1529.5352    3004.3705    759.54071   -98.573821   -507.78872   -4083.1563 
 9029000    205.11673   -4802.1336   -4406.5487   -4802.1336            0    2099.0896    20.004381    20.169768    20.895382    8430.9464    2470.2407    1400.9989    2426.0292   -161.67783   -374.58695   -436.59554   -4148.4515 
 9030000    205.61383   -4785.4496    -4388.906   -4785.4496            0    2413.9778    20.047978    20.099839    21.067401    8489.3436    1852.9713    2975.7574    2413.2048   -464.45799   -868.01784    1006.6332   -4090.0354 
 9031000    209.12575   -4788.8287   -4385.5121   -4788.8287            0    1289.5525    20.204135    19.942994    21.242693    8559.3385     272.4405    2156.3273    1439.8898    76.154435    346.71936   -429.96928   -4224.5384 
 9032000    215.89705   -4812.1683   -4395.7926   -4812.1683            0    1919.0493    20.110657    20.138222    20.799017    8423.4541     455.0584    2471.5421    2830.5475    88.533891   -67.896545    347.00474   -4160.0423 
 9033000    204.30553   -4794.6836   -4400.6632   -4794.6836            0    2458.9967    19.864533    20.148034    21.198762    8484.4077    2451.3971     4000.104    925.48907   -331.08436    1190.8407    423.21802   -4096.3958 
 9034000    205.63374   -4821.4362   -4424.8542   -4821.4362            0     1664.458    20.095258    20.112211    20.872591     8435.868    1335.5682    2655.0199    1002.7859   -290.38171    680.80742   -300.17144   -4220.0784 
 9035000    199.84823   -4830.9928   -4445.5686   -4830.9928            0    2336.4217    20.174703    20.194784    20.529469    8364.1934    2554.1891    1612.9649    2842.1111   -492.85492    711.61595   -463.62412   -4160.5645 
 9036000     199.3471   -4818.3139   -4433.8562   -4818.3139            0    1292.5134    20.026085    20.094026    21.064085    8476.2865     1408.391    1304.2014    1164.9478   -312.62032     589.9017    30.360003   -4274.0784 
 9037000    207.16085   -4814.5576   -4415.0305   -4814.5576            0    1507.3687    20.142534    20.293679    20.769397    8489.8258    1996.7545    651.34383    1874.0078    420.99579   -1048.5468    715.01932    -4228.395 
 9038000    217.14856   -4815.2047   -4396.4154   -4815.2047            0    1588.0018    20.052666    19.999949    21.060081    8446.1939    1628.4004    1142.6305    1992.9744   -204.61091   -138.88214   -32.730306   -4200.8068 
 9039000     201.2622   -4817.8981   -4429.7471   -4817.8981            0    1080.8588    20.148446    20.047256    21.231588    8575.8851    993.16636    2646.0645   -396.65446   -191.56568    224.84712   -1058.8582   -4294.5635 
 9040000    209.54363   -4822.1357   -4418.0132   -4822.1357            0    1780.6972    20.072955    20.180138    20.877045    8456.7689   -153.17056     3740.839    1754.4232   -353.16934   -418.62199    82.188191    -4198.394 
 9041000    207.11052   -4806.7872   -4407.3572   -4806.7872            0    2690.0873    20.203534    19.938288    20.915835     8425.398    425.62181    4471.5597    3173.0804   -42.942458    1901.3277     477.8408   -4076.8106 
 9042000    205.38939   -4812.8372   -4416.7265   -4812.8372            0     3733.759    20.057365    19.940672    21.070411    8427.2652    3970.0193    4026.6078    3204.6498   -119.63587   -644.93075   -738.22922   -3957.8362 
 9043000    204.09528   -4793.6359    -4400.021   -4793.6359            0     318.0657    20.037785    20.140241    21.046221    8493.5354    1446.3109    230.23248   -722.34628   -25.324778     812.7272    1333.2384   -4360.6224 
 9044000    204.55943    -4834.494   -4439.9839    -4834.494            0    1806.4548    20.044393     20.09228    20.999472    8457.2759     2916.015    963.25636    1540.0931   -273.60107    217.05251   -340.47013   -4217.1745 
 9045000    197.19643   -4821.5483   -4441.2384   -4821.5483            0    1580.6636    19.963626    20.076526    21.091436    8453.4529    3738.2057   -272.11058    1275.8955   -499.25266   -933.63313    280.90588   -4246.3664 
 9046000    200.89103    -4811.202   -4423.7668    -4811.202            0    2397.3357    20.205537    20.031133    20.822877    8427.8471    3437.3561    1594.4853    2160.1657     406.1199    716.36043     497.2131   -4129.1066 
 9047000    206.26838   -4814.9129    -4417.107   -4814.9129            0     2528.626    20.023827    20.041432    21.099861    8467.5043    1505.1313    5024.6501    1056.0967   -1057.2126   -681.54944    1181.3283   -4104.8473 
 9048000    210.63739   -4840.3635   -4434.1316   -4840.3635            0    397.31203    20.116981    20.063703    21.116004    8522.8653    1150.8797    526.59748   -485.54107    254.87421   -630.45006   -246.38299   -4384.7468 
 9049000    208.58172   -4807.8824   -4405.6151   -4807.8824            0    2377.7893    20.019032    20.133658    21.013001    8469.4232    2988.0027    2046.5387    2098.8266   -316.26591     580.4658    -979.0976   -4111.9156 
 9050000     202.4352   -4826.8618   -4436.4485   -4826.8618            0    2534.1545    20.082334    19.966034    20.919316    8387.9043    3164.6076    2209.4283    2228.4277   -288.56119    635.94984   -304.45243    -4126.448 
 9051000    228.37148   -4796.0772   -4355.6436   -4796.0772            0    775.49568     19.96342    20.178506    21.223151    8549.3642    2295.6813    162.70065   -131.89487   -60.640771    325.09547   -584.39604   -4258.9519 
 9052000    200.28217    -4820.201     -4433.94    -4820.201            0    1985.9215    20.067795    20.092556    20.948257    8446.6159    2531.8506    758.45934    2667.4547   -532.86394    143.81797    166.28558   -4189.3038 
 9053000      197.991   -4821.5412   -4439.6989   -4821.5412            0    3300.6012     20.20715    19.961873    20.789071    8385.7408    3296.4324    2654.6684    3950.7029   -223.49152    430.24287     884.4286   -4036.0438 
 9054000     214.1859   -4801.0618   -4387.9862   -4801.0618            0    2394.6209    20.008262    19.942447    21.279656    8490.8748    2267.1598    2887.7703    2028.9327     422.8532   -29.743951   -109.98905   -4091.4587 
 9055000     207.4014   -4808.3287   -4408.3376   -4808.3287            0    2361.3291    19.952347    20.196837    21.055297    8484.7434    1537.1802    4303.4919    1243.3152   -87.508058    1074.2254    897.51225   -4116.1437 
 9056000    217.17826   -4796.9497   -4378.1032   -4796.9497            0     1366.923    20.291191    20.075022    20.845676    8491.4053    892.18955    2062.9257    1145.6538    420.77958   -46.579954    1439.9707   -4208.8256 
 9057000    205.72558    -4837.597   -4440.8379    -4837.597            0    2513.5035    20.107845    20.015082    21.040387    8467.9174     3258.371     1719.297    2562.8425    231.53054    619.99431    -556.3498   -4130.4305 
 9058000    207.97942   -4810.1801   -4409.0743   -4810.1801            0    590.39656    20.066481    20.174143    20.906862    8463.6008   -137.72688    763.20642    1145.7101   -230.74808   -957.30956   -226.57121   -4336.1999 
 9059000    210.75515    -4822.577   -4416.1179    -4822.577            0    2679.7879    19.965104    20.015595    21.174846    8461.7532    3595.2816    2279.5083    2164.5737    351.31433   -4.7730743    561.87189   -4085.4161 
 9060000    200.62784   -4794.0399   -4407.1122   -4794.0399            0    3266.9486    20.019063     20.16837    20.985176    8472.8043    3878.6937    2759.4048    3162.7474   -700.81909    2612.7367    419.10745   -4003.4247 
 9061000     208.5864   -4803.9919   -4401.7155   -4803.9919            0    1977.1759    20.278279    20.074262    20.931419    8520.5835    520.11249    2249.8981    3161.5172   -166.50542   -858.14995    915.43391   -4156.0238 
 9062000    220.11321   -4802.8033   -4378.2964   -4802.8033            0    3173.0456    20.022488    20.089629    20.937013    8421.7952    3803.1494    2763.2752    2952.7121   -370.09378    774.13032   -582.48339   -3988.5727 
 9063000    211.69178   -4793.6059   -4385.3405   -4793.6059            0    1624.4037     20.10244    20.198218    21.012189    8531.6518    1544.7343    1635.0068    1693.4702    10.999605    502.40261    603.93889   -4183.2234 
 9064000    207.78961   -4806.8339   -4406.0942   -4806.8339            0    2143.4343    20.320117    19.804549    21.134011    8504.9758    232.88684    4228.7769    1968.6392    -263.1577   -739.63011    1804.5869   -4140.2304 
 9065000    216.58359   -4836.3139   -4418.6142   -4836.3139            0    961.37951    20.107864    20.063896    20.983688    8465.7034    1342.9174    1331.3331    209.88809   -570.69126    507.58298   -454.49783   -4299.9188 
 9066000    215.20191   -4793.5887   -4378.5537   -4793.5887            0    852.68765    20.388436    20.012128    20.787115    8481.4754    406.97196    1388.1532    762.93774    109.07304    46.967844     268.4567   -4273.0817 
 9067000    199.84091   -4807.3448   -4421.9348   -4807.3448            0    2431.1229    20.064095    19.959875    21.089475    8445.8461    3205.7895    3257.1612    830.41803   -610.99287    697.78785    891.15921   -4122.4837 
 9068000    199.49372    -4799.534   -4414.7935    -4799.534            0    1807.1132    20.268319    20.106957    20.940435     8533.944    1232.9454    1517.5003     2670.894    553.61946    590.73906    43.171289   -4189.8824 
 9069000    205.46791   -4832.9375   -4436.6754   -4832.9375            0    3030.0647    19.995488     20.11937    20.894177     8405.657    3024.4407     3348.864    2716.8894   -328.30909    -343.1262     648.2954   -4065.2262 
 9070000    204.26709   -4792.4098   -4398.4636   -4792.4098            0    1300.7178    20.078564    20.091048    21.110777    8516.0749    2630.9996    976.79486    294.35903    95.345494    416.76702   -476.47591   -4236.9167 
 9071000    213.21893   -4812.5659   -4401.3552   -4812.5659            0    1430.1848    20.178673    20.164401    20.802317    8464.2726    1609.7258    1931.2602     749.5684   -196.42464   -157.35098   -295.19694   -4224.8093 
 9072000    218.55492   -4785.5121   -4364.0106   -4785.5121            0     1185.968    20.179554     20.01027    21.101026    8520.5588    1591.2049    1433.8937    532.80527    596.40515    387.91957   -13.103461   -4216.6379 
 9073000    199.95988   -4830.3936   -4444.7541   -4830.3936            0    1092.2512    20.069436    20.113539    21.092092    8514.1899    1980.6367    98.147135    1197.9698   -597.44322    930.24242    666.99164   -4309.1285 
 9074000    192.44619   -4804.4297    -4433.281   -4804.4297            0    521.51391    20.217095    20.189721    21.014026    8577.4525    746.55333    229.23054    588.75784    42.786498   -711.12817    754.20649   -4368.0431 
 9075000    205.98176   -4819.6557   -4422.4025   -4819.6557            0      1731.83    20.196885    20.008931    21.050481    8506.8797    1645.7451    2321.6199    1228.1249    480.35695    521.86593    510.75314   -4207.5446 
 9076000    213.30546   -4828.8279   -4417.4504   -4828.8279            0    1702.1302    20.151464    20.095601    20.989638    8499.8751    1442.2713    1316.5056    2347.6136   -726.03766     62.65869   -347.46511    -4206.451 
 9077000    195.11622   -4831.5602   -4455.2622   -4831.5602            0    2173.8639    20.072959    20.089922    21.069945    8496.7543     2537.283    1744.2604    2240.0483    -585.1342   -49.975235   -1496.9021   -4185.8847 
 9078000    217.48088   -4800.8979   -4381.4678   -4800.8979            0    1958.0674      20.0775    20.042842    21.031111    8463.1327    619.20776     2395.696    2859.2985   -1012.4868   -197.85363   -980.04946   -4139.7911 
 9079000    207.41551   -4823.8089   -4423.7907   -4823.8089            0    2366.3126    20.161239    20.123276    20.756188    8420.9966    3981.7798    1243.2686    1873.8894   -214.36792   -255.46108   -1080.2115   -4133.1801 
 9080000    207.67805   -4790.7054   -4390.1808   -4790.7054            0    1354.5017    20.280462    19.919532    20.890515    8439.2942    829.14119    1587.9495    1646.4145   -455.89252   -181.31479   -257.74706   -4223.4708 
 9081000    202.68706   -4793.4341   -4402.5351   -4793.4341            0    993.08236     20.03362    20.152793    21.082755    8511.8124     1963.713    613.81972    401.71433   -307.36708    489.41283   -1818.4718   -4279.2577 
 9082000    205.42273   -4829.0688   -4432.8938   -4829.0688            0    2346.7715    20.149537    20.236433    20.650362    8420.2832    435.54678    2797.0247     3807.743    134.50057    218.46141    1166.2938   -4144.7075 
 9083000    212.49673    -4804.031   -4394.2132    -4804.031            0    3331.2743    20.043326    20.010937    20.955093    8404.7893    2796.6964    4506.7117    2690.4148    122.16537     231.3954    70.242942   -3985.8815 
 9084000    212.40962    -4787.637   -4377.9872    -4787.637            0    2448.5341    20.167849    20.024001    20.931823    8453.1291     2071.827    3370.7704     1903.005   -471.17532   -48.443169    238.15139   -4076.1314 
 9085000    207.28066   -4828.9914   -4429.2332   -4828.9914            0    1169.0736    20.082362    20.210836    21.075651     8554.213    1834.0836   -219.72658    1892.8639   -143.08645    821.95123    288.62592   -4283.3861 
 9086000    204.71406   -4818.3828   -4423.5745   -4818.3828            0    651.76703    20.015593    20.192348    21.052109    8508.4585    1219.1982   -287.82283    1023.9257     264.5842   -1284.4614    190.65562   -4342.6986 
 9087000    201.12784   -4810.6944   -4422.8024   -4810.6944            0    1374.7436    20.062135    20.178875    21.006567    8504.1163    1515.5908    2379.6461    228.99389    51.098191    684.21718   -266.96763   -4252.3015 
 9088000    208.95402   -4821.3285   -4418.3431   -4821.3285            0     2643.001    20.199928    19.956426    20.859514     8408.853    883.59572    2814.7567    4230.6506   -56.197819    412.96404   -867.95145     -4094.22 
 9089000    201.67135   -4843.2213   -4454.2812   -4843.2213            0    1095.3825    20.070658    20.021216    21.142807     8496.004    673.71947    1857.2857     755.1424   -693.55442     544.9465    642.76879   -4318.5572 
 9090000    202.65978   -4809.9271   -4419.0806   -4809.9271            0     1693.114    20.211736    20.055754    20.932318     8485.158    783.38373    1792.6892     2503.269    30.151674    25.774609     702.3361   -4209.5623 
 9091000    212.53978   -4832.0106   -4422.1097   -4832.0106            0    750.59055    20.202397    19.996763    21.171038    8552.7294    2280.6888   -595.67122    566.75403   -359.02927    1088.2786     2114.017   -4328.4865 
 9092000    209.07389   -4824.3273   -4421.1107   -4824.3273            0    1759.0082    20.144954    19.996335    20.932373    8432.0883    1129.0419    1434.7172    2713.2655   -68.075243   -172.74144      448.868   -4204.7996 
 9093000    216.54092   -4815.3027   -4397.6853   -4815.3027            0    2821.5956    19.870792    20.235216    20.945416    8421.9374    2910.7221    3387.0969    2166.9677    398.17286   -529.27443   -811.45568   -4051.1219 
 9094000    201.95222   -4805.3425   -4415.8606   -4805.3425            0    2024.6409    20.043129    19.958209    21.054161    8422.1899    1312.0007    3079.9008    1682.0212    35.273883   -328.16651    459.78883    -4167.176 
 9095000    204.72895   -4840.4137   -4445.5767   -4840.4137            0    251.40102    20.246144    20.052766    20.925612     8495.614   -387.71712    398.86324    743.05695   -654.74769    70.105449    319.55811   -4414.4281 
 9096000    210.97728   -4814.3211   -4407.4337   -4814.3211            0    448.93258    20.187768     20.24369    20.941505    8558.2677    720.95269   -477.38349    1103.2285    -579.2817    431.67738    534.22987   -4351.4008 
 9097000    205.35891   -4805.7213   -4409.6694   -4805.7213            0    1560.6506    19.969933    20.123776     20.99488    8437.2223    1810.0617    2712.5158    159.37425   -357.66935   -515.68483    247.86032   -4217.6341 
 9098000    203.81286   -4807.9529   -4414.8827   -4807.9529            0    1369.2245    20.054044    20.111378    20.954993     8451.452    219.26599    1813.7827     2074.625    163.45259   -36.279875    232.66196   -4246.1179 
 9099000    206.74728   -4813.8615   -4415.1319   -4813.8615            0    2500.5417    20.325636    19.995251    20.809526    8457.3285    1356.8015    2949.8363    3194.9873   -133.01074    352.96759   -1253.8274   -4106.7115 
 9100000    202.09711   -4800.5205   -4410.7592   -4800.5205            0    1861.2476    20.117817    19.982488    21.086155    8476.7198    1972.4591    2094.2413    1517.0424    1.4748915    -304.9056   -23.222159   -4180.6639 
 9101000    194.37933   -4818.2759    -4443.399   -4818.2759            0    3077.4933    20.109781    20.084087    20.902986    8442.4357    3113.3943    3124.9016    2994.1839    -581.3009   -205.04873    964.56991   -4064.4849 
 9102000    199.07709   -4801.5891   -4417.6522   -4801.5891            0    2164.2051    20.145206    19.955982    21.096495    8481.1574    2867.4366    2562.7482    1062.4306    387.93715    -257.5781    379.80078   -4149.9639 
 9103000    214.48801   -4807.7719   -4394.1138   -4807.7719            0     3469.306    20.243257     19.77086    21.049636    8424.6239    1300.4518    4878.5932    4228.8731    556.51838   -27.770498    683.09973   -3967.8592 
 9104000    207.16406   -4800.3449   -4400.8116   -4800.3449            0    1512.2903    20.243413    20.102165    20.932641    8518.2539    1444.9098    659.10724    2432.8539   -571.40431   -751.80875    532.45306   -4212.9398 
 9105000    215.94853    -4788.996   -4372.5211    -4788.996            0    3227.6715    19.786375    20.239298    21.150136    8469.8331    4756.7422    2114.3809    2811.8912   -135.82012   -1010.2781    311.49174   -3973.8268 
 9106000    198.88189   -4822.5482   -4438.9878   -4822.5482            0      2006.91    19.980805    20.099524    21.024139    8443.3924    3476.4617    1007.9922    1536.2762   -147.87485    1368.2994    392.98018   -4191.8605 
 9107000    209.07365   -4811.9176   -4408.7015   -4811.9176            0    1844.4745     20.25339    20.065636    20.853261    8474.7058      637.065    3608.8226    1287.5358   -359.33063    678.24871    719.60097   -4180.7339 
 9108000    212.33941   -4804.9082   -4395.3938   -4804.9082            0    904.60802    20.174954    20.112914    20.989046    8516.8746    391.99366    1309.4526    1012.3778   -482.04675    186.41013   -147.10797   -4283.0325 
 9109000    211.40459   -4822.4088   -4414.6973   -4822.4088            0    1481.7505    20.007939    19.970687    21.334091    8524.5115    1567.8174    3237.0804   -359.64642   -538.77775    1131.9872   -515.49764   -4230.4842 
 9110000    213.37693   -4802.6717   -4391.1563   -4802.6717            0     2900.678    20.070708     20.09165    20.796534    8386.2782    2834.6204    2931.3975    2936.0161   -221.62926    513.26264   -233.27234   -4036.3881 
 9111000    211.47423   -4793.9788    -4386.133   -4793.9788            0    4085.0313    20.131851    19.988869     20.93431    8424.2372    4001.0115    4634.6824    3619.3999   -117.20701    25.328033    -332.3895   -3884.2507 
 9112000    217.02591   -4825.4948   -4406.9421   -4825.4948            0    1589.5892    20.039511    20.027937    21.093802    8465.9986    2263.5055    516.66196    1988.6002   -1023.8738     762.2761     718.8771   -4210.6789 
 9113000    201.71658   -4829.1082   -4440.0808   -4829.1082            0    2862.3179    20.219241    19.990035    20.774464     8396.692    2690.3082    3131.8844    2764.7611    1.0341539    496.44621    1143.6042   -4089.5695 
 9114000    209.14653   -4803.2117   -4399.8551   -4803.2117            0    285.92236    20.102034    20.016042    21.176173    8520.5114   -1056.6685    2872.9519   -958.51637   -208.78455    435.61212   -1157.5004   -4364.3255 
 9115000    209.75903   -4814.2909    -4409.753   -4814.2909            0    943.06088    20.024256    19.971582    20.983452    8391.6196    622.04312     1490.612    716.52757     32.82165    907.31008   -54.293913   -4294.3382 
 9116000     204.9973   -4826.8223   -4431.4678   -4826.8223            0    1799.6906    20.307557    19.991244    20.812271    8449.2266    491.70226    2510.3705    2396.9992    4.4149008    80.313215   -207.13966   -4209.7039 
 9117000    196.20438   -4820.3304   -4441.9337   -4820.3304            0    1841.5788    20.166646    20.122465    20.982259     8514.656    960.79075    2829.9108    1734.0348    747.07281   -440.16129    728.45306    -4213.251 
 9118000    195.43242   -4801.9849   -4425.0771   -4801.9849            0    4388.3501    19.968814     20.02896    20.890361    8355.1956    3559.7475    5464.5032    4140.7996   -149.76727     606.4638   -585.10329    -3890.348 
 9119000    198.95665   -4813.6273   -4429.9227   -4813.6273            0    1181.6949    20.078129    20.319619    20.738666    8460.9595     174.6895    467.08239    2903.3127   -489.39677    1664.1157    458.05469   -4284.1082 
 9120000    206.26856   -4809.9997   -4412.1935   -4809.9997            0    2062.7077    20.016468    20.023821    21.150478     8477.242    3593.4763    927.90597    1666.7408   -125.66774   -186.36377   -181.11914    -4157.177 
 9121000    203.96181   -4829.6311   -4436.2736   -4829.6311            0    651.55625    20.249498     20.03155    21.043779    8535.9636   -1120.4733    2207.0649    868.07716   -315.15184    123.41489    415.32494   -4355.1625 
 9122000    220.98774   -4819.0278   -4392.8344   -4819.0278            0     1186.321    20.277014    20.096894      20.9164    8523.5377    549.95273     1342.569    1666.4414    318.99375    129.54365   -1505.6717   -4245.3663 
 9123000    209.56526   -4813.2025   -4409.0382   -4813.2025            0    1150.3962    20.034577    19.989718    21.139251    8465.9645    1134.7474    2126.1805    190.26076   -83.814194    208.43716   -209.71363   -4267.0018 
 9124000    207.92964   -4816.0003   -4414.9905   -4816.0003            0    1843.7115    19.989489    20.129636     20.97667    8440.6166    3318.9324    962.15674    1250.0453    -1192.418   -430.05131    895.31424   -4188.0338 
 9125000    214.61875   -4803.1089   -4389.1986   -4803.1089            0    569.67828    20.022017    20.438335    20.756539     8493.922    1435.3367   -1371.7831    1645.4813   -571.20088    8.2284348    390.24737   -4318.6297 
 9126000    201.84792   -4828.0578   -4438.7771   -4828.0578            0    3067.4065    19.840504    20.025606    21.124453    8393.1281    5563.1495    1987.5266    1651.5434    338.89653    1055.0124    104.63555   -4063.3107 
 9127000    205.94179   -4814.9852   -4417.8092   -4814.9852            0    1807.1705     20.19242    19.975426    21.007423      8473.39     3193.793    1434.5394    793.17907   -10.086679    827.48462    122.36367   -4194.4868 
 9128000    209.45884   -4830.6829   -4426.7239   -4830.6829            0    975.00701     20.04571    20.170752    20.922315    8459.6669    1368.4104    1593.8328   -37.222152    445.33229    17.496577   -1083.7984   -4306.4319 
 9129000    218.32107    -4799.293   -4378.2424    -4799.293            0      732.811    20.142203    20.044343    21.191939    8555.9743    1377.5534    736.71159    84.168008    248.78408    1194.0144    917.33834   -4286.8022 
 9130000    192.89217   -4816.6514   -4444.6427   -4816.6514            0    1251.2863    20.072977    20.133247    21.036566    8501.5962    3173.6016     144.5041    435.75323   -649.23687    1243.0564    109.02713   -4289.4994 
 9131000    192.72296   -4813.2219   -4441.5395   -4813.2219            0    2277.0185    20.068204    20.203386    20.862696    8458.6899    2860.4611    736.26499    3234.3294   -281.94247   -722.69938    367.51654   -4160.6435 
 9132000    218.65931   -4806.6275   -4384.9246   -4806.6275            0    665.33997    20.148694    20.180772    21.056744    8562.0134    104.59889    904.44243    986.97859    260.87432    754.05591    503.53056   -4301.8448 
 9133000    215.13062   -4795.2156   -4380.3181   -4795.2156            0    2551.8228    20.230429    20.001296    20.884186    8450.4685    1464.2337    4069.2532    2121.9816    154.82438    510.72493   -337.32825   -4065.8279 
 9134000    207.13508    -4834.986   -4435.5086    -4834.986            0    885.12165    20.174523    19.944362    21.198019    8529.4043    5.7244976    2614.7364    34.904111   -195.13676   -25.131443    42.983688    -4325.406 
 9135000    218.25136   -4840.0794   -4419.1633   -4840.0794            0    1805.3648    20.100479    20.042922    20.967794    8447.3442    2282.5707    2324.4388    809.08504    63.264745    352.10304    1260.2618   -4196.7498 
 9136000    213.09643    -4812.597   -4401.6226    -4812.597            0    1123.4403    20.227765    20.168114    20.722979     8454.061    479.95663    1260.9847    1629.3796   -638.33028   -101.74338     -34.8684   -4263.1093 
 9137000    199.79674   -4816.0155   -4430.6907   -4816.0155            0    1491.7488    20.039151    20.098497    21.025404    8468.1245    509.18708    2928.7705    1037.2889    267.84854    -678.2012   -371.85315   -4246.4614 
 9138000    201.96225   -4810.9134   -4421.4122   -4810.9134            0    1157.5041     20.01391    20.113705    20.978718    8445.0641    2779.9859   -252.34461     944.8709    606.93234   -90.697953    238.03982    -4278.851 
 9139000    196.65944   -4825.2485   -4445.9742   -4825.2485            0     1865.154    20.364397    19.980129    20.910711    8508.2185    536.91793     1000.629    4057.9152   -855.98145   -902.67771   -232.73422   -4214.5391 
 9140000    212.03979   -4816.3054   -4407.3689   -4816.3054            0    352.91733    20.247083    20.137392    20.982943    8555.2378   -1229.5052    1061.3459    1226.9114   -106.78968    448.58505   -33.095137   -4363.3356 
 9141000    215.21592   -4829.3997   -4414.3377   -4829.3997            0    2818.8326    20.011532    20.008654    20.920465    8376.6341    3024.0164    2234.5924    3197.8888    208.08179    319.17744     248.8461   -4069.9761 
 9142000    210.84679   -4821.6707   -4415.0349   -4821.6707            0    1146.2948     20.04359    20.150388     21.00878    8485.1543    1535.9804     240.6275    1662.2764    42.053586    530.99751   -20.365356   -4273.1841 
 9143000    210.79072   -4830.9732   -4424.4456   -4830.9732            0    2465.8999    20.104969    20.134281    20.934651    8474.3276    2063.4084    2060.7132    3273.5782    143.35074   -691.41011   -906.83545   -4119.6866 
 9144000    214.48248    -4819.603   -4405.9555    -4819.603            0    2882.5746    20.151446     19.91274    20.851887    8367.2471    2829.2193    3710.1817    2108.3227    382.45478   -451.55418    634.10564   -4054.2015 
 9145000    205.02506   -4808.4549   -4413.0468   -4808.4549            0    2790.3543     20.28619    19.973131    20.842388    8444.8924     1475.344    4392.1705    2503.5484    676.69334   -235.93556   -26.586931   -4069.3865 
 9146000    203.14237   -4819.4153   -4427.6381   -4819.4153            0    1709.6477    20.110772    19.829527     21.08615    8408.8848    510.16354    3864.0765    754.70296    894.87457    90.799056   -902.69141   -4217.9756 
 9147000    202.52564   -4829.2065   -4438.6187   -4829.2065            0    3204.5676     19.99436    20.035695    20.970916    8400.9675    4647.3209    2025.4332    2940.9485   -592.34514    144.83339    1208.8239   -4045.9967 
 9148000    213.65033   -4847.6692   -4435.6265   -4847.6692            0    2821.6523    20.085772    20.119097    20.764975    8391.2838    2500.8956    2443.2276    3520.8337    256.61729   -80.437092    282.15684   -4090.3176 
 9149000    219.67041    -4816.815   -4393.1622    -4816.815            0    2296.0171    20.111655    19.856765    21.150642    8446.5596    799.33098    3462.4186    2626.3016   -388.73294   -311.86936   -201.91391   -4110.3287 
 9150000      212.011   -4827.4375   -4418.5565   -4827.4375            0    1306.2228    20.227934    20.055415    20.818593    8445.6786    960.38656    1689.4911    1268.7906   -753.19837    26.601447    523.54518    -4257.667 
 9151000     219.9707   -4804.2413   -4380.0093   -4804.2413            0    2013.9907    20.186763    20.130294    20.857258      8475.67    250.12483    2836.4629    2955.3844   -189.73632    320.99526   -844.89584    -4131.062 
 9152000    215.94107   -4812.9681   -4396.5076   -4812.9681            0    2996.2077    20.164275    19.954521    21.173256    8519.4501    1945.6081    3635.7789    3407.2363   -212.47108     453.5232   -685.97661   -4024.2364 
 9153000    207.12193   -4817.5131    -4418.061   -4817.5131            0    1863.9294    20.122584    19.943642    21.028655    8439.1699    1270.9146    3625.3281    695.54553   -322.79001   -710.40967   -1057.6429   -4188.6548 
 9154000    215.39517   -4828.2273   -4412.8195   -4828.2273            0    1154.0345    20.326936    19.974674    20.842483    8462.5466    26.777297    1815.3368    1619.9895   -593.16013   -1128.8545    7.1800592   -4270.3914 
 9155000    216.60812   -4834.2464   -4416.4994   -4834.2464            0    1010.3736    20.190804    19.963611    20.950574    8444.7855    496.56297    1591.3273    943.23063    25.364522     1080.239   -178.82194   -4292.0633 
 9156000    206.38488   -4827.0014   -4428.9708   -4827.0014            0    807.92373     20.13794      20.0084    21.174522    8531.8066      617.359    1445.0372    361.37496   -348.88496    6.5652413    539.37105   -4328.4427 
 9157000    202.43959   -4795.9482   -4405.5265   -4795.9482            0    1295.2186    20.256236    20.268491    20.625825    8468.2077   -260.46854     1456.313    2689.8112   -386.31744     1173.859    334.53642   -4245.5668 
 9158000    201.53936   -4831.2284   -4442.5428   -4831.2284            0   -448.94078    20.193285    20.133068    21.035011    8551.8424   -81.379116   -778.30641   -487.13682    136.33681   -407.39469   -1106.0619   -4498.5347 
 9159000    199.04036   -4814.3335   -4430.4675   -4814.3335            0    787.08801    19.966144     20.30784    21.033507    8528.4403    1790.7309    300.98379    269.54939    583.51029   -673.51691    1045.5986   -4332.5706 
 9160000    208.46054   -4809.4031   -4407.3694   -4809.4031            0    1891.2977    20.168582     20.02668    20.853701    8423.0128    2167.2875    1614.6163    1891.9892   -428.64973     1454.968   -760.16642   -4175.0405 
 9161000    199.50863   -4819.8975   -4435.1283   -4819.8975            0    1280.9732    20.156108    19.996239    21.203545    8546.0112   -305.41156     2728.973    1419.3581   -622.26083    439.06254   -595.21575   -4275.4744 
 9162000    212.57091    -4822.012   -4412.0511    -4822.012            0    1641.4563    20.200808    20.092656    20.921758    8491.8883    139.51985    2256.1021    2528.7469   -990.80457    195.40278    933.08718   -4208.7642 
 9163000    212.50051   -4818.4456   -4408.6205   -4818.4456            0    462.96744    20.142606    20.111797    20.859919    8450.4366    160.59099   -190.67965     1418.991    249.95136    1061.3576    521.76101   -4351.5639 
 9164000    208.94408   -4827.2182   -4424.2519   -4827.2182            0    2692.4566    20.013975    20.102796    21.095988    8487.6933    2272.3892    2694.5505      3110.43    804.88013    242.27025   -348.18217   -4090.9681 
 9165000    212.04878   -4826.8051   -4417.8512   -4826.8051            0    2144.2494    20.210519    20.085121    20.742323     8419.946     1184.542    2721.0455    2527.1607    188.96795   -787.63542   -152.08536   -4154.5453 
 9166000    212.11102   -4804.6203   -4395.5463   -4804.6203            0    1412.4939    20.211979    20.149271    20.855272     8493.448    253.34191    2775.6651    1208.4748    371.12158   -181.84339   -553.60787   -4220.5832 
 9167000    218.64031   -4830.8845   -4409.2183   -4830.8845            0     1051.837    19.980075    20.096068    21.062977    8457.2265     1029.263    1254.1211    872.12672    707.18222    934.75309   -638.13186   -4279.4847 
 9168000    212.93497   -4793.6099   -4382.9469   -4793.6099            0    1146.3226    20.161754    20.068068    20.847985    8435.2504     1108.409    1592.2291    738.32971    373.29442   -16.669836    8.6330503   -4241.9269 
 9169000    213.78004   -4797.8233   -4385.5305   -4797.8233            0    2713.1379    20.023812    20.176251    20.951863    8464.6666    4087.0842    1079.5094    2972.8202   -465.96482   -436.90249    -1056.167   -4050.5978 
 9170000    210.71211   -4807.9661   -4401.5901   -4807.9661            0    1533.7871    19.929932    19.985731    21.447746    8542.9426    1207.8953    1875.5519     1517.914   -193.76739   -233.01469    195.52256   -4210.4954 
 9171000    210.59447   -4806.1684   -4400.0193   -4806.1684            0    1490.0684     20.12732    20.215421    20.907633    8506.9446    609.39948    1952.0221    1908.7835   -401.39219   -482.09382   -820.01769   -4215.1539 
 9172000    203.85819   -4819.1295   -4425.9718   -4819.1295            0    2122.6696     20.08208      20.0612    20.893876    8417.5286    881.95447    3366.9382    2119.1161   -112.18054    135.85767    23.539183   -4165.3908 
 9173000    196.08807   -4814.2906   -4436.1182   -4814.2906            0      1429.24    19.987633    20.044608    21.111413    8458.1666    2842.1251    1193.0451    252.54995   -203.97648    303.59438   -1094.7949   -4259.8162 
 9174000    211.24982   -4824.4904   -4417.0773   -4824.4904            0    1137.5917    20.217271    20.185012    20.860499    8512.8745   -74.198157    1970.9946    1515.9787     -225.214   -611.02203   -299.77906   -4275.8436 
 9175000    207.63974   -4821.0258   -4420.5751   -4821.0258            0    2292.6414    20.156259    20.032265    20.791194    8394.9755    1170.5173    2679.8805    3027.5263   -332.01339   -666.24687   -792.05322   -4139.8822 
 9176000    197.90657   -4815.3584    -4433.679   -4815.3584            0    1268.9992    20.107589    19.795035    21.343335    8495.2965    907.83244    2324.4431    574.72218    254.97202    490.41648    530.19772   -4276.4561 
 9177000    206.15235    -4805.635   -4408.0528    -4805.635            0    1640.5079    20.152866    20.109368    20.934056    8483.7647    2510.9516    788.77964    1621.7925   -409.33287    1199.0976    447.05251   -4205.0777 
 9178000    206.46807    -4810.666    -4412.475    -4810.666            0    2552.2018    20.012744    20.246935    20.723794    8397.2135    3489.5083    708.95262    3458.1445    178.92743    491.41233     -263.997   -4099.9202 
 9179000    215.98547    -4814.778   -4398.2318    -4814.778            0    3073.6061    20.000296    20.016867     21.14158    8463.8892    5324.0865    1320.6313    2576.1004   -268.65896   -74.910767    899.54785   -4018.8347 
 9180000    209.53336    -4805.602   -4401.4992    -4805.602            0    654.45008    20.212765    19.962046    21.055973    8495.8353   -541.00261     2836.629   -332.27611   -52.432525    345.46747   -835.20585   -4320.4109 
 9181000    198.08885   -4804.2487   -4422.2177   -4804.2487            0    900.03803    20.027324    20.331788    20.899022    8509.9004     2282.695   -1626.7828     2044.202   -125.46998    28.398303    0.1015809   -4310.5156 
 9182000    204.56479   -4808.9445   -4414.4241   -4808.9445            0    2445.4712    20.116336    19.920449    21.075663    8445.5754    2688.6704    3110.7089    1537.0344    209.91483   -585.58811   -413.66758   -4113.2152 
 9183000    198.83679   -4822.0885   -4438.6151   -4822.0885            0     1129.272    20.197292       20.037    21.090859    8535.3256    446.20536    834.62254    2106.9882   -171.78902     284.5428   -104.36398   -4298.0444 
 9184000    202.08422   -4826.5249   -4436.7885   -4826.5249            0    1737.6281    20.068883    20.119241    20.947938    8458.1636    1624.8033    2909.9305    678.15033   -83.335352    1047.0746    882.81969   -4222.4457 
 9185000    213.07186   -4808.0243   -4397.0973   -4808.0243            0    2491.9463    20.119032    20.154479    20.979154    8506.8078    2995.6047    1457.0709    3023.1634    123.15177    537.88761   -715.96642   -4087.9388 
 9186000    200.34084   -4775.3618   -4388.9876   -4775.3618            0   -227.92508    20.143152    20.158653     21.12598    8578.3901   -1615.6304    1913.9633   -982.10819    553.17108    562.19057     489.0677   -4417.5027 
 9187000    202.78536   -4815.3372   -4424.2486   -4815.3372            0    1464.9671    20.312879    20.107488    20.754624    8477.0388    1009.0465    772.20049    2613.6542    172.36794    513.34974   -420.94989   -4243.1363 
 9188000     207.7199   -4801.9056   -4401.3004   -4801.9056            0    1465.2498    20.020002    20.064055    21.161676    8500.2735    2879.9019    624.01997    891.82744   -171.41163     1268.558   -599.66291   -4219.6566 
 9189000    199.44125   -4820.4113   -4435.7721   -4820.4113            0    1930.4299    20.051617    20.160623    20.813768      8414.03    2722.8072    994.23784    2074.2446    264.60028    991.98932   -721.67504    -4198.889 
 9190000    212.06681    -4789.071   -4380.0824    -4789.071            0    2288.3301    19.762879    20.295752    21.212253    8508.2872    5193.9467    444.25673    1226.7869    423.99354    137.98655    86.221697   -4096.1357 
 9191000    208.47987   -4807.3968   -4405.3258   -4807.3968            0    1434.7225    20.068532    19.970751    21.117717    8463.6356    1165.4696    2791.7981    346.89993    79.212538    534.98092    522.74155   -4228.2331 
 9192000    212.90312   -4817.1241   -4406.5225   -4817.1241            0    739.65304     20.21162    20.104459    20.867484    8479.3702   -551.49559    1406.2003    1364.2544    765.25683    756.43419     268.5284   -4315.0548 
 9193000    198.03553   -4791.0547   -4409.1266   -4791.0547            0    1143.6061     19.98528    20.053028    21.248446    8515.6416    1083.8216    1397.7569    949.23982   -387.85254   -394.65148   -753.75144      -4267.1 
 9194000    213.93904   -4803.6168   -4391.0174   -4803.6168            0     1454.896    19.904563    20.302528    20.838431    8421.0798     2753.312   -442.40237    2053.7784    -49.62035    537.46655    396.28473   -4212.3375 
 9195000    211.16494    -4817.903   -4410.6536    -4817.903            0    1259.8675    20.071469    20.178275    21.001477    8505.7581    1597.9993    989.77453    1191.8287    70.799209   -406.40469    -1264.356   -4254.3699 
 9196000    206.62664   -4819.8516   -4421.3548   -4819.8516            0    1123.5434    20.154463    20.047566    21.026095    8495.5497      -386.65    3174.9003    582.37983    151.48642   -188.21903   -105.25851    -4282.149 
 9197000    211.62709   -4822.4231   -4414.2824   -4822.4231            0         1486    20.172854    20.018276    20.930641    8452.3324    59.060962    2577.7009    1821.2382   -218.19234    127.19876   -544.76092   -4231.1053 
 9198000    209.74514   -4814.4943   -4409.9831   -4814.4943            0    1194.9098    20.251882      20.0234    20.944553    8493.2576    383.11951    2692.5417    509.06823      374.086    869.45707    470.06964   -4261.9751 
 9199000     216.8644   -4808.6657   -4390.4244   -4808.6657            0    3585.2079     19.83011    20.111291    20.946556    8353.6774     4794.224    2902.7962    3058.6034    35.404629   -615.28632   -233.16486   -3953.6392 
 9200000      203.417   -4820.4951   -4428.1884   -4820.4951            0    1565.3108    20.100418    20.060624    21.051112    8488.3754       2153.4    963.90018    1578.6322    146.16855    696.83866    457.54661   -4234.4119 
 9201000    204.76578   -4801.8183   -4406.9103   -4801.8183            0   -57.385452    20.353914    20.217047    20.721734    8526.9113   -1692.1443    322.50405    1197.4839   -77.637839   -1005.2989   -517.05922   -4414.0465 
 9202000    206.05201   -4803.9918   -4406.6031   -4803.9918            0    1957.9447    20.226968    19.770052    21.091683    8434.3153    3089.1315    1270.9383    1513.7642    406.19749   -1254.0003    372.68912   -4165.7645 
 9203000    200.70318   -4820.6594   -4433.5864   -4820.6594            0    279.44723    20.237338    20.222106    20.893042    8550.3018    1354.8933   -2043.9213    1527.3697   -182.92251   -791.13464    866.60844   -4398.7401 
 9204000    201.35479   -4823.2944   -4434.9648   -4823.2944            0    825.73323    20.088393     20.14422    20.927966    8468.8158    1165.5906    802.52508    509.08403    -449.8679    -952.9007     945.3671   -4332.9793 
 9205000    202.00358   -4830.7525   -4441.1716   -4830.7525            0    1540.7524    20.069809    19.903352    21.101519    8429.1384    3405.4485    573.34088    643.46785   -161.65054    81.880191   -1729.0833   -4251.7664 
 9206000    197.63433   -4809.3898   -4428.2353   -4809.3898            0    3112.7266     20.04074     19.92282    21.007814    8387.7491    3684.7428    2737.0644    2916.3726    23.291884    26.452825    391.99565   -4047.4657 
 9207000    203.71628   -4808.3019   -4415.4179   -4808.3019            0    1690.6556    20.142543    20.113945    20.886186     8461.955    570.48388    1478.9548    3022.5281    89.491552    25.559568   -245.05709   -4206.7759 
 9208000    206.76631   -4802.9692    -4404.203   -4802.9692            0    2747.7827    19.919088    19.902544    21.158824    8388.2155    3026.4688    4182.3271    1034.5523    316.51059   -19.355165   -140.30936   -4068.0571 
 9209000    202.29843   -4804.1984   -4414.0488   -4804.1984            0    2449.9397    20.054526    20.187395    20.823419    8430.3331    3197.4566    1212.0443    2940.3182    352.63194     1404.294   -187.99157   -4112.8342 
 9210000    201.95444   -4778.8911   -4389.4049   -4778.8911            0    847.21325    20.197938     20.17814    20.820965     8485.726    778.64243    280.06001    1482.9373   -550.14681     1891.287   -1109.1917   -4284.5575 
 9211000    211.23511    -4823.703   -4416.3183    -4823.703            0    692.58144    20.182049    19.931097    21.241316    8544.3275   -90.665671    2014.1602    154.24983   -180.27613    653.67943    438.35943   -4330.0156 
 9212000    208.94114   -4815.5738   -4412.6132   -4815.5738            0    2254.4813    19.953475    20.132117    20.996614    8434.4591    2762.8886    2684.1179    1316.4374   -140.29458    560.77332    21.182169   -4135.2941 
 9213000    220.06347   -4816.7997   -4392.3888   -4816.7997            0    1862.1218    20.091845     20.29376    20.794132    8478.5803    1215.4787     2179.389    2191.4976   -510.89469     121.4352   -945.13276   -4162.1348 
 9214000     215.5903   -4824.2289   -4408.4449   -4824.2289            0    2483.6288     20.03379    20.075741    20.990675    8442.3063    2956.6343    2098.1851    2396.0669    228.24293    403.88086    1100.0574   -4102.6546 
 9215000    210.83055   -4860.8298   -4454.2253   -4860.8298            0    2469.5983    19.893774     20.12022    21.077588    8436.6654    2087.5125    3566.7518    1754.5306   -352.47877    554.01531     358.4284   -4150.3657 
 9216000     202.7042   -4816.2627   -4425.3306   -4816.2627            0    1863.7937    20.028828    20.245295    20.728504    8405.1917    1383.2058    1640.8615    2567.3138    -114.5589    543.22065    828.58731   -4196.8647 
 9217000    203.17139   -4832.7438   -4440.9107   -4832.7438            0     1272.507     20.11902    19.953944    21.084275    8464.3623    1036.6436    1488.2288    1292.6486   -154.94769    236.48521    -176.1272   -4283.8273 
 9218000    212.55163   -4804.0282   -4394.1045   -4804.0282            0     2688.952    19.967832    20.108976    21.119984    8480.3633    3017.2315    1703.0568    3346.5678   -99.113072   -555.59878    127.78704   -4061.5419 
 9219000    197.49888    -4785.845   -4404.9518    -4785.845            0    2269.7187    20.234418    20.212978    20.683902    8459.6714    1739.5941    1571.5754    3497.9867    278.72866    391.09242   -1001.1333   -4124.9238 
 9220000    200.96442   -4821.8757   -4434.2989   -4821.8757            0     2459.843    20.090139    19.968671    21.045533    8442.9077    1317.1234    4102.1665    1960.2392   -532.84113    472.70856   -606.36416   -4131.4156 
 9221000    199.72366   -4805.7963   -4420.6124   -4805.7963            0    1221.8427    20.035643    20.201297    20.986585     8494.236    1185.4861     719.3947    1760.6474   -225.98339   -564.65786   -253.17494   -4269.2509 
 9222000    211.98892   -4842.6311   -4433.7927   -4842.6311            0    1424.9509    20.000517    20.088752    21.103443    8479.0557    2262.1849    1595.4089     417.2588    -553.1923    85.788648    822.29698   -4257.5856 
 9223000      203.562   -4823.2542   -4430.6677   -4823.2542            0    1182.7408     20.17228    20.056218    20.824397    8425.1273    340.13949    1887.5264    1320.5564    54.667642   -324.48047    917.48652   -4285.3422 
 9224000    205.78618   -4814.5627   -4417.6868   -4814.5627            0    1719.9105     20.13683    20.111303    20.837588    8438.7628    617.90408    3113.9009    1427.9266   -398.58872   -474.65057     -244.948   -4206.0162 
 9225000    209.03306   -4833.5045   -4430.3666   -4833.5045            0    3357.7705    19.818097     20.07461    21.159255    8418.0099    4752.9477    2109.5588     3210.805    211.75703   -1170.9522   -438.49668   -4018.1397 
 9226000    202.90231   -4799.9499   -4408.6358   -4799.9499            0    1687.8402    19.929421    20.315998    20.728651    8392.7423     1598.323    1006.4183    2458.7792   -311.05658   -892.56661    171.68825   -4202.0449 
 9227000    215.87259   -4783.6074    -4367.279   -4783.6074            0    267.76349    20.179061    20.100983    21.138051    8573.9942    367.08342    11.383966    424.82307     117.4406   -562.73145   -326.92504   -4333.7971 
 9228000    221.79219   -4824.7586   -4397.0137   -4824.7586            0    1096.5933    20.171194    19.995109    20.959909    8453.6601    1268.2665    435.55049    1585.9628   -132.42484    262.15363    -768.8179   -4261.8169 
 9229000    212.92002     -4816.84   -4406.2059     -4816.84            0    1631.4411     20.24961    20.150316    20.719158    8454.1629   -555.50357    3793.0632    1656.7639   -466.21525   -72.220754    184.85727   -4205.0568 
 9230000    221.29317   -4814.9317   -4388.1492   -4814.9317            0    1241.1015    20.070132    20.164433    20.976914    8489.4168    1611.2826    393.29769    1718.7242    258.48114   -50.011722   -32.656866   -4234.4891 
 9231000    216.30195    -4809.912   -4392.7555    -4809.912            0    1597.7465    20.173608    19.943406    21.117671    8496.2822     550.2233    2794.1279    1448.8883   -339.36031   -468.35527     233.2216   -4194.7794 
 9232000     211.7538   -4812.6992   -4404.3142   -4812.6992            0    1869.9185    20.146362    20.210994    20.824085    8479.1092    410.97226    2899.3132    2299.4701   -404.88322   -528.29768    1095.4735   -4173.0817 
 9233000    207.39404   -4820.2885   -4420.3116   -4820.2885            0    1399.3077    20.054741    20.067407    21.106904    8494.4031    13.240321    2233.3236    1951.3591    469.53811   -77.513887    222.68287   -4246.9624 
 9234000    217.11563   -4810.0902   -4391.3644   -4810.0902            0    1669.0537    20.180847    20.089176    20.946101    8491.8967    1435.1919    1916.3597    1655.6096   -552.59482    349.07608    211.00066   -4184.6595 
 9235000     200.9405   -4818.0612   -4430.5305   -4818.0612            0    1000.3373    20.300997    20.044335    20.975883    8535.5057   -71.810184    1446.6095    1626.2125    872.95957    365.01971    2019.4245   -4306.0069 
 9236000    199.04839   -4816.1133   -4432.2318   -4816.1133            0    2536.7408    19.906237    20.170573    21.015219    8438.0352    4653.7714    98.462625    2857.9884   -555.28446    480.55853    180.98138   -4120.0602 
 9237000    213.97237   -4832.9157    -4420.252   -4832.9157            0    1875.7584    20.072032    20.085733    20.869994    8413.9778    1860.0393    481.85305    3285.3829    40.616234   -221.39744    275.11364   -4190.0791 
 9238000    211.74335   -4807.1049   -4398.7401   -4807.1049            0    3060.4452    19.839382    20.046797    21.260475    8455.6323    3739.4896    2860.3444    2581.5015   -29.895694    -355.3012    553.66159    -4021.336 
 9239000    203.52247   -4815.6084   -4423.0982   -4815.6084            0    1298.6533    20.148041    20.204519     20.94147    8524.8843    890.97485    849.01613    2155.9688    25.487455     645.4514     324.2945   -4261.6409 
 9240000    218.74377   -4828.0854   -4406.2196   -4828.0854            0    1826.3016    20.119852    19.826505    21.129609     8428.735    698.55678     1946.607     2833.741   -401.31854    842.52107   -194.71406   -4181.7225 
 9241000    193.82158    -4807.985   -4434.1838    -4807.985            0    676.53996    20.063937    20.229486    21.062176     8548.782    1498.7345   -358.25032    889.13574   -54.525443   -545.34149   -757.75602   -4349.8361 
 9242000    215.43059   -4826.4908   -4411.0148   -4826.4908            0    2335.9607    20.064668    20.380227    20.588124    8418.9471    3098.9892    669.90358    3238.9893    75.530477    727.39957   -227.13042   -4124.2016 
 9243000    217.79647   -4816.7725   -4396.7337   -4816.7725            0    2235.8905    19.880462    20.253943    20.949768    8435.5862    3504.5799    982.86874    2220.2228   -471.93951   -497.87301   -143.08497   -4121.6647 
 9244000    213.69564   -4811.7247   -4399.5946   -4811.7247            0    1421.9477    20.017448    20.052546    21.167986    8496.8465    2510.3875    1081.8245    673.63121   -17.394386    37.551228    961.54408     -4223.39 
 9245000    222.56854   -4811.0421   -4381.7999   -4811.0421            0    1415.6064    20.214546     20.10048    20.743953    8428.7262    1772.5435    704.51651    1769.7592   -48.491396    748.04456   -195.21027   -4207.7875 
 9246000    219.29613   -4823.6211     -4400.69   -4823.6211            0    1125.4333    20.053617    20.005579    21.040238    8441.0114    1002.8377    1790.5645    582.89782   -577.79918    513.25974     1230.625   -4262.1453 
 9247000    201.12485    -4798.894   -4411.0078    -4798.894            0    1494.6013    20.091906    20.153042    20.967494    8490.0114    1996.6461    691.56508    1795.5927    42.396227   -495.73876   -1381.5069   -4225.9491 
 9248000    214.33752   -4810.8323   -4397.4643   -4810.8323            0    2055.3846    20.089396    19.942686    21.175548    8483.6978    1688.2239    2160.5474    2317.3827    238.08509   -221.07237    754.29049   -4143.1598 
 9249000    195.30133   -4803.9177   -4427.2627   -4803.9177            0    1677.1923    20.256978    19.959774    20.890791    8446.6628    792.47703    2415.0877    1824.0121   -155.42581   -835.57328   -145.68935   -4220.6562 
 9250000    212.96246   -4789.3359   -4378.6199   -4789.3359            0    1781.0734    20.219542     20.02965    20.967625    8491.6857    1466.1341    1967.8493    1909.2367   -799.78339    -435.4445    809.79675   -4158.0472 
Loop time of 357.641 on 64 procs for 250000 steps with 972 atoms

Performance: 120.791 ns/day, 0.199 hours/ns, 699.024 timesteps/s
193.7% CPU use with 32 MPI tasks x 2 OpenMP threads

MPI task timing breakdown:
Section |  min time  |  avg time  |  max time  |%varavg| %total
---------------------------------------------------------------
Pair    | 25.468     | 35.203     | 41.664     |  68.2 |  9.84
Bond    | 1.0779     | 1.2351     | 1.4799     |   8.7 |  0.35
Kspace  | 160.41     | 167.52     | 177.22     |  32.4 | 46.84
Neigh   | 1.6325     | 1.6815     | 1.7221     |   2.2 |  0.47
Comm    | 62.45      | 64.947     | 67.422     |  15.5 | 18.16
Output  | 0.54541    | 0.54575    | 0.54713    |   0.0 |  0.15
Modify  | 68.761     | 70.334     | 74.054     |  12.6 | 19.67
Other   |            | 16.17      |            |       |  4.52

Nlocal:        30.3750 ave          35 max          26 min
Histogram: 2 1 5 4 5 5 4 2 2 2
Nghost:        2556.41 ave        2597 max        2519 min
Histogram: 1 2 4 8 3 5 1 5 2 1
Neighs:        9289.53 ave       11621 max        7442 min
Histogram: 2 6 2 5 5 3 3 3 0 3

Total # of neighbors = 297265
Ave neighs/atom = 305.82819
Ave special neighs/atom = 2.0000000
Neighbor list builds = 5379
Dangerous builds = 0

unfix		3
unfix		2
unfix		1

write_data	data.final.${pid}
write_data	data.final.1
System init for write_data ...
PPPM initialization ...
  extracting TIP4P info from pair style
  using 12-bit tables for long-range coulomb (../kspace.cpp:340)
  G vector (1/distance) = 0.37182824
  grid = 24 24 25
  stencil order = 5
  estimated absolute RMS force accuracy = 0.0034791247
  estimated relative force accuracy = 1.0477281e-05
  using double precision FFTW3
  3d grid and FFT values/proc = 3458 576
Last active /omp style is kspace_style pppm/tip4p/omp
WARNING: Not all mixed pair coeffs generated from mixing. Use write_data with 'pair ij' option to store all pair coeffs. (../write_data.cpp:312)

write_restart   restart.lmp.${pid}
write_restart   restart.lmp.1
System init for write_restart ...
PPPM initialization ...
  extracting TIP4P info from pair style
  using 12-bit tables for long-range coulomb (../kspace.cpp:340)
  G vector (1/distance) = 0.37182824
  grid = 24 24 25
  stencil order = 5
  estimated absolute RMS force accuracy = 0.0034791247
  estimated relative force accuracy = 1.0477281e-05
  using double precision FFTW3
  3d grid and FFT values/proc = 3458 576
Last active /omp style is kspace_style pppm/tip4p/omp
Total wall time: 0:05:57
