LAMMPS (30 Jul 2021)
  using 1 OpenMP thread(s) per MPI task
package omp 0
using multi-threaded neighbor list subroutines
echo both

include		in.partitions
variable        pid world 0
include		in.temp
variable        temperature equal 265.30
variable	tempDamp equal 100.0
include		in.pressure
variable        pressure equal 9125.0
variable        pressureDamp equal 1000.0 # This is 1 ps
include		in.seed
variable        seed world 745823

units		real
atom_style	full
read_restart	restart.lmp.${pid}
read_restart	restart.lmp.0
Reading restart file ...
  restart file = 30 Jul 2021, LAMMPS = 30 Jul 2021
  restoring atom style full from restart
  orthogonal box = (0.63013017 1.8337414 0.76875734) to (17.577442 21.795436 21.444438)
  4 by 4 by 4 MPI processor grid
  restoring pair style lj/cut/tip4p/long/omp from restart
  restoring bond style harmonic/omp from restart
  restoring angle style harmonic/omp from restart
  864 atoms
  576 bonds
  288 angles
Finding 1-2 1-3 1-4 neighbors ...
  special bond factors lj:    0        0        0       
  special bond factors coul:  0        0        0       
     2 = max # of 1-2 neighbors
     1 = max # of 1-3 neighbors
     1 = max # of 1-4 neighbors
     2 = max # of special neighbors
  special bonds CPU = 0.703 seconds
  read_restart CPU = 0.901 seconds
include 	in.setup
variable	out_freq equal 1000
variable	out_freq2 equal 10000
variable	out_freq3 equal 1000

timestep	2.0

neigh_modify    delay 7 every 1

include		in.tip4p
# This is TIP4P/Ice

# create groups ###
group ox type 2
288 atoms in group ox
group hy type 1
576 atoms in group hy

# set charges - beside manually ###
set group ox charge -1.1794
Setting atom values ...
  288 settings made for charge
set group hy charge 0.5897
Setting atom values ...
  576 settings made for charge

# ### TIP3P Potential Parameters ###
pair_style lj/cut/tip4p/long/omp 2 1 1 1 0.1577 8.5
pair_coeff 1 1*2 0.000 0.000
pair_coeff 2 2 0.21084 3.1668
bond_style  harmonic
bond_coeff  1 450 0.9572
angle_style harmonic
angle_coeff 1 55 104.52
kspace_style pppm/tip4p/omp 1.0e-5
pair_modify tail yes

thermo          ${out_freq}
thermo          1000
thermo_style    custom step temp pe etotal epair emol press lx ly lz vol pxx pyy pzz pxy pxz pyz enthalpy

restart 	${out_freq3} restart.lmp.${pid} restart2.lmp.${pid}
restart 	1000 restart.lmp.${pid} restart2.lmp.${pid}
restart 	1000 restart.lmp.0 restart2.lmp.${pid}
restart 	1000 restart.lmp.0 restart2.lmp.0


include         in.dump
dump            myDump all atom ${out_freq2} dump.water.${pid}
dump            myDump all atom 10000 dump.water.${pid}
dump            myDump all atom 10000 dump.water.0
dump            myDump2 all dcd ${out_freq2} dump.dcd
dump            myDump2 all dcd 10000 dump.dcd
dump_modify     myDump append yes
dump_modify     myDump2 append yes


variable natoms 	equal  "count(all)"                        # NUMBER ATOMS
variable H      	equal  "enthalpy/v_natoms"                 # ENTHALPY-per-atom
variable Vol      	equal  "vol/v_natoms"                 # volume-per-atom
fix AVG all 		ave/time ${out_freq} 1 ${out_freq} v_Vol v_H file vol_enthalpy.dat
fix AVG all 		ave/time 1000 1 ${out_freq} v_Vol v_H file vol_enthalpy.dat
fix AVG all 		ave/time 1000 1 1000 v_Vol v_H file vol_enthalpy.dat


timer           timeout 23:50:00 every 1000
New timer settings: style=normal  mode=nosync  timeout=23:50:00

fix 		1 all shake 1e-6 200 0 b 1 a 1
       0 = # of size 2 clusters
       0 = # of size 3 clusters
       0 = # of size 4 clusters
     288 = # of frozen angles
  find clusters CPU = 0.025 seconds
fix             2 all nph iso ${pressure} ${pressure} ${pressureDamp}
fix             2 all nph iso 9125 ${pressure} ${pressureDamp}
fix             2 all nph iso 9125 9125 ${pressureDamp}
fix             2 all nph iso 9125 9125 1000
fix             3 all temp/csvr ${temperature} ${temperature} ${tempDamp} ${seed}
fix             3 all temp/csvr 265.3 ${temperature} ${tempDamp} ${seed}
fix             3 all temp/csvr 265.3 265.3 ${tempDamp} ${seed}
fix             3 all temp/csvr 265.3 265.3 100 ${seed}
fix             3 all temp/csvr 265.3 265.3 100 745823

run             250000
PPPM initialization ...
  extracting TIP4P info from pair style
  using 12-bit tables for long-range coulomb (../kspace.cpp:340)
  G vector (1/distance) = 0.37439611
  grid = 24 24 24
  stencil order = 5
  estimated absolute RMS force accuracy = 0.0031456894
  estimated relative force accuracy = 9.4731501e-06
  using double precision FFTW3
  3d grid and FFT values/proc = 2535 216
Last active /omp style is kspace_style pppm/tip4p/omp
Neighbor list info ...
  update every 1 steps, delay 7 steps, check yes
  max neighbors/atom: 2000, page size: 100000
  master list distance cutoff = 10.8154
  ghost atom cutoff = 10.8154
  binsize = 5.4077, bins = 4 4 4
  1 neighbor lists, perpetual/occasional/extra = 1 0 0
  (1) pair lj/cut/tip4p/long/omp, perpetual
      attributes: half, newton on, omp
      pair build: half/bin/newton/omp
      stencil: half/bin/3d
      bin: standard
Per MPI rank memory allocation (min/avg/max) = 9.237 | 9.240 | 9.244 Mbytes
Step Temp PotEng TotEng E_pair E_mol Press Lx Ly Lz Volume Pxx Pyy Pzz Pxy Pxz Pyz Enthalpy 
 8500000    270.48756   -3838.0478   -3374.4414   -3838.0478            0    9534.2676    16.947312    19.961695    20.675681    6994.5224     9594.933    7606.8668    11401.003    1698.6968   -776.41654    724.37663   -2401.8704 
 8501000     268.1387   -3867.8287   -3408.2481   -3867.8287            0    8151.9735    16.905496    19.912442    20.624666    6942.8755    7444.7543    9895.9317    7115.2347   -722.06128   -875.66638   -441.06113   -2582.8224 
 8502000    270.75458   -3854.1085   -3390.0445   -3854.1085            0    8358.7086    16.943968    19.957757    20.671602    6990.3833    9951.3834    8078.7681    7045.9743    224.63979    23.502964    1151.5964   -2537.8944 
 8503000    260.41129   -3836.3138   -3389.9777   -3836.3138            0    8850.0992    16.968746    19.986941     20.70183    7021.0946    8579.8969    9437.0978    8533.3029   -818.06742    1192.6534    755.82229   -2483.7677 
 8504000    248.67917   -3864.6484   -3438.4208   -3864.6484            0    7871.3952    16.970089    19.988523    20.703469    7022.7621    9127.5565    5769.9871    8716.6421   -925.38572    1293.3021   -491.29186   -2632.2343 
 8505000    267.04755   -3815.6351   -3357.9247   -3815.6351            0     7559.753    16.963726    19.981028    20.695706    7014.8649    7318.9826    7712.7086    7647.5678    891.77444    1307.3562   -201.63206   -2584.5271 
 8506000    271.18582   -3838.3549   -3373.5516   -3838.3549            0    8242.6097     17.00321    20.027535    20.743876    7063.9614    10060.322     6836.359    7831.1483   -93.243278   -704.58928    891.45126   -2524.3928 
 8507000    262.32585   -3844.2161   -3394.5986   -3844.2161            0    8979.1781    16.986797    20.008203    20.723853    7043.5252    8182.0389    9060.3342    9695.1612   -954.73498   -95.194069   -1981.8498   -2472.2341 
 8508000    266.45924   -3834.3063   -3377.6043   -3834.3063            0    10937.823    16.960515    19.977246    20.691789    7010.8825    10316.779    9547.9287    12948.762   -1183.2511    1640.0071   -456.55196   -2259.2498 
 8509000    268.51773   -3821.0081   -3360.7779   -3821.0081            0     8796.023    16.942308    19.955801    20.669577    6988.3288    8237.5801    9522.9271    8627.5619   -248.62057   -1413.4176    1247.6866   -2464.3083 
 8510000    264.15166   -3836.0668   -3383.3199   -3836.0668            0    7237.7587    17.062134     20.09694    20.815764    7137.6565    8271.8203    6451.5006    6989.9553    -1191.537    -1071.132   -1432.9238   -2629.9025 
 8511000    267.06585    -3843.195   -3385.4532    -3843.195            0    9399.4576    16.963781    19.981093    20.695773    7014.9334    10308.039    8072.4161    9817.9178   -1311.7135   -1561.7299    1855.1882    -2423.836 
 8512000    271.10562   -3818.0481   -3353.3823   -3818.0481            0    8852.3148      16.9663    19.984061    20.698847    7018.0595    10275.851     8265.665     8015.428    296.86748    146.38132   -571.62648   -2447.3373 
 8513000    276.43559   -3821.2424   -3347.4413   -3821.2424            0     10439.42    16.954226    19.969838    20.684116     7003.086    7944.4296    12531.707    10842.123    429.15468   -962.95261   -949.69759   -2281.2338 
 8514000    252.15161   -3832.9405   -3400.7613   -3832.9405            0    8660.0088     16.98983    20.011776    20.727553    7047.2989    7380.9129    8108.4027    10490.711   -476.38502   -889.75726    670.47324   -2510.7061 
 8515000    253.77289   -3802.3503   -3367.3923   -3802.3503            0    9136.2682    16.943427    19.957119    20.670941    6989.7131    9176.7037    9296.3713    8935.7296   -1878.5027   -1231.7452    1154.4048   -2436.0612 
 8516000    274.80357   -3840.2372   -3369.2333   -3840.2372            0     12410.96    16.888964    19.892969    20.604497     6922.527    12940.451    10775.102    13517.326   -2315.7299    255.13079   -1278.7745   -2116.2482 
 8517000    269.12998   -3850.1977   -3388.9181   -3850.1977            0    9538.4164    16.936571    19.949044    20.662577     6981.232    10332.321    8126.6358    10156.293   -320.76183   -1337.3047    1707.0131   -2417.7727 
 8518000    250.71071   -3871.0358   -3441.3262   -3871.0358            0    10709.062    16.866874     19.86695    20.577547    6895.3987    11086.206    9513.4462    11527.534    480.25473   -1818.1838   -26.082201   -2364.3981 
 8519000     262.6289     -3852.36    -3402.223     -3852.36            0    9052.7832    16.903705    19.910332    20.622481    6940.6688    7691.6144    8436.9893    11029.746    1259.7956    118.40739    226.38651   -2485.8774 
 8520000    265.11597   -3887.8813   -3433.4816   -3887.8813            0    6146.4836    16.985017    20.006107    20.721681    7041.3117     6631.137    6194.3067    5614.0071   -63.807374   -486.90222    199.31249   -2802.2973 
 8521000    260.94693   -3862.2805   -3415.0264   -3862.2805            0     8944.513    16.948058    19.962574    20.676592    6995.4465    8825.6659    10498.379    7509.4941    725.47515   -829.22764    -2152.022   -2502.4946 
 8522000    274.94917   -3826.4668   -3355.2133   -3826.4668            0    9688.8893    16.894668    19.899687    20.611455    6929.5421    11255.427    8378.0448    9433.1961    522.71896    -54.39764   -356.20076   -2376.0516 
 8523000    247.24716   -3842.8866   -3419.1134   -3842.8866            0    9660.0947    16.949559    19.964341    20.678422    6997.3043    9593.5162    8981.8236    10404.944    752.99595    320.49996    1566.4179   -2433.3152 
 8524000    277.85713   -3822.0747   -3345.8371   -3822.0747            0    9117.3762    16.958911    19.975357    20.689832     7008.894    7534.4849    8967.9847    10849.659   -432.44106   -371.33062    338.68087   -2413.8814 
 8525000    262.16998   -3846.8179   -3397.4676   -3846.8179            0     8906.837    16.914028    19.922491    20.635075    6953.3925     8852.298    10209.697     7658.516   -557.03288    1437.8336    750.01799   -2494.2422 
 8526000    289.40474   -3859.1731   -3363.1433   -3859.1731            0    8359.0065    16.967287    19.985223    20.700051    7019.2844     8642.503    9623.8457    6810.6708   -630.65037    1921.2125    393.11535   -2507.4396 
 8527000    276.01381    -3851.697   -3378.6188    -3851.697            0    9923.7404    16.876224    19.877963    20.588954    6906.8727    9671.6191    11923.472    8176.1297    613.37543    657.42574   -122.75406   -2379.0039 
 8528000      256.535   -3873.8203   -3434.1281   -3873.8203            0    8697.4536     16.90971    19.917405    20.629807    6948.0684    9087.1282    7317.7767    9687.4558    254.53293   -103.97247     505.9447   -2552.8112 
 8529000    251.27809    -3859.074    -3428.392    -3859.074            0    8332.6178    16.874434    19.875854     20.58677     6904.675     10703.38     5839.927    8454.5464    1262.0582   -558.06397   -342.97332   -2589.3173 
 8530000    278.09655   -3840.9592   -3364.3113   -3840.9592            0    10157.266    16.879023     19.88126    20.592369    6910.3097    10329.642    7662.1259    12480.032   -381.90196   -106.13895    284.46749   -2340.6642 
 8531000    279.92468   -3829.0342   -3349.2529   -3829.0342            0    8446.8735    16.928521    19.939562    20.652756    6971.2817    9411.4596    8215.7463    7713.4145   -415.88669   -309.38387   -1167.3398   -2490.4678 
 8532000    264.41612   -3850.2727   -3397.0725   -3850.2727            0    6719.3633    16.905977    19.913007    20.625252    6943.4671      6687.85    7506.2719    5963.9681   -298.20971    1084.3864   -385.35531   -2716.6473 
 8533000    278.56407   -3889.7452   -3412.2959   -3889.7452            0    9244.1614    16.947208    19.961572    20.675554    6994.3936    11036.614    7389.8214    9306.0487   -44.063914   -1519.9876    732.83951   -2469.3354 
 8534000    248.41423   -3846.7219   -3420.9484   -3846.7219            0    10696.761    16.885595       19.889    20.600386     6918.384    10253.683    11740.081    10096.519    5.8855418   -1619.4361    1535.2415   -2341.6716 
 8535000    251.73771   -3868.4707   -3437.0009   -3868.4707            0    9290.2286     16.95778    19.974025    20.688452    7007.4918    9750.4037    10212.654    7907.6284    514.30914    586.59957    -63.15796   -2487.5666 
 8536000    260.74693   -3881.3477   -3434.4363   -3881.3477            0    9034.7356    16.920924    19.930614    20.643488    6961.9009    8957.7656    9460.1361    8686.3051    804.24381   -17.983327    886.41779   -2517.1199 
 8537000    272.29908   -3880.7654   -3414.0541   -3880.7654            0    10016.994    16.925082    19.935511     20.64856     6967.034    8043.4517    10277.036    11730.494    699.16991    227.43871    563.09025    -2396.257 
 8538000    263.29505     -3864.24   -3412.9613     -3864.24            0    9041.4842    16.932015    19.943677    20.657019    6975.5995    9648.4388    9273.5226    8202.4912    82.085888    144.54268    -77.48922   -2493.1534 
 8539000    261.68711   -3865.7683   -3417.2455   -3865.7683            0    7499.1241     17.00582     20.03061    20.747061    7067.2158    7070.5189    7641.8124    7785.0411   -748.99404     854.1057   -1876.9831   -2644.3251 
 8540000    264.19929   -3863.0803   -3410.2518   -3863.0803            0    7857.9175    16.935882    19.948231    20.661736    6980.3792    10544.845    6756.8577    6272.0502   -2187.7278    834.14726   -215.84932   -2610.3027 
 8541000    256.67342   -3829.7171   -3389.7876   -3829.7171            0    9457.0085    16.919012    19.928362    20.641155    6959.5412    7819.7512    9205.5749    11345.699   -929.11936    1001.3959   -1591.6185   -2429.9223 
 8542000    264.56467   -3841.0989   -3387.6441   -3841.0989            0     11885.17    16.886887    19.890523    20.601963    6919.9731     14047.21    12389.982    9218.3184    2006.6976   -429.77625    -1180.909   -2188.1843 
 8543000    268.70736    -3816.966   -3356.4108    -3816.966            0    9598.8154    16.906134    19.913193    20.625444    6943.6608     10212.55    8937.7344    9646.1618    1180.8438    -1284.036     -870.822   -2384.3755 
 8544000    273.09123   -3845.4141   -3377.3451   -3845.4141            0    9318.9685    16.901535    19.907775    20.619833    6937.9956    10408.676    9268.6965    8279.5329    36.231627   -606.94927   -426.84702   -2434.4188 
 8545000    262.10766   -3887.6781   -3438.4345   -3887.6781            0    9123.2044    16.914632    19.923202    20.635812    6954.1373    6710.1851    9600.9917    11058.436    1521.2002   -249.57152   -1462.4172   -2513.1686 
 8546000    274.33973   -3870.6756   -3400.4667   -3870.6756            0    10350.568    16.954117    19.969711    20.683984    7002.9519    12246.131    9249.3734    9556.1998    706.00313    200.78607   -431.52025   -2343.3542 
 8547000    262.72226   -3893.7844   -3443.4874   -3893.7844            0     9021.392    17.002634    20.026857    20.743174    7063.2444    9380.8416    8067.5688    9615.7656   -312.88006   -818.78887     213.8616   -2514.1923 
 8548000    261.26039   -3839.3955   -3391.6041   -3839.3955            0    11259.718    16.883734    19.886808    20.598116    6916.0968    12265.052    11533.227    9980.8751    1303.1608    660.91326   -182.67851   -2255.9019 
 8549000    279.60997   -3867.1523   -3387.9103   -3867.1523            0    9294.0209     16.93604    19.948418    20.661929     6980.575    9290.2722    9847.2058    8744.5847   -1364.8321   -646.90524    207.23373   -2441.7369 
 8550000    267.29134   -3855.0749   -3396.9467   -3855.0749            0    10566.281    16.934888    19.947062    20.660524    6979.1513      8753.83    10838.949    12106.065    684.64197     1247.234   -1355.0258   -2321.4709 
 8551000    268.27468   -3829.6157   -3369.8021   -3829.6157            0     8416.405    16.981526    20.001994    20.717422    7036.9701    6984.9798    9186.5693    9077.6661   -800.77694    1098.8513    47.275776   -2506.0518 
 8552000    265.07581   -3866.7763   -3412.4454   -3866.7763            0    11392.788    16.937831    19.950528    20.664115    6982.7904     11324.54    10435.164    12418.662   -1745.0102     1443.331   -1702.7797   -2252.2399 
 8553000    262.89968   -3865.8756   -3415.2746   -3865.8756            0      9150.63    16.923603    19.933769    20.646756    6965.2074    9726.4273     9891.648    7833.8145   -609.45889   -1419.2952    196.54857   -2485.7499 
 8554000    275.86344   -3865.1173   -3392.2968   -3865.1173            0    7925.3849    16.932552    19.944309    20.657674    6976.2626    8433.7075    8940.0798    6402.3674   -1201.9271   -1271.9622   -184.55288   -2585.9552 
 8555000    266.57443   -3835.3844    -3378.485   -3835.3844            0    10252.266    16.886259    19.889783    20.601197    6919.2009    10928.723    9505.2179    10322.858    1518.9179    942.56071     575.2143   -2343.9345 
 8556000    268.58503   -3811.6903   -3351.3448   -3811.6903            0     9535.558    16.925513    19.936018    20.649086    6967.5661     7316.456    9582.0679     11708.15   -996.58304    2048.3059     705.4115   -2382.3909 
 8557000    264.67676   -3833.2011   -3379.5542   -3833.2011            0     9741.363    16.902303     19.90868     20.62077    6938.9417    8165.4242    10613.243    10445.422    1113.4208   -675.32192   -534.09539   -2393.7541 
 8558000    258.22526   -3839.3574   -3396.7681   -3839.3574            0    6837.1697    17.006803    20.031767    20.748259    7068.4403    6238.4681    5949.4731    8323.5679   -679.66078    580.74867    360.33378   -2691.9519 
 8559000    275.17795   -3843.8888   -3372.2432   -3843.8888            0    8219.2288    16.907412    19.914698    20.627003    6945.2353    8521.0841    8151.2492    7985.3531    800.51116   -395.16119      790.628   -2539.7246 
 8560000    263.49522   -3868.9214   -3417.2996   -3868.9214            0    7299.6178    16.946508    19.960748      20.6747    6993.5264    6593.4463      7363.14    7942.2672    490.55751   -1296.7446    -736.6252   -2672.7867 
 8561000    265.44626   -3834.7902   -3379.8244   -3834.7902            0    9414.7262     16.93137    19.942918    20.656232    6974.8025    8501.6207    9692.8819    10049.676   -1661.1515    -916.5485   -202.48951   -2422.1553 
 8562000     268.4033   -3826.2306   -3366.1965   -3826.2306            0    9909.8151     16.88732    19.891032     20.60249    6920.5044    9635.2967    9767.7329    10326.416      -99.601    1427.3017    1366.1218   -2366.0141 
 8563000    272.70127   -3828.9523   -3361.5517   -3828.9523            0    8850.3046    16.979858     20.00003    20.715387    7034.8972    8493.8395    9314.2224    8742.8518    737.53378   -1349.7921   -499.91121   -2453.5391 
 8564000     264.0698   -3839.2648   -3386.6582   -3839.2648            0     8769.703    16.924374    19.934677    20.647697    6966.1596    8195.3055    9329.4053    8784.3981    758.68851   -1506.4645    974.45772   -2495.7064 
 8565000    255.50965   -3898.4657   -3460.5309   -3898.4657            0    8260.2579    16.930062    19.941376    20.654636    6973.1852    7525.7782    9295.2479    7959.7476   -774.71509    133.05594   -293.32482   -2620.4894 
 8566000    272.82486   -3871.7028   -3404.0903   -3871.7028            0    8730.4577    16.970754    19.989307     20.70428    7023.5878    9550.0866    7709.8863    8931.4003   -417.94375    736.23652    174.18548   -2509.8136 
 8567000    254.24122   -3876.2091   -3440.4484   -3876.2091            0    9987.6941    16.876552    19.878349    20.589354    6907.2747    9527.4578    9926.1769    10509.447   -399.24838  -0.52240375   -640.17325   -2434.3329 
 8568000     265.1824   -3881.0715   -3426.5579   -3881.0715            0    6949.8117    16.965536    19.983161    20.697914    7017.1111    6853.3158    6774.5446    7221.5746    516.29022     365.2037   -387.62787   -2715.3325 
 8569000    245.31256   -3861.0305   -3440.5731   -3861.0305            0    9192.8071    16.825058    19.817696    20.526532    6844.2416    7488.0988    10847.548    9242.7744    -900.3505   -1774.7324    106.96327   -2522.9816 
 8570000    267.20163   -3872.0743   -3414.0999   -3872.0743            0     9042.281    16.912875    19.921133    20.633668    6951.9705    9059.2457    10264.036    7803.5611   -1027.3365    2140.4101    94.348289   -2497.3269 
 8571000    271.40336   -3902.7165   -3437.5404   -3902.7165            0    9134.0673    16.957059    19.973175    20.687572    7006.5972    9609.7356    8770.8583    9021.6081   -734.47885   -224.30423    188.35198   -2504.1846 
 8572000    280.85368   -3822.0533   -3340.6797   -3822.0533            0    7734.1635    17.028406    20.057213    20.774616    7095.4116    5226.7387    8973.0487     9002.703    181.80152   -404.19318   -76.050273   -2540.3539 
 8573000    246.20882   -3850.7782   -3428.7847   -3850.7782            0    9012.3451      16.9704    19.988889    20.703848     7023.148    9582.5907    8301.1718    9153.2727   -82.004382     1041.003   -1987.7482   -2505.6916 
 8574000      274.489   -3891.3447     -3420.88   -3891.3447            0     9514.219    16.956369    19.972363    20.686731    7005.7429    6692.5897    11454.517     10395.55   -615.68649    882.28952    1412.2153   -2448.7972 
 8575000    263.63112   -3852.8639   -3401.0092   -3852.8639            0     9859.729    16.887288    19.890994    20.602452    6920.4655    9171.7615    9114.5103    11292.915   -289.82904    499.52722    692.66836   -2405.8875 
 8576000    252.66398   -3840.3018   -3407.2444   -3840.3018            0    8262.0722     16.99959    20.023271     20.73946    7059.4505     8331.801    9583.9718    6870.4439    589.23415    218.77797    -702.2014    -2556.624 
 8577000    255.27098   -3848.5575   -3411.0318   -3848.5575            0    11543.858    16.896128    19.901407    20.613236     6931.339    10133.699    11462.323    13035.553    1727.9668     -548.647   -427.54832   -2244.1039 
 8578000    283.32993   -3831.1284   -3345.5106   -3831.1284            0    10160.884    16.999207     20.02282    20.738992    7058.9735    11065.827    9990.9959      9425.83   -1908.9119    -371.8679    531.01824    -2299.469 
 8579000    262.77512    -3857.439   -3407.0514    -3857.439            0    9936.9449     16.95344    19.968913    20.683157    7002.1124     10765.36    9191.7479    9853.7265    834.44858    592.20193    1486.9995   -2392.3043 
 8580000    283.99643   -3847.6849   -3360.9248   -3847.6849            0     8188.787    16.980262    20.000506     20.71588    7035.3995    9117.1859    7751.8322    7697.3428    674.77907    732.93244    36.148943   -2520.7218 
 8581000    270.03442   -3857.7092   -3394.8794   -3857.7092            0    8680.1624    16.936623    19.949105    20.662641    6981.2962    9784.0375    7865.0519    8391.3978    895.65461   -1349.3003   -2162.3076   -2511.1083 
 8582000    278.29738   -3906.9506   -3429.9584   -3906.9506            0    9570.0392    16.915577    19.924315    20.636965    6955.3029    8755.9665    9886.7363    10067.415    137.14152    809.04194    386.48053   -2459.2123 
 8583000    255.90279   -3893.3173   -3454.7087   -3893.3173            0    7505.5043    16.989097    20.010913    20.726659    7046.3873    9577.3717    6572.4412       6366.7    666.93641    269.71941    258.80897   -2683.4105 
 8584000    269.85699   -3831.5064   -3368.9807   -3831.5064            0    8105.7416    16.963106    19.980299     20.69495    7014.0965    7770.3277    8189.3956    8357.5014    1682.8912    619.03141   -1555.6333   -2539.8169 
 8585000    265.56839   -3891.2895   -3436.1144   -3891.2895            0    7743.6016    16.969231    19.987513    20.702423    7021.6972     8413.577    9077.3135    5739.9144   -103.74607     1584.963   -965.52234   -2643.1367 
 8586000    261.40505   -3860.0285   -3411.9892   -3860.0285            0    6562.3079     16.97829    19.998183    20.713474    7032.9481    7137.6418    6467.0756    6082.2062     621.4831   -105.71803    1941.6294   -2738.9042 
 8587000    279.36954    -3884.511   -3405.6812    -3884.511            0    10547.438    16.861606    19.860744    20.571119    6888.9394    9451.4355    10570.985    11619.893   -694.26233    632.41107   -741.96076        -2346 
 8588000    267.27491   -3838.2423   -3380.1423   -3838.2423            0    10103.969    16.900857    19.906977    20.619006    6937.1606    10997.162    7345.7075    11969.038    31.382752   -388.79827   -570.36413   -2357.9098 
 8589000    267.77268   -3922.1237   -3463.1705   -3922.1237            0     8081.826    16.877462    19.879421    20.590464    6908.3926    6823.3006    7911.2323    9510.9453   -114.84198   -555.16232    -435.0361   -2648.9119 
 8590000    273.43045   -3864.3028   -3395.6524   -3864.3028            0    10533.478    16.834824    19.829199    20.538446    6856.1659    12163.392    10716.338    8720.7032    452.49777   -117.27806    1130.7636   -2342.4083 
 8591000    265.97122   -3890.8504   -3434.9848   -3890.8504            0    8738.2715    16.857896    19.856375    20.566594    6884.3938    8957.2396    8045.9566    9211.6184   -429.57791    1898.2539   -1093.5073   -2557.6464 
 8592000    264.21048   -3832.6307    -3379.783   -3832.6307            0    8593.3741     16.94203    19.955473    20.669237    6987.9844    8402.6696    8051.8714    9325.5814     2930.763   -823.24819    1031.6332     -2504.01 
 8593000    269.47563   -3878.5745   -3416.7025   -3878.5745            0    10403.583    16.855488    19.853538    20.563656    6881.4439     10518.76    8987.2132    11704.776   -602.76525    860.02312   -88.837847   -2372.6114 
 8594000    261.20808   -3845.1763   -3397.4746   -3845.1763            0    9390.8243    16.907006    19.914219    20.626507    6944.7349    9137.6375    10336.292    8698.5431   -342.46921    1833.7042   -174.10817   -2446.3546 
 8595000    278.32404   -3894.7384   -3417.7005   -3894.7384            0    9740.0255    16.902703    19.909152    20.621258    6939.4344    8477.0558    8418.4885    12324.532    1587.7209   -727.79763    -117.2668   -2431.9658 
 8596000    283.15013   -3855.2967    -3369.987   -3855.2967            0    9443.9321     16.84663    19.843105    20.552849    6870.6008    10143.947    6909.5695     11278.28   -991.59118     1204.486   -1243.3825   -2423.6987 
 8597000    273.87401   -3850.1926   -3380.7819   -3850.1926            0    9027.6248    16.956242    19.972214    20.686576    7005.5853    9958.3682    8645.4867    8479.0195    -1293.364    487.95288   -112.52212    -2458.436 
 8598000    251.61095   -3856.5999   -3425.3473   -3856.5999            0    8782.1784    16.946636    19.960898    20.674856    6993.6848     11197.93     8084.005       7064.6    1795.7419   -99.852022    1221.9199   -2529.6027 
 8599000    266.59938   -3848.6585   -3391.7163   -3848.6585            0    9931.6973    16.958279    19.974613    20.689061    7008.1104    9631.5018    10322.499     9841.091      76.3594    925.34542    1294.8893   -2376.6362 
 8600000    266.98953   -3876.2495   -3418.6386   -3876.2495            0    8314.5548    16.929134    19.940284    20.653504     6972.039    8026.1235    8641.1971    8276.3439   -726.44754    778.19469   -516.77898   -2573.2144 
 8601000     267.1567   -3923.4425   -3465.5451   -3923.4425            0    7880.2281    16.952597     19.96792    20.682128    7001.0677    7517.1866    7832.1378    8291.3599   -1030.8624    775.57509    179.63453   -2660.9471 
 8602000      272.523    -3859.761   -3392.6659    -3859.761            0    9491.7523    16.986429     20.00777    20.723404     7043.068    6792.9477    9155.4822    12526.827   -2901.7278    874.79925     1432.767   -2417.7118 
 8603000    270.04509   -3844.3068   -3381.4587   -3844.3068            0    8739.1852    17.001811    20.025887    20.742169    7062.2178    8604.7076     9229.022    8383.8259    804.76266   -209.73579    1051.4453   -2481.3646 
 8604000    274.63015   -3877.9531   -3407.2464   -3877.9531            0    8337.2264    16.942357    19.955858    20.669635    6988.3885    8631.7041    8750.5834    7629.3916    2230.4343   -1024.7656   -581.12248    -2557.529 
 8605000    266.03353   -3820.2799   -3364.3075   -3820.2799            0    10506.502    16.975344    19.994713     20.70988    7029.2878    10380.076    11295.214    9844.2166   -609.40912    403.32602   -44.514709   -2287.2339 
 8606000    259.91078   -3859.9002    -3414.422   -3859.9002            0    9329.8133    16.900008    19.905977     20.61797    6936.1154    6584.3775    10945.902     10459.16    579.20876   -662.90173    261.06764   -2470.6543 
 8607000    248.97097   -3832.1976   -3405.4699   -3832.1976            0    7292.1614    16.967732    19.985747    20.700594    7019.8366    7183.0818    6734.1643     7959.238    372.78137   -576.53984    -966.4016   -2658.9194 
 8608000     258.0439   -3841.4436   -3399.1651   -3841.4436            0    7209.1865      16.9853    20.006439    20.722026    7041.6628    6261.1167    7321.8744    8044.5684   -1138.2034   -197.52501    1935.7861   -2658.8146 
 8609000    266.29941   -3860.5652   -3404.1371   -3860.5652            0    9343.4245    16.925955    19.936539    20.649625    6968.1116    10316.389    8587.8128    9126.0713    15.499959    294.35795   -835.38969   -2454.6325 
 8610000    262.79725   -3868.7826   -3418.3571   -3868.7826            0    7328.2797    17.018904     20.04602    20.763023    7083.5396    5733.2746    9616.6949    6634.8696   -656.58212    59.957814   -1389.2912   -2661.3006 
 8611000    261.43379   -3836.3136    -3388.225   -3836.3136            0    9429.3637    16.949935    19.964784    20.678881    6997.7701    9104.5317    9470.1491    9713.4103    856.50632   -1673.3432     1194.896   -2425.9085 
 8612000    268.69487    -3873.429   -3412.8952    -3873.429            0    9666.6495    16.942127    19.955588    20.669356     6988.105    10880.837    10552.496    7566.6149    134.94003      -377.43   -204.60035    -2427.725 
 8613000    252.25952   -3842.7837   -3410.4195   -3842.7837            0    7272.9051    16.963248    19.980466    20.695123    7014.2729    7599.0519    7112.9387    7106.7247   -343.57515   -640.71671   -1559.3955   -2666.4306 
 8614000    288.40511   -3846.6775    -3352.361   -3846.6775            0    9300.7007     16.88309     19.88605     20.59733    6915.3057    9375.0953    9519.7878    9007.2189   -971.51806    266.27987   -841.52487   -2414.3608 
 8615000    267.22991   -3837.0935   -3379.0706   -3837.0935            0    7190.6051    17.010764    20.036433    20.753093    7073.3813    7329.1706    5896.0116    8346.6331   -651.01512    512.84857   -1202.6335   -2637.3021 
 8616000    256.56424   -3839.8844   -3400.1421   -3839.8844            0    11754.459     16.86656     19.86658    20.577164    6895.0139    11860.504    13378.644    10024.231    772.69891   -1067.2558    615.73347   -2218.1524 
 8617000    242.33254   -3848.9696   -3433.6199   -3848.9696            0     9433.078    16.919216    19.928602    20.641404    6959.7926    7968.5138    8663.8791    11666.841   -1702.3823    1805.2149    353.59792    -2476.149 
 8618000    267.72993   -3877.0088   -3418.1289   -3877.0088            0    8902.5305    16.948041    19.962554    20.676571    6995.4253    8652.1091    8107.7878    9947.6946   -312.50542   -43.365456   -871.15273   -2509.8829 
 8619000    269.74233   -3865.0416   -3402.7125   -3865.0416            0    8412.1171     16.95462    19.970303    20.684597    7003.5745    6842.0384    9126.5358    9267.7773    22.277469    24.787866      1287.11   -2543.4992 
 8620000    262.81481    -3874.265   -3423.8094    -3874.265            0    8602.8271     16.94508    19.959065    20.672958    6991.7586    6454.5793    9505.2748    9848.6273   -205.41805   -1185.9598     -415.247   -2546.5995 
 8621000    264.37944   -3851.0058   -3397.8685   -3851.0058            0    9846.6411     16.88254    19.885402    20.596659    6914.6296    10212.537    8628.4519    10698.935      959.965   -1203.2332   -229.52795   -2404.9058 
 8622000    282.12909   -3843.0796     -3359.52   -3843.0796            0    9247.4868    16.952791    19.968149    20.682366    7001.3088    11206.746    7309.2758    9226.4384    66.485799   -1042.5559    351.58663   -2415.2877 
 8623000    254.50608   -3880.5078   -3444.2931   -3880.5078            0    5968.4784    17.049955    20.082595    20.800905    7122.3825    7420.9913    3964.6291    6519.8147   -76.578213   -1167.9891   -865.06505   -2824.3315 
 8624000    278.53393   -3863.5819   -3386.1843   -3863.5819            0     9339.569    16.956722    19.972779    20.687161      7006.18    10672.749    8525.2267    8820.7313    195.53271    125.04019    2726.7272   -2431.8863 
 8625000    285.62497   -3845.1186   -3355.5671   -3845.1186            0    9567.0733    16.964911    19.982425    20.697152    7016.3358    9195.5634    9907.8769    9597.7796   -925.55277    324.19723    329.02871   -2376.6062 
 8626000    275.48421   -3861.2951   -3389.1246   -3861.2951            0    10299.242    16.861089    19.860136     20.57049    6888.3069    12669.675    9359.3701    8868.6796    840.95782   -1703.1594   -700.57532   -2354.4742 
 8627000     262.8839   -3851.3683   -3400.7943   -3851.3683            0    8889.8619    16.864281    19.863896    20.574384    6892.2197      7544.37    10508.517    8616.6985   -8.0597063    541.53429   -608.81125   -2507.2213 
 8628000    272.98651   -3867.6575    -3399.768   -3867.6575            0    9915.7862    16.876451     19.87823    20.589231    6907.1515    9224.9707    10937.583    9584.8046   -1024.4259   -876.59267    685.33761   -2400.9139 
 8629000    271.67501   -3876.8002   -3411.1585   -3876.8002            0     8069.219    17.043401    20.074875    20.792909    7114.1718    7700.0643    7891.8191    8615.7737    498.78883    154.83566    354.97221   -2573.9536 
 8630000    252.95482   -3891.6166   -3458.0607   -3891.6166            0    7932.2134    16.914026    19.922488    20.635072    6953.3895    8771.1928    6551.9619    8473.4854    58.161414    258.66885    133.84224   -2653.6704 
 8631000    262.79631   -3882.1363   -3431.7124   -3882.1363            0    9795.4039     16.88126    19.883894    20.595097    6913.0568    10850.475    8721.5108    9814.2259   -885.01562   -1538.4559    1077.3156   -2444.1413 
 8632000    273.32297   -3831.3652    -3362.899   -3831.3652            0    10041.255    16.970334    19.988812    20.703768    7023.0665    10401.249    9771.6753    9950.8398    1244.9605   -895.29237   -1495.6467   -2334.4313 
 8633000    258.59601   -3860.4111   -3417.1864   -3860.4111            0    9836.8752     16.96546    19.983071    20.697822    7017.0171    9468.6213     10449.04    9592.9642   -831.55069    315.85719    204.06857     -2410.52 
 8634000    266.39978   -3880.1574   -3423.5573   -3880.1574            0    11098.939    16.911469    19.919477    20.631953    6950.2368    13005.074    11938.322    8353.4222   -853.73495   -434.51917   0.55028831   -2298.5458 
 8635000    265.43427   -3878.1556   -3423.2104   -3878.1556            0     10168.91    16.926473     19.93715    20.650258    6968.7522    9857.1932    12233.962    8415.5749    1871.8927    586.22613    864.83515   -2389.7227 
 8636000    263.92638   -3836.3817   -3384.0209   -3836.3817            0    8912.6914    16.946656    19.960923    20.674881    6993.7105    7970.9022    9460.4677    9306.7043    429.32998   -484.60145    79.458362   -2474.9612 
 8637000    262.88373   -3862.1707   -3411.5969   -3862.1707            0    11260.611     16.88163     19.88433    20.595549    6913.5117    11966.926    9445.0124    12369.894    1879.1238    1388.3042    1674.9128   -2276.2292 
 8638000    265.35587   -3855.2574   -3400.4465   -3855.2574            0    11174.807      16.9102    19.917981    20.630404    6948.6716    10653.832    11788.255    11082.333   -1789.2704   -2705.0947    338.38136        -2268 
 8639000    245.46791   -3875.0831   -3454.3595   -3875.0831            0    11526.984     16.89108    19.895461    20.607078    6925.1289    11555.462    10504.127    12521.364   -507.62837    1139.4968    1157.5125   -2290.1813 
 8640000     268.2037   -3861.5368   -3401.8448   -3861.5368            0    9283.6447    16.936143    19.948539    20.662054    6980.7018    8265.5186    10140.601    9444.8141   -544.36333   -545.65542   -1068.9061   -2456.7106 
 8641000    260.00214   -3879.5464   -3433.9117   -3879.5464            0    8286.5941    16.967972     19.98603    20.700886     7020.134    8044.0912    8280.2706    8535.4203   -175.51514    1103.6799   -1262.7867   -2585.5181 
 8642000    258.92441   -3873.8416    -3430.054   -3873.8416            0    10213.524    16.905002     19.91186    20.624063    6942.2665    11096.663     10972.68    8571.2284   -1541.6386   -671.27414    -533.1949   -2395.9773 
 8643000    263.58193   -3867.3735   -3415.6031   -3867.3735            0    10167.098    16.902607    19.909038    20.621141    6939.3161    9501.1283    8658.6627    12341.503    530.25759   -869.76728   -699.73799   -2386.6642 
 8644000    264.36906   -3855.8904   -3402.7709   -3855.8904            0    9289.0064    16.901456    19.907682    20.619737    6937.8983    10268.572      8225.11    9373.3368   -346.94775       286.92   -579.79314   -2462.8894 
 8645000    263.56777   -3823.8779   -3372.1318   -3823.8779            0     10345.18    16.893571    19.898395    20.610117    6928.1924    12078.078    9385.5452    9571.9167    2485.0565    227.77147   -775.71367   -2326.8488 
 8646000    268.13478   -3877.5626   -3417.9888   -3877.5626            0    9576.1199    16.855784    19.853887    20.564017    6881.8066    9893.9921    9345.3693    9488.9983   -519.70656   -290.10879    623.58154   -2456.8902 
 8647000    248.15029   -3834.5416   -3409.2205   -3834.5416            0    9418.0508    16.888858    19.892844    20.604367    6922.3961    9420.0747    9402.1539    9431.9238    181.28336   -726.33767     864.9939   -2458.4113 
 8648000    251.37449   -3846.7738   -3415.9266   -3846.7738            0    10762.747    16.855242    19.853249    20.563356     6881.143    10859.897    8977.4595    12450.884   -1774.1632   -997.05474    112.44301   -2335.8375 
 8649000    264.46587   -3821.4368   -3368.1514   -3821.4368            0    9070.3008    16.969464    19.987787    20.702707    7021.9864    9806.0615    8170.1157    9234.7252    87.239553    1039.5699      1426.14   -2439.2757 
 8650000    260.87537   -3882.0736   -3434.9421   -3882.0736            0    8849.5209    16.952572     19.96789    20.682098    7001.0367    7594.3594    9755.4087    9198.7946    557.82274     1057.822    1957.4543     -2531.38 
 8651000    259.13001   -3826.2533   -3382.1133   -3826.2533            0    8355.9687    16.913734    19.922144    20.634716    6953.0292    7520.0108    7078.2837    10469.612   -168.36131    1001.2616    848.07925   -2534.7947 
 8652000    243.39606    -3832.661   -3415.4885    -3832.661            0    8459.0849    16.938093    19.950837    20.664434    6983.1144    8873.2704    8193.0711    8310.9131    1545.7348    1595.8708    26.025992   -2554.0021 
 8653000    269.06536   -3842.4721   -3381.3033   -3842.4721            0    8613.4272    16.947796    19.962265    20.676272    6995.1219    8733.4607    8790.7005    8316.1205    2192.6346     -113.919    331.77142   -2502.5901 
 8654000    261.20139    -3862.717   -3415.0268    -3862.717            0    8785.5721    16.899659    19.905566    20.617545     6935.686    9003.7775    8831.5945    8521.3444    575.90225   -426.34384     1273.411   -2526.3673 
 8655000    273.76165   -3872.2205   -3403.0024   -3872.2205            0    11370.087     16.89217    19.896745    20.608408    6926.4695    11579.674     10591.33    11939.256   -976.32188   -1341.1656   -857.73578    -2254.448 
 8656000    248.19534   -3856.7934    -3431.395   -3856.7934            0    7388.7243    16.976404    19.995962    20.711174    7030.6054    8471.7584    8513.4414    5180.9731    488.81997    985.42487    75.403438   -2673.7983 
 8657000    255.01761   -3844.8858   -3407.7944   -3844.8858            0    9373.0167    16.927916    19.938849    20.652018    6970.5345    9468.2914    8041.5569    10609.202    909.50085   -246.86008    1572.6431   -2454.9514 
 8658000    270.06705   -3876.8161   -3413.9304   -3876.8161            0     10622.25    16.870305    19.870991    20.581732    6899.6073    8495.3367    11476.067    11895.345   -1362.0365   -793.54594   -145.02871   -2345.0804 
 8659000     267.6293   -3857.1322   -3398.4247   -3857.1322            0    9426.8509    16.950776    19.965775    20.679907    6998.8117    10019.336    9315.8703    8945.3462    1174.5283    910.72829   -507.65328   -2436.2215 
 8660000    285.55783   -3857.2796   -3367.8432   -3857.2796            0    9899.5057    16.923983    19.934216    20.647219    6965.6764    9138.7638     10769.55    9790.2031    164.66842    76.494226    -648.2363   -2362.1797 
 8661000    262.96354   -3884.0186    -3433.308   -3884.0186            0    8548.7198    16.955538    19.971384    20.685717    7004.7123    8833.6354      7294.73    9517.7941     323.4037   -747.95677   -379.64573   -2560.0004 
 8662000    257.66387   -3880.0384   -3438.4113   -3880.0384            0    6667.9187    16.955923    19.971838    20.686187    7005.1902    8725.8345    5023.3239    6254.5977   -67.429103    293.64227   -726.26364   -2757.1933 
 8663000    264.13048   -3861.8365   -3409.1259   -3861.8365            0    8113.9761    16.931445    19.943006    20.656324     6974.895    8834.3663    9203.0733    6304.4886    17.517504    763.06715    574.51118   -2583.7586 
 8664000    263.58218   -3856.2802   -3404.5094   -3856.2802            0    10336.396     16.89545    19.900609     20.61241    6930.5051    13008.876     9543.881      8456.43    742.01576   -590.64384   -88.708679   -2359.7653 
 8665000    260.97298    -3839.431   -3392.1322    -3839.431            0    7820.1526    16.935497    19.947778    20.661266    6979.9031    5640.3429     8001.749    9818.3659    41.927947    102.97551    807.58466   -2596.0819 
 8666000    264.56346   -3831.3647    -3377.912   -3831.3647            0    7656.3317    16.965781    19.983449    20.698214    7017.4154    8583.3249    7983.5382     6402.132   -686.89009    712.35767    1097.0322   -2594.3492 
 8667000     253.5586   -3854.7607     -3420.17   -3854.7607            0    8756.4326    16.908474    19.915948    20.628298    6946.5441    9975.8594     7359.399    8934.0392   -26.815576    493.38987   -523.41632   -2533.0714 
 8668000    271.56343   -3810.8837   -3345.4333   -3810.8837            0    7109.4659    17.017679    20.044578    20.761528    7082.0104    7389.5363    6622.5585    7316.3029    1427.1056   -1560.2518    1432.7742   -2611.1403 
 8669000    273.49124   -3826.0554   -3357.3008   -3826.0554            0    4933.0315     17.05077    20.083555      20.8019    7123.4042    3443.4399    4703.5716     6652.083    2730.8971    401.29197   -524.59847   -2844.8203 
 8670000    277.55415   -3823.8924   -3348.1741   -3823.8924            0    9418.3008    16.939594    19.952604    20.666265      6984.97    8894.6185    7857.2845    11502.999    1116.1712   -1345.9965    1186.3729   -2388.7448 
 8671000    262.49985    -3847.406   -3397.4902    -3847.406            0    5915.8459     17.04423    20.075852    20.793921    7115.2109    5098.8143    4759.2665    7889.4568    1048.9244   -927.88208   -1956.6005   -2783.6144 
 8672000    273.87637   -3854.9019   -3385.4871   -3854.9019            0    9106.0508    16.912109    19.920231    20.632734    6951.0258    10122.942    9618.7267    7576.4841    1153.2649   -1335.5852    1255.6355   -2462.3742 
 8673000    256.90278   -3841.5431   -3401.2205   -3841.5431            0    9069.4099    16.960433     19.97715    20.691689    7010.7814    7768.9566    10648.261    8791.0116     727.8423     385.9372   -864.65446   -2473.9182 
 8674000    258.01582   -3849.6814   -3407.4511   -3849.6814            0      9247.57    16.880962    19.883544    20.594735    6912.6918    10197.729    8318.9834     9225.998    997.72075     36.17876   -189.22088   -2475.1618 
 8675000    270.30881    -3837.134   -3373.8339    -3837.134            0    8244.8669    16.985348    20.006497    20.722085    7041.7232    8386.8579    8378.4229      7969.32   -4.9863572   -190.05637   -512.98979   -2527.1165 
 8676000    261.74865    -3854.271   -3405.6428    -3854.271            0    11528.848     16.87998    19.882386    20.593536    6911.4846    11358.347    11643.079    11585.118    183.71216    237.58698   -736.90372   -2243.5704 
 8677000    270.66519   -3829.2642   -3365.3533   -3829.2642            0    7852.7589    16.948001    19.962506    20.676521    6995.3753    5261.2888    8038.9145    10258.074   -903.53943    240.95332     -2038.43   -2564.2119 
 8678000    264.69056   -3829.6431   -3375.9726   -3829.6431            0    8504.3142     16.93727    19.949866    20.663429    6982.0955    7734.0821    8416.5858    9362.2746   -285.40958    -273.0621    -220.2108   -2510.0063 
 8679000    237.45505   -3810.9159   -3403.9261   -3810.9159            0     8230.924    16.981592    20.002072    20.717502    7037.0524    9119.7817    6944.3554     8628.635   -487.78762   -360.07685   -209.48016   -2559.2012 
 8680000    266.93465   -3857.3023   -3399.7854   -3857.3023            0    8764.4921    16.889288     19.89335    20.604892    6922.9249    8333.8552    8169.5398    9790.0814     1226.327   -745.98431     1277.415   -2514.8894 
 8681000    281.43471   -3859.3994   -3377.0299   -3859.3994            0    10055.707    16.934846    19.947012    20.660473    6979.0992    10385.325    9246.8693    10534.927    674.64016    375.52036    1717.6707   -2353.5299 
 8682000     286.0969   -3853.4302   -3363.0699   -3853.4302            0    9988.5354    16.943079    19.956709    20.670517    6989.2824    7912.8156    11446.702    10606.088     164.6101   -508.91445    526.64178   -2344.9234 
 8683000    265.93756   -3885.1958   -3429.3879   -3885.1958            0    9061.3274    16.937674    19.950343    20.663923    6982.5959    8771.0804    8726.6693    9686.2324   -2298.4181    795.16776   -1327.1461   -2506.6367 
 8684000    262.93371   -3882.9821   -3432.3228   -3882.9821            0    8191.3815     16.91082    19.918712    20.631161    6949.4367    6666.0388    8710.4238    9197.6819     1013.736   -685.34473   -2281.4398   -2602.1229 
 8685000     258.5106   -3827.7935   -3384.7152   -3827.7935            0     8447.153     16.97061    19.989137    20.704105    7023.4088    8690.1267    10097.048    6554.2848    -636.8796    481.54035    236.13808     -2519.48 
 8686000    278.00495   -3878.0316   -3401.5406   -3878.0316            0    8049.3406    16.959461    19.976005    20.690503    7009.5761    7473.2498    9679.1926    6995.5795    351.99675    1572.3805    211.83558   -2578.6769 
 8687000    265.27318   -3884.9964   -3430.3272   -3884.9964            0    9496.9645    16.885984    19.889458    20.600861    6918.8625      10615.8    8267.7269    9607.3668    223.80267    225.81423   -567.64854   -2472.0406 
 8688000    276.61564   -3873.0059   -3398.8962   -3873.0059            0    9013.8734    16.897038    19.902479    20.614347     6932.459    6985.8707    10721.024    9334.7255    680.96592    671.44333    611.65612   -2487.5683 
 8689000     251.5701   -3883.4246    -3452.242   -3883.4246            0    10326.909    16.900198    19.906201    20.618203      6936.35    9360.7436    11943.409     9676.576   -24.458965   -516.52049   -942.00604   -2407.5765 
 8690000    258.84845   -3819.3877   -3375.7304   -3819.3877            0    8852.9398    16.993078    20.015602    20.731516    7051.3416    9213.1343    8438.8549    8906.8302   -936.11752    443.62075    347.73004   -2465.3243 
 8691000    270.96802   -3863.4388   -3399.0089   -3863.4388            0     9551.101    16.890893    19.895241     20.60685     6924.899    9569.6968    9869.4265    9214.1798    495.06578   -1213.3333   -123.33956   -2434.4189 
 8692000    260.57348   -3822.7891    -3376.175   -3822.7891            0    9183.4681    16.949133    19.963839    20.677902    6996.7767    9924.1283    8647.5245    8978.7514    455.50602   -1198.4858   -1082.4012   -2439.0865 
 8693000    273.73435   -3857.7473    -3388.576   -3857.7473            0     7699.495     16.94032    19.953459    20.667151    6985.8687    8079.2117    9323.9727    5695.3006    139.07258   -307.72413    292.60329   -2604.1381 
 8694000    278.00452   -3821.8684   -3345.3782   -3821.8684            0    9806.2557    16.876287    19.878037     20.58903    6906.9494    10546.448    8433.4436    10438.875  -0.58983502   -1407.8548    1412.9739   -2357.5865 
 8695000    255.80201   -3835.2904   -3396.8545   -3835.2904            0     11078.69    16.867865    19.868117    20.578756    6896.6146    11165.159    9763.7129    12307.199    504.12537    727.14523   -383.73536   -2282.5592 
 8696000    266.93315   -3827.2784   -3369.7641   -3827.2784            0    8913.2781    16.952082    19.967314    20.681501    7000.4302    8577.2956    9687.0088    8475.5299   -760.65575    -635.6223    579.69971   -2459.7711 
 8697000    267.52769   -3836.5133     -3377.98   -3836.5133            0    8399.4687    16.932764    19.944559    20.657932     6976.525    7764.4178    7187.5029    10246.486    29.982998   -641.10994    1730.6031   -2523.3722 
 8698000    273.42023   -3872.4499    -3403.817   -3872.4499            0    8632.3231    16.949824    19.964654    20.678746    6997.6334    8118.9654    8555.2462    9222.7578    260.42543    2824.1538    872.79686   -2522.8599 
 8699000    268.64434    -3853.434   -3392.9868    -3853.434            0    9032.3937    16.938031    19.950763    20.664358    6983.0371    8364.6416    9258.9465    9473.5931   -289.43158    1923.1182   -1135.5437   -2473.1239 
 8700000    259.78395    -3835.156   -3389.8952    -3835.156            0    9037.0422    16.941253    19.954558    20.668289    6987.0224    8843.7804    9054.3258    9213.0203   -379.96877   -192.50964   -1387.2791   -2469.0337 
 8701000    257.03737   -3823.2586   -3382.7053   -3823.2586            0    7098.6612    17.023193    20.051073    20.768256    7088.8973    7099.5952    7783.4102    6412.9781   -1703.2392   -1063.7836   -1194.7653   -2648.8153 
 8702000    266.67821   -3835.2311   -3378.1538   -3835.2311            0    9834.6967    17.021665    20.049273    20.766391    7086.9876     8500.216    10350.437    10653.437    1568.7903   -186.02012   -1552.3016   -2361.6745 
 8703000    267.65478   -3896.4164   -3437.6653   -3896.4164            0    9716.0816    16.985808    20.007038    20.722646    7042.2954    9133.9507      10615.7    9398.5945   -547.61311   -1199.5894    442.38971   -2439.7784 
 8704000    262.62495   -3888.4072    -3438.277   -3888.4072            0    8170.6373    17.021708    20.049323    20.766444    7087.0416    8436.2427    10016.144    6059.5253    -1456.563   -493.95043    870.35142   -2593.7825 
 8705000    258.77418   -3879.5542   -3436.0241   -3879.5542            0    8783.7617    17.017847    20.044776    20.761733    7082.2201    8872.8794    8194.9207    9283.4851   -1194.0192   -931.68777     962.5313   -2528.7765 
 8706000    264.39846   -3858.5799     -3405.41   -3858.5799            0    10800.207    16.944028    19.957827    20.671675    6990.4572    11741.865    11280.254    9378.4997    477.93302   -1117.7625    357.72234   -2304.3435 
 8707000    255.79203    -3845.242   -3406.8232    -3845.242            0    8263.5197    16.953536    19.969026    20.683274    7002.2317    8912.3711    8836.4173    7041.7707   -86.643725    1627.1936    202.67838   -2562.9496 
 8708000    269.74954    -3856.739   -3394.3975    -3856.739            0    10299.763    16.884435    19.887635    20.598972    6916.9594    11412.895    9009.9136    10476.481    483.08129   -743.12138   -1314.7331   -2355.3908 
 8709000    267.16775    -3896.364   -3438.4476    -3896.364            0    9080.5702    16.895371    19.900515    20.612313    6930.4076    7975.1341    9275.4956     9991.081    104.39067   -1409.2926   -702.04975   -2520.6482 
 8710000    259.52709    -3847.924   -3403.1034    -3847.924            0     9898.237    16.954107    19.969699    20.683971    7002.9394    10108.282     10386.77    9199.6592      -268.98    160.15265   -241.73985   -2392.1897 
 8711000    269.26149   -3908.6429   -3447.1379   -3908.6429            0    7355.3203    16.978983    19.998999    20.714319    7033.8091    9442.0321    5413.9369    7209.9918   -701.95632    722.57241    189.83635   -2692.6226 
 8712000    262.57199   -3874.5171   -3424.4777   -3874.5171            0    8914.5446    16.961484    19.978388    20.692971    7012.0846    8713.5998    8506.8066    9523.2273    1513.4714    1058.6483   -283.81552   -2512.8401 
 8713000    277.74397   -3873.6491   -3397.6055   -3873.6491            0    8376.8794    16.991157    20.013338    20.729171    7048.9499    8787.8964    9357.3012    6985.4404    743.18527   -706.09798    1377.1819    -2536.448 
 8714000     250.3883   -3853.2702   -3424.1132   -3853.2702            0    7540.7105     16.96285    19.979996    20.694637    7013.7782    6400.1063    7411.8211    8810.2041   -777.78696    293.49355   -1394.6938   -2652.7833 
 8715000    253.51699   -3904.6411   -3470.1216   -3904.6411            0    9955.0358    16.862871    19.862235    20.572663    6890.4905    9221.1045    11800.198    8843.8054   -685.73866    1956.0653    2181.6247   -2469.7328 
 8716000    258.30497   -3859.9901   -3417.2642   -3859.9901            0    8017.5937    16.926823    19.937562    20.650684    6969.1842    6154.1026     8030.151    9868.5276   -2744.3167    1096.1789   -50.602788   -2602.3688 
 8717000    270.74923   -3899.9862   -3435.9313   -3899.9862            0    6332.5783    16.953397    19.968863    20.683105    7002.0598    4700.2696    9292.0146    5005.4507    -1689.979    339.34273   -501.41965    -2789.262 
 8718000    255.48899   -3828.0888   -3390.1894   -3828.0888            0    9320.6543    16.900072    19.906053    20.618048    6936.1944    7638.9233    10661.228    9661.8112    -1016.559    809.12826    1079.5626   -2447.3374 
 8719000    253.88871   -3823.5278   -3388.3713   -3823.5278            0    8979.2045    16.942789    19.956368    20.670163    6988.9239    8570.4304     9563.209     8803.974   -154.86066    1980.9507   -333.69588   -2473.1543 
 8720000    253.55638   -3835.8458   -3401.2588   -3835.8458            0    8819.2255    16.930723    19.942155    20.655442    6974.0024    8806.6701    8758.4703    8892.5361    43.193717    1215.3348    771.42464   -2504.2671 
 8721000    266.81679   -3841.8156   -3384.5008   -3841.8156            0    8619.3286    16.937614    19.950272     20.66385    6982.5219    9897.6958     8320.009    7640.2811   -801.87556    2511.3168    2069.7958   -2506.7694 
 8722000    263.32781   -3868.6468   -3417.3119   -3868.6468            0    9185.6765    16.920178    19.929734    20.642577    6960.9794    8694.6565    11351.826    7510.5473   -432.67137   -489.05436   -763.00422   -2484.7936 
 8723000    254.57117   -3838.2081   -3401.8818   -3838.2081            0    10132.783    16.884966    19.888259    20.599619     6917.611    10814.611    9690.5711    9893.1685   -378.47782   -1746.9903    70.393413   -2379.6232 
 8724000    266.48175   -3868.7558   -3412.0152   -3868.7558            0    9900.9931    17.017026    20.043809    20.760732    7081.1954    9634.0882    11054.837    9014.0537   -19.962577    1065.1641     546.6616   -2389.5201 
 8725000    252.77474   -3843.9099   -3410.6626   -3843.9099            0    11082.828    16.870816    19.871592    20.582356    6900.2341    9306.8309    11344.596    12597.057   -553.01265    227.84952     662.9276   -2295.3662 
 8726000    257.27545   -3822.6468   -3381.6855   -3822.6468            0    8770.1804    16.917081    19.926087      20.6388    6957.1583    10516.961    7600.2133     8193.367    375.12523   -351.81402    713.25092   -2491.8365 
 8727000    280.88502   -3815.6299   -3334.2025   -3815.6299            0    8628.0705    16.954877    19.970606    20.684911    7003.8939    6340.3329    7923.7904    11620.088    1189.8803    8.8483032    227.77035   -2452.8917 
 8728000    280.93853    -3855.513    -3373.994    -3855.513            0    7473.4012    16.928482    19.939515    20.652708    6971.2333    7169.8757    7571.4821    7678.8457   -687.65334    1216.3434    765.39977   -2614.1861 
 8729000    264.65295   -3839.8943   -3386.2882   -3839.8943            0    8636.6028     16.98889    20.010668    20.726406    7046.1293    8191.1507    10119.535    7599.1228    758.90324    237.49188   -629.41341    -2498.786 
 8730000    270.88702   -3808.5938   -3344.3027   -3808.5938            0    9556.6974    16.932001    19.943661    20.657002    6975.5818    12031.556    9683.1159    6955.4202    218.75983   -2221.0376    -1164.438   -2372.0836 
 8731000     288.1079   -3854.4141    -3360.607   -3854.4141            0    9221.0008    16.888569    19.892504    20.604015    6922.0409    9839.2475    9259.8966    8563.8583   -1854.1867   -366.40521   -192.15898    -2429.739 
 8732000    264.40175   -3843.8191   -3390.6436   -3843.8191            0     10257.33    16.889895    19.894065    20.605633    6923.6714    11774.901    8529.8297    10467.258   -1793.1671    146.95035    456.29053   -2354.9133 
 8733000    257.47752   -3848.8003   -3407.4927   -3848.8003            0    8170.3368    16.896972    19.902401    20.614267    6932.3785    9186.0447    7566.5969    7758.3688   -911.17777    1624.6323     649.7847   -2581.4583 
 8734000    278.96397   -3855.4715   -3377.3368   -3855.4715            0    8879.5204     16.90906    19.916639    20.629014     6947.267    8544.3619    10074.058    8020.1413    1021.1577    1055.4958   -1108.9556   -2477.6748 
 8735000    256.09909   -3855.8924   -3416.9473   -3855.8924            0      8306.77    16.976393    19.995948    20.711159    7030.5908    7396.9422    8027.6399     9495.728    282.61292   -381.08075    595.96409   -2565.2214 
 8736000    263.96884   -3865.5339   -3413.1004   -3865.5339            0    9500.0386    16.948739    19.963376    20.677422    6996.2896    11189.094    8904.4293    8406.5927   -619.48137    624.98061    1231.7526   -2443.7762 
 8737000    266.11251   -3850.8244   -3394.7167   -3850.8244            0    8661.3503    16.969845    19.988236    20.703171    7022.4592    10306.154    8167.1306    7510.7663    1970.9893    1907.4556   -220.27424   -2507.6613 
 8738000    266.26989   -3840.4814    -3384.104   -3840.4814            0     8569.722    16.991105    20.013278    20.729109     7048.886     8861.061    7247.8571    9600.2479   -1401.8864   -320.87486    68.312259   -2503.1299 
 8739000    260.79636   -3840.9761   -3393.9801   -3840.9761            0    10269.542    16.958867    19.975306    20.689778    7008.8395     9428.561    11981.321     9398.744    123.92804   -764.77921   -687.06256    -2344.261 
 8740000    262.08817   -3826.6618   -3377.4516   -3826.6618            0      9896.84    16.961283    19.978151    20.692726     7011.835    11413.367    9909.7985     8367.355   -677.20217   -1397.6758    -2084.596   -2365.3966 
 8741000    263.25164   -3870.3849   -3419.1806   -3870.3849            0    9818.2106    16.960009    19.976651    20.691172    7010.2556    9070.8016    11289.839     9093.991    1399.0682     1006.612   -190.16985   -2415.3924 
 8742000    267.60751   -3857.9307   -3399.2606   -3857.9307            0    8732.5874    16.925451    19.935946    20.649011    6967.4897    8872.5227    10318.151    7007.0881    591.58238    963.77169    1312.0625   -2511.9101 
 8743000    268.81586   -3815.2684   -3354.5273   -3815.2684            0     10075.79    16.917661     19.92677    20.639507    6957.8742    11224.075    11440.665    7562.6285   -856.47779   -881.35971   -806.40395    -2332.102 
 8744000    264.67761   -3825.5909   -3371.9426   -3825.5909            0    7704.3472    16.959601     19.97617    20.690673     7009.749    7448.5925    7567.1338    8097.3153   -1459.1207   -865.05613   -48.050959   -2584.3272 
 8745000    273.34409   -3818.0675   -3349.5651   -3818.0675            0    8109.9857    17.004561    20.029126    20.745524    7065.6455    7998.5526     7024.843    9306.5615    1636.9126   -2531.2633    1060.4006   -2513.8701 
 8746000    260.77564   -3827.8388   -3380.8783   -3827.8388            0    9156.9564    16.948055    19.962571    20.676588    6995.4428    8764.4954    8595.1325    10111.241   -956.00826      92.0894   -307.21025   -2446.6731 
 8747000    253.58028   -3833.1367   -3398.5088   -3833.1367            0     10004.37    16.941144     19.95443    20.668156    6986.8879    8352.2876    11516.889    10143.935   -730.21204   -486.41895    1537.3159   -2379.0975 
 8748000    264.18184   -3818.4454   -3365.6468   -3818.4454            0    9572.4239    16.908546    19.916033    20.628386    6946.6328    9393.0786    10296.829    9027.3646     -132.267   -724.59257   -311.33953   -2395.8691 
 8749000    249.04392   -3864.6937   -3437.8409   -3864.6937            0    7731.7955    16.953112    19.968526    20.682757     7001.706    6999.9135    6775.9252    9419.5479    1064.0338    1154.8415    998.88688   -2648.3264 
 8750000    272.17714   -3828.3164   -3361.8141   -3828.3164            0    10207.011    16.910464    19.918293    20.630726    6948.9975    9006.9799    11123.683    10490.371   -608.55689   -2251.7374   -64.134004   -2327.3947 
Loop time of 585.101 on 64 procs for 250000 steps with 864 atoms

Performance: 73.833 ns/day, 0.325 hours/ns, 427.277 timesteps/s
99.0% CPU use with 64 MPI tasks x 1 OpenMP threads

MPI task timing breakdown:
Section |  min time  |  avg time  |  max time  |%varavg| %total
---------------------------------------------------------------
Pair    | 22.053     | 27.198     | 32.346     |  47.1 |  4.65
Bond    | 0.28737    | 0.30021    | 0.31597    |   1.3 |  0.05
Kspace  | 250.95     | 265        | 279.66     |  45.1 | 45.29
Neigh   | 6.2309     | 7.6743     | 9.3593     |  30.3 |  1.31
Comm    | 121.19     | 138.27     | 158.57     |  69.8 | 23.63
Output  | 1.1683     | 1.1696     | 1.1708     |   0.0 |  0.20
Modify  | 133.26     | 140.3      | 143.64     |  22.7 | 23.98
Other   |            | 5.181      |            |       |  0.89

Nlocal:        13.5000 ave          18 max          10 min
Histogram: 3 7 11 13 0 9 11 7 1 2
Nghost:        2280.14 ave        2318 max        2235 min
Histogram: 2 1 4 10 8 11 13 9 4 2
Neighs:        4436.00 ave        6324 max        2953 min
Histogram: 2 10 7 10 11 9 5 6 2 2

Total # of neighbors = 283904
Ave neighs/atom = 328.59259
Ave special neighs/atom = 2.0000000
Neighbor list builds = 14525
Dangerous builds = 1

unfix		3
unfix		2
unfix		1

write_data	data.final.${pid}
write_data	data.final.0
System init for write_data ...
PPPM initialization ...
  extracting TIP4P info from pair style
  using 12-bit tables for long-range coulomb (../kspace.cpp:340)
  G vector (1/distance) = 0.37457543
  grid = 24 24 24
  stencil order = 5
  estimated absolute RMS force accuracy = 0.0031253797
  estimated relative force accuracy = 9.4119882e-06
  using double precision FFTW3
  3d grid and FFT values/proc = 2535 216
Last active /omp style is kspace_style pppm/tip4p/omp
WARNING: Not all mixed pair coeffs generated from mixing. Use write_data with 'pair ij' option to store all pair coeffs. (../write_data.cpp:312)

write_restart   restart.lmp.${pid}
write_restart   restart.lmp.0
System init for write_restart ...
PPPM initialization ...
  extracting TIP4P info from pair style
  using 12-bit tables for long-range coulomb (../kspace.cpp:340)
  G vector (1/distance) = 0.37457543
  grid = 24 24 24
  stencil order = 5
  estimated absolute RMS force accuracy = 0.0031253797
  estimated relative force accuracy = 9.4119882e-06
  using double precision FFTW3
  3d grid and FFT values/proc = 2535 216
Last active /omp style is kspace_style pppm/tip4p/omp
Total wall time: 0:09:47
