LAMMPS (30 Jul 2021)
  using 1 OpenMP thread(s) per MPI task
package omp 0
using multi-threaded neighbor list subroutines
echo both

include		in.partitions
variable        pid world 0
include		in.temp
variable        temperature equal 262.17
variable	tempDamp equal 100.0
include		in.pressure
variable        pressure equal 3625.0
variable        pressureDamp equal 1000.0 # This is 1 ps
include		in.seed
variable        seed world 745823

units		real
atom_style	full
read_restart	restart.lmp.${pid}
read_restart	restart.lmp.0
Reading restart file ...
  restart file = 30 Jul 2021, LAMMPS = 30 Jul 2021
  restoring atom style full from restart
  orthogonal box = (0.36236081 1.5183444 0.44207934) to (17.845212 22.110833 21.771116)
  4 by 4 by 4 MPI processor grid
  restoring pair style lj/cut/tip4p/long/omp from restart
  restoring bond style harmonic/omp from restart
  restoring angle style harmonic/omp from restart
  864 atoms
  576 bonds
  288 angles
Finding 1-2 1-3 1-4 neighbors ...
  special bond factors lj:    0        0        0       
  special bond factors coul:  0        0        0       
     2 = max # of 1-2 neighbors
     1 = max # of 1-3 neighbors
     1 = max # of 1-4 neighbors
     2 = max # of special neighbors
  special bonds CPU = 1.455 seconds
  read_restart CPU = 1.824 seconds
include 	in.setup
variable	out_freq equal 1000
variable	out_freq2 equal 10000
variable	out_freq3 equal 1000

timestep	2.0

neigh_modify    delay 7 every 1

include		in.tip4p
# This is TIP4P/Ice

# create groups ###
group ox type 2
288 atoms in group ox
group hy type 1
576 atoms in group hy

# set charges - beside manually ###
set group ox charge -1.1794
Setting atom values ...
  288 settings made for charge
set group hy charge 0.5897
Setting atom values ...
  576 settings made for charge

# ### TIP3P Potential Parameters ###
pair_style lj/cut/tip4p/long/omp 2 1 1 1 0.1577 8.5
pair_coeff 1 1*2 0.000 0.000
pair_coeff 2 2 0.21084 3.1668
bond_style  harmonic
bond_coeff  1 450 0.9572
angle_style harmonic
angle_coeff 1 55 104.52
kspace_style pppm/tip4p/omp 1.0e-5
pair_modify tail yes

thermo          ${out_freq}
thermo          1000
thermo_style    custom step temp pe etotal epair emol press lx ly lz vol pxx pyy pzz pxy pxz pyz enthalpy

restart 	${out_freq3} restart.lmp.${pid} restart2.lmp.${pid}
restart 	1000 restart.lmp.${pid} restart2.lmp.${pid}
restart 	1000 restart.lmp.0 restart2.lmp.${pid}
restart 	1000 restart.lmp.0 restart2.lmp.0


include         in.dump
dump            myDump all atom ${out_freq2} dump.water.${pid}
dump            myDump all atom 10000 dump.water.${pid}
dump            myDump all atom 10000 dump.water.0
dump            myDump2 all dcd ${out_freq2} dump.dcd
dump            myDump2 all dcd 10000 dump.dcd
dump_modify     myDump append yes
dump_modify     myDump2 append yes


variable natoms 	equal  "count(all)"                        # NUMBER ATOMS
variable H      	equal  "enthalpy/v_natoms"                 # ENTHALPY-per-atom
variable Vol      	equal  "vol/v_natoms"                 # volume-per-atom
fix AVG all 		ave/time ${out_freq} 1 ${out_freq} v_Vol v_H file vol_enthalpy.dat
fix AVG all 		ave/time 1000 1 ${out_freq} v_Vol v_H file vol_enthalpy.dat
fix AVG all 		ave/time 1000 1 1000 v_Vol v_H file vol_enthalpy.dat


timer           timeout 23:50:00 every 1000
New timer settings: style=normal  mode=nosync  timeout=23:50:00

fix 		1 all shake 1e-6 200 0 b 1 a 1
       0 = # of size 2 clusters
       0 = # of size 3 clusters
       0 = # of size 4 clusters
     288 = # of frozen angles
  find clusters CPU = 0.063 seconds
fix             2 all nph iso ${pressure} ${pressure} ${pressureDamp}
fix             2 all nph iso 3625 ${pressure} ${pressureDamp}
fix             2 all nph iso 3625 3625 ${pressureDamp}
fix             2 all nph iso 3625 3625 1000
fix             3 all temp/csvr ${temperature} ${temperature} ${tempDamp} ${seed}
fix             3 all temp/csvr 262.17 ${temperature} ${tempDamp} ${seed}
fix             3 all temp/csvr 262.17 262.17 ${tempDamp} ${seed}
fix             3 all temp/csvr 262.17 262.17 100 ${seed}
fix             3 all temp/csvr 262.17 262.17 100 745823

run             250000
PPPM initialization ...
  extracting TIP4P info from pair style
  using 12-bit tables for long-range coulomb (../kspace.cpp:340)
  G vector (1/distance) = 0.37339271
  grid = 24 24 25
  stencil order = 5
  estimated absolute RMS force accuracy = 0.003169625
  estimated relative force accuracy = 9.5452315e-06
  using double precision FFTW3
  3d grid and FFT values/proc = 2730 288
Last active /omp style is kspace_style pppm/tip4p/omp
Neighbor list info ...
  update every 1 steps, delay 7 steps, check yes
  max neighbors/atom: 2000, page size: 100000
  master list distance cutoff = 10.8154
  ghost atom cutoff = 10.8154
  binsize = 5.4077, bins = 4 4 4
  1 neighbor lists, perpetual/occasional/extra = 1 0 0
  (1) pair lj/cut/tip4p/long/omp, perpetual
      attributes: half, newton on, omp
      pair build: half/bin/newton/omp
      stencil: half/bin/3d
      bin: standard
Per MPI rank memory allocation (min/avg/max) = 9.235 | 9.241 | 9.249 Mbytes
Step Temp PotEng TotEng E_pair E_mol Press Lx Ly Lz Volume Pxx Pyy Pzz Pxy Pxz Pyz Enthalpy 
 1750000    262.31555   -3822.1765   -3372.5766   -3822.1765            0    2912.6541    17.482851    20.592489    21.329037    7678.7821    1259.1829      4370.69    3108.0893   -743.49344   -307.61262    927.71086   -3046.3967 
 1751000    264.95124   -3831.5599   -3377.4426   -3831.5599            0    2976.7558    17.353803    20.440487    21.171599    7509.9933    1873.3938    5134.6436    1922.2299    892.34616   -124.27798    651.97131   -3051.4118 
 1752000    261.08146   -3832.6971   -3385.2124   -3832.6971            0    3894.5651    17.387999    20.480766    21.213318    7554.4773     4319.345     3545.993    3818.3573   -469.40954   -773.46166   -793.26458   -2956.1314 
 1753000    257.46803   -3847.4934   -3406.2021   -3847.4934            0    5437.0707    17.371097    20.460858    21.192698    7532.4691    4298.9301    7509.4516    4502.8302    1938.0193   -108.32624    61.655072   -2808.9217 
 1754000    262.26819   -3886.1571   -3436.6384   -3886.1571            0    2328.8053    17.452209    20.556397    21.291655     7638.478     2269.885    2453.1413    2263.3895   -115.73577   -1110.2526    241.86355    -3177.211 
 1755000    259.09028   -3838.0868   -3394.0149   -3838.0868            0    4438.4183    17.463185    20.569326    21.305045     7652.899    4841.7859    3403.6859     5069.783   -138.88033   -263.11307   -2012.7484   -2898.6444 
 1756000    270.08126   -3841.9467   -3379.0366   -3841.9467            0    4125.3205    17.429383    20.529512    21.263807    7608.5459    3722.8902    4723.9323    3929.1391   -703.24948   -1511.7171    471.10119   -2921.2794 
 1757000    267.63706   -3853.8151   -3395.0943   -3853.8151            0    5047.4569    17.327661    20.409696    21.139706    7476.1054    5615.0066     5873.785     3653.579    557.90339   -776.92635    1315.5196   -2844.7634 
 1758000    271.69051   -3861.3038   -3395.6355   -3861.3038            0    3773.8186    17.337154    20.420877    21.151287     7488.399    4489.7716    2897.0662    3934.6182    342.46098   -279.85871    856.84862   -2983.4945 
 1759000    267.12454   -3852.1633    -3394.321   -3852.1633            0    2947.6698    17.402228    20.497526    21.230677    7573.0381    4860.8109    1561.4242    2420.7745     -1166.37   -93.120146     -751.765   -3068.7656 
 1760000    257.81716   -3855.9779   -3414.0881   -3855.9779            0    1944.8426    17.448091    20.551546     21.28663    7633.0712    1385.1073    937.11486    3512.3056   -685.41891    821.81821    1266.1085   -3197.5872 
 1761000    266.85296   -3841.7077   -3384.3309   -3841.7077            0    3472.0529    17.396728    20.491048    21.223968    7565.8607    1817.6844    3662.3016    4936.1728   -178.24277   -1086.6082   -563.66198   -3001.2235 
 1762000    282.84821   -3836.6181   -3351.8259   -3836.6181            0    4234.2069    17.434453    20.535483    21.269992    7615.1871    4577.0672    3551.7406    4573.8128   -343.85914   -485.58626    522.90385   -2881.5762 
 1763000    263.77432   -3828.3628   -3376.2626   -3828.3628            0    1741.4993    17.448045    20.551492    21.286574    7633.0113   -285.98266     2530.111    2980.3696    1850.6449    119.14792    262.38797   -3182.3996 
 1764000    258.13977   -3856.0746   -3413.6319   -3856.0746            0    3528.5074    17.538131    20.657602    21.396479    7751.8533    4337.8155    3337.7873    2909.9194    -356.6984   -176.90302    169.19767   -3014.7241 
 1765000    256.90109   -3848.3902   -3408.0705   -3848.3902            0    3465.8553    17.618541    20.752314    21.494579     7858.966    3083.3826    2780.8815    4533.3016   -728.31249    212.00571     1321.821   -3010.8316 
 1766000    268.26902   -3857.0321   -3397.2282   -3857.0321            0    1975.2896    17.561704    20.685367    21.425237    7783.1521    1518.1432    2853.1232    1554.6026    -722.3965   -247.76507     1015.554   -3173.0145 
 1767000    275.36494   -3889.3905   -3417.4244   -3889.3905            0    4979.9151    17.493102    20.604563    21.341543    7692.2972    6851.4398    4283.7554      3804.55     62.15358   -218.31856   -278.25744   -2858.7563 
 1768000    241.42654   -3844.0231   -3430.2263   -3844.0231            0    2741.8163    17.490827    20.601884    21.338768    7689.2968    1328.2297    3323.5866    3573.6326    -612.3443   -687.82884   -658.97436   -3122.7576 
 1769000    271.63832    -3858.094   -3392.5152    -3858.094            0    1790.6316    17.440596    20.542718    21.277486    7623.2391    1415.0961    745.98962    3210.8091   -668.84482     536.2624    1369.1462   -3193.4379 
 1770000    264.22317   -3881.9943   -3429.1248   -3881.9943            0    3583.3711    17.375196    20.465686    21.197699     7537.802    2428.3538     3876.239    4445.5206   -703.21589    707.55623    654.57574   -3035.2009 
 1771000    261.07751   -3872.2773   -3424.7993   -3872.2773            0    3239.8608    17.435158    20.536313    21.270852    7616.1105      3103.31    3945.8718    2670.4006    -967.0007    52.151497    1179.2776   -3064.9378 
 1772000    271.85234   -3848.7213   -3382.7757   -3848.7213            0     2267.815    17.477817     20.58656    21.322896    7672.1515     952.4079    3493.4052    2357.6321    174.41154   -1004.4666     834.2917   -3129.0289 
 1773000    244.44841   -3836.4077   -3417.4314   -3836.4077            0    4529.9831    17.402261    20.497565    21.230718    7573.0819     4320.975    4468.5952    4800.3789   -553.68275   -353.64702   -1269.5088   -2917.1146 
 1774000    287.12924   -3813.6254   -3321.4957   -3813.6254            0    3944.6941    17.515528    20.630979    21.368903      7721.92    4087.7238     3988.053    3758.3054    617.24477   -480.57529   -406.84433   -2877.2589 
 1775000    252.79056   -3834.7134    -3401.439   -3834.7134            0    1533.6214    17.521424    20.637923    21.376097    7729.7206    966.85518    825.68442    2808.3247    75.903139    2125.0135    333.66781   -3228.5538 
 1776000    281.63226    -3856.791    -3374.083    -3856.791            0    3220.4205    17.554869    20.677317      21.4169    7774.0692    4171.1861    2812.7574     2677.318    11.027824    286.87489   -400.43991   -3008.9619 
 1777000    272.33421   -3838.4108   -3371.6393   -3838.4108            0    4214.2253    17.458487    20.563791    21.299313    7646.7236    3696.0722     4512.188    4434.4157   -465.02898   -208.22134   -428.76987   -2901.6704 
 1778000    260.76471   -3877.9959   -3431.0541   -3877.9959            0    2965.7813    17.522143     20.63877    21.376974    7730.6726     3857.955    2094.3398    2945.0489    1485.9219    -1246.314    720.39818   -3096.6803 
 1779000    250.26544   -3883.0984    -3454.152   -3883.0984            0    3092.6365    17.459598      20.5651    21.300669    7648.1835    3443.8397    2794.2396    3039.8303   -1333.1045   -634.88189    266.45342   -3109.1965 
 1780000    268.17836   -3836.5972   -3376.9486   -3836.5972            0    2054.5538    17.581511    20.708698    21.449403    7809.5177    2042.1204    1971.3948    2150.1461   -703.26665   -1742.9919   -591.11645   -3142.9477 
 1781000    266.15577   -3815.6106   -3359.4287   -3815.6106            0    3141.0288    17.568708    20.693617    21.433782    7792.4681    4398.7291     3219.843    1804.5144    365.43837   -72.005982   -363.26103    -3002.466 
 1782000    271.60961   -3863.3771   -3397.8475   -3863.3771            0     3984.317    17.440926    20.543107    21.277889    7623.6723    3565.4836     5423.532    2963.9352   -1389.1606   -870.70164    805.62174   -2954.8575 
 1783000    269.21205   -3864.9921   -3403.5719   -3864.9921            0    3255.7825    17.416538    20.514382    21.248136    7591.7362    3234.3221     3488.465    3044.5605    1595.2079     678.6224    658.78625   -3043.0992 
 1784000    257.32447   -3880.0843    -3439.039   -3880.0843            0    3012.6071    17.452897    20.557208    21.292494    7639.3812    1513.8023    3418.2471    4105.7717    2144.7448    442.29509    250.91097   -3103.3968 
 1785000    251.09501   -3881.8417   -3451.4735   -3881.8417            0    3574.6524    17.556223    20.678911    21.418551    7775.8673    2831.3792    4539.9614    3352.6166    534.65282     574.4165   -185.50065    -3046.097 
 1786000    253.16941   -3876.4949   -3442.5712   -3876.4949            0    1731.4551     17.59614    20.725928    21.467249    7829.0271    1229.8925    2335.1993    1629.2734   -528.86222   -809.00289    515.88144   -3244.8766 
 1787000    264.59759   -3837.5636   -3384.0524   -3837.5636            0    5751.5675    17.497795    20.610091    21.347269    7698.4901    5592.5796     8464.457     3197.666   -1302.7658   -1125.4793    -65.75712   -2738.2975 
 1788000    249.28769   -3848.8537   -3421.5832   -3848.8537            0    3620.1812    17.476717    20.585264    21.321554    7670.7027    1950.1491    2547.1893    6363.2053    834.92579    1899.8125    178.45725   -3016.5959 
 1789000    270.35897    -3862.682    -3399.296    -3862.682            0    3372.2676    17.472536     20.58034    21.316453    7665.1991    3545.9557    4036.7741    2534.0731    10.391646   -133.70742    385.04611   -3022.3133 
 1790000    260.02099   -3869.9469   -3424.2798   -3869.9469            0    2317.9902    17.564678    20.688871    21.428866    7787.1074    2317.6983    2308.9863     2327.286    635.18796   -178.86845    358.91143   -3161.0327 
 1791000    250.19862   -3856.9838    -3428.152   -3856.9838            0    3897.9096    17.469055    20.576239    21.312206    7660.6184    4109.9664    3958.8267    3624.9356   -304.43279      354.711   -1209.8136   -2992.6687 
 1792000    263.44717   -3847.9749   -3396.4354   -3847.9749            0    3476.8623    17.504757    20.618292    21.355763    7707.6831    2580.7812    3397.9029    4451.9028    858.83454    185.80708   -1335.3423    -3005.606 
 1793000    266.50752   -3852.3121   -3395.5273   -3852.3121            0    2815.6548    17.479526    20.588573    21.324981    7674.4021    3398.0595    2019.3982    3029.5069   -1009.5081    1504.6565   -960.39229   -3080.3899 
 1794000    262.93469   -3891.6739   -3441.0128   -3891.6739            0    4538.2868    17.472706     20.58054    21.316661    7665.4231    2602.3753    6141.2063    4871.2787   -17.083707    537.36262   -916.95402   -2933.6671 
 1795000    252.49152    -3916.201   -3483.4392    -3916.201            0    3098.7883    17.470966     20.57849    21.314537    7663.1323    3293.7115    3721.8915    2280.7619    662.25741    906.46221   -130.14416   -3137.1219 
 1796000    271.21718   -3872.6808   -3407.8238   -3872.6808            0    3215.1534     17.52359    20.640474    21.378739    7732.5874    3811.2448    3699.3751    2134.8402    -1343.603    192.43094   -30.617793    -3045.245 
 1797000    254.80582   -3872.7329   -3436.0044   -3872.7329            0    3494.4416    17.472741    20.580581    21.316703    7665.4685    5216.7581    2554.7043    2711.8623   -548.62012   -552.77479   -158.45726   -3045.3503 
 1798000     264.7746   -3888.3375   -3434.5229   -3888.3375            0    4652.0578    17.425506    20.524944    21.259077     7603.469    5554.8191    2432.1661    5969.1881    -525.5162   -288.98489    690.25071   -2918.6618 
 1799000    254.02262   -3824.5351    -3389.149   -3824.5351            0    5384.3217      17.3593    20.446963    21.178306    7517.1332    5102.8247    6572.0716    4478.0688    1139.7885    1209.9904    533.58332   -2798.8676 
 1800000    272.48876   -3893.3167   -3426.2803   -3893.3167            0    4647.8724    17.287185    20.362021    21.090326    7423.8376     4237.584    4120.6585    5585.3748    1335.2594    239.76094    141.67508   -2923.0596 
 1801000    274.50031   -3866.2286   -3395.7445   -3866.2286            0      4432.89    17.436573    20.537979    21.272578    7617.9648    3745.8106    5969.4603     3583.399    732.36477    8.0929464     124.0172   -2903.2495 
 1802000    267.60575   -3888.3445   -3429.6774   -3888.3445            0    2710.5801    17.461293    20.567097    21.302737    7650.4116     1894.319    3139.6462     3097.775   -823.73964    888.11736     1314.505   -3127.2487 
 1803000    256.04959   -3867.6336   -3428.7733   -3867.6336            0    3650.6298    17.425601    20.525057    21.259193    7603.5937    4436.7466    2126.8502    4388.2927    1043.5908    386.22278   -542.98159   -3023.9527 
 1804000      259.347   -3818.3365   -3373.8246   -3818.3365            0    1925.0189     17.47511    20.583372    21.319594    7668.5874    2776.7346    927.90439    2070.4177   -116.00825     1072.022    1003.1548   -3158.5334 
 1805000    261.76245   -3863.6516   -3414.9997   -3863.6516            0    2492.1372    17.479647    20.588716    21.325129    7674.5619    1386.2094    1075.1289    5015.0734    160.70921    708.01193   -335.44353   -3136.0657 
 1806000     280.6884   -3872.8352   -3391.7449   -3872.8352            0    3397.4986    17.458695    20.564037    21.299567    7646.9973    2029.2678    2780.3655    5382.8626   -836.86482   -672.97333   -875.04165   -3012.8436 
 1807000    266.30166   -3874.8608   -3418.4289   -3874.8608            0    3568.8712    17.447046    20.550316    21.285356    7631.7005    1920.7509    4569.4843    4216.3785    548.01253    946.23083    1109.3106   -3021.2116 
 1808000    258.39538   -3874.7753   -3431.8944   -3874.7753            0    4898.3034    17.538495     20.65803    21.396923     7752.335       5495.9    5509.7794    3689.2306   -344.47567     -591.476    481.43538    -2878.093 
 1809000    262.63433   -3858.2587   -3408.1125   -3858.2587            0    2657.9104    17.484321     20.59422     21.33083    7680.7188    2004.8669    3995.0584    1973.8058    486.57186    927.06256    60.421294   -3110.3855 
 1810000    257.59521   -3887.6499   -3446.1405   -3887.6499            0    4610.4943     17.36023    20.448058     21.17944    7518.3412    4227.8086    5043.0899    4560.5844    1313.8719   -315.41011    677.81176   -2940.6123 
 1811000    252.16674   -3846.9687   -3414.7636   -3846.9687            0    3168.5999    17.522011    20.638615    21.376813    7730.4976      2947.73    3406.8946     3151.175     -244.788   -877.11632    34.896115   -3057.5313 
 1812000    266.18311   -3851.1006   -3394.8718   -3851.1006            0    4059.2992    17.405224    20.501055    21.234333    7576.9508    3998.4983    3696.1149    4483.2843   -302.94503   -1142.0154    32.763913   -2946.3109 
 1813000    271.20837    -3839.578   -3374.7362    -3839.578            0    2566.9757    17.513987    20.629163    21.367023    7719.8819    2639.3384    2210.6809    2850.9079    21.064242    691.89422   -738.20679   -3085.7292 
 1814000    268.48908   -3842.2614   -3382.0803   -3842.2614            0    5812.4561    17.363505    20.451915    21.183436    7522.5967    4573.3984    5460.5068     7403.463    1187.6868   -537.06339   -1276.1742   -2744.3995 
 1815000    257.81817    -3877.895   -3436.0035    -3877.895            0    2904.7871    17.438358    20.540083    21.274756    7620.3055     2760.385     2739.861    3214.1152   -656.61137    700.01402     266.2445   -3113.1819 
 1816000    271.23096   -3846.3585    -3381.478   -3846.3585            0     3653.968    17.490299    20.601262    21.338123       7688.6    5148.9457    1933.5698    3879.3886   -843.29168    1229.4212    978.75221   -2971.7573 
 1817000    251.28666    -3895.619   -3464.9223    -3895.619            0    2990.1631    17.468783    20.575919    21.311875    7660.2608    3505.7644    2024.6011    3440.1239   -365.74459    -1599.865    669.70681   -3130.8701 
 1818000    263.75671    -3882.075    -3430.005    -3882.075            0    3893.1315    17.381684    20.473328    21.205614    7546.2491    3977.7213    3195.3539    4506.3192    133.86198   -302.32606   -174.32258   -3001.5491 
 1819000    241.66839   -3875.6243   -3461.4129   -3875.6243            0     3552.464    17.417261    20.515233    21.249018    7592.6818    3266.8195    3472.1065    3918.4661   -828.04334   -483.47954   -1425.0818   -3068.0433 
 1820000    261.87115   -3854.2334   -3405.3952   -3854.2334            0    3935.1605    17.446094    20.549195    21.284194    7630.4515    3313.4359     3855.115    4636.9308    760.55434   -1154.0105   -694.61989   -2967.4815 
 1821000    244.43335   -3814.0168   -3395.0664   -3814.0168            0     3519.914    17.431828    20.532391     21.26679    7611.7478    3341.9335    6486.9484    730.85993    249.87053   -817.97824   -113.91787   -3004.3224 
 1822000    272.05563   -3810.3657   -3344.0716   -3810.3657            0    4486.7234    17.505283    20.618911    21.356405    7708.3782    3263.6188    4244.0536    5952.4978   -899.95865   -970.45534   -729.64387   -2839.6796 
 1823000    250.13573    -3850.922   -3422.1979    -3850.922            0    2690.4805    17.489405    20.600209    21.337033    7687.4212    2134.8156    2017.1874    3919.4385   -829.60668   -1056.6624   -298.97629   -3120.5597 
 1824000    269.90491   -3897.6053   -3434.9975   -3897.6053            0    3726.9778    17.415669    20.513357    21.247075    7590.5992    3944.1044    4143.6103    3093.2188   -835.74351    2299.9428   -72.023279    -3022.417 
 1825000    254.77457   -3846.2436   -3409.5687   -3846.2436            0    2598.1233    17.510813    20.625424    21.363151    7715.6853    5406.9662    2131.1591    256.24457    1218.9073   -297.56359   -957.79222   -3117.2139 
 1826000    262.16488    -3845.376   -3396.0343    -3845.376            0    2326.2594    17.451149    20.555148    21.290361    7637.0855    2887.4387    1924.2118    2167.1276    66.402213   -590.10158   -299.61372   -3136.9378 
 1827000    250.42627   -3846.1422   -3416.9201   -3846.1422            0    5641.6769     17.34344    20.428281    21.158956    7496.5477     5544.669    5667.8707    5712.4909    18.189128   -1716.6183    589.09228   -2800.1186 
 1828000    277.16364   -3827.1176   -3352.0687   -3827.1176            0    4272.9825    17.572134    20.697652    21.437962    7797.0276     3672.046    4677.9745    4468.9269   -292.35904   -779.13391   -1166.7012   -2866.1808 
 1829000    260.03854   -3849.7765   -3404.0794   -3849.7765            0    3083.1025    17.471594     20.57923    21.315304    7663.9589    3767.1123    3288.5681    2193.6273   -1598.3563    1159.1346    1938.6825    -3059.478 
 1830000     257.1003   -3793.3019   -3352.6407   -3793.3019            0    2626.7036    17.460409    20.566055    21.301658    7649.2489    1665.8441    2776.2948     3437.972    587.37967   -370.57848    453.31516    -3059.615 
 1831000    250.02249   -3810.5363   -3382.0063   -3810.5363            0    3511.4929    17.443421    20.546046    21.280933    7626.9448    2884.3685     3454.669    4195.4413    970.87034   -902.35222   -1620.6435   -2991.4189 
 1832000    259.29815   -3859.6763   -3415.2481   -3859.6763            0    3339.3596    17.431125    20.531563    21.265932    7610.8274    3418.8613    3690.1636    2909.0539   -1423.8989    1025.2869    216.63025   -3044.5922 
 1833000    248.83942   -3828.9438   -3402.4416   -3828.9438            0     2684.356    17.440632     20.54276     21.27753     7623.286    1445.6938    3441.4978    3165.8763    99.215274     1040.637    220.46935   -3104.0008 
 1834000    268.71434   -3809.0522    -3348.485   -3809.0522            0     4192.969    17.416835    20.514731    21.248498    7592.1241    3926.9504    5056.4599    3595.4968    179.47657     797.3949    121.19335   -2884.2254 
 1835000    261.48736   -3856.7866   -3408.6062   -3856.7866            0    4910.4776    17.341625    20.426144    21.156742     7494.195    4314.1511     4977.684    5439.5975   -179.03631   -1045.8409    395.51489   -2871.9149 
 1836000    257.50135   -3837.1192   -3395.7707   -3837.1192            0    3235.9826    17.478817    20.587738    21.324116    7673.4687     2699.198    4271.3186     2737.431    356.15887    -510.9981   -1197.0575    -3033.633 
 1837000    269.99727   -3895.6532   -3432.8871   -3895.6532            0    1709.5679    17.467885    20.574861    21.310779    7659.0789    1895.6132    1793.6956     1439.395    1052.3315     849.8076    483.01545   -3241.9287 
 1838000    266.88878   -3822.0858   -3364.6476   -3822.0858            0    3406.8812    17.464001    20.570286     21.30604    7653.9712    2844.5206    2064.9182    5311.2049   -443.97784   -1482.1544   -2092.1928   -2984.3534 
 1839000    257.54558   -3881.1635   -3439.7392   -3881.1635            0     3491.593    17.439426     20.54134    21.276058    7621.7046    4616.0272    1247.6977    4611.0542    12.218442   -320.48936    -148.7091   -3051.6321 
 1840000    266.10483   -3849.9892   -3393.8946   -3849.9892            0    5547.0678    17.419768    20.518186    21.252077    7595.9607    5584.0454    6142.7098    4914.4482    1317.4675    238.54383    847.92938   -2779.3944 
 1841000    246.54404    -3861.299    -3438.731    -3861.299            0    4066.3606    17.483935    20.593766     21.33036    7680.2108     4391.021    3494.3794    4313.6815    1219.5598   -64.177331    961.65715   -2983.2661 
 1842000    264.92767   -3873.8331   -3419.7562   -3873.8331            0    4136.2723    17.473393    20.581349    21.317498    7666.3265    4787.3509    3579.9266    4041.5394      923.202    190.64479   -580.95968   -2957.2982 
 1843000    250.01451   -3880.0608   -3451.5444   -3880.0608            0     2954.971    17.479236    20.588231    21.324627    7674.0197    4104.8059    2821.6879    1938.4191   -785.15089   -755.16451    244.67664   -3120.8309 
 1844000    270.81165   -3906.1229    -3441.961   -3906.1229            0    3771.5889    17.478141    20.586941    21.323291    7672.5774    3921.3774    3725.3033    3668.0862    -708.8026    799.77281   -1.9944795   -3019.9327 
 1845000    272.28605   -3919.7382   -3453.0492   -3919.7382            0    3927.5854    17.498468    20.610884     21.34809    7699.3786    4968.9137    3583.4654    3230.3771   -1275.8299     144.7375   -222.00216   -3012.0303 
 1846000    260.55789   -3858.0889   -3411.5016   -3858.0889            0     3643.462    17.481103     20.59043    21.326904    7676.4787    3919.0156    3389.9596    3621.4107    1600.8161   -540.54776    1231.6035    -3003.603 
 1847000    264.52614    -3876.946   -3423.5572    -3876.946            0    4492.2118    17.472801    20.580652    21.316777    7665.5479     3732.266    5475.0399    4269.3295    928.88281    1198.1955   -590.73289   -2921.3542 
 1848000    260.40434   -3889.2848   -3442.9606   -3889.2848            0     2245.468    17.598249    20.728413    21.469822    7831.8426    2599.1808     1509.379    2627.8441    591.80186   -1135.7264   -615.08938   -3186.4847 
 1849000    271.78744   -3872.7638   -3406.9294   -3872.7638            0    3068.9471    17.497508    20.609753    21.346919    7698.1117    1894.0058    2347.9204     4964.915    129.40434   -765.40669   -1330.5729   -3062.3816 
 1850000    254.26925   -3872.0708    -3436.262   -3872.0708            0     4769.907    17.383422    20.475375    21.207734     7548.513    6424.6134    4894.7889    2990.3187    710.33706   -550.36563   -434.08908   -2911.1557 
 1851000    252.37516   -3886.9001   -3454.3377   -3886.9001            0    3149.1033    17.453377    20.557773    21.293079    7640.0116    3703.0938     2540.145     3204.071    926.35351    603.97002    367.91793   -3103.4591 
 1852000    260.65599    -3849.928   -3403.1726    -3849.928            0    4362.7133    17.427418    20.527196    21.261409    7605.9718    4661.9565    5259.0657    3167.1178   -58.266943   -547.07399   -1839.8741   -2919.2373 
 1853000    264.28327   -3846.1517   -3393.1792   -3846.1517            0    3557.0853     17.43263    20.533336    21.267768     7612.799    3887.8643    3446.9327    3336.4588    1045.0173   -828.48682    715.53497   -2998.2543 
 1854000    260.10465   -3856.1065    -3410.296   -3856.1065            0    5913.1388    17.359569     20.44728    21.178634    7517.4825     6131.487    6728.8069    4879.1227    1528.8049    403.70724   -1135.3455   -2762.0104 
 1855000    268.44701   -3855.2584   -3395.1494   -3855.2584            0    2919.8103      17.4619    20.567811    21.303477    7651.2088     2594.007    3552.5113    2612.9127    184.79978    286.12972     730.9285   -3069.3423 
 1856000    250.65783   -3867.3645   -3437.7456   -3867.3645            0    3610.1104    17.406543    20.502608    21.235941    7578.6726    2832.3874    3850.0042    4147.9396   -184.37221    565.35929    1782.6398   -3038.7303 
 1857000    249.03514   -3857.8733   -3431.0356   -3857.8733            0    4624.6963    17.526848    20.644312    21.382714    7736.9018     4791.119    4598.5723    4484.3975   -762.41403    457.02236   -822.78119    -2909.209 
 1858000    257.15411    -3817.643   -3376.8897    -3817.643            0    4307.7651    17.478851    20.587778    21.324157     7673.513    4122.2246     4488.281    4312.7897    658.25053    503.79297    480.19282   -2894.8063 
 1859000    272.07111   -3894.9481   -3428.6275   -3894.9481            0    3348.0247    17.527999    20.645667    21.384117    7738.4249    3551.1923    2868.4052    3624.4766    591.93709    806.47107    527.63672   -3050.7795 
 1860000    260.80074   -3870.8977   -3423.8942   -3870.8977            0    5154.6276    17.403149     20.49861    21.231801    7574.2404    5021.9575    5467.6263    4974.2988   -874.58903    1000.7801    -1855.799    -2854.501 
 1861000      259.209   -3838.8302   -3394.5548   -3838.8302            0    3193.8925     17.40453    20.500237    21.233486    7576.0436    3935.2713    2695.0428    2951.3635    1632.4536   -492.10912   -443.44171   -3041.6654 
 1862000    268.45627   -3856.9826   -3396.8577   -3856.9826            0    3319.4777     17.40942    20.505997    21.239452    7582.4317    3619.4862    4335.6645    2003.2823    1756.0951    875.35316   -1193.6242   -3029.7833 
 1863000    265.54971   -3866.3574   -3411.2143   -3866.3574            0    3120.1045    17.462424    20.568429    21.304116    7651.8981    1131.7796    3482.9681    4745.5657    540.30516    1040.6489   -357.00768    -3063.026 
 1864000    261.62238   -3824.7268    -3376.315   -3824.7268            0    3487.2213    17.433593    20.534469    21.268942    7614.0597    3255.8548    1971.7613    5234.0478    942.34295    572.30478    272.56224   -2989.0826 
 1865000    267.84933   -3852.4326    -3393.348   -3852.4326            0    4211.2073    17.449123    20.552762    21.287889    7634.4259    5015.3036     4184.144    3434.1742    1093.1546    1294.6828    388.81242   -2924.4711 
 1866000    258.61958   -3895.6648   -3452.3997   -3895.6648            0     5332.094    17.473869    20.581909    21.318079    7666.9532    6048.6909     3560.277    6387.3141    1490.5372   -567.32906   -4.2053572   -2856.1935 
 1867000    256.50519   -3918.0641    -3478.423   -3918.0641            0     4357.464    17.510669    20.625255    21.362975    7715.4949    4718.8768    4211.6634    4141.8517    1343.0776    861.46957    28.360955   -2988.1099 
 1868000    252.19031   -3875.8481   -3443.6025   -3875.8481            0    3811.4279    17.519942    20.636177    21.374288     7727.759    2700.5731    5548.3469    3185.3637   -780.64612    57.200361    506.48264   -3014.0491 
 1869000    269.70429   -3865.5915   -3403.3276   -3865.5915            0    2975.6142    17.537222    20.656531     21.39537    7750.6478    3963.2289    1794.4077    3169.2059    -675.8683    750.63398   -200.38554   -3066.9783 
 1870000    256.03941   -3880.6496   -3441.8069   -3880.6496            0    2544.7621    17.578229    20.704832    21.445399    7805.1449    2247.2222    2890.4366    2496.6275    1629.0267    779.80744   -699.49008   -3152.1365 
 1871000    257.86027   -3890.7715   -3448.8078   -3890.7715            0    4272.7525     17.42886    20.528895    21.263168    7607.8599     4309.966    3682.7414      4825.55   -1010.6072    1644.6819    637.03793   -2974.7338 
 1872000    259.27914   -3848.7939   -3404.3983   -3848.7939            0    3406.2183    17.390263    20.483433     21.21608    7557.4284    5536.3742    3269.5338     1412.747    158.73225    133.59033    497.72099    -3028.974 
 1873000    239.42595   -3855.3609    -3444.993   -3855.3609            0    2125.5142    17.395606    20.489726    21.222598     7564.396    2703.7736    1096.5817    2576.1871   -33.637074    1123.0488   -947.58965   -3210.5085 
 1874000     273.7793   -3842.2633   -3373.0149   -3842.2633            0    4339.0351    17.373313    20.463468    21.195401    7535.3514    4361.8722    4564.8183    4090.4147   -158.15759    218.62184    464.02015    -2896.175 
 1875000    268.71135   -3814.8532   -3354.2911   -3814.8532            0    3729.5489    17.501539    20.614502    21.351837    7703.4335    4185.0102    4409.4216     2594.215    402.48447    1082.6085    819.72084   -2935.2887 
 1876000    257.29118   -3819.3238   -3378.3355   -3819.3238            0    5155.0267    17.398453    20.493079    21.226072    7568.1108    5744.7371    4279.3692    5440.9737  -0.71603574    551.71559   -1819.0908   -2809.3591 
 1877000    266.76581   -3848.9983   -3391.7708   -3848.9983            0    3159.2393    17.498661    20.611111    21.348325    7699.6329    3922.9965    4353.7421    1200.9794    653.39896    -141.6136    38.818687   -3037.0159 
 1878000    265.70423   -3852.9031   -3397.4952   -3852.9031            0    5656.3442     17.40217    20.497458    21.230607    7572.9628    5665.8986    6900.1892    4402.9447    505.12572   -210.54512   -377.62712   -2772.7865 
 1879000     266.5133   -3849.2541   -3392.4595   -3849.2541            0     3281.443    17.458921    20.564302    21.299842    7647.2936    1767.8295    3918.4072    4158.0923   -160.46612   -73.183354   -423.27255   -3026.4869 
 1880000    248.84137   -3867.9009   -3441.3953   -3867.9009            0    4112.8288    17.441132     20.54335     21.27814    7623.9423    4045.5109    4893.3211    3399.6544   -137.73163    267.40274   -920.48047   -2984.1007 
 1881000    259.90556   -3909.2985   -3463.8292   -3909.2985            0    4159.0481    17.448437    20.551954    21.287052    7633.5257    2826.5921    3868.6202    5781.9321    1362.0267    529.02139   -993.29946   -3000.8143 
 1882000    274.52961   -3843.1363    -3372.602   -3843.1363            0    4802.5938    17.433508    20.534369    21.268839    7613.9483     4541.775    5868.0079    3997.9984   -831.16541    966.95886   -500.04734   -2839.3142 
 1883000    250.53216   -3844.3152   -3414.9117   -3844.3152            0      2908.31    17.490755      20.6018    21.338681    7689.2023     3603.715    2715.6369    2405.5782   -241.25399   -269.39622   -136.92922   -3088.7763 
 1884000    257.32727   -3862.8712    -3421.821   -3862.8712            0    3596.9604    17.371404     20.46122    21.193073    7532.8683    3892.0192    2530.0206    4368.8413   -148.90547   -36.171984   -476.01131    -3026.662 
 1885000    255.71277   -3867.5423   -3429.2594   -3867.5423            0    2255.8208    17.433416    20.534261    21.268726    7613.8277    1126.4365    4414.0094    1227.0165   -43.567454   -1129.6422   -1200.4226   -3178.7733 
 1886000    257.22662   -3828.0639   -3387.1863   -3828.0639            0    3490.3076     17.41614    20.513913     21.24765    7591.2154     2756.671     2631.037    5083.2149    680.99051     1193.275    1417.3759    -3000.774 
 1887000    253.73964   -3853.0227   -3418.1217   -3853.0227            0    1995.0326    17.483454    20.593199    21.329772    7679.5763    1692.1312    2172.4014    2120.5654   -169.37954   -114.69389    20.481596   -3194.6805 
 1888000     268.9299   -3851.3149   -3390.3782   -3851.3149            0    3733.6974    17.402993    20.498427    21.231611     7574.037    4115.3998    2997.7863     4087.906    1259.1466   -401.57654   -219.94836   -2977.9556 
 1889000    251.35106   -3898.7598   -3467.9527   -3898.7598            0    2003.1228    17.480474     20.58969    21.326138    7675.6509    1981.6656    2739.2581    1288.4447    753.60224    819.58016   -1763.1249   -3243.7201 
 1890000     261.4041   -3859.0745   -3411.0368   -3859.0745            0    4381.6861    17.397085    20.491469    21.224404    7566.3264    3335.9259    4854.5114    4954.6211   -982.46005   -607.53318    641.57769   -2927.5304 
 1891000    258.35357    -3864.724   -3421.9148    -3864.724            0    2421.7594    17.469917    20.577255    21.313258    7661.7525    2683.7875    2377.2443    2204.2465    -461.1762    17.190867   -15.448016   -3151.3103 
 1892000    256.17603   -3872.0039   -3432.9269   -3872.0039            0    3454.8057    17.468887    20.576041    21.312001    7660.3971    4612.4981    2645.0263    3106.8926    172.13369     1439.041   -1010.0302   -3046.9594 
 1893000    257.44748   -3854.6379   -3413.3817   -3854.6379            0    2162.5764    17.467992    20.574988     21.31091    7659.2204     990.2239    3241.6323    2255.8731   -821.83201    -391.0007   -1039.8255   -3171.8179 
 1894000    256.54166   -3859.5216    -3419.818   -3859.5216            0     2540.452    17.473956    20.582012    21.318185    7667.0674    748.18828     2726.335    4146.8326   -110.05459   -1005.3416   -137.77277    -3135.754 
 1895000    281.34709   -3877.4159   -3395.1966   -3877.4159            0    3737.5229    17.407365    20.503577    21.236945    7579.7472    2092.6383    4666.6138    4453.3165    907.67155    380.02319   -147.59884   -2982.0402 
 1896000    258.43903   -3884.6781   -3441.7224   -3884.6781            0    3835.5452    17.490039    20.600956    21.337807    7688.2578    6043.4242    3567.6087    1895.6028    651.25825    71.144762   -147.28215   -3011.6605 
 1897000    253.26194   -3867.0338   -3432.9515   -3867.0338            0    3507.9675    17.445309     20.54827    21.283236    7629.4211    3064.4846    3459.5031    3999.9148   -831.29645    1528.4547   -698.83479   -3042.6295 
 1898000    253.91611    -3871.539   -3436.3355    -3871.539            0    4265.9117    17.371893    20.461795    21.193669    7533.5039    3055.3162    4311.8616    5430.5573   -9.8779593   -122.32729    843.77415   -2967.6465 
 1899000    257.74131     -3797.53   -3355.7702     -3797.53            0    1423.7698    17.413973     20.51136    21.245006     7588.382    1238.1444    2496.3357    536.82944    559.32699    417.65389   -61.753567   -3198.2034 
 1900000    256.96947   -3861.9573   -3421.5205   -3861.9573            0    4402.9617    17.376649    20.467397    21.199471    7539.6926    5003.9389    4357.5535    3847.3926   -464.01379    797.34351   -134.21395   -2937.3766 
 1901000    258.87966   -3840.7868    -3397.076   -3840.7868            0    4739.8903    17.365146    20.453848    21.185437    7524.7292    7125.9791    2174.0798    4919.6119    447.38061   -572.16787   -1430.1988   -2876.9182 
 1902000     252.9175   -3899.6049   -3466.1129   -3899.6049            0    3010.2801    17.455438    20.560201    21.295594    7642.7185    2715.6546     3924.598    2390.5877    926.39052   -1791.0146   -249.75507   -3130.5835 
 1903000    264.26344   -3873.9724   -3421.0339   -3873.9724            0    3511.1106     17.51148    20.626211    21.363965    7716.5679    2712.6743    4220.8531    3599.8043   -115.54143   -774.73354   -309.11042   -3025.8997 
 1904000     258.0823   -3898.9714   -3456.6272   -3898.9714            0    2489.8943    17.574261    20.700159    21.440558    7799.8605    1311.6787    2610.4938    3547.5104    644.53777   -894.38936   -125.06121   -3173.3943 
 1905000     256.0986   -3875.6672    -3436.723   -3875.6672            0    5961.6437    17.497154    20.609337    21.346487    7697.6446    5312.4122     5799.323    6773.1958   -1118.6835    740.08105   -184.14746   -2767.4554 
 1906000    237.44334   -3865.4026   -3458.4328   -3865.4026            0    3214.3783    17.497614    20.609878    21.347048     7698.251    1517.5051    3168.1966    4957.4333   -1153.3203   -885.93099   -581.35365   -3097.5511 
 1907000    246.05507   -3862.0152   -3440.2852   -3862.0152            0    3039.8643    17.513103    20.628122    21.365945    7718.7136    4985.7723    2711.5172    1422.3035     787.9764   -1163.9895    318.69316   -3098.0891 
 1908000    254.22413   -3838.4932   -3402.7617   -3838.4932            0    3592.0905    17.504906    20.618466    21.355944    7707.8793    2035.9214    5354.7551    3385.5951   -1301.4505   -762.90252   -970.11331   -2998.9694 
 1909000     250.0615   -3838.1425   -3409.5457   -3838.1425            0    4300.5924    17.377793    20.468745    21.200867    7541.1826    3820.8748    4090.5816    4990.3208   -499.76778    238.86457    626.28958   -2936.5647 
 1910000    270.49837   -3821.7068   -3358.0818   -3821.7068            0    3785.7226    17.477703    20.586426    21.322757    7672.0013    2938.9611    3809.3157    4608.8911    400.08392    993.29568     444.1858   -2934.5039 
 1911000    265.06151   -3879.1497   -3424.8433   -3879.1497            0     2474.217    17.470342    20.577755    21.313776    7662.3117    3238.1241    1472.1051    2712.4217    1209.8828   -766.97825    1199.4158   -3148.3571 
 1912000    256.21645   -3870.4028   -3431.2566   -3870.4028            0    2899.8258    17.426059    20.525595    21.259751    7604.1926    1624.5176    2491.4339    4583.5259   -525.54562    1644.6065   -272.83326   -3109.6678 
 1913000    263.55995   -3851.6283   -3399.8955   -3851.6283            0    1951.2335    17.461667    20.567537    21.303193    7650.9025    408.64106    2248.9299    3196.1296   -540.77424   -727.56718    419.65199   -3182.1758 
 1914000    259.07975    -3854.236   -3410.1822    -3854.236            0    3629.8416    17.383386    20.475333     21.20769    7548.4662    2760.4047    4320.1053    3809.0148    -10.04699    557.42344    -365.1534   -3010.5851 
 1915000    263.97788   -3848.6362   -3396.1872   -3848.6362            0     3974.524    17.467396    20.574285    21.310183    7658.4362    4047.0167    1707.9982    6168.5572   -1037.0843    1465.5181    435.85561   -2952.2708 
 1916000    265.27114   -3844.8093   -3390.1437   -3844.8093            0    2771.0404    17.559001    20.682184     21.42194    7779.5592    3593.5374    2277.9436    2441.6402    -578.6692    230.50736    324.99681     -3075.75 
 1917000    260.56572   -3878.7378    -3432.137   -3878.7378            0    3083.6069    17.462768    20.568834    21.304536    7652.3506    3646.7299    2693.4466    2910.6441   -936.10887   -792.52518   -73.742187   -3088.0013 
 1918000    272.09061   -3822.6116   -3356.2576   -3822.6116            0     4400.356    17.536716    20.655935    21.394753    7749.9771    4279.8126     3702.499    5218.7564    92.145261     360.5783     934.9224   -2858.9053 
 1919000     273.5788   -3843.2854   -3374.3808   -3843.2854            0    2603.2136     17.43156    20.532075    21.266463     7611.397    2431.4991    3477.4867    1900.6551    1422.3358    128.62765    571.02305   -3085.4125 
 1920000    267.69343   -3854.2038   -3395.3864   -3854.2038            0    3346.1582        17.46    20.565573    21.301159    7648.7117    5290.2919    3579.5571    1168.6258   -2078.8634   -812.52458    1476.0481   -3022.1271 
 1921000    255.42781   -3866.2848   -3428.4903   -3866.2848            0    2402.5154    17.487767     20.59828    21.335035     7685.262    3265.4314    1999.0958    1943.0189   -590.90384   -2278.7709    1188.5333   -3159.2124 
 1922000    259.49144    -3838.364   -3393.6046    -3838.364            0    4252.4242    17.450897    20.554851    21.290053    7636.7548     4531.237    4506.6273    3719.4084    899.08211    -682.0201     253.9737   -2919.9941 
 1923000    255.63568   -3850.1748    -3412.024   -3850.1748            0    2783.8904    17.444578    20.547409    21.282345    7628.4622    1942.6354    3066.7693    3342.2666   -2120.6844   -358.47073   -217.05167    -3102.307 
 1924000    248.68781   -3860.8571   -3434.6147   -3860.8571            0    4760.1952    17.383281    20.475209    21.207562    7548.3292    5911.0588    4354.5555    4014.9713   -1752.5874   -1559.6644   -250.25262   -2910.5903 
 1925000    279.94964   -3868.5191    -3388.695   -3868.5191            0     3366.576    17.410481    20.507247    21.240746    7583.8177     3016.261    4685.7478    2397.7191     1141.986    1052.7694   -270.54868   -3016.3443 
 1926000    264.05284   -3869.0359   -3416.4584   -3869.0359            0     4381.959    17.359652    20.447376    21.178734    7517.5893    2641.6607    4298.6188    6205.5975   -432.74422    1121.7515   -1376.2662   -2936.0365 
 1927000    260.49996   -3820.8655   -3374.3775   -3820.8655            0    2574.5783    17.479503    20.588546    21.324953    7674.3719    1793.8009     2296.862    3633.0721   -1020.4657   -444.38844   -848.15544   -3086.2233 
 1928000    263.83289    -3837.737   -3385.5364    -3837.737            0    4238.2074     17.47992    20.589036    21.325461    7674.9206     3037.463    5265.2894    4411.8698    972.09951   -1038.0702    991.62985   -2911.1503 
 1929000    256.47341   -3832.5398   -3392.9531   -3832.5398            0    2748.2531    17.484266    20.594156    21.330764    7680.6475    2735.6263    2997.8261    2511.3069   -1096.5488   -274.83277   -408.09344   -3085.1093 
 1930000    250.14364   -3840.3228   -3411.5852   -3840.3228            0    2975.6572     17.45366    20.558106    21.293424    7640.3828    2336.3593    3074.0052    3516.6071   -376.53494   -88.682532   -250.79108   -3080.0162 
 1931000    268.92827   -3837.0703   -3376.1364   -3837.0703            0    2720.7805    17.490183    20.601125    21.337982    7688.4473    2366.9943    3208.0967    2587.2503   -27.158857    772.65202    84.025057   -3071.0605 
 1932000    260.58047   -3795.2795   -3348.6535   -3795.2795            0    4595.1695    17.441155    20.543376    21.278168    7623.9718    3684.3608    5868.2498     4232.898     113.9316   -946.38467   -364.99132   -2837.7267 
 1933000    255.13962   -3845.5409   -3408.2404   -3845.5409            0    2491.2091    17.574287    20.700188    21.440589    7799.8942    2071.4657    2558.5517    2843.6099   -194.84563    151.48272   -2094.9659   -3124.8567 
 1934000     264.1184   -3857.2195   -3404.5296   -3857.2195            0    4671.0487    17.412808    20.509988    21.243585    7586.8594    4529.4823    3017.6881    6465.9757   -95.707434   -400.10932   -1103.8435   -2887.6941 
 1935000    261.54708   -3827.1172   -3378.8344   -3827.1172            0     3558.875    17.456255    20.561162     21.29659    7643.7908    4316.4476    3316.1986    3043.9788   -240.89218   -75.872939   -1186.7789   -2982.1023 
 1936000    277.78885   -3857.1497   -3381.0292   -3857.1497            0    1982.2863    17.541279    20.661309    21.400319    7756.0275    2290.2401    776.94758    2879.6711   -80.687824    495.45823    225.69976   -3156.8054 
 1937000    261.77803   -3855.7248   -3407.0462   -3855.7248            0     4616.644    17.447895    20.551315    21.286391     7632.814    4410.2359    5509.6095    3930.0866   -524.79809   -1070.5371    672.91204   -2893.1364 
 1938000     279.6956   -3838.6015   -3359.2128   -3838.6015            0    5200.5484    17.509554    20.623942    21.361615    7714.0219    5697.2907    5257.8947    4646.4599    531.94016    1220.0951    1876.7133   -2774.1454 
 1939000     261.3363   -3885.1952   -3437.2738   -3885.1952            0    4344.5345    17.424552    20.523821    21.257913    7602.2204    3538.7921    4451.7656     5043.046    1777.8939     1026.542    2912.8337   -2955.5927 
 1940000    274.36996   -3836.7069   -3366.4462   -3836.7069            0    1463.5804    17.564949    20.689189    21.429196    7787.4674    3229.3443    209.20134     952.1954    1905.3462    920.12467    162.20325   -3200.2241 
 1941000    263.55159   -3866.9334    -3415.215   -3866.9334            0     3142.805    17.489655    20.600504    21.337339    7687.7516    4240.8332    1437.8314    3749.7503    682.93335    1803.3994    1182.8825   -3062.8501 
 1942000    256.13858   -3865.5325   -3426.5197   -3865.5325            0    4218.6703    17.472752    20.580594    21.316717    7665.4831    3348.0347    5613.8749    3694.1013   -701.07687    1132.1073    220.28766   -2954.9011 
 1943000    263.74243   -3871.3313   -3419.2858   -3871.3313            0    3564.0703    17.495312    20.607167     21.34424    7695.2139    3067.1953    3749.4239    3875.5918   -25.863822     1745.103   -306.71303   -3019.3016 
 1944000    262.05115   -3873.9539   -3424.8072   -3873.9539            0     4341.337    17.512306    20.627184    21.364973    7717.6595    5450.7701     3393.725     4179.516    1071.0531   -534.11806    204.26168   -2936.1717 
 1945000    270.44078   -3909.4287   -3445.9024   -3909.4287            0    1768.4255    17.567961    20.692738    21.432872    7791.4753    1033.3851    2002.1936    2269.6978   -512.98082   -281.23317   -176.95627    -3244.955 
 1946000    267.17179   -3885.9089   -3427.9856   -3885.9089            0    4165.9793    17.514626    20.629916    21.367802    7720.7266    3398.8545    3775.0489    5324.0346   -514.55902   -508.79274    1105.9896    -2958.901 
 1947000    261.14855   -3868.3491   -3420.7494   -3868.3491            0    2564.7289    17.576328    20.702593     21.44308     7802.613    1697.6431    2045.1353    3951.4083   -28.562392    271.56413    -979.4427   -3128.9009 
 1948000    256.71232   -3831.4912    -3391.495   -3831.4912            0     3010.368    17.576216    20.702461    21.442943    7802.4636    2288.8916    4931.3473     1810.865   -1887.2966    1049.5634    6.7360585   -3048.9425 
 1949000    261.88988   -3825.9989   -3377.1286   -3825.9989            0    3795.9198    17.406745    20.502847    21.236189    7578.9372    4804.9122    3559.7665    3023.0807   -362.42791   -1011.9795   -1144.9374   -2957.5617 
 1950000    246.05187   -3823.9851   -3402.2606   -3823.9851            0    3343.2829    17.451213    20.555224     21.29044    7637.1703     4671.428    1921.4427    3436.9781    263.09388    265.83298   -958.57089   -3029.8848 
 1951000    253.85821   -3815.2863   -3380.1821   -3815.2863            0    3653.5578    17.449883    20.553657    21.288816    7635.4232    2634.4477    2971.6309    5354.5947    1319.1523   -334.27628    10.616432   -2973.3408 
 1952000    267.93116   -3852.6673   -3393.4425   -3852.6673            0    2984.0318    17.510788    20.625395     21.36312     7715.652    2220.4144    3716.5182     3015.163    203.82241    1312.5465    -1115.781   -3057.6647 
 1953000    266.47909   -3883.8959   -3427.1598   -3883.8959            0    5130.7325    17.488471    20.599109    21.335894    7686.1905    5693.5609    4274.9495    5423.6872   -222.13359   -1008.7087   -122.74655   -2852.0293 
 1954000     256.3615   -3886.7185   -3447.3237   -3886.7185            0    3503.8444    17.503018    20.616243    21.353641    7705.3858    5084.4336    3379.5218    2047.5777   -790.48939   -791.85059    808.02746   -3053.5787 
 1955000    244.69596   -3863.5555    -3444.155   -3863.5555            0    4156.6243     17.43173    20.532276     21.26667    7611.6197    3939.2875     4231.096    4299.4893    181.10884   -1154.6939    939.99014   -2982.7379 
 1956000    257.50863    -3873.187    -3431.826    -3873.187            0    4280.8281    17.441817    20.544157    21.278976    7624.8405    3582.6718    5380.7477    3879.0648    -724.2051    1210.5778    789.04591   -2955.7959 
 1957000    257.71674   -3873.4327    -3431.715   -3873.4327            0    3112.0558    17.501571    20.614538    21.351875    7703.4747    2090.6568    4883.2772    2362.2335    757.08389    1791.4568   -127.69059    -3082.084 
 1958000     264.2297   -3851.6531   -3398.7725   -3851.6531            0    5288.3631    17.394602    20.488543    21.221374    7563.0865    5818.1657    5317.0381    4729.8856    1860.4591    17.256983   -1109.7067   -2815.4667 
 1959000    260.03299   -3874.6956   -3429.0079   -3874.6956            0    3410.8563    17.422553    20.521466    21.255473    7599.6036    2619.0642    4953.6831    2659.8216   -554.85596    935.97555    1324.9375   -3050.9745 
 1960000    259.74534   -3850.6394   -3405.4448   -3850.6394            0    4671.5414    17.531933    20.650302    21.388918    7743.6376    4467.2668    4816.3812    4730.9762    1195.5814    1114.3445    1072.6831   -2877.8735 
 1961000    257.91846   -3874.3729   -3432.3094   -3874.3729            0    3770.7398    17.456664    20.561645     21.29709     7644.329    4173.3972    3516.0136    3622.8086    358.71229    -332.4234   -1470.6139   -3011.9297 
 1962000    264.71067   -3867.0766   -3413.3716   -3867.0766            0    4284.7805    17.374578    20.464958    21.196945    7536.9977    4094.7683    3867.2419    4892.3314    658.63055    210.00541   -908.53201   -2942.3911 
 1963000    261.59409   -3852.7241   -3404.3608   -3852.7241            0    2655.2673    17.439185    20.541056    21.275765    7621.3893    1063.7259    4963.6175    1938.4587   -769.63234   -294.05196    132.94126   -3109.2275 
 1964000     258.7238   -3879.9448   -3436.5011   -3879.9448            0    1341.1438    17.433991    20.534939    21.269429    7614.5821    989.18433    3256.1088    -221.8616   -1352.7601   -463.58798   -1361.8195   -3287.5659 
 1965000     245.5388   -3907.8634   -3487.0183   -3907.8634            0    2639.5993    17.383712    20.475717    21.208088     7548.891    2424.6254    2899.8457    2594.3268    1331.5626   -200.55167   -98.855754   -3196.4173 
 1966000    249.43129   -3852.4623   -3424.9456   -3852.4623            0    3099.6648    17.357323    20.444634    21.175894    7514.5651    2092.6059    3934.7641    3271.6246   -829.42545   -634.87687    1560.8027   -3085.2464 
 1967000    256.73297   -3858.7853   -3418.7537   -3858.7853            0    4226.9087    17.335218    20.418597    21.148926    7485.8917     3720.065    4028.9559     4931.705   -463.68824    167.90549   -1386.0326    -2957.285 
 1968000    267.87806   -3839.8469   -3380.7131   -3839.8469            0    2463.3833    17.453978     20.55848    21.293812    7640.8002    2785.4766    1896.6639    2708.0093    205.65327    85.854228    -113.9003   -3106.2104 
 1969000    267.99041   -3836.3864     -3377.06   -3836.3864            0    4851.7645    17.374387    20.464733    21.196712    7536.7493    4178.7825    5031.9146    5344.5964    1992.2167    221.84835   -427.33305   -2843.7746 
 1970000    261.14568   -3877.1876   -3429.5929   -3877.1876            0    4838.5624    17.414755    20.512281     21.24596    7589.4045    4056.8295    5990.6564    4468.2012    1820.7398   -1228.3292   -134.08913    -2894.043 
 1971000    273.91924   -3858.7464   -3389.2582   -3858.7464            0     3114.923    17.541547    20.661625    21.400647    7756.3835    2613.6042    3037.4088    3693.7559   -1134.5148    344.69557    787.73265   -3036.9015 
 1972000    267.48165   -3884.2773   -3425.8229   -3884.2773            0    4566.8005    17.357275    20.444577    21.175835     7514.502    4102.3459    3967.0943    5630.9613    777.55796    -176.3691   -219.71414   -2925.3413 
 1973000    262.43529   -3869.5089   -3419.7038   -3869.5089            0    2525.0491    17.389606    20.482658    21.215278    7556.5714    422.97785    3213.9133    3938.2561    27.050443    132.79383     188.3975   -3141.4312 
 1974000    256.43372   -3855.8877   -3416.3691   -3855.8877            0    3417.5515     17.41441    20.511875     21.24554    7588.9536    3303.9361    3988.8925    2959.8259   -1896.8175   -143.89817     748.1075   -3038.1244 
 1975000    252.98605    -3888.615   -3455.0056    -3888.615            0    2564.6318    17.533156    20.651742    21.390409    7745.2578    51.665148    3108.2521    4533.9782   -987.18568    355.56289   -226.81163   -3165.3134 
 1976000     267.3408   -3852.5073   -3394.2944   -3852.5073            0    2267.1771    17.425164    20.524541    21.258659    7603.0211   -160.07768    3421.3514    3540.2575   -360.05553    339.95648    459.89396   -3142.9046 
 1977000    287.38054   -3826.0838   -3333.5234   -3826.0838            0    2521.3476    17.467625    20.574555    21.310462    7658.7375    607.89769    4132.8408    2823.3044    717.06534    776.49752    1133.9497   -3051.9019 
 1978000     270.7728    -3819.372   -3355.2767    -3819.372            0    4885.8636    17.419592    20.517979    21.251862    7595.7305    6306.5873    5047.1491    3303.8543   -839.37428   -1094.8922    205.36206   -2814.0406 
 1979000    263.57922   -3817.6227   -3365.8569   -3817.6227            0    3122.3643    17.506138    20.619919    21.357448    7709.5081     1713.798    2819.8834    4833.4114   -1148.1738   -993.91682    1275.8075    -3014.793 
 1980000    276.69956   -3828.0291   -3353.7756   -3828.0291            0    2858.7982    17.575516    20.701636    21.442088    7801.5309    4572.5231    1333.6549    2670.2166    1336.4362    117.28143    354.02657   -3028.5092 
 1981000    272.98514   -3826.2454   -3358.3582   -3826.2454            0    3313.2367    17.487073    20.597462    21.334188    7684.3467    1247.5242    4568.4905    4123.6953   -245.89485    810.05427    342.24539   -2987.0493 
 1982000    244.32757   -3797.3812   -3378.6121   -3797.3812            0    3201.2895    17.469719    20.577022    21.313017    7661.4925    3680.6141    1766.7614    4156.4928   -527.90314   -897.81236    1548.8246    -3020.916 
 1983000     255.1599   -3836.3759   -3399.0406   -3836.3759            0    2247.8636    17.553652    20.675883    21.415414    7772.4513    2305.3655    2454.6399    1983.5852   -1164.6439    1130.2811    1094.5836    -3144.238 
 1984000    272.23457   -3868.6269   -3402.0262   -3868.6269            0    3934.9203    17.489383    20.600183    21.337007    7687.3928    2390.6103    5195.5078    4218.6428    220.87378   -654.07193   -355.33001   -2960.8715 
 1985000    255.06553   -3870.6263   -3433.4527   -3870.6263            0    3514.8972     17.38144    20.473041    21.205317    7545.9318    4036.4351    3144.6026     3363.654    29.200112    1202.7693   -588.27029   -3046.6394 
 1986000     249.4419   -3864.1401   -3436.6052   -3864.1401            0    5110.3728    17.309245    20.388004    21.117238    7452.2933    4816.2513    6826.1637    3688.7035   -197.69659     951.4164    279.93492   -2881.1892 
 1987000    260.81037   -3876.9845   -3429.9645   -3876.9845            0    3449.1263     17.44593    20.549001    21.283994    7630.2359    5211.5207    4243.9912    891.86714    -333.5156     498.4746   -1921.3174   -3046.1486 
 1988000    275.35748   -3877.7316   -3405.7783   -3877.7316            0    2765.1074    17.477704    20.586426    21.322758    7672.0021    2625.4264    1861.4615    3808.4341   -947.97511   -794.22593    469.33266   -3096.3952 
 1989000    261.58924   -3867.0256   -3418.6706   -3867.0256            0    3067.5335    17.475781    20.584162    21.320413    7669.4709    2498.3245    3825.0034    2879.2725   -478.86518   -1862.4382   -1085.0056   -3075.5628 
 1990000    275.64392   -3868.9511   -3396.5068   -3868.9511            0    2627.5851    17.493524     20.60506    21.342058    7692.8538    2337.6215    3849.8842    1695.2498   -973.73087   -582.35864    766.51963   -3101.7118 
 1991000    261.42304   -3873.3922   -3425.3221   -3873.3922            0    4449.3768    17.450933    20.554894    21.290098    7636.8026    5074.8774    3775.1571    4498.0959    286.86196     -947.361    1191.8831    -2929.773 
 1992000    250.45207   -3808.7256   -3379.4593   -3808.7256            0    2865.8584    17.480622    20.589863    21.326318    7675.8454    4263.6665    4137.7472    196.16146   -157.24549   -19.992277    321.08794   -3058.6427 
 1993000    275.85931    -3843.317   -3370.5035    -3843.317            0    3258.5949    17.455827    20.560658    21.296068    7643.2288    4560.5265    2929.5536    2285.7044    -577.6193    656.16873    677.39188   -3007.2724 
 1994000    265.30768   -3842.9683     -3388.24   -3842.9683            0     3115.248    17.470749    20.578235    21.314273    7662.8471    3721.9088     3177.039    2446.7963    21.756357    134.09537    837.39017   -3040.0962 
 1995000    269.97464   -3830.2453    -3367.518   -3830.2453            0    3742.1892    17.493044    20.604496    21.341473    7692.2216    2702.2058    5826.2303    2698.1313    1103.4912    1538.7719    261.92858   -2947.7074 
 1996000    252.24997   -3822.8461   -3390.4983   -3822.8461            0    3105.7562    17.490363    20.601337    21.338202    7688.6847    2891.0303    3970.8304    2455.4079    398.06829   -93.286654   -493.11097    -3042.245 
 1997000    265.33883    -3877.605   -3422.8234    -3877.605            0    3118.2399    17.539183    20.658841    21.397763    7753.2482    3234.7932    3586.7381    2533.1883    -1323.403   -680.96982   -380.60617   -3070.2341 
 1998000    271.92958   -3825.0303   -3358.9523   -3825.0303            0    4227.0452    17.474368    20.582497    21.318688    7667.6095    4868.4926    4749.0306    3063.6125      708.354   -580.40925    1018.9266   -2886.2663 
 1999000    265.88008    -3879.189   -3423.4797    -3879.189            0    3952.8842    17.392538    20.486112    21.218855    7560.3943    3721.8186    3830.5672     4306.267    843.25242    -413.5997   -1549.5596   -2987.6323 
 2000000    273.16655   -3863.4691    -3395.271   -3863.4691            0    5311.9738    17.439701    20.541664    21.276395     7622.066    5792.5026    5074.7174    5068.7013   -833.75492    211.96416   -329.47058   -2804.7919 
Loop time of 491.989 on 64 procs for 250000 steps with 864 atoms

Performance: 87.807 ns/day, 0.273 hours/ns, 508.142 timesteps/s
99.1% CPU use with 64 MPI tasks x 1 OpenMP threads

MPI task timing breakdown:
Section |  min time  |  avg time  |  max time  |%varavg| %total
---------------------------------------------------------------
Pair    | 20.037     | 24.562     | 29.557     |  45.6 |  4.99
Bond    | 0.26838    | 0.27678    | 0.28856    |   0.8 |  0.06
Kspace  | 215.09     | 226.33     | 242.8      |  44.3 | 46.00
Neigh   | 5.1277     | 6.2837     | 8.308      |  34.8 |  1.28
Comm    | 97.381     | 113.91     | 123.9      |  68.0 | 23.15
Output  | 1.98       | 1.9857     | 1.9954     |   0.4 |  0.40
Modify  | 110.21     | 112.54     | 116.27     |  11.8 | 22.87
Other   |            | 6.105      |            |       |  1.24

Nlocal:        13.5000 ave          19 max           9 min
Histogram: 2 5 5 7 11 12 13 5 2 2
Nghost:        2105.17 ave        2148 max        2068 min
Histogram: 5 3 8 10 7 14 7 6 2 2
Neighs:        4050.48 ave        5759 max        2438 min
Histogram: 4 5 7 4 12 11 9 8 2 2

Total # of neighbors = 259231
Ave neighs/atom = 300.03588
Ave special neighs/atom = 2.0000000
Neighbor list builds = 14285
Dangerous builds = 0

unfix		3
unfix		2
unfix		1

write_data	data.final.${pid}
write_data	data.final.0
System init for write_data ...
PPPM initialization ...
  extracting TIP4P info from pair style
  using 12-bit tables for long-range coulomb (../kspace.cpp:340)
  G vector (1/distance) = 0.37359679
  grid = 24 24 25
  stencil order = 5
  estimated absolute RMS force accuracy = 0.0031464168
  estimated relative force accuracy = 9.4753407e-06
  using double precision FFTW3
  3d grid and FFT values/proc = 2730 288
Last active /omp style is kspace_style pppm/tip4p/omp
WARNING: Not all mixed pair coeffs generated from mixing. Use write_data with 'pair ij' option to store all pair coeffs. (../write_data.cpp:312)

write_restart   restart.lmp.${pid}
write_restart   restart.lmp.0
System init for write_restart ...
PPPM initialization ...
  extracting TIP4P info from pair style
  using 12-bit tables for long-range coulomb (../kspace.cpp:340)
  G vector (1/distance) = 0.37359679
  grid = 24 24 25
  stencil order = 5
  estimated absolute RMS force accuracy = 0.0031464168
  estimated relative force accuracy = 9.4753407e-06
  using double precision FFTW3
  3d grid and FFT values/proc = 2730 288
Last active /omp style is kspace_style pppm/tip4p/omp
Total wall time: 0:08:15
