#include		in.partitions
include		in.temp
variable        temperature equal 206.47
variable	tempDamp equal 100.0
include		in.pressure
variable        pressure equal 7529.2
variable        pressureDamp equal 1000.0 # This is 1 ps
include		in.seed
variable        seed equal 745823

units		real
atom_style	full
read_restart    restart.lmp.${pid}
read_restart    restart.lmp.0
Reading restart file ...
  restart file = 30 Jul 2021, LAMMPS = 30 Jul 2021
  restoring atom style full from restart
  triclinic box = (-3.1943335 0.011136789 -0.14104995) to (14.804332 22.568862 19.371048) with tilt (-0.62006353 -6.5606263 0.085426957)
  2 by 4 by 4 MPI processor grid
  restoring pair style lj/cut/tip4p/long/omp from restart
  restoring bond style harmonic/omp from restart
  restoring angle style harmonic/omp from restart
  1008 atoms
  672 bonds
  336 angles
Finding 1-2 1-3 1-4 neighbors ...
  special bond factors lj:    0        0        0       
  special bond factors coul:  0        0        0       
     2 = max # of 1-2 neighbors
     1 = max # of 1-3 neighbors
     1 = max # of 1-4 neighbors
     2 = max # of special neighbors
  special bonds CPU = 0.002 seconds
  read_restart CPU = 0.007 seconds

include 	in.setup
variable	out_freq equal 1000
variable	out_freq2 equal 10000
variable	out_freq3 equal 1000

timestep	2.0

neigh_modify    delay 7 every 1

include		in.tip4p
# This is TIP4P/Ice

# create groups ###
group ox type 2
336 atoms in group ox
group hy type 1
672 atoms in group hy

# set charges - beside manually ###
set group ox charge -1.1794
Setting atom values ...
  336 settings made for charge
set group hy charge 0.5897
Setting atom values ...
  672 settings made for charge

# ### TIP3P Potential Parameters ###
pair_style lj/cut/tip4p/long/omp 2 1 1 1 0.1577 8.5
pair_coeff 1 1*2 0.000 0.000
pair_coeff 2 2 0.21084 3.1668
bond_style  harmonic
bond_coeff  1 450 0.9572
angle_style harmonic
angle_coeff 1 55 104.52
kspace_style pppm/tip4p/omp 1.0e-5
pair_modify tail yes

thermo          ${out_freq}
thermo          1000
thermo_style    custom step temp pe etotal epair emol press lx ly lz vol pxx pyy pzz pxy pxz pyz enthalpy

restart 	${out_freq3} restart.lmp.${pid} restart2.lmp.${pid}
restart 	1000 restart.lmp.${pid} restart2.lmp.${pid}
restart 	1000 restart.lmp.0 restart2.lmp.${pid}
restart 	1000 restart.lmp.0 restart2.lmp.0


include         in.dump
dump            myDump all atom ${out_freq2} dump.water.${pid}
dump            myDump all atom 10000 dump.water.${pid}
dump            myDump all atom 10000 dump.water.0
dump            myDump2 all dcd ${out_freq2} dump.dcd
dump            myDump2 all dcd 10000 dump.dcd
dump_modify     myDump append yes
dump_modify     myDump2 append yes


variable natoms 	equal  "count(all)"                        # NUMBER ATOMS
variable H      	equal  "enthalpy/v_natoms"                 # ENTHALPY-per-atom
variable Vol      	equal  "vol/v_natoms"                 # volume-per-atom
fix AVG all 		ave/time ${out_freq} 1 ${out_freq} v_Vol v_H file vol_enthalpy.dat
fix AVG all 		ave/time 1000 1 ${out_freq} v_Vol v_H file vol_enthalpy.dat
fix AVG all 		ave/time 1000 1 1000 v_Vol v_H file vol_enthalpy.dat



fix 		1 all shake 1e-6 200 0 b 1 a 1
       0 = # of size 2 clusters
       0 = # of size 3 clusters
       0 = # of size 4 clusters
     336 = # of frozen angles
  find clusters CPU = 0.000 seconds
fix             2 all nph tri ${pressure} ${pressure} ${pressureDamp}
fix             2 all nph tri 7529.2 ${pressure} ${pressureDamp}
fix             2 all nph tri 7529.2 7529.2 ${pressureDamp}
fix             2 all nph tri 7529.2 7529.2 1000
fix             3 all temp/csvr ${temperature} ${temperature} ${tempDamp} ${seed}
fix             3 all temp/csvr 206.47 ${temperature} ${tempDamp} ${seed}
fix             3 all temp/csvr 206.47 206.47 ${tempDamp} ${seed}
fix             3 all temp/csvr 206.47 206.47 100 ${seed}
fix             3 all temp/csvr 206.47 206.47 100 745823


run             250000
PPPM initialization ...
  extracting TIP4P info from pair style
  using 12-bit tables for long-range coulomb (../kspace.cpp:340)
  G vector (1/distance) = 0.38083996
  grid = 24 27 36
  stencil order = 5
  estimated absolute RMS force accuracy = 0.0022477699
  estimated relative force accuracy = 6.7690923e-06
  using double precision FFTW3
  3d grid and FFT values/proc = 5670 1296
Last active /omp style is kspace_style pppm/tip4p/omp
Neighbor list info ...
  update every 1 steps, delay 7 steps, check yes
  max neighbors/atom: 2000, page size: 100000
  master list distance cutoff = 10.8154
  ghost atom cutoff = 10.8154
  binsize = 5.4077, bins = 5 5 4
  1 neighbor lists, perpetual/occasional/extra = 1 0 0
  (1) pair lj/cut/tip4p/long/omp, perpetual
      attributes: half, newton on, omp
      pair build: half/bin/newton/tri/omp
      stencil: half/bin/3d/tri
      bin: standard
Per MPI rank memory allocation (min/avg/max) = 10.32 | 10.35 | 10.41 Mbytes
Step Temp PotEng TotEng E_pair E_mol Press Lx Ly Lz Volume Pxx Pyy Pzz Pxy Pxz Pyz Enthalpy 
11250000    208.63431   -4928.9004    -4511.606   -4928.9004            0    6925.8517    17.998666    22.557725    19.512098    7922.0867     6712.878    8956.6088    5108.0682    1892.0069    942.53297    1200.3064   -3711.4242 
11251000    203.58411    -4954.673   -4547.4796    -4954.673            0    6244.6039    17.989749    22.739985    19.410653    7940.6386    5233.3549    6524.8553    6975.6015   -1086.7862    207.84576   -1704.5482   -3824.3166 
11252000    210.52353   -4958.7797   -4537.7066   -4958.7797            0    7884.8658    17.861147    22.823855    19.354155    7889.9191    8305.2295    7550.1707    7799.1972   -80.857884   -124.60643   -2034.7021   -3630.4236 
11253000    201.74505    -4947.761    -4544.246    -4947.761            0    7256.5987    17.940109     22.92981    19.186101    7892.4576    8852.0562    6212.9441    6704.7958   -556.53153   -1650.0745    97.769564   -3708.9868 
11254000    202.69398   -4977.2824   -4571.8694   -4977.2824            0     5812.056    18.073409    22.729458    19.284755    7922.1539     5313.711    5851.0161     6271.441   -1423.3144   -915.28402    -434.8067   -3900.3648 
11255000    210.09366   -4956.1527   -4535.9394   -4956.1527            0    8601.0628    17.948049    22.788701    19.282308    7886.7093    9209.7282    8380.4184    8213.0419     123.8682    687.25336    475.84961   -3546.6489 
11256000    209.97075   -4942.8357   -4522.8682   -4942.8357            0    7803.7731    17.827072    22.937111    19.292602    7888.7743    8486.2087    8272.1729    6652.9377   -175.46408    -510.3809    168.30736   -3625.0466 
11257000    199.11483   -4931.5202    -4533.266   -4931.5202            0    6691.7189    17.852132    22.958147    19.296647    7908.7667    6047.2032    6538.7369    7489.2166   -647.15387   -592.27475   -1948.8056   -3761.4348 
11258000    198.06508   -4930.9123   -4534.7577   -4930.9123            0    6380.9195    17.884444    22.848639    19.350652     7907.358    7594.1274    5974.4973    5574.1338   -762.17538   -758.32827   -964.30791   -3798.9055 
11259000     214.4162   -4937.0479   -4508.1891   -4937.0479            0    8164.8099    17.802042    23.150773    19.119729    7879.8338    8892.6528    6695.9792    8905.7977    135.23777   -948.25908   -808.45896   -3569.8949 
11260000    215.23489   -4953.2974    -4522.801   -4953.2974            0    8078.7808    17.799244    22.823646    19.373806    7870.4852    8677.6319    7655.6927    7903.0178   -18.016155   0.84276774    483.52647   -3595.4947 
11261000    198.07367    -4937.591   -4541.4192    -4937.591            0    7901.4846    17.952369    22.841751    19.301127    7914.6888    9170.7822     7061.661    7472.0107   -587.13683   -581.53983   -546.47186   -3629.3696 
11262000    214.33253   -4926.5333   -4497.8418   -4926.5333            0    7372.4446    17.907952    22.835038    19.307877    7895.5465    8175.2113    6923.3362    7018.7863   -320.63572   -224.45799    357.18064   -3648.9162 
11263000    214.94539   -4936.4439   -4506.5265   -4936.4439            0    6716.1393    17.937194    22.934397    19.189449    7894.1311     6169.431    7305.9515    6673.0353    -747.2904     737.9467    908.45215   -3733.3122 
11264000    208.39347   -4955.5904   -4538.7777   -4955.5904            0    8942.5692    17.792771    22.961519    19.261537    7869.2827    10192.493    9266.3241      7368.89    -1364.462    225.58162   -1277.0995   -3512.4801 
11265000    206.98952    -4948.006   -4534.0014    -4948.006            0    7795.3615    17.812237     22.99059    19.223376    7872.2387    9648.2203    6993.9999    6743.8643   -99.884301    340.03435    112.88103   -3639.0275 
11266000    212.00688   -4954.7463   -4530.7063   -4954.7463            0    8639.4339     17.83244    22.944862    19.238113    7871.5216    9317.2096    7782.5747    8818.5175    361.31466   -349.65663   -670.97711    -3538.916 
11267000     206.3137   -4944.3964   -4531.7435   -4944.3964            0     8171.937    17.815718    22.698508    19.467243    7872.3622     8604.024     8448.051    7463.7359    264.66569   -525.29087    2465.3269   -3593.5207 
11268000    206.04991   -4962.4968   -4550.3715   -4962.4968            0    7057.6794    17.993419    22.516914    19.473327    7889.7409    7971.7456    7636.3162    5564.9764   -869.01659   -1473.5783   -551.26625   -3738.2883 
11269000    199.23276   -4931.5554   -4533.0653   -4931.5554            0    8126.4427    18.033101    22.657707    19.301699    7886.4566    8127.1468     7652.021    8600.1603   -818.60161   -975.46329    686.64952   -3598.3953 
11270000    206.96381   -4955.6815   -4541.7283   -4955.6815            0     6894.444     18.18635    22.628491    19.242509    7918.8633      5481.22    7712.3935    7489.7185   -241.48849    302.70478   -935.55987   -3745.4993 
11271000    202.34885   -4964.3524   -4559.6297   -4964.3524            0    6111.7798    17.899516    22.856279    19.381253    7929.1873    6572.7386      6318.67    5443.9307   -1961.7381   -114.09571   -91.722386   -3852.8692 
11272000     208.2571   -4950.6792   -4534.1393   -4950.6792            0     6749.926    17.841406    22.856682    19.423518    7920.8202    8463.8816    6690.0607    5095.8356    -492.8272    330.32278    744.95674   -3754.4078 
11273000    201.46012   -4961.7023   -4558.7571   -4961.7023            0    8514.2803    17.985751     22.86317    19.096612    7852.7419    9445.0158    6826.5168    9271.3083    781.80994   -1108.1357    514.85934   -3583.6661 
11274000    214.01708   -4932.3326    -4504.272   -4932.3326            0    7714.5831    18.044775    22.740522    19.283022    7912.7418    7024.1107    9107.0947    7012.5441    2213.8341    1822.4201    361.44022   -3614.0151 
11275000    221.43055   -4955.9884   -4513.0999   -4955.9884            0    6213.8137    17.774094    22.814761    19.518566    7915.0071    6503.0205    6514.4963    5623.9242    498.86539    17.806412   -1098.2409   -3795.8254 
11276000     206.2951   -4927.3097    -4514.694   -4927.3097            0    8420.9444    17.751362     23.05757     19.24745    7878.0444    7376.4199    8613.3319    9273.0813   -420.23204    1028.6419    1.3568027   -3547.1848 
11277000    209.10758   -4926.0765   -4507.8355   -4926.0765            0    7503.0102    17.812012    23.027895    19.222182    7884.4224    8898.6754    7395.8719    6214.4835   -319.37169    725.62194     857.9261   -3645.0928 
11278000    210.26612   -4971.5427   -4550.9845   -4971.5427            0    7257.8758    18.017342     22.76757    19.229885    7888.3122    6959.4251    7757.6398    7056.5626    638.34373   -323.20025    433.46931   -3716.0171 
11279000    208.73237   -4954.5897   -4537.0992   -4954.5897            0    7794.8749    18.013234    22.584488    19.425727    7902.7679      7504.86    8048.3017     7831.463    107.49689   -3.7816319   -330.63705   -3638.7105 
11280000    217.05239   -4956.9947   -4522.8631   -4956.9947            0    6615.5176    17.883844    22.818467    19.446543    7935.7821      7326.02    7635.1998     4885.333    583.91452    330.21628    -150.1618   -3757.2146 
11281000    210.09447   -4932.1886   -4511.9737   -4932.1886            0     5998.566    18.012543    22.661458     19.46763    7946.5013    4708.6434     6807.398    6479.6565    1074.6333   -167.33556   -1407.0147   -3816.7904 
11282000    201.47061   -4929.5785   -4526.6124   -4929.5785            0    7996.0453    17.982664     22.82098    19.223422    7888.9466    8343.9127    7644.7579    7999.4651   -462.76902    -739.6895   -2047.8525   -3606.6499 
11283000    209.41221    -4958.859   -4540.0087    -4958.859            0    5648.6144    17.975537    22.918921    19.242289    7927.4364    5169.6417    5353.8574    6422.3441   -7.0584669   -562.35389    591.79491   -3886.9525 
11284000      204.283   -4959.9593   -4551.3681   -4959.9593            0    9566.8659    17.616296    23.004978    19.319395    7829.4265    11932.874    8573.7331    8193.9909   -535.59276   -279.63532    928.02339   -3458.9836 
11285000    208.59738   -4980.1288   -4562.9083   -4980.1288            0    8808.4486      17.7743    22.882308    19.280692    7841.7856    8343.3571    8372.8967    9709.0919   -1015.3448   -696.52915   -2.5328384   -3555.5354 
11286000    203.46697   -4963.3052   -4556.3461   -4963.3052            0    8398.5481    18.009667    22.810695    19.161309    7871.7156    8970.4157    7700.5706    8524.6579   -985.45597    924.77545   -213.89996   -3592.1852 
11287000    214.36097   -4957.4451   -4528.6967   -4957.4451            0    8701.9857    17.924536    22.929912    19.095783    7848.5203    7006.6484    8286.5787     10812.73    -1372.821    976.89397   -758.68861   -3532.6446 
11288000    204.82815   -4951.8987   -4542.2171   -4951.8987            0    6783.7884     17.89532    23.114427     19.13788    7916.1941    5782.8733    7045.3441    7523.1478    768.01316    1488.7919   -19.445932   -3759.0317 
11289000    206.01599   -4953.3686   -4541.3112   -4953.3686            0      8414.49    17.960872    22.881823    19.129673    7861.8646    7194.0898    8533.9771    9515.4031   -146.14189    478.48374   -194.41461   -3576.5291 
11290000    209.21097   -4942.7962   -4524.3484   -4942.7962            0    7910.3362    17.802517    22.757108     19.45326    7881.1735     7958.207    8629.0173    7143.7842   -315.09712    97.791567   -862.87493   -3615.1436 
11291000    206.68714   -4946.2736   -4532.8737   -4946.2736            0    6856.7081    18.005303    22.655263    19.388882    7909.0136    6597.2687    7934.9085    6037.9472   -102.73472   -54.061887    399.37564   -3741.9878 
11292000    208.25445   -4952.2674   -4535.7327   -4952.2674            0     8491.422    18.026051    22.656522    19.253072    7863.1014     9021.246    7798.5502    8654.4698    657.07405   -1090.4214     639.1534   -3561.9766 
11293000    205.17394   -4932.9945   -4522.6213   -4932.9945            0    5753.1333    17.984556    22.856812    19.297971    7932.8096    7550.0105    5241.9681    4467.4213   -322.25203    -901.3803    606.43459   -3857.0304 
11294000    212.19709   -4980.0003   -4555.5799   -4980.0003            0    8724.5034    17.786025    23.055563     19.09183    7828.9258    9454.1258     8140.926    8578.4586   -633.82956    112.03903    237.37693   -3559.4435 
11295000    209.30431   -4975.9276   -4557.2931   -4975.9276            0     7140.687    17.594302    23.124464    19.331289    7865.1052    11010.864    5807.6887    4603.5082   -728.64978    113.77406   -1869.5021   -3738.2242 
11296000    203.85075   -4966.5434   -4558.8167   -4966.5434            0    5215.9832    18.059776    22.811754    19.291153     7947.476     3579.577    6327.1822    5741.1905   -272.21139    901.21739   -427.97309   -3954.2541 
11297000    207.21166   -4955.4813   -4541.0323   -4955.4813            0    6952.2587    17.976605    22.735895    19.373813    7918.3524    7616.2071    7458.3954    5782.1737    958.72058    108.00785   -297.96722   -3738.1782 
11298000    205.80785   -4966.7365   -4555.0954   -4966.7365            0    6585.8349    18.097543    22.450907    19.449645    7902.5127    7158.8827    7954.7225    4643.8994    953.56519    398.19059   -491.86051   -3796.0776 
11299000    211.76908   -4945.4785   -4521.9141   -4945.4785            0    8870.7759    17.883286    22.829459    19.261245    7863.7064    10869.261    7763.7439    7979.3224   -1064.4444    -1132.193    576.90781   -3504.5773 
11300000    209.45477   -4978.2777   -4559.3423   -4978.2777            0    6309.1934    17.885998    22.980807    19.236686    7906.9449    7673.9253    6033.6532    5220.0018    770.24075   -26.981447    670.17328   -3831.7997 
11301000    218.71253   -4916.6396   -4479.1875   -4916.6396            0    9030.7983     17.94336    22.900817    19.114691    7854.5632    8271.8175    8863.0636    9957.5139    1140.0815   -126.83817    1332.9821   -3444.7028 
11302000    205.94455   -4963.4241   -4551.5096   -4963.4241            0    8254.9464    17.934276    22.795929    19.243855     7867.436    8108.1985    7931.4127     8725.228    525.19203   -1354.7988   -1717.8005   -3604.3495 
11303000    202.77534   -4976.8932   -4571.3175   -4976.8932            0    6646.0203    17.940561     22.78936    19.306801    7893.6613    7118.1759    5958.0864    6861.7985    398.37294   -1167.3298    1479.3791   -3806.2213 
11304000    212.86338   -4938.9499   -4513.1969   -4938.9499            0    8039.1339    17.926161    22.789346    19.341373     7901.444    7239.4229      7641.02    9236.9588   -364.69153   -1505.6543   -478.72133   -3586.8117 
11305000    215.02707   -4955.9938   -4525.9131   -4955.9938            0    7555.4405    18.059138    22.813987    19.186211     7904.737    7030.8766    7994.7204    7640.7243    146.17615   -188.14715   -760.09027   -3654.9032 
11306000    216.69859   -4933.6198   -4500.1959   -4933.6198            0    8453.8982    17.987562    22.757935    19.272326     7889.315    9267.0264     8845.491    7249.1771    410.91596   -479.57496    1438.0684   -3527.5109 
11307000    199.32574   -4970.6747   -4571.9986   -4970.6747            0    6094.4279    17.953977    22.870505    19.340983    7941.7268    6723.6103    6057.8421    5501.8312    145.69588    1462.4937   -40.926576   -3866.1302 
11308000    201.28217   -4942.5242    -4539.935   -4942.5242            0     6939.923    17.983338    22.808832    19.337277    7931.7437    7981.9406    6144.5038    6693.3246   -795.70273    72.301695   -497.64173     -3737.15 
11309000    203.40451   -4946.4404   -4539.6063   -4946.4404            0    7414.2299    18.034175    22.901945    19.133449    7902.4528     8489.914    6119.7401    7633.0357   -396.68863   -330.61231    1163.6307   -3685.1224 
11310000    198.43267   -4935.3518   -4538.4619   -4935.3518            0    7394.5137    17.923805    22.894666    19.212081    7883.8604    6320.5125    7935.7574    7927.2712    763.69893   -161.57051   -1129.1676   -3688.2554 
11311000    201.63042   -4915.7952   -4512.5094   -4915.7952            0     8699.122    17.874575    22.827861    19.240552    7850.8821    8245.2559    9318.4795    8533.6305    885.81882   -701.54462    681.64398   -3516.4855 
11312000    218.92192   -4931.9924   -4494.1215   -4931.9924            0    8299.2272     18.01294    22.773862     19.25384    7898.3913    6816.6358    9197.0639    8883.9818     432.4795     1325.303   -139.60677   -3538.1341 
11313000     216.2108   -4952.1692   -4519.7209   -4952.1692            0    6509.5696    18.131088     22.72547    19.316737    7959.2199    6018.3095    6164.9045    7345.4947    -320.2214   -402.38365    238.07552   -3764.1092 
11314000    207.28692   -4963.7019   -4549.1024   -4963.7019            0    6717.6805    17.909792    22.848088    19.378828    7929.9037    7652.2535    7027.9948    5472.7932    521.72424    1139.2852    924.82508   -3772.2059 
11315000     206.1638   -4969.1776   -4556.8245   -4969.1776            0    6440.2172    17.974569    22.874989    19.239062    7910.4878    6402.4585    6799.2235    6118.9697   -1379.0629   -723.67134    451.23033   -3813.8402 
11316000    215.66155   -4938.9843   -4507.6346   -4938.9843            0    7000.8933    17.952815    22.805437    19.339845    7918.1537    5854.3942    7358.2628    7790.0229    166.31046    415.79842   -446.11416   -3699.1844 
11317000    206.67649     -4971.18   -4557.8014     -4971.18            0    5423.1835    18.020869    22.939689    19.245717     7956.047    6954.4187    3686.5595    5628.5722    110.93483   -1634.9461    -1005.853   -3928.5452 
11318000    215.23165   -4962.1123   -4531.6224   -4962.1123            0    7744.1416    17.938813     22.75235    19.325561    7887.7308    6875.4194    7747.5364    8609.4689   -1319.7986   -1032.4152   -1205.8892   -3640.7793 
11319000    200.17525   -4963.8699   -4563.4946   -4963.8699            0    7935.1106    17.827506    22.744835    19.370503    7854.4229    7241.5591    8776.1383    7787.6346    -2030.734   -616.10029   -1372.2252    -3654.538 
11320000    202.20521   -4929.8561   -4525.4207   -4929.8561            0    6841.1797    17.772692    22.854884    19.487421    7915.6504    8414.2477    6425.4028    5683.8887    1326.5192   -373.02902   -865.98915   -3735.6637 
11321000    209.48835   -4954.6661   -4535.6636   -4954.6661            0     6968.517    17.980177    22.863066    19.165916    7878.7625    5430.0743    8202.1074    7273.3694   -301.73668   -194.90649   -215.39701   -3734.9554 
11322000    210.79069    -4913.273   -4491.6655    -4913.273            0    7176.5812    18.021293     23.05244    19.076511    7925.0458    5357.2754    7319.0313    8853.4369    65.405371   -248.12561   -278.25115   -3662.2059 
11323000    198.84644   -4965.4677   -4567.7503   -4965.4677            0    7503.4526    17.856292    22.780355    19.361411    7875.6923    7832.4851     7625.548    7052.3246     662.7768   -145.44267    713.95725    -3705.912 
11324000    201.48417   -4967.1994   -4564.2062   -4967.1994            0    8269.7653    18.000483     22.66519      19.3106    7878.4232    8278.9715    8611.4881    7918.8362   -163.66441    575.94256    505.47611   -3614.0207 
11325000    202.58455    -4962.575   -4557.3809    -4962.575            0    5700.6444    18.205827    22.742189    19.224338    7959.6515    3694.3134    5838.3305    7569.2892    169.61648    203.17143     493.5274    -3895.631 
11326000    215.88692   -4952.5675    -4520.767   -4952.5675            0    8299.2283    17.820388    23.025514    19.099004    7836.7719    9154.0468    7588.0591     8155.579    113.08011    602.74853   -569.23547   -3572.2375 
11327000     195.2376   -4957.1497   -4566.6504   -4957.1497            0    9529.7394     17.86275    22.801818    19.210749    7824.5989    9057.6353    10165.688    9365.8948    926.96748    480.77841   -711.78385   -3479.1761 
11328000    212.03242   -4919.9483   -4495.8573   -4919.9483            0    8129.5275    18.002637    22.849349    19.133538    7870.5528    7080.3033    9240.3914    8067.8879    93.050354    187.92508    1058.0842   -3562.7181 
11329000    204.08155   -4962.0876   -4553.8993   -4962.0876            0    7682.5608    17.881585     22.89128    19.220926    7867.7471     7643.184    8105.2372    7299.2613    212.55421    -45.32541   -24.264111   -3672.3791 
11330000    216.45339    -4946.286   -4513.3525    -4946.286            0    7588.7658    17.865504    22.997415    19.228497    7900.2283    8391.1168    7200.6976     7174.483   -442.52122    227.02148     446.1294   -3638.9997 
11331000    212.92512   -4953.9481   -4528.0715   -4953.9481            0    8991.8553    17.995159    22.725421     19.23215    7864.9406    7170.7837    10564.466    9240.3162    312.69578    360.22621   -86.444653   -3496.6869 
11332000    198.09411   -4960.7427     -4564.53   -4960.7427            0    6432.3354    18.038474    22.680454    19.363762    7922.1174    5807.4253    5911.3885    7578.1926     259.3682   -742.90548    834.24674    -3821.364 
11333000    204.42536   -4928.6398   -4519.7638   -4928.6398            0    7926.5043    18.131322    22.606982    19.211429    7874.6583    7380.0527    7177.4627    9221.9975    493.45675   -926.00676    408.12117   -3609.4538 
11334000    211.80614   -4936.1488   -4512.5103   -4936.1488            0     7398.785    17.979774    22.780866    19.345222    7923.7024    7220.1511    7637.6875    7338.5164    453.77207   -130.63583   -412.98909   -3657.5136 
11335000    206.20423   -4963.4863   -4551.0524   -4963.4863            0    7883.3619    17.904316    22.922281    19.174186     7869.235    7306.9081    8176.7542    8166.4234   -150.31253    1185.9199   -683.09774   -3646.3205 
11336000     207.7584    -4962.776   -4547.2335    -4962.776            0    6904.3391    17.962575    22.973332    19.138605    7897.7405    6259.1188    8003.2001    6450.6982   -121.29152    1046.6034    336.64917   -3751.9887 
11337000    201.10833   -4948.9793   -4546.7378   -4948.9793            0    9788.7194    17.803118    22.978964     19.14102     7830.538    10965.319    9034.0424    9366.7968    361.00928   -412.64259    401.02816   -3428.8625 
11338000    204.33513   -4949.5232   -4540.8277   -4949.5232            0    6612.4217    17.932139    22.754757     19.37876    7907.3379    6670.0483    7295.5367    5871.6802    383.63479    278.42327    563.83694   -3778.2805 
11339000    197.06543   -4970.5678   -4576.4126   -4970.5678            0    7211.5964    17.960034    22.794718    19.187765    7855.3543    6397.0775    7902.2671    7335.4446   -369.05405   -285.70739    534.38067   -3750.2357 
11340000    197.82883   -4943.0768   -4547.3947   -4943.0768            0    7832.9578    17.847127    23.185573    19.028291     7873.828     7448.766     7393.949    8656.1584    248.43502    450.96595   -924.53908   -3647.9228 
11341000    212.31797   -4971.8291   -4547.1669   -4971.8291            0    7178.9289    17.820785    23.224161    19.015098    7869.8316    7792.4355    5439.6522     8304.699    565.32884    472.74235   -334.44644   -3723.2167 
11342000    206.16723   -4959.7526   -4547.3927   -4959.7526            0    6717.0129    18.059693    22.719335    19.283817    7912.2314    6412.8782    6588.3019    7149.8587   -884.90262   -306.05609   -1223.7062   -3772.3046 
11343000    217.25543   -4962.2887    -4527.751   -4962.2887            0    4726.0891    18.114203    22.673519    19.418698    7975.5065    4370.8176    5989.6587     3817.791   -97.260462   -27.724783    675.79291    -3978.038 
11344000    209.97934   -4963.2764   -4543.2918   -4963.2764            0    7184.2561    17.905749    22.625256     19.49916    7899.5417    8954.6446    7242.9644    5355.1594    42.351288   -1472.1301   -1719.4852   -3715.6173 
11345000    208.16056   -4985.6011   -4569.2543   -4985.6011            0    8655.0224    17.948604    22.675897    19.284643    7848.8627    8317.4452    8651.8739     8995.748    402.89576    806.81858   -330.20993   -3578.5345 
11346000    203.44748   -4934.3706   -4527.4505   -4934.3706            0     8211.139    17.925522    22.925654    19.131536    7862.1869    7657.7367    7958.9438    9016.7365   -177.23729    47.708896    939.62357   -3585.9454 
11347000     211.6019    -4964.714    -4541.484    -4964.714            0    7391.4456    17.926874    22.908125    19.145331    7862.4332    6861.6566    8046.8456    7265.8346    788.40628   -10.696296   -374.50925   -3693.9401 
11348000    198.63998   -4936.6798   -4539.3753   -4936.6798            0    5782.6805     17.78264    23.046393    19.363969    7935.8522    5179.2203    5601.4942    6567.3271    104.88758   -1064.8926     1167.732   -3870.1094 
11349000    203.15509   -4950.3963    -4544.061   -4950.3963            0    8055.9083    17.919805    22.833249    19.232589    7869.3481    6909.1093    8227.6017     9031.014   -1537.6851   -311.62553     191.6792   -3619.5136 
11350000    207.36877   -4958.7148   -4543.9516   -4958.7148            0     8111.921    17.985315    22.607645     19.37245    7876.9471    9192.9351    7577.3207    7565.5072   -890.08386   -1168.0251    419.61784   -3612.0769 
11351000    195.55364   -4966.6749   -4575.5435   -4966.6749            0    7091.5432    18.121226     22.58951    19.345771    7919.1835    6044.9813    7491.8437    7737.8045   -705.38552   -923.46573    -1020.752   -3756.5187 
11352000    209.67481   -4954.1583   -4534.7828   -4954.1583            0    7954.5617    18.019198    22.969108    19.016626    7870.6947    7990.5376    7291.6339    8581.5136   -46.498833   -627.54079   -1062.9508   -3621.7104 
11353000    208.66272   -4946.0865   -4528.7353   -4946.0865            0    7955.9993    17.908761    23.028125    19.159458    7901.4598    7720.4678    7837.6682    8309.8619    413.36554    959.71789    1598.7895   -3611.9282 
11354000    214.75748   -4956.9344   -4527.3929   -4956.9344            0    8062.6571    17.805615     22.97101    19.280763     7886.082    7986.1743    7620.6532    8581.1437    372.92259    1602.6471    1308.5834   -3600.1034 
11355000    217.20246   -4936.5298    -4502.098   -4936.5298            0    6773.3242     17.95734    23.125076    19.086248    7925.8482    5941.8767    7254.1685    7123.9274   -2276.0341    565.66566   -1290.7478    -3719.167 
11356000    203.81942   -4966.3537   -4558.6897   -4966.3537            0    9102.2905    17.928623    22.924001    19.112253    7855.0547    8086.0591    9117.6891    10103.123   -107.39773    327.62629    1026.6441   -3515.9503 
11357000    215.97157   -4965.1174   -4533.1476   -4965.1174            0     7686.696    18.007291    22.618632    19.363632    7886.8131    9010.9563    7502.2602    6546.8715    957.64329    11.684172    -125.9639   -3649.0155 
11358000    201.39715    -4929.107   -4526.2878    -4929.107            0    7955.0081    17.798787    22.746458    19.470194    7882.6901    9049.1911    8697.8959    6117.9372    188.52595    853.93597   -523.78921   -3611.7726 
11359000    209.15462   -4968.3067   -4549.9716   -4968.3067            0    6866.1333    17.967155    22.939905    19.201922    7914.3571    7708.3932    6044.2851    6845.7217    844.91673   -546.59794    1433.5229   -3757.4634 
11360000    203.34714   -4919.4309   -4512.7115   -4919.4309            0     8003.132    17.862967    23.081599     19.06621    7861.1098    8329.0856    7290.4127    8389.8978    796.14649    515.53721    796.63967   -3595.1827 
11361000    212.88043   -4928.5092   -4502.7221   -4928.5092            0    9217.9482    17.954016    22.719287     19.36517    7899.1005    11678.617       9013.2    6962.0273    489.64873   -495.12477     1819.704   -3440.8119 
11362000    198.72953   -4932.5858   -4535.1022   -4932.5858            0    8022.5116    17.962488    22.551785     19.45358    7880.3759    7301.9813    9658.8122    7106.7413   -907.46603    -92.58345   -439.10289   -3613.0974 
11363000    202.69706    -4962.717   -4557.2978    -4962.717            0    6740.6689    18.058598    22.740211    19.272287    7914.2866    6274.7544    6730.2592     7216.993    159.96214    204.32383   -363.55801    -3779.278 
11364000    207.24034   -4937.5266   -4523.0203   -4937.5266            0    8913.8441    17.964913    22.849128    19.165112    7866.9446    7402.0784    9707.5721    9631.8817    1276.0173    1804.0043   -821.43002   -3500.3233 
11365000    206.94577   -4952.9664   -4539.0493   -4952.9664            0    7522.5503    18.012235    22.794481    19.238284    7898.8462    5171.3235    7996.8887    9399.4387    434.20092    718.77793    396.78367   -3672.4773 
11366000    202.79419   -4969.9975   -4564.3841   -4969.9975            0    7390.5695     18.03261    22.648257    19.373856    7912.4219    6178.9284    8844.9921    7147.7881   -422.03327    1011.7775   -1735.2853   -3711.5526 
11367000    199.81146   -4968.6637   -4569.0161   -4968.6637            0    7352.5597    18.067968    22.643379    19.243328    7872.8272    6231.9796     7406.655    8419.0443   -1196.0736   -278.35347    489.32139   -3724.8165 
11368000    200.23083   -4949.3666   -4548.8802   -4949.3666            0    7969.2206    17.960947     22.82724    19.227854    7883.3976    8297.7923    7662.0781    7947.7914    358.69419    688.80422    2042.4723   -3632.6488 
11369000    204.63817   -4969.0576    -4559.756   -4969.0576            0      7507.58    17.924073    22.868857    19.241746    7887.2506    7513.8389    7861.3935    7147.5075   -272.02207    1548.0156    1827.1226   -3696.1781 
11370000     213.7392   -4975.1481   -4547.6433   -4975.1481            0    7884.4619     17.95003    22.896207     19.18197    7883.5522    7646.6227    8107.0318    7899.7311    130.96844    1112.3957   -366.33155   -3641.1389 
11371000    206.26065   -4969.3809   -4556.8341   -4969.3809            0    7082.8873    17.983054    22.723174    19.306564    7889.2815    6995.3703    6860.1879    7393.1037    189.53556   -317.08357   -1660.0693   -3741.8978 
11372000    211.31593   -4934.4629   -4511.8049   -4934.4629            0    7445.8783    18.050777    22.638151    19.345253    7905.1709      7474.81     7206.486    7656.3388     1190.881   -863.89846   -430.46979   -3653.3785 
11373000     200.8855   -4943.0046   -4541.2088   -4943.0046            0    7938.6998    17.994167    22.500585    19.466877    7881.7354    7071.4717    9115.4462    7629.1814   -1289.2421   -150.43923     230.2026   -3628.6788 
11374000     207.2979    -4943.854   -4529.2326    -4943.854            0    7590.9036    18.085059    22.680992    19.314726    7922.6508    5951.5218    7652.2817    9168.9074   -481.78261     395.0942    1857.6607   -3652.1513 
11375000    222.03209   -4953.6547   -4509.5631   -4953.6547            0     9170.371    17.806985    22.853448    19.369514    7882.4428    9965.5195    9652.7257    7892.8678    736.80666     -161.197    978.49475   -3455.3616 
11376000    208.96531   -4961.3157   -4543.3592   -4961.3157            0    8951.7055    17.632605    23.190715    19.139235    7826.2766    9523.6855    8005.5994    9325.8315   -1043.8777    72.258663   -1327.8409   -3521.6275 
11377000    205.94867   -4958.2468    -4546.324   -4958.2468            0    8469.5308    17.799507     23.20069     18.99221    7843.0391    10017.497    7048.5924    8342.5028    458.72632   -1166.9957    2.8252139   -3577.5563 
11378000    201.98508    -4955.854   -4551.8589    -4955.854            0    8523.0824     18.01325    22.681458     19.27549    7875.3249     8681.505    8472.7855    8414.9569    332.48046    539.46959    1085.0379   -3572.9527 
11379000    217.41802   -4939.2124   -4504.3495   -4939.2124            0    7450.5306    17.985767     22.59741    19.419462     7892.686    7811.3446    8664.2061    5876.0411    120.95732    933.61133    239.78396   -3646.7432 
11380000    203.06685   -4972.0884   -4565.9296   -4972.0884            0    7635.0861    18.017956    22.671861    19.317482    7891.2029    7672.0966    7669.7536    7563.4082    -383.6906   -52.502299   -189.95835    -3687.245 
11381000     203.2684   -4970.3278   -4563.7658   -4970.3278            0    7703.8302    17.855459    22.966009    19.168812    7860.5287     7505.496    8121.6797    7484.3151    1752.2556    192.63476    252.29754   -3680.6161 
11382000    227.54614   -4965.6471   -4510.5267   -4965.6471            0    9638.2342    17.936486    22.975622    19.058337    7853.9776    10227.035    9202.0106    9485.6567    810.40394   -322.09824   -255.28272   -3406.5421 
11383000     206.5699   -4933.2698   -4520.1045   -4933.2698            0    8564.9115    17.890718    23.058123    19.084604    7872.9028    9471.9817    7140.9198     9081.833   -946.88748   -551.46943   -2567.3333   -3536.6967 
11384000    211.69988   -4987.2733   -4563.8474   -4987.2733            0    7005.5883    17.826448    22.946689    19.300047    7894.8376    7436.6726    6761.6909    6818.4015   -1263.3749    283.82247   -1491.5868   -3757.2372 
11385000    202.14033   -4957.3821   -4553.0765   -4957.3821            0    7118.6546    17.921432    22.826205    19.314477    7901.1331    8052.8061    6299.5735    7003.5841   -1240.3962   -883.85074    1029.9474   -3732.7945 
11386000    208.77658   -4945.4409    -4527.862   -4945.4409            0    7205.5842    18.011677    22.621336    19.448303    7924.1763    5329.0077    8819.8449       7467.9   -867.86655    998.00963   -26.426249   -3695.1416 
11387000    204.60753   -4958.0244   -4548.7841   -4958.0244            0    7576.9649    18.002549    22.742633    19.267633    7888.6577    7564.9013    7734.7501    7431.2434    781.29663   -1536.3006     1363.744   -3677.0696 
11388000    204.85038   -4951.6747   -4541.9486   -4951.6747            0    7629.4856    17.995483     22.89363    19.184443    7903.6439     7121.961     8709.705    7056.7907      677.048    451.53593    10.031834   -3662.5242 
11389000    201.65028   -4970.5722   -4567.2468   -4970.5722            0    5883.8913    17.837663    22.936254    19.385643     7931.232    7428.3952    5039.8827     5183.396   -1276.7333   -393.95712    224.29761   -3886.6636 
11390000    210.07825   -4933.8947   -4513.7123   -4933.8947            0    9286.0992    17.740445     22.93929    19.275649    7844.2873    8989.1268    8877.8382    9991.3325    185.81393    -75.14652   -79.930353   -3451.3743 
11391000     205.1796   -4951.8403   -4541.4557   -4951.8403            0    8870.6422     17.89936    22.767658    19.269394    7852.7885    7774.6491    9206.3414    9630.9362    30.466751   -359.55112   -375.65904   -3525.5466 
11392000    210.81293   -4959.9254   -4538.2735   -4959.9254            0    7343.7303    18.022017    22.667337    19.265644    7870.2304    6418.8711    8230.6638     7381.656    871.79578    414.00066   -590.17237   -3695.3657 
11393000    203.63321   -4956.4425    -4549.151   -4956.4425            0    7848.7139    18.048195    22.648466    19.316625    7895.9397    7788.9617    7360.7386    8396.4414   -807.41896   -674.52958   -47.192303   -3645.3387 
11394000    209.80312    -4950.759   -4531.1268    -4950.759            0    8568.8534    17.963856    22.621658    19.318787    7850.6179    9226.1149    8749.3886    7731.0566    108.51241    809.99542    2121.4672   -3550.0513 
11395000    207.15374   -4961.9756   -4547.6426   -4961.9756            0      6531.78    17.980521    22.925514    19.204095    7916.1713    6677.7389    6487.1612      6430.44   -284.70683    771.51772   -493.06552   -3793.5535 
11396000    209.08261   -4972.5824   -4554.3914   -4972.5824            0    6710.4626    17.999783    22.849571    19.254284    7919.0428    6378.7568    8262.3117    5490.3193   -158.02407    1197.9187   -749.72201   -3779.3926 
11397000    208.65926   -4976.7604   -4559.4161   -4976.7604            0    8364.6057    17.980598    22.769802    19.213831    7866.4242    9101.2273    7965.6408     8026.949    68.315256    237.89305    766.87082   -3599.7973 
11398000    213.34557   -4969.2259   -4542.5084   -4969.2259            0    9223.9154    17.908988    22.793567     19.20813    7840.9453    10010.662    8549.2916    9111.7926    484.75114   -881.53745    125.62204   -3487.7339 
11399000    204.73537     -4914.62    -4505.124     -4914.62            0    9074.1853    17.901812    22.858024    19.207776    7859.8228    8982.6783    9957.6008    8282.2768   -1716.5572   -516.14439    -2072.678   -3464.9732 
11400000    209.08326   -4972.6458   -4554.4534   -4972.6458            0    7591.9071    17.877307    22.967534    19.189919    7879.3356    7394.4261    7619.0317    7762.2636    778.99758    82.251904   -682.92512    -3682.052 
11401000    212.56344   -4926.6467   -4501.4936   -4926.6467            0    8785.4579    17.834777    22.909831    19.276435    7876.1919    8663.4182    8417.0388    9275.9166    2041.3079    774.83214    401.85517   -3492.3416 
11402000    206.69387    -4957.811   -4544.3977    -4957.811            0    6779.4761    18.099807    22.695761    19.286854    7922.8252    6602.6308    7124.5882    6611.2094   -1445.4552   -360.97286   -640.21351   -3761.0545 
11403000     207.5884    -4943.525   -4528.3225    -4943.525            0    7126.7181    18.027725    22.637696    19.403264    7918.5917    7771.6721    7315.9725    6292.5095    385.56646    663.44878    1075.0716   -3705.2968 
11404000    210.78781   -4967.2658   -4545.6641   -4967.2658            0    7465.0815    17.800703    22.975264    19.363602    7919.2452    11419.243     6634.972     4341.029    2093.3096   -115.35061    1984.0636   -3683.4915 
11405000    209.34808   -4965.2841   -4546.5621   -4965.2841            0     7725.443    17.918161    22.899592    19.220825    7886.6617    8213.9851    7139.2301    7823.1138     116.7672    -264.9542    -631.0851   -3657.9904 
11406000    201.93454   -4969.1905   -4565.2964   -4969.1905            0    8239.4043    18.036542    22.775428    19.123546    7855.7609    10287.503    6985.6174     7445.093   -1017.0702   -574.10651   -1689.4707   -3621.3226 
11407000    206.20094   -4955.4936   -4543.0662   -4955.4936            0    7921.9751    17.995852    22.804131    19.231476    7892.2084    7605.2506    9042.8489    7117.8259    428.02022    368.41676    257.92742   -3631.2488 
11408000    199.40614   -4968.8179    -4569.981   -4968.8179            0    7133.5005    17.875157    22.842602    19.342036    7897.6456    6856.6307    7642.8192    6901.0517   -489.75623   -365.36929    638.46054   -3748.3511 
11409000    199.74848   -4959.5117   -4559.9901   -4959.5117            0    7001.2658    17.958986    22.697542    19.369664    7895.5563    7658.9037    7150.2295    6194.6641   -756.58397    48.270113     528.5555   -3753.8042 
11410000    209.63202   -4953.3294   -4534.0395   -4953.3294            0    6168.9086    18.117604    22.637462    19.286037    7909.9088    4418.7052    6671.5725    7416.4482     317.4402   -382.41867    150.68803   -3822.4071 
11411000    204.12309   -4968.1373   -4559.8659   -4968.1373            0    7666.8463    17.939513    22.694669    19.355182    7880.1009      7590.11    8376.9197    7033.5093    838.92625   -271.78216    889.77327   -3678.7675 
11412000    205.51109   -4946.6993   -4535.6517   -4946.6993            0    7751.5454    17.824365    22.848362    19.338174    7875.6171    7787.2352    8448.6917    7018.7092     195.8082    1939.9388    -1642.742   -3645.3263 
11413000     197.6812   -4940.6144   -4545.2276   -4940.6144            0    8273.6189    17.863425     22.98567    19.146982    7861.8045    9615.6236    6441.9934    8763.2397    -478.9391     -892.337   -593.52455   -3596.6046 
11414000    207.97933   -4971.6013   -4555.6169   -4971.6013            0    6358.2136    17.948242    22.910501    19.226901    7906.1634    6905.9993    6184.5253    5984.1161    958.91198   -722.41561    2108.2568    -3822.494 
11415000    204.32934   -4956.7544   -4548.0705   -4956.7544            0     7158.603    17.986717    22.586418    19.375822    7871.5346    7092.0531    8104.1797     6279.576     376.0509    772.43878    624.17039   -3726.2754 
11416000    216.18887   -4934.2765    -4501.872   -4934.2765            0    7361.6811    17.933215    22.511551    19.537931    7887.5505    7655.8048    8008.1298    6421.1086    536.61728   -1009.0153    649.41753   -3655.0444 
11417000     201.2301   -4949.8134   -4547.3283   -4949.8134            0    7895.6496    17.805706    22.922279    19.341939    7894.3616    7444.3818    7904.5031    8338.0638    557.75843    537.21357   -217.82845   -3638.2929 
11418000    200.50715    -4919.231    -4518.192    -4919.231            0    9454.5796    17.857099    22.949952     19.14913     7847.688    8483.5244    10444.715    9435.4991   -167.31554    484.09579    -473.7655   -3436.1108 
11419000    205.55981   -4925.7843   -4514.6393   -4925.7843            0    6503.8697    18.046913    22.900981    19.198194    7934.4602      6671.87    6408.4988    6431.2402   -752.91996      91.9139   -371.12783   -3762.0378 
11420000    203.05721   -4946.5805    -4540.441   -4946.5805            0    8083.6237    17.889589    22.818813     19.31835    7886.1209    9132.3012    7737.4382    7381.1318     529.9761     306.7064    215.44045   -3610.7355 
11421000    207.70695   -4943.9575   -4528.5179   -4943.9575            0    6686.9581    17.982986     22.60646    19.517256    7934.3826    7070.6524    7189.2464    5800.9755    1802.4913    71.008958     161.5217   -3754.7377 
11422000     204.9323     -4960.58   -4550.6901     -4960.58            0    6914.6107    17.954083    22.708499    19.319104    7876.5975    6889.3216    7967.0782    5887.4322   -51.755148    -371.9421    139.94776   -3756.3943 
11423000     211.0141   -4982.2055   -4560.1512   -4982.2055            0    7798.6451    17.984832    22.912174    19.117142    7877.6313    6452.5988    7511.1026    9432.2338    289.16456   -113.35142    1974.9201    -3664.187 
11424000    200.22818    -4954.459   -4553.9779    -4954.459            0    7404.8124    18.054189    22.784235    19.264894    7924.6312    6099.9645    7782.3877    8332.0851   -1194.0917    596.17539    1255.8494   -3698.1844 
11425000     202.4839   -4950.9674   -4545.9746   -4950.9674            0    7145.5446    17.967434    22.770393    19.299174    7895.7846    6999.6708    8050.0042    6386.9587     -1246.63     627.9581   -1632.3197   -3723.1514 
11426000    215.80705   -4973.1821   -4541.5414   -4973.1821            0    7178.7867    17.791698    22.940794     19.28362    7870.7192    7155.6328     6933.201    7447.5264   -574.90522    29.423063    2062.6405   -3717.5145 
11427000    208.05746   -4937.4085   -4521.2679   -4937.4085            0    5869.0759    17.963759    22.831366    19.327484    7926.9191    7331.3396    4754.4689    5521.4191   -778.70462   -1865.9569   -311.64197   -3842.7676 
11428000     213.1896   -4959.9113   -4533.5058   -4959.9113            0    7153.2199    18.023427    22.814629    19.250346    7915.7001    7954.4956    5913.1769    7591.9873   -842.88167   -614.40879   -96.941444   -3707.7211 
11429000    210.87028   -4948.7308   -4526.9642   -4948.7308            0    6606.2846     18.09385    22.741515     19.27829    7932.6609    7440.4564    6007.6002    6370.7972    793.39802   -217.25164   -459.18851    -3762.685 
11430000     206.8101   -4943.7347    -4530.089   -4943.7347            0    9233.1124    17.706841    23.091815    19.211483    7855.2508    10453.134    8379.0602    8867.1426    485.05058   -381.30295   -2067.1033   -3472.3364 
11431000    210.78883   -4970.3363   -4548.7326   -4970.3363            0    7718.1836     17.76218    23.081626    19.181846    7864.1733    8522.9963    7603.0319    7028.5225    -254.5067    389.10959   -1259.6239   -3663.5272 
11432000    207.00929   -4945.9052   -4531.8611   -4945.9052            0    9118.9116    17.866839    22.980709    19.141161    7859.2194    8105.6092    9277.6165    9973.5092    334.42066    -326.2059    1889.8548   -3486.6637 
11433000    204.74476    -4967.578   -4558.0632    -4967.578            0    8105.7768    17.943214    22.593876    19.417867    7872.1343    8670.3974    8820.6877    6826.2454   -675.66613    376.37279    1288.9881   -3627.4632 
11434000    203.20761   -4974.6811   -4568.2408   -4974.6811            0     6005.006    18.000154    22.637946    19.482315    7938.7805    5635.6572    7677.2879    4702.0729   -2162.0203    664.13853    483.05714   -3872.9874 
11435000    222.93218   -4963.9998   -4518.1079   -4963.9998            0    8443.8757    18.067903    22.840234    19.068861     7869.245    8892.3459    8523.4712    7915.8099   -227.44375   -825.97089   -663.94115   -3549.0476 
11436000    217.91689   -4962.5371   -4526.6764   -4962.5371            0    8055.0305    17.919145    22.813518    19.237886    7864.4234    7075.6217    9115.6889    7973.7808   -162.14869    321.44412    313.89773   -3602.8083 
11437000    194.60046   -4941.4927   -4552.2678   -4941.4927            0    7889.6851    17.832444    22.815812    19.318838    7860.0948    7854.5406    7744.5207    8069.9939    555.97424    664.85589   -1488.9866   -3647.8619 
11438000    221.42286   -4960.0668   -4517.1937   -4960.0668            0     8735.782    17.911565    23.002255    19.057317    7851.7363     8360.167    7700.9874    10146.192   -769.42828    12.445823   -788.81611   -3516.8635 
11439000    198.86217   -4967.8271   -4570.0782   -4967.8271            0    6700.7274    17.876769    23.000449     19.22504    7904.8312    6783.5034    6085.0368     7233.642   -470.96696   -172.38474   -98.893393   -3797.5925 
11440000     215.7885   -4935.6669   -4504.0632   -4935.6669            0    5806.6117    17.772214    22.940544    19.516462    7956.9445    9708.5874    4554.3679    3156.8798   -647.35779    756.43212     516.4846   -3830.2415 
11441000      205.919   -4942.6294    -4530.766   -4942.6294            0    8066.6965    17.875394    22.715244    19.391826    7873.9336    10029.648    7856.7634    6313.6777    589.05296   -711.96345    455.99962    -3604.441 
11442000     203.0668   -4931.8412   -4525.6825   -4931.8412            0    7929.2381    18.151072    22.643719    19.176997    7881.8944    7382.9069    9685.9084     6718.899    728.86823   -337.08854    1663.6732   -3614.2218 
11443000    206.05288   -4954.9166   -4542.7854   -4954.9166            0    7442.0735    17.935133    22.753163    19.241505    7852.0927    6097.9638    8245.8096    7982.4469    1812.5488   -174.62437    501.14413   -3690.5584 
11444000    199.94043   -4931.1588   -4531.2533   -4931.1588            0    8086.3469    17.874718    22.823297    19.316625    7880.4103    7750.6212    7746.2323    8762.1872   -858.81092   -130.13074   -2149.6056    -3601.908 
11445000    207.60476    -4952.687   -4537.4518    -4952.687            0    7540.4854    18.074719    22.764379     19.22603    7910.7376    8416.5187    7485.5464    6719.3909   -465.84777   -63.176066   -1399.5211   -3667.5061 
11446000    209.15476   -4971.5923    -4553.257   -4971.5923            0    6717.5434    18.050862    22.806081    19.235603    7918.7097    8254.1249    5715.6264    6182.8789   -1264.7225    471.67951   -1459.0159    -3777.473 
11447000    209.96027   -4951.0421   -4531.0957   -4951.0421            0    9514.8493     17.95626    22.624218    19.332603    7853.7991    9787.5251    10648.217    8108.8056   -61.045972    1004.5807   -1032.3892   -3441.2686 
11448000    211.48673   -4964.6907   -4541.6912   -4964.6907            0    7216.9825    18.004366    22.776348    19.292792    7911.4668    6657.3235     6496.416    8497.2079   -897.82362    -698.7382   -1416.4132   -3708.9912 
11449000    215.05532   -4956.3644   -4526.2272   -4956.3644            0     6708.465    18.218978    22.698149    19.133245    7912.3062    6379.4444    6579.5588    7166.3917   -299.42586    72.117633     -519.034   -3752.1181 
11450000    202.19701   -4951.2614   -4546.8424   -4951.2614            0    7709.6448    18.019147    22.687362    19.288772     7885.383    7270.3334    7918.9706    7939.6304    -1035.627    653.49109    1573.6969   -3660.2315 
11451000    205.50933   -4950.8347   -4539.7907   -4950.8347            0    7398.3289    17.867854    22.909253    19.245908    7878.1047    6925.0081    7652.2455    7617.7331   -449.87852    907.55899   -185.50274   -3689.7665 
11452000     204.0723   -4952.2749   -4544.1051   -4952.2749            0    6238.8518    17.985715    23.062532    19.072964    7911.3916    5394.7996    6480.7965    6840.9594   -929.15025   -310.33968    78.607931   -3824.2693 
11453000    203.84084   -4975.8845   -4568.1776   -4975.8845            0    6080.9256    17.957484     22.78605    19.356114    7920.1374    5871.0191    6321.4856     6050.272    422.30393   -1026.6381    135.89258   -3865.7877 
11454000    196.42318    -4956.967   -4564.0964    -4956.967            0    8230.4329    17.939493    22.756289    19.249454    7858.3257    8132.4037    9250.3684    7308.5266   -2042.7939    639.20608    1277.7328   -3620.8425 
11455000    197.97887   -4957.7999   -4561.8177   -4957.7999            0    7544.2364    17.970932    22.613929     19.38382    7877.4561    7684.5373    8586.6156    6361.5562   -206.27995   -68.210224    -1611.668    -3695.101 
11456000    209.04816   -4967.8064   -4549.6843   -4967.8064            0    7221.4708    18.029519    22.524659     19.38855    7873.8602    5890.2515    8500.6756    7273.4853    -256.6684    239.93603   -44.710108   -3720.4271 
11457000    208.96958   -4962.8727   -4544.9077   -4962.8727            0    6403.8063    18.048022    22.925908    19.118234    7910.4997    6145.9212    6327.8832    6737.6145    362.61674   -980.70233   -740.60119   -3806.1229 
11458000    211.45974   -4944.7438   -4521.7982   -4944.7438            0    8399.0583    17.988414    22.878759    19.169958    7889.4457    6689.8639    8490.2545    10017.056   -1531.6177    813.90561   -493.72502    -3555.407 
11459000    208.04065   -4958.1122   -4542.0052   -4958.1122            0    7083.7313    17.884199    22.981234    19.251573    7912.4151    8972.0927    6649.6486    5629.4526    357.11942    834.38285    365.06989   -3724.5818 
11460000     212.7588   -4954.0147   -4528.4708   -4954.0147            0      6736.33    17.935079    22.872175    19.284731    7910.8717    7275.5866    7463.7521    5469.6514   -819.79121    678.43741    3.4314467   -3751.2873 
11461000    202.62965   -4939.0187   -4533.7343   -4939.0187            0    8323.3116    18.061498    22.665043    19.222098     7868.847    7465.7266    8796.8351    8707.3731   -40.341026    447.70165     12.12562   -3578.5589 
11462000    206.44192   -4956.4769   -4543.5676   -4956.4769            0    8496.2995    18.039684    22.645685     19.26588    7870.5167    9713.3043    7327.0238    8448.5704   -81.758809   -169.83184    578.21873   -3568.3333 
11463000    196.64699   -4935.2632   -4541.9449   -4935.2632            0    7106.6406    17.996705    22.797086    19.245764    7896.0065    6317.3966    7865.8359    7136.6893   -821.15474    972.33444     848.0079   -3723.5786 
11464000    202.80807   -4950.8115   -4545.1703   -4950.8115            0    8136.0295     17.88134    22.807676    19.339051    7887.0803    7376.0309    8509.9453    8522.1124   -1309.4722    5.2363655    -2116.721   -3609.3237 
11465000    198.95951   -4980.1465   -4582.2029   -4980.1465            0    7778.8469    17.799693    22.714442    19.463185    7869.1623    7283.2259    8247.6869    7805.6279    434.30886    39.089816   -1403.5449   -3689.4739 
11466000    205.39791   -4961.1782    -4550.357   -4961.1782            0    7499.7254    17.970351    22.756702    19.286396    7887.0932    7204.5566    8778.1271    6516.4925   -613.93208    1437.8243    2444.4297   -3687.6998 
11467000    199.16085   -4972.3945   -4574.0482   -4972.3945            0    6209.3247    18.044602    22.829063    19.260568    7934.2245    4503.9946    6690.8024    7433.1771   -633.99169   -60.356515   -230.95869   -3855.5516 
11468000    202.16633   -4930.4787   -4526.1211   -4930.4787            0    7276.4006    17.897639    23.072107    19.164658     7913.782    7985.7926     5560.878    8282.5312    879.94151   -702.34475     710.4893   -3686.3197 
11469000    195.85614   -4936.7097   -4544.9732   -4936.7097            0    8556.3419    17.778609    23.163954     19.12379    7875.6142    7225.2849    8118.1209     10325.62    -943.0484    951.41217   -920.46023    -3562.211 
11470000    200.77787   -4974.6636    -4573.083   -4974.6636            0    6924.6622    17.947444     22.91377     19.23294    7909.4237    9059.7211    5497.3155    6216.9502   -529.82679   -902.44925    -218.4001   -3774.3175 
11471000    197.11503   -4939.8789   -4545.6245   -4939.8789            0    8987.5265    18.084896    22.550408    19.268392      7858.07     10441.96    9905.4453    6615.1744    569.24878    911.82228   -1956.8199    -3515.637 
11472000    201.37629   -4975.1189   -4572.3415   -4975.1189            0    7978.2752    17.980489    22.684274    19.276935    7862.5673    8115.7286    7885.2467    7933.8503    -108.3142   -819.31594    377.37298   -3657.4928 
11473000    199.33412   -4962.5131   -4563.8202   -4962.5131            0    8212.5508    17.827335    22.837483    19.296419    7856.1792    8579.7353    7631.8351     8426.082    671.22081   -584.20581    47.089976   -3622.8728 
11474000    209.07786   -4950.3798   -4532.1982   -4950.3798            0    8298.4816    17.963286    22.782904    19.190273    7853.7313    7513.7229    8171.9497    9209.7721    -498.6857   -1003.2757    85.213928   -3581.7017 
11475000    200.57668   -4958.6445   -4557.4664   -4958.6445            0    8719.8831    18.081936    22.764079    19.097624    7860.9373    8414.5938     7742.754    10002.302    770.60759   -764.45018    939.75934   -3557.7867 
11476000    206.12098   -4954.0819   -4541.8145   -4954.0819            0     7886.578    17.943594    22.621345    19.402964    7875.8231    6437.0822    10225.795    6996.8567   -1050.3809    909.00564    1474.4814   -3635.9558 
11477000    212.05761   -4915.2247   -4491.0832   -4915.2247            0    7906.3039    17.814729    22.863674    19.379935    7893.6447    9493.4517    7273.6921     6951.768   -1087.0102   -233.42175   -755.00487   -3580.9039 
11478000    211.80116   -4933.7915    -4510.163   -4933.7915            0    8997.9159    17.887848    22.924359    19.185598    7867.3892     8667.138    9792.3125    8534.2972   -962.20343    1741.4077     -937.364   -3477.7619 
11479000    210.41195   -4942.6807   -4521.8309   -4942.6807            0    8875.2254    17.962144    23.115766    18.924466    7857.6031    8185.7072    8456.4101     9983.559   -1100.8154    924.59916   -783.71438   -3504.7737 
11480000    215.72786   -4940.7064    -4509.224   -4940.7064            0    7250.9327    17.976641    22.774482    19.286853    7896.2049    6375.0705    7456.1289    7921.5986   -1331.7948    305.32983   -300.49862   -3674.2207 
11481000    205.97484   -4934.6555   -4522.6804   -4934.6555            0    6204.2735    17.994178    22.589852    19.459952    7910.1945    4677.5306    8299.5749    5635.7152   -913.70899    60.166725   -1419.4451   -3806.9425 
11482000    205.06414   -4941.4851   -4531.3315   -4941.4851            0    9418.3485    17.957757    22.610008    19.302953    7837.4818    10783.078    8478.1548    8993.8126   -4.6570374   -491.99786   -698.14605   -3454.7989 
11483000    207.26263   -4961.3442   -4546.7933   -4961.3442            0    8520.9966    18.078027    22.526739    19.272822    7848.6446    8621.3555    8657.1574    8284.4769    648.17474   -2373.4625    1527.9898   -3571.4423 
11484000    213.69693   -4953.2896   -4525.8693   -4953.2896            0    6849.0398    17.931128     22.97469    19.199226    7909.3534    6508.3536    6826.5348     7212.231   -172.57995    65.420135   -12.753184   -3735.8339 
11485000    198.52818   -4952.2952   -4555.2143   -4952.2952            0    8200.9789    17.667552    23.083418    19.302508    7872.0934    8088.8823    8258.0586    8255.9957    1575.1115    84.465661    1450.4387   -3613.6894 
11486000     205.1236   -4965.7839   -4555.5114   -4965.7839            0    7081.4117    17.971782    22.798881    19.312592    7913.0742    9388.6386    6389.7556    5465.8409    1302.4794   -282.58324    444.55211   -3738.2876 
11487000    205.03579   -4962.4509    -4552.354   -4962.4509            0    7893.5189    18.109744    22.637751    19.219643    7879.3593    6316.9097    8579.0752    8784.5719   -193.44327   -125.70495    942.49478    -3645.291 
11488000    205.26443   -4932.5025   -4521.9482   -4932.5025            0    8165.0775    18.068386    22.550843    19.369988    7892.4434    8885.0376    8251.3751    7358.8197    602.76304    121.04342    445.94328   -3582.1218 
11489000    205.40911    -4951.458   -4540.6144    -4951.458            0    7260.4536    18.028402     22.84129    19.201612    7907.0692    7111.9258    7349.1919     7320.243   -314.41291    956.35123   -1227.3539   -3703.3643 
11490000     203.4387   -4937.3989   -4530.4964   -4937.3989            0    7042.5452    17.991546    23.096926    19.126738    7948.1049    7113.7115    6678.0018    7335.9224   -956.97102   -214.87408   -592.75547     -3714.16 
11491000      207.673   -4970.8331   -4555.4615   -4970.8331            0    7823.5592    17.870389    23.039006     19.18133    7897.2604     6557.753    7996.1677    8916.7569    634.44547    1232.6582   -26.063535   -3654.3952 
11492000    206.25584   -4964.1127   -4551.5755   -4964.1127            0    6672.1286    17.945078    22.800338    19.294269    7894.3243    7367.2075    6525.7098    6123.4684   -155.60935    402.84684   -2048.6148   -3783.4092 
11493000    211.49166   -4935.3068   -4512.2974   -4935.3068            0     8755.403    17.967102    22.632129    19.329101    7859.8649    8241.5219    9274.7881    8749.8991    181.35844   -113.09247    -623.1062   -3508.6825 
11494000    213.14875   -4954.4356   -4528.1118   -4954.4356            0    5888.9058    17.983781    22.860651    19.336431    7949.6117    7299.4394    4944.4582    5422.8198    1870.8774   -512.78794    1424.8717   -3845.3701 
11495000    209.08475   -4928.7599   -4510.5645   -4928.7599            0    7911.7747     17.93321    22.911272    19.288328    7925.0469    7849.9091    8514.7201    7370.6951   -594.14607    102.05787   -223.60322   -3596.1321 
11496000    203.47313   -4955.1147   -4548.1433   -4955.1147            0    7108.4088    17.899376    23.056599    19.165871    7909.7308    5775.1424    6550.4861    8999.5981    559.85524     302.7101    306.41437   -3728.1506 
11497000    210.25005   -4965.6674   -4545.1413   -4965.6674            0    7371.4499    17.919767    22.926063    19.242194    7905.2647     6748.288     7261.734    8104.3278   -1208.4585     1.257453   -194.32333   -3695.2856 
11498000    211.37653   -4940.2865   -4517.5073   -4940.2865            0    7913.1724    17.896618    22.882702    19.239669    7879.0866     8580.616    7854.8748    7304.0264    585.41641   -697.01833   -32.919525   -3608.2174 
11499000    208.14061   -4965.0051   -4548.6982   -4965.0051            0    8730.3362    17.876826    22.657275    19.371582    7846.2688    10149.643    8537.6621     7503.704    887.06805    208.48881    1047.3436   -3549.6877 
11500000    216.03286   -4944.4778   -4512.3854   -4944.4778            0     6491.444    18.034956     22.77091    19.288917    7921.4251    5013.2007    7331.8959    7129.2354     -54.8025    66.844106   -550.89566   -3762.4557 
Loop time of 520.488 on 64 procs for 250000 steps with 1008 atoms

Performance: 82.999 ns/day, 0.289 hours/ns, 480.318 timesteps/s
194.9% CPU use with 32 MPI tasks x 2 OpenMP threads

MPI task timing breakdown:
Section |  min time  |  avg time  |  max time  |%varavg| %total
---------------------------------------------------------------
Pair    | 37.075     | 40.56      | 44.799     |  29.4 |  7.79
Bond    | 0.96799    | 1.2315     | 1.6264     |  12.8 |  0.24
Kspace  | 249.75     | 260.16     | 271.39     |  33.1 | 49.98
Neigh   | 2.28       | 2.701      | 3.0723     |  15.2 |  0.52
Comm    | 75.118     | 87.67      | 97.156     |  62.0 | 16.84
Output  | 0.60813    | 0.60837    | 0.60977    |   0.0 |  0.12
Modify  | 93.107     | 98.814     | 119.32     |  71.5 | 18.98
Other   |            | 28.75      |            |       |  5.52

Nlocal:        31.5000 ave          35 max          27 min
Histogram: 2 2 0 4 0 5 9 7 1 2
Nghost:        2908.19 ave        2927 max        2887 min
Histogram: 2 1 2 4 6 2 7 2 2 4
Neighs:        10557.0 ave       11675 max        8968 min
Histogram: 2 2 0 3 1 7 7 5 3 2

Total # of neighbors = 337824
Ave neighs/atom = 335.14286
Ave special neighs/atom = 2.0000000
Neighbor list builds = 6057
Dangerous builds = 0

unfix		3
unfix		2
unfix		1

write_data	data.final.${pid}
write_data	data.final.0
System init for write_data ...
PPPM initialization ...
  extracting TIP4P info from pair style
  using 12-bit tables for long-range coulomb (../kspace.cpp:340)
  G vector (1/distance) = 0.37988962
  grid = 24 27 32
  stencil order = 5
  estimated absolute RMS force accuracy = 0.002368366
  estimated relative force accuracy = 7.1322639e-06
  using double precision FFTW3
  3d grid and FFT values/proc = 5355 672
Last active /omp style is kspace_style pppm/tip4p/omp
WARNING: Not all mixed pair coeffs generated from mixing. Use write_data with 'pair ij' option to store all pair coeffs. (../write_data.cpp:312)

write_restart   restart.lmp.${pid}
write_restart   restart.lmp.0
System init for write_restart ...
PPPM initialization ...
  extracting TIP4P info from pair style
  using 12-bit tables for long-range coulomb (../kspace.cpp:340)
  G vector (1/distance) = 0.37988962
  grid = 24 27 32
  stencil order = 5
  estimated absolute RMS force accuracy = 0.002368366
  estimated relative force accuracy = 7.1322639e-06
  using double precision FFTW3
  3d grid and FFT values/proc = 5355 672
Last active /omp style is kspace_style pppm/tip4p/omp
Total wall time: 0:08:40
