LAMMPS (30 Jul 2021)
  using 1 OpenMP thread(s) per MPI task
package omp 0
using multi-threaded neighbor list subroutines
echo both

include		in.partitions
variable        pid world 0
include		in.temp
variable        temperature equal 268.76
variable	tempDamp equal 100.0
include		in.pressure
variable        pressure equal 10875.0
variable        pressureDamp equal 1000.0 # This is 1 ps
include		in.seed
variable        seed world 745823

units		real
atom_style	full
read_restart	restart.lmp.${pid}
read_restart	restart.lmp.0
Reading restart file ...
  restart file = 30 Jul 2021, LAMMPS = 30 Jul 2021
  restoring atom style full from restart
  orthogonal box = (0.65973319 1.8686098 0.80487295) to (17.547839 21.760568 21.408323)
  4 by 4 by 4 MPI processor grid
  restoring pair style lj/cut/tip4p/long/omp from restart
  restoring bond style harmonic/omp from restart
  restoring angle style harmonic/omp from restart
  864 atoms
  576 bonds
  288 angles
Finding 1-2 1-3 1-4 neighbors ...
  special bond factors lj:    0        0        0       
  special bond factors coul:  0        0        0       
     2 = max # of 1-2 neighbors
     1 = max # of 1-3 neighbors
     1 = max # of 1-4 neighbors
     2 = max # of special neighbors
  special bonds CPU = 0.132 seconds
  read_restart CPU = 0.330 seconds
include 	in.setup
variable	out_freq equal 1000
variable	out_freq2 equal 10000
variable	out_freq3 equal 1000

timestep	2.0

neigh_modify    delay 7 every 1

include		in.tip4p
# This is TIP4P/Ice

# create groups ###
group ox type 2
288 atoms in group ox
group hy type 1
576 atoms in group hy

# set charges - beside manually ###
set group ox charge -1.1794
Setting atom values ...
  288 settings made for charge
set group hy charge 0.5897
Setting atom values ...
  576 settings made for charge

# ### TIP3P Potential Parameters ###
pair_style lj/cut/tip4p/long/omp 2 1 1 1 0.1577 8.5
pair_coeff 1 1*2 0.000 0.000
pair_coeff 2 2 0.21084 3.1668
bond_style  harmonic
bond_coeff  1 450 0.9572
angle_style harmonic
angle_coeff 1 55 104.52
kspace_style pppm/tip4p/omp 1.0e-5
pair_modify tail yes

thermo          ${out_freq}
thermo          1000
thermo_style    custom step temp pe etotal epair emol press lx ly lz vol pxx pyy pzz pxy pxz pyz enthalpy

restart 	${out_freq3} restart.lmp.${pid} restart2.lmp.${pid}
restart 	1000 restart.lmp.${pid} restart2.lmp.${pid}
restart 	1000 restart.lmp.0 restart2.lmp.${pid}
restart 	1000 restart.lmp.0 restart2.lmp.0


include         in.dump
dump            myDump all atom ${out_freq2} dump.water.${pid}
dump            myDump all atom 10000 dump.water.${pid}
dump            myDump all atom 10000 dump.water.0
dump            myDump2 all dcd ${out_freq2} dump.dcd
dump            myDump2 all dcd 10000 dump.dcd
dump_modify     myDump append yes
dump_modify     myDump2 append yes


variable natoms 	equal  "count(all)"                        # NUMBER ATOMS
variable H      	equal  "enthalpy/v_natoms"                 # ENTHALPY-per-atom
variable Vol      	equal  "vol/v_natoms"                 # volume-per-atom
fix AVG all 		ave/time ${out_freq} 1 ${out_freq} v_Vol v_H file vol_enthalpy.dat
fix AVG all 		ave/time 1000 1 ${out_freq} v_Vol v_H file vol_enthalpy.dat
fix AVG all 		ave/time 1000 1 1000 v_Vol v_H file vol_enthalpy.dat


timer           timeout 23:50:00 every 1000
New timer settings: style=normal  mode=nosync  timeout=23:50:00

fix 		1 all shake 1e-6 200 0 b 1 a 1
       0 = # of size 2 clusters
       0 = # of size 3 clusters
       0 = # of size 4 clusters
     288 = # of frozen angles
  find clusters CPU = 0.109 seconds
fix             2 all nph iso ${pressure} ${pressure} ${pressureDamp}
fix             2 all nph iso 10875 ${pressure} ${pressureDamp}
fix             2 all nph iso 10875 10875 ${pressureDamp}
fix             2 all nph iso 10875 10875 1000
fix             3 all temp/csvr ${temperature} ${temperature} ${tempDamp} ${seed}
fix             3 all temp/csvr 268.76 ${temperature} ${tempDamp} ${seed}
fix             3 all temp/csvr 268.76 268.76 ${tempDamp} ${seed}
fix             3 all temp/csvr 268.76 268.76 100 ${seed}
fix             3 all temp/csvr 268.76 268.76 100 745823

run             250000
PPPM initialization ...
  extracting TIP4P info from pair style
  using 12-bit tables for long-range coulomb (../kspace.cpp:340)
  G vector (1/distance) = 0.37468435
  grid = 24 24 24
  stencil order = 5
  estimated absolute RMS force accuracy = 0.0031131023
  estimated relative force accuracy = 9.3750151e-06
  using double precision FFTW3
  3d grid and FFT values/proc = 2535 216
Last active /omp style is kspace_style pppm/tip4p/omp
Neighbor list info ...
  update every 1 steps, delay 7 steps, check yes
  max neighbors/atom: 2000, page size: 100000
  master list distance cutoff = 10.8154
  ghost atom cutoff = 10.8154
  binsize = 5.4077, bins = 4 4 4
  1 neighbor lists, perpetual/occasional/extra = 1 0 0
  (1) pair lj/cut/tip4p/long/omp, perpetual
      attributes: half, newton on, omp
      pair build: half/bin/newton/omp
      stencil: half/bin/3d
      bin: standard
Per MPI rank memory allocation (min/avg/max) = 9.237 | 9.240 | 9.243 Mbytes
Step Temp PotEng TotEng E_pair E_mol Press Lx Ly Lz Volume Pxx Pyy Pzz Pxy Pxz Pyz Enthalpy 
15500000    266.25459   -3825.1693    -3368.818   -3825.1693            0    10164.684    16.888106    19.891958     20.60345    6921.4714    10509.357    11392.373     8592.323   -777.48753    667.00599   -1628.1443   -2342.7687 
15501000    280.47283   -3860.0604   -3379.3396   -3860.0604            0    10288.003    16.829516    19.822947     20.53197    6849.6832    10054.258    10482.101    10327.649   -92.705314   -739.89316    630.61095   -2351.6133 
15502000    254.14024   -3822.8022   -3387.2145   -3822.8022            0    8521.5986    16.882002    19.884769    20.596003    6913.9695    7435.8713    8867.8522    9261.0723   -143.55975   -2182.2719    364.60603   -2527.9549 
15503000    279.22372   -3836.3266   -3357.7467   -3836.3266            0    12906.449    16.766786    19.749059    20.455439    6773.3737    13317.289    13450.501    11951.556    367.91015   -126.47444    1073.7818   -2082.8127 
15504000     255.7735   -3843.0584   -3404.6714   -3843.0584            0    11619.928    16.792678    19.779557    20.487029    6804.8022    12854.582    12083.228    9921.9739   -475.17743    754.99007   -399.95753   -2251.4974 
15505000    276.58382   -3843.6018   -3369.5465   -3843.6018            0    9744.7582    16.867894    19.868151    20.578791    6896.6501    7902.3343    11487.689    9844.2516    38.871098   -37.630813   -1849.7016   -2389.4132 
15506000    274.29214   -3796.9614   -3326.8341   -3796.9614            0     10930.29    16.801494     19.78994    20.497783    6815.5241    9830.7394     11370.24     11589.89   -129.31343   -2043.4391   -1175.2046   -2240.3913 
15507000    270.27942   -3811.9091   -3348.6594   -3811.9091            0     10538.79    16.847202    19.843779    20.553548     6871.301    8203.6632    12733.353    10679.354   -1998.1009    70.464892    -290.1596    -2292.558 
15508000    275.23039   -3803.6451   -3331.9096   -3803.6451            0     10019.93    16.817188    19.808426     20.51693    6834.6416    10708.589    7737.1338    11614.066    1137.5662   -417.56625    848.26428   -2333.1607 
15509000    283.21191   -3791.2577   -3305.8422   -3791.2577            0    12882.247    16.805688    19.794881      20.5029    6820.6299    11140.507    15038.925    12467.309    831.68502   -18.747141   -323.63529   -2024.4207 
15510000    273.71663   -3814.8994   -3345.7584   -3814.8994            0    10462.681    16.813509    19.804092    20.512441    6830.1564      11073.1    12466.249    7848.6958    239.36311    549.02902    1217.4813   -2303.5621 
15511000    262.75274   -3801.8273   -3351.4781   -3801.8273            0    12802.987    16.784433    19.769844    20.476968    6794.7828    12535.301    11086.337    14787.324    852.23441    1821.2809   -1280.9283   -2082.7669 
15512000    284.54014   -3816.5642   -3328.8721   -3816.5642            0    10666.516    16.888264    19.892145    20.603643    6921.6661    9942.4411    12994.106    9063.0018    119.36023    308.32653   -1285.8274   -2252.1364 
15513000    266.74507   -3789.0875   -3331.8956   -3789.0875            0    13697.123    16.801705    19.790189    20.498041    6815.7815    13524.978     14543.85    13022.542   -547.48862    854.38116     122.7261   -1970.3854 
15514000    262.61418   -3856.4667    -3406.355   -3856.4667            0    12015.725    16.852832    19.850411    20.560416     6878.192    13846.874    11619.659    10580.643   -1411.4656    911.69599    651.46759   -2201.0411 
15515000    267.72243   -3853.3705   -3394.5035   -3853.3705            0    10195.014    16.914698    19.923279    20.635891    6954.2179    12419.143    9506.6336     8659.265    642.74012     2559.685    138.45998   -2360.5238 
15516000    274.17269   -3838.4777   -3368.5551   -3838.4777            0     13138.53    16.872679    19.873787    20.584629     6902.521    15240.254    11617.283    12558.055    1696.0063     331.6743    -1335.598   -2045.9494 
15517000    263.42113   -3825.3091   -3373.8143   -3825.3091            0    11258.689    16.879482      19.8818    20.592928    6910.8729     10203.22    12482.879    11089.967    238.83113    911.37316    580.88151   -2239.0736 
15518000    255.97651   -3870.7461   -3432.0111   -3870.7461            0    10196.234    16.858235    19.856774    20.567008    6884.8093    8427.8227    12581.684    9579.1965   -711.13278    875.31416     337.4712   -2408.2288 
15519000    273.57374   -3887.1289   -3418.2329   -3887.1289            0    10606.828    16.881607    19.884303    20.595521    6913.4841    9775.5128    11796.217    10248.754     727.3087    102.73514    16.016061   -2348.7881 
15520000    262.02305   -3863.7556    -3414.657   -3863.7556            0    10528.091    16.829387    19.822794    20.531812    6849.5249      9605.49    12698.666    9280.1178    1152.2084    188.62003    1355.0774   -2362.9713 
15521000    272.67514   -3857.0987   -3389.7428   -3857.0987            0    12149.607    16.793617    19.780663    20.488174    6805.9432    12330.479    11798.125    12320.215    359.69939   -2729.0857    -574.8767   -2183.8008 
15522000    277.00573   -3826.6601   -3351.8817   -3826.6601            0    9790.8063    16.851859    19.849264    20.559229    6877.0002     10099.54    10570.028    8702.8509   -1040.0852   -50.454212   -1097.0202   -2369.9227 
15523000    253.56246    -3835.384   -3400.7866    -3835.384            0    10161.488    16.810619    19.800689    20.508916    6826.6352    8609.5485    10956.361    10918.555   -27.784627    161.22933   -630.59422   -2389.1142 
15524000    276.18168   -3797.6461   -3324.2802   -3797.6461            0    10926.565     16.84627    19.842681     20.55241    6870.1603    10868.847    10261.578     11649.27    915.95758    -653.7662   -1238.6378   -2229.5013 
15525000    270.00791   -3817.6284   -3354.8441   -3817.6284            0    9105.3526    16.819879    19.811596    20.520214    6837.9233    9963.7698    9626.7306    7725.5575    1112.6387    284.48328    1154.6827    -2446.821 
15526000     283.4078     -3828.04   -3342.2887     -3828.04            0    11067.891      16.7845    19.769924    20.477051    6794.8648    12868.776    9736.7759     10598.12    1680.8711   -506.21815    -201.3415   -2245.5036 
15527000    271.01747   -3836.5109   -3371.9962   -3836.5109            0    11209.777    16.888999     19.89301     20.60454    6922.5698    10486.222    11813.207    11329.903     318.4414   -986.21783   -507.69241    -2240.273 
15528000    266.05921   -3837.9597   -3381.9434   -3837.9597            0    11745.523    16.791329    19.777968    20.485383    6803.1624    12496.086    11350.462    11390.022    782.51303    150.60477   -407.77077   -2216.5861 
15529000     263.4883   -3826.5701   -3374.9602   -3826.5701            0     13459.47       16.805     19.79407     20.50206    6819.7917    12172.986    13014.121    15191.304   -1455.5296    1013.2736    144.43613   -2036.2858 
15530000    263.91601   -3797.1435   -3344.8005   -3797.1435            0    8542.6968    16.886745    19.890355     20.60179    6919.7984    8059.2641     8966.795    8602.0314   -1353.3057    453.60461     1850.025   -2482.6872 
15531000    272.64069   -3821.8913   -3354.5945   -3821.8913            0     10601.83    16.878695    19.880873    20.591968    6909.9065    11495.449    10498.253    9811.7884    1123.5177    166.99715    832.69158   -2286.2068 
15532000    266.16144    -3816.366   -3360.1744    -3816.366            0    12138.855     16.82169    19.813729    20.522422    6840.1315    12286.458     12141.36    11988.747    -1432.648   -774.54098    579.39206   -2149.2471 
15533000    271.66852   -3837.1376   -3371.5071   -3837.1376            0     10010.78    16.861958    19.861159    20.571549     6889.371    11412.731    9553.3775    9066.2323   -310.11577   -1102.8529    2606.7079   -2365.6798 
15534000    262.69719   -3859.3875   -3409.1335   -3859.3875            0    9878.9423    16.870046    19.870685    20.581416    6899.2893    11027.733    11237.996    7371.0985    745.17961   -1062.8695   -24.601838   -2415.1236 
15535000    261.54444   -3867.3838   -3419.1055   -3867.3838            0    10937.745    16.808033    19.797643    20.505761    6823.4857    10983.186     11995.11    9834.9383    310.26534    -1023.868   -995.03426   -2330.6519 
15536000    261.51245   -3845.9755   -3397.7521   -3845.9755            0    12029.456      16.7977    19.785471    20.493154     6810.908    11766.857    12414.091    11907.419   -548.38072   -635.38067    -231.4069    -2202.865 
15537000    271.98383   -3820.2124   -3354.0414   -3820.2124            0    11217.275    16.756579    19.737036    20.442987    6761.0108    12873.396    11415.111    9363.3175    925.12014    368.74413    824.99999   -2247.9911 
15538000    273.89431   -3833.8982   -3364.4527   -3833.8982            0    12035.826    16.747255    19.726054    20.431612     6749.731    9355.8808    11295.438     15456.16   -735.58348   -872.89054   -207.95209   -2179.6712 
15539000     260.1811    -3792.256   -3346.3145    -3792.256            0    11242.139    16.770667    19.753631    20.460175     6778.079    9751.7232    12165.201    11809.492   -932.51604    74.247703   -1570.6893   -2235.0141 
15540000    273.89103   -3835.7426   -3366.3027   -3835.7426            0     12348.49    16.737935    19.715076    20.420241    6738.4686    13063.128    13457.189    10525.153   -1258.9562   -484.78258   -2437.2008   -2152.7715 
15541000    267.73774   -3825.9632   -3367.0699   -3825.9632            0    12150.295    16.777007    19.761099     20.46791    6785.7692    11293.993     13406.41    11750.483   -1863.1696   -429.15019   -390.13187   -2164.6344 
15542000    265.89778   -3837.3674   -3381.6277   -3837.3674            0    11628.159    16.816191    19.807252    20.515714    6833.4256    11680.967    11220.072    11983.438    1127.7453    1225.3633   -26.428993   -2222.7827 
15543000    265.91586   -3817.1831   -3361.4124   -3817.1831            0    10078.076    16.872346    19.873395    20.584223    6902.1122    8592.7079     9632.677    12008.844   -619.67561    729.25751    -805.3303    -2346.951 
15544000    281.89894   -3845.4125   -3362.2473   -3845.4125            0    11015.063    16.826405    19.819282    20.528174    6845.8847    10219.949    11641.633    11183.606   -107.26607   -1074.8526   -770.30367   -2262.5012 
15545000     262.6441   -3867.8527   -3417.6897   -3867.8527            0    10471.363    16.805856    19.795078    20.503105    6820.8342    11090.669    8734.2905     11589.13    74.061973    1513.9885    978.83704   -2376.0522 
15546000    281.67377   -3826.8436   -3344.0644   -3826.8436            0    12503.608    16.793163    19.780128    20.487619    6805.3911    11857.982    11892.818    13760.025    1201.8597    599.98269    872.75914   -2103.0857 
15547000    262.12906   -3831.3926   -3382.1124   -3831.3926            0    11542.056    16.830877     19.82455    20.533631    6851.3451    9825.3535    13102.633    11698.181   -823.10945   -1320.5079   -133.73952    -2228.832 
15548000    276.22419   -3824.7786   -3351.3398   -3824.7786            0    12089.707    16.818879    19.810417    20.518993    6836.7028    13024.027     10838.71    12406.382    1363.0724   -285.89524   -861.28449   -2145.9199 
15549000    274.38151   -3832.6637   -3362.3832   -3832.6637            0    10382.143    16.877446    19.879402    20.590445    6908.3727    9551.8965    10711.116    10883.418     370.3845    281.35747    679.18111   -2316.3664 
15550000    273.47885   -3860.7747   -3392.0413   -3860.7747            0    12103.737    16.878577    19.880735    20.591825    6909.7624    13668.259    11561.875    11081.077    677.90207    44.829355    -675.9979    -2172.326 
15551000    285.59546   -3821.4593   -3331.9584   -3821.4593            0    11601.553    16.823849    19.816272    20.525057    6842.7661    10761.197    12136.121    11907.341   -1497.9658    1336.7492    -1451.669   -2174.1846 
15552000    267.83802   -3842.7108   -3383.6456   -3842.7108            0    10910.201    16.799621    19.787734    20.495498    6813.2452    11850.751    10177.137    10702.716   -2215.0505    595.91797   -1002.0757   -2299.5623 
15553000    266.99631   -3838.4074   -3380.7849   -3838.4074            0    12243.561    16.768447    19.751015    20.457466    6775.3867    12027.824    11372.676    13330.183   -258.38109   -1703.6375   -745.73591   -2170.9733 
15554000    283.15517   -3830.7405   -3345.4222   -3830.7405            0    8644.0084    16.845593    19.841884    20.551584    6869.3321    9322.3632    6419.7691    10189.893   -399.79418    899.18139    1247.6568   -2479.4467 
15555000    270.68104   -3857.3783   -3393.4403   -3857.3783            0    9691.7447    16.795751    19.783176    20.490777    6808.5376    7990.3697    9992.8709    11091.993    1189.4146    9.2986197    563.45082   -2431.0933 
15556000    277.83795   -3819.7884   -3343.5837   -3819.7884            0     9498.768    16.801089    19.789464     20.49729    6815.0322    11456.472    9502.9301    7536.9019     1056.536    749.73412   -998.43127   -2399.4987 
15557000    268.70268   -3831.9731   -3371.4259   -3831.9731            0    9500.7929    16.840802    19.836241     20.54574    6863.4729    11224.892    8927.5508    8349.9364   -1895.6838   -2240.3114    602.79103   -2420.4278 
15558000     255.5111   -3844.7737   -3406.8364   -3844.7737            0     10750.46    16.835888    19.830452    20.539744    6857.4658    8650.8588    10793.248    12807.272   -587.24506    -62.83629   -1924.7313   -2331.6926 
15559000    268.74114    -3836.449   -3375.8359    -3836.449            0    10165.452    16.865329     19.86513    20.575662    6893.5044    9321.5906    10354.704    10820.061   -842.34115   -671.23557   -762.85842   -2353.8553 
15560000    262.58066    -3837.159   -3387.1047    -3837.159            0    9413.3312    16.851126      19.8484    20.558334    6876.1023    9330.2788    8664.0403    10245.675    654.72379    689.56077    -491.0817   -2443.1274 
15561000    277.63273   -3834.5981   -3358.7451   -3834.5981            0    11475.382     16.81236     19.80274     20.51104     6828.757    9066.3178    12023.348     13336.48   -220.17661    917.07958   -754.31142    -2215.907 
15562000     265.0403   -3803.5554   -3349.2854   -3803.5554            0    10341.402    16.829484    19.822909    20.531931    6849.6437    9926.3706    9455.1782    11642.656   -561.84769   -47.976183    -416.2108   -2316.2308 
15563000    276.09552   -3823.2351   -3350.0168   -3823.2351            0    10424.955     16.85122    19.848512    20.558449    6876.2183    9624.5914    10585.462    11064.812   -532.47188   -863.27633   -2058.9008   -2304.5753 
15564000     261.5993   -3837.8769   -3389.5047   -3837.8769            0    11417.065    16.837035    19.831804    20.541144    6858.8681    10537.158    11689.576     12024.46    -773.1459    689.05261   -1351.3521   -2247.4608 
15565000    258.95232   -3857.5288   -3413.6934   -3857.5288            0    11986.054    16.802456    19.791074    20.498957    6816.6954    10724.587    14591.086    10642.489   -346.22094   -1172.0756    2095.3547   -2222.1057 
15566000    282.57273    -3843.164    -3358.844    -3843.164            0    10314.492     16.86031    19.859218    20.569538    6887.3513     9120.724    10084.063    11738.689    976.76466   -1256.1068   -357.71443   -2322.8053 
15567000    251.65023   -3860.7137   -3429.3938   -3860.7137            0    8755.6646    16.887409    19.891137      20.6026    6920.6148    9103.7213    8217.8595     8945.413    2300.7025   -131.95627    1190.6622   -2545.6839 
15568000    274.20724   -3851.4264   -3381.4445   -3851.4264            0    11652.341    16.859574    19.858352    20.568641    6886.4502    13001.113    11725.227    10230.684   -262.76403   -494.11741   -826.03612   -2211.1788 
15569000    260.12737   -3869.0971   -3423.2477   -3869.0971            0    13090.808    16.752117    19.731781    20.437543    6755.6112    13023.622    13753.392    12495.409    491.38219   -671.23834   -1393.3289   -2133.4934 
15570000    269.19276   -3856.0234   -3394.6362   -3856.0234            0    9383.9955    16.862134    19.861367    20.571765    6889.5877    9906.4244    8234.2629    10011.299   -347.37714    1695.5718     284.4446   -2451.7551 
15571000    263.93775   -3844.5116   -3392.1313   -3844.5116            0    11210.902    16.857159    19.855506    20.565694    6883.4904    10753.296    10442.901     12436.51   -1137.0988   -111.69118    879.81222    -2266.684 
15572000    276.29968   -3801.9365   -3328.3683   -3801.9365            0    9659.0536    16.893678    19.898521    20.610247    6928.3243    10251.559    9177.6991    9547.9032   -13.744085    377.33641   -551.02823   -2352.3933 
15573000    255.33518   -3859.3099   -3421.6741   -3859.3099            0    12192.343    16.798549    19.786471     20.49419    6811.9409     12705.79    10233.089     13638.15   -1456.6414    1669.7838   -1969.8846   -2210.4237 
15574000    266.80515   -3841.1882   -3383.8933   -3841.1882            0    11732.323    16.784044    19.769387    20.476495    6794.3111    14113.994    9853.3963    11229.578    406.88215    -916.0637    1101.1667   -2221.3602 
15575000    262.29392    -3821.086   -3371.5232    -3821.086            0    10840.094    16.835662    19.830186    20.539468    6857.1899    12084.745    11187.911    9247.6271   -894.16932    1349.3978   -44.803732   -2287.4587 
15576000    260.06221   -3823.6479   -3377.9101   -3823.6479            0    11229.508    16.832579    19.826555    20.535708    6853.4241    10797.985     10716.71    12173.829   -618.73718    919.47608   -576.12616    -2255.519 
15577000    267.06902   -3875.6156   -3417.8684   -3875.6156            0    11204.951    16.776795    19.760849    20.467651    6785.5117    11212.206    11114.569    11288.077   -380.52533   -384.76686    153.88328   -2309.0296 
15578000    287.45493    -3833.828   -3341.1401    -3833.828            0    12094.041    16.821273    19.813238    20.521914     6839.623    11297.899    12129.455     12854.77   -1251.8958   -112.33826     109.3511    -2134.773 
15579000    262.04745   -3830.9079   -3381.7676   -3830.9079            0    11407.488    16.847352    19.843955     20.55373     6871.484    9230.6368    14546.499    10445.328    928.99788   -1321.5128    952.70132   -2238.5828 
15580000    286.57742   -3841.1633   -3349.9794   -3841.1633            0    9164.2921    16.887251    19.890951    20.602407    6920.4203    9219.7773    7724.6069    10548.492   -457.17508    626.66709     746.2431   -2425.0528 
15581000    269.99327   -3815.3086   -3352.5493   -3815.3086            0    9932.1696    16.818501    19.809973    20.518532    6836.2426    9092.5861    9960.3029     10743.62    1347.6376   -1041.4808   -225.47723   -2362.3161 
15582000    252.59138   -3823.0754   -3390.1425   -3823.0754            0    12188.685    16.774248    19.757848    20.464543     6782.421    14272.052    10821.492    11472.511   -860.20017   -1918.5695    707.50435   -2184.5029 
15583000    249.64034   -3821.4037   -3393.5287   -3821.4037            0    11148.948    16.795911    19.783364    20.490972    6808.7321    8312.7022    15358.693    9775.4503   -439.61173    794.33951    37.652141   -2286.4563 
15584000    292.12365     -3840.87     -3340.18     -3840.87            0    10554.759     16.86587    19.865767    20.576322    6894.1676    9693.2198    12294.127    9676.9305   -508.82783   -375.41275   -654.92732   -2278.9585 
15585000    271.14045   -3834.5719   -3369.8464   -3834.5719            0    11545.838    16.836051    19.830644    20.539943    6857.6653     11780.04    12446.976    10410.497     383.6305   -15.282991    128.36391   -2215.1239 
15586000    271.83284   -3842.2605   -3376.3483   -3842.2605            0    10334.613    16.813446    19.804018    20.512365    6830.0799    9631.4244    9950.3653     11422.05   -620.78973   -869.70464   -1482.7702   -2346.9205 
15587000    261.92754   -3833.3015   -3384.3666   -3833.3015            0    11225.208    16.791172    19.777783    20.485191    6802.9712    10555.281    11173.731    11946.612   -739.41316    1370.1628   -1970.7446   -2270.6648 
15588000    275.02246   -3827.0795   -3355.7004   -3827.0795            0    9765.9335    16.909627    19.917307    20.629706     6947.966    7874.1775    11893.493    9530.1298   -774.72935    1091.0426    339.51925   -2366.1285 
15589000    271.26605   -3889.9963   -3425.0556   -3889.9963            0    10175.691    16.806305    19.795607    20.503652    6821.3805    11780.228    8894.3222    9852.5223    378.43784    477.39874   -1074.5831    -2412.749 
15590000    261.15622   -3821.3738    -3373.761   -3821.3738            0      13031.4    16.755014    19.735193    20.441078    6759.1169    13240.094    12349.022    13505.083   -377.41362     -1244.44    1273.0495   -2089.1936 
15591000    256.55341   -3863.8727   -3424.1489   -3863.8727            0    10221.766    16.863635    19.863135    20.573596    6891.4274    8656.2549    10098.464    11910.581    901.98847      1379.02    2018.9542   -2396.8164 
15592000    272.06481   -3847.9604   -3381.6507   -3847.9604            0    12669.168    16.781246    19.766091    20.473081    6790.9138    10989.398    12746.716    14271.391   -154.05381    118.67866   -405.78368   -2126.9151 
15593000    267.96149   -3873.2536   -3413.9768   -3873.2536            0    9980.6769    16.818716    19.810226    20.518794    6836.5045    8851.4162    11377.983    9712.6317     123.9257   -692.63644    806.89784   -2418.8693 
15594000    270.14821   -3859.8464   -3396.8216   -3859.8464            0    11682.029    16.764016    19.745796     20.45206    6770.0172     11659.83    10298.447    13087.811    559.39023    736.49846    124.29156    -2243.411 
15595000    259.20916   -3856.9519   -3412.6763   -3856.9519            0    11762.322    16.787016    19.772888    20.480121    6797.9211     11655.23    11423.065    12208.672   -635.14746   -1041.9701   -863.77708   -2246.5514 
15596000    279.74355   -3865.8166   -3386.3458   -3865.8166            0    9909.8875    16.888825    19.892805    20.604327    6922.3558    8618.5519    9672.5309     11438.58   -479.23663   -644.35139    332.78322   -2385.8885 
15597000    267.83054   -3871.6836   -3412.6313   -3871.6836            0    11527.103    16.838937    19.834043    20.543463    6861.1921    10909.132    9857.2843    13814.891    1517.4439    1105.7631   -735.37783   -2259.1896 
15598000    260.48508   -3896.1248   -3449.6623   -3896.1248            0     11386.29    16.850272    19.847394    20.557292    6875.0572    11963.214    10856.169    11339.488    525.58572   -2049.7225   -389.29043   -2308.0085 
15599000    274.51912   -3865.0583   -3394.5419   -3865.0583            0    12052.517    16.857847    19.856317    20.566534    6884.3335    11037.514    12836.382    12283.655   -485.81121   -1797.2961    1146.7877   -2184.4579 
15600000    261.77766   -3889.2086   -3440.5306   -3889.2086            0    10460.321    16.886652    19.890245    20.601675    6919.6833    9295.1981    11104.389    10981.376   -398.73361   -2039.9941    -1269.516   -2384.9118 
15601000    261.62052    -3869.006   -3420.5974    -3869.006            0    10408.789    16.879238    19.881512     20.59263     6910.573    9667.7055    8340.8569    13217.804    551.74906    667.37807   -757.19246    -2371.562 
15602000    269.57603    -3858.206   -3396.1619    -3858.206            0    10889.514    16.904727    19.911536    20.623728    6941.9277    11432.181    10066.911    11169.448    407.89721   -978.78248   -1957.4806   -2293.6978 
15603000    279.55952   -3862.8491   -3383.6937   -3862.8491            0    12247.227     16.80138    19.789806    20.497644    6815.3853    11758.324    12778.583    12204.775   -68.162198    1708.8075   -163.92285   -2166.3756 
15604000    276.24277    -3879.075   -3405.6044    -3879.075            0    11823.527    16.807152    19.796605    20.504686    6822.4128    11505.827    12042.859    11921.894    766.70946    601.17057    43.492439   -2229.1884 
15605000    260.55848   -3833.5399   -3386.9516   -3833.5399            0    10657.793    16.860174    19.859058    20.569373    6887.1852    10289.638    11077.698    10606.042   -1050.2654   -2151.4971   -1265.3088   -2316.4559 
15606000    263.92594    -3886.358    -3433.998    -3886.358            0    10310.262    16.850205    19.847316    20.557211    6874.9753    9966.1267    9014.5879    11950.072    755.51581   -893.71973    2006.7913   -2400.2451 
15607000    265.15297   -3874.9854   -3420.5223   -3874.9854            0    11102.008    16.843498    19.839416    20.549029    6866.7698    11149.846    10359.082    11797.097    260.15618   -735.61057   -876.51891    -2308.714 
15608000    255.77974   -3830.0814   -3391.6837   -3830.0814            0    8628.2566    16.906033    19.913074    20.625321    6943.5371    11135.983     6754.023    7994.7638   -779.13247   -3127.9925    352.60996   -2517.9487 
15609000    276.19235   -3851.9792    -3378.595   -3851.9792            0    13572.821    16.774069    19.757638    20.464325    6782.2046    12395.939    15226.068    13096.457   -664.33202   -713.24189    230.82194   -2036.0869 
15610000    268.45345   -3871.6329   -3411.5129   -3871.6329            0    10337.551    16.905252    19.912154    20.624368    6942.5747     9782.608    11542.401    9687.6439    1081.6937    727.62285    -458.8959   -2364.8324 
15611000    281.11838   -3864.2767   -3382.4494   -3864.2767            0    12744.506    16.798119    19.785965    20.493666    6811.4184    11925.647    13541.019    12766.852   -1202.2326   -902.75156    689.38605   -2116.4414 
15612000    270.56323   -3863.9483   -3400.2121   -3863.9483            0    11729.895    16.809648    19.799545    20.507731    6825.4522    12051.571    11925.563    11212.551    436.08477   -185.19337    5.4647106   -2232.5924 
15613000     270.0978   -3855.7097   -3392.7714   -3855.7097            0    15017.759    16.712417     19.68502     20.38911    6707.6965    13767.735    16269.266    15016.276    1913.5558   -566.57593    399.40114    -1923.661 
15614000    276.88565   -3844.4872   -3369.9146   -3844.4872            0    9064.6647    16.852494    19.850012    20.560004     6877.778    10290.689    10741.431     6161.874   -217.76246    119.80373    780.08989   -2460.6804 
15615000    275.71117   -3832.0357   -3359.4762   -3832.0357            0    10636.179    16.852673    19.850223    20.560222    6877.9967    10342.407    11725.956    9840.1735    118.77785    123.25839    839.47522   -2292.5767 
15616000    254.45661   -3836.4672   -3400.3373   -3836.4672            0    12705.994      16.7967    19.784295    20.491935    6809.6929    12633.268    11874.188    13610.526   -526.25412   -315.61382   -1059.7364   -2138.4747 
15617000    256.65901   -3859.8779   -3419.9732   -3859.8779            0    11767.263    16.743109    19.721171    20.426554    6744.7201     12140.76    11364.023    11797.006   -1140.8675   -164.71904    2156.9932   -2262.4884 
15618000     265.8962   -3859.2068   -3403.4698   -3859.2068            0    11869.308     16.73734    19.714375    20.419515    6737.7498    11166.742    11781.178    12660.003    -181.2544   -1369.5941   -2084.7708    -2237.154 
15619000    269.92617   -3834.3808   -3371.7365   -3834.3808            0    12008.446    16.792043    19.778809    20.486254    6804.0302    12577.222    11608.399    11839.717   -1431.9619   -829.05604     -1463.06   -2180.1408 
15620000     273.2591   -3865.6873   -3397.3306   -3865.6873            0    12909.371    16.809502    19.799373    20.507553    6825.2743    11146.351    14735.989    12845.774    883.22359   -1634.0604   -478.29856   -2112.3366 
15621000    274.39521   -3850.5287   -3380.2247   -3850.5287            0    9756.8635     16.87069    19.871444    20.582202    6900.0798    9713.7613    9351.1142    10205.715    754.48078   -1047.2546    982.47849   -2398.3858 
15622000    283.18668    -3833.997   -3348.6247    -3833.997            0    9830.7784    16.891279    19.895696    20.607321    6925.3737    8347.8984    11967.014    9177.4223   -1658.4126    -261.3808    465.67347   -2355.7213 
15623000    258.65776   -3856.0833   -3412.7527   -3856.0833            0    10883.375    16.870221    19.870892    20.581631     6899.505    9566.2743    10468.543    12615.309    384.33927   -174.25648    428.51853   -2317.6435 
15624000    265.89822   -3833.6238   -3377.8833   -3833.6238            0     10775.23    16.903707    19.910334    20.622483     6940.671    8028.5092    13012.258    11284.924    420.57261    2270.2022    54.315447   -2287.1868 
15625000    287.32648   -3818.7728    -3326.305   -3818.7728            0    11970.384    16.829103    19.822461    20.531467    6849.1791    13235.359    11401.758    11274.033    574.98605    547.49928   -731.90889   -2130.6044 
15626000    264.70122   -3839.0948    -3385.406   -3839.0948            0    9951.9429    16.904891    19.911728    20.623927    6942.1293    10131.794    9872.9985    9851.0358    643.04857   -230.21777    694.71992   -2377.8331 
15627000     264.3849   -3811.3485   -3358.2018   -3811.3485            0    11730.502    16.818479    19.809947    20.518506     6836.216    10721.256    11242.575    13227.677    1405.5315    205.00059   -16.632063   -2188.6801 
15628000    260.01884   -3832.0606   -3386.3972   -3832.0606            0     11652.64    16.891112    19.895499    20.607117    6925.1682    11868.385    9747.3367    13342.198    555.47857   -567.72242   -230.83541   -2209.5217 
15629000    271.70521   -3826.8276   -3361.1342   -3826.8276            0    8754.3789     16.92819    19.939172    20.652352    6970.8731     9641.285    9944.2922    6677.5595   -673.31721   -408.43148   -789.02954   -2471.1375 
15630000    255.97846    -3845.813   -3407.0747    -3845.813            0    10046.642    16.869694    19.870272    20.580988    6898.8584    8781.2208    11102.915     10255.79   -738.40164   -1089.6252    1255.9018   -2396.2542 
15631000    272.41099   -3877.6193   -3410.7162   -3877.6193            0    11161.345    16.858651    19.857264    20.567514    6885.3183    11452.409     9831.791    12199.834    358.71973   -259.62549   -609.47398   -2289.9463 
15632000    274.17083   -3814.4351   -3344.5157   -3814.4351            0    11857.035    16.820451     19.81227    20.520911    6838.6207    8774.4527    14102.474     12694.18   -588.36713    879.96835   -195.92381   -2161.9629 
15633000    265.66147   -3879.4261   -3424.0914   -3879.4261            0    9026.3663    16.878182    19.880269    20.591342    6909.2763    9182.7319    8056.4699    9839.8971    1845.0064   -816.16506    394.78163   -2514.5523 
15634000    255.89197   -3859.8673   -3421.2772   -3859.8673            0    11639.348    16.864465    19.864112    20.574607    6892.4443    11349.833    12535.731    11032.479   -1314.3604   -54.118981   -199.24174    -2251.299 
15635000    249.72907   -3869.0464   -3441.0193   -3869.0464            0    9729.0195    16.856318    19.854516    20.564668    6882.4605    8302.2466    11499.414    9385.3977    9.8260486    1265.5646    -118.6388   -2464.4823 
15636000    273.37333   -3846.3006   -3377.7481   -3846.3006            0    10913.246     16.85487     19.85281    20.562902    6880.6869    9831.1165    10655.715    12252.906   -346.37893    1521.5624   -721.11619   -2282.6283 
15637000    271.07508   -3881.1453   -3416.5319   -3881.1453            0     10830.42     16.82597     19.81877    20.527644    6845.3544    7741.4577    12668.362     12081.44   -339.45782   -941.73165   -1177.8326   -2335.3043 
15638000    271.12516   -3862.2636   -3397.5644   -3862.2636            0    10040.136    16.792812    19.779715    20.487192    6804.9648    9790.1592    9654.9572    10675.292    920.11329     934.5334    1406.4903   -2401.1468 
15639000    244.14924   -3879.9173   -3461.4538   -3879.9173            0    10389.133    16.822925    19.815184    20.523929    6841.6385    9783.5913    10768.411    10615.398    479.57379   -314.58832   -2422.0818    -2424.844 
15640000    268.57813   -3854.0999   -3393.7662   -3854.0999            0    8873.5257    16.878601    19.880763    20.591854    6909.7917    10064.178    7370.9974    9185.4014   -2326.9908   -430.08457   -68.374218   -2499.5613 
15641000      254.655   -3850.7448   -3414.2749   -3850.7448            0    10241.969    16.837891    19.832811    20.542187    6859.9134    8696.1654    10915.989    11113.752   -893.37835    1164.2189    -78.62955   -2389.6191 
15642000    251.87842   -3838.9302   -3407.2192   -3838.9302            0    10943.787    16.815283    19.806182    20.514606    6832.3185    13207.473    9177.5123    10446.376    1074.9129    1995.0456   -1431.4659   -2316.7545 
15643000    262.80028   -3849.3729   -3398.9422   -3849.3729            0    9944.3568    16.900943    19.907078    20.619111    6937.2666    10352.782    9090.6919    10389.597    81.867112    775.26624    241.91814   -2392.8427 
15644000    263.63049   -3857.3619   -3405.5082   -3857.3619            0    12349.322    16.794483    19.781683     20.48923    6806.9966    12272.803    11195.842    13579.321    102.96173    651.24725    250.82341   -2179.5532 
15645000    278.18023   -3839.3407   -3362.5493   -3839.3407            0    10459.392    16.813405     19.80397    20.512315    6830.0297    8337.8875    10661.082    12379.206    1420.7186    644.04004   -248.96269      -2320.7 
15646000    262.75938   -3866.5831   -3416.2225   -3866.5831            0    14472.746    16.784748    19.770216    20.477353    6795.1654    13660.258    15334.905    14423.076    1251.4234    642.44877   -1742.8641   -1981.9658 
15647000    249.17796   -3847.8119   -3420.7294   -3847.8119            0    10861.533    16.802071     19.79062    20.498487    6816.2268    9740.6377    11842.495    11001.465    896.62473    252.48893   -154.70586   -2341.0097 
15648000    261.67444   -3863.4347   -3414.9336   -3863.4347            0    11625.437    16.774694    19.758373    20.465087     6782.962    10350.927     12865.35    11660.034    717.68965     1522.842    354.88763   -2264.9159 
15649000    282.36039    -3846.661   -3362.7049    -3846.661            0    7633.7963    16.836177    19.830792    20.540096    6857.8191    7801.2108    7375.2504    7724.9278    183.21441    337.52381   -1388.6127   -2599.2165 
15650000    262.16064   -3847.7219   -3398.3875   -3847.7219            0    10488.811     16.83674    19.831455    20.540783    6858.5069    8690.1718    11488.516    11287.744    136.79938     353.0017    1558.8993   -2349.2517 
15651000    278.76294   -3859.0581    -3381.268   -3859.0581            0    10550.058    16.793416    19.780426    20.487928    6805.6987    9842.5243    11729.288    10078.362    -442.0921   -84.177389    291.36679   -2334.1311 
15652000    243.59874    -3866.027   -3448.5071    -3866.027            0    10814.811    16.834731    19.829089    20.538333    6856.0525    10049.994    11536.269    10858.169     215.3082   -2578.2613   -556.92442   -2367.1504 
15653000    256.56871   -3841.0672   -3401.3172   -3841.0672            0    8821.4792    16.884486    19.887694    20.599033    6917.0213    8052.1454     7936.652     10475.64     927.1028  -0.75093334   -20.945704   -2511.4271 
15654000     253.6048   -3868.0191   -3433.3492   -3868.0191            0    10480.994    16.799713    19.787843     20.49561    6813.3573    10820.605    11319.564    9302.8123     158.2576    408.17144    394.48464   -2391.8966 
15655000    267.84209   -3843.1562    -3384.084   -3843.1562            0    10314.871     16.82088    19.812775    20.521434    6839.1434    9514.9307    11736.668    9693.0135    933.63802    790.57873    1442.6828   -2355.2593 
15656000    250.07726   -3843.9441   -3415.3202   -3843.9441            0    11234.262    16.795703     19.78312    20.490719    6808.4798    11556.073    10253.152    11893.562    711.96938   -2196.8307    72.648926   -2299.8176 
15657000    270.87129   -3845.1241     -3380.86   -3845.1241            0     12500.51    16.772451    19.755732    20.462351    6780.2418    14096.424    11488.902    11916.205    97.600006   -1444.2057   -478.09402   -2144.7736 
15658000    272.66572   -3874.2943   -3406.9546   -3874.2943            0    10457.647     16.85161    19.848971    20.558925    6876.6959    11512.877    9563.7056    10296.359    1883.0107    899.15777    185.78456   -2358.1618 
15659000    259.34003   -3816.8695   -3372.3695   -3816.8695            0     12095.18    16.779975    19.764594     20.47153    6789.3705     12833.82    12257.191    11194.529    595.54691    1093.6598    422.40475   -2174.7532 
15660000      273.168     -3845.72   -3377.5193     -3845.72            0    10575.249    16.861075    19.860119    20.570472    6888.2894    10218.725    11858.937    9648.0849   -1173.5244    -220.1839     443.2585   -2315.1443 
15661000    270.68317   -3888.1812   -3424.2395   -3888.1812            0    9512.0733    16.815794    19.806784     20.51523     6832.942    10561.427    8701.6255    9273.1679   -942.21647   -215.56768    2035.4189   -2476.3476 
15662000    260.33578   -3855.2386    -3409.032   -3855.2386            0    8467.3687    16.814113    19.804804    20.513179    6830.8929    9563.1371    8503.0192    7335.9499   -397.45459   -1289.6718    1193.3172   -2565.4994 
15663000    266.11716   -3871.8296   -3415.7139   -3871.8296            0    10202.862    16.825895    19.818682    20.527553     6845.263    10590.411    9587.5403    10430.635   -523.01578    -450.3082   -517.61319   -2397.1505 
15664000    273.36644   -3871.7279   -3403.1872   -3871.7279            0    11092.174    16.796289     19.78381    20.491434    6809.1929    11283.939    11813.408    10179.175    358.63619    63.587556   -664.33994   -2301.6778 
15665000    277.47047   -3885.2174   -3409.6425   -3885.2174            0    9455.2323    16.840568    19.835964    20.545453    6863.1862    9395.5742    9122.4592    9847.6636   -34.910035    1392.1106    34.068172   -2463.2444 
15666000    266.08501   -3821.7582   -3365.6976   -3821.7582            0    9825.1793    16.824474    19.817008    20.525819    6843.5283    7770.1532    11421.328    10284.056   -1331.9326    544.99332    1860.0339   -2385.0873 
15667000    254.59727    -3875.828    -3439.457    -3875.828            0    9112.5952    16.916217    19.925069    20.637745    6956.0925    9308.0202    8943.8009    9085.9646     400.6907    690.97825    652.03025   -2515.0073 
15668000    286.95566   -3852.4837   -3360.6515   -3852.4837            0    12377.719    16.843689     19.83964    20.549261    6867.0026    13931.126    10618.505    12583.527   -893.37935    -876.6847    1457.1238   -2121.0454 
15669000    276.23275   -3818.3245    -3344.871   -3818.3245            0    11360.414    16.816725    19.807881    20.516365    6834.0769    14304.469    10009.324    9767.4477    554.10578   -553.22318   -183.96158   -2212.6013 
15670000    273.75925   -3836.0925   -3366.8785   -3836.0925            0    10450.061    16.874647    19.876106     20.58703    6904.9369    11442.257    9647.4044    10260.521   -941.66255   -1105.5582    493.62025   -2314.5425 
15671000    260.13498   -3830.3909   -3384.5285   -3830.3909            0    11707.489    16.814359    19.805094    20.513479     6831.193    11907.712    12645.388    10569.367   -1055.0085    171.82867    587.43003   -2218.1588 
15672000    272.07681   -3872.4521   -3406.1218   -3872.4521            0    11998.993    16.839177    19.834327    20.543757    6861.4864    13159.306    13146.228    9691.4453   -1567.4793     637.6947    434.75425   -2205.4096 
15673000    255.29431   -3828.9731   -3391.4073   -3828.9731            0    10591.585    16.839381    19.834566    20.544005    6861.7352     9426.919    9785.4113    12562.423     949.0005    565.28983    1477.2795    -2331.493 
15674000    262.82823   -3853.4949   -3403.0163   -3853.4949            0    12058.404    16.808622    19.798337     20.50648    6824.2032    13149.177    13477.813    9548.2221     29.20279    1193.4982     1112.689   -2202.9157 
15675000    281.96308    -3839.959   -3356.6839    -3839.959            0     12430.81    16.768224    19.750753    20.457194    6775.1168    10872.997    14641.201    11778.233   -1143.8133   -1578.5878    1524.2956   -2128.4188 
15676000    262.63568   -3840.1842   -3390.0357   -3840.1842            0    12367.993    16.717197    19.690649    20.394941    6713.4528     12261.88    12199.546    12642.554    909.80919   -1171.5827    254.43854      -2179.1 
15677000    265.24243   -3813.3648   -3358.7484   -3813.3648            0    12698.524    16.770947    19.753961    20.460517    6778.4184    12888.486    13079.419    12127.668     843.2886    1168.6315    464.78473   -2103.4195 
15678000    266.50146   -3845.6629   -3388.8886   -3845.6629            0    9757.9656    16.828419    19.821655    20.530632    6848.3438    9673.8251    9722.9053    9877.1663    768.83412   -1349.9693    816.86172   -2414.3013 
15679000    260.06678   -3840.7615    -3395.016   -3840.7615            0    9718.4185    16.838772    19.833849    20.543263     6860.991    8357.1084    9467.2811    11330.866   -131.62677    421.04936    225.77361    -2422.586 
15680000    255.30066   -3832.5362   -3394.9596   -3832.5362            0    9569.0887    16.826537    19.819438    20.528336    6846.0461    10543.228    7631.8082     10532.23    293.95968   -8.8113599    999.38234   -2439.5573 
15681000    281.90576   -3865.1896   -3382.0128   -3865.1896            0     12268.99     16.80806    19.797675    20.505794    6823.5186    11920.021    13349.471    11537.477    852.03143    203.14488   -724.60715   -2161.0763 
15682000    263.18751   -3786.0538   -3334.9594   -3786.0538            0    11461.893    16.789508    19.775822     20.48316    6800.9484    11403.926    10950.728    12031.024   -1329.6976   -392.97082      687.148   -2198.1132 
15683000    267.48579   -3848.6329   -3390.1715   -3848.6329            0    12735.936    16.818633    19.810128    20.518693    6836.4036    11688.075    13397.669    13122.064   -433.74616   -1284.5754    1643.7342    -2120.374 
15684000    264.96541   -3851.4292   -3397.2875   -3851.4292            0    10373.215    16.841994    19.837644    20.547193    6864.9295    10876.138    11288.689     8954.818    164.55896    1082.7006    548.62054   -2358.7424 
15685000    263.47847   -3818.2462   -3366.6531   -3818.2462            0    9507.0691    16.894912    19.899974    20.611753    6929.8424    8559.2905    9990.2881    9971.6288    2045.8109    1886.3084    942.13415   -2405.8245 
15686000    271.88728   -3802.9517   -3336.9462   -3802.9517            0    12529.214    16.814566    19.805338    20.513732    6831.4454    13713.263    13198.149    10676.231   -281.66936    948.59789    318.32224   -2088.6653 
15687000     263.2513   -3848.0425   -3396.8387   -3848.0425            0    10124.138    16.866914    19.866996    20.577595    6895.4474    10222.527    11523.024    8626.8615    458.77513    -145.6632   -1266.9815   -2378.7248 
15688000    282.21316   -3817.5232   -3333.8195   -3817.5232            0    13024.127    16.845982    19.842341    20.552058    6869.8072     12443.66    13249.221    13379.499   -1478.8186   -854.97819    -1063.023   -2028.9441 
15689000    262.68328    -3845.322   -3395.0918    -3845.322            0    10607.993    16.785825    19.771484    20.478667    6796.4736    10362.345    10146.723    11314.909    138.55919   -1615.0102     650.8817   -2343.6319 
15690000    281.87947   -3820.3541   -3337.2223   -3820.3541            0     10264.93    16.858239    19.856779    20.567012    6884.8141    10665.702    8523.4492     11605.64    1027.2277   -514.89621    271.95951   -2306.5417 
15691000    276.08666   -3828.3588   -3355.1557   -3828.3588            0    10936.732    16.870202     19.87087    20.581607    6899.4813    9483.5968    12323.377    11003.222   -1814.8671   -3634.4478    1091.5774   -2254.6814 
15692000    263.99181   -3800.3766   -3347.9037   -3800.3766            0    10516.087    16.828258    19.821465    20.530435    6848.1466    8744.4583    12904.222    9899.5818   -64.589491   -1297.6028    32.463308   -2297.6285 
15693000    271.66332   -3828.4354   -3362.8138   -3828.4354            0    9822.5567    16.826795    19.819741     20.52865    6846.3606    8082.2772    11430.001    9955.3918   -1180.1885   -211.37749    1061.5752   -2382.0595 
15694000    275.22982   -3834.9619   -3363.2274   -3834.9619            0    10432.068    16.849673    19.846689    20.556562    6874.3246    10464.251    11478.794    9353.1604     494.9724    -701.6599    1001.7766   -2317.3607 
15695000     266.2332    -3836.498   -3380.1834    -3836.498            0    11033.147    16.848135    19.844877    20.554685    6872.4418    11915.481    10473.599    10710.361    208.83219    104.29267    1298.7301   -2274.3585 
15696000    267.75726   -3834.3418    -3375.415   -3834.3418            0    9832.8273    16.900917    19.907047    20.619079    6937.2343    10594.703    8653.7567    10250.022    1635.2369   -548.49194    226.07874   -2380.6038 
15697000     263.8782   -3806.3586   -3354.0804   -3806.3586            0    11868.995    16.799459    19.787544    20.495301     6813.049    8560.5791    12473.177    14573.229   -645.24705    2408.4371   -345.37116   -2174.7613 
15698000    277.50958   -3841.5491   -3365.9072   -3841.5491            0     10395.03    16.887844    19.891649     20.60313    6921.1488    10809.979    10073.353    10301.757    2242.1624    259.47146   -729.04593   -2316.6552 
15699000    279.75611   -3843.9719   -3364.4795   -3843.9719            0    9861.3987    16.904385    19.911132     20.62331    6941.5058    9411.4546    9836.9409    10335.801   -1252.8991    759.02861    536.68561   -2366.1633 
15700000    276.74171   -3861.7688    -3387.443   -3861.7688            0     11501.07    16.895075    19.900166    20.611952    6930.0433    11012.648    12062.464    11428.098   -466.33974     375.8446   -823.38714   -2225.0577 
15701000    272.23652   -3831.8487   -3365.2446   -3831.8487            0    9994.6778    16.867423    19.867596    20.578217    6896.0723    9047.6345    9983.9298    10952.469    274.40663    912.32197     329.6446   -2360.0585 
15702000    257.81319   -3818.0638   -3376.1808   -3818.0638            0    12205.065    16.879956    19.882359    20.593507    6911.4556    11838.617    10503.877    14272.702   -945.18415    153.46777   -1777.1419   -2145.9531 
15703000    258.28803   -3852.7359   -3410.0391   -3852.7359            0    10763.495    16.899348      19.9052    20.617165    6935.3031    8597.4813    10261.971    13431.032   -1324.0442   -133.17642     -1317.85   -2321.3731 
15704000    258.43487   -3852.0595    -3409.111   -3852.0595            0    10671.651    16.897087    19.902537    20.614407      6932.52    9179.8704    9769.6879    13065.395   -368.36109    286.58655   -433.74257   -2330.1677 
15705000      262.007   -3851.8048   -3402.7337   -3851.8048            0    11162.528     16.82638    19.819253    20.528144     6845.854    9586.4919    12873.038    11028.054   -1351.0009   -224.38786    1647.7546   -2288.2696 
15706000    258.72542   -3860.8858   -3417.4392   -3860.8858            0    9879.1189    16.867581    19.867782    20.578409    6896.2659    11322.538    7994.8683    10319.951     1052.277    586.62186    1248.3136   -2423.8472 
15707000    268.82505   -3845.9904   -3385.2335   -3845.9904            0    9491.3307    16.881961     19.88472    20.595953    6913.9187    10954.428    9129.1974    8390.3663    -794.9649   -667.92122    1206.4847   -2428.1997 
15708000    274.87058    -3819.349   -3348.2302    -3819.349            0    11798.759    16.837628    19.832502    20.541867    6859.5926    10645.696    12531.912    12218.668     774.4472    -1331.613    528.58631   -2167.8809 
15709000    273.48959   -3843.3026   -3374.5508   -3843.3026            0    12584.234    16.848219    19.844976    20.554787    6872.5445    13283.913    12650.146    11818.642     2641.467    542.59025     -35.9894   -2113.2455 
15710000    274.38571   -3807.0477     -3336.76   -3807.0477            0    10332.538    16.874267    19.875658    20.586566      6904.47    9931.7864     10171.04    10894.788    1958.1942    340.77616   -694.31772    -2296.329 
15711000    264.10444   -3861.5447   -3408.8787   -3861.5447            0    10166.823    16.860266    19.859167    20.569485    6887.2979    12416.538    9273.8974    8810.0328    309.49869    2125.5624    249.90285   -2387.6806 
15712000    285.36863   -3835.1889   -3346.0768   -3835.1889            0    12481.436    16.762498    19.744009    20.450209     6768.179    14560.532    12270.802    10612.974    108.67843    751.16726    150.62456   -2114.0724 
15713000    283.09723   -3821.5256   -3336.3066   -3821.5256            0    11424.458    16.805781    19.794991    20.503014    6820.7435    11294.813    11684.065    11294.497    1171.2832    1488.9862   -732.77917   -2199.8752 
15714000    268.72511   -3834.3397   -3373.7541   -3834.3397            0    9422.3561    16.855924    19.854052    20.564188    6881.9779    9252.1887    9739.3284    9275.5513    647.21694    32.483391   -387.84011   -2428.0643 
15715000    251.93936   -3882.8284    -3451.013   -3882.8284            0    12242.917     16.80314    19.791879    20.499792    6817.5279    12314.129    11385.745    13028.878    -184.8154    168.08516   -486.73774   -2233.7407 
15716000    258.27302     -3842.41   -3399.7389     -3842.41            0    11072.429    16.797925    19.785737     20.49343    6811.1828    8975.1794    13204.705    11037.402    306.33674   -1880.7543   -740.43668    -2299.869 
15717000    254.42521    -3848.212   -3412.1359    -3848.212            0    13785.199    16.780115    19.764759    20.471701    6789.5403    12650.693    14998.833    13706.069   -398.10728    201.25279    133.72579   -2047.1465 
15718000    273.43701   -3858.8545   -3390.1929   -3858.8545            0    11098.888    16.828119    19.821301    20.530265    6847.9768    10796.703    10363.229    12136.732    1222.8077   -559.30544   -5.3114814   -2281.7389 
15719000    278.23404   -3839.2311   -3362.3475   -3839.2311            0    12140.659    16.837336    19.832157     20.54151    6859.2351     12285.25    11830.558    12306.169    14.240682   -704.16928   -303.18781   -2147.8578 
15720000    274.74485   -3892.5003    -3421.597   -3892.5003            0    11515.075    16.764255    19.746079    20.452352    6770.3075    11094.527    12772.147    10678.552   -183.21972   -112.18019   -720.35233   -2284.6216 
15721000     266.0768   -3850.4548   -3394.4082   -3850.4548            0    10663.943    16.856388    19.854599    20.564754    6882.5468    9408.2393    11631.644    10951.946   -137.62069   -3249.7626    78.696637   -2324.0162 
15722000    255.40376   -3860.1242   -3422.3709   -3860.1242            0    10142.455    16.845881    19.842223    20.551936    6869.6844    9026.8591    11278.289    10122.216   -170.02245    520.40882   -240.60484   -2406.2258 
15723000    264.14626   -3863.8574   -3411.1198   -3863.8574            0    10933.544    16.834402    19.828701    20.537931      6855.65    10610.476    12310.894    9879.2639   -14.618657   -1733.0374    1745.2111   -2317.9553 
15724000    264.82805    -3848.482   -3394.5758    -3848.482            0    9261.2134    16.882773    19.885677    20.596944    6914.9166    7676.9068    9712.5258    10394.208     1700.152    466.48514    -617.4408   -2460.6105 
15725000    260.34622   -3851.6726   -3405.4481   -3851.6726            0    11472.331    16.855526    19.853583    20.563703    6881.4909    10861.177    9676.5638    13879.252    168.22076   -713.09194   -399.32905   -2254.0908 
15726000     272.2046   -3853.2427   -3386.6934   -3853.2427            0    11989.564    16.838101    19.833059    20.542444    6860.1712     11607.53    11556.422     12804.74    340.11149   -688.25726    2015.4055   -2187.1547 
15727000    286.48116   -3810.2974   -3319.2785   -3810.2974            0    11696.582    16.809271      19.7991    20.507271    6824.9928    12494.337    11130.782    11464.629   -571.51909    644.30447   -1245.6385   -2155.0531 
15728000    277.69899   -3829.9297   -3353.9631   -3829.9297            0    11639.863    16.806956    19.796374    20.504447    6822.1741    11198.245    9947.5055    13773.838   -21.947414     5.337815     1432.231   -2195.8618 
15729000    278.90189   -3849.9048   -3371.8765   -3849.9048            0    11825.677    16.815113    19.805982    20.514398    6832.1113    10654.943    13422.831    11399.258    1389.9658   -1118.0359   -670.03989   -2193.5738 
15730000    262.84489   -3796.1424   -3345.6353   -3796.1424            0    9816.2333    16.853298    19.850959    20.560985    6878.7626    7958.4733    9573.9757    11916.251   -400.92796    -565.3087   -845.61373   -2360.8737 
15731000    278.53203   -3835.7103   -3358.3159   -3835.7103            0    12289.708    16.772336    19.755597    20.462211    6780.1026    10681.023    14168.428    12019.674   -1700.6431   -524.56601   -207.00169   -2143.0993 
15732000    271.26246   -3858.2034   -3393.2689   -3858.2034            0    10617.795    16.852884    19.850472    20.560479    6878.2555    10919.801     11971.28    8962.3032   -1161.7043    410.70176    728.84376   -2328.1734 
15733000    262.10807   -3872.1873    -3422.943   -3872.1873            0    9105.8665    16.865745     19.86562     20.57617    6894.0144    9047.7904     9503.854    8765.9551    132.32895    398.38871    365.01562   -2507.4198 
15734000    261.48705   -3835.3036   -3387.1237   -3835.3036            0    12033.416    16.868833    19.869257    20.579937    6897.8021    10627.339    11870.921    13601.989   -511.21824    -313.5832   -187.24995   -2176.5937 
15735000    258.91148    -3885.424   -3441.6586    -3885.424            0    10005.308    16.873486    19.874737    20.585613    6903.5107    9242.9796    9828.5612    10944.384   -557.69791   -953.28189    264.51397   -2434.3179 
15736000    278.78461   -3866.3461   -3388.5188   -3866.3461            0    12037.536     16.79105    19.777639    20.485042    6802.8227    9359.7934    13459.467    13293.349   -820.25403   -517.00834   -117.28245   -2194.2484 
15737000    269.81811   -3874.6439   -3412.1849   -3874.6439            0    8661.9009     16.90595    19.912976     20.62522    6943.4347    9282.5218    9193.2562    7509.9247   -72.590336   -177.61103   -1086.9203   -2535.0559 
15738000    274.00369   -3851.3589    -3381.726   -3851.3589            0     12086.43     16.81564    19.806603    20.515041     6832.754    14202.137    12100.278    9956.8755    224.12236   -921.59836    969.12898   -2177.3288 
15739000    266.01026    -3823.361   -3367.4285    -3823.361            0    13418.696    16.829954    19.823463    20.532505    6850.2177    14547.819    13382.549    12325.719   -257.11658    81.401563    1334.7784   -2026.8552 
15740000    261.41209   -3808.7688   -3360.7174   -3808.7688            0    12147.635    16.815558    19.806506    20.514942    6832.6543    13391.604    10680.956    12370.346    92.301173    764.25435   -310.18133   -2150.2389 
15741000    262.94933   -3822.2149   -3371.5288   -3822.2149            0    11752.747    16.780924    19.765712    20.472688    6790.5223    10392.735    10692.548    14172.957   -687.33849   -580.17627    122.60209   -2207.6213 
15742000    276.67705   -3844.0098   -3369.7948   -3844.0098            0    9178.0636     16.87099    19.871798    20.582569    6900.4485    9572.8498    7391.2853    10570.056   -220.52209   -566.12754    53.503638   -2446.1516 
15743000    276.69847   -3807.6637    -3333.412   -3807.6637            0    10892.564    16.864072     19.86365    20.574129    6891.9634    11834.161    10754.339    10089.192    543.54702   -487.52194    1981.5064   -2238.5763 
15744000     273.3738   -3837.3068   -3368.7535   -3837.3068            0     12192.14    16.809386    19.799237    20.507412    6825.1339    8763.0635    13455.909    14357.449   -1514.8074    259.57623    119.92065   -2155.1774 
15745000    271.91696   -3807.5839   -3341.5275   -3807.5839            0    10764.212    16.908408    19.915871    20.628218    6946.4629    9687.7948    12647.768    9957.0724     561.7151   -1618.8207     2824.115   -2251.0371 
15746000     262.6379   -3815.4179   -3365.2656   -3815.4179            0     9590.863    16.866401    19.866392    20.576969    6894.8184     10953.66    9698.1927    8120.7366    845.27132   -1723.0234   -183.79601   -2400.8673 
15747000    267.48877   -3811.2945   -3352.8279   -3811.2945            0    11759.732    16.814009    19.804682    20.513052    6830.7664    11895.159    11378.169    12005.869    126.56083    2001.8189   -581.97437   -2181.3267 
15748000    277.92984   -3831.5531   -3355.1909   -3831.5531            0    11548.104    16.852547    19.850075    20.560068    6877.8429    10571.232    11764.327    12308.754    1529.0167    573.76439   -28.177382   -2196.8434 
15749000    269.80173   -3851.6776   -3389.2467   -3851.6776            0    9094.9809    16.781757    19.766692    20.473704    6791.5333    10067.747    9046.5335    8170.6623    364.38401    1086.3997    662.34552   -2488.4112 
15750000    283.85474   -3825.6781   -3339.1608   -3825.6781            0    9034.5587    16.800465    19.788729    20.496528    6814.2725    11776.847    6505.9047    8820.9246    696.63934    1421.8619    973.31942   -2441.3138 
Loop time of 431.966 on 64 procs for 250000 steps with 864 atoms

Performance: 100.008 ns/day, 0.240 hours/ns, 578.750 timesteps/s
99.2% CPU use with 64 MPI tasks x 1 OpenMP threads

MPI task timing breakdown:
Section |  min time  |  avg time  |  max time  |%varavg| %total
---------------------------------------------------------------
Pair    | 22.678     | 27.635     | 32.55      |  47.6 |  6.40
Bond    | 0.28886    | 0.29788    | 0.30922    |   0.7 |  0.07
Kspace  | 180.95     | 189.98     | 200.71     |  32.1 | 43.98
Neigh   | 5.5274     | 6.3134     | 7.313      |  20.8 |  1.46
Comm    | 91.496     | 101.06     | 107.42     |  42.7 | 23.40
Output  | 1.1598     | 1.1607     | 1.1663     |   0.1 |  0.27
Modify  | 99.264     | 101.38     | 102.58     |   6.7 | 23.47
Other   |            | 4.136      |            |       |  0.96

Nlocal:        13.5000 ave          21 max          10 min
Histogram: 11 10 14 12 6 6 3 1 0 1
Nghost:        2314.33 ave        2380 max        2263 min
Histogram: 4 6 9 10 11 8 8 3 3 2
Neighs:        4518.83 ave        7655 max        3050 min
Histogram: 2 14 18 10 12 5 2 0 0 1

Total # of neighbors = 289205
Ave neighs/atom = 334.72801
Ave special neighs/atom = 2.0000000
Neighbor list builds = 14688
Dangerous builds = 0

unfix		3
unfix		2
unfix		1

write_data	data.final.${pid}
write_data	data.final.0
System init for write_data ...
PPPM initialization ...
  extracting TIP4P info from pair style
  using 12-bit tables for long-range coulomb (../kspace.cpp:340)
  G vector (1/distance) = 0.37511212
  grid = 24 24 24
  stencil order = 5
  estimated absolute RMS force accuracy = 0.0030653072
  estimated relative force accuracy = 9.2310816e-06
  using double precision FFTW3
  3d grid and FFT values/proc = 2535 216
Last active /omp style is kspace_style pppm/tip4p/omp
WARNING: Not all mixed pair coeffs generated from mixing. Use write_data with 'pair ij' option to store all pair coeffs. (../write_data.cpp:312)

write_restart   restart.lmp.${pid}
write_restart   restart.lmp.0
System init for write_restart ...
PPPM initialization ...
  extracting TIP4P info from pair style
  using 12-bit tables for long-range coulomb (../kspace.cpp:340)
  G vector (1/distance) = 0.37511212
  grid = 24 24 24
  stencil order = 5
  estimated absolute RMS force accuracy = 0.0030653072
  estimated relative force accuracy = 9.2310816e-06
  using double precision FFTW3
  3d grid and FFT values/proc = 2535 216
Last active /omp style is kspace_style pppm/tip4p/omp
Total wall time: 0:07:13
