LAMMPS (30 Jul 2021)
  using 1 OpenMP thread(s) per MPI task
package omp 0
using multi-threaded neighbor list subroutines
echo both

include		in.partitions
variable        pid world 0
include		in.temp
variable        temperature equal 290.23
variable	tempDamp equal 100.0
include		in.pressure
variable        pressure equal 12875.0
variable        pressureDamp equal 1000.0 # This is 1 ps
include		in.seed
variable        seed world 745823

units		real
atom_style	full
read_restart	restart.lmp.${pid}
read_restart	restart.lmp.0
Reading restart file ...
  restart file = 30 Jul 2021, LAMMPS = 30 Jul 2021
  restoring atom style full from restart
  orthogonal box = (0.72460194 1.9450166 0.88401267) to (17.482970 21.684161 21.329183)
  4 by 4 by 4 MPI processor grid
  restoring pair style lj/cut/tip4p/long/omp from restart
  restoring bond style harmonic/omp from restart
  restoring angle style harmonic/omp from restart
  864 atoms
  576 bonds
  288 angles
Finding 1-2 1-3 1-4 neighbors ...
  special bond factors lj:    0        0        0       
  special bond factors coul:  0        0        0       
     2 = max # of 1-2 neighbors
     1 = max # of 1-3 neighbors
     1 = max # of 1-4 neighbors
     2 = max # of special neighbors
  special bonds CPU = 1.813 seconds
  read_restart CPU = 2.126 seconds
include 	in.setup
variable	out_freq equal 1000
variable	out_freq2 equal 10000
variable	out_freq3 equal 1000

timestep	2.0

neigh_modify    delay 7 every 1

include		in.tip4p
# This is TIP4P/Ice

# create groups ###
group ox type 2
288 atoms in group ox
group hy type 1
576 atoms in group hy

# set charges - beside manually ###
set group ox charge -1.1794
Setting atom values ...
  288 settings made for charge
set group hy charge 0.5897
Setting atom values ...
  576 settings made for charge

# ### TIP3P Potential Parameters ###
pair_style lj/cut/tip4p/long/omp 2 1 1 1 0.1577 8.5
pair_coeff 1 1*2 0.000 0.000
pair_coeff 2 2 0.21084 3.1668
bond_style  harmonic
bond_coeff  1 450 0.9572
angle_style harmonic
angle_coeff 1 55 104.52
kspace_style pppm/tip4p/omp 1.0e-5
pair_modify tail yes

thermo          ${out_freq}
thermo          1000
thermo_style    custom step temp pe etotal epair emol press lx ly lz vol pxx pyy pzz pxy pxz pyz enthalpy

restart 	${out_freq3} restart.lmp.${pid} restart2.lmp.${pid}
restart 	1000 restart.lmp.${pid} restart2.lmp.${pid}
restart 	1000 restart.lmp.0 restart2.lmp.${pid}
restart 	1000 restart.lmp.0 restart2.lmp.0


include         in.dump
dump            myDump all atom ${out_freq2} dump.water.${pid}
dump            myDump all atom 10000 dump.water.${pid}
dump            myDump all atom 10000 dump.water.0
dump            myDump2 all dcd ${out_freq2} dump.dcd
dump            myDump2 all dcd 10000 dump.dcd
dump_modify     myDump append yes
dump_modify     myDump2 append yes


variable natoms 	equal  "count(all)"                        # NUMBER ATOMS
variable H      	equal  "enthalpy/v_natoms"                 # ENTHALPY-per-atom
variable Vol      	equal  "vol/v_natoms"                 # volume-per-atom
fix AVG all 		ave/time ${out_freq} 1 ${out_freq} v_Vol v_H file vol_enthalpy.dat
fix AVG all 		ave/time 1000 1 ${out_freq} v_Vol v_H file vol_enthalpy.dat
fix AVG all 		ave/time 1000 1 1000 v_Vol v_H file vol_enthalpy.dat


timer           timeout 23:50:00 every 1000
New timer settings: style=normal  mode=nosync  timeout=23:50:00

fix 		1 all shake 1e-6 200 0 b 1 a 1
       0 = # of size 2 clusters
       0 = # of size 3 clusters
       0 = # of size 4 clusters
     288 = # of frozen angles
  find clusters CPU = 0.416 seconds
fix             2 all nph iso ${pressure} ${pressure} ${pressureDamp}
fix             2 all nph iso 12875 ${pressure} ${pressureDamp}
fix             2 all nph iso 12875 12875 ${pressureDamp}
fix             2 all nph iso 12875 12875 1000
fix             3 all temp/csvr ${temperature} ${temperature} ${tempDamp} ${seed}
fix             3 all temp/csvr 290.23 ${temperature} ${tempDamp} ${seed}
fix             3 all temp/csvr 290.23 290.23 ${tempDamp} ${seed}
fix             3 all temp/csvr 290.23 290.23 100 ${seed}
fix             3 all temp/csvr 290.23 290.23 100 745823

run             250000
PPPM initialization ...
  extracting TIP4P info from pair style
  using 12-bit tables for long-range coulomb (../kspace.cpp:340)
  G vector (1/distance) = 0.37531804
  grid = 24 24 24
  stencil order = 5
  estimated absolute RMS force accuracy = 0.0030425372
  estimated relative force accuracy = 9.1625104e-06
  using double precision FFTW3
  3d grid and FFT values/proc = 2535 216
Last active /omp style is kspace_style pppm/tip4p/omp
Neighbor list info ...
  update every 1 steps, delay 7 steps, check yes
  max neighbors/atom: 2000, page size: 100000
  master list distance cutoff = 10.8154
  ghost atom cutoff = 10.8154
  binsize = 5.4077, bins = 4 4 4
  1 neighbor lists, perpetual/occasional/extra = 1 0 0
  (1) pair lj/cut/tip4p/long/omp, perpetual
      attributes: half, newton on, omp
      pair build: half/bin/newton/omp
      stencil: half/bin/3d
      bin: standard
Per MPI rank memory allocation (min/avg/max) = 9.240 | 9.242 | 9.245 Mbytes
Step Temp PotEng TotEng E_pair E_mol Press Lx Ly Lz Volume Pxx Pyy Pzz Pxy Pxz Pyz Enthalpy 
11750000    295.52005   -3716.6868   -3210.1756   -3716.6868            0    14795.599    16.758369    19.739145     20.44517    6763.1777    16429.522    12931.356    15025.919    487.43986   -373.93265    1658.8862   -1750.8263 
11751000    282.50069    -3745.148   -3260.9515    -3745.148            0    10619.198     16.87236    19.873411    20.584239    6902.1288    13000.856     10236.09    8620.6489    726.70984    451.76239   -762.90439    -2192.018 
11752000    285.69932   -3745.3793   -3255.7004   -3745.3793            0    12348.622    16.853112     19.85074    20.560758    6878.5349    11273.668    11705.267    14066.932   -2535.6167   -359.65454    378.27413   -2016.9314 
11753000    294.77786   -3783.4817   -3278.2426   -3783.4817            0    11532.663    16.787906    19.773936    20.481206    6799.0021    10931.531    10902.286    12764.171     494.5725    1826.8625    328.43865   -2134.7044 
11754000    276.49967   -3811.3666   -3337.4556   -3811.3666            0    11466.752    16.786091    19.771798    20.478992    6796.7971     12087.37    10518.382    11794.504   -1354.8349   -203.52259    1595.1592   -2200.8217 
11755000    285.78261   -3747.8786    -3258.057   -3747.8786            0    10967.865    16.794104    19.781236    20.488768    6806.5353    11603.533    11688.573    9611.4871    136.96847   -848.40947    1818.6983   -2169.3173 
11756000    309.74066   -3786.3615   -3255.4766   -3786.3615            0    16472.699    16.676443    19.642648    20.345222    6664.4742     17153.08    14413.995    17851.021   -1031.4614   -1179.0155    2221.6702   -1654.4206 
11757000    300.54081   -3775.4685   -3260.3518   -3775.4685            0    13195.447    16.708941    19.680925    20.384869    6703.5112     13054.92    13073.462    13457.959   -129.52385    908.09404   -349.82371   -1970.3143 
11758000    297.83226     -3766.92   -3256.4457     -3766.92            0    11868.229    16.709966    19.682133    20.386119    6704.7453    10858.726    12673.038    12072.924    387.31064   -1310.3488   -802.93122   -2095.9485 
11759000    303.11344   -3744.9656   -3225.4396   -3744.9656            0     15407.74    16.667941    19.632632    20.334849    6654.2854    15476.724     11322.46    19424.035   -625.96138    1890.7017     972.5263   -1730.1812 
11760000    285.57051   -3766.5565   -3277.0985   -3766.5565            0    11179.587    16.825626    19.818365    20.527224    6844.9339    12252.977    9798.3809    11487.404   -267.85604    30.675153   -2293.5529   -2161.0812 
11761000    311.78933   -3812.3471   -3277.9509   -3812.3471            0    12999.276    16.740305    19.717868    20.423133    6741.3312    12932.129    14489.328    11576.373    106.65671   -2681.9303   -1559.1405   -1999.9218 
11762000    307.64164   -3749.8422    -3222.555   -3749.8422            0    10092.507    16.840129    19.835448    20.544919    6862.6502     10675.96    8898.5293    10703.033    694.81141   -919.84479    2126.5911   -2212.4493 
11763000    288.65443   -3698.7692   -3204.0253   -3698.7692            0    12948.764     16.75694    19.737462    20.443427     6761.448    14673.992    12443.226    11729.073    839.10862    1070.3639    337.53904   -1927.1635 
11764000    286.73831   -3754.1054   -3262.6458   -3754.1054            0    12985.875    16.769591    19.752363    20.458862     6776.774     11773.95    11911.785    15271.888    -502.4984   -723.72769   -1714.5591   -1979.2219 
11765000    299.38083   -3761.7269   -3248.5984   -3761.7269            0    11531.108    16.808364    19.798033    20.506165    6823.8886    10625.687     12561.99    11405.646   -1226.9046    1435.5947   -1658.1806   -2101.0293 
11766000    286.39019   -3730.8163   -3239.9533   -3730.8163            0    13391.527    16.794538    19.781747    20.489297    6807.0629    12194.814    15364.473    12615.295   -1712.9234    181.57272   -1681.0263   -1910.5224 
11767000    289.88871   -3740.9656   -3244.1063   -3740.9656            0    13603.766    16.778424    19.762768    20.469638    6787.4885    13845.763    14644.985    12320.549    -1062.065    1209.7508   -404.28226   -1897.4891 
11768000    279.10028   -3777.2991   -3298.9308   -3777.2991            0    13180.544    16.831065    19.824771     20.53386     6851.574    13222.917    14907.604    11411.111    1135.0063    1151.0921     1187.654   -1981.8889 
11769000    300.57101   -3755.7133   -3240.5449   -3755.7133            0    13766.136    16.722544    19.696949    20.401465    6719.8978    12140.961    12745.424    16412.023    250.26534   -413.30791    1262.1032   -1891.4248 
11770000    289.23482    -3778.303   -3282.5644    -3778.303            0    12064.267    16.777741    19.761963    20.468805    6786.6598    12639.287    11802.167    11751.346    128.72388   -1080.7566    356.89154   -2088.4858 
11771000     290.0355   -3770.3844   -3273.2734   -3770.3844            0    12758.426    16.729113    19.704685    20.409479    6727.8194    12338.645    12854.889    13081.744   -1140.7544   -1969.8538    749.33671   -2021.4378 
11772000     302.2995   -3758.2242   -3240.0932   -3758.2242            0    11774.097    16.767951    19.750431    20.456861     6774.786    10844.594    13173.241    11304.458   -627.75801   -1041.4662   -964.33937   -2076.7735 
11773000    283.26458   -3793.4981   -3307.9923   -3793.4981            0    13272.517    16.694889    19.664374    20.367726    6686.6132    12886.789    13276.032    13654.731   -473.04163   -1085.1857    13.224982    -2013.691 
11774000     306.9799   -3733.1352   -3206.9821   -3733.1352            0    13836.455    16.753868    19.733844     20.43968    6757.7308    14358.176    12670.789      14480.4   -320.83545    205.46333    2541.8728   -1843.3362 
11775000    283.32218   -3743.7526   -3258.1481   -3743.7526            0    14610.199    16.749609    19.728827    20.434484    6752.5785    14074.096    13912.646    15843.854    2551.9911   -62.390294    3141.7554    -1819.344 
11776000    307.84473   -3725.3457   -3197.7103   -3725.3457            0    11667.804    16.728436    19.703889    20.408653    6727.0033    8826.9354    14399.244    11777.233   -686.18659   -7.1531092   -151.39728   -2053.0236 
11777000    302.07362    -3747.915   -3230.1711    -3747.915            0    10569.083    16.781104    19.765924    20.472908     6790.741    11134.079    9906.5012    10666.669    -186.3838    371.70808    115.08946   -2183.4515 
11778000    281.29518    -3750.801   -3268.6707    -3750.801            0    12292.571    16.743335    19.721437     20.42683    6744.9928    11082.605    12857.866    12937.241   0.43426127    1758.5673    583.26786   -2059.4652 
11779000    264.65234   -3746.8093   -3293.2042   -3746.8093            0    13591.339    16.746875    19.725607    20.431148    6749.2718    14629.775    11979.138    14165.105   -729.23602    948.72767    1247.3823   -1955.3923 
11780000    302.39521    -3749.294    -3230.999    -3749.294            0    11855.944     16.75816    19.738899    20.444916    6762.9251    11159.296     12900.79    11507.747   -172.75063   -2553.5311    515.22695   -2061.6434 
11781000    287.04344   -3698.5726   -3206.5899   -3698.5726            0      11814.7    16.787601    19.773576    20.480834    6798.6311    11846.462    12287.111    11310.526   -2625.3241    570.26333    508.63359   -2035.1499 
11782000    285.17392   -3730.9862   -3242.2079   -3730.9862            0     13562.31    16.755542    19.735815    20.441722    6759.7563    16748.409    13066.139    10872.383    1271.7465    214.19259    -451.0417   -1905.1796 
11783000    292.69649   -3747.5926   -3245.9209   -3747.5926            0    11926.746    16.729239    19.704833    20.409632    6727.9711     12643.25    10983.935    12153.054   -585.19434    -2433.363    87.377624   -2075.6618 
11784000    285.05546   -3742.8325   -3254.2572   -3742.8325            0    12976.075    16.708837    19.680803    20.384743    6703.3869    13156.918    12863.663    12907.644   -672.11197   -793.89542   -771.91608   -1985.6899 
11785000     282.2197   -3796.0859    -3312.371   -3796.0859            0    12068.334    16.846547    19.843007    20.552748    6870.4987    12802.972     8925.213    14476.819   -801.63326   -82.854795    -123.9805   -2103.1338 
11786000    282.11694   -3786.0708    -3302.532   -3786.0708            0    12942.938    16.783941    19.769265    20.476369    6794.1856    12744.186    13730.921    12353.707    1582.6708    235.93489    570.44914   -2020.0651 
11787000    304.46311   -3767.1741   -3245.3348   -3767.1741            0     14093.68    16.746863    19.725593    20.431134    6749.2575     14777.05    13115.829     14388.16    945.32098   -2164.6892    -447.4474   -1858.0798 
11788000    300.25533   -3769.9476   -3255.3202   -3769.9476            0    11854.754    16.788733     19.77491    20.482215    6800.0072    12733.441     11000.86    11829.962   -1071.6787   -1750.2918   -1145.1643   -2079.6708 
11789000    282.67094    -3727.568   -3243.0797    -3727.568            0    12582.225    16.832449    19.826401    20.535548    6853.2646    13477.486    13529.895    10739.294   -922.93485    -579.5454    247.92084   -1985.5136 
11790000    293.44362   -3752.9134   -3249.9611   -3752.9134            0    13648.081    16.755373    19.735616    20.441515    6759.5511     15190.11    12914.188    12839.944    71.516116      319.122    1459.6673    -1904.518 
11791000    280.11753   -3744.0658    -3263.954   -3744.0658            0    10844.471    16.803327    19.792099    20.500019    6817.7551    11544.869    11178.585    9809.9587    328.15084   -1337.7939   -8.6802295   -2185.6886 
11792000    307.19538   -3812.5307   -3286.0084   -3812.5307            0    11217.682    16.821831    19.813895    20.522594    6840.3037    11738.576    13390.462    8524.0078    1367.6469    444.46853   -674.56033   -2166.9457 
11793000    296.01276   -3758.0243   -3250.6685   -3758.0243            0    13136.089    16.774058    19.757625    20.464312    6782.1914    14618.192    13400.544     11389.53   -261.16021     710.7313    66.367853   -1951.3609 
11794000    297.27232   -3765.5794   -3256.0648   -3765.5794            0     12791.05    16.723867    19.698506    20.403079    6721.4921    14645.185    9618.6248     14109.34   -268.69214   -303.56596   -739.93136   -2002.2085 
11795000    277.46106   -3782.7268   -3307.1681   -3782.7268            0    13389.317    16.719095    19.692886    20.397257    6715.7407    13935.413    11795.325    14437.212    722.61406   -1063.6596   -2681.7789   -1995.7891 
11796000    304.90944   -3746.2676   -3223.6632   -3746.2676            0    12555.015    16.734745    19.711319     20.41635    6734.6165    13740.067    12684.179    11240.797    1439.6227   -254.33528    281.47342   -1990.5414 
11797000    278.36395   -3738.6764   -3261.5701   -3738.6764            0    12885.894    16.784117    19.769473    20.476584    6794.3999    12520.325    12276.145    13861.213    105.84197    1957.2796   -516.68244   -1984.7152 
11798000     288.5883   -3724.2969   -3229.6664   -3724.2969            0    13660.537    16.736159    19.712984    20.418075    6736.3237    12802.457    15170.132    13009.022    293.49029    -793.1953   -316.03172   -1887.6229 
11799000    307.57224   -3770.6113    -3243.443   -3770.6113            0    11518.852    16.752403    19.732118    20.437893    6755.9578    9307.7974    12836.412    12412.347   -954.57967   -605.87913    399.32332   -2108.5053 
11800000    285.42214    -3768.687   -3279.4832    -3768.687            0    13780.946      16.7608    19.742009    20.448137    6766.1223    13168.018    11985.081    16189.739   -221.01134    452.17121   -1253.4625   -1919.6214 
11801000    296.63033   -3749.5908   -3241.1765   -3749.5908            0    12618.185    16.777595    19.761791    20.468627    6786.4821    12544.326    13655.574    11654.655    484.26621    460.11171   -1322.8723   -1992.3058 
11802000    282.08712   -3768.1376     -3284.65   -3768.1376            0    12410.497    16.744581    19.722905     20.42835    6746.4993    11502.274    12689.526    13039.692   -149.54197   -217.08645   -1181.6096   -2063.5716 
11803000    276.36408   -3758.5561   -3284.8776   -3758.5561            0    10517.138    16.747421    19.726249    20.431814    6749.9317     12609.49    8255.1593    10686.766    2862.3788   -1526.1011    -357.5234   -2249.5617 
11804000    291.49113   -3725.5549   -3225.9491   -3725.5549            0      12535.5    16.776873     19.76094    20.467745    6785.6056    12589.507    13800.289    11216.702    3001.4929   -789.58242   -2131.8509   -1985.4223 
11805000      284.749   -3750.4318   -3262.3817   -3750.4318            0    12455.884     16.76658    19.748817    20.455189    6773.1244     9936.567    16152.987    11278.098   -37.581567    -846.2152    1133.6124   -2032.0011 
11806000    311.23502   -3748.0824   -3214.6362   -3748.0824            0    14058.382     16.77724    19.761373    20.468194    6786.0513    13777.142    13433.734    14964.272    1348.3692   -194.00173    52.603294   -1823.3119 
11807000    275.03143   -3752.3302   -3280.9357   -3752.3302            0    10608.695    16.835779    19.830324    20.539611    6857.3328    8870.7981    12849.607    10105.678    790.91997    1382.7727   -705.63922   -2219.9903 
11808000    274.78698   -3760.8214   -3289.8459   -3760.8214            0    10927.512    16.836427    19.831088    20.540402    6858.1253     12754.51    9939.7201    10088.306    1516.6157    745.81985   -151.06234   -2196.8901 
11809000     289.9583   -3732.2134   -3235.2348   -3732.2134            0    14619.637    16.714025    19.686914    20.391071    6709.6323    14244.221     14424.73    15189.959    760.56431     3049.509   -142.25309    -1804.658 
11810000    277.61267   -3783.5152   -3307.6966   -3783.5152            0    12241.915    16.780566     19.76529    20.472251    6790.0878    13166.195    11676.698    11882.852   -1267.4678   -1754.8256   -1534.8818    -2095.423 
11811000    272.70307   -3718.6024   -3251.1987   -3718.6024            0    12151.846    16.783758     19.76905    20.476145    6793.9632    13217.174    10125.047    13113.317    -1383.989      174.631   -585.80423   -2047.1575 
11812000    291.16022   -3737.5351   -3238.4964   -3737.5351            0    9640.9993    16.796461    19.784012    20.491643    6809.4015    9619.3269    8705.1681    10598.503    1439.5956   -126.59044    888.69161   -2281.0668 
11813000    289.19655   -3733.9861   -3238.3131   -3733.9861            0    13112.491    16.784002    19.769338    20.476444    6794.2605    14804.332     12292.62    12240.521    -781.8414   -616.88173   -1401.1113   -1939.0315 
11814000    293.22952   -3766.6958   -3264.1104   -3766.6958            0    12988.068    16.767392    19.749773    20.456179    6774.1083    13400.813    12253.549    13309.841   -997.79466    4.4233559    -1359.121   -1980.9747 
11815000    276.89632   -3791.6664   -3317.0756   -3791.6664            0    13494.822    16.766335    19.748527    20.454889    6772.8268    12814.474    15208.163    12461.828    34.923037   -971.91484    1261.7724   -1984.1282 
11816000    311.07274   -3791.6399   -3258.4719   -3791.6399            0    10945.878     16.87097    19.871774    20.582543     6900.423    11914.579    10824.488    10098.566     1065.852    2095.9872    551.60228    -2156.927 
11817000    265.83845   -3765.8808   -3310.2427   -3765.8808            0    11901.411    16.848376    19.845162     20.55498    6872.7375    11672.808    13136.108    10895.317   -88.529932    528.40794    833.18357   -2117.3426 
11818000     275.1767   -3747.9182   -3276.2748   -3747.9182            0    10022.401    16.795291    19.782635    20.490216    6807.9792    10021.156     8009.711    12036.337    1039.3741    953.88948   -104.83771   -2281.1767 
11819000    283.47514   -3788.2406   -3302.3739   -3788.2406            0    11845.244    16.737922    19.715061    20.420226    6738.4531    11868.295    12627.997     11039.44    1465.7008   -2021.8711     91.52226   -2138.3012 
11820000    301.12134   -3762.5877    -3246.476   -3762.5877            0    11708.119    16.779311    19.763811     20.47072    6788.5641    12250.115    10212.337    12661.905    1648.3178    105.81884   -2460.3987   -2087.3226 
11821000    291.23217   -3772.9993   -3273.8373   -3772.9993            0    12526.378    16.788703    19.774874    20.482178    6799.9702     11104.34    11996.061    14478.733    1008.8047   -2890.5177    177.27139    -2031.589 
11822000    314.39241   -3739.5678   -3200.7099   -3739.5678            0    11773.989    16.807605    19.797138    20.505239    6822.9638    11211.794    14882.287    9227.8865    -168.3029   -1185.6663   -780.13954   -2029.1282 
11823000    268.98843   -3738.1414   -3277.1044   -3738.1414            0    15162.579    16.712205    19.684771    20.388852    6707.4415    14511.801     14177.28    16798.658    171.57473    -2157.779   -1649.8451   -1793.8834 
11824000    287.42215   -3754.9919   -3262.3601   -3754.9919            0    10941.739    16.735102     19.71174    20.416785    6735.0479     11857.04    11690.031    9278.1454   -362.91841    1245.7669   -554.08321   -2187.6214 
11825000    291.84206   -3742.1277   -3241.9204   -3742.1277            0    14924.459    16.705366    19.676715    20.380508      6699.21     13297.34    16665.971    14810.066   -1284.4325    115.89289    408.19926   -1783.7843 
11826000    279.78964   -3741.6912   -3262.1414   -3741.6912            0    12529.378    16.775355    19.759152    20.465894    6783.7644    11843.635    12644.615    13099.883    314.36749    628.29429   -528.92019   -2022.5568 
11827000    285.04056   -3742.4448    -3253.895   -3742.4448            0    11459.581    16.792194    19.778987    20.486438    6804.2139    10959.443    11082.989     12336.31     34.49375   -1194.7372    1350.8043   -2116.7324 
11828000    312.61182   -3729.7408   -3193.9348   -3729.7408            0    11065.977    16.812824    19.803286    20.511606    6829.3218    10574.584    13511.292    9112.0538    1148.0489    1673.0071    63.203015   -2091.7785 
11829000    276.38323   -3727.0955   -3253.3841   -3727.0955            0    13554.231    16.797431    19.785155    20.492826    6810.5811    12952.785    14804.246    12905.663   -328.66702    1713.9944   -456.64525   -1907.1055 
11830000    310.08271   -3747.5224   -3216.0513   -3747.5224            0     11761.81    16.785581    19.771197    20.478369    6796.1774    11819.385    12529.546    10936.498    578.26013    850.95006   -1037.8421   -2050.2763 
11831000     289.9065   -3752.0215   -3255.1317   -3752.0215            0     13391.37    16.723558    19.698142    20.402701    6721.1192    15182.244     11816.04    13175.825    1369.7627   -744.53813   -1723.9904   -1942.5012 
11832000    283.56873   -3754.3153   -3268.2882   -3754.3153            0    12206.523    16.716839    19.690229    20.394505    6713.0224    12815.645    12175.467    11628.457    132.05269   -2318.9878    1509.8262   -2073.2385 
11833000     282.0851   -3727.1079   -3243.6237   -3727.1079            0    14397.297    16.718818     19.69256    20.396919    6715.4067    13245.351    15968.049    13978.492   -900.03674    923.83952    1266.5052    -1833.591 
11834000    291.26794   -3688.3016   -3189.0783   -3688.3016            0    14035.247    16.768249    19.750782    20.457224    6775.1469    15334.888    12992.264     13778.59   -600.28335   -515.84364   -413.35057   -1802.2756 
11835000     286.6447     -3755.04   -3263.7408     -3755.04            0    14964.213    16.787946    19.773983    20.481255    6799.0504    13099.528    16900.479    14892.634     800.4827   -1297.6817    838.72795   -1779.9316 
11836000    291.04545   -3754.1102   -3255.2682   -3754.1102            0    13181.103    16.731447    19.707434    20.412326    6730.6354    14050.945    12502.906    12989.457    247.81899    390.96104   -979.81079   -1961.4189 
11837000    280.59677   -3775.2348   -3294.3015   -3775.2348            0    12223.182      16.7669    19.749194    20.455579    6773.5122     11892.28    13939.876    10837.391    933.07769    476.45007   -336.83677   -2086.8378 
11838000    293.75044   -3715.7202    -3212.242   -3715.7202            0    13563.754    16.825635    19.818375    20.527235     6844.945    16062.883    12373.499    12254.881    381.40383    2374.3894    269.50042   -1858.2199 
11839000    284.23941   -3757.1831   -3270.0065   -3757.1831            0      14123.9    16.749295    19.728457      20.4341     6752.198    13935.819    13543.882    14891.998    1.4637514   -281.67862    290.32288   -1879.1713 
11840000    287.35573   -3753.7906   -3261.2727   -3753.7906            0    15119.275    16.700498     19.67098    20.374568    6693.3545    15120.285    16028.899     14208.64    334.54496   -2073.2935    2044.9356    -1785.394 
11841000    282.53227   -3812.2506        -3328   -3812.2506            0    12815.087    16.757864     19.73855    20.444554    6762.5664    13991.123    11131.903    13322.236   -1211.6136    -1631.597   -496.58927   -2064.1108 
11842000    303.63507   -3806.1723   -3285.7522   -3806.1723            0    12445.521     16.78201    19.766991    20.474013     6791.841    12553.812    12736.232    12046.519   -1086.6893   -2134.9988    786.06466   -2052.9981 
11843000    281.19696   -3790.1479   -3308.1859   -3790.1479            0    12145.109     16.77415    19.757733    20.464423     6782.302    11888.365      14801.9    9745.0605   -381.05972    93.586503    894.71146   -2106.8778 
11844000    287.45792   -3774.4694   -3281.7764   -3774.4694            0    13436.914    16.734801    19.711385    20.416418    6734.6842    11906.986    14207.934    14195.823    92.170568   -57.043313   -2100.0842   -1962.0234 
11845000    286.31724   -3775.0053   -3284.2673   -3775.0053            0     11841.38    16.751479    19.731029    20.436765    6754.8395     11110.99    11112.921     13300.23    337.83794    32.612499    1632.3465   -2117.7445 
11846000    300.61264    -3775.973   -3260.7332    -3775.973            0    13059.555    16.791835    19.778564       20.486    6803.7774    12783.539    13649.407    12745.719   -39.928306    2.6218687    707.70921   -1964.8843 
11847000    289.33234   -3789.6249   -3293.7192   -3789.6249            0    10851.798    16.814902    19.805733    20.514141    6831.8541    10594.081    10579.082    11382.232   -1850.3384    1441.0399    438.87839   -2212.4939 
11848000    271.51666   -3762.6556   -3297.2854   -3762.6556            0    11886.201     16.78349    19.768734    20.475819    6793.6381     13129.06    11334.775    11194.769    856.02605   -210.36265   -1477.9525   -2119.6214 
11849000    296.67198   -3742.7309   -3234.2453   -3742.7309            0    12670.074    16.762008    19.743432    20.449611    6767.5852    13127.765    11409.013    13473.444    2789.1416    576.13303   -682.50132   -1983.7307 
11850000    272.68697   -3725.1905   -3257.8143   -3725.1905            0    13103.406    16.708928     19.68091    20.384853    6703.4962    13295.833    11574.315    14440.068    528.63279   -751.66594    1075.2376    -1976.778 
11851000    279.40482   -3752.4801   -3273.5898   -3752.4801            0    13414.379    16.694564    19.663991    20.367329    6686.2222    13128.935    12902.402    14211.801    1236.6562    143.63575   -872.44523   -1965.5309 
11852000    309.19855   -3762.6985   -3232.7427   -3762.6985            0     11980.88    16.772973    19.756347    20.462988     6780.875    12110.948    10790.267    13041.425   -24.960529    1414.6524   -1007.8666   -2047.9283 
11853000    304.19371   -3766.3961   -3245.0185   -3766.3961            0     13239.05    16.743429    19.721548    20.426944    6745.1062    10999.258    14867.467    13850.425   -475.56972   -221.24146    892.93653   -1942.6871 
11854000    292.21532   -3777.6181   -3276.7711   -3777.6181            0    11936.661    16.764117    19.745915    20.452183    6770.1396    11019.586    12251.439    12538.959    -351.3875   -739.68466    -455.2392   -2098.1984 
11855000    301.99362   -3747.4886   -3229.8818   -3747.4886            0     14888.27    16.780875    19.765654    20.472628    6790.4631    14968.787    14873.597    14822.428    350.45007   -2447.1833    182.80215   -1755.4675 
11856000    272.51413   -3765.2223   -3298.1424   -3765.2223            0    12434.416     16.78628     19.77202    20.479222    6797.0264    10934.418    12998.556    13370.273     353.9019     786.5769    134.95504   -2065.5479 
11857000    280.29955   -3774.5161   -3294.0923   -3774.5161            0    11493.691    16.755512     19.73578    20.441685    6759.7198    11630.568    12968.331    9882.1755   -182.12588    -1316.669   -429.44801   -2161.0031 
11858000    299.18675   -3788.1649   -3275.3691   -3788.1649            0     11524.41    16.745702    19.724225    20.429717    6747.8533    9655.8838    14400.218    10517.129    1240.6609   -338.89463   -348.63204   -2141.2459 
11859000    290.81705    -3779.093   -3280.6425    -3779.093            0    15718.927    16.715538    19.688696    20.392918    6711.4553      16055.9    15893.756    15207.123   -476.74299   -7.7644575    1139.3905   -1742.0788 
11860000    283.62969   -3790.7667   -3304.6352   -3790.7667            0    10395.467    16.844641    19.840762    20.550422    6868.1671    11779.611    9776.1791    9630.6099   -515.50026    1330.5842    342.57512   -2263.3715 
11861000    293.11482   -3783.9011   -3281.5123   -3783.9011            0    13289.235     16.70851    19.680418    20.384344    6702.9934    13483.099    12892.112    13492.493   -1475.5499    1253.8674   -706.51279   -1982.4061 
11862000    290.68702   -3803.6517   -3305.4241   -3803.6517            0    11444.102    16.783535    19.768787    20.475873    6793.6925    10803.084    10534.173    12995.049   -384.68338   -1429.7895    496.33065   -2171.5535 
11863000    270.63929   -3743.0172   -3279.1507   -3743.0172            0    13237.938     16.76771    19.750148    20.456567    6774.4939    12893.293     14552.66    12267.862    450.54139   -799.32336    126.98204   -1971.2551 
11864000    296.85377   -3747.4161   -3238.6189   -3747.4161            0    13847.093    16.805327    19.794455    20.502459      6820.19    15910.667    11628.777    14001.834   -1484.9356   -1850.0449   -1127.6184   -1861.3112 
11865000    282.60388   -3750.7845   -3266.4111   -3750.7845            0    10569.597     16.82107    19.812998    20.521666    6839.3751    12234.118    9600.8205    9873.8534    747.33893    452.58843    703.04115   -2212.1438 
11866000    277.57534   -3778.1108   -3302.3562   -3778.1108            0    13240.762    16.792208    19.779003    20.486455    6804.2303    13960.992    13946.117    11815.178   -30.729892     761.8805     1501.447   -1988.4393 
11867000    283.73053   -3799.2124   -3312.9079   -3799.2124            0    12262.668    16.765627    19.747694    20.454026    6771.9695    11564.529    13132.421    12091.054   -1441.5889   -55.069284    1067.1468   -2101.8195 
11868000     286.4171   -3814.4712   -3323.5621   -3814.4712            0     12614.95    16.821002    19.812918    20.521583    6839.2924    11997.627    14192.452    11654.772    1263.4801    177.75744    29.368072   -2065.2957 
11869000    283.20273   -3732.1251   -3246.7254   -3732.1251            0    13495.462    16.810524    19.800577      20.5088    6826.5195    11790.592    15792.045    12903.749    190.42412   -572.55986   -310.28101    -1903.147 
11870000     280.0642    -3767.601   -3287.5805    -3767.601            0    10945.632    16.768176    19.750696    20.457136    6775.0587    11462.267    11374.204    10000.424   -1614.3005   -3791.3679     43.68259   -2206.0724 
11871000    291.47633   -3773.4572   -3273.8768   -3773.4572            0    14181.997    16.708775     19.68073    20.384667    6703.3124    14848.286    12685.104      15012.6   -1283.7337    2300.8849    -830.5252   -1887.4315 
11872000    311.53337   -3767.4795    -3233.522   -3767.4795            0    11907.614    16.774753    19.758443    20.465159    6783.0335    13154.716    11470.054    11098.071    652.77318    931.36456    475.11904   -2055.5781 
11873000    273.04519   -3765.2003   -3297.2102   -3765.2003            0    11719.133    16.754058    19.734067    20.439911    6757.9598    10821.236    12475.093     11861.07    99.940255   -514.71424    -260.5965   -2142.1969 
11874000    297.92234   -3729.3604   -3218.7317   -3729.3604            0    13478.171    16.704103    19.675226    20.378966    6697.6899    14995.821    12042.505    13396.187   -1862.0308      53.8022    666.26111   -1902.1983 
11875000    313.12161   -3753.1871   -3216.5074   -3753.1871            0    13748.627    16.744614    19.722943     20.42839    6746.5382    14651.042    11379.597    15215.243    1278.1483    95.734655    1815.1876   -1863.7615 
11876000    293.34237   -3752.5891   -3249.8103   -3752.5891            0    13945.554    16.722222    19.696569    20.401072    6719.5095    11874.354    13769.923    16192.386   -1018.2767   -1371.8883   -33.349514   -1883.1857 
11877000    288.07628   -3730.2445   -3236.4916   -3730.2445            0    12246.409     16.79909    19.787109    20.494851    6812.5995    10176.486    13071.529    13491.211    54.171224   -25.631443   -255.93314   -2019.7524 
11878000    300.77257   -3799.2372   -3283.7233   -3799.2372            0    11276.247     16.82917    19.822539    20.531548    6849.2601    12842.854    10258.036    10727.851    12.192203    -796.7189     1014.684   -2157.3454 
11879000    298.29616   -3758.8814    -3247.612   -3758.8814            0    12443.116    16.785821     19.77148    20.478662    6796.4688    10376.994    11109.681    15842.673   -877.13191    901.03624   -2100.8973   -2014.2563 
11880000    278.05261   -3764.1578   -3287.5851   -3764.1578            0    12652.797    16.765474    19.747514    20.453839    6771.7843     11268.35     15166.51     11523.53   -655.60153    715.83231   -981.84016   -2038.0009 
11881000    270.47849   -3778.1943   -3314.6034   -3778.1943            0    13554.029    16.738238    19.715433    20.420611    6738.8342    13843.788    14550.635    12267.665    217.36296    1273.0255    2231.6015   -1982.5272 
11882000    287.10259   -3726.9192   -3234.8352   -3726.9192            0    12987.202    16.798018    19.785846    20.493542     6811.295    13841.505    13355.261    11764.841    680.15013   -715.34532    590.40095   -1944.7417 
11883000    274.16936   -3745.8729    -3275.956   -3745.8729            0    11306.635    16.780378    19.765069    20.472022    6789.8597    11412.951    10992.079    11514.877   -2262.1865   -916.79753     841.7067   -2156.3375 
11884000    291.43353    -3794.444   -3294.9369    -3794.444            0    12002.777    16.753874    19.733851    20.439688    6757.7381    13595.091     10529.39    11883.851   -1240.5195   -614.16365    1142.6757    -2112.007 
11885000    269.53565   -3753.1312   -3291.1563   -3753.1312            0    11793.202      16.7917    19.778404    20.485834    6803.6124    11855.949    11275.172    12248.484    437.30472   -1469.9186   -427.18687   -2120.9911 
11886000    281.16246   -3739.6515   -3257.7487   -3739.6515            0    13215.007    16.747113    19.725887    20.431439      6749.56    11866.452    13595.893    14182.676    390.96406    1433.6481   -43.904886   -1956.9241 
11887000    284.32233   -3798.5599   -3311.2412   -3798.5599            0    10134.637    16.823802    19.816217    20.524999    6842.7087    10509.915    8622.7425    11271.253    402.58317   -677.59438   -467.00941   -2299.8664 
11888000    296.14461   -3767.8371   -3260.2553   -3767.8371            0    11697.864    16.804779     19.79381    20.501791    6819.5235    11314.539    11305.126    12473.927    69.725663   -214.75084   -1152.0473   -2096.8354 
11889000    262.19523   -3791.8282   -3342.4346   -3791.8282            0    11563.605    16.773204    19.756619     20.46327     6781.155    10005.248    13773.743    10911.825    700.99317   -735.13503     246.8496   -2198.8381 
11890000    282.67213   -3750.1484    -3265.658   -3750.1484            0    11319.973    16.796675    19.784264    20.491904    6809.6614    12568.189    12713.409    8678.3202    753.82782   -343.97479    815.71317   -2141.4497 
11891000     281.6064   -3762.7074   -3280.0436   -3762.7074            0    14172.386    16.722749    19.697189    20.401715    6720.1443    12737.123    15411.489    14368.544    1038.4449   -510.85523   -867.63344    -1891.059 
11892000    290.93298   -3772.6458   -3273.9966   -3772.6458            0    9008.0147    16.803541    19.792352    20.500281    6818.0161    8971.9342    8991.9516    9060.1584     206.2468   -1180.5267    863.33973   -2378.2957 
11893000    281.15399   -3761.5582   -3279.6699   -3761.5582            0    12943.153     16.77199    19.755189    20.461789     6779.683    11521.157     14656.55    12651.752    230.93216    1444.0667   -528.20363   -1999.9192 
11894000    279.90882    -3765.614   -3285.8598    -3765.614            0    12132.608    16.791856    19.778588    20.486025    6803.8022    11070.066    13356.815    11970.943    644.68527    601.59712   -409.94563   -2081.9839 
11895000    301.90012   -3723.1405    -3205.694   -3723.1405            0    13365.486    16.762933    19.744521    20.450739    6768.7052    13519.631    13013.506    13563.321    1527.7094    1245.6847    425.19262   -1886.3251 
11896000    282.05009   -3741.5524   -3258.1282   -3741.5524            0    14208.881    16.741315    19.719058    20.424366    6742.5523    15518.621     13935.44    13172.582   -418.13916    884.00705    1245.8108   -1860.9233 
11897000    272.76347   -3779.4375   -3311.9302   -3779.4375            0    11186.745    16.697576    19.667539    20.371003    6689.8419    8258.2226    11147.702    14154.311   -146.02271   -753.64261   -92.454456   -2220.5013 
11898000    274.47626   -3791.3057   -3320.8628   -3791.3057            0    11991.379    16.760925    19.742155    20.448289    6766.2728    11179.045    12891.064    11904.026    68.340594    1141.8299    -662.2014   -2137.5638 
11899000     299.0457   -3719.7322   -3207.1781   -3719.7322            0    14653.406    16.725526    19.700461    20.405103    6723.4931    13661.846    15127.081    15171.292   -1107.5153    1224.2741   -1585.6119   -1770.3347 
11900000    275.87289   -3763.0261   -3290.1894   -3763.0261            0    12189.658    16.780969    19.765765    20.472743    6790.5771    11969.653    12518.317    12081.004   -1638.8383   -21.081693    1131.8388   -2083.0037 
11901000    285.69325   -3770.3726   -3280.7042   -3770.3726            0    10511.797    16.820116    19.811875    20.520502    6838.2117    9000.1108    11639.588    10895.692     1314.756   -370.23566   -907.50238   -2232.3805 
11902000    272.24163   -3760.3532   -3293.7404   -3760.3532            0    12158.745    16.697985     19.66802    20.371502    6690.3334    11217.428    12046.659    13212.148    1493.7419    -528.7841    1090.7625   -2107.3915 
11903000    275.22548   -3746.0954   -3274.3684   -3746.0954            0    11874.344    16.727303    19.702554    20.407271    6725.6363    13652.861    12741.302    9228.8693     755.1131    -862.5035    671.05296   -2109.6555 
11904000     265.3642   -3760.0439   -3305.2188   -3760.0439            0    10972.226    16.771271    19.754341    20.460911    6778.8104    11240.329    12100.237    9576.1108    684.02643   -730.72081    1969.7213   -2220.4826 
11905000    277.90941   -3737.0053    -3260.678   -3737.0053            0    11587.957    16.757004    19.737537    20.443506    6761.5257    12271.724    10008.498     12483.65   -1112.5331    1507.3181  0.031577894   -2117.9905 
11906000    271.75184   -3808.4344    -3342.661   -3808.4344            0    11357.955    16.732412    19.708571    20.413504    6731.8008    10727.924    13226.718    10119.222    71.500198   -82.590765   -953.11516   -2227.5778 
11907000     280.1572   -3765.6861   -3285.5063   -3765.6861            0    11648.914    16.761253    19.742542    20.448689    6766.6704    13385.627    9288.3683    12272.747    307.53658    517.38541   -831.49009   -2135.9338 
11908000    297.00424   -3839.6785   -3330.6234   -3839.6785            0    13327.365    16.740715    19.718351    20.423634    6741.8274    12132.007    14447.781    13402.307    214.53284    1356.6885    1434.4748   -2020.2417 
11909000    276.72022   -3758.7365   -3284.4475   -3758.7365            0    13911.925    16.759101    19.740008    20.446065     6764.065    14359.756    13291.034    14084.985    1279.3076   -84.319953    655.55967   -1912.0786 
11910000    300.97964   -3745.0912   -3229.2224   -3745.0912            0    15641.407    16.693072    19.662233    20.365508    6684.4295    16897.676    13957.566    16068.981    386.87653   -418.45014    1607.4048   -1704.4112 
11911000    279.91301   -3773.9683    -3294.207   -3773.9683            0    13392.214    16.681331    19.648405    20.351185    6670.3361    12353.372    12720.429     15102.84    6.7316895   -2646.6381    655.11383   -1991.4123 
11912000    293.68391   -3775.3571   -3271.9929   -3775.3571            0    10996.444    16.808504    19.798198    20.506336    6824.0591    10818.474    10105.436    12065.423   -34.152629   -315.69779    2062.4884   -2177.6059 
11913000    290.92488   -3766.1121   -3267.4768   -3766.1121            0    14702.409    16.751942    19.731575    20.437331    6755.4005    12495.492    14813.095    16798.639   -1108.2294   -252.52637    1444.0949   -1818.9869 
11914000    284.87537    -3756.593   -3268.3263    -3756.593            0    11423.963    16.780859    19.765636    20.472609    6790.4441    11024.107    10324.285    12923.497    363.61622   -616.79979    -561.0065   -2136.9923 
11915000    304.73939   -3760.3554   -3238.0425   -3760.3554            0    14230.149    16.779037    19.763489    20.470386     6788.232    13127.427    18043.726    11519.293    -821.8267    1372.1227   -1303.2626   -1829.2663 
11916000     297.1032   -3761.8586   -3252.6339   -3761.8586            0    12470.981    16.819785    19.811485    20.520098    6837.8078     11505.82    14053.039    11854.084    -219.3443   -249.26986   -1468.9121   -2008.9976 
11917000    293.26362   -3826.4894   -3323.8456   -3826.4894            0    15553.893    16.728069    19.703456    20.408205    6726.5603     17317.17    13542.278    15802.231   -297.23824   -1719.6752   -1949.4494   -1798.0089 
11918000      313.597   -3785.4212   -3247.9266   -3785.4212            0    12454.488    16.804536    19.793523    20.501494     6819.227    13607.339    12146.175    11609.952   -1385.2177   -29.025306   -1010.1447   -2009.3099 
11919000    305.02929   -3750.2928    -3227.483   -3750.2928            0    14792.103    16.715232    19.688336    20.392545    6711.0867    15288.757    14051.012     15036.54   -236.19631    881.21765    603.28485   -1779.7161 
11920000    296.58792   -3775.2222   -3266.8806   -3775.2222            0    13681.269    16.732421    19.708582    20.413515    6731.8119    11619.813    16311.968    13112.026    207.18204   -47.985202    680.94599   -1923.7005 
11921000    285.41576   -3779.7538    -3290.561   -3779.7538            0    11856.317    16.794779    19.782031    20.489591    6807.3557    12865.903    11645.743    11057.304    850.26714    745.96842    267.39334    -2113.486 
11922000    285.63465   -3754.8172   -3265.2492   -3754.8172            0    14938.666    16.715273    19.688384    20.392594     6711.136    15221.059     16465.12    13129.819    1786.8535    229.68393    452.49038   -1803.1267 
11923000    278.48366   -3743.4611   -3266.1496   -3743.4611            0    12597.153    16.773484    19.756948    20.463611    6781.4943    12683.433    11506.804    13601.223    482.75996   -2626.8732   -907.75782   -2020.2768 
11924000    283.59415   -3760.4474   -3274.3767   -3760.4474            0    14732.728     16.73417    19.710642    20.415648    6733.9226    14581.286    13556.907    16059.991   -1079.9873   -689.82576    182.64792   -1827.5144 
11925000     284.3515   -3740.7118    -3253.343   -3740.7118            0    11482.889    16.808704    19.798434     20.50658    6824.3032    10546.654    12409.531    11492.483   -1536.6338    597.01208   -1153.9756   -2110.5031 
11926000    290.46022   -3764.9088   -3267.0699   -3764.9088            0    11982.938    16.795578    19.782972    20.490566    6808.3275    10563.339    11997.278    13388.197   -743.52583    2099.3661   -3100.5964   -2077.2544 
11927000    284.61597   -3704.6079   -3216.7858   -3704.6079            0    16166.823    16.745765    19.724299    20.429794    6747.9294     19392.89    13110.684    15996.894    2758.6163    296.61371    382.15693   -1625.7825 
11928000    287.98955   -3740.9588   -3247.3546   -3740.9588            0     12630.83     16.79391    19.781008    20.488531    6806.2993    14216.106    12277.979    11398.406   -691.89554   -1248.7157   -413.85612   -1993.5818 
11929000    284.99184   -3762.8532    -3274.387   -3762.8532            0    12178.578    16.825215     19.81788    20.526723    6844.4323    12431.686    13230.034    10874.015   -3.5544355   -371.62245   -416.90567   -2058.7332 
11930000    270.88558   -3735.3571   -3271.0685   -3735.3571            0    11968.962    16.757489    19.738108    20.444097    6762.1123    11406.321    11996.768    12503.799     1408.615   -1686.5966   -1084.7088   -2090.7077 
11931000    296.91391   -3749.9954   -3241.0951   -3749.9954            0    14144.755    16.747478    19.726316    20.431884    6750.0005    15450.505      11198.7     15785.06    1361.2265   -1944.7961    1068.6144   -1848.6595 
11932000    296.74594   -3739.1479   -3230.5355   -3739.1479            0    13225.502    16.760993    19.742236    20.448373    6766.3561    13428.228    12500.514    13747.765    728.18674   -2367.3149   -331.33522   -1925.4381 
11933000    287.02601   -3777.9843   -3286.0315   -3777.9843            0    10362.156    16.819397    19.811028    20.519625    6837.3344    10632.486    10492.044    9961.9377    116.34323    153.12021    2552.6192   -2252.7639 
11934000    288.51515   -3766.9188   -3272.4137   -3766.9188            0    14019.738    16.724314    19.699033    20.403624    6722.0315    14058.114    15439.182     12561.92    -1229.202    1473.0962     571.1573   -1898.0036 
11935000    287.78154   -3704.5177     -3211.27   -3704.5177            0     14954.91    16.724691    19.699477    20.404084    6722.4862    16046.497    13028.675    15789.559   -1475.1688    -601.0871    775.64553   -1745.0821 
11936000    301.32058   -3749.4559   -3233.0027   -3749.4559            0    11596.942    16.788168    19.774245    20.481526    6799.3207    12659.475    9827.5839    12303.767   -1339.8302   -308.84438     732.5715    -2083.037 
11937000    288.29517   -3757.2254   -3263.0974   -3757.2254            0     12657.97     16.82517    19.817827    20.526668    6844.3772    12922.924    12678.862    12372.123    -101.4417    -1667.717    479.78499   -1999.6014 
11938000     302.6938   -3734.9724   -3216.1656   -3734.9724            0    13477.727    16.732907    19.709154    20.414107    6732.3978    14114.517    14989.496    11329.169   -361.12163     41.95744   -1352.4086   -1892.8534 
11939000    281.42246   -3778.0374   -3295.6889   -3778.0374            0    12304.791    16.761269     19.74256    20.448709    6766.6894    13752.185     13167.26    9994.9294   -1673.2018    1653.5885    927.32064   -2081.3878 
11940000    308.11529   -3733.4361    -3205.337   -3733.4361            0     13110.79    16.770365    19.753275    20.459806    6777.7127    10295.688    13619.583    15417.097    1468.7231   -1720.2578     351.2003    -1909.388 
11941000      287.418   -3723.0984   -3230.4738   -3723.0984            0    13685.441     16.74854    19.727568     20.43318    6751.2851     13378.73    12861.241    14816.352    2013.5088   -1497.2163   -700.63512   -1882.9975 
11942000    293.12004   -3766.7384   -3264.3407   -3766.7384            0    12949.312    16.767552    19.749961    20.456374    6774.3022    11884.269    11918.596    15045.069    461.85853   -171.02342   -122.54258   -1984.9973 
11943000    286.11704   -3767.0724   -3276.6776   -3767.0724            0    10974.755    16.835582    19.830092     20.53937     6857.092    12429.057    9392.8108    11102.398   -876.08496   -1826.6627    765.60379    -2179.162 
11944000      294.564   -3716.8647    -3211.992   -3716.8647            0    15361.177     16.74258    19.720548    20.425909    6744.0804    14974.672    15382.043    15726.815     602.7896   -706.46088   -196.75776   -1701.1359 
11945000    302.44301   -3799.0226   -3280.6456   -3799.0226            0    12404.472    16.800792    19.789114    20.496927    6814.6708    13688.608    10573.495    12951.313    1967.2644     1.880883   -1282.6917   -2047.8274 
11946000     283.5419   -3768.8725   -3282.8914   -3768.8725            0    12533.854    16.771487    19.754596    20.461175    6779.0728     13109.65    11295.602    13196.309    1314.4104    127.91274   -519.21414   -2043.7216 
11947000    275.59316   -3754.4224   -3282.0651   -3754.4224            0    13353.912    16.806476    19.795809    20.503862    6821.5894    12744.776    13166.085    14150.874    1484.1815   -802.54068   -1324.1817   -1953.5394 
11948000    289.97255   -3747.8519   -3250.8488   -3747.8519            0    12494.519    16.765859    19.747968    20.454309    6772.2508    12350.154    13588.599    11544.804    1877.6671    383.76934    1431.1156    -2016.811 
11949000    300.91069   -3766.3364   -3250.5858   -3766.3364            0    11498.031    16.783429    19.768663    20.475745    6793.5645    9183.8141     11378.96     13931.32   -1025.5223    270.18122   -427.83078   -2111.3934 
11950000    285.47348    -3764.842   -3275.5503    -3764.842            0    11572.037    16.804599    19.793598    20.501571    6819.3038    12845.845    11675.633    10194.634   -250.68475    324.51864    204.71155   -2124.6816 
11951000    302.84472   -3794.6423   -3275.5768   -3794.6423            0    14093.315     16.74396    19.722173    20.427592    6745.7478    11719.296    17589.263    12971.387    561.73469    1620.8853    1401.9001    -1889.079 
11952000    292.10797   -3756.0183   -3255.3552   -3756.0183            0    12618.393    16.802864    19.791554    20.499455    6817.1919    12708.652    13310.559    11835.968   -1036.6866     1174.197   -804.34948   -2000.8125 
11953000    291.42731   -3792.3815    -3292.885   -3792.3815            0    16078.033    16.629176    19.586973    20.287556    6607.9657    16085.823    16969.362    15178.916   -239.27129   -487.25963    1309.2596   -1743.4385 
11954000    263.46504   -3747.8759   -3296.3059   -3747.8759            0    11573.921    16.767825    19.750283    20.456708    6774.6335    13069.044    12006.474     9646.245    1940.7382    1008.6332   -220.94624     -2152.79 
11955000    288.34438   -3786.9446   -3292.7322   -3786.9446            0    11398.035    16.790887    19.777448    20.484843    6802.6251    10442.538     12198.08    11553.488   -46.978217   -202.49041   -59.114526    -2161.941 
11956000    287.66965   -3770.5616   -3277.5057   -3770.5616            0    13033.671    16.717189    19.690641    20.394932    6713.4441    14109.263    10419.204    14572.546   -1720.0418   -440.37238    133.59737    -2001.396 
11957000    283.72414   -3723.5186   -3237.2251   -3723.5186            0    15161.685    16.701948    19.672689    20.376338    6695.0987    14736.948    13805.507    16942.601   -1588.9767    192.33933    56.595855   -1756.8207 
11958000    283.63205   -3725.7835   -3239.6479   -3725.7835            0    12896.109    16.792483    19.779326     20.48679    6804.5641    13331.649    12141.258     13215.42    1191.0545   -1813.3585    469.17596   -1959.8691 
11959000     282.5632   -3739.9987    -3255.695   -3739.9987            0    14217.498    16.779958    19.764574     20.47151    6789.3501    13697.566     15500.23    13454.698   -1434.5315    1007.1578   -332.23893   -1847.9394 
11960000    292.59085   -3744.2806   -3242.7899   -3744.2806            0    13759.589    16.788266    19.774359    20.481645    6799.4392    14119.136     15091.89    12067.739   -634.97893    2992.2497    758.61914     -1878.35 
11961000    297.02819   -3779.0083   -3269.9121   -3779.0083            0    10805.159    16.765371    19.747393    20.453713    6771.6592    10510.958    8992.4784    12912.042    -2049.953   -150.66788    191.88902   -2202.8194 
11962000    298.82647   -3780.3629   -3268.1846   -3780.3629            0    14121.455    16.722933    19.697406    20.401939    6720.3662    13717.927    14794.916    13851.524   -1258.4869    1652.9441    -436.8629   -1884.1457 
11963000    296.09389    -3773.411   -3265.9162    -3773.411            0    13227.216    16.714838    19.687871    20.392063    6710.6113    12231.288    13906.025    13544.336   -1030.2476   -694.68938   -1005.2227   -1971.4031 
11964000    280.80751   -3751.5468   -3270.2523   -3751.5468            0     13632.42    16.752518    19.732253    20.438033    6756.0968    14750.216    13185.284    12961.761    770.31839   -695.61712   -1013.1513   -1927.0398 
11965000    273.50613   -3802.0297   -3333.2496   -3802.0297            0     10810.17    16.764983    19.746936    20.453241    6771.1896    9537.1843    12550.925    10342.399   -913.49776    146.98231    -550.1915   -2265.7361 
11966000    293.53834   -3787.0803   -3283.9656   -3787.0803            0     14134.12    16.672945    19.638526    20.340954    6660.2804    14217.326    13258.879    14926.155   -95.753618    1067.4866    952.61265    -1911.071 
11967000    266.06261   -3744.5538   -3288.5316   -3744.5538            0    13940.166    16.763891    19.745649    20.451908    6769.8658     15212.68    11811.276    14796.543    1960.8357    524.33069   -595.41524   -1912.1974 
11968000    307.84692   -3780.4767   -3252.8377   -3780.4767            0    10300.353    16.847462    19.844085    20.553864    6871.6186    10824.601    9911.9642    10164.493   -1395.9392    1106.7479   -38.341538   -2220.5826 
11969000    282.23894   -3735.6729    -3251.925   -3735.6729            0    12918.111    16.797656    19.785421    20.493102    6810.8556    13765.661    13683.254    11305.416     95.54476    39.293802    1003.8102   -1968.7776 
11970000    285.05004   -3774.0288   -3285.4628   -3774.0288            0    14499.193    16.729797    19.705491    20.410313    6728.6449    16428.336    14059.554    13009.687   -131.00638   -552.92168   -322.71242   -1862.6514 
11971000    278.26462    -3752.858    -3275.922    -3752.858            0    12779.692    16.815041    19.805897    20.514311    6832.0242    12430.773    13456.553     12451.75   -149.88623    -828.2799   -327.86071   -2002.5782 
11972000    286.60092   -3744.2686   -3253.0445   -3744.2686            0    13861.675    16.706034    19.677502    20.381323    6700.0137    14078.362    13545.981    13960.682   -2050.4895   -284.01575    1538.4619    -1898.581 
11973000    279.45905   -3742.9215   -3263.9382   -3742.9215            0    12105.515    16.829419    19.822833    20.531852    6849.5647    12010.202    13324.847    10981.496    541.97469   -414.66218   -1491.8121   -2054.6714 
11974000    281.60371   -3726.5135   -3243.8544   -3726.5135            0    13963.554    16.768526    19.751109    20.457562    6775.4828    13104.239    14700.689    14085.734 -0.020487188     451.8997    554.46162   -1864.0672 
11975000    287.96692   -3774.8275   -3281.2621   -3774.8275            0    13355.691    16.748541    19.727569    20.433181     6751.286    16060.943    12380.176    11625.954    462.38388    951.08636    208.85187    -1966.253 
11976000    287.74876   -3779.9574   -3286.7658   -3779.9574            0    12053.886    16.820728    19.812596    20.521249    6838.9588    12787.387    11234.957    12139.315    656.03585    198.88733    141.29335   -2084.5209 
11977000    300.00737   -3706.4954    -3192.293   -3706.4954            0     11828.66    16.844769    19.840913    20.550579    6868.3242    12910.906    11468.598    11106.477   -1424.7444     479.3646    1055.8107   -2007.4461 
11978000    296.88835   -3746.6356   -3237.7792   -3746.6356            0    15041.366    16.774133    19.757713    20.464403     6782.282    16288.187    13898.514    14937.395    735.82243    7.4222485    1667.7673   -1749.9982 
11979000    284.57424   -3736.7576   -3249.0071   -3736.7576            0    11021.452    16.865082    19.864838     20.57536    6893.2009    12643.527    10804.223    9616.6069    336.39516   -1267.8153   -1355.4633   -2141.0176 
11980000    306.82103   -3765.3775   -3239.4968   -3765.3775            0    12638.666     16.82486    19.817463     20.52629    6843.9995    12790.221    13040.252    12085.524     1297.047   -42.384671   -1472.2287   -1977.9973 
11981000    291.99042   -3776.6424   -3276.1808   -3776.6424            0    12925.492    16.831474    19.825253    20.534359    6852.0736    13231.774    12623.702    12921.001    674.48225   -758.88505    -110.9902   -1984.5304 
11982000    297.30077   -3778.4962   -3268.9328   -3778.4962            0    10843.489    16.843468    19.839381    20.548992    6866.7327    11583.533    10206.542    10740.393   -961.14497    -243.3981    415.57275   -2183.0197 
11983000    284.74737   -3800.5186   -3312.4714   -3800.5186            0    14882.845    16.800714    19.789022    20.496831    6814.5751    12709.708    17167.775    14771.052   -1279.1888    -18.41393    698.47194   -1833.3609 
11984000    312.38089   -3808.2145   -3272.8043   -3808.2145            0    12912.607    16.785724    19.771366    20.478544    6796.3515    13818.647    12217.535     12701.64    1881.0075    126.83595   -1211.3667   -1992.9349 
11985000    279.97536   -3767.6704   -3287.8022   -3767.6704            0    12881.556     16.75012    19.729429    20.435108    6753.1964    15080.815    11757.146    11806.708    785.69583    168.19597   -1495.7823   -2019.1178 
11986000    282.89612   -3731.4078   -3246.5336   -3731.4078            0    12999.649    16.770177    19.753054    20.459577    6777.4848    12518.244    13272.767    13207.935     1801.229    267.65095    1164.1042   -1961.6136 
11987000    285.32588   -3766.5452   -3277.5064   -3766.5452            0    15266.834    16.744389    19.722679    20.428116     6746.267    15153.749     15705.85    14940.905    -164.1747   -900.36053     1788.805   -1775.4425 
11988000    294.42741   -3743.4497   -3238.8112   -3743.4497            0    12910.141    16.725548    19.700486     20.40513    6723.5195    9507.6322    15115.323    14107.467   -772.13511   -1136.4525   -2438.7617   -1972.8991 
11989000     291.2944   -3753.0002   -3253.7316   -3753.0002            0    10946.925    16.796071    19.783553    20.491167    6808.9268    11393.781    9228.8873    12218.106    720.07007   -697.76762    -274.4813   -2166.6887 
11990000    303.51972   -3791.4455   -3271.2231   -3791.4455            0     13814.26    16.789003    19.775228    20.482545    6800.3354     13091.67    15484.142    12866.968   -1962.5485    -340.1626   -1422.3727   -1901.1812 
11991000    289.88641   -3781.9171   -3285.0617   -3781.9171            0    12316.499    16.763524    19.745217     20.45146     6769.421    13486.923      12668.7    10793.873   -52.810481   -66.010812    558.72555   -2069.1146 
11992000    294.32042   -3747.9257   -3243.4706   -3747.9257            0    13751.646    16.777597    19.761794     20.46863     6786.485    16218.424    11103.089    13933.427   -1335.5987    1288.3857     283.6084   -1882.4162 
11993000    297.41196   -3760.0803   -3250.3264   -3760.0803            0    10701.602    16.851789    19.849181    20.559143    6876.9145    11453.511    9983.2482    10668.049    578.21923    1579.4826   -1635.5618   -2177.0333 
11994000    295.40243   -3796.4491   -3290.1395   -3796.4491            0    11911.447    16.813502    19.804084    20.512433    6830.1479    11908.944     11621.45    12203.948    639.24609    660.99328    436.35137   -2103.6318 
11995000    291.08087    -3732.776   -3233.8734    -3732.776            0    12428.201    16.814621    19.805402    20.513798    6831.5117    12944.773    12540.761    11799.068    1936.5246   -340.80091   -722.97353   -1995.6445 
11996000    286.61423   -3780.3934   -3289.1464   -3780.3934            0    14208.176    16.716543     19.68988    20.394144    6712.6657    11787.161    16486.658     14350.71   -608.99583   -1450.4403    1754.8683   -1898.2037 
11997000    277.93221   -3766.6137   -3290.2475   -3766.6137            0    12340.732    16.758391    19.739171    20.445198    6763.2051    15514.406     11493.26     10014.53    -493.9852    1079.2841   -786.74035   -2073.0266 
11998000     305.8675     -3745.85   -3221.6036     -3745.85            0    15130.473    16.725392    19.700303    20.404939    6723.3314    16910.716     12537.49    15943.213   -1458.9732   -2212.4912   -473.54537   -1738.0169 
11999000    276.69542   -3788.2164   -3313.9699   -3788.2164            0    12471.729    16.791897    19.778637    20.486075    6803.8526    12383.609    11205.111    13826.468    52.623755    622.88261    824.76868    -2076.435 
12000000    312.49475   -3757.1299   -3221.5246   -3757.1299            0    10492.406    16.838974    19.834088    20.543509    6861.2382    9263.9606    10052.304    12160.952    -421.4267   -305.21868   -703.50474   -2171.6113 
Loop time of 481.1 on 64 procs for 250000 steps with 864 atoms

Performance: 89.794 ns/day, 0.267 hours/ns, 519.642 timesteps/s
99.1% CPU use with 64 MPI tasks x 1 OpenMP threads

MPI task timing breakdown:
Section |  min time  |  avg time  |  max time  |%varavg| %total
---------------------------------------------------------------
Pair    | 22.489     | 27.974     | 32.089     |  46.8 |  5.81
Bond    | 0.27636    | 0.28486    | 0.30822    |   1.0 |  0.06
Kspace  | 200.54     | 212.44     | 222.19     |  37.5 | 44.16
Neigh   | 6.3369     | 7.477      | 8.7174     |  29.9 |  1.55
Comm    | 102.99     | 114.23     | 125.4      |  60.3 | 23.74
Output  | 1.2897     | 1.2931     | 1.3169     |   0.4 |  0.27
Modify  | 110.47     | 113.02     | 116.85     |  18.2 | 23.49
Other   |            | 4.381      |            |       |  0.91

Nlocal:        13.5000 ave          18 max           9 min
Histogram: 2 2 6 8 13 18 4 6 3 2
Nghost:        2306.00 ave        2349 max        2273 min
Histogram: 3 5 11 9 13 7 9 3 2 2
Neighs:        4496.45 ave        6633 max        2444 min
Histogram: 2 1 6 11 14 11 12 5 1 1

Total # of neighbors = 287773
Ave neighs/atom = 333.07060
Ave special neighs/atom = 2.0000000
Neighbor list builds = 16690
Dangerous builds = 1

unfix		3
unfix		2
unfix		1

write_data	data.final.${pid}
write_data	data.final.0
System init for write_data ...
PPPM initialization ...
  extracting TIP4P info from pair style
  using 12-bit tables for long-range coulomb (../kspace.cpp:340)
  G vector (1/distance) = 0.374924
  grid = 24 24 24
  stencil order = 5
  estimated absolute RMS force accuracy = 0.0030862433
  estimated relative force accuracy = 9.2941301e-06
  using double precision FFTW3
  3d grid and FFT values/proc = 2535 216
Last active /omp style is kspace_style pppm/tip4p/omp
WARNING: Not all mixed pair coeffs generated from mixing. Use write_data with 'pair ij' option to store all pair coeffs. (../write_data.cpp:312)

write_restart   restart.lmp.${pid}
write_restart   restart.lmp.0
System init for write_restart ...
PPPM initialization ...
  extracting TIP4P info from pair style
  using 12-bit tables for long-range coulomb (../kspace.cpp:340)
  G vector (1/distance) = 0.374924
  grid = 24 24 24
  stencil order = 5
  estimated absolute RMS force accuracy = 0.0030862433
  estimated relative force accuracy = 9.2941301e-06
  using double precision FFTW3
  3d grid and FFT values/proc = 2535 216
Last active /omp style is kspace_style pppm/tip4p/omp
Total wall time: 0:08:05
