#include		in.partitions
include		in.temp
variable        temperature equal 143.97
variable	tempDamp equal 100.0
include		in.pressure
variable        pressure equal 7191.1
variable        pressureDamp equal 1000.0 # This is 1 ps
include		in.seed
variable        seed equal 745823

units		real
atom_style	full
read_restart    restart.lmp.${pid}
read_restart    restart.lmp.0
Reading restart file ...
  restart file = 30 Jul 2021, LAMMPS = 30 Jul 2021
  restoring atom style full from restart
  triclinic box = (-3.1148439 0.034575948 -0.063379661) to (14.724843 22.545423 19.293378) with tilt (-0.24647087 -6.5362012 0.099114172)
  2 by 4 by 4 MPI processor grid
  restoring pair style lj/cut/tip4p/long/omp from restart
  restoring bond style harmonic/omp from restart
  restoring angle style harmonic/omp from restart
  1008 atoms
  672 bonds
  336 angles
Finding 1-2 1-3 1-4 neighbors ...
  special bond factors lj:    0        0        0       
  special bond factors coul:  0        0        0       
     2 = max # of 1-2 neighbors
     1 = max # of 1-3 neighbors
     1 = max # of 1-4 neighbors
     2 = max # of special neighbors
  special bonds CPU = 0.003 seconds
  read_restart CPU = 0.009 seconds

include 	in.setup
variable	out_freq equal 1000
variable	out_freq2 equal 10000
variable	out_freq3 equal 1000

timestep	2.0

neigh_modify    delay 7 every 1

include		in.tip4p
# This is TIP4P/Ice

# create groups ###
group ox type 2
336 atoms in group ox
group hy type 1
672 atoms in group hy

# set charges - beside manually ###
set group ox charge -1.1794
Setting atom values ...
  336 settings made for charge
set group hy charge 0.5897
Setting atom values ...
  672 settings made for charge

# ### TIP3P Potential Parameters ###
pair_style lj/cut/tip4p/long/omp 2 1 1 1 0.1577 8.5
pair_coeff 1 1*2 0.000 0.000
pair_coeff 2 2 0.21084 3.1668
bond_style  harmonic
bond_coeff  1 450 0.9572
angle_style harmonic
angle_coeff 1 55 104.52
kspace_style pppm/tip4p/omp 1.0e-5
pair_modify tail yes

thermo          ${out_freq}
thermo          1000
thermo_style    custom step temp pe etotal epair emol press lx ly lz vol pxx pyy pzz pxy pxz pyz enthalpy

restart 	${out_freq3} restart.lmp.${pid} restart2.lmp.${pid}
restart 	1000 restart.lmp.${pid} restart2.lmp.${pid}
restart 	1000 restart.lmp.0 restart2.lmp.${pid}
restart 	1000 restart.lmp.0 restart2.lmp.0


include         in.dump
dump            myDump all atom ${out_freq2} dump.water.${pid}
dump            myDump all atom 10000 dump.water.${pid}
dump            myDump all atom 10000 dump.water.0
dump            myDump2 all dcd ${out_freq2} dump.dcd
dump            myDump2 all dcd 10000 dump.dcd
dump_modify     myDump append yes
dump_modify     myDump2 append yes


variable natoms 	equal  "count(all)"                        # NUMBER ATOMS
variable H      	equal  "enthalpy/v_natoms"                 # ENTHALPY-per-atom
variable Vol      	equal  "vol/v_natoms"                 # volume-per-atom
fix AVG all 		ave/time ${out_freq} 1 ${out_freq} v_Vol v_H file vol_enthalpy.dat
fix AVG all 		ave/time 1000 1 ${out_freq} v_Vol v_H file vol_enthalpy.dat
fix AVG all 		ave/time 1000 1 1000 v_Vol v_H file vol_enthalpy.dat



fix 		1 all shake 1e-6 200 0 b 1 a 1
       0 = # of size 2 clusters
       0 = # of size 3 clusters
       0 = # of size 4 clusters
     336 = # of frozen angles
  find clusters CPU = 0.000 seconds
fix             2 all nph tri ${pressure} ${pressure} ${pressureDamp}
fix             2 all nph tri 7191.1 ${pressure} ${pressureDamp}
fix             2 all nph tri 7191.1 7191.1 ${pressureDamp}
fix             2 all nph tri 7191.1 7191.1 1000
fix             3 all temp/csvr ${temperature} ${temperature} ${tempDamp} ${seed}
fix             3 all temp/csvr 143.97 ${temperature} ${tempDamp} ${seed}
fix             3 all temp/csvr 143.97 143.97 ${tempDamp} ${seed}
fix             3 all temp/csvr 143.97 143.97 100 ${seed}
fix             3 all temp/csvr 143.97 143.97 100 745823


run             250000
PPPM initialization ...
  extracting TIP4P info from pair style
  using 12-bit tables for long-range coulomb (../kspace.cpp:340)
  G vector (1/distance) = 0.3803935
  grid = 24 27 36
  stencil order = 5
  estimated absolute RMS force accuracy = 0.0023255624
  estimated relative force accuracy = 7.003362e-06
  using double precision FFTW3
  3d grid and FFT values/proc = 5670 1296
Last active /omp style is kspace_style pppm/tip4p/omp
Neighbor list info ...
  update every 1 steps, delay 7 steps, check yes
  max neighbors/atom: 2000, page size: 100000
  master list distance cutoff = 10.8154
  ghost atom cutoff = 10.8154
  binsize = 5.4077, bins = 5 5 4
  1 neighbor lists, perpetual/occasional/extra = 1 0 0
  (1) pair lj/cut/tip4p/long/omp, perpetual
      attributes: half, newton on, omp
      pair build: half/bin/newton/tri/omp
      stencil: half/bin/3d/tri
      bin: standard
Per MPI rank memory allocation (min/avg/max) = 10.32 | 10.35 | 10.41 Mbytes
Step Temp PotEng TotEng E_pair E_mol Press Lx Ly Lz Volume Pxx Pyy Pzz Pxy Pxz Pyz Enthalpy 
23750000    148.72986   -5083.7673   -4786.2892   -5083.7673            0    8159.8648    17.839687    22.510847    19.356757    7773.4117    8792.7957     8475.865    7210.9337   -184.34828   -215.19465    976.05742   -3861.2279 
23751000    142.18462   -5087.5479   -4803.1611   -5087.5479            0    7642.9468     17.65493    22.926679    19.270503    7800.1007    8270.9724    7858.0492    6799.8187    -111.7524    1026.6834    675.43297   -3933.7265 
23752000    142.04902   -5091.2558   -4807.1402   -5091.2558            0    6217.4327    17.965089    22.643046     19.29959    7850.7711    3768.4748    7751.7131    7132.1102    803.63847    1328.7296      711.221   -4095.2725 
23753000    141.39119      -5083.9   -4801.1002      -5083.9            0    8583.8779    17.868982    22.667003     19.19577    7774.9835    7568.0451    8403.8496     9779.739    719.26552   -176.31524    946.69423   -3827.7729 
23754000    146.81024   -5115.8927   -4822.2541   -5115.8927            0    6488.7322    17.810329     22.93111     19.14593    7819.4007    7080.0121    5778.4472    6607.7372    494.70329    273.89235    201.69676   -4082.2925 
23755000    138.12588   -5074.8078    -4798.539   -5074.8078            0    8456.4975    17.952116    22.593136    19.204313    7789.1656    7808.9183    8638.1646    8922.4095   -192.39264   -97.845029     64.82576   -3837.9063 
23756000    138.82917   -5068.6945    -4791.019   -5068.6945            0    7184.5395    17.896551    22.751875     19.23456      7831.93    5718.0726     8244.172     7591.374    1659.1269    278.28963    638.45916   -3970.3961 
23757000    147.32129   -5096.5199   -4801.8591   -5096.5199            0    7771.1348    17.826991    22.769963    19.214503    7799.5496     8312.762    7379.6009    7621.0415   -94.157382    331.60257    322.47786   -3917.9047 
23758000    144.52549   -5084.3772   -4795.3084   -5084.3772            0     8019.955    17.902898    22.765787    19.152088    7805.8846    8338.8108    8434.9224    7286.1317     -208.369   -345.09741    430.58604   -3882.3101 
23759000    145.69646   -5074.2714   -4782.8605   -5074.2714            0    7766.8098    17.859334     22.79317      19.2221    7824.7561    7239.5857     7579.123    8481.7207    417.84643   -149.92893   -1451.6517   -3896.5429 
23760000    141.86075    -5076.475    -4792.736    -5076.475            0    6532.6271    17.928496    22.671326    19.273969    7834.1507    5594.5306    7266.9795    6736.3712   -131.07736    563.58786    1212.6616   -4046.3634 
23761000     150.6331    -5108.687   -4807.4022    -5108.687            0    6306.2147    17.862803    22.731487    19.305771    7839.0706      6999.12    6441.1795    5478.3445     1146.038     665.6738    467.23481   -4086.4454 
23762000     148.3325   -5072.9562   -4776.2729   -5072.9562            0    7879.3564    17.830363      22.8122    19.208166    7812.9174    8245.5352    7920.3935    7472.1404   -295.05979     902.5925   -428.36342   -3878.4723 
23763000    146.90552   -5080.6574   -4786.8282   -5080.6574            0     6154.456    18.028992    22.555403    19.340898    7864.9993    4286.9305    7741.7067    6434.7308    935.03407    1397.1185    1013.8906   -4080.8939 
23764000    143.93629   -5092.7421   -4804.8517   -5092.7421            0    7391.6976    17.876371      22.7479    19.185354    7801.7223    7722.0431    7333.9197    7119.1301    1085.7108    428.81677    206.88035   -3963.8235 
23765000    142.35919   -5084.8937   -4800.1577   -5084.8937            0    7802.3326    17.813396    22.879303    19.133316    7797.9377    8117.5172    7702.9332    7586.5472   -767.89853    405.43308   -773.52734    -3912.838 
23766000    141.39236    -5073.303   -4790.5008    -5073.303            0    8937.5165    17.948459    22.612686    19.153074    7773.5213    9521.0888    7703.6654    9587.7955   -112.84632   -987.65339   -500.58312    -3777.265 
23767000    144.34878   -5089.4575   -4800.7421   -5089.4575            0    7169.8088    17.934468    22.756632    19.148616    7815.0881    6868.9861    6406.7741    8233.6663   -1858.5244    30.294036    -736.4614   -3983.5628 
23768000    141.24993   -5100.3218   -4817.8045   -5100.3218            0    6075.8123    17.897397    22.927809    19.050094    7817.1694    5462.6347    5845.8421    6918.9602    352.54567   -140.00497    804.71622   -4125.1291 
23769000    141.44236   -5085.3825   -4802.4803   -5085.3825            0    7329.0514    18.049789    22.629783     19.14434    7819.7508    5034.9925     8702.784    8249.3776    1184.5421    252.44401   -100.45199    -3966.653 
23770000    149.13979   -5107.2093   -4808.9113   -5107.2093            0    5358.6891    17.937541    22.841085    19.192438    7863.3898    5616.2615     5271.853    5187.9528    629.35803    1017.6364    184.72412   -4194.3797 
23771000    143.64511   -5106.6944   -4819.3864   -5106.6944            0    5934.2142    17.796952    22.872955    19.260918    7840.5202    6890.5223    5610.9045    5301.2159   -96.786454   -875.39871   -371.82703   -4140.8331 
23772000    142.73491   -5082.3958   -4796.9083   -5082.3958            0    8003.4993    17.902394    22.598009    19.241634    7784.3661    6737.9875    9155.7576    8116.7528   -435.91387   -441.44848   -790.60211   -3888.2951 
23773000    137.49803   -5091.3764   -4816.3634   -5091.3764            0    7432.6347    17.774862    22.809982    19.229739    7796.5877    8572.3167    7356.2946    6369.2928   -705.42691   -1121.9425   -603.44817   -3971.2339 
23774000    149.98107   -5076.2784   -4776.2977   -5076.2784            0     7496.962     17.81001    22.726109    19.300478    7811.9117    7721.3111    7342.2609    7427.3139   -486.55928    44.751529   -767.97203   -3922.1784 
23775000    152.35587   -5089.4655    -4784.735   -5089.4655            0    7791.2603    17.869615    22.765234    19.222981    7820.0233    8010.7008    7723.7812    7639.2988   -910.18754    977.01928   -282.22436    -3896.165 
23776000    151.69136   -5092.6354   -4789.2339   -5092.6354            0    7162.3614    17.952262    22.709052    19.165112     7813.211    6967.0726    6677.0662    7842.9455   -62.579499   -293.76727   -1504.2575   -3973.0996 
23777000    148.23643   -5082.8593   -4786.3681   -5082.8593            0    6670.6627    18.009675    22.732916    19.168662    7847.8885    6088.7879    6678.8548    7244.3454     914.7298    233.73407    555.32561    -4022.888 
23778000     143.4117   -5097.6161    -4810.775   -5097.6161            0    7133.5742    17.917839    22.850741    19.103988    7821.8585    7702.4248    6328.3543    7369.9434    -276.6823    492.83195    548.29451   -3997.0212 
23779000    150.89935   -5101.9941   -4800.1767   -5101.9941            0    6525.0424     17.95258    22.488395    19.382956    7825.3782    6433.1507     7526.888    5615.0887    796.40881   -717.71498    32.794557   -4055.5055 
23780000    148.73311   -5081.4844   -4783.9998   -5081.4844            0    8206.3398    17.681961    22.831563    19.286558    7786.1145    9154.4824    8334.3833    7130.1537    88.637217    1228.3572    126.34956   -3852.1495 
23781000    145.88675   -5071.9533   -4780.1618   -5071.9533            0    6418.4219    18.006338    22.689353    19.162022    7828.6853    5213.0853    6227.4853    7814.6952    847.62657   -786.91574    544.56632   -4047.3491 
23782000    148.10774   -5091.9795   -4795.7457   -5091.9795            0    6394.7933    18.009884    22.660517    19.243302    7853.4475    6136.3216    6671.5862     6376.472    -889.6286   -651.25837    82.776226   -4063.3214 
23783000    144.70165   -5091.0769   -4801.6558   -5091.0769            0    6077.9911    17.803725    23.000782    19.143977    7839.4512     5774.118     5221.504    7238.3512    332.51362   -364.19993   -494.07989   -4106.7569 
23784000    136.87175   -5088.7845   -4815.0241   -5088.7845            0    7902.2977    18.013241    22.495465    19.280682    7812.8455    7059.0932    8550.2468    8097.5531   -1239.4301     1191.668   -1381.3242   -3914.6178 
23785000     143.4808   -5104.8697   -4817.8903   -5104.8697            0    7333.3159     17.92736    22.781538    19.113718     7806.288    6874.3693     7643.155    7482.4233   -873.49448    526.96716    682.08854   -3983.0165 
23786000    141.32664    -5100.472   -4817.8013    -5100.472            0    6369.6759    17.927952    22.764607    19.224875    7846.1092    7450.4369    5875.9128    5782.6781   -912.21282    -311.2938   -604.19043   -4088.9355 
23787000    146.89453   -5093.6508   -4799.8436   -5093.6508            0    6639.2103    17.873143     22.78047    19.213843    7823.0814    6852.0382    6432.7902    6632.8024     946.1507    3.6870587    86.692954   -4042.3653 
23788000    144.87545   -5086.9697   -4797.2009   -5086.9697            0    9178.9912    17.786929    22.705637    19.201076    7754.6146    8550.3836    9190.7098    9795.8802   -311.25415   -1407.7144   -1248.3957   -3759.1204 
23789000    145.09113    -5092.763   -4802.5628    -5092.763            0    7458.1422    17.835862    22.748335    19.239001    7805.9589    7847.6185    6468.8983    8057.9098    281.62697   -917.99127   -750.00547   -3953.5137 
23790000    143.25952   -5086.1643   -4799.6276   -5086.1643            0    6746.9165    18.030722    22.899049    18.978495    7835.9623    6249.4841    7076.1305    6915.1349    798.99314    1901.8738    754.19735   -4028.5935 
23791000    145.59648   -5091.3978   -4800.1868   -5091.3978            0    7406.4594    17.892526    22.771755    19.177481    7813.7534    7148.5308    7473.9376    7596.9097    672.02166    48.143741   -998.14331   -3956.1795 
23792000    143.99009   -5086.1994   -4798.2014   -5086.1994            0    8243.7892    17.884292     22.63782    19.227859    7784.6174    7784.9985     8401.128     8545.241    191.93373   -321.64203    588.16728   -3862.2786 
23793000    149.46376   -5088.3375   -4789.3915   -5088.3375            0    7338.4486    17.831531    22.817532    19.231823    7824.8814    8203.3068    7383.3306    6428.7085    1217.1924    532.49547    1123.4875   -3951.9434 
23794000     144.6381   -5109.3141     -4820.02   -5109.3141            0    6060.3959    17.894324    22.716072    19.258428    7828.3342     6465.579    6549.0837    5166.5249    35.865525   -79.614749    331.21322   -4128.1154 
23795000    142.48572   -5105.6248   -4820.6357   -5105.6248            0    6616.6058    17.981369    22.691712    19.158439    7817.1803    5411.9779    6535.7692    7902.0702   -317.71109    125.43859    725.47481   -4066.3059 
23796000    144.42133   -5102.0937   -4813.2332   -5102.0937            0    6582.2948    17.819325    22.942077    19.123134    7817.7729    5478.7943    6791.7998    7476.2902   -276.99974    234.33724     -2045.23   -4062.7581 
23797000    150.02523    -5100.473    -4800.404    -5100.473            0    8036.5171    17.962187    22.734967    19.093905    7797.3727    6969.0197    8405.0017    8735.5299   -1493.3773    265.93191   -533.15292    -3886.518 
23798000    143.85577   -5099.4231   -4811.6938   -5099.4231            0    7244.0377    17.928269    22.700583    19.171861    7802.6056    7103.2558    7525.4428    7103.4146    1445.9095   -868.43995    333.75878    -3987.373 
23799000    151.71154   -5099.4633   -4796.0215   -5099.4633            0     5523.626    17.883419    22.924876    19.154569    7852.8977    5551.0654      5356.85    5662.9626      325.482   -46.040028     449.7896   -4163.4202 
23800000    139.00347   -5094.7901    -4816.766   -5094.7901            0    6869.3187    17.961494    22.736526     19.17503    7830.7368    6111.0804    7167.4572    7329.4185   -229.53188    202.33712    1353.4027   -4032.2674 
23801000    153.38027   -5074.8054   -4768.0259   -5074.8054            0    6698.7675    17.957021    22.763542    19.186401    7842.7368    7080.3207    5918.6495    7097.3322   -360.67905   -532.41391    432.73632   -4001.8325 
23802000    138.38492   -5085.4544   -4808.6674   -5085.4544            0    8716.9666    17.925372    22.605831    19.197134    7779.0226    8018.9454    8842.3879    9289.5666    1740.6283    41.488335   -676.90036   -3819.7357 
23803000    139.77382   -5105.8855   -4826.3206   -5105.8855            0    6456.1503      17.8484    22.776695    19.202281    7806.2566    5317.8671     7096.963    6953.6208    517.16016     330.4548    433.99671   -4091.3121 
23804000    152.19425   -5085.6997   -4781.2924   -5085.6997            0    7186.7673     17.91558    22.799532    19.132965    7815.1823       6268.9    6606.4461    8684.9559    427.99137   -706.70957    393.46225   -3962.1704 
23805000    142.23489   -5072.6355   -4788.1481   -5072.6355            0    8590.5234    17.818061    22.738414    19.197147    7777.8092    8542.1882    8677.4937    8551.8882    148.24094   -432.84189   -1010.4026   -3813.7133 
23806000    150.08462   -5080.0049   -4779.8171   -5080.0049            0    7006.2994    17.874909     22.84365    19.208868    7843.5216    6995.6772    6968.3783    7054.8427   -1307.5331    705.90047    73.205925   -3978.3685 
23807000    140.35379    -5108.682    -4827.957    -5108.682            0    6010.7491    17.955989     22.75081    19.216588    7850.2319    6083.0884    6082.7886    5866.3703    1553.2673    357.65914    383.87242   -4139.8009 
23808000    142.68065   -5089.4215   -4804.0426   -5089.4215            0    5440.4506    17.859915    22.861801    19.253737    7861.4898    4945.9744    5643.1353    5732.2422   -5.8967497    374.21546     92.42919   -4180.2854 
23809000    141.57207   -5083.4188   -4800.2572   -5083.4188            0    7987.1502    17.894465    22.752633    19.126864    7787.4298    7801.0649    7474.4711    8685.9148    474.62179    702.45956    206.84948   -3893.1431 
23810000    142.04145   -5087.0125    -4802.912   -5087.0125            0    6528.2282    17.965598    22.604767     19.24639    7816.1163    6740.3024    7054.8109    5789.5713    212.40746    6.4195659    154.96409   -4058.7591 
23811000    144.04534   -5074.2131   -4786.1046   -5074.2131            0      6723.92    17.917366    22.899492    19.084279    7830.2526    6848.4283    6898.2629    6425.0688    260.64659    16.500962    2617.5067   -4018.2585 
23812000    154.28464   -5078.6654   -4770.0771   -5078.6654            0    7795.6333    17.921731    22.655071    19.200179    7795.6201    7802.4702    8126.8841    7457.5455    1262.9456   -358.33757   -169.57373   -3883.7828 
23813000    150.04806   -5079.6944   -4779.5798   -5079.6944            0    7380.2892    17.971996    22.714292    19.124797    7807.1469    5621.3415    8294.8405    8224.6856    453.15411   -294.80889   -65.445959   -3939.2657 
23814000    137.70178    -5080.599   -4805.1784    -5080.599            0    7045.6839    17.833356    22.800314    19.235586    7821.3068    6440.4249    7172.9083    7523.7184   -196.33332    400.45242   -27.837149   -4001.5073 
23815000     144.3796   -5104.4712   -4815.6942   -5104.4712            0    7402.9845    17.876467    22.752046    19.241658    7826.0863    7005.6471    6369.9694    8833.3371    257.12433    537.45866    1000.6172   -3970.7513 
23816000    147.84871   -5081.8981   -4786.1824   -5081.8981            0    5965.3686    17.846052    22.776401    19.332996    7858.2606    6874.3094    5022.5533     5999.243    995.93915   -1565.2529    941.23013   -4102.5233 
23817000    141.02852   -5082.0224   -4799.9479   -5082.0224            0    9154.6695    17.717218    23.051964    18.978354    7751.0761    9585.7337    7936.2505    9942.0241    237.00131     86.49174    529.09458   -3765.0904 
23818000    145.29402   -5086.8437   -4796.2377   -5086.8437            0      7848.51    17.969036    22.685106    19.138311    7801.3399    7938.1045    8683.8296    6923.5958     308.4051    708.28058   -40.902988   -3903.2771 
23819000    132.45661   -5087.0457   -4822.1161   -5087.0457            0    6183.7523     17.94098    22.891702    19.078476    7835.5215    6651.5098    5244.8497    6654.8974    910.57433   -1176.0431    167.13796   -4115.4799 
23820000     143.2735   -5091.1576   -4804.5929   -5091.1576            0    6289.1712    18.050932    22.744689    19.143213    7859.4917     6370.682    5586.9259    6909.9055   -883.10217   -316.24192   -109.31733   -4083.7116 
23821000     140.3728   -5079.0079    -4798.245   -5079.0079            0    7490.3743    17.993328    22.717098    19.135761    7821.8612    8148.3895    6807.9896    7514.7438    957.12572     381.4164    3.1558161   -3943.7894 
23822000    155.52051   -5084.9852    -4773.925   -5084.9852            0    8147.1396    17.934703    22.770721    19.127208    7811.2858    7968.4872    8454.1308    8018.8006   -398.20648    460.04211    369.56305   -3845.8061 
23823000    138.93923   -5098.5313   -4820.6356   -5098.5313            0    8560.0412    17.889719      22.6328    19.241197    7790.6538    8236.0359    8980.4935    8463.5942   -700.17719    1345.7373    1196.3563   -3848.0549 
23824000     141.9534   -5105.1514    -4821.227   -5105.1514            0    7424.1502    17.685407    22.990652     19.15641     7788.978    8585.4349    6926.8544    6760.1614   -484.50348    226.40886   -769.81772   -3977.8862 
23825000    150.20783    -5107.587   -4807.1528    -5107.587            0    7012.3928     17.90546    22.589488    19.291525    7802.9427    6213.7024    7116.8264    7706.6497   -315.86141   -399.24949   -479.73227   -4009.1571 
23826000    148.17568   -5094.3002   -4797.9305   -5094.3002            0    6231.8554    17.841117    22.862986    19.236952    7846.7764    6914.8136    5925.6792    5855.0733   -535.89114   -433.77803    501.83019   -4084.7745 
23827000    140.67186   -5111.1639   -4829.8028   -5111.1639            0     5583.287    17.861364    22.950076    19.095015    7827.4219    6782.7409    4582.5395    5384.5805    623.55677   -474.79941   -310.21309   -4192.4431 
23828000    155.12522   -5091.7047   -4781.4351   -5091.7047            0    6119.2256     18.01468    22.604765    19.292627    7856.2974     5868.546    6586.1331    5902.9977    506.67734     530.1662      773.224   -4080.3185 
23829000    141.31311   -5094.7206   -4812.0769   -5094.7206            0    7721.5423    17.830074     22.89355    19.113311     7801.933    9156.8984    7178.5712    6829.1573   -630.82754    101.30592   -2282.7751   -3933.4952 
23830000    154.50106   -5097.6126   -4788.5914   -5097.6126            0     6290.991    18.027263    22.653731    19.253053    7862.6537    5009.7385    6605.7475    7257.4871   -1225.4619    521.31195    -1036.189   -4067.2114 
23831000    145.71173   -5087.7808   -4796.3393   -5087.7808            0    7267.7542    17.885182    22.781233    19.206475    7825.6113     7178.573    7982.1215    6642.5679   -822.95524    637.98788   -1231.3894   -3966.8813 
23832000    139.71024    -5098.879   -4819.4412    -5098.879            0    7034.5146    17.911784    22.748674    19.221325     7832.101    5959.9951    6992.6256     8150.923    49.178425   -1020.5802   -1152.9281   -4015.9367 
23833000     149.7749   -5097.8299   -4798.2617   -5097.8299            0    5645.0793    17.911318    22.800241    19.279313    7873.3319    6753.7454    5421.4805    4760.0119   -444.75335   -348.42355    234.46825   -4150.0684 
23834000    149.94721   -5080.4726   -4780.5597   -5080.4726            0    7915.3186    17.922586    22.794243    19.070893    7791.0658    7286.0123    8061.9025    8398.0411    490.95042   -817.64788    489.94846    -3881.184 
23835000    143.12913   -5088.7181   -4802.4422   -5088.7181            0    10061.415    17.937551     22.69614    18.993606    7732.5474    8286.6144    10754.876    11142.756   -609.26497    1378.5485   -819.13945   -3667.8036 
23836000    138.64571   -5085.5115   -4808.2029   -5085.5115            0    6870.7727     18.00495    22.714565    19.155742    7834.2123    6513.9741    7454.5259    6643.8181   -647.73354   -250.68999   -908.36472     -4023.19 
23837000    141.31316   -5089.0341   -4806.3903   -5089.0341            0    7518.3353    17.710391    22.960443    19.168048    7794.4646    9576.4934    6725.3726    6253.1399   -97.064379   -577.58045    -5.098349    -3951.749 
23838000    138.52808   -5084.2198   -4807.1465   -5084.2198            0    5729.7553     17.95106    22.632555    19.387889    7876.8792    5464.6621    5431.1046    6293.4992     413.4654   -276.88942    538.13742    -4148.934 
23839000    139.07322   -5112.5988   -4834.4352   -5112.5988            0    6287.2301    17.800837    22.826821    19.264393    7827.8262    6372.2066    6729.9042    5759.5796    587.86177     971.9309   -742.85225   -4116.6799 
23840000    142.95406   -5098.4026   -4812.4768   -5098.4026            0    7295.7293    17.943084    22.759335    19.171802    7829.2397    6201.7983    7886.3654    7799.0243     290.9683     1873.907   -911.09939     -3979.44 
23841000    140.78833   -5092.0749   -4810.4808   -5092.0749            0    7783.6256    17.876363    22.718805    19.144606    7775.1915    7857.7741    7633.4294    7859.6734    456.99638    696.68331    1217.0678   -3927.8707 
23842000    145.94658   -5097.3636   -4805.4524   -5097.3636            0    8168.3633    17.788651    22.756426    19.179155    7763.8391    8440.0104    8085.6488    7979.4307   -358.99799    50.643124    406.69782    -3880.568 
23843000    154.06077   -5095.9868   -4787.8462   -5095.9868            0    6274.5588    17.862626    22.708264    19.284298     7822.275    6149.6391    6236.5745    6437.4627   -310.68982   -1384.3232    77.215733   -4072.0454 
23844000    146.27379   -5090.9629   -4798.3972   -5090.9629            0    7911.2838     17.86337    22.624339    19.263027    7785.0934     9667.009    7259.2301    6807.6123    717.32398   -1134.8856    246.36547   -3900.1691 
23845000    141.50499   -5102.9101   -4819.8827   -5102.9101            0    7741.1007    17.753738    22.903887    19.155466    7789.1801    7800.2576    8074.0788    7348.9657   -318.49167    260.89361    -592.4835   -3940.5153 
23846000    145.79442   -5088.4965   -4796.8897   -5088.4965            0    6557.4129    18.051364    22.688942    19.148394    7842.5379    6262.8718    6427.2754    6982.0915   -1221.6579   -406.56599   -457.17478   -4046.8832 
23847000     144.7098   -5095.4073   -4805.9698   -5095.4073            0    6372.9931    17.739456    22.962543    19.191378    7817.4734     6772.882     6326.431    6019.6662    908.68775    308.90182    207.93105   -4079.3859 
23848000    140.88804   -5088.4117   -4806.6183   -5088.4117            0    6858.6822    17.818006      22.7682    19.291078    7826.0802    7508.7718    6711.1605    6356.1144     581.7449    88.404243    1871.9817   -4023.8001 
23849000    138.76821    -5085.156   -4807.6025    -5085.156            0    6845.9296    17.957951    22.614391    19.266694    7824.3612    7367.5741    7208.4213    5961.7936     549.9879   -531.65464   -995.75521   -4026.4115 
23850000    141.90312   -5091.2063   -4807.3825   -5091.2063            0    6974.0896    17.789974    22.877076    19.159851     7797.726    7468.3304    6934.6715    6519.2669   -129.97355    228.33359   -2045.3263   -4014.2762 
23851000    140.22221   -5103.7992   -4823.3374   -5103.7992            0    7535.1195    17.885086    22.662925    19.223634    7791.8842     8546.638    7552.5436     6506.177   -1050.9177   -513.51648   -433.62432   -3967.0718 
23852000    141.94477   -5088.4025   -4804.4955   -5088.4025            0    6625.6263     17.89052    22.776069    19.234045    7837.4065    6655.8383    6613.2347     6607.806   -487.18059   -663.72492   -934.56612   -4047.1828 
23853000    148.65324   -5087.4373   -4790.1124   -5087.4373            0    6854.4783     17.85885    22.905605    19.080259    7805.1189    6855.5679    6251.8499    7456.0171   -343.09876   -765.51945   -603.73584   -4009.8695 
23854000    144.89824   -5081.8075   -4791.9931   -5081.8075            0    8316.5612    17.947564    22.724393    19.129427    7801.8888    8236.1816    8365.0602    8348.4419    809.76356    254.36758    692.08049   -3845.7136 
23855000    149.09502   -5081.6218   -4783.4133   -5081.6218            0    6582.3355    17.864591    22.833076    19.251274    7852.6633    6146.5483    6773.9198    6826.5385    228.05577    278.39183    274.13101   -4029.5842 
23856000    134.39551   -5079.8326    -4811.025   -5079.8326            0    8700.2241    17.832802    22.583325    19.301061    7772.9997    8770.7124    9428.4954    7901.4645    831.34381    1455.8529    1274.1919   -3824.7569 
23857000    144.36383   -5084.4063   -4795.6608   -5084.4063            0    7852.7482    17.863707    22.839131     19.13957    7808.7825    8515.4667    7244.2484    7798.5296     1177.102   -213.84064    1822.1715   -3901.3656 
23858000    144.83709   -5082.7428   -4793.0508   -5082.7428            0    6856.2722    17.943277    22.822522    19.112586    7826.8111    5365.6795    7662.8571    7540.2799    224.04159    180.79328    571.08956   -4010.4346 
23859000    138.37689   -5089.7778   -4813.0069   -5089.7778            0    7524.3572    17.885426    22.665364    19.224972    7793.4133    8422.6388    7433.2744    6717.1582    837.26719    481.57128   -398.49366   -3957.7965 
23860000    146.91269   -5080.8336   -4786.9901   -5080.8336            0    8271.0175    17.657203    22.885719    19.242836    7775.9873    10592.913    7971.3159    6248.8238   -616.99112   -52.083634    1903.1258    -3849.017 
23861000    153.60902   -5089.8366   -4782.5996   -5089.8366            0    5910.6499    18.057795    22.691784    19.187865    7862.4885    2868.0484    7279.3627    7584.5386   -1145.2141   -220.23514    171.64495   -4104.8471 
23862000    143.46753   -5087.2554   -4800.3026   -5087.2554            0    7451.6094    17.992708    22.719021    19.139692    7823.8601    7567.2542    6928.1023    7859.4719    780.90681   -204.34462    437.32624   -3950.0519 
23863000    149.42651   -5111.6472   -4812.7757   -5111.6472            0    7466.8683    17.912721     22.72781    19.179987    7808.4973    7901.3456    6749.9517    7749.3077   -432.05714   -219.06961    876.60233   -3962.4567 
23864000    141.17102    -5076.371   -4794.0115    -5076.371            0    7233.4636    17.885737    22.612487     19.34369    7823.3812    8581.7638    7190.1167    5928.5101   -742.36253   -197.73774   -1140.6112   -3968.7023 
23865000    141.23328   -5090.9604   -4808.4763   -5090.9604            0    5845.9292    17.914974    22.779505    19.243484    7853.1548    5770.0728     5435.424    6332.2909   -846.84532    42.636467   -243.11607   -4138.9409 
23866000    139.73462   -5096.9362   -4817.4497   -5096.9362            0    7271.7748    17.861085    22.807065    19.136943    7795.6045    5288.4632    8234.9051    8291.9562   -37.582458    355.84238   -1629.3816   -3990.7151 
23867000    137.53132   -5099.4348   -4824.3552   -5099.4348            0    6655.6357    17.956995    22.555982    19.332797    7830.5105    5618.5074    7269.4319    7078.9679   -823.16534    49.367024    987.30604   -4064.2818 
23868000    141.75585   -5098.9162    -4815.387   -5098.9162            0    6580.7887    17.715151    23.054211    19.145941    7819.3716    7569.3902    6089.1315    6083.8445   -568.98021   -167.38957   -818.43457   -4064.9302 
23869000    139.41177   -5100.5608   -4821.7201   -5100.5608            0    6201.6935    18.081866    22.492309    19.305362     7851.547    5974.6976    6623.5697    6006.8131     242.0002      45.3112    387.18261   -4111.5842 
23870000    139.54704   -5086.4099   -4807.2985   -5086.4099            0    6954.9996    17.828725    22.925515      19.1306    7819.3017    6573.8995    6639.2022    7651.8972   -494.42747    102.87411    645.72299   -4014.1748 
23871000    138.64398   -5087.5445   -4810.2394   -5087.5445            0    9428.9938    17.702132    22.803686    19.223913    7760.1914    10465.162    9771.4972    8050.3223   -380.31505    -517.2463    690.35798   -3743.1184 
23872000    142.65553   -5071.6466   -4786.3179   -5071.6466            0     6393.033    17.939852    22.569817    19.358015    7838.0444    6436.4957     6140.494    6602.1092    334.66751    -794.9131    353.54888   -4055.5313 
23873000    140.28487   -5083.1374   -4802.5503   -5083.1374            0    7013.5947    17.808945    22.849258    19.142551    7789.5093    7295.9903    6254.7887    7490.0051   -1.2782184    -768.1379   -1029.0213   -4005.7919 
23874000    145.86592   -5086.4762   -4794.7264   -5086.4762            0    6994.5569    18.047728    22.666585    19.121754     7822.334    5403.6348    7344.5867     8235.449    618.32273    47.239054    -27.62777   -3996.7823 
23875000    140.86952   -5068.8094    -4787.053   -5068.8094            0    7911.0155    17.979533     22.70053    19.161371    7820.6166    7755.7237    7773.4814    8203.8414    -987.8579   -89.980305   -301.93324   -3884.7568 
23876000    142.71753   -5096.4834   -4811.0307   -5096.4834            0    6896.7078    17.854435    22.736089    19.282687    7827.6146     8044.398    6989.4842    5656.2412   -283.71623    340.57638   -119.39989   -4023.7182 
23877000    143.70394   -5102.5727   -4815.1471   -5102.5727            0    5408.0073    17.958989    22.643713    19.309493    7852.3638    5495.5741    4915.4487    5812.9992    423.20233    -515.1662   -169.45969   -4195.8293 
23878000    139.30869   -5094.6752   -4816.0406   -5094.6752            0    7551.3874    17.952024    22.735256    19.131477    7808.3946     6486.622    7505.9713     8661.569    1188.0037   -439.36177    783.87993    -3956.108 
23879000    158.11179   -5092.6573   -4776.4142   -5092.6573            0     6967.866    17.932726    22.691905    19.259293    7837.1398    7461.7441    7298.6376    6143.2164   -478.56253    1008.5308    2052.9962   -3980.0105 
23880000    136.31204   -5095.2807   -4822.6398   -5095.2807            0    7702.3933    17.895105    22.617268    19.262624    7796.3235    7129.9829    8347.1968    7630.0004    218.63655    235.74494   -1008.9881   -3946.8671 
23881000    138.07769   -5105.0491   -4828.8767   -5105.0491            0    5788.2356    17.808404    22.830115    19.246883    7825.1652    6018.2051    5701.7757     5644.726    263.03044    99.359782    317.74565   -4168.3116 
23882000    147.24431   -5080.1526   -4785.6458   -5080.1526            0    7451.9812    17.859008    22.685866    19.246038    7797.4759    8221.5277    7381.8898    6752.5262   -254.27218    89.362661   -589.22747     -3938.22 
23883000    145.52092   -5078.9109   -4787.8511   -5078.9109            0    7897.6301    17.857028    22.708557    19.251953    7806.8081    6583.6588    8172.1932    8937.0383    899.59624   -840.33445   -2368.6139    -3888.672 
23884000    136.62682   -5090.6165   -4817.3459   -5090.6165            0    6754.7464    17.814441    22.930615    19.144802    7820.5767    5454.8023    6402.2385    8407.1984    245.64893   -644.05413     -221.331   -4046.9327 
23885000    141.54535   -5094.9504   -4811.8422   -5094.9504            0    7172.1117    17.991604    22.529321     19.28583    7817.2917    6135.1864    8539.3304    6841.8184   -1009.2843    390.91586   -689.16352   -3994.1699 
23886000    145.76797   -5079.8704   -4788.3165   -5079.8704            0    8707.2017    17.859911    22.628569     19.26851    7787.2568    9386.7394    8778.0081    7956.8577    -864.1382    567.02488    -368.5731    -3799.447 
23887000    136.59296   -5080.3325   -4807.1297   -5080.3325            0     7212.764    17.749915    22.946286    19.141134     7796.081    7010.2818    6704.2606    7923.7498   -235.75774    1549.1885    236.02344    -3987.054 
23888000    138.48742   -5080.5838   -4803.5919   -5080.5838            0    7455.2389    17.992687    22.485619    19.317582    7815.4434     8181.916    7686.8384    6496.9624     89.98494   -260.78196   -1783.8909    -3953.842 
23889000    134.57426   -5084.5999   -4815.4347   -5084.5999            0    8636.3517    17.718548    22.833765    19.211155    7772.4712    8776.3388    8584.1932    8548.5232    538.01921   -10.811008   -1230.7796   -3836.4739 
23890000    145.11203   -5080.1332   -4789.8912   -5080.1332            0    8629.7201    17.915238     22.57198    19.235857     7778.642    8422.4289    8983.0028    8483.7287    293.99354    960.96845    -695.6978   -3810.9054 
23891000    142.32397   -5093.7894   -4809.1238   -5093.7894            0    6210.7538    17.825995    22.736748    19.274708    7812.1383    6719.3725    6125.2889       5787.6    345.94398    741.36877    -315.6738   -4101.5201 
23892000    144.46238    -5093.641   -4804.6983    -5093.641            0    7752.6872    17.759327    22.818459     19.26563    7807.2134    8189.8103    7706.8887    7361.3628    286.55935    90.103659    1021.5913   -3921.9758 
23893000     145.2607   -5100.4479   -4809.9086   -5100.4479            0    7948.8431     17.90249    22.428481    19.375229    7779.6512    7132.5008    9176.6674     7537.361    1414.7683   -134.41529    855.84033   -3908.0469 
23894000     144.4596   -5086.7503   -4797.8132   -5086.7503            0    7362.6569    17.744875    23.006395    19.093435    7794.8113    7233.5868    6169.0342    8685.3496     821.0623   -135.57746     1466.329   -3960.8313 
23895000    145.65784   -5094.3856    -4803.052   -5094.3856            0    7182.0563    17.924614    22.607408    19.267135    7807.6027    6944.4233    7707.3166    6894.4289    1132.2857   -91.966839    1432.5985   -3985.2608 
23896000    139.43925   -5089.1357     -4810.24   -5089.1357            0    7023.4748    17.916763    22.710295    19.272052     7841.701    7076.8237    6326.8662    7666.7345    181.06243    531.01903     706.5301   -4007.0132 
23897000     140.1391   -5104.6228   -4824.3273   -5104.6228            0    6767.1864      17.9045    22.865572    19.141302    7836.3843    6347.7042    6796.6885    7157.1665     1412.922   -118.54191    535.98172   -4050.9352 
23898000    143.88225   -5099.5922   -4811.8099   -5099.5922            0    6764.1993    18.144216    22.543403    19.128869    7824.3269    5250.5016    7282.1492    7759.9471   -111.07766     30.19636    -1484.727   -4039.9486 
23899000    151.71548   -5083.6389   -4780.1892   -5083.6389            0    8340.7223    17.906041    22.817332    19.037337    7778.0482    7603.8346    8272.9824    9145.3497    508.53454   -20.132293    255.69619   -3834.0606 
23900000    138.67908   -5089.5895   -4812.2142   -5089.5895            0    6927.8848    17.972639    22.724461    19.114587    7806.7514    6746.3184    7458.8769    6578.4592    674.31871   -785.80717    1160.3397   -4023.4505 
23901000    150.11952   -5077.2828   -4777.0252   -5077.2828            0    7350.4183    17.877964    22.856251    19.125263    7815.0266     7828.643     6327.825    7894.7869    143.91568    102.01419   -548.75822   -3939.2676 
23902000    143.59415   -5088.3188   -4801.1128   -5088.3188            0    6318.0262    17.910527    22.830782     19.13183     7823.222    6173.4762    5942.1297    6838.4727   -694.89058   -895.56599   -571.76296    -4080.266 
23903000    143.50667   -5081.8229   -4794.7919   -5081.8229            0    7165.6643    17.955053    22.773531    19.176871    7841.4216    7018.0707     5974.979    8503.9431   -1078.0963   -1166.4236   -1137.1934    -3975.333 
23904000    141.21743   -5090.3437   -4807.8914   -5090.3437            0    7730.2322    17.900498    22.734142    19.150889    7793.5013    8442.3673    7418.3363    7329.9929   -141.20822    -728.0006    367.93271   -3929.2715 
23905000    140.50394   -5089.8055   -4808.7803   -5089.8055            0    8080.8612    17.854723    22.719438    19.210755    7792.8287    6912.5945    8383.7502    8946.2389    97.684238    659.63472    1883.2026   -3890.3871 
23906000    143.90021   -5112.6425   -4824.8243   -5112.6425            0    6729.9844    17.888774    22.833805    19.154716    7824.1033    7128.6263    6670.6348    6390.6922   -90.820372    1070.1681   -68.193843   -4056.8892 
23907000    145.65632   -5099.0042   -4807.6736   -5099.0042            0    7141.3303    18.037439    22.508017    19.228379    7806.4715    7386.2724    7549.6125     6488.106   -1665.6972    230.28578   -1348.7832   -3994.6376 
23908000    138.91716   -5099.4337   -4821.5822   -5099.4337            0    7094.2999    17.795627    23.037242     19.05358    7811.2472    8450.4391    6672.5694    6159.8912   -69.066582    427.69518   -797.41435   -4013.4065 
23909000    138.58679   -5097.2917    -4820.101   -5097.2917            0    5873.3505     18.03839    22.694784    19.189692    7855.8252    5512.8095    6395.7577    5711.4842    119.82752   -738.94781    207.09242   -4147.1962 
23910000    153.39344   -5101.4315   -4794.6256   -5101.4315            0    7766.8472      17.8469    22.862606    19.050489    7773.1069    7109.8068    7294.8572    8895.8777     521.6413   -544.62255    1414.7912   -3914.1541 
23911000    137.70232   -5094.0193   -4818.5977   -5094.0193            0    8147.3899    17.884074    22.760055    19.119727    7782.5416    6343.1046    8554.9982    9544.0669    26.123219    62.529522   -41.963947   -3893.8658 
23912000    146.31554   -5088.8424   -4796.1932   -5088.8424            0    8497.9728    18.059087    22.543036    19.092527    7772.6949     7795.677    9354.6013      8343.64    489.32624   -206.27918   -1056.2139   -3832.8904 
23913000    139.14167   -5087.1656   -4808.8651   -5087.1656            0    6236.1552    17.830744    23.040149    19.037605    7821.0857    4430.9619    6227.1457    8050.3581    189.92722    681.30147    81.069279   -4097.5535 
23914000    136.90395   -5082.0933   -4808.2685   -5082.0933            0    7697.7983    17.934876    22.610384    19.239789    7802.0125    7654.6715     7717.146    7721.5774   -117.45224   -2.2425296    1147.8066   -3932.3795 
23915000     141.7179   -5090.6174   -4807.1641   -5090.6174            0    8529.9262    17.885331    22.660505    19.184343    7775.2348    8470.2455    8682.2121    8437.3209    1063.3163   -287.60736    1662.2299   -3839.9232 
23916000    144.59985   -5072.1644   -4782.9469   -5072.1644            0    6398.9401    17.862963    22.954121    19.123592    7841.2202    7484.5735    5823.2152    5889.0316     612.4643   -451.89332   -323.34458   -4051.1887 
23917000    147.51269   -5101.9219   -4806.8783   -5101.9219            0    8425.5162    17.969167     22.55017    19.189788    7775.8513    7146.5557    9595.5122    8534.4808   -175.79694    651.22278    127.23659    -3851.401 
23918000    136.76138   -5063.5773   -4790.0377   -5063.5773            0    7891.3912    17.807701    22.788344    19.227395    7802.6311    9340.2267    7786.4001    6547.5469   -36.165922   -299.50698   -216.06811   -3892.0497 
23919000    152.16713   -5086.9176   -4782.5645   -5086.9176            0    7668.6386    17.976563    22.534175    19.305127    7820.2562     6792.731    8462.9742    7750.2105   -488.10787    455.54933   -1421.4162   -3907.9531 
23920000     142.3676   -5085.3225   -4800.5697   -5085.3225            0    8494.2454    17.951776     22.53856    19.238851    7784.1775    7219.8095    9424.2437    8838.6828   -1714.6534   -251.74873   -333.96909   -3836.2669 
23921000    138.05821   -5070.6544   -4794.5209   -5070.6544            0    7963.7866     17.81973    22.866956    19.094792    7780.8025    9664.0564    6672.4596    7554.8439   -788.46976   -245.40117   -1266.4858     -3890.83 
23922000    140.45553   -5094.3345   -4813.4061   -5094.3345            0     7509.295    17.941557    22.582438     19.25774     7802.545    7442.4604    8199.2002    6886.2243    10.785806    49.038212   -1177.8209   -3958.9075 
23923000    137.88132   -5092.4516   -4816.6719   -5092.4516            0    7869.3138    17.920762    22.698573    19.159194     7793.495    6817.6146    8888.8905    7901.4363   -118.02057    262.45254   -368.48433   -3922.2447 
23924000      143.458   -5098.1281   -4811.1944   -5098.1281            0    6909.2676    17.907313    22.917963    19.067131    7825.1341    5933.9144    6841.3259    7952.5624   -15.928616    335.96691   -910.39987    -4022.698 
23925000    145.91959   -5095.7736   -4803.9164   -5095.7736            0    7747.0765    18.060449    22.441975    19.182317    7774.8261    6053.9248    9635.7346    7551.5701   -87.446511    809.42597   -357.50438    -3925.492 
23926000    147.26292    -5106.196    -4811.652    -5106.196            0    6070.2661    17.926872    22.883539    19.106584    7838.0991    6353.7937    5795.6714    6061.3334   -127.80188   -444.65544    873.61295    -4117.756 
23927000    148.28958   -5086.0765    -4789.479   -5086.0765            0    7798.9396    17.836662    22.724192    19.235531    7796.6171    8744.3388    7833.1988    6819.2812   -194.44187    1238.6128   -1981.8495   -3902.6954 
23928000    143.03728   -5088.7528   -4802.6606   -5088.7528            0      7390.17    17.974141    22.601741    19.258531    7823.7178    7826.6203    7093.9593    7249.9304   -1081.6858    -366.4983    680.10019   -3959.4355 
23929000    148.21581   -5087.6217   -4791.1718   -5087.6217            0    7427.8842     17.78188    22.966378    19.093406    7797.4678    7273.5073    7023.0494    7987.0958    703.23174    144.53781    101.73044   -3946.4871 
23930000    140.43161   -5081.7745   -4800.8939   -5081.7745            0    6394.6334    17.843916    22.763141    19.311749    7844.1152    5101.6722    7118.0858     6964.142   -32.858872    171.72236    679.46439   -4069.3583 
23931000     145.0653   -5101.0469   -4810.8984   -5101.0469            0    8190.9823    17.843813    22.781899    19.152104    7785.6357    8965.5327    7010.6571    8596.7571    276.49074   -1201.4778   -230.95723   -3880.8491 
23932000    147.77166   -5091.8974   -4796.3359   -5091.8974            0    7507.8743    17.927447    22.792265    19.092726    7801.4238    7401.2672    7314.9987    7807.3569    865.42063   -1126.2093    158.06193   -3942.1217 
23933000    145.41792   -5107.1184   -4816.2646   -5107.1184            0    6984.8733    17.924125    22.750185    19.132981     7801.993     5994.481    7167.2174    7792.9214    863.37314   -390.00091    -1055.455   -4021.4973 
23934000     135.9858   -5093.4121   -4821.4236   -5093.4121            0    7627.2482     17.87727     22.71134    19.221444    7804.2283    8626.6606    7580.7758    6674.3081   -612.98636    480.35224    902.02833   -3953.3157 
23935000    150.81613   -5096.2428   -4794.5919   -5096.2428            0    6707.6999     17.87841    22.821377    19.218086    7841.1701    7117.8995    6870.8998    6134.3004   -503.70049    1206.8513   -748.73842   -4027.5301 
23936000    145.01866   -5086.7604   -4796.7052   -5086.7604            0    7479.6665    18.064485    22.724478    19.050102     7820.181    6671.1716    6904.7026    8863.1254    517.95291    -1035.947   -1010.3329   -3943.6543 
23937000    138.80073   -5084.8059   -4807.1873   -5084.8059            0    8388.2761    17.996754    22.742477    19.017334     7783.619    6582.2651     8769.157    9813.4061   -235.50702    733.25581    74.417304   -3854.9829 
23938000    144.91328   -5080.4473   -4790.6028   -5080.4473            0    7388.2917    17.895568    22.675099    19.231042    7803.6447     8055.076    7720.6027    6389.1964    931.37485    71.641207   -1717.7346    -3949.755 
23939000    144.14135   -5103.9146   -4815.6141   -5103.9146            0    9163.3964     17.81841     22.70337     19.16866    7754.4505    8121.3155    9684.2181    9684.6556   -304.75202    579.86483   -1599.9672   -3779.3191 
23940000    155.94749   -5087.5447   -4775.6304   -5087.5447            0    8629.1103     17.96592    22.724287    19.078362    7788.9839    9022.0855    7168.6367    9696.6088   -630.48108    292.24308    1051.5653   -3795.4123 
23941000    148.10773   -5093.8581   -4797.6244   -5093.8581            0    6654.1115    17.931158    22.718119    19.197726    7820.4275    5754.7351     6392.278    7815.3215    1047.3022   -443.15584   -799.35051   -4038.7036 
23942000    147.03892   -5090.6362   -4796.5403   -5090.6362            0    7306.7802    17.741787    22.865739    19.270209    7817.5205    7880.2395    6881.5397    7158.5614   -334.33148     719.4883   -240.79656   -3963.4905 
23943000    140.01718   -5090.1623   -4810.1106   -5090.1623            0    6341.8717    17.895151    22.724259    19.253846    7829.6546    6531.7665    6364.6835    6129.1651   -694.27668    63.313078   -413.28661   -4085.9483 
23944000    149.84943   -5094.3579   -4794.6406   -5094.3579            0    8211.0166    17.829398    22.749058    19.140576    7763.4556     9701.172    7362.2561    7569.6218   -678.48338   -1280.8791   -1784.8626   -3864.9725 
23945000    142.37973    -5085.315    -4800.538    -5085.315            0    6679.2705    17.916536    22.913164    19.028225    7811.5534    6134.4014    6923.1985    6980.2118     207.4831    1546.6898   -657.76663   -4039.6121 
23946000    142.72147   -5099.7208   -4814.2602   -5099.7208            0    6389.2752    17.995732    22.672297    19.223304     7843.196    4557.7418    7245.0291    7365.0548   -1553.3592    143.17656    721.37728   -4083.4232 
23947000     141.4427   -5083.7199    -4800.817   -5083.7199            0    7320.4385    17.801035    22.803699    19.212363     7798.864    6528.0612     7941.494    7491.7605    1404.1171   -404.79024   -348.09253   -3968.2018 
23948000    142.40824   -5090.6842   -4805.8502   -5090.6842            0    7009.0393     17.88109    22.763148    19.213452    7820.4496    7777.6086    7423.0787    5826.4307    113.71017    33.070226   -195.70594   -4006.4465 
23949000    151.62759   -5097.5156   -4794.2416   -5097.5156            0    6022.7437    18.004542    22.710164     19.17257    7839.3972    6891.7874    5424.6204    5751.8234    166.76182   -687.41268    584.08803    -4105.664 
23950000     140.1501   -5090.4248   -4810.1073   -5090.4248            0    6899.0063    17.856404    22.824502    19.236893    7840.2557    7233.1315    5982.7046    7481.1828   -982.74175    201.19272    -3618.687   -4021.2605 
23951000    145.69497   -5097.3109    -4805.903   -5097.3109            0    6448.5364    17.851276    22.756477    19.291559    7836.8515    7727.7741    5870.8729    5746.9623   -958.71086    684.82866     1214.854    -4068.884 
23952000    140.50738   -5083.4599   -4802.4278   -5083.4599            0    8896.9716    17.878488     22.72752    19.162706    7786.4531    9688.6923    8995.6947    8006.5277     457.8214    594.13128   -737.65471   -3792.1106 
23953000    137.63091   -5095.4127   -4820.1339   -5095.4127            0    7064.5754    17.980761    22.782763    19.046312    7802.3487    7242.2063    6728.1047    7223.4153      161.813   -361.88459   -1224.9929   -4016.2611 
23954000    141.94482   -5105.4903   -4821.5832   -5105.4903            0    8017.8356     17.93074    22.696624    19.143734    7790.8731    7928.2676    7896.5317    8228.7076    426.85687    131.34569   -7.6182301   -3910.5815 
23955000     144.1491   -5110.0646   -4821.7486   -5110.0646            0    6092.4276    18.023577    22.597319    19.227483    7831.0563     4248.499     6740.559    7288.2247    423.22435    199.54095   -596.60364   -4125.9451 
23956000    143.89222   -5101.2403   -4813.4381   -5101.2403            0    7400.2922    17.796258    22.752016    19.273206    7803.7354    7948.5908    7221.5392    7030.7466    184.27399   -20.853596    -292.7535   -3971.2147 
23957000    144.15543   -5095.9175   -4807.5888   -5095.9175            0    5698.7586    17.817204    22.789229    19.315501    7842.8725     6491.597    5334.1576    5270.5212   -1157.0927    -335.0937   -36.648527   -4155.7634 
23958000    144.41233   -5077.2182   -4788.3757   -5077.2182            0    7226.1527    17.917202    22.707556    19.165426     7797.566    6707.7981    6997.9951     7972.665    325.19542    775.82194    812.15953   -3966.6212 
23959000     152.7996   -5108.2095   -4802.5914   -5108.2095            0    7075.1069    17.850705      22.7684    19.180964    7795.7576    6887.8493    7685.4596    6652.0117   -825.34622   -278.10543   -860.70891   -3998.2004 
23960000    150.71288    -5097.417   -4795.9727    -5097.417            0    6769.2682    17.844454    22.792094    19.222244    7817.9262     6165.195    6898.8943    7243.7152   -370.13706    300.73865   -846.63513   -4024.1648 
23961000    150.66283   -5101.1482    -4799.804   -5101.1482            0    7468.6024    17.907037    22.639105     19.26692    7810.7956    7647.9166    6844.0286    7913.8621   -809.01452   -738.67914    -1083.812   -3949.0372 
23962000    140.21888   -5080.2884   -4799.8333   -5080.2884            0    8785.5929    17.869929    22.652745    19.201579    7772.8555    10921.893    8614.1908    6820.6952   -189.50024    861.86104   -639.64532   -3803.9062 
23963000    142.45938   -5093.3326   -4808.3962   -5093.3326            0    6173.1476    17.852397    22.823437    19.198349    7822.4265    6644.9392    6259.2303    5615.2732   -257.08711    -1026.127   -14.234836   -4104.1508 
23964000    138.13054   -5087.1297   -4810.8515   -5087.1297            0    5982.4618     17.88111    22.952354    19.123068    7848.3667    4761.5891    5410.7824     7775.014   -176.62469   -16.853566    625.49219   -4126.0967 
23965000    135.31185   -5105.3134    -4834.673   -5105.3134            0    5966.4412    17.945844    22.533985    19.401733    7845.8935    6535.1654    6708.9312    4655.2271   -895.67396   -513.35565   -1504.6413    -4151.967 
23966000    148.14793   -5098.8061    -4802.492   -5098.8061            0    7546.5169     17.69016    22.981731     19.16259    7790.5606    7502.8812    7776.2921    7360.3774   -61.539836   -26.938421   -1092.9655   -3945.0768 
23967000    140.08767    -5101.587   -4821.3943    -5101.587            0    8518.6952    17.919276    22.581784    19.214578    7775.1639    8145.7382    9481.4831    7928.8644   -1786.0007   -304.16283     -899.563   -3855.4357 
23968000     148.4216   -5089.2102   -4792.3486   -5089.2102            0    7000.1742    17.815563    22.991031    19.069602    7810.8741     6309.014    6688.3157    8003.1929     872.0739    1529.5656    126.83195   -3994.9337 
23969000    146.56287   -5095.7208   -4802.5769   -5095.7208            0    8114.7821    17.893163    22.608637    19.221202    7775.7452    8072.7945    8397.9867     7873.565    729.28198   -119.44372    1025.7848   -3882.3503 
23970000    136.14284   -5088.7347   -4816.4323   -5088.7347            0    8229.2363    17.775914    22.731023    19.226986    7768.9463    7271.0108    8316.4478    9100.2502   -87.933309    358.45483   -1111.4629   -3884.0424 
23971000    141.77375   -5097.0774   -4813.5124   -5097.0774            0    6582.5264    17.855334     22.71808    19.291814    7825.5103    7275.9297    7284.1964    5187.4529   -381.29831     956.1417   -709.72938   -4062.2681 
23972000    136.09593   -5098.7637    -4826.555   -5098.7637            0    8038.2601    17.899712    22.593921    19.277173    7796.1644    7545.4012    8048.8188    8520.5603   -36.130977   -54.114293    385.92591   -3912.6124 
23973000    138.96641   -5102.2037   -4824.2537   -5102.2037            0     6654.466    17.821732     22.90014    19.149199    7815.1744    6388.3394     6541.122    7033.9367     858.8046    -87.82114    1289.7355   -4065.8023 
23974000    145.22835   -5094.2975   -4803.8228   -5094.2975            0    6779.2005    17.928411    22.792733    19.126032    7815.6138    6902.0516    6106.8025    7328.7473    414.90885   -809.81242    1088.4484   -4031.1112 
23975000    138.01515    -5091.951   -4815.9037    -5091.951            0    6305.3449    18.022123    22.679923    19.195347    7845.9132    5902.3065     6434.201    6579.5271     476.9578    291.79318   -61.891077   -4094.4171 
23976000    141.68796   -5089.7141   -4806.3207   -5089.7141            0    7111.9857    17.800513    22.961355    19.115023    7812.7668    8304.3714    7125.1376    5906.4481      1080.87      565.935   -791.94239   -3995.9726 
23977000    156.85523   -5081.8301   -4768.1003   -5081.8301            0    6872.4045    18.082195    22.566356     19.16837    7821.6389    7875.9594    5595.2169    7146.0372     -1778.02   -708.65099   -101.04603   -3984.1611 
23978000    141.93702   -5077.6059   -4793.7143   -5077.6059            0    7576.8832    18.030872    22.774373    19.068632    7830.3772    5834.5602    7722.8265    9173.2627    904.03938    788.25193   -507.78186   -3928.4493 
23979000    147.88423   -5083.5951   -4787.8084   -5083.5951            0    8759.3787    17.836363    22.793945    19.106475     7767.949    8991.2453     8622.188    8664.7027   -460.03006   -163.98991     208.6589   -3795.4797 
23980000    147.96538   -5081.4922   -4785.5431   -5081.4922            0    4957.0349    17.972917    22.630302     19.40295     7891.811     5275.066    4989.0711    4606.9676    1592.7913    246.60658    1075.7352   -4215.0183 
23981000    146.44581   -5079.3046   -4786.3949   -5079.3046            0      7414.14    17.707349    22.872624    19.275342    7806.7745    9396.1509    6803.9457    6042.3235    678.50407   -426.98067    847.67184   -3942.2669 
23982000    142.38393   -5090.7633   -4805.9779   -5090.7633            0    7359.1509    17.916709    22.691034    19.213824    7811.3545    6874.0302    7533.0245     7670.398    872.45485    148.40796    586.48053    -3967.619 
23983000    145.68271   -5107.4438   -4816.0603   -5107.4438            0     6128.351    17.919388    22.659202    19.286197     7830.949    5044.6492    7244.3457    6096.0581    875.17713    -103.7743    3461.1287   -4116.1637 
23984000    147.68597   -5084.8056   -4789.4154   -5084.8056            0    6908.3316    17.773081    22.997056    19.105001    7808.7593    6765.6924    6117.4775    7841.8249    1454.2938    217.17708    198.86681   -4002.6756 
23985000    143.92042   -5107.8025   -4819.9439   -5107.8025            0    7227.2018    18.000112    22.489425    19.285031    7806.8157    7745.2898    7698.2055    6238.1099   -1170.4609    -1245.571   -295.79689   -3997.0952 
23986000     143.3129   -5092.7699   -4806.1264   -5092.7699            0    7889.3218    17.740119    23.005197    19.059645    7778.5257    7188.0787    8108.3396    8371.5472   -273.23303    449.46098   -466.10575   -3911.1474 
23987000    142.68251   -5090.8515   -4805.4688   -5090.8515            0    8619.5574    17.819108    22.523212    19.318475     7753.345    7363.4174    9788.0774    8707.1776    351.81258    408.60192    125.93022   -3830.8159 
23988000    148.70643   -5088.3313      -4790.9   -5088.3313            0    7728.4465    17.803566    22.695299    19.314683    7804.2375    8972.1368    7476.2593    6736.9432   -163.82093   -510.98842   -111.13972    -3911.273 
23989000    147.78921   -5094.7644   -4799.1677   -5094.7644            0    7236.1226    17.774137    22.816642    19.232679    7799.7385    7030.9318    7576.6666    7100.7693    625.38162   -16.715027    259.15933   -3976.0502 
23990000     148.8187   -5090.2069   -4792.5511   -5090.2069            0    8228.8574    17.917004     22.58755     19.25204    7791.3239    7553.3749    9311.9706    7821.2267    42.300728    104.90505   -243.07923   -3857.5187 
23991000    141.58513   -5097.2018   -4814.0141   -5097.2018            0    6898.0053    17.709208    22.825791    19.295132    7799.6072    9621.2427      6609.71    4463.0631   -183.55895   -252.29539   -830.86287    -4029.371 
23992000    143.94331   -5093.4639   -4805.5595   -5093.4639            0    8530.5782    17.835417    22.738843    19.124259    7755.9725    8036.3634    8641.9451     8913.426   -672.51544    886.42519   -805.37205    -3840.641 
23993000    143.29939   -5076.3234   -4789.7069   -5076.3234            0    7109.4643    18.104606    22.472958    19.219875    7819.8762    6419.1553    8263.9551    6645.2825    797.67036    1033.0374   -556.52294    -3978.909 
23994000    148.71004   -5085.6584   -4788.2199   -5085.6584            0    8040.1645    17.804933    23.012409    18.992324    7781.8088    8603.6596    7144.5046    8372.3294    1827.1472    752.32525    2573.1627   -3875.7441 
23995000    153.22759   -5090.9223   -4784.4482   -5090.9223            0     6537.107    17.977674    22.616914     19.23449     7820.734    6281.5089    7069.3715    6260.4406   -172.89595   -221.70549     -334.839   -4038.8428 
23996000    145.65755   -5097.0488   -4805.7157   -5097.0488            0    6410.7409    17.924292    22.821942    19.136857    7828.2593    5986.3509    6422.6153    6823.2566   -66.967416   -1518.1946     310.2528   -4073.8198 
23997000    141.98697   -5092.3629   -4808.3714   -5092.3629            0    6000.5216    17.801063    22.931936    19.218271    7845.1446    6497.8507    6180.3718    5323.3422   -442.49585   -249.14122    1537.2142   -4121.8314 
23998000    146.06629   -5083.7429   -4791.5923   -5083.7429            0    6746.3125    18.089212    22.426627    19.328814    7841.3135    6083.5647    7542.9394    6612.4335    142.57344   -985.13759   -124.18088   -4020.1007 
23999000    141.72151    -5096.466   -4813.0054    -5096.466            0    6873.7812    17.831434    23.051257     19.01667    7816.5542    5691.3477    6442.1613    8487.8346   -203.15803   -1065.1889    1560.7097   -4029.4189 
24000000    147.37271    -5079.423   -4784.6594    -5079.423            0    7344.4615    17.970221    22.683765    19.201318    7827.0766    6989.4494    7601.6701     7442.265    156.53504    133.96733     1306.448     -3946.29 
Loop time of 510.207 on 64 procs for 250000 steps with 1008 atoms

Performance: 84.672 ns/day, 0.283 hours/ns, 489.997 timesteps/s
195.7% CPU use with 32 MPI tasks x 2 OpenMP threads

MPI task timing breakdown:
Section |  min time  |  avg time  |  max time  |%varavg| %total
---------------------------------------------------------------
Pair    | 36.69      | 41.667     | 49.518     |  41.5 |  8.17
Bond    | 0.91671    | 1.3224     | 1.9242     |  17.5 |  0.26
Kspace  | 246.14     | 253.76     | 264.06     |  31.8 | 49.74
Neigh   | 1.4381     | 1.708      | 1.9902     |  10.7 |  0.33
Comm    | 72.25      | 84.722     | 95.54      |  59.0 | 16.61
Output  | 0.50574    | 0.50659    | 0.52544    |   0.5 |  0.10
Modify  | 91.141     | 97.867     | 119.85     |  83.6 | 19.18
Other   |            | 28.65      |            |       |  5.62

Nlocal:        31.5000 ave          35 max          27 min
Histogram: 1 2 1 3 0 9 7 4 4 1
Nghost:        2939.16 ave        2957 max        2921 min
Histogram: 1 4 1 2 7 5 8 1 1 2
Neighs:        10678.0 ave       11925 max        9199 min
Histogram: 3 0 1 3 8 4 4 4 4 1

Total # of neighbors = 341696
Ave neighs/atom = 338.98413
Ave special neighs/atom = 2.0000000
Neighbor list builds = 3854
Dangerous builds = 0

unfix		3
unfix		2
unfix		1

write_data	data.final.${pid}
write_data	data.final.0
System init for write_data ...
PPPM initialization ...
  extracting TIP4P info from pair style
  using 12-bit tables for long-range coulomb (../kspace.cpp:340)
  G vector (1/distance) = 0.37943678
  grid = 24 27 32
  stencil order = 5
  estimated absolute RMS force accuracy = 0.0024425146
  estimated relative force accuracy = 7.35556e-06
  using double precision FFTW3
  3d grid and FFT values/proc = 5355 672
Last active /omp style is kspace_style pppm/tip4p/omp
WARNING: Not all mixed pair coeffs generated from mixing. Use write_data with 'pair ij' option to store all pair coeffs. (../write_data.cpp:312)

write_restart   restart.lmp.${pid}
write_restart   restart.lmp.0
System init for write_restart ...
PPPM initialization ...
  extracting TIP4P info from pair style
  using 12-bit tables for long-range coulomb (../kspace.cpp:340)
  G vector (1/distance) = 0.37943678
  grid = 24 27 32
  stencil order = 5
  estimated absolute RMS force accuracy = 0.0024425146
  estimated relative force accuracy = 7.35556e-06
  using double precision FFTW3
  3d grid and FFT values/proc = 5355 672
Last active /omp style is kspace_style pppm/tip4p/omp
Total wall time: 0:08:30
