LAMMPS (30 Jul 2021)
  using 1 OpenMP thread(s) per MPI task
package omp 0
using multi-threaded neighbor list subroutines
echo both

include		in.partitions
variable        pid world 0
include		in.temp
variable        temperature equal 245.86
variable	tempDamp equal 100.0
include		in.pressure
variable        pressure equal 4625.0
variable        pressureDamp equal 1000.0 # This is 1 ps
include		in.seed
variable        seed world 745823

units		real
atom_style	full
read_restart	restart.lmp.${pid}
read_restart	restart.lmp.0
Reading restart file ...
  restart file = 30 Jul 2021, LAMMPS = 30 Jul 2021
  restoring atom style full from restart
  orthogonal box = (0.45195183 1.6238708 0.55138018) to (17.755621 22.005307 21.661816)
  4 by 4 by 4 MPI processor grid
  restoring pair style lj/cut/tip4p/long/omp from restart
  restoring bond style harmonic/omp from restart
  restoring angle style harmonic/omp from restart
  864 atoms
  576 bonds
  288 angles
Finding 1-2 1-3 1-4 neighbors ...
  special bond factors lj:    0        0        0       
  special bond factors coul:  0        0        0       
     2 = max # of 1-2 neighbors
     1 = max # of 1-3 neighbors
     1 = max # of 1-4 neighbors
     2 = max # of special neighbors
  special bonds CPU = 0.488 seconds
  read_restart CPU = 0.637 seconds
include 	in.setup
variable	out_freq equal 1000
variable	out_freq2 equal 10000
variable	out_freq3 equal 1000

timestep	2.0

neigh_modify    delay 7 every 1

include		in.tip4p
# This is TIP4P/Ice

# create groups ###
group ox type 2
288 atoms in group ox
group hy type 1
576 atoms in group hy

# set charges - beside manually ###
set group ox charge -1.1794
Setting atom values ...
  288 settings made for charge
set group hy charge 0.5897
Setting atom values ...
  576 settings made for charge

# ### TIP3P Potential Parameters ###
pair_style lj/cut/tip4p/long/omp 2 1 1 1 0.1577 8.5
pair_coeff 1 1*2 0.000 0.000
pair_coeff 2 2 0.21084 3.1668
bond_style  harmonic
bond_coeff  1 450 0.9572
angle_style harmonic
angle_coeff 1 55 104.52
kspace_style pppm/tip4p/omp 1.0e-5
pair_modify tail yes

thermo          ${out_freq}
thermo          1000
thermo_style    custom step temp pe etotal epair emol press lx ly lz vol pxx pyy pzz pxy pxz pyz enthalpy

restart 	${out_freq3} restart.lmp.${pid} restart2.lmp.${pid}
restart 	1000 restart.lmp.${pid} restart2.lmp.${pid}
restart 	1000 restart.lmp.0 restart2.lmp.${pid}
restart 	1000 restart.lmp.0 restart2.lmp.0


include         in.dump
dump            myDump all atom ${out_freq2} dump.water.${pid}
dump            myDump all atom 10000 dump.water.${pid}
dump            myDump all atom 10000 dump.water.0
dump            myDump2 all dcd ${out_freq2} dump.dcd
dump            myDump2 all dcd 10000 dump.dcd
dump_modify     myDump append yes
dump_modify     myDump2 append yes


variable natoms 	equal  "count(all)"                        # NUMBER ATOMS
variable H      	equal  "enthalpy/v_natoms"                 # ENTHALPY-per-atom
variable Vol      	equal  "vol/v_natoms"                 # volume-per-atom
fix AVG all 		ave/time ${out_freq} 1 ${out_freq} v_Vol v_H file vol_enthalpy.dat
fix AVG all 		ave/time 1000 1 ${out_freq} v_Vol v_H file vol_enthalpy.dat
fix AVG all 		ave/time 1000 1 1000 v_Vol v_H file vol_enthalpy.dat


timer           timeout 23:50:00 every 1000
New timer settings: style=normal  mode=nosync  timeout=23:50:00

fix 		1 all shake 1e-6 200 0 b 1 a 1
       0 = # of size 2 clusters
       0 = # of size 3 clusters
       0 = # of size 4 clusters
     288 = # of frozen angles
  find clusters CPU = 0.364 seconds
fix             2 all nph iso ${pressure} ${pressure} ${pressureDamp}
fix             2 all nph iso 4625 ${pressure} ${pressureDamp}
fix             2 all nph iso 4625 4625 ${pressureDamp}
fix             2 all nph iso 4625 4625 1000
fix             3 all temp/csvr ${temperature} ${temperature} ${tempDamp} ${seed}
fix             3 all temp/csvr 245.86 ${temperature} ${tempDamp} ${seed}
fix             3 all temp/csvr 245.86 245.86 ${tempDamp} ${seed}
fix             3 all temp/csvr 245.86 245.86 100 ${seed}
fix             3 all temp/csvr 245.86 245.86 100 745823

run             250000
PPPM initialization ...
  extracting TIP4P info from pair style
  using 12-bit tables for long-range coulomb (../kspace.cpp:340)
  G vector (1/distance) = 0.37424214
  grid = 24 24 25
  stencil order = 5
  estimated absolute RMS force accuracy = 0.0030740418
  estimated relative force accuracy = 9.2573857e-06
  using double precision FFTW3
  3d grid and FFT values/proc = 2730 288
Last active /omp style is kspace_style pppm/tip4p/omp
Neighbor list info ...
  update every 1 steps, delay 7 steps, check yes
  max neighbors/atom: 2000, page size: 100000
  master list distance cutoff = 10.8154
  ghost atom cutoff = 10.8154
  binsize = 5.4077, bins = 4 4 4
  1 neighbor lists, perpetual/occasional/extra = 1 0 0
  (1) pair lj/cut/tip4p/long/omp, perpetual
      attributes: half, newton on, omp
      pair build: half/bin/newton/omp
      stencil: half/bin/3d
      bin: standard
Per MPI rank memory allocation (min/avg/max) = 9.240 | 9.243 | 9.250 Mbytes
Step Temp PotEng TotEng E_pair E_mol Press Lx Ly Lz Volume Pxx Pyy Pzz Pxy Pxz Pyz Enthalpy 
 2500000    248.99768   -3896.8922   -3470.1187   -3896.8922            0    3573.8378    17.303669    20.381436    21.110435    7445.0937    4214.7374    1041.2663    5465.5098    -614.7697   -136.85295   -311.27814   -3082.0748 
 2501000    244.54078   -3924.1438   -3505.0093   -3924.1438            0    5477.3574    17.263884    20.334575    21.061899    7393.8587    5382.4383    5056.8194    5992.8144    1618.3879   -748.27399   -1446.2016   -2914.3757 
 2502000    239.46333   -3907.8188   -3497.3869   -3907.8188            0    3083.9608    17.297947    20.374696    21.103454      7437.71    4260.9092    2952.0876    2038.8854    923.48521    616.06402    216.19151   -3162.8654 
 2503000    246.35181   -3936.2348   -3513.9963   -3936.2348            0    5572.3065    17.291374    20.366954    21.095435    7429.2346    4495.2771         7848    4373.6423    628.57577     1223.759   -134.88973   -2910.2493 
 2504000    229.77198   -3946.0229   -3552.2016   -3946.0229            0    4493.1978    17.313552    20.393077    21.122493    7457.8577    3811.3513    4548.5424    5119.6998    -291.9284   -1149.7009    174.03288    -3063.498 
 2505000    243.48023    -3909.106   -3491.7892    -3909.106            0    4420.8654    17.362827    20.451117    21.182609    7521.7161    3129.1555    4115.3038    6018.1371   -1137.2712    247.82111    219.77819   -3006.8357 
 2506000    257.30089   -3934.9067   -3493.9017   -3934.9067            0    5527.6415    17.305791    20.383936    21.113025    7447.8335    5251.1837     5293.874    6037.8669   -595.14104   -259.49293   -1224.6157   -2893.4948 
 2507000    248.47804   -3935.9207   -3510.0378   -3935.9207            0     4871.998    17.284943     20.35938     21.08759    7420.9492    3273.5236    5367.3213    5975.1491    1140.2314   -376.98575    446.65086   -2982.7564 
 2508000     246.6781   -3899.7399   -3476.9421   -3899.7399            0     5401.534    17.253339    20.322154    21.049033    7380.3175    6156.5178    4377.9121    5670.1723   -1547.9147    406.65981    553.70393   -2895.5514 
 2509000    261.11554   -3904.2784   -3456.7353   -3904.2784            0    7513.4592    17.169858    20.223824    20.947186    7273.7049    7872.0163    5600.8792    9067.4822    1448.0793   -1514.5036   -138.61954   -2659.7111 
 2510000    248.03668   -3879.6564     -3454.53   -3879.6564            0    4451.2947    17.211138    20.272447    20.997548    7326.2944    3104.7896    4472.6219    5776.4725      433.244    1610.3435   -344.82357   -2978.9248 
 2511000    256.05188   -3931.6448   -3492.7806   -3931.6448            0    4223.7986    17.232796    20.297958    21.023971    7353.9869     5058.197    3123.1622    4490.0364   -759.03619    202.09167   -63.957529   -3039.7767 
 2512000    259.28973   -3915.3029   -3470.8892   -3915.3029            0     3433.568    17.350289    20.436348    21.167311     7505.432    3485.7644    4751.1856    2063.7539    80.197293    1059.3092    1014.5125   -3095.0542 
 2513000    247.63118   -3902.0443   -3477.6129   -3902.0443            0    6539.5866    17.215847    20.277994    21.003293    7332.3092    5234.7804    7836.2447    6547.7346   -1086.6934   -668.37748    1097.1777   -2778.3074 
 2514000    242.62402   -3960.0464   -3544.1971   -3960.0464            0    4526.7776    17.232181    20.297233     21.02322    7353.1989     5569.195    4047.4467    3963.6911    542.70618    1679.7882     71.80857   -3058.7506 
 2515000    263.77692   -3961.6123   -3509.5077   -3961.6123            0    5256.7628    17.263519    20.334145    21.061453    7393.3895    3729.0289    7032.4727    5008.7869    115.23051    747.28653    35.678883   -2942.6972 
 2516000    254.76925   -3938.9759   -3502.3101   -3938.9759            0    5492.1863    17.190328    20.247936     20.97216    7299.7518    5949.6678    4540.9857    5985.9055    184.89175   -1249.2998   -1160.7682   -2917.6153 
 2517000    254.82053    -3944.755   -3508.0013    -3944.755            0    5399.0831    17.271307    20.343319    21.070955    7403.4003    5322.8315    5036.4487    5837.9691   -1591.0775    196.41483    137.82007   -2925.0569 
 2518000    234.96649   -3960.5327   -3557.8081   -3960.5327            0    5002.5919     17.25142    20.319894    21.046692    7377.8549    3377.7035    4835.5313    6794.5408     654.7261    -826.9655    104.18698    -3019.537 
 2519000     237.3123   -3934.0077   -3527.2626   -3934.0077            0    3888.7651    17.214549    20.276465     21.00171    7330.6508    4173.0256    3572.8543    3920.4154   -1746.7766   -510.83349    550.26029   -3111.5146 
 2520000    246.88562   -3978.5456   -3555.3921   -3978.5456            0    3453.8081    17.277474    20.350582    21.078478    7411.3328    4997.4542    3250.4204    2113.5498    1754.5868   -568.92335   -173.30849   -3182.0815 
 2521000    237.84992   -3956.5436    -3548.877   -3956.5436            0    5528.7484    17.205091    20.265324    20.990171    7318.5746    6033.1152    4951.5944    5601.5355    351.70138   -230.30173    524.97224   -2958.7721 
 2522000    247.97132   -3944.7654    -3519.751   -3944.7654            0    5027.4311    17.296954    20.373527    21.102244    7436.4301    5587.6086    5881.8258    3612.8589   -491.31285    271.70919   -842.58424   -2974.5125 
 2523000    234.92379   -3963.0653   -3560.4139   -3963.0653            0    5290.8359    17.248327    20.316251    21.042919    7373.8881    5139.4964     6678.931    4054.0803   -827.44109   -688.38319   -495.17136   -2991.4343 
 2524000    255.72772   -3926.9588   -3488.6503   -3926.9588            0    6245.5358    17.283718    20.357937    21.086096    7419.3717     5400.309    6738.2905    6598.0078   -1141.9919    1526.6541   -1212.5963   -2812.8588 
 2525000    251.74511   -3944.7206   -3513.2381   -3944.7206            0    4872.0791    17.216933    20.279273    21.004618    7333.6968    5287.0605    4142.2121    5186.9646   -1369.4987    718.68439    185.67556   -2992.1476 
 2526000    249.94011   -3936.4608    -3508.072   -3936.4608            0    4195.0147     17.27678    20.349765    21.077631    7410.4402    5538.5407    2082.1235    4964.3801   -539.06057    496.61391   -44.430725   -3054.7013 
 2527000    262.82066   -3945.2142   -3494.7485   -3945.2142            0    3865.6564    17.253139    20.321919     21.04879    7380.0614    2973.1115     6193.448    2430.4097    673.93937   -2404.9698   -971.66467   -3078.6855 
 2528000    239.61791   -3960.7494   -3550.0525   -3960.7494            0    3814.3749    17.299185    20.376155    21.104966    7439.3079    2462.8117     4139.428     4840.885    69.256169   -1392.2864   -1366.2892   -3136.2132 
 2529000    252.19391    -3997.805   -3565.5533    -3997.805            0    5219.0845    17.216148    20.278348     21.00366    7332.6938    4751.0804    4477.3985    6428.7745   -268.72504   -811.84368    1132.8751   -3007.4254 
 2530000    256.41743   -3933.4868   -3493.9961   -3933.4868            0    3992.2904    17.233993    20.299367    21.025431    7355.5187    4507.4061    5170.1363    2299.3288   -19.260871    -246.3277    371.16106   -3065.7324 
 2531000    261.31747    -3932.848   -3484.9588    -3932.848            0    3274.1813    17.279601    20.353087    21.081072    7414.0701    1193.8504    4641.6395     3987.054   -815.60057   -205.40789   -549.43043   -3130.9327 
 2532000    243.24808   -3912.1079    -3495.189   -3912.1079            0    4783.8861    17.218357     20.28095    21.006356     7335.517    4856.0747    3889.9788    5605.6047    530.32984   -268.82505   -641.88235   -2983.4041 
 2533000    253.24028   -3943.9861   -3509.9409   -3943.9861            0     5025.371     17.24458    20.311838    21.038348    7369.0836    4489.7792    5787.4848     4798.849    201.62863   -1037.7436   -837.37935   -2969.8617 
 2534000    251.31181   -3977.7275   -3546.9876   -3977.7275            0    4862.5903     17.16165    20.214157    20.937173    7263.2785    6980.1214    4306.6306    3301.0191   -328.91089   -757.85089   -281.04494   -3031.9058 
 2535000     231.9511     -3961.67   -3564.1138     -3961.67            0    4156.9516    17.231029    20.295876    21.021815    7351.7243    3897.9072    3382.6815    5190.2661   -176.13095    1012.1209   -132.80394   -3118.4164 
 2536000    236.16943   -3940.1259   -3535.3396   -3940.1259            0    3573.6304    17.178271    20.233734     20.95745    7284.4025    2485.2713    3645.2414    4590.3785    455.99827     1063.648    600.94469    -3155.693 
 2537000    250.63614   -3931.9333   -3502.3515   -3931.9333            0    4378.4418    17.152572    20.203464    20.926098    7251.7586    4738.7626    3999.5911    4396.9716   -657.54681    304.47514    2474.7016   -3039.2899 
 2538000     250.9287   -3933.2767   -3503.1935   -3933.2767            0    4958.5001    17.166155    20.219464    20.942669    7269.0006    3177.6381    5510.8807    6186.9816    71.377672     529.8938    1066.9065   -2977.5383 
 2539000    254.27145   -3938.2331   -3502.4205   -3938.2331            0    4674.5699    17.213458     20.27518    21.000379    7329.2574    2680.0532    5704.6933    5638.9632    197.64071    929.43007    877.00067   -3002.7571 
 2540000    246.58062   -3939.6916   -3517.0608   -3939.6916            0    5687.8783    17.130806    20.177827    20.899544    7224.1875    7525.9759    3771.0404    5766.6187    1451.2911    324.32354   -1296.2956   -2917.8009 
 2541000    241.02927   -3922.4319    -3509.316   -3922.4319            0    2754.1963    17.341722    20.426258     21.15686    7494.3202    2995.4603      1734.79    3532.3387    -504.5389   -964.88625   -1298.4339   -3208.2907 
 2542000    246.06829   -3940.1528   -3518.4002   -3940.1528            0    5960.5634    17.192089    20.250009    20.974308    7301.9946    6109.5574    5764.4266    6007.7063   -297.50094   -596.57141    1626.7121   -2883.6473 
 2543000    242.43035   -3907.8394   -3492.3221   -3907.8394            0    2142.3143     17.32468    20.406185     21.13607    7472.2482    1187.9763    1350.3708    3888.5959    469.83879    -636.1667    1209.9191   -3258.8632 
 2544000    246.56999   -3910.9593   -3488.3468   -3910.9593            0    4373.1275    17.234383    20.299827    21.025907    7356.0185    3695.6947    4522.2683    4901.4195   -356.63202    594.23162    190.84441   -3019.1978 
 2545000    225.58151   -3936.1859   -3549.5469   -3936.1859            0    3557.1936    17.277957    20.351151    21.079067    7411.9547    1661.7932    4049.3501    4960.4375   -398.71162    74.311671    1124.2876   -3165.0294 
 2546000    248.12177   -3921.7063   -3496.4341   -3921.7063            0    5287.5447    17.318193    20.398544    21.128155    7463.8573    5479.0486    5054.1524     5329.433   -949.11016    -828.0372    992.50696   -2920.8706 
 2547000    239.56245   -3939.7159    -3529.114   -3939.7159            0    4606.9584    17.287841    20.362793    21.091125     7424.682    5167.4638     3596.181    5057.2306    183.44244    438.98903     1115.906   -3030.2663 
 2548000    263.17912   -3973.5411   -3522.4611   -3973.5411            0     5298.849     17.22098    20.284039    21.009555    7338.8693    5391.7911    4959.0199    5545.7361   -718.19974   -1809.4265    860.64536   -2955.3259 
 2549000    255.01461   -3927.1732   -3490.0869   -3927.1732            0     5992.783    17.221179    20.284274    21.009798    7339.1236    6653.5409    5773.4662    5551.3418   -609.05771   -581.76149    509.19764   -2848.6578 
 2550000    246.37843   -3947.3572    -3525.073   -3947.3572            0    3652.3798    17.323898    20.405264    21.135116    7471.2363    5269.6031    2594.4569    3093.0795   -2066.7779    1203.2877    45.138942   -3127.1085 
 2551000    249.21612   -3922.1814   -3495.0335   -3922.1814            0    3407.6319    17.396856    20.491199    21.224124    7566.0278    4845.8381    3029.9069    2347.1505    600.62321    750.54971   -629.73004    -3119.026 
 2552000    256.18136   -3959.8194   -3520.7333   -3959.8194            0    5297.9725    17.361012    20.448979    21.180394    7519.3569    4670.0005    6272.4085    4951.5085   -191.22754   -332.82585    -481.5092   -2939.7464 
 2553000    243.98528   -3953.0002   -3534.8178   -3953.0002            0    3068.7279    17.410289    20.507021    21.240512    7583.5671    3091.8479     4359.756    1754.5799    556.59414   -43.597143   -375.59028    -3195.421 
 2554000    242.88008   -3911.2417   -3494.9536   -3911.2417            0    3657.4673    17.379863    20.471183    21.203392    7543.8772    3467.2942    4565.0918    2940.0158    129.77507    -283.6461    335.97252   -3092.5601 
 2555000    248.68202   -3918.2277   -3491.9952   -3918.2277            0    3325.5355    17.352771    20.439273    21.170341    7508.6545    920.95932    3795.9779    5259.6693    32.623244   -1033.5994    1954.5225   -3127.8291 
 2556000    250.28166   -3910.2116   -3481.2374   -3910.2116            0    3308.3088    17.314777     20.39452    21.123987    7459.4409    3353.6977    3716.7065    2854.5221   -893.75094   -1115.5475    419.17947   -3121.3321 
 2557000    241.93743   -3924.6791   -3510.0067   -3924.6791            0    4809.9816    17.259589    20.329516    21.056658    7388.3407     4123.301    5537.5728    4769.0708   -424.23785   -1225.1116    188.16111   -2991.7246 
 2558000    259.12774   -3958.6123   -3514.4762   -3958.6123            0    4232.1467    17.397698     20.49219    21.225151    7567.1259    6108.2724    3715.2731    2872.8947   -1544.5353    -1274.659    2375.2361   -3047.4217 
 2559000    253.03234   -3919.6912   -3486.0024   -3919.6912            0    4753.9034    17.304616    20.382552    21.111591    7446.3161    3662.5444    5364.8069    5234.3589    647.56998   -495.69146    214.56174   -2969.7433 
 2560000    244.06788   -3968.5942   -3550.2702   -3968.5942            0     5335.701    17.338371    20.422311    21.152772    7489.9763    5670.6775    5236.6761    5099.7494    1395.5252   -103.18897   -592.50701   -2967.4322 
 2561000    248.19187   -3942.9926   -3517.6002   -3942.9926            0    3307.4454    17.321154    20.402031    21.131767     7467.686    2733.7991    3701.6996    3486.8376    77.098699    349.74322   -482.02108   -3157.3912 
 2562000    242.35082   -3895.8396   -3480.4586   -3895.8396            0    3097.3844    17.335519    20.418952    21.149293    7486.2815     2721.043     3183.881    3387.2292    731.87372   -1503.5402    -734.8514   -3142.2869 
 2563000    255.15179   -3905.1787   -3467.8573   -3905.1787            0    3455.4054    17.344114    20.429076    21.159779    7497.4224     3134.246    3121.2786    4110.6915   -993.20484   -90.248046   -818.74157   -3090.0356 
 2564000    249.73828   -3925.5404   -3497.4975   -3925.5404            0    3598.0313    17.262362    20.332782    21.060041    7391.9024    3473.0521    2849.1564    4471.8852   -852.48232    175.25943   -1399.3524   -3109.6178 
 2565000     240.5169     -3936.07   -3523.8323     -3936.07            0     4315.831    17.249991    20.318211    21.044949    7376.0219    3900.2148     3296.218    5751.0601   -333.81626   -565.75829   -337.01825   -3059.5709 
 2566000    256.78459    -3883.275    -3443.155    -3883.275            0     5121.196    17.235519    20.301165    21.027293    7357.4733     6131.274    3914.2251    5318.0888    24.624176   -707.35072    194.36353   -2893.6445 
 2567000    234.10953   -3914.7255   -3513.4698   -3914.7255            0    4822.4006    17.260865     20.33102    21.058216    7389.9805    4512.4329    4753.2169    5201.5519   -419.25736   -397.89533       1462.1   -2993.7342 
 2568000    249.88667   -3920.2097   -3491.9125   -3920.2097            0     3561.849    17.300928    20.378208    21.107091    7441.5563    2867.5892    3885.4551    3932.5026    392.84089     303.8219     296.2333   -3105.3541 
 2569000    228.70409   -3937.1184   -3545.1275   -3937.1184            0    4035.6323    17.295023    20.371253    21.099888    7433.9395    3971.2168     4310.433    3825.2471   -463.66604    201.21616   -1050.8177   -3107.5988 
 2570000    251.35691   -3946.7797   -3515.9626   -3946.7797            0    3194.8548    17.302785    20.380395    21.109358    7443.9533    2779.7045    4121.2046    2683.6554   -84.537498    1353.9099   -321.34686   -3169.1214 
 2571000    240.03944   -3906.5641   -3495.1447   -3906.5641            0    2837.0234    17.237172    20.303112     21.02931    7359.5907    3033.1153    1841.5069     3636.448   -451.65419    1079.1158    1844.8327    -3190.641 
 2572000    260.41214   -3894.8388   -3448.5013   -3894.8388            0    4500.1469    17.307009    20.385371    21.114511    7449.4066    4330.8832    2474.2136    6695.3441   -254.75056    321.07736    300.17399   -2959.5965 
 2573000    232.96356   -3918.8204   -3519.5288   -3918.8204            0    4632.8524    17.317719    20.397985    21.127577    7463.2441    5573.2102    3968.6876    4356.6593    133.18029   -759.97684    1040.3635   -3015.2717 
 2574000    241.58483   -3936.0284   -3521.9603   -3936.0284            0     4710.961    17.283929    20.358185    21.086353    7419.6427    6828.3904    2530.8828    4773.6098     1752.366   -1147.9468   -877.38749   -3012.1972 
 2575000    242.49736   -3915.2577   -3499.6255   -3915.2577            0    3894.9913    17.290482    20.365904    21.094348    7428.0856    2893.0091    4815.9219     3976.043    1045.1046   -885.84025   -493.28472   -3077.6772 
 2576000    241.05959   -3910.2286   -3497.0607   -3910.2286            0    4920.0936    17.211268      20.2726    20.997707    7326.4603     5670.483    3773.1342    5316.6637    209.97435   -712.39619    716.19979   -2971.3541 
 2577000    237.42647   -3925.2806   -3518.3398   -3925.2806            0    3755.3316      17.3266    20.408446    21.138411    7474.7321    3094.0726    5488.8274    2683.0949   -726.07422    487.73245    852.23525   -3108.9662 
 2578000    269.36629   -3896.6498   -3434.9652   -3896.6498            0    4991.9802    17.295362    20.371652    21.100301    7434.3767    6222.8749    5314.4728    3438.5929   -1143.0045   -412.86738   -51.369015   -2893.7209 
 2579000    244.83613    -3898.294   -3478.6532    -3898.294            0    3255.3325    17.337178    20.420906    21.151317    7488.4307      2791.89    2712.5383    4261.5693   -813.58731   -804.37399    1706.9738   -3123.1348 
 2580000    253.83943   -3910.4379   -3475.3658   -3910.4379            0    3034.4219    17.361889    20.450012    21.181464    7520.4967     2550.875     2390.018    4162.3727    208.37242   -1051.2107   -910.90732   -3142.5542 
 2581000    248.98418   -3936.4514    -3509.701   -3936.4514            0    4052.8776    17.257114    20.326601    21.053639    7385.1636    1086.6063    6872.2728    4199.7536   -622.27296    1310.2029   -22.212923   -3073.1857 
 2582000    253.67961   -3966.5779   -3531.7797   -3966.5779            0    3852.0205    17.287544    20.362443    21.090763     7424.299    3204.1072    5658.7484    2693.2059   -347.02709    333.25146   -1780.4518   -3114.6992 
 2583000    235.15596   -3928.8691   -3525.8198   -3928.8691            0    3379.1091    17.313197     20.39266     21.12206    7457.3999      2425.47    4245.6342     3466.223   -1000.2546   -79.448737    134.10872   -3158.3129 
 2584000    256.56185   -3912.3827   -3472.6445   -3912.3827            0    4941.8694    17.308394    20.387002      21.1162    7451.1949     6274.479     4477.325    4073.8043    750.86915    1674.6106   -27.628389   -2935.6213 
 2585000    254.65432   -3942.5234   -3506.0546   -3942.5234            0    4700.5912    17.279377    20.352824      21.0808    7413.7826    3716.5055    4013.5694    6371.6987   -1185.4606   -95.178277   -1440.9451   -2997.8153 
 2586000    231.98883   -3909.0558   -3511.4348   -3909.0558            0    4543.6487    17.283371    20.357528    21.085672    7418.9243      4536.27    5439.0843    3655.5917    133.85112   -818.69478    45.221376   -3019.8239 
 2587000    241.93482   -3938.0644   -3523.3964   -3938.0644            0    4206.3998    17.291958    20.367643    21.096149    7429.9885    3676.6921    5259.8598    3682.6475   -866.16551   -887.86679   -96.301177   -3067.5961 
 2588000    256.97998   -3917.7038   -3477.2489   -3917.7038            0    4039.2072     17.35275    20.439248    21.170315    7508.6271    4849.7668    3907.9816    3359.8732     595.2031   -497.03333    2.9340631    -3034.933 
 2589000    237.90763   -3958.6994   -3550.9339   -3958.6994            0     5113.075    17.308838    20.387525    21.116742    7451.7684    5588.5959    4552.1934    5198.4357   -95.927654   -1557.1376    -1287.384   -2995.2633 
 2590000    241.28601    -3935.147    -3521.591    -3935.147            0    6065.5452    17.258045    20.327698    21.054775    7386.3591    5031.5765    6424.5383    6740.5209   -218.25924   -121.94446    804.55353   -2868.1955 
 2591000    242.35032   -3956.4041    -3541.024   -3956.4041            0    5242.7114    17.243385     20.31043    21.036889    7367.5509    6971.4588    3791.9578    4964.7174    650.39494    98.273934    507.04719   -2977.7042 
 2592000    247.65624   -3933.3566   -3508.8822   -3933.3566            0    4437.9531    17.260672    20.330792     21.05798    7389.7323    6283.2257    3355.0031    3675.6303    597.24032   -343.90061   -577.18565   -3030.5967 
 2593000    242.66345   -3951.6781   -3535.7612   -3951.6781            0    3263.0575    17.326597    20.408443    21.138408    7474.7284    2913.6064    2867.7423    4007.8237   -899.88558   -282.35141   -1212.4417   -3180.0513 
 2594000    249.92244   -3954.7246   -3526.3661   -3954.7246            0    5377.7851    17.214348    20.276228    21.001464    7330.3938    7468.4023    5145.7836    3519.1692    631.30024    1597.8856   -78.017408   -2951.4472 
 2595000    245.20998   -3967.7847   -3547.5032   -3967.7847            0    4865.0382    17.317004    20.397143    21.126704    7462.3195     6884.139     3450.829    4260.1466   -1635.4853    1503.2273    409.06806   -3018.0398 
 2596000    256.01265   -3931.9931   -3493.1962   -3931.9931            0    6633.2007    17.225708    20.289609    21.015324    7344.9166     8274.527    5751.2836    5873.7915   -412.36076    753.09555   -1317.9499   -2782.6605 
 2597000    256.67828   -3953.4147   -3513.4769   -3953.4147            0    3907.9103    17.327308     20.40928    21.139275    7475.6486    2939.3064    3393.6132    5390.8114    945.79642   -505.41494   -2106.2929   -3087.4183 
 2598000    237.12974   -3952.0959   -3545.6637   -3952.0959            0     5233.227    17.265435    20.336402    21.063791    7395.8517    5946.1894    3879.4588    5874.0328   -371.94194    1549.0529   -1942.6873    -2981.203 
 2599000    246.91946   -3928.3718   -3505.1603   -3928.3718            0    4083.8562    17.313836    20.393412    21.122839    7458.2248    4907.4194     4015.445    3328.7044     583.7269    633.28154   -533.63423    -3060.957 
 2600000    246.70675   -3964.0765   -3541.2296   -3964.0765            0    5041.6772    17.312315    20.391621    21.120984    7456.2603    7080.6712    3941.1388    4103.2215   -133.52793   -1776.9861   -329.18976    -2992.988 
 2601000    237.73542   -3947.7055   -3540.2351   -3947.7055            0    4041.3593    17.293874      20.3699    21.098486    7432.4584    6669.9711    1202.8664    4251.2405    1370.2459      220.854   -733.19224   -3102.1728 
 2602000    243.75975   -3907.3939    -3489.598   -3907.3939            0    5359.4683    17.341927    20.426499     21.15711    7494.5857     5940.158    3705.8668    6432.3801    510.56936    204.85899   -535.72788   -2903.8036 
 2603000    246.95755   -3915.3328    -3492.056   -3915.3328            0    4701.3232    17.381106    20.472646    21.204908    7545.4957    3461.0009    5076.7634    5566.2054    531.74737   -868.72033   -1085.8868   -2974.7068 
 2604000     249.6841   -3920.5833   -3492.6333   -3920.5833            0    4481.3521    17.350098    20.436124    21.167079    7505.1849    4114.2527    4168.8616     5160.942    1424.3002   -1023.0325   -926.87888    -3002.125 
 2605000    259.42924   -3906.4675   -3461.8147   -3906.4675            0    4317.8785    17.310282    20.389226    21.118504    7453.6334     4531.561    3586.4859    4835.5884    989.95023    1183.5014    20.603732   -2992.4457 
 2606000    231.52538    -3915.976   -3519.1494    -3915.976            0    2381.9102    17.357168    20.444451    21.175704    7514.3629    1308.1573    3241.7066    2595.8667   -804.99992   -708.55679    -195.2433   -3258.1176 
 2607000    233.28834   -3914.0294   -3514.1812   -3914.0294            0    5462.2696    17.296562    20.373066    21.101765    7435.9244    5064.2974    6187.2969    5135.2145   -194.20694    589.04449   -484.78132   -2921.8236 
 2608000    247.56876   -3937.5411   -3513.2167   -3937.5411            0    4382.0938     17.25762    20.327197    21.054257    7385.8134    3731.7794    3714.8201    5699.6819   -845.08289    1390.6148   -25.981916   -3041.2016 
 2609000    251.49574   -3936.4446   -3505.3895   -3936.4446            0    4516.5434    17.261601    20.331886    21.059113    7390.9257    3908.6264    5224.7993    4416.2045    503.79936    464.45896   -752.64208   -3018.5555 
 2610000      235.633   -3932.2015   -3528.3346   -3932.2015            0    4586.1923    17.268312    20.339791    21.067301    7399.5492    5522.5538    4977.8754    3258.1476   -545.02736    417.18604    846.16716   -3033.4164 
 2611000    242.90277    -3911.624    -3495.297    -3911.624            0     5702.844    17.215033    20.277034      21.0023    7331.2687    6942.0772    4927.1919    5239.2629    701.93211    121.90895    2105.9199   -2885.5544 
 2612000    245.71825   -3927.5752   -3506.4225   -3927.5752            0    3796.1596     17.28767    20.362592    21.090917    7424.4623    3584.2969    3331.9432    4472.2386    490.61499    264.02171   -369.01413   -3095.3813 
 2613000    241.65563   -3934.0996   -3519.9102   -3934.0996            0     5551.642    17.223748      20.2873    21.012932    7342.4087    5466.9514    5135.8455     6052.129    1130.5096   -501.17102   -870.35435    -2925.432 
 2614000    263.35163   -3923.2181   -3471.8424   -3923.2181            0    5763.0727    17.200291     20.25967    20.984314    7312.4506    5062.1368     4901.646    7325.4352     57.03744     122.7115   -543.13069   -2857.2418 
 2615000    261.08817    -3925.693   -3478.1968    -3925.693            0    4628.1389    17.306909    20.385253    21.114389    7449.2771    5854.7467    2502.5062    5527.1638   -178.65271   -158.77811    186.29118   -2975.3955 
 2616000    247.18315   -3947.0742   -3523.4107   -3947.0742            0    6027.4057    17.248194    20.316095    21.042757    7373.7175    4887.6699    8118.0188    5076.5285   -100.29074    176.95207   -155.15643   -2875.2349 
 2617000    230.26157   -3945.8554   -3551.1949   -3945.8554            0    4126.4014    17.328704    20.410925    21.140979     7477.456     5114.266    3308.5255    3956.4126    1058.6366   -520.54987   -1918.9845   -3101.2066 
 2618000    240.81314   -3947.1362   -3534.3907   -3947.1362            0    4071.0715     17.29252    20.368304    21.096834    7430.7124    5564.9517     2010.966    4637.2967   -411.08579    304.70935    456.39375   -3093.2115 
 2619000    254.44934    -3954.922   -3518.8046    -3954.922            0    4011.6235     17.30911    20.387845    21.117074    7452.1191    2433.8746    5801.2145    3799.7816   -822.19523   -7.8315239   -137.13282   -3082.8153 
 2620000    236.09737   -3945.1189   -3540.4561   -3945.1189            0    4708.6734    17.276056    20.348911    21.076747    7409.5079    5533.7917    3841.2281    4751.0003    177.34151   -950.69647    748.87998   -3031.6365 
 2621000    239.76067   -3953.2863   -3542.3447   -3953.2863            0    5306.4469    17.277843    20.351017    21.078929    7411.8084    5631.9859    3725.6489    6561.7058   -510.98766   -719.38316   -541.92637   -2968.7516 
 2622000    254.28576   -3940.3048   -3504.4677   -3940.3048            0    5132.7373     17.28199    20.355902    21.083988    7417.1467    5317.5727    3515.1715    6565.4675     1296.229   -560.22722   -820.50709    -2949.252 
 2623000    230.72054   -3967.6016   -3572.1545   -3967.6016            0    2534.6493    17.315088    20.394886    21.124366    7459.8426    1731.9979    2486.3266    3385.6234    890.89196    637.04368   -1937.8447   -3296.3995 
 2624000    242.67519   -3911.5483   -3495.6114   -3911.5483            0    5110.8346    17.292298    20.368043    21.096563    7430.4263    4438.9286     6178.629    4714.9461   -1089.7043     -552.208     799.0425    -2941.775 
 2625000    266.09692   -3927.9437   -3471.8627   -3927.9437            0    5355.4131    17.324507    20.405981    21.135859    7472.0243    3653.1618    6490.4032    5922.6742   -797.65885    132.19387   -113.31297   -2888.2737 
 2626000    249.93962   -3937.9098   -3509.5218   -3937.9098            0    5007.5607    17.357123    20.444398     21.17565    7514.3051    4344.5872    4163.9946    6514.1002   -1202.0671    1443.4499    332.97815   -2960.7511 
 2627000    248.63461   -3937.7404   -3511.5892   -3937.7404            0    3444.0047    17.409594    20.506202    21.239664    7582.6589    3480.0822    2551.8225    4300.1092    58.138464    667.71436    366.86348   -3130.7329 
 2628000    244.81088   -3925.3831   -3505.7856   -3925.3831            0    4485.8333    17.332335    20.415201    21.145408    7482.1564    2454.5773    4767.7566    6235.1659   -652.77001    41.628299    456.58069   -3016.2934 
 2629000     255.7509   -3912.9427   -3474.5944   -3912.9427            0     6119.722    17.248409    20.316348    21.043019    7373.9933    5993.6499    5630.9442    6734.5719    159.70869    318.82742   -83.732435   -2816.4665 
 2630000     244.6581   -3963.4288   -3544.0932   -3963.4288            0    5772.8589     17.29127    20.366832    21.095309    7429.1012    4449.4994    6378.0711    6491.0062    476.95415   -480.99361    262.12236    -2918.628 
 2631000     232.8567   -3937.4832   -3538.3748   -3937.4832            0     6028.131    17.261293    20.331523    21.058737    7390.5298    6145.9785    7090.1422    4848.2723     553.0998    332.59623   -411.05169    -2888.643 
 2632000    242.68566   -3890.3354   -3474.3805   -3890.3354            0    3120.2683    17.342775    20.427498    21.158145    7495.6859    3011.0164    3362.7961    2986.9925    771.98408   -1401.3225    739.17936   -3133.2825 
 2633000    241.68052   -3917.0266   -3502.7944   -3917.0266            0    5326.5264    17.275121     20.34781    21.075607    7408.3049    4400.7232    5884.9502    5693.9058   -1497.8432    70.004632    130.77517   -2927.3031 
 2634000    232.07119    -3929.522   -3531.7599    -3929.522            0    5404.9351    17.276117    20.348984    21.076823    7409.5872    5902.4925    2764.1826    7548.1303   -48.432183   -331.25995    -476.7953    -2947.696 
 2635000    245.18561   -3968.0116   -3547.7718   -3968.0116            0    5212.2443    17.228781    20.293229    21.019073    7348.8482    4487.7974    5405.0661    5743.8695   -183.96864   -1357.9094    56.747823   -2989.1474 
 2636000    235.56621   -3905.8035    -3502.051   -3905.8035            0    3431.4824    17.266642    20.337823    21.065263    7397.4021    2986.6629    3482.3058    3825.4784   -400.60057     368.5179    265.51988   -3131.8506 
 2637000    245.12253    -3944.253   -3524.1213    -3944.253            0    5190.3309    17.252536    20.321208    21.048053     7379.287    4688.4879    5612.4074    5270.0975   -923.72348    247.43669    563.20664   -2965.5414 
 2638000     247.0822   -3928.5444   -3505.0539   -3928.5444            0    4917.2833     17.31288    20.392286    21.121673    7456.9895    3101.8706    7155.4224    4494.5569   -499.65324    455.91316    868.37607   -2970.2869 
 2639000    225.23675   -3969.4571    -3583.409   -3969.4571            0    4027.2072    17.377607    20.468526     21.20064    7540.9408    4094.4072    4855.1928    3132.0214   -80.300907    166.89186     545.6601   -3140.5093 
 2640000    249.15182   -3957.4147    -3530.377   -3957.4147            0    3543.7187    17.334904    20.418228    21.148543    7485.4849    4666.5417     1946.402    4018.2124    1180.9897    431.39017   -442.26285   -3143.5159 
 2641000    248.22323   -3961.7227   -3536.2766   -3961.7227            0    4604.3411     17.26837    20.339859    21.067371    7399.6232    3466.1641    4195.5729    6151.2864   -326.70077   -325.29558    1178.6487   -3039.3949 
 2642000    231.28059   -3925.5296   -3529.1226   -3925.5296            0    6079.3555    17.338729    20.422733    21.153209    7490.4407    5627.5085    5855.7041     6754.854   -644.80925    628.85123   -61.927604   -2865.0114 
 2643000    237.00976    -3914.281   -3508.0544    -3914.281            0    3915.8168    17.355614    20.442621    21.173809    7512.3457    5910.5569     3823.472    2013.4215   -655.68654   -444.78668   -883.18843   -3079.0381 
 2644000    232.06713   -3910.7244   -3512.9693   -3910.7244            0    3858.5264    17.369797    20.459326    21.191111    7530.7771    3735.7587    3529.6554     4310.165    727.71064   -123.82519    463.98077   -3089.1925 
 2645000    250.47123   -3897.1352   -3467.8361   -3897.1352            0    5368.3118    17.292423     20.36819    21.096715     7430.587    5601.5188    6888.6418    3614.7747   -1492.7549    607.11068    368.13077   -2886.0856 
 2646000    234.33935   -3942.5279   -3540.8783   -3942.5279            0    4873.6796    17.313848    20.393425    21.122854      7458.24    5346.7128    3606.1429    5668.1831   -1263.5949    464.99301   -345.83968   -3010.7643 
 2647000    240.18052   -3960.4998   -3548.8386   -3960.4998            0    4419.1203    17.312533    20.391877     21.12125    7456.5416    5634.5553    2897.3715    4725.4339   -122.77294    1289.1256    965.43808   -3068.2769 
 2648000    242.03562   -3946.3447   -3531.5039   -3946.3447            0    4979.7855    17.292526    20.368312    21.096842    7430.7203    4207.6407    6285.8708    4445.8449    1477.4805   -764.08395   -888.58306   -2991.8474 
 2649000    268.52349   -3929.1763   -3468.9363   -3929.1763            0    3898.7952    17.304262    20.382135    21.111159    7445.8596    2297.5244    4574.7437    4824.1174    70.614299    8.1248199   -770.10049   -3045.5652 
 2650000    242.66708   -3934.0337   -3518.1106   -3934.0337            0    6166.9476    17.255465    20.324658    21.051627    7383.0462    8589.0678    4468.8958    5442.8792    2.0688486   -618.24993    200.73304   -2854.0897 
 2651000     250.4412   -3905.5035   -3476.2558   -3905.5035            0    4248.0103    17.329023      20.4113    21.141367    7477.8682    6431.1866    3917.4291    2395.4151    602.33346    141.79275   -1042.4756   -3012.9804 
 2652000     225.2546   -3908.0556   -3521.9769   -3908.0556            0    3997.9042    17.243453     20.31051    21.036972    7367.6382     4389.543    3484.2815    4119.8883    268.60946    863.06055    419.09531   -3092.4043 
 2653000    241.20579   -3928.4853   -3515.0669   -3928.4853            0    2021.1013    17.360012    20.447801    21.179174    7518.0571    2890.8183     725.6896     2446.796   -150.52169   -778.67126    290.32089    -3293.467 
 2654000    244.96655   -3963.7859   -3543.9216   -3963.7859            0    4129.6024    17.265724    20.336742    21.064143    7396.2225    4284.9567     3499.695    4604.1554    391.64614    359.99049      323.345   -3098.4766 
 2655000    248.04282   -3936.1143   -3510.9774   -3936.1143            0    5190.2746     17.29855    20.375407    21.104191    7438.4887    4616.9177    5943.7363    5010.1696    -659.9111   -848.65275    150.36608   -2947.9223 
 2656000    225.43012   -3934.8448   -3548.4653   -3934.8448            0    4299.8419    17.306302    20.384538    21.113648    7448.4929    3579.8349    4783.1543    4536.5366     269.3426    339.21416    1209.6422   -3081.3794 
 2657000    243.32853   -3938.8826   -3521.8259   -3938.8826            0    4050.8502    17.332264    20.415118    21.145322    7482.0651    5485.8538    1137.2534    5529.4434   -305.45342    694.69306   -23.490584   -3079.8042 
 2658000    246.46797   -3921.8926   -3499.4549   -3921.8926            0    5529.2712     17.28483    20.359247    21.087452    7420.8037    6327.3497    3215.9757    7044.4882    1302.2073    1213.9341   -163.17754   -2901.0506 
 2659000    236.77025   -3927.5601    -3521.744   -3927.5601            0     5257.091     17.27401    20.346502    21.074252    7406.8765    5246.1664    6818.8856     3706.221    1275.9614   -147.55198   -1156.8789   -2953.8641 
 2660000    242.71141   -3877.6426   -3461.6436   -3877.6426            0     4805.287    17.302183    20.379686    21.108623    7443.1758    5122.7437    6078.9583     3214.159   -401.61521   -828.31622    552.03796   -2940.0245 
 2661000    243.40564   -3956.1025   -3538.9136   -3956.1025            0    3713.7443    17.305902    20.384067     21.11316    7447.9766    4063.3884    3248.3447    3829.4999   -613.52468   -760.88484   -144.63661   -3135.5226 
 2662000    235.13401   -3950.4355   -3547.4239   -3950.4355            0    3916.6213    17.389416    20.482435    21.215046    7556.3237    4762.7671    4212.8146    2774.2822   -820.85821   -1388.6128    839.67963   -3115.8074 
 2663000    235.09144    -3927.089   -3524.1503    -3927.089            0    3973.7186    17.345114    20.430253    21.160998    7498.7183      3285.79     4739.994    3895.3718    516.77239     966.3452    1775.4093     -3089.58 
 2664000    230.37688    -3933.553   -3538.6949    -3933.553            0    6348.0216    17.254121    20.323075    21.049987    7381.3211    6679.4721    6476.4515    5888.1411   -486.10498   -741.42144    1462.3261   -2855.3367 
 2665000    243.85258   -3944.8735   -3526.9185   -3944.8735            0    7345.9214    17.212409    20.273944    20.999099    7327.9172    7499.9882    7818.0198    6719.7562   -1149.2361    880.73528   -919.04509   -2741.8587 
 2666000    249.23955   -3939.9585   -3512.7704   -3939.9585            0    4368.2583    17.271784     20.34388    21.071536    7404.0135    4585.5086    2681.0819    5838.1843    286.39884   -558.89088   -295.13673   -3041.0861 
 2667000    236.70316   -3967.5612     -3561.86   -3967.5612            0    4071.8125     17.22663    20.290695    21.016449    7346.0959    2949.0673    3309.1439    5957.2263    156.14138    1645.3993   -1837.1913   -3125.6253 
 2668000    267.11517   -3958.6645   -3500.8382   -3958.6645            0     2811.374    17.213826    20.275614    21.000828    7329.7276    1737.3214    3394.2501    3302.5505    1577.5353   -1026.8026   -899.89111    -3200.312 
 2669000    250.85853   -3931.6651   -3501.7022   -3931.6651            0    6735.0187    17.258546    20.328288    21.055386    7387.0021    7381.2808    5702.2681    7121.5073   -419.52821   -626.01325   -898.88386   -2776.1262 
 2670000    246.71283   -3943.0448   -3520.1875   -3943.0448            0    4230.9971    17.284362    20.358696    21.086882    7420.2013    3860.6565    3798.7707     5033.564     1200.332    149.93836   -1097.1312   -3062.3258 
 2671000    252.05749   -3970.9622   -3538.9443   -3970.9622            0    4565.8458    17.343651     20.42853    21.159214    7496.8216    4947.6552    4392.3391     4357.543    1261.6065    665.24692    84.486285   -3039.7446 
 2672000     248.4295   -3963.7396     -3537.94   -3963.7396            0    4599.4384    17.282107    20.356039     21.08413     7417.297    7249.0957    3177.7845    3371.4352    1405.9153   -460.10935   -633.56533   -3040.4018 
 2673000    243.42482   -3960.2025   -3542.9807   -3960.2025            0    6293.7871    17.218806    20.281479    21.006903    7336.0901    6530.1716    5990.2596      6360.93    1415.6317   -396.51117     966.6689   -2869.6125 
 2674000     240.5386   -3978.3238   -3566.0488   -3978.3238            0     4241.121    17.303809    20.381601    21.110606    7445.2744    3557.0758    4977.4496    4188.8377    -130.4126    2244.1873      472.273   -3105.5408 
 2675000     242.1312   -3942.6551   -3527.6505   -3942.6551            0     3920.753    17.315612    20.395503    21.125006    7460.5202    3240.9315    3215.7932    5305.5344   -482.03391   -546.54591   -709.08816   -3101.0568 
 2676000    238.94859    -3960.509   -3550.9593    -3960.509            0    3623.5496    17.288647    20.363742    21.092109    7425.7202    2909.5651    2731.8588    5229.2248    983.36114     873.6371    489.97794   -3158.5415 
 2677000    253.32889   -3946.2592   -3512.0622   -3946.2592            0    3261.7739    17.334784    20.418086    21.148397    7485.3295    3459.6179    3287.4047    3038.2991   -964.57781   -10.084005   -495.45762   -3155.9878 
 2678000    245.65122   -3951.3373   -3530.2995   -3951.3373            0    3180.6586    17.323992    20.405374    21.135229    7471.3571    3044.3866    2977.3684    3520.2206   -664.42681    -157.1554   -69.429105   -3183.7283 
 2679000    249.31936   -3977.6056   -3550.2808   -3977.6056            0    3246.5452    17.274904    20.347555    21.075342    7408.0259     2446.409    3571.8465    3721.3801    85.363237    502.81147   -917.73742    -3199.529 
 2680000     239.9453   -3970.8354   -3559.5773   -3970.8354            0    5412.2785    17.250094    20.318332    21.045074    7376.1542    5799.4193    6420.6074    4016.8087     763.3423   -469.96403    -555.3601   -2977.3588 
 2681000    252.84264   -3967.3122   -3533.9485   -3967.3122            0    5524.8392    17.234301     20.29973    21.025807    7355.9132    4071.5699    6427.1279    6075.8198   -153.06842   -163.21228   -662.24084   -2941.2524 
 2682000    255.75342   -3953.9789   -3515.6263   -3953.9789            0      3632.76    17.327742    20.409792    21.139805    7476.2108     3103.616    5064.1733    2730.4908   -469.57797    129.46368   -51.229893    -3119.536 
 2683000    227.58381   -3953.7979    -3563.727   -3953.7979            0    3846.7826    17.285292    20.359791    21.088016    7421.3982    4379.7968    3992.0038    3168.5473   -661.38026   -182.23173    131.61399   -3147.3764 
 2684000    244.73081   -3980.0774   -3560.6172   -3980.0774            0    4880.4508    17.221703    20.284891    21.010437    7339.7939    3734.8824    7600.4604    3306.0095    2544.3246   -458.83645    579.72676   -3038.1973 
 2685000    247.91118    -3959.689   -3534.7778    -3959.689            0    5954.6605    17.255839    20.325099    21.052083    7383.5264    5357.2787    6154.6616    6352.0411    227.97152     799.9165    -782.2289    -2893.573 
 2686000    244.12594   -3927.0752   -3508.6517   -3927.0752            0    6219.6615    17.270152    20.341958    21.069545    7401.9148    5190.8243    7816.1603         5652    1007.2116   -2073.0025   -591.29565   -2837.2433 
 2687000    235.21671   -3946.9164    -3543.763   -3946.9164            0    3582.7172    17.295617    20.371953    21.100613    7434.7059    3263.8495    4439.1727    3045.1295    893.99825   -234.10006   -316.58867   -3155.2977 
 2688000    260.59876   -3947.7032   -3501.0459   -3947.7032            0    3789.5803    17.227726    20.291985    21.017785    7347.4972    4105.4167    3799.4394    3463.8848    360.47876    2067.1874   -64.161844   -3094.9707 
 2689000    238.21307   -3969.5314   -3561.2423   -3969.5314            0    3884.5078     17.23028    20.294994    21.020901    7350.7656    5971.9185    3329.1337    2352.4711   -892.84252   -393.66239    73.968922     -3144.81 
 2690000    253.06133   -3932.3143   -3498.5759   -3932.3143            0    4579.2458    17.291606    20.367228    21.095719     7429.534    6016.3035    5197.1746    2524.2594   -674.16242    266.88641    189.65681   -3002.4048 
 2691000    250.85246   -3949.7031   -3519.7505   -3949.7031            0    5644.7119      17.2064    20.266867    20.991768    7320.2459    6095.6917    5257.2833    5581.1607    743.31928     73.13296   -1260.7392   -2917.1308 
 2692000    246.29693   -3966.9748   -3544.8303   -3966.9748            0      4188.53    17.257208    20.326711    21.053753    7385.2837    4507.6989    5097.2515    2960.6395    149.84552   -40.283361    560.97876   -3093.6972 
 2693000    242.19506   -3936.0356   -3520.9216   -3936.0356            0     5535.712    17.241804    20.308567     21.03496    7365.5243    6782.5294    4928.6352    4895.9714    776.43623    -343.8294    28.035925   -2926.2831 
 2694000    245.01362   -3926.8398   -3506.8949   -3926.8398            0    5787.2592    17.263198    20.333767    21.061061    7392.9768    7270.6205    6590.2742    3500.8829    812.94032    594.65228    1556.9229   -2882.9185 
 2695000    246.41131   -3959.5957   -3537.2551   -3959.5957            0    3708.7491    17.302533    20.380099     21.10905    7443.6283    2587.6867    4828.1857    3710.3749   -344.10512    657.17598   -456.57401   -3134.6419 
 2696000    241.36982   -3942.7742   -3529.0746   -3942.7742            0    3168.5262    17.311009    20.390083    21.119391     7454.573    2635.1497    4265.1818     2605.247    230.26017     1392.126    554.86482    -3184.601 
 2697000    238.63707   -3930.4392   -3521.4234   -3930.4392            0    5234.4093    17.275482    20.348235    21.076047    7408.7695    6294.2276    5253.8662    4155.1342    1340.2065   -532.14373     475.4602   -2955.8491 
 2698000    239.45646   -3925.6983   -3515.2782   -3925.6983            0    4531.8867    17.288374    20.363421    21.091776    7425.3687    4928.8018    5486.2519    3180.6065    1837.1364    1526.1419    913.14651   -3024.5139 
 2699000    239.96174   -3913.9197   -3502.6335   -3913.9197            0    6041.4833    17.258412     20.32813    21.055222    7386.8296    5337.9126    6655.4915    6131.0457   -80.547739    1000.4459    347.08725   -2851.7885 
 2700000    241.90713   -3954.3523   -3539.7317   -3954.3523            0    6199.1292    17.241076    20.307711    21.034073    7364.5926    6180.7725    6540.6908    5875.9242    1223.8153    1183.5197    1094.8916   -2873.9141 
 2701000     235.4451   -3941.6898    -3538.145   -3941.6898            0    4500.9638    17.294087     20.37015    21.098746    7432.7326    5813.2007    5304.9014    2384.7892      101.426   -1216.3906    700.01532    -3050.246 
 2702000    242.53539   -3941.5736   -3525.8762   -3941.5736            0    2660.6672    17.345371    20.430556    21.161312    7499.0518    2278.9374    1904.4022    3798.6621    958.18561   -1060.2756    202.93935   -3234.8898 
 2703000    233.63473   -3944.1244   -3543.6825   -3944.1244            0    4618.3302    17.278176    20.351409    21.079335    7412.2367    3978.2576     6397.138     3479.595    1071.3815    65.401033   -589.62322   -3044.4416 
 2704000     235.8387   -3953.8173   -3549.5978   -3953.8173            0    3109.0272    17.364974    20.453645    21.185227    7524.5058    2777.0049    5000.2792    1549.7975     -301.849   -200.65652   -378.72708   -3208.4219 
 2705000    234.97773   -3941.2557   -3538.5119   -3941.2557            0    5610.7848    17.274432    20.346999    21.074767    7407.4193    5931.2558    5283.4529    5617.6459    -104.1839    293.51863     722.3351    -2932.381 
 2706000    238.71111    -3954.109   -3544.9663    -3954.109            0    3018.2984    17.272951    20.345255     21.07296    7405.5143    2621.4993     3343.848     3089.548   -392.40019   -444.64084    520.94593   -3218.9846 
 2707000    234.27239   -3927.9985   -3526.4636   -3927.9985            0    4513.8288     17.20884    20.269741    20.994745      7323.36    4508.8609    4277.5476    4755.0779   -1948.1656    148.38322    926.86979     -3044.37 
 2708000    240.13152   -3904.9327   -3493.3554   -3904.9327            0    5847.9076    17.281027    20.354767    21.082813    7415.9063    6888.1041    4878.8846     5776.734    227.99405    252.16118    208.42809   -2860.8844 
 2709000     246.2828   -3943.9093    -3521.789   -3943.9093            0    5097.6159    17.260879    20.331035    21.058232    7389.9978    4631.1181    6346.2236    4315.5061    -1268.615   -269.96871    515.11431   -2972.3907 
 2710000    257.81138   -3935.9867   -3494.1069   -3935.9867            0     5316.563    17.250228     20.31849    21.045238    7376.3263    5348.5881     5746.821      4854.28   -2826.8606   -149.90577    233.83176   -2922.1715 
 2711000    247.47017   -3954.0898   -3529.9344   -3954.0898            0    3910.5268    17.297761    20.374478    21.103228    7437.4706    2268.9922    6248.8867    3213.7015   -882.92791    1073.6314   -1368.2759   -3105.7679 
 2712000     255.2992   -3952.5471    -3514.973   -3952.5471            0    5449.6506    17.246288    20.313849    21.040431    7371.2731    4182.8651    5297.7126     6868.374   -1181.3524    397.33893    184.72133   -2929.1221 
 2713000    260.62673   -3940.9686   -3494.2633   -3940.9686            0    4730.3435    17.296323    20.372784    21.101473    7435.6157    4403.1581    5217.0217    4570.8508   -865.48117    153.48874    738.75435    -2981.301 
 2714000    250.28955   -3955.2191   -3526.2313   -3955.2191            0    4935.0784    17.230789    20.295594    21.021523    7351.4178     4467.767    4068.3718    6269.0965    -506.9203   -743.87992    114.70777   -2997.1273 
 2715000     234.9761   -3990.1577   -3587.4167   -3990.1577            0     4184.396     17.32517    20.406762    21.136667     7472.882    4692.1059    2883.4429    4977.6392     725.9352   -977.66388   -178.24335   -3131.3831 
 2716000    234.17018    -3924.267   -3522.9073    -3924.267            0    4019.3248    17.263143    20.333702    21.060994    7392.9056    3109.6277    3975.6787    4972.6679     423.0687    125.24473    74.393708    -3089.552 
 2717000    230.73669   -3924.0992   -3528.6244   -3924.0992            0    5003.9763    17.239066    20.305342     21.03162    7362.0159    5372.4844    5373.6402    4265.8044    1361.3318   -2290.1366    1670.6529   -2991.3603 
 2718000    246.18911   -3927.1699   -3505.2102   -3927.1699            0    3550.4188    17.299102    20.376058    21.104865    7439.2011    3339.2143    2558.1049    4753.9372   -952.34209   -1608.2762    -127.2304   -3120.0142 
 2719000    251.12081   -3917.1351   -3486.7226   -3917.1351            0    4611.8302    17.241181    20.307833      21.0342     7364.726    4568.6694    5615.3284    3651.4928    1629.0217   -1463.2657   -1247.1231   -2991.3799 
 2720000    240.24118   -3924.6715   -3512.9063   -3924.6715            0    6680.4041    17.252696    20.321397    21.048249    7379.4924    7871.5597    6200.1805    5969.4721   -698.68448   -154.18064    258.24049   -2793.9456 
 2721000    246.65518   -3958.7995   -3536.0409   -3958.7995            0    3666.1529    17.393539    20.487291    21.220077       7561.7    4353.1576    4349.4416    2295.8597    477.95242   -89.006251    692.68429   -3131.7389 
 2722000    240.31736   -3943.8705   -3531.9748   -3943.8705            0    5127.5969    17.279098    20.352496     21.08046    7413.4237    7414.9243    4337.2206    3630.6457    607.64761   -928.66643   -69.607537   -2977.5935 
 2723000    242.68278   -3932.5044   -3516.5544   -3932.5044            0    4235.7075    17.342025    20.426614     21.15723    7494.7128    3711.3503    4553.2006    4442.5715    -2.179985    287.65123    905.02557   -3053.5802 
 2724000    244.20097   -3931.2097   -3512.6576   -3931.2097            0    3449.2221    17.310422    20.389391    21.118675    7453.8144    3118.1377    3664.1375    3565.3912   -77.264277    541.11197    1394.1618   -3137.7056 
 2725000    248.22903   -3979.3841    -3553.928   -3979.3841            0    3272.0322    17.298135    20.374918    21.103684    7437.9532     3960.686    3302.6974    2552.7131   -1349.2433    227.58697    490.94912   -3198.9946 
 2726000    236.22956   -3920.2065   -3515.3172   -3920.2065            0    5811.6771    17.310435    20.389406     21.11869    7453.8306    6657.3668    6271.2389    4506.4256    -257.8194    806.15817    190.20093   -2883.5502 
 2727000    267.61492   -3933.2295   -3474.5467   -3933.2295            0    4490.7714    17.283245    20.357379    21.085518    7418.7618    3824.9686     4088.036    5559.3097    1610.7751     803.6617   -363.08621   -2988.6675 
 2728000    246.76264   -3926.5291   -3503.5864   -3926.5291            0    5648.0127    17.334931    20.418259    21.148576    7485.5198     5913.076     5368.236    5662.7259    578.09989    1219.3611    1316.9668   -2887.0006 
 2729000    242.86816   -3910.5157    -3494.248   -3910.5157            0    5041.2298    17.268433    20.339933    21.067448    7399.7048    5654.5039     3411.358    6057.8276    207.55851    520.92787    -962.3971   -2950.2131 
 2730000    255.38044   -3899.6184   -3461.9051   -3899.6184            0    3943.0028    17.288221    20.363241    21.091589    7425.1717    3544.5304    2956.4444    5328.0338    221.49153    682.57463    2189.2788   -3034.9232 
 2731000    258.80099   -3920.5422   -3476.9662   -3920.5422            0    6916.3025    17.211945    20.273398    20.998533    7327.3253    6106.7715    6384.6247    8257.5112   -417.67032   -296.02469    383.99115   -2737.8796 
 2732000    246.70973   -3913.3386   -3490.4866   -3913.3386            0    5871.7133    17.244375    20.311596    21.038097    7368.8199    4015.3981    7432.8483    6166.8936   -1070.6247    44.425165    368.94248   -2859.4731 
 2733000    248.08384   -3932.9681   -3507.7609   -3932.9681            0    4326.3635    17.277828    20.350999     21.07891    7411.7885    4460.3438    5046.8763    3471.8704    833.05251    745.44413   -383.19326   -3040.1099 
 2734000    245.68155   -3888.6847   -3467.5949   -3888.6847            0    3166.0956    17.317447    20.397665    21.127245    7462.8925    3671.0647    2764.8892    3062.3329   -298.09965   -1102.1656   -1039.6995   -3123.0014 
 2735000    241.52868   -3912.1098   -3498.1379   -3912.1098            0    1956.6926    17.344246    20.429231     21.15994    7497.5934    1039.5988    3796.0711    1034.4079    441.11259    399.35303   -135.48415   -3284.1839 
 2736000    257.97435   -3941.7393   -3499.5801   -3941.7393            0     4796.986    17.327345    20.409324    21.139321    7475.6969    4569.2698    4767.0236    5054.6647    -230.2677    1200.1115   -1587.9176   -2976.5869 
 2737000    241.71256   -3924.5975   -3510.3105   -3924.5975            0    3299.1388    17.302494    20.380052    21.109002    7443.5775    2913.9592    4272.0328    2711.4245   -2175.6059    989.87718    442.21336    -3152.166 
 2738000    251.91535   -3910.8569   -3479.0826   -3910.8569            0    4986.7534    17.242102    20.308919    21.035324    7365.9069    3956.9466    6225.1174    4778.1961    526.10563   -1183.4002    404.33989   -2943.3846 
 2739000    257.76385   -3930.9241   -3489.1256   -3930.9241            0    4471.0202    17.268874    20.340452    21.067986     7400.271    3772.6078    4888.2396    4752.2132    1060.1874    39.259514    130.54893   -3006.5892 
 2740000    253.75849   -3922.2695   -3487.3361   -3922.2695            0     6268.085    17.163171    20.215948    20.939029    7265.2102    7197.3127    5857.8844    5749.0579   -35.022057   -1016.7337   -330.60544   -2823.1972 
 2741000    235.47168   -3938.2357   -3534.6453   -3938.2357            0    5132.2632     17.17777    20.233144    20.956839    7283.7654    5680.6279    4312.5542    5403.6074    119.56182   -206.34473    711.29952   -2989.4643 
 2742000    253.52346   -3951.0972   -3516.5667   -3951.0972            0    4153.7735    17.253078    20.321847    21.048715    7379.9828    3615.2098    5354.1705    3491.9403    1296.6879    939.64628   -193.92249   -3069.4982 
 2743000    259.84374   -3927.7182    -3482.355   -3927.7182            0    4123.4341     17.30236    20.379895    21.108839    7443.4049    4199.8618    3648.3627    4522.0777   -2027.9197   -1236.8316    1125.1243   -3034.7379 
 2744000    246.38077   -3922.8442    -3500.556   -3922.8442            0    5867.1616    17.297184    20.373798    21.102524    7436.7263    7373.1619    3645.4588    6582.8642   -186.76031   -531.82063   -204.36313   -2864.2211 
 2745000    258.46219    -3914.172   -3471.1766    -3914.172            0    5384.9989    17.274735    20.347356    21.075136    7407.8089    5795.2942    4225.6952    6134.0075   -520.52918   -189.81565    181.01568   -2889.4067 
 2746000    241.54399   -3937.2153   -3523.2172   -3937.2153            0    5229.0621    17.273359    20.345736    21.073458    7406.0395    6276.0857     4792.901    4618.1995   -148.55364   -400.36019   -258.52424   -2958.4289 
 2747000    241.69613    -3942.641   -3528.3821    -3942.641            0     4735.561    17.232504    20.297613    21.023614    7353.6124    5209.1247    3666.0278    5331.5306    952.15125   -2030.8012   -256.81586   -3020.5174 
 2748000    251.68797   -3914.4207   -3483.0361   -3914.4207            0    4898.4762    17.221556    20.284718    21.010258    7339.6059    4423.7853    4309.1559    5962.4873    894.15905   -1286.6916   -1929.8975   -2958.7002 
 2749000    240.26576   -3944.4672   -3532.6599   -3944.4672            0    3108.4085    17.241542    20.308259    21.034641    7365.1887    3612.3389    3428.1304    2284.7562   -930.11363   -846.31885    15.206595   -3198.7742 
 2750000    254.13981   -3919.8986   -3484.3117   -3919.8986            0    6913.0419    17.176468    20.231611    20.955251    7282.1095    4915.9188    6843.9242    8979.2827    682.11286    167.97069    2571.4566   -2750.1322 
Loop time of 422.249 on 64 procs for 250000 steps with 864 atoms

Performance: 102.309 ns/day, 0.235 hours/ns, 592.068 timesteps/s
99.1% CPU use with 64 MPI tasks x 1 OpenMP threads

MPI task timing breakdown:
Section |  min time  |  avg time  |  max time  |%varavg| %total
---------------------------------------------------------------
Pair    | 20.801     | 25.556     | 29.787     |  45.0 |  6.05
Bond    | 0.26521    | 0.28224    | 0.29098    |   0.9 |  0.07
Kspace  | 184.36     | 194.06     | 202.91     |  26.6 | 45.96
Neigh   | 4.4162     | 5.1502     | 5.9993     |  17.6 |  1.22
Comm    | 85.666     | 93.266     | 100.59     |  35.9 | 22.09
Output  | 1.3262     | 1.3311     | 1.3481     |   0.5 |  0.32
Modify  | 92.922     | 95.871     | 100.13     |  15.0 | 22.70
Other   |            | 6.738      |            |       |  1.60

Nlocal:        13.5000 ave          18 max           8 min
Histogram: 1 3 1 6 9 13 11 8 4 8
Nghost:        2191.94 ave        2242 max        2155 min
Histogram: 1 5 15 11 11 10 4 4 1 2
Neighs:        4234.81 ave        6544 max        2055 min
Histogram: 1 4 4 11 13 15 10 3 1 2

Total # of neighbors = 271028
Ave neighs/atom = 313.68981
Ave special neighs/atom = 2.0000000
Neighbor list builds = 12192
Dangerous builds = 0

unfix		3
unfix		2
unfix		1

write_data	data.final.${pid}
write_data	data.final.0
System init for write_data ...
PPPM initialization ...
  extracting TIP4P info from pair style
  using 12-bit tables for long-range coulomb (../kspace.cpp:340)
  G vector (1/distance) = 0.37484827
  grid = 24 24 25
  stencil order = 5
  estimated absolute RMS force accuracy = 0.0030074471
  estimated relative force accuracy = 9.0568378e-06
  using double precision FFTW3
  3d grid and FFT values/proc = 2730 288
Last active /omp style is kspace_style pppm/tip4p/omp
WARNING: Not all mixed pair coeffs generated from mixing. Use write_data with 'pair ij' option to store all pair coeffs. (../write_data.cpp:312)

write_restart   restart.lmp.${pid}
write_restart   restart.lmp.0
System init for write_restart ...
PPPM initialization ...
  extracting TIP4P info from pair style
  using 12-bit tables for long-range coulomb (../kspace.cpp:340)
  G vector (1/distance) = 0.37484827
  grid = 24 24 25
  stencil order = 5
  estimated absolute RMS force accuracy = 0.0030074471
  estimated relative force accuracy = 9.0568378e-06
  using double precision FFTW3
  3d grid and FFT values/proc = 2730 288
Last active /omp style is kspace_style pppm/tip4p/omp
Total wall time: 0:07:03
