LAMMPS (30 Jul 2021)
  using 1 OpenMP thread(s) per MPI task
package omp 0
using multi-threaded neighbor list subroutines
echo both

include		in.partitions
variable        pid world 0
include		in.temp
variable        temperature equal 260.14
variable	tempDamp equal 100.0
include		in.pressure
variable        pressure equal 7500.0
variable        pressureDamp equal 1000.0 # This is 1 ps
include		in.seed
variable        seed world 745823

units		real
atom_style	full
read_restart    restart.lmp.${pid}
read_restart    restart.lmp.0
Reading restart file ...
  restart file = 30 Jul 2021, LAMMPS = 30 Jul 2021
  restoring atom style full from restart
  triclinic box = (-3.1808805 -0.19972259 -0.037316373) to (14.790880 22.779722 19.267314) with tilt (0.043031249 -6.6947922 0.051416203)
  4 by 4 by 4 MPI processor grid
  restoring pair style lj/cut/tip4p/long/omp from restart
  restoring bond style harmonic/omp from restart
  restoring angle style harmonic/omp from restart
  1008 atoms
  672 bonds
  336 angles
Finding 1-2 1-3 1-4 neighbors ...
  special bond factors lj:    0        0        0       
  special bond factors coul:  0        0        0       
     2 = max # of 1-2 neighbors
     1 = max # of 1-3 neighbors
     1 = max # of 1-4 neighbors
     2 = max # of special neighbors
  special bonds CPU = 0.619 seconds
  read_restart CPU = 0.970 seconds

include 	in.setup
variable	out_freq equal 1000
variable	out_freq2 equal 10000
variable	out_freq3 equal 1000

timestep	2.0

neigh_modify    delay 7 every 1

include		in.tip4p
# This is TIP4P/Ice

# create groups ###
group ox type 2
336 atoms in group ox
group hy type 1
672 atoms in group hy

# set charges - beside manually ###
set group ox charge -1.1794
Setting atom values ...
  336 settings made for charge
set group hy charge 0.5897
Setting atom values ...
  672 settings made for charge

# ### TIP3P Potential Parameters ###
pair_style lj/cut/tip4p/long/omp 2 1 1 1 0.1577 8.5
pair_coeff 1 1*2 0.000 0.000
pair_coeff 2 2 0.21084 3.1668
bond_style  harmonic
bond_coeff  1 450 0.9572
angle_style harmonic
angle_coeff 1 55 104.52
kspace_style pppm/tip4p/omp 1.0e-5
pair_modify tail yes

thermo          ${out_freq}
thermo          1000
thermo_style    custom step temp pe etotal epair emol press lx ly lz vol pxx pyy pzz pxy pxz pyz enthalpy

restart 	${out_freq3} restart.lmp.${pid} restart2.lmp.${pid}
restart 	1000 restart.lmp.${pid} restart2.lmp.${pid}
restart 	1000 restart.lmp.0 restart2.lmp.${pid}
restart 	1000 restart.lmp.0 restart2.lmp.0


include         in.dump
dump            myDump all atom ${out_freq2} dump.water.${pid}
dump            myDump all atom 10000 dump.water.${pid}
dump            myDump all atom 10000 dump.water.0
dump            myDump2 all dcd ${out_freq2} dump.dcd
dump            myDump2 all dcd 10000 dump.dcd
dump_modify     myDump append yes
dump_modify     myDump2 append yes


variable natoms 	equal  "count(all)"                        # NUMBER ATOMS
variable H      	equal  "enthalpy/v_natoms"                 # ENTHALPY-per-atom
variable Vol      	equal  "vol/v_natoms"                 # volume-per-atom
fix AVG all 		ave/time ${out_freq} 1 ${out_freq} v_Vol v_H file vol_enthalpy.dat
fix AVG all 		ave/time 1000 1 ${out_freq} v_Vol v_H file vol_enthalpy.dat
fix AVG all 		ave/time 1000 1 1000 v_Vol v_H file vol_enthalpy.dat



fix 		1 all shake 1e-6 200 0 b 1 a 1
       0 = # of size 2 clusters
       0 = # of size 3 clusters
       0 = # of size 4 clusters
     336 = # of frozen angles
  find clusters CPU = 0.609 seconds
fix             2 all nph tri ${pressure} ${pressure} ${pressureDamp}
fix             2 all nph tri 7500 ${pressure} ${pressureDamp}
fix             2 all nph tri 7500 7500 ${pressureDamp}
fix             2 all nph tri 7500 7500 1000
fix             3 all temp/csvr ${temperature} ${temperature} ${tempDamp} ${seed}
fix             3 all temp/csvr 260.14 ${temperature} ${tempDamp} ${seed}
fix             3 all temp/csvr 260.14 260.14 ${tempDamp} ${seed}
fix             3 all temp/csvr 260.14 260.14 100 ${seed}
fix             3 all temp/csvr 260.14 260.14 100 745823


run             250000
PPPM initialization ...
  extracting TIP4P info from pair style
  using 12-bit tables for long-range coulomb (../kspace.cpp:340)
  G vector (1/distance) = 0.3831217
  grid = 24 30 32
  stencil order = 5
  estimated absolute RMS force accuracy = 0.001975528
  estimated relative force accuracy = 5.9492439e-06
  using double precision FFTW3
  3d grid and FFT values/proc = 4080 384
Last active /omp style is kspace_style pppm/tip4p/omp
Neighbor list info ...
  update every 1 steps, delay 7 steps, check yes
  max neighbors/atom: 2000, page size: 100000
  master list distance cutoff = 10.8154
  ghost atom cutoff = 10.8154
  binsize = 5.4077, bins = 5 5 4
  1 neighbor lists, perpetual/occasional/extra = 1 0 0
  (1) pair lj/cut/tip4p/long/omp, perpetual
      attributes: half, newton on, omp
      pair build: half/bin/newton/tri/omp
      stencil: half/bin/3d/tri
      bin: standard
Per MPI rank memory allocation (min/avg/max) = 9.339 | 9.347 | 9.351 Mbytes
Step Temp PotEng TotEng E_pair E_mol Press Lx Ly Lz Volume Pxx Pyy Pzz Pxy Pxz Pyz Enthalpy 
14000000     263.3063   -4794.8847   -4268.2396   -4794.8847            0    7978.6393     17.97176    22.979444    19.304631    7972.4468    7038.3074    9336.3175    7561.2932   -729.46797    733.24885   -995.52026   -3340.5635 
14001000    255.91658   -4820.8202   -4308.9554   -4820.8202            0    7079.0168    18.009395    22.953138     19.38735    8014.1902    6509.4377    7032.2568     7695.356   -1055.9722    444.35467    18.982601   -3481.5688 
14002000    265.54735   -4826.3393   -4295.2118   -4826.3393            0    7179.3492    17.907504    23.065728    19.319115    7979.7532    7954.5852    6456.7702    7126.6922    -761.3702   -979.23177    1197.3717   -3459.7042 
14003000    256.99829   -4823.0856   -4309.0573   -4823.0856            0    7878.4233     17.94955    22.945807    19.351879    7970.3985    7493.6598    8933.4995    7208.1105   -795.50525    934.02278    1029.2444   -3393.2687 
14004000    251.05185    -4853.656   -4351.5212    -4853.656            0    5835.3158     17.99968    22.934238    19.423397    8018.1521    6588.2954    6243.3062    4674.3457   -880.87879     428.9661   -219.19699   -3669.1597 
14005000    255.47854   -4819.2168   -4308.2282   -4819.2168            0    5765.0122    18.057382    22.921777    19.389809    8025.5833    5480.4328    5576.8643    6237.7396   -117.73557    984.72057   -1308.3893   -3633.4629 
14006000    256.68446   -4797.6545   -4284.2539   -4797.6545            0    8631.3992    17.988226    22.889475     19.29839    7945.9394    7781.1663    9709.5408    8403.4904    979.56583   -339.10551    1395.9238   -3284.0182 
14007000    266.56659   -4835.9532   -4302.7871   -4835.9532            0     7761.627    17.962414    22.631643    19.554686    7949.3501    10620.896    7832.4389    4831.5462   -1280.0942   -109.68096   -615.85159   -3402.9575 
14008000    265.08201   -4824.0961   -4293.8993   -4824.0961            0    7704.5504    18.149957    22.766843    19.308137    7978.4549     7988.684    8033.4361    7091.5311   -1055.5682    884.38478   -1613.8969   -3397.4165 
14009000    274.70195   -4816.6835   -4267.2457   -4816.6835            0    7807.8606    18.024942    22.748765    19.400354    7955.0216    6473.3109    7802.8463    9147.4245    516.92076    728.20282    1432.6437   -3361.4103 
14010000    264.58315   -4811.0104   -4281.8114   -4811.0104            0    7459.6044    18.227502    22.773393    19.262508    7995.9066    5358.4786    7357.3374    9662.9973    300.74729    90.969048   -1838.3814   -3411.9313 
14011000    254.74743   -4811.0581   -4301.5318   -4811.0581            0     8547.277    17.919871    22.699248    19.510827    7936.3724    8948.6314    8373.9264    8319.2731    360.63547   -1488.2051   -1979.2952    -3312.237 
14012000    269.00821    -4793.045   -4254.9953    -4793.045            0    7417.9386    18.210852    22.717526    19.332473    7997.9505    7570.3111    7955.9407     6727.564    412.09169   -1025.7945    1563.7869   -3389.7529 
14013000     259.9613   -4787.3551   -4267.4003   -4787.3551            0    6846.8933    18.022192    22.784692    19.472604    7996.0375    7483.1021    6786.2787    6271.2992    -1159.452   -1862.2049    890.04612   -3468.9567 
14014000    260.75436   -4834.4197   -4312.8788   -4834.4197            0    8475.0012    18.085464    22.874196    19.196742    7941.5089    8504.8292    7438.4005     9481.774    563.43498    35.921186    322.30793   -3331.3147 
14015000    264.04921   -4832.7098   -4304.5788   -4832.7098            0     8019.976     17.97501       22.812    19.356725    7937.1465    7438.2218    8313.9944    8307.7118   -1590.0033    564.66382     1838.418   -3376.2253 
14016000    262.96287   -4821.8685   -4295.9102   -4821.8685            0    7354.1841    18.203792    22.759337    19.274411    7985.5087    6262.2914    7890.9372    7909.3238     2232.226   -243.69795    437.40437   -3439.4386 
14017000    261.20848   -4827.6286   -4305.1793   -4827.6286            0    6115.4552    17.957326    22.832777    19.575577    8026.2927    4929.1759    6669.3213    6747.8685    539.54964    365.02281    36.399854   -3589.3332 
14018000     259.5625    -4839.797   -4320.6399    -4839.797            0    6601.6975    18.059749    22.754236    19.439567    7988.4138    6476.8256    6564.4697    6763.7971   -142.98373   -364.57367    37.691769   -3551.5235 
14019000    252.64385    -4800.607   -4295.2881    -4800.607            0    8313.0685    18.093052    22.606876    19.484156    7969.5534    9118.4164    9197.2375    6623.5517   -299.82933    932.03156   -34.726338   -3329.0787 
14020000    272.04904   -4848.2441   -4304.1124   -4848.2441            0    7645.1748    17.982672    22.887765    19.298229    7942.8267    8106.4322     8116.173    6712.9194   -32.908268    675.26763    -1295.293   -3418.5108 
14021000    247.69751   -4807.2712   -4311.8456   -4807.2712            0     8096.898    17.850309     23.14562    19.247023    7952.0322    8757.7388    7583.2631    7949.6922   -943.46651   -506.01337    167.27624   -3372.8302 
14022000    266.05006   -4824.4739   -4292.3409   -4824.4739            0     8790.841    17.718812    23.113025    19.318099    7911.4444     9790.941     9007.468    7574.1141    311.77709    815.72188    319.64174    -3278.051 
14023000    256.19489   -4852.9469   -4340.5255   -4852.9469            0    7021.6392    17.998754    23.045192    19.252922    7985.8182     5560.717    8127.3838    7376.8169   -1366.2295    309.48333    -2919.669   -3522.7505 
14024000     274.3455   -4793.4053   -4244.6804   -4793.4053            0    8973.2096    17.793081    23.164344    19.236318    7928.5381    9556.1511    8942.0527    8421.4249   -56.094011   -738.95041    752.32197   -3207.1118 
14025000    269.38041    -4803.401   -4264.6069    -4803.401            0    9274.4451    17.925703    23.119108     19.13182     7928.729    9119.9621    8234.3295    10469.044    165.54983    221.34345   -805.04978   -3192.1807 
14026000    265.73509   -4824.5682   -4293.0652   -4824.5682            0    7411.7658    17.881531    23.190685    19.302333     8004.387    6279.7277      8444.01    7511.5597      1342.63    2445.8767    2160.6115    -3427.847 
14027000    269.07383   -4803.3055   -4265.1246   -4803.3055            0     7957.497    17.909137    23.232304    19.167822    7975.1656    9251.3037    7177.9546    7443.2328   -1984.2693     1912.749    1391.2823   -3339.5912 
14028000    261.56651   -4834.5369   -4311.3716   -4834.5369            0    5832.6468    17.921011     23.26239    19.215365    8010.6078    5899.8691    5972.2695    5625.8018   -1692.8441    1264.2132    -503.7345   -3629.9639 
14029000    257.84889     -4808.65   -4292.9203     -4808.65            0    7242.9662    17.964276    23.071044    19.220162    7965.8846    7545.6965    6832.0481    7351.1541    1517.8079   -409.98393   -1031.0652   -3451.4741 
14030000    266.93308   -4803.5089   -4269.6097   -4803.5089            0    6958.3241     17.85292    23.025478    19.426244     7985.585    6580.8379    7776.7186     6517.416    442.56962   -471.43119    1085.2118   -3459.2324 
14031000    266.30712   -4805.7971     -4273.15   -4805.7971            0    7117.1342    18.111602    23.090948    19.272271    8059.9347     6442.164    5269.7723    9639.4664   -1369.1835    346.19133   -1649.8914   -3436.5602 
14032000    266.60223   -4828.8514    -4295.614   -4828.8514            0    7505.8688    17.973571    22.890909    19.407927      7985.03    7148.3338    7810.2878    7558.9847    441.15335    1279.0536    1785.7394   -3421.5295 
14033000    262.76548   -4822.8095   -4297.2461   -4822.8095            0    7523.9053    17.976259    23.046421    19.224047    7964.3005    6163.6416    7506.1687    8901.9054   -797.07134    1022.4043   -536.79918   -3423.3358 
14034000    263.10613   -4850.2197    -4323.975   -4850.2197            0    7760.0434    17.821541     22.98167    19.362348    7930.2132    6998.7905    7450.9695    8830.3701    1130.4369    360.81523    1119.9504   -3426.4947 
14035000    262.97252   -4856.6039   -4330.6263   -4856.6039            0    7124.9353    17.836513    23.162918    19.287362      7968.49    8136.1445    5976.7393    7261.9219   -1195.0876   -1179.6168   -2147.0283   -3502.6215 
14036000    259.72116   -4843.9004    -4324.426   -4843.9004            0    9621.0462    17.786893    22.916397    19.415703    7914.0637    10492.735    9854.7684    8515.6354    931.90987    359.99176   -65.899481   -3213.9792 
14037000    280.03639   -4861.4399   -4301.3325   -4861.4399            0    5870.6506    18.165262    22.940306    19.222226     8010.222    4977.6909    5797.4521    6836.8086    418.09462    39.595812   -169.11139    -3615.518 
14038000    254.52334   -4814.3727   -4305.2946   -4814.3727            0     8220.682    17.917447    22.923415    19.322922    7936.4859    8684.9386    8171.9163    7805.1911     74.56978   -50.379766   -1964.3164   -3353.7876 
14039000     251.4717   -4818.9353   -4315.9609   -4818.9353            0    7758.5289    18.120682    22.782506    19.397264    8007.8608    6456.0495    8847.4767    7972.0606    165.34631   -74.745211     798.2005   -3409.8699 
14040000    258.52583   -4807.3144   -4290.2308   -4807.3144            0    6664.3762    18.051951     22.79145    19.391471    7978.2354    7449.8632    7279.3898    5263.8756    2128.6178   -1170.2207   -534.45929   -3514.8014 
14041000    260.37849   -4814.3709   -4293.5818   -4814.3709            0    6639.7996    18.068028    22.854457    19.403379    8012.3337      5849.81     6675.845    7393.7437     2123.437    172.44105   -748.22063   -3517.7101 
14042000    256.20245   -4815.8418   -4303.4053   -4815.8418            0    7484.0173     18.05367     22.81028    19.414852    7995.2162    7411.9033    8096.2438    6943.9048    1153.9905    541.81817   -147.18163   -3430.7537 
14043000    255.77135   -4796.3188   -4284.7445   -4796.3188            0    7543.9159    18.058125    22.821564     19.41194    7999.9453    7263.0128    7139.7498     8228.985   -407.16647   -2099.2227   -1544.4073   -3404.5883 
14044000    254.30006   -4845.7186   -4337.0871   -4845.7186            0    7946.7441    17.998212    22.873489    19.338533    7961.3241    9018.8133    7675.6914    7145.7277   -635.17989    854.30334   -897.43502   -3414.4085 
14045000    254.73777   -4838.5928   -4329.0858   -4838.5928            0    9436.2714    17.978878     22.84743    19.282497    7920.6936     8499.387     10496.15    9313.2772   -281.42226    349.56648    1575.9446   -3239.0531 
14046000    260.84753   -4839.2395   -4317.5122   -4839.2395            0    7830.8269    17.943588    22.922751    19.358748    7962.5708    8467.6341    7935.9369    7088.9096   -117.34424   -556.40111   -423.93516   -3408.1501 
14047000    267.48503   -4842.0175   -4307.0144   -4842.0175            0    6909.2863     18.08571    22.989296    19.247395    8002.6384    4432.0157    6995.2071    9300.6363   -240.74802    564.70334    201.98201   -3500.6297 
14048000    254.29216   -4831.1845   -4322.5688   -4831.1845            0    8250.2931    17.928393    22.707349    19.510927    7943.0209    7354.2761    9256.7944    8139.8088   -928.80506    135.42376     550.0673   -3366.8481 
14049000    272.32625   -4819.5378   -4274.8517   -4819.5378            0    9057.5713    18.003056    22.700241    19.319558    7895.3952    7442.5501    10310.912    9419.2524    1622.3628    619.42448    20.326696   -3231.9064 
14050000     258.9866    -4838.788   -4320.7828    -4838.788            0    7554.1274    17.833434    22.983902    19.420998    7960.3155    8228.1679    8560.1018    5874.1124    267.03212    1277.0484    421.73499   -3443.8012 
14051000    281.85493   -4794.0589   -4230.3142   -4794.0589            0    8851.7255    18.004382    22.863709    19.365614    7971.7958    9123.2649    8768.4267    8663.4851    562.00935   -13.704203    -1003.274   -3201.2084 
14052000    250.13808   -4819.5073   -4319.2002   -4819.5073            0    7917.0131    17.935433    23.110588    19.199096    7957.9948    7814.2184    7316.5849     8620.236    1068.6405   -196.69429   -372.71945   -3400.3581 
14053000    259.84521   -4866.2905    -4346.568   -4866.2905            0    5025.1963    17.895666    23.036559    19.406707    8000.5034    4523.1108    6399.6306    4152.8475   -308.94459    138.02334   -736.70911   -3760.2324 
14054000    259.34338   -4786.0605   -4267.3417   -4786.0605            0     7924.223    18.078349    23.069129    19.113304    7971.2373    5988.5904     7692.192    10091.887   -298.46625   -1520.9911   -155.55318   -3346.1324 
14055000    260.79627   -4812.4745   -4290.8498   -4812.4745            0    7519.8178    17.871295    22.998286    19.492579    8011.6286    9296.4547    6310.3786    6952.6201    572.61522    885.75437   -70.608215   -3412.2238 
14056000    274.72008   -4805.0639   -4255.5898   -4805.0639            0    7046.3792    18.193381    22.945625    19.148579    7993.7371    5604.6793    7072.6444    8461.8141   -332.88608    411.86608    11.792704   -3434.1197 
14057000    258.84275   -4847.9215    -4330.204   -4847.9215            0    7675.3597    17.717925    22.908375    19.559196      7938.86    8189.9238     8383.567    6452.5882    -1192.129   -44.592264   -107.84758   -3441.5499 
14058000    269.74445   -4842.9906   -4303.4683   -4842.9906            0    6341.9493    18.136113    22.993932    19.194914    8004.6738    6517.4559    5954.7068    6553.6852   -1019.3443   -1061.0118   -1001.2376   -3563.1095 
14059000    260.46291    -4828.898     -4307.94    -4828.898            0    6262.2344    18.012115    22.925463    19.448285    8030.8984     7053.806    6683.1511    5049.7459   -751.61447   -181.28383   -24.057644    -3574.492 
14060000    260.53752   -4824.4953    -4303.388   -4824.4953            0    7360.0932    18.049688    22.858055    19.367068    7990.4796     5881.751    7660.6276    8537.9008     588.3506   -417.95233    1071.3016   -3445.6947 
14061000    272.41326   -4824.3681   -4279.5079   -4824.3681            0    7209.6576    17.967322    22.751942    19.473595    7960.6395    8135.7275      6991.92    6501.3252    558.53972    562.73343    2056.9963   -3442.4828 
14062000    276.68741   -4806.5213   -4253.1123   -4806.5213            0     8001.883    18.089195    22.844194     19.39297     8013.817    7199.5588    8949.7218    7856.3686    128.42858    1676.1945    2496.2771   -3317.9058 
14063000    266.53113   -4810.2852     -4277.19   -4810.2852            0    5533.8364    18.033422    23.104342    19.342985    8059.2616    6370.6461    4467.5775    5763.2856    658.29321   -299.78613    1206.2664   -3626.7647 
14064000     261.1882   -4832.7472   -4310.3385   -4832.7472            0    6104.3749    17.731497    23.267352    19.458658    8027.9608    7818.4449    5325.3424    5169.3373    1165.1111    752.60515    1935.6466   -3595.6409 
14065000     252.3667   -4833.7619   -4328.9973   -4833.7619            0    7043.0116    18.073457    23.056484    19.108056    7962.5249    6851.4914    6051.9966     8225.547   -752.84681   -696.09458     183.7942   -3511.1258 
14066000    267.66389   -4801.7917   -4266.4309   -4801.7917            0    8509.7345    17.819912    22.928096    19.511036    7971.7536    8775.5679    8316.2734    8437.3622    441.74063    757.92521    985.50669   -3277.0904 
14067000      273.712   -4865.7457   -4318.2878   -4865.7457            0    5873.8335    18.156762    23.023651    19.220965    8035.0348    5782.2095     5256.055    6583.2358    230.11413   -575.59868   -1864.0004   -3629.9759 
14068000    268.56065   -4830.9112   -4293.7568   -4830.9112            0     9961.357    17.778544    22.903902    19.384791     7893.449    10462.155    11033.032    8388.8832   -602.82716   -183.52586   -1696.2744   -3147.0267 
14069000    254.56567      -4843.6   -4334.4372      -4843.6            0      8453.51    17.932228     22.90436     19.32333    7936.5984    8731.6398    7888.0753     8740.815    1640.4607    -830.1806   -513.15619   -3355.9675 
14070000    263.11376   -4806.2238   -4279.9638   -4806.2238            0     8997.416    17.968676    22.985075    19.216448    7936.6117    8827.0997    8084.6114    10080.537   -742.21466   -2023.7444   -801.47388   -3238.5368 
14071000    256.51061   -4814.7304   -4301.6775   -4814.7304            0    6867.8183    17.941715     22.92891    19.402813    7982.0062    6932.8215    6104.2231    7566.4101    1800.1437   -434.69926    973.64755   -3502.1991 
14072000    284.04987   -4818.0907   -4249.9559   -4818.0907            0    5392.7679    18.061082     22.96987     19.38319    8041.3241    7001.5148    4811.3671    4365.4217   -676.88809    329.23577   -1535.1298   -3617.5219 
14073000    258.45445   -4847.6573   -4330.7164   -4847.6573            0    9311.4339    17.945119    22.946781    19.212769    7911.4862    7816.4561    10089.956     10027.89    2347.5435    498.78384    2680.1024   -3256.3547 
14074000    250.85981   -4855.4021   -4353.6515   -4855.4021            0     6555.193    17.891364    23.056906    19.392327    7999.7127    6978.2862    6509.3245    6177.9682    379.28777   -374.27668    499.57762   -3588.8729 
14075000    261.56228   -4831.7936   -4308.6367   -4831.7936            0    8279.5579    17.775851    23.138004    19.331297     7950.918    7234.2289    8753.3997    8851.0451    587.31615   -1118.9592    1002.0868   -3348.5724 
14076000    253.78114   -4800.7329   -4293.1392   -4800.7329            0    6913.2761    17.862817    23.182194    19.335151    8006.6726     7964.408    6155.0107    6620.4097   -409.40224   -512.41108   -2373.9235   -3485.8821 
14077000    237.66939   -4829.7585   -4354.3903   -4829.7585            0    5314.0314    17.874391    23.128774    19.384862    8013.9492    6229.4276    5455.2319    4257.4348   -660.04752   -768.62623     271.5434   -3733.3117 
14078000    268.92202   -4788.7978   -4250.9206   -4788.7978            0    9225.9826    17.969546     23.14137     19.16218    7968.3988    10423.354    8129.9553    9124.6383   -347.52874     768.4877     160.8589   -3178.7606 
14079000    266.98933   -4848.5117      -4314.5   -4848.5117            0    6999.8713    17.950322      23.0154    19.281329    7965.7693    8059.2981    7069.5039    5870.8119   -699.27766   -1053.1953   -907.20796   -3501.3069 
14080000    257.94828   -4782.7794    -4266.851   -4782.7794            0    7585.9303    18.006394    22.942807    19.360747    7998.2578    6805.9641     8477.793    7474.0337   -127.29024    1156.0563   -450.67996   -3381.9796 
14081000    260.76834   -4812.1437   -4290.5748   -4812.1437            0     7566.831    17.970179    22.919875    19.404147    7992.0684    7135.0598    7822.6797    7742.7536    50.943448   -133.76601    269.73913   -3408.6144 
14082000    253.76141   -4839.1459   -4331.5917   -4839.1459            0    7976.4337    18.020099    22.927798    19.218177    7940.2049    7247.1074    9005.6045    7676.5892   -752.59723   -117.34683   -1075.8789   -3407.9227 
14083000    266.59191   -4818.4344   -4285.2177   -4818.4344            0    7569.5798    17.984703    22.943282    19.329609    7975.9397    8229.0736    7107.4143    7372.2516   -1464.2986   -644.00532   -2487.1041   -3404.7173 
14084000    268.64056   -4803.3967   -4266.0824   -4803.3967            0    6476.1753    17.789908    23.171647    19.465462    8024.0814    8501.9155    4713.3695    6213.2408    621.22551   -852.71459   -259.78181   -3508.2209 
14085000     258.0816   -4832.8137   -4316.6186   -4832.8137            0    8302.0656     18.12816    22.771852     19.22447    7936.0876    7674.6194    8100.2586    9131.3189   -204.14147   -942.04276    401.05753   -3355.7401 
14086000    260.52217   -4840.3729   -4319.2964   -4840.3729            0    7556.4414    17.896852    22.931435     19.41566    7968.1964    7996.9676    6868.6766    7803.6801    1203.2749   -1719.5038   -517.17513   -3441.1777 
14087000    249.36656   -4815.4863   -4316.7223   -4815.4863            0    7614.0454    18.040712    22.937743    19.282277    7979.2607    7100.9346    8552.1162    7189.0855   -99.753929   -649.05521   -2000.1216    -3430.681 
14088000    266.37344    -4835.269   -4302.4892    -4835.269            0    6902.6949    18.036239    22.945835    19.394055    8026.3569    6776.4167    5710.0608    8221.6071    -418.5457   -1098.2252   -211.49791   -3494.4861 
14089000    249.39974   -4849.3028   -4350.4725   -4849.3028            0    7947.6175    17.807619     22.99869    19.360289    7929.0437    9377.4692    7442.3511     7023.032   -1144.1826    904.60358    -264.0958   -3431.4342 
14090000    260.05495   -4839.1658   -4319.0238   -4839.1658            0    9162.3262    17.867458     23.22923    19.101235     7927.916    8030.4029    8876.0748    10580.501    1078.4595    13.348682    -861.5325   -3259.6708 
14091000    255.41897   -4832.2551   -4321.3856   -4832.2551            0    5970.1579    17.748821    23.411684    19.310575    8024.1192    7781.0136    4773.1931     5356.267   -365.20594   -61.440266    866.75017   -3622.7366 
14092000    268.48113   -4841.4569   -4304.4615   -4841.4569            0    7013.3163    17.886571    23.329954    19.052423    7950.4407    6244.8998     5797.519      8997.53    1302.0002    822.57408     543.3709   -3491.2743 
14093000    268.11623   -4812.6394   -4276.3738   -4812.6394            0    6826.3138    17.875673    23.220961    19.232575    7983.2554    8109.3365    6425.5381    5944.0667    2261.4929    1086.3426    892.34687   -3481.6025 
14094000    259.28354   -4820.2621   -4301.6629   -4820.2621            0    7036.7799    17.866585    23.266522    19.200035    7981.3257    8351.8461    6741.7538    6016.7397    786.16284   -731.10999    1932.2671   -3482.5856 
14095000    260.52234   -4866.4773   -4345.4005   -4866.4773            0    8137.1066    17.764013    23.187648    19.279702    7941.4184      7154.74    8472.3158     8784.264    684.27473   -51.828573    1253.2265   -3402.9816 
14096000    264.96755   -4819.2478     -4289.28   -4819.2478            0    6769.8567    17.965047    23.156595    19.218229    7994.9623    7543.3363    6138.5546    6627.6792    362.75024   -269.89177    461.29165    -3499.926 
14097000    254.93889   -4811.4488   -4301.5395   -4811.4488            0      8626.21    17.895609    22.939763     19.35478    7945.5442     9392.586    8271.1173    8214.9266    4.3823994    1330.5176    275.62743   -3301.9549 
14098000    247.06931   -4801.7459   -4307.5768   -4801.7459            0    7316.5139    18.140412    22.890436    19.278829    8005.3782    5851.4667    8906.4587    7191.6162   -581.78719    1570.8045    764.87791   -3453.3721 
14099000    257.90515   -4832.4376   -4316.5955   -4832.4376            0    6156.7436    17.966581     22.79056    19.525189    7994.9486     7101.221    6792.7231    4576.2867   -568.46098    460.35976   -311.07477   -3598.7307 
14100000    260.49456   -4827.5916   -4306.5703   -4827.5916            0    6444.9628    18.145716    22.896608    19.271821    8006.9663    5849.8576    7789.9032    5695.1275   -750.38249   -30.177239    20.035266   -3553.9702 
14101000    253.37548   -4844.7622   -4337.9799   -4844.7622            0    6384.1077     17.95105    23.005747    19.368941    7998.9335    5684.4406    6991.5824    6476.3002    670.32764   -864.84572   -800.20691   -3593.2339 
14102000    254.35165   -4812.0316   -4303.2969   -4812.0316            0    7551.1928    17.853618    22.894367    19.452667    7951.2251    8858.3761    7657.7513     6137.451   -11.088047   -347.62734    821.41991   -3427.6571 
14103000    264.37923   -4808.0879   -4279.2968   -4808.0879            0    6961.9483    18.111881    23.121987    19.121347     8007.689    5209.6794     7113.403    8562.7626    545.04879    628.37246    891.65433   -3466.2531 
14104000    257.58987   -4800.1132   -4284.9016   -4800.1132            0    8896.6478     17.75838    23.277851    19.177485    7927.5299    8770.5878    7615.8831    10303.472    8.9959018   -204.65488   -1898.5576   -3256.3166 
14105000    265.12677   -4776.6566   -4246.3703   -4776.6566            0    7825.7718    17.863997    23.424707    19.078933    7983.7492    8008.4506    8278.5275    7190.3373   -1151.0255    495.62505   -1535.5101   -3335.1782 
14106000    254.58103    -4835.988   -4326.7945    -4835.988            0    5653.8053    17.914664    23.155778    19.269618     7993.577    5366.0541    6501.5148     5093.847    579.20185    391.53049    2533.1959   -3667.6845 
14107000    263.80745    -4824.747   -4297.0995    -4824.747            0    6222.3335    17.987404    23.228418    19.159773    8005.3161    5247.4882    5596.9809    7822.5314   -14.482322   -180.70336   -12.398459   -3570.6463 
14108000    257.85973    -4795.783   -4280.0317    -4795.783            0     7258.546    17.895533    23.142502    19.356113    8016.2841    8321.2593    6601.5492    6852.8296   -1193.8453     37.02694   -3021.7604   -3431.4403 
14109000    257.35711   -4830.4292   -4315.6832   -4830.4292            0    6790.6679     17.95756    23.161169    19.225433    7996.2052    6086.6246    6399.7085    7885.6707    1226.5914   -48.640568   -462.22122   -3523.7796 
14110000    262.44134    -4801.759   -4276.8439    -4801.759            0    6842.9444    17.904596    23.112461    19.299189    7986.3766    7347.4732     7739.142     5442.218    415.19902    1083.2998   -1514.2806   -3479.8248 
14111000    275.29482    -4816.213   -4265.5894    -4816.213            0    6301.9145    17.892259    23.236176    19.287146    8018.5861    6222.6923     5050.022    7633.0293   -1891.4085   -928.60583   -1522.5821   -3528.6255 
14112000     250.7975   -4784.3643   -4282.7383   -4784.3643            0    7734.2362    17.645666    23.448953    19.170509    7932.2271    9046.2902     6292.037    7864.3815   -255.22595   -1356.4571   -1664.9408   -3388.0156 
14113000    264.24666   -4852.2545   -4323.7286   -4852.2545            0    8058.2902    17.805519     23.21382    19.209644    7940.0009    9771.1514    6146.6051    8257.1139     228.4519   -1146.3476     777.4728   -3390.6046 
14114000    263.37207   -4818.0199   -4291.2432   -4818.0199            0    7204.4909    17.885916    23.246635    19.249096    8003.5306    7500.6365    7127.4022    6985.4339   -663.29551   -1149.4601    936.76489   -3450.3114 
14115000    256.94741    -4824.298   -4310.3714    -4824.298            0    7511.4038    17.778245    23.095952    19.401538    7966.3781    9339.1287    6828.1761    6366.9065    895.72603    -162.0723   -433.58386   -3437.6856 
14116000    248.73222   -4832.3147   -4334.8195   -4832.3147            0    6633.5661    17.911612    23.048538    19.350263    7988.4945    8101.1508     5387.156    6412.3916   -1511.0254   -678.29115   -940.76834   -3561.9825 
14117000    250.55624    -4834.579   -4333.4356    -4834.579            0    9050.2157    17.968021     22.91041    19.275391    7934.8058    9177.2609     8626.576    9346.8103    289.49044   -249.94268    180.08544   -3286.1355 
14118000    252.77417   -4835.1402   -4329.5607   -4835.1402            0    7418.8214    18.100168    22.621666    19.516035    7990.9568     7502.541    8277.2535    6476.6697   -827.68407    1531.0418   -1491.6072   -3464.9719 
14119000    258.24605   -4843.8021   -4327.2781   -4843.8021            0    7147.7217    17.959942    22.832898    19.417914    7962.8502    7804.4258    8436.2544     5202.485    582.95713    944.22799    1461.5963   -3497.2131 
14120000    266.62273    -4830.989   -4297.7106    -4830.989            0    7975.0847    17.962914    22.928992    19.313903     7954.846    8799.8545    7888.8688    7236.5307   -1961.8603   -1404.0428   -589.18316    -3372.495 
14121000    260.12319   -4845.9008   -4325.6223   -4845.9008            0     6015.868    18.066353    22.842811    19.371633    7994.4072    5484.7347    6740.1326    5822.7366   -728.19453     1030.225   -780.28848   -3624.2308 
14122000    257.42705   -4793.2261   -4278.3402   -4793.2261            0    7360.7274    18.057088    22.759958    19.475191    8003.8861    8876.7244    7780.4585    5424.9994   -426.12012    921.86462   -632.31215   -3419.1337 
14123000    251.67136   -4807.7114   -4304.3376   -4807.7114            0    7082.5702    18.036918    22.743575    19.474826     7989.041    7959.3792    6965.2089    6323.1226   -666.91605     -475.734    102.29942   -3479.1334 
14124000     266.2173   -4813.5035    -4281.036   -4813.5035            0    9851.0886    18.012246    22.538957    19.515689    7922.9253    9446.5589    10456.954    9649.7528   -900.21196   -677.15147    482.95642    -3142.765 
14125000    284.01272   -4838.7787   -4270.7182   -4838.7787            0    7366.5976    18.189921     22.63799    19.390944    7984.8658    5975.6145    7930.9797    8193.1985   -1823.0511   -324.69548   -1971.8838     -3412.87 
14126000    262.01548   -4840.4933   -4316.4299   -4840.4933            0    7633.9826    17.963493    22.824011    19.427743    7965.3544    7995.9265    8334.6386    6571.3826   -421.79938    175.93624   -604.49447   -3429.6167 
14127000    262.27591   -4835.8785   -4311.2942   -4835.8785            0    8494.1446    17.969694    22.817413    19.315424    7919.7475    7129.9378    9082.9973    9269.4986   -300.54501    -1199.247    2034.6902   -3330.2087 
14128000    253.69969   -4820.1083   -4312.6776   -4820.1083            0    7925.1585    17.768731    23.065028    19.439593    7967.0505    6534.6596    9039.3346    8201.4814   -153.62809    627.07786    3361.0941   -3391.8434 
14129000    270.11625    -4794.985   -4254.7191    -4794.985            0    8673.5484    18.126383    22.848573    19.230538    7964.5578    8615.4909    8523.4807    8881.6735   -481.69532   -387.13297   -146.12669   -3247.2439 
14130000    247.43418   -4827.5986   -4332.6997   -4827.5986            0     7795.642    17.972883    22.758375    19.473481    7965.3084    10539.162    6527.4907    6320.2733    1206.7655    -633.1155   -1128.8335   -3427.1123 
14131000    252.28074   -4846.1126     -4341.52   -4846.1126            0    7496.6234    18.045461    22.786288     19.31353    7941.5125    7251.8472    6571.3461    8666.6769   -141.18335   -1892.9525    1214.1484   -3473.2699 
14132000    259.18518   -4779.9952   -4261.5928   -4779.9952            0    7080.4858    17.977089    22.722786    19.580061    7998.2502    8393.6829    6525.6213    6322.1533    1103.1792   -2260.8852   -450.36476   -3435.6805 
14133000    262.64167   -4806.8439   -4281.5281   -4806.8439            0    7955.5042    17.974156    22.899486    19.378128    7976.0172    9633.6611    7537.8874    6694.9642    791.24875    -464.9184   -366.53575   -3356.1277 
14134000    253.06054   -4841.6306   -4335.4783   -4841.6306            0    5117.1767    18.066747    22.903371    19.411398    8032.2306     4134.612    5256.2266    5960.6913   -662.96511    852.39116   -1065.5781   -3736.0428 
14135000    244.09055   -4801.9103    -4313.699   -4801.9103            0     7314.564    18.012622    23.025476    19.244884       7981.8    7686.1388    6950.7532       7306.8   -313.59426     845.2844    1504.4881   -3462.2372 
14136000    260.84731   -4807.0742   -4285.3474   -4807.0742            0    8047.0128    17.916654    23.076804    19.290614      7975.88    7808.6697    7955.5149    8376.8538    232.56107   -1486.6056    301.05806   -3349.3186 
14137000     258.1475   -4828.9345   -4312.6076   -4828.9345            0    9227.7654     18.00709    23.091295    19.038648    7916.4034    7906.5868     8496.437    11280.272   -389.78955   -682.30567   -1010.8096   -3247.2379 
14138000    263.27507   -4833.4903   -4306.9076   -4833.4903            0    9196.3775    17.679685    23.181004    19.352048    7931.1053    9580.0154    9773.1477    8235.9693    1370.7616    150.09644    1335.6113   -3243.1899 
14139000    242.94657    -4819.067   -4333.1439    -4819.067            0    9768.9459    17.952406    23.160318    19.080454    7933.3366    8439.7504    10330.754    10536.333   -1082.9037    1514.3635   -45.766839    -3202.881 
14140000    256.40301   -4801.3781   -4288.5404   -4801.3781            0    7005.6171    17.910714    23.142644    19.267227    7986.2904     8792.409    6194.7557    6029.6865   -617.51966   -694.37867    542.51113   -3472.5832 
14141000    256.05949   -4813.1047    -4300.954   -4813.1047            0    7264.2631    17.905142    23.168075    19.228012    7976.3116    7127.2964     6062.536     8602.957    238.91177    55.059267   -1189.0406    -3455.929 
14142000    255.44935   -4813.2546   -4302.3244   -4813.2546            0     6937.437    17.852615    23.097997     19.38106     7991.967     8063.598    6507.3771    6241.3359    395.51535   -160.63913    446.98167   -3493.7339 
14143000    258.32753   -4835.2653   -4318.5783   -4835.2653            0    8284.8353    17.904523    22.918426    19.376278    7950.9293    8062.2409    8606.1332    8186.1319   -383.01911    501.46236   -664.58759   -3357.9007 
14144000    252.87732   -4804.1476   -4298.3617   -4804.1476            0    8028.2082     18.00217    22.908245    19.311335    7963.9584    8725.7812    7452.0929    7906.7506   -517.66189    961.02436    389.42473   -3365.9161 
14145000    258.38512   -4826.0942   -4309.2921   -4826.0942            0    7977.4573    18.011414    22.912883    19.338192    7980.7451    5880.6516    7616.6172    10435.103    148.93612   -384.47721    324.35657    -3380.788 
14146000    270.33053   -4856.6239   -4315.9294   -4856.6239            0    7077.3556    17.894521    22.881733    19.446948    7962.7021    8339.1233     6263.942    6629.0015   -4.8227672    320.72261   -2268.0395   -3494.0514 
14147000    246.07146   -4829.8264   -4337.6531   -4829.8264            0    8328.7491    18.011894    22.775306    19.322432    7926.5715    6739.1513    9439.7822    8807.3139   -493.21904    947.70748   -1653.0202    -3374.842 
14148000    263.34791   -4832.1549   -4305.4266   -4832.1549            0    8078.4107    17.850494    22.825277    19.491041    7941.4783    8941.9984    7865.6691    7427.5647    167.55625   -247.21023   -453.33962   -3369.7986 
14149000    260.43221   -4798.9382   -4278.0416   -4798.9382            0    6239.2261    18.109067    22.973842    19.342299    8047.0704    3409.3843    6217.2661    9091.0281    125.40843   -170.88131    2878.1726   -3545.8168 
14150000    254.17422   -4832.0182   -4323.6384   -4832.0182            0    7902.5174    17.934042    22.835818    19.425883    7955.6473    8017.5779    8636.7875    7053.1867   -371.73353    71.158304   -962.49801   -3406.7492 
14151000    272.24854   -4797.7505   -4253.2198   -4797.7505            0    6866.7561    18.198028    22.968627    19.200957    8025.6871    6223.8586     6998.579    7377.8307   -1188.8167    830.36301   -649.82828   -3449.4906 
14152000    254.89418   -4802.7486   -4292.9287   -4802.7486            0    7449.9646    17.862989    23.019717    19.355522    7959.0088    7854.1786    8035.8383     6459.877   -1787.1587   -315.25575    -596.6535   -3428.1817 
14153000    269.63785   -4828.0615   -4288.7525   -4828.0615            0    7483.3404    17.990688    23.200175    19.128761    7984.0981    6348.0251    7810.9272     8291.069     465.2218   -504.89454    1612.2093   -3417.3932 
14154000    259.65221   -4824.8938   -4305.5573   -4824.8938            0    8437.7427    17.699802    23.211619    19.281003    7921.4275     9464.116     6663.644    9185.4681   -708.63307   -337.49281    402.88479   -3330.7795 
14155000    258.42184   -4833.8347   -4316.9591   -4833.8347            0    7556.9531    18.007113    22.991194    19.189898    7944.7145    7917.0758    6733.0922    8020.6914    917.81307   -969.76297    164.61858   -3441.3689 
14156000    245.42271   -4833.5059   -4342.6301   -4833.5059            0    5373.0442    18.058159    22.993238    19.366827    8041.4074    4723.0987     5362.427    6033.6069    327.39445    797.89955   -163.31298   -3712.5027 
14157000    265.38141   -4846.9154   -4316.1198   -4846.9154            0    6621.9591    18.012397    22.919761    19.302527    7968.8525    4973.7797    7320.1072    7571.9905   -1077.7828   -861.46441   -500.78037    -3546.532 
14158000    259.87364   -4853.3807   -4333.6013   -4853.3807            0    7301.1288    17.882168    22.858142    19.444058    7947.8199    6863.2927    7433.7194    7606.3742    531.79138   -1241.5352    780.64211   -3487.3216 
14159000     253.2113   -4834.8819   -4328.4281   -4834.8819            0    6607.2873    18.301569     22.72431     19.24305    8003.0019    5956.8533    6218.7557     7646.253    1563.6951   -138.87796    1544.6835   -3557.2547 
14160000    279.27846   -4858.7603   -4300.1688   -4858.7603            0    6411.1297    18.040327    22.766702    19.456464    7991.1347    6206.2821    7589.1553    5437.9517   -254.76404     821.7442   -1526.5079   -3552.9997 
14161000    258.95414   -4847.7016   -4329.7614   -4847.7016            0    8415.2676    18.071678    22.765537    19.374454    7970.8724    8064.9222     8000.217    9180.6636    2277.5951   -482.83259    122.52523   -3351.5118 
14162000      264.931   -4825.2404   -4295.3457   -4825.2404            0     7500.371    17.937889    22.881244    19.437671    7978.0215    7591.1041    7522.1901    7387.8187   -429.80372   -690.35042   -589.88119    -3422.668 
14163000    255.20737   -4811.5015   -4301.0553   -4811.5015            0    7783.9531     18.07072    23.028303    19.113528    7953.8657     7504.967    6957.2984    8889.5938    1482.7229   -660.16228   -210.19549   -3398.1247 
14164000    260.43973    -4835.785   -4314.8734    -4835.785            0    8858.0974    17.894455    22.990159    19.261641    7924.1693     7903.262    8323.6372    10347.393    1220.7244   -189.99554    -1122.477   -3291.1795 
14165000    250.38869   -4819.5195   -4318.7112   -4819.5195            0    7166.4912     18.00622    22.967576    19.289465     7977.336    7000.6188    6445.6183    8053.2365    952.72215   -737.45837   -920.81133   -3484.9525 
14166000    266.29321   -4791.6756   -4259.0563   -4791.6756            0    6804.5849    17.915536    23.048085    19.362097    7994.9739    6755.4916    7644.9781    6013.2851     1508.895    282.14044    859.84773   -3465.6519 
14167000    250.97545   -4818.3281   -4316.3462   -4818.3281            0    7664.7305    17.937666    22.913341     19.31651    7939.3146    6826.1956    9022.9925    7145.0035    770.66062   -700.63183   -1496.7066   -3428.8719 
14168000    263.98354   -4808.7485   -4280.7488   -4808.7485            0    7547.2438    17.938598    23.015805    19.279663    7960.0192    7557.8566    6191.8289    8892.0459   -1252.6764   -437.21523   -129.87892   -3404.5989 
14169000    277.60685   -4819.2649   -4264.0169   -4819.2649            0    7639.1456    17.994934    23.030525    19.232055    7970.3938    9338.2258    6671.2482    6907.9627    43.526336   -1778.5111    518.51999   -3376.0424 
14170000     261.7294   -4819.9304   -4296.4393   -4819.9304            0    7843.1291    17.962126    22.964398    19.304232    7962.7912    8047.4292    7959.7753    7522.1827    760.16716    700.63971   -1266.7894   -3385.6234 
14171000    265.64003   -4814.8767   -4283.5639   -4814.8767            0    7353.5793    18.070113    22.947076    19.213837    7967.1378    6333.5409    7581.4014    8145.7956    1315.7452    573.84778    128.69637   -3429.1329 
14172000    255.90481   -4835.7089   -4323.8676   -4835.7089            0    6961.0155    17.868374    23.055349    19.389404    7987.6901    7859.9528    6788.6861    6234.4076   -475.10278   -190.60633    -2966.651   -3512.9632 
14173000    243.52924   -4820.8884   -4333.7999   -4820.8884            0    8289.6009    17.938886    22.980895    19.264705    7941.9067    9614.5412    7774.6224    7479.6391   -459.43024    82.766319    -2588.205   -3373.6605 
14174000    253.83953   -4826.1211   -4318.4107   -4826.1211            0     8251.989    18.151037    22.718138    19.297987     7957.675    4741.7982      8868.36    11145.809    159.20815    244.22386   -246.81147     -3360.73 
14175000    270.65214   -4858.0433   -4316.7056   -4858.0433            0     7656.731    17.945156    22.893424    19.359717    7953.4765    7876.9845    8170.1241    6923.0843    235.46746    544.18846    925.03936   -3428.5761 
14176000    253.70106    -4819.235   -4311.8016    -4819.235            0    9592.9062    17.951236    23.014641    19.174501    7921.7775    8837.8425    10368.001    9572.8747    1531.7063   -491.70717    -1053.531   -3203.5235 
14177000    267.69343   -4801.1695   -4265.7496   -4801.1695            0    8123.2244     17.72249    23.097899    19.285414    7894.5284    8754.2301    8957.7384    6657.7046    1857.6332   -37.560846    435.05246   -3330.4935 
14178000    255.04867   -4806.6436   -4296.5147   -4806.6436            0    5951.8201    17.955624    23.046125    19.362452    8012.3289    6995.3749    4939.8531    5920.2322   -542.67051   -769.11276    214.56379    -3601.035 
14179000     273.6294   -4833.5065   -4286.2139   -4833.5065            0    6313.6982    17.926061    23.137344    19.293262    8002.1011    5972.8915    6360.3602    6607.8428    1338.2307    419.72531    222.09252   -3549.3899 
14180000    252.53042   -4802.0415   -4296.9495   -4802.0415            0    5939.8851     17.90371     23.39599    19.130132    8013.1347    6589.6117    4157.8022    7072.2412   -572.72518    -567.7742    501.54169   -3602.7946 
14181000    261.71125   -4832.5349     -4309.08   -4832.5349            0    8724.4621    17.770239    23.076505    19.303383    7915.8344    10195.083    9212.1968    6766.1063    353.13194    706.85195    400.73327   -3301.8904 
14182000    269.12586     -4828.16    -4289.875     -4828.16            0    7118.8363    17.908565     23.24726    19.120608    7960.3887    7497.7362    6115.4464    7743.3265    -726.4155    339.53687   -1760.1757   -3463.4201 
14183000    257.95339   -4844.5381   -4328.5994   -4844.5381            0    7689.6608    17.774566    23.196979    19.289965     7953.566    8821.2228    7594.5435     6653.216   -145.85544   -215.05958    1228.9444   -3436.6403 
14184000    254.43857   -4840.9695   -4332.0609   -4840.9695            0    6916.3005    17.837381    23.193248     19.23354    7957.0466    5356.9471    7882.4933    7509.4611    241.36171    1279.2717    406.58476   -3529.4563 
14185000     272.0751   -4818.9576   -4274.7737   -4818.9576            0     7780.319    17.865792    23.328127    19.120175    7968.8198    8522.2157    6533.3124    8285.4289    95.783256    162.44657    566.06076   -3370.5679 
14186000    260.79173   -4811.6855   -4290.0698   -4811.6855            0    6095.2614     17.68448    23.527237    19.214309    7994.4388    7759.3595    3763.3228    6763.1019    884.50321   -1221.3216   -328.72925   -3579.4191 
14187000    253.64707   -4828.2221   -4320.8966   -4828.2221            0    7804.6286    17.936027    23.083694    19.266594    7976.9436    7689.2177    7108.9772    8615.6908   -1059.5799    684.16665      372.257    -3412.941 
14188000    279.26673   -4843.2786   -4284.7106   -4843.2786            0    8792.4186    17.854988    23.002811    19.316928    7933.7503    9644.8006    7721.1487    9011.3064    155.17239    666.22025   -50.499903   -3267.3785 
14189000    253.56812   -4848.7123   -4341.5447   -4848.7123            0    5440.4655    18.022354    23.108269    19.212152    8001.1966    4849.5777    6632.6459    4839.1731    710.06654    836.05684   -1104.0196   -3706.7009 
14190000    272.40424   -4791.8502    -4247.008   -4791.8502            0    9743.9585    17.849609    22.986937    19.319392    7926.8976      10971.8     9345.269    8914.8066    1099.6847   -991.13705    633.98757   -3120.5512 
14191000    250.81835   -4786.2832   -4284.6155   -4786.2832            0    8704.1886    17.978142    22.904835    19.351695    7968.7641    7395.2037    10283.656    8433.7058   -479.55814    905.01858   -1556.6249   -3273.0473 
14192000    270.05393   -4842.0536   -4301.9124   -4842.0536            0     6512.055     18.02244    23.063721    19.211492    7985.5357    7012.5534    6577.5774    5946.0344   -756.16706   -578.60476   -301.06596    -3543.513 
14193000    248.49871   -4810.3086   -4313.2805   -4810.3086            0    8238.0986    18.167433    23.020772    19.127208    7999.5407    8770.1855    7054.4162    8889.6939   -209.26992    274.12717    1009.5695    -3352.182 
14194000    258.51253    -4819.186    -4302.129    -4819.186            0    6671.0017     18.02809    22.915012    19.417136    8021.4887    7026.6659    6616.8021    6369.5371   -1917.5671   -219.13299    2190.1055   -3521.7206 
14195000    253.74474    -4804.526   -4297.0051    -4804.526            0    9256.7867    17.974479    22.931918    19.203886     7915.636    10761.772       8263.9    8744.6878   -1334.6237   -797.93594   -1056.2407   -3228.3884 
14196000    258.42481   -4819.4795   -4302.5979   -4819.4795            0    8424.4107    17.829264    22.916527    19.441423    7943.4699    9552.7526    7860.1601    7860.3193    659.59386   -714.92588    1187.5228   -3326.6522 
14197000     257.5079   -4824.6771   -4309.6295   -4824.6771            0    8204.0549    18.051744    22.957724    19.218908    7964.8332    8570.1058    7559.8853    8482.1737   -663.79093   -302.94389   -2017.6182   -3356.6553 
14198000    259.02137   -4812.3378    -4294.263   -4812.3378            0    7554.6148    17.948966    22.927677    19.354406    7964.8818     8744.119    6794.4982    7125.2273   -259.33273   -454.83263    529.18631   -3416.7218 
14199000    263.81331   -4808.1991   -4280.5399   -4808.1991            0    7166.0011    17.917298    23.155594    19.248853    7986.0734    8225.8325    6363.0422    6909.1285   -501.59266    185.25395   -2314.3936   -3445.9252 
14200000    263.62635    -4834.056   -4306.7708    -4834.056            0    8245.2698    17.821255    23.173991    19.203646    7930.9062    8869.5652    7873.9091    7992.3351     158.6617   -752.29232    921.59133   -3353.0888 
14201000    255.87131   -4811.8315   -4300.0573   -4811.8315            0    8387.5829    17.933453    23.155952    19.146379    7950.8432    9076.7914    7805.0872    8280.8703    96.895572    284.01746   -1618.5644    -3327.476 
14202000     245.9425   -4801.2914    -4309.376   -4801.2914            0    6980.4459    17.879261     23.08284    19.401004    8006.8742    7152.5992    6826.0805     6962.658    1086.7048    988.01333    1322.5126   -3494.2551 
14203000      248.386   -4825.6068   -4328.8041   -4825.6068            0    6453.8409    17.788523    23.212276    19.274276    7958.5821    8444.2871    6397.6114    4519.6243    604.41592     -1013.99   -816.21055   -3579.7213 
14204000    252.33779   -4838.2689   -4333.5622   -4838.2689            0    8381.0255    17.993399    23.035327     19.11172    7921.4988    7636.6828    8226.1415    9280.2523    436.43203   -455.65535   -162.42665    -3365.328 
14205000    257.83877   -4844.6961   -4328.9867   -4844.6961            0    7462.6553    17.877997    22.968502    19.415948    7972.7866    9749.1375    6100.1812    6538.6472     687.2291   -672.80525    258.31727   -3461.2671 
14206000    254.70545   -4836.3921   -4326.9497   -4836.3921            0    7617.1365    18.039432    23.104978    19.174878    7992.1023    6259.8021    6883.0967    9708.5107    802.84853   -464.17379   -771.91623   -3439.1221 
14207000    258.28317    -4816.585   -4299.9868    -4816.585            0    7428.6464    17.948066    22.881721    19.372154    7955.8074     6408.002    7901.5256    7976.4116    2087.2992    477.12981    370.91398   -3438.0611 
14208000    268.19648   -4820.6682   -4284.2421   -4820.6682            0    5669.1008    18.110227    22.988933    19.249345    8014.1719    5265.2142    5954.7531    5787.3352    554.37635   -28.361274   -1049.9871   -3621.6463 
14209000    257.80408   -4813.5255   -4297.8855   -4813.5255            0    8176.5329    17.845258    22.877819    19.397331    7919.1658    9181.4141    8014.5659    7333.6189   -756.35855   -83.665087    842.95708   -3353.5539 
14210000    264.65035   -4809.3337   -4280.0003   -4809.3337            0    8279.6291    17.952367    22.894497    19.358552    7956.5666    8164.7676    8776.2746    7897.8451    190.14652    -910.2514   -1894.8132   -3319.2457 
14211000    255.08821   -4807.9863   -4297.7783   -4807.9863            0    8315.7582    18.013593    22.886298    19.298485    7956.0791    8613.1631    7247.1815    9086.9301    1754.9829   -611.83425    1234.6211   -3332.8905 
14212000    274.93516   -4853.7368   -4303.8325   -4853.7368            0    7966.4282    18.035541    22.878319    19.258447    7946.4757    7679.1491     8360.152    7859.9836    425.72802    534.31646     1738.021   -3380.5936 
14213000    266.10085   -4839.9384   -4307.7038   -4839.9384            0    6102.5988    18.023371    22.961275    19.351905     8008.584    5592.4442    6951.5077    5763.8446   -1092.9672    75.265633    617.66877   -3594.9387 
14214000    254.18695   -4813.4714   -4305.0661   -4813.4714            0     7111.505    17.980241    22.884814    19.413421    7988.1274    5911.5058     7421.878    8001.1312   -91.567459    884.92368    1106.9324   -3476.5854 
14215000    252.20014   -4856.8948   -4352.4633   -4856.8948            0    7129.7584    17.987817    22.988129    19.280834    7972.7458    5442.5041    7004.1243    8942.6468   -847.21754   -1912.4858   -343.62295   -3523.4555 
14216000    263.78263   -4836.7936   -4309.1957   -4836.7936            0    7764.8415    17.888425     22.97201    19.364046    7957.3271    8054.9742    7370.5807    7868.9696   -292.19641    524.85423   -269.49294   -3408.0901 
14217000    258.90904   -4854.4886   -4336.6385   -4854.4886            0    8515.5761    17.930885    23.041302    19.146755    7910.4997    6707.6308    8473.3886    10365.709   -384.75652    573.32486    861.35879   -3354.2261 
14218000    271.50861   -4822.1243   -4279.0736   -4822.1243            0    9585.8459    17.947853    22.943981    19.326783    7958.6762    12036.628    8170.1035    8550.8055   -372.87607     237.9335    40.910035   -3166.4528 
14219000    252.99473   -4802.5323   -4296.5116   -4802.5323            0    8086.7307     18.09002    22.588787    19.433411    7941.1058    6399.4183    9710.2164    8150.5574   -384.71002    555.53265    1807.1503    -3359.964 
14220000    257.60004   -4855.2847   -4340.0528   -4855.2847            0    6885.2365    18.030678    22.792138    19.409578     7976.516    7531.2893    6554.0225    6570.3976    433.63505   -424.78226   -521.43048    -3539.098 
14221000    264.05247   -4839.0455   -4310.9079   -4839.0455            0    6987.1167    18.041669    22.784566    19.424236    7984.7518    7199.6487    7172.0795    6589.6219   -362.15047   -929.73545   -376.85321   -3497.2622 
14222000    260.81087   -4876.5144   -4354.8605   -4876.5144            0    7300.8792    18.142709    22.517054    19.522218    7975.2236     6026.919    8778.3029    7097.4156   -447.82532    901.78391    2389.7306   -3505.6919 
14223000     248.6714   -4837.3996   -4340.0261   -4837.3996            0    7621.1355    18.121965      22.7375    19.319771    7960.6761    6813.9815    8456.2274    7593.1975   -299.38972   -339.04684   -280.01762   -3455.2252 
14224000    263.34931   -4835.7867   -4309.0555   -4835.7867            0    4906.7069    18.075363    23.024664    19.337841    8048.0061    4813.2558    4984.7962    4922.0686    278.80094   -242.77314    421.91264    -3733.146 
14225000    264.15211   -4855.2045   -4326.8677   -4855.2045            0    7703.8871    17.856846    22.965173    19.286415    7909.0804    9873.8301    6780.9665    6456.8647    -2091.946     578.8371   -91.256666   -3438.2565 
14226000     249.0891   -4816.5909   -4318.3819   -4816.5909            0      7080.38    18.105013    22.934914     19.27006    8001.6402    6270.1837    7237.2507    7733.7056    1332.6765    1703.6309   -35.018237   -3492.1319 
14227000    281.27841    -4798.276   -4235.6844    -4798.276            0    8611.8178    18.049284    22.817765    19.325484     7959.091    6232.5885    9074.4262    10528.439   -54.615141    1137.2525    431.45425   -3236.0661 
14228000    265.42064   -4808.5297   -4277.6556   -4808.5297            0    6970.0513    17.982744    22.908907    19.401538    7992.7551    6403.1823    7712.3929    6794.5789   -767.38566    238.66506   -2215.5148   -3465.1837 
14229000    263.09696   -4807.4721   -4281.2457   -4807.4721            0    6331.1227    17.880665    23.156209    19.350856    8012.1911    5701.1573     6212.423    7079.7877   -605.25308   -1103.0575    212.97893   -3541.4566 
14230000     278.5671   -4816.4961   -4259.3275   -4816.4961            0    6775.8047    17.910822    23.089003    19.364302     8007.972    7133.1921    5868.7518    7325.4704   -233.58384   -74.099522   -363.61899   -3467.9944 
14231000    266.76249   -4817.1878   -4283.6299   -4817.1878            0    8210.6755     18.02809     22.87816     19.29759    7959.2821    6137.9758    10104.735    8389.3158   -538.39229   -67.597312    527.10293   -3330.5514 
14232000    256.92737   -4822.2371   -4308.3506   -4822.2371            0    5539.7591    18.067421    22.795771    19.511159    8035.8814    5299.3684    5238.5909    6081.3179   -117.17989   -451.00328    1141.5012    -3659.118 
14233000    253.83595   -4829.2926   -4321.5893   -4829.2926            0    6275.3168    18.219343    22.554241    19.401252    7972.4298    5978.1158    7442.5666     5405.268   -107.29247   -354.72916   -1749.9799     -3591.96 
14234000    261.10746   -4809.8039   -4287.5567   -4809.8039            0    5580.5307    18.081262    22.675415    19.593692    8033.4161    4001.7227    6590.9527    6148.9168      -180.39    -819.1395    1289.4547   -3633.7466 
14235000     256.6435   -4843.1435   -4329.8248   -4843.1435            0    9012.2322    18.076073     22.67595     19.34379    7928.8669    9663.0069    8667.7754    8705.9143     230.5401   -1531.3761    1285.5042   -3287.7008 
14236000    252.82219   -4826.1771   -4320.5015   -4826.1771            0    6218.6611    18.052034    22.922041    19.403421    8028.9307    5913.6642    6109.0195    6633.2996   -340.42328   -1535.1521    76.131528   -3592.3354 
14237000     253.7744   -4820.9647   -4313.3845   -4820.9647            0    7228.3836    18.033171     22.85717    19.401083    7996.8791    6772.9823    7233.9092    7678.2591    377.03019   -738.75304   -646.14531   -3470.3651 
14238000    268.28047   -4810.7351    -4274.141   -4810.7351            0    9026.6023    18.013942    22.728021    19.360449    7926.5791    7922.0857    9685.6304     9472.091    308.19204   -166.62585    1027.3705   -3230.6565 
14239000     255.2914   -4817.1871   -4306.5727   -4817.1871            0    6293.2991    18.070077    22.865868    19.437818    8031.4733    7629.0239    5508.0212    5742.8523   -122.85785   -238.20887   -1675.3743   -3569.4336 
14240000    257.76562   -4805.9136   -4290.3505   -4805.9136            0    8494.7028    18.046176    22.883594    19.273591    7959.2482    9204.3934    8437.5539     7842.161    2071.1739   -1214.6504    2189.5587   -3304.3069 
14241000    263.93034   -4857.2794   -4329.3862   -4857.2794            0    8045.5737    17.806154    22.869025    19.481602    7933.0911    8162.4904    7462.7591    8511.4716   -1398.5856   -1.2656543   -1381.4462   -3398.5455 
14242000    261.89756   -4842.6275   -4318.8001   -4842.6275            0    7751.9754    18.052138    22.775759    19.325878    7945.8569    8066.6401    7792.7938    7396.4922   -1272.8399    994.57415     182.7449   -3420.4843 
14243000    275.86542   -4824.8734   -4273.1085   -4824.8734            0     5076.795    17.873458    23.210588    19.338484    8022.6372    6382.9441    4659.7005    4187.7403    492.83377    1083.0941    1088.5213   -3679.1137 
14244000    258.91391   -4801.3546   -4283.4948   -4801.3546            0    7769.5666    18.084693    22.899498    19.213426    7956.8636    8055.9602    6999.8932    8252.8464   -200.43487   -1593.5505   -185.90501   -3381.8934 
14245000    260.88515    -4796.312   -4274.5095    -4796.312            0     6051.384    17.944646    22.842022    19.668128    8061.8083    7469.5103    6179.4154    4505.2263    1290.8996   -442.08092    1832.2594   -3563.0288 
14246000    250.71047   -4810.1453   -4308.6934   -4810.1453            0     7406.838    18.182891    22.902339    19.201161    7995.9535    6363.3686    7526.8024    8330.3429   -331.73051    221.93355    1352.1858   -3444.9614 
14247000    257.83911   -4827.0181   -4311.3081   -4827.0181            0      7966.05    17.924868    22.985383     19.35232    7973.3485    7673.2739    8322.0159    7902.8602    489.18626    736.35586    961.24966    -3384.991 
14248000     270.3962   -4815.7418    -4274.916   -4815.7418            0    6710.7718    18.142546     22.93172     19.22319    7997.6116    6347.1869    7553.3211    6231.8074      148.901    1781.3181    81.899136   -3492.1919 
14249000    253.26464   -4832.4424   -4325.8818   -4832.4424            0    7560.7376    17.921457    23.011563    19.416052    8007.1944    7380.7321    7904.5265    7396.9543    2617.9604    2000.9769    1306.2246   -3442.9637 
14250000    273.24071    -4822.488   -4275.9728    -4822.488            0    6865.8442    18.036242    22.861756    19.346515    7977.3449    7682.3963     7322.384    5592.7523   -808.86374   -457.23173   -1593.7258   -3477.1909 
Loop time of 509.185 on 64 procs for 250000 steps with 1008 atoms

Performance: 84.841 ns/day, 0.283 hours/ns, 490.980 timesteps/s
99.2% CPU use with 64 MPI tasks x 1 OpenMP threads

MPI task timing breakdown:
Section |  min time  |  avg time  |  max time  |%varavg| %total
---------------------------------------------------------------
Pair    | 28.911     | 32.728     | 36.308     |  32.0 |  6.43
Bond    | 0.27476    | 0.28398    | 0.29873    |   1.0 |  0.06
Kspace  | 233.29     | 246.65     | 255.58     |  35.7 | 48.44
Neigh   | 4.3133     | 5.2393     | 5.8591     |  20.4 |  1.03
Comm    | 94.834     | 104.44     | 117.51     |  57.5 | 20.51
Output  | 1.0055     | 1.0062     | 1.0075     |   0.0 |  0.20
Modify  | 107.41     | 112.21     | 115.5      |  24.2 | 22.04
Other   |            | 6.619      |            |       |  1.30

Nlocal:        15.7500 ave          19 max          12 min
Histogram: 2 3 13 0 9 13 0 14 8 2
Nghost:        2498.70 ave        2523 max        2474 min
Histogram: 1 6 6 12 13 6 3 7 4 6
Neighs:        5241.95 ave        6387 max        3998 min
Histogram: 2 3 13 5 4 12 9 6 8 2

Total # of neighbors = 335485
Ave neighs/atom = 332.82242
Ave special neighs/atom = 2.0000000
Neighbor list builds = 9565
Dangerous builds = 0

unfix		3
unfix		2
unfix		1

write_data	data.final.${pid}
write_data	data.final.0
System init for write_data ...
PPPM initialization ...
  extracting TIP4P info from pair style
  using 12-bit tables for long-range coulomb (../kspace.cpp:340)
  G vector (1/distance) = 0.37904861
  grid = 24 27 32
  stencil order = 5
  estimated absolute RMS force accuracy = 0.0024713977
  estimated relative force accuracy = 7.4425407e-06
  using double precision FFTW3
  3d grid and FFT values/proc = 3825 384
Last active /omp style is kspace_style pppm/tip4p/omp
WARNING: Not all mixed pair coeffs generated from mixing. Use write_data with 'pair ij' option to store all pair coeffs. (../write_data.cpp:312)

write_restart   restart.lmp.${pid}
write_restart   restart.lmp.0
System init for write_restart ...
PPPM initialization ...
  extracting TIP4P info from pair style
  using 12-bit tables for long-range coulomb (../kspace.cpp:340)
  G vector (1/distance) = 0.37904861
  grid = 24 27 32
  stencil order = 5
  estimated absolute RMS force accuracy = 0.0024713977
  estimated relative force accuracy = 7.4425407e-06
  using double precision FFTW3
  3d grid and FFT values/proc = 3825 384
Last active /omp style is kspace_style pppm/tip4p/omp
Total wall time: 0:08:31
