LAMMPS (30 Jul 2021)
  using 1 OpenMP thread(s) per MPI task
package omp 0
using multi-threaded neighbor list subroutines
echo both

include		in.partitions
variable        pid world 0
include		in.temp
variable        temperature equal 206.32
variable	tempDamp equal 100.0
include		in.pressure
variable        pressure equal -625.0
variable        pressureDamp equal 1000.0 # This is 1 ps
include		in.seed
variable        seed world 745823

units		real
atom_style	full
read_restart	restart.lmp.${pid}
read_restart	restart.lmp.0
Reading restart file ...
  restart file = 30 Jul 2021, LAMMPS = 30 Jul 2021
  restoring atom style full from restart
  orthogonal box = (-0.23003177 0.82058423 -0.28063822) to (18.437604 22.808594 22.493834)
  4 by 4 by 4 MPI processor grid
  restoring pair style lj/cut/tip4p/long/omp from restart
  restoring bond style harmonic/omp from restart
  restoring angle style harmonic/omp from restart
  864 atoms
  576 bonds
  288 angles
Finding 1-2 1-3 1-4 neighbors ...
  special bond factors lj:    0        0        0       
  special bond factors coul:  0        0        0       
     2 = max # of 1-2 neighbors
     1 = max # of 1-3 neighbors
     1 = max # of 1-4 neighbors
     2 = max # of special neighbors
  special bonds CPU = 0.345 seconds
  read_restart CPU = 0.534 seconds
include 	in.setup
variable	out_freq equal 1000
variable	out_freq2 equal 10000
variable	out_freq3 equal 1000

timestep	2.0

neigh_modify    delay 7 every 1

include		in.tip4p
# This is TIP4P/Ice

# create groups ###
group ox type 2
288 atoms in group ox
group hy type 1
576 atoms in group hy

# set charges - beside manually ###
set group ox charge -1.1794
Setting atom values ...
  288 settings made for charge
set group hy charge 0.5897
Setting atom values ...
  576 settings made for charge

# ### TIP3P Potential Parameters ###
pair_style lj/cut/tip4p/long/omp 2 1 1 1 0.1577 8.5
pair_coeff 1 1*2 0.000 0.000
pair_coeff 2 2 0.21084 3.1668
bond_style  harmonic
bond_coeff  1 450 0.9572
angle_style harmonic
angle_coeff 1 55 104.52
kspace_style pppm/tip4p/omp 1.0e-5
pair_modify tail yes

thermo          ${out_freq}
thermo          1000
thermo_style    custom step temp pe etotal epair emol press lx ly lz vol pxx pyy pzz pxy pxz pyz enthalpy

restart 	${out_freq3} restart.lmp.${pid} restart2.lmp.${pid}
restart 	1000 restart.lmp.${pid} restart2.lmp.${pid}
restart 	1000 restart.lmp.0 restart2.lmp.${pid}
restart 	1000 restart.lmp.0 restart2.lmp.0


include         in.dump
dump            myDump all atom ${out_freq2} dump.water.${pid}
dump            myDump all atom 10000 dump.water.${pid}
dump            myDump all atom 10000 dump.water.0
dump            myDump2 all dcd ${out_freq2} dump.dcd
dump            myDump2 all dcd 10000 dump.dcd
dump_modify     myDump append yes
dump_modify     myDump2 append yes


variable natoms 	equal  "count(all)"                        # NUMBER ATOMS
variable H      	equal  "enthalpy/v_natoms"                 # ENTHALPY-per-atom
variable Vol      	equal  "vol/v_natoms"                 # volume-per-atom
fix AVG all 		ave/time ${out_freq} 1 ${out_freq} v_Vol v_H file vol_enthalpy.dat
fix AVG all 		ave/time 1000 1 ${out_freq} v_Vol v_H file vol_enthalpy.dat
fix AVG all 		ave/time 1000 1 1000 v_Vol v_H file vol_enthalpy.dat


timer           timeout 23:50:00 every 1000
New timer settings: style=normal  mode=nosync  timeout=23:50:00

fix 		1 all shake 1e-6 200 0 b 1 a 1
       0 = # of size 2 clusters
       0 = # of size 3 clusters
       0 = # of size 4 clusters
     288 = # of frozen angles
  find clusters CPU = 0.764 seconds
fix             2 all nph iso ${pressure} ${pressure} ${pressureDamp}
fix             2 all nph iso -625 ${pressure} ${pressureDamp}
fix             2 all nph iso -625 -625 ${pressureDamp}
fix             2 all nph iso -625 -625 1000
fix             3 all temp/csvr ${temperature} ${temperature} ${tempDamp} ${seed}
fix             3 all temp/csvr 206.32 ${temperature} ${tempDamp} ${seed}
fix             3 all temp/csvr 206.32 206.32 ${tempDamp} ${seed}
fix             3 all temp/csvr 206.32 206.32 100 ${seed}
fix             3 all temp/csvr 206.32 206.32 100 745823

run             250000
PPPM initialization ...
  extracting TIP4P info from pair style
  using 12-bit tables for long-range coulomb (../kspace.cpp:340)
  G vector (1/distance) = 0.37184835
  grid = 24 25 27
  stencil order = 5
  estimated absolute RMS force accuracy = 0.0031214817
  estimated relative force accuracy = 9.4002495e-06
  using double precision FFTW3
  3d grid and FFT values/proc = 2730 384
Last active /omp style is kspace_style pppm/tip4p/omp
Neighbor list info ...
  update every 1 steps, delay 7 steps, check yes
  max neighbors/atom: 2000, page size: 100000
  master list distance cutoff = 10.8154
  ghost atom cutoff = 10.8154
  binsize = 5.4077, bins = 4 5 5
  1 neighbor lists, perpetual/occasional/extra = 1 0 0
  (1) pair lj/cut/tip4p/long/omp, perpetual
      attributes: half, newton on, omp
      pair build: half/bin/newton/omp
      stencil: half/bin/3d
      bin: standard
Per MPI rank memory allocation (min/avg/max) = 9.204 | 9.213 | 9.220 Mbytes
Step Temp PotEng TotEng E_pair E_mol Press Lx Ly Lz Volume Pxx Pyy Pzz Pxy Pxz Pyz Enthalpy 
18500000    219.59245   -4097.9152   -3721.5412   -4097.9152            0   -1613.8987    18.667636    21.988009    22.774472    9348.1045   -878.48227   -1013.4503   -2949.7635   -14.887954    362.13493    544.76422   -3941.5681 
18501000    211.48236   -4136.0991   -3773.6256   -4136.0991            0   -193.84357    18.602807    21.911649    22.695381    9251.0501    -1165.567    1874.3666   -1290.3304    260.33639    875.62822   -94.280007   -3799.7784 
18502000    205.26664   -4131.0231   -3779.2031   -4131.0231            0   -94.011313    18.627151    21.940324    22.725081    9287.4161   -136.41098    1245.1542   -1390.7771     495.7932   -1110.2187    -129.7494   -3791.9367 
18503000    208.63725   -4136.3014   -3778.7043   -4136.3014            0    396.90186    18.648178     21.96509    22.750733    9318.9032   -285.46235    431.01545    1045.1525    -740.5525    505.36001    36.861739   -3724.7627 
18504000    194.12089   -4142.5931   -3809.8765   -4142.5931            0   -595.53311    18.641466    21.957185    22.742546    9308.8453    189.67652   -830.13869   -1146.1372    569.23574    260.15599    172.52473   -3890.7261 
18505000    207.92531   -4131.9511   -3775.5742   -4131.9511            0   -2072.9267    18.726576    22.057433    22.846379    9436.9301    -1251.653   -1662.8493   -3304.2778    812.30986    346.50295    511.02449   -4060.8668 
18506000    212.27447   -4133.2335   -3769.4023   -4133.2335            0   -455.19288    18.658278    21.976987    22.763055     9334.053   -567.80001    -154.3735   -643.40513    768.82978    436.76024   -286.20544   -3831.3666 
18507000    205.77064   -4137.0732   -3784.3894   -4137.0732            0   -53.951833    18.618943    21.930656    22.715067    9275.1444    413.03193   -147.89229   -426.99515    1337.1765    172.58394    394.89755   -3791.6874 
18508000    204.34742   -4115.5055    -3765.261   -4115.5055            0   -333.42452    18.664844    21.984721    22.771066    9343.9108    418.04135    79.841275   -1498.1562    1822.5525    181.48257   -697.69768   -3810.6973 
18509000    215.71504   -4127.5509   -3757.8227   -4127.5509            0   -428.48996    18.627673    21.940939    22.725718    9288.1974   -751.28662   -656.76811    122.58486      504.653    198.60318   -268.23257   -3815.8655 
18510000    211.70226   -4136.3123   -3773.4618   -4136.3123            0   -1062.5835    18.701866    22.028328    22.816233    9399.6232   -267.24684    29.592407   -2950.0961    465.48428    388.62584    363.69929   -3919.1249 
18511000    199.05706   -4120.9714   -3779.7944   -4120.9714            0     -787.962    18.668414    21.988926    22.775422    9349.2736    389.44217   -2067.9532   -685.37495   -463.47002    213.42094    232.57868   -3887.2327 
18512000    217.59859   -4112.8241   -3739.8675   -4112.8241            0   -1120.1475    18.632848    21.947033    22.732031    9295.9397   -2426.2455    1004.0282   -1938.2253    868.03633   -741.39277    10.356054   -3891.7279 
18513000    202.04384   -4099.5668   -3753.2706   -4099.5668            0    -1435.535    18.754216     22.08999      22.8801    9478.7783   -1742.9061   -946.61419   -1617.0847    697.91958   -729.08147   -812.63502   -3951.7164 
18514000    215.86114   -4173.6456    -3803.667   -4173.6456            0   -325.12794    18.601563    21.910184    22.693863    9249.1936   -487.25765     226.1142   -714.24037    805.37213   -659.83041     537.5371   -3847.5235 
18515000    198.41147   -4118.1107   -3778.0403   -4118.1107            0   -992.75345     18.70125    22.027602    22.815481    9398.6939    -781.3239   -1079.5643   -1117.3722    298.96448    528.51972    530.44191   -3914.1173 
18516000    223.66736   -4163.0312    -3779.673   -4163.0312            0   -554.57108    18.627974    21.941292    22.726084    9288.6464   -1693.4165    695.91472    -666.2115    345.31375    462.23435   -379.52112   -3854.7982 
18517000    200.34525   -4116.1033   -3772.7184   -4116.1033            0   -795.93957    18.663267    21.982864    22.769142     9341.543   -515.40625   -1640.6172   -231.79525    963.02105   -121.79228    353.07283   -3881.1547 
18518000    206.01893   -4152.2276   -3799.1182   -4152.2276            0    -1014.101    18.640201    21.955694    22.741001    9306.9489   -1023.8793   -908.08045   -1110.3434    532.24911   -509.16271    107.90584   -3936.7645 
18519000    208.94731   -4138.6845    -3780.556   -4138.6845            0   -570.04049    18.569893    21.872881    22.655226     9202.033   -366.93447   -271.18895   -1071.9981    593.04408   -180.61163    777.65159   -3857.0567 
18520000    195.71957   -4136.0139   -3800.5573   -4136.0139            0   -947.60392    18.628815    21.942283     22.72711    9289.9048   -218.29505   -710.07314   -1914.4436    1190.5057    312.23571   -608.53306   -3928.9422 
18521000    205.74131   -4159.6917   -3807.0582   -4159.6917            0    -342.1673    18.632413    21.946522    22.731501    9295.2896   -601.24555    544.39444    -969.6508    536.61648    120.10011    141.30352   -3853.4432 
18522000    206.85039   -4116.6629   -3762.1284   -4116.6629            0   -265.14231    18.629616    21.943227    22.728089    9291.1042    156.74691   -662.59014    -289.5837    79.712311     435.0912    -236.6677   -3798.0555 
18523000    204.68865   -4152.4331   -3801.6038   -4152.4331            0   -1710.6945     18.69265    22.017473     22.80499    9385.7341   -2344.8756   -1867.8931   -919.31478    567.70673   -387.21614    444.77555   -4035.7659 
18524000    210.45875   -4102.6914   -3741.9723   -4102.6914            0   -453.54574    18.679899    22.002454    22.789433    9366.5396   -251.43178   -110.55163   -998.65383    729.68118    210.41267     -223.787   -3803.9273 
18525000    206.30829   -4129.8375   -3776.2321   -4129.8375            0    235.31681    18.599679    21.907966    22.691565    9246.3848    168.31186    39.685527    497.95304   -144.17997    220.36982    57.611959   -3744.4999 
18526000    209.47515   -4111.7128   -3752.6796   -4111.7128            0    -827.1043    18.664178    21.983936    22.770253    9342.9102   -1048.2673   -347.65399   -1085.3916    197.36199    457.36983    183.80766   -3865.3781 
18527000    213.62421   -4123.8136    -3757.669   -4123.8136            0   -1493.1519    18.716179    22.045187    22.833695    9421.2206   -1051.2076   -2246.6683   -1181.5798    335.06462    61.190678     321.7979   -3962.8263 
18528000    207.49875   -4152.0956   -3796.4498   -4152.0956            0    663.04934    18.570957    21.874135    22.656525    9203.6156     656.7301    989.79518    342.62272    496.08346    566.65416   -611.08389   -3707.4518 
18529000    191.81458   -4146.0492   -3817.2856   -4146.0492            0   -1911.7906    18.703911    22.030736    22.818727    9402.7058   -2038.1355   -1849.5528   -1847.6833   -180.78261   -653.55766    475.45716   -4079.4471 
18530000     211.9731   -4124.7936    -3761.479   -4124.7936            0    833.25718     18.61342     21.92415    22.708329    9266.8926     376.5926    1858.3977    264.78123     211.1737    360.29228    740.28302   -3648.8658 
18531000    213.69012   -4120.9763   -3754.7188   -4120.9763            0   -1569.3283    18.748602    22.083377    22.873251    9470.2681   -1668.4642    -703.6938    -2335.827   -110.58793   -685.97237    659.54294   -3971.4652 
18532000     209.5188   -4120.7905   -3761.6825   -4120.7905            0    22.577854      18.6667    21.986907     22.77333    9346.6983   -416.94725   -444.33846    929.01927    492.05728   -368.83361   -254.67746   -3758.6049 
18533000    210.70072   -4128.9047   -3767.7709   -4128.9047            0   -798.34896    18.677572    21.999713    22.786594    9363.0394   -1074.2505    298.69818   -1619.4946   -137.88892   -495.80857    106.92089   -3876.7857 
18534000    191.31026   -4132.2148   -3804.3156   -4132.2148            0   -1270.8611       18.699    22.024952    22.812736    9395.3012   -1340.7244   -287.70913   -2184.1499    480.65837    71.324524    259.45487     -3978.45 
18535000    209.58152   -4174.0628   -3814.8473   -4174.0628            0   -9.3195517    18.589715    21.896229    22.679409    9231.5327    183.44625    195.58818   -406.99308    444.63859   -1573.6196   -508.57602    -3816.102 
18536000    197.07706    -4134.062   -3796.2787    -4134.062            0   -1547.6793    18.651367    21.968847    22.754624    9323.6851   -1579.6839   -858.65995    -2204.694    487.29752    614.94913    147.50521   -4006.7265 
18537000    203.16375   -4124.4597   -3776.2439   -4124.4597            0   -786.25291    18.620052    21.931961    22.716419    9276.8008   -404.69246    -2043.373     89.30675    395.56713    -163.6618    271.50192   -3882.6182 
18538000    216.99563   -4153.6742   -3781.7511   -4153.6742            0   -476.60601    18.631119    21.944997    22.729922    9293.3525    -482.6118   -612.64753    -334.5587    673.72678   -771.12877    573.93107   -3846.3475 
18539000    216.46639   -4145.0632   -3774.0472   -4145.0632            0   -783.17869    18.653573    21.971445    22.757315    9326.9932   -1715.4518    1401.7346   -2035.8188    1183.4693   -749.81119   -270.35086   -3880.5788 
18540000    204.50128   -4138.1612    -3787.653   -4138.1612            0   -1066.2163    18.615469    21.926563    22.710828    9269.9524   -1604.8562   -1476.4132   -117.37949    1118.5408   -180.10845   -311.46393   -3931.7977 
18541000    206.10407   -4139.0001   -3785.7448   -4139.0001            0   -567.89797     18.65467    21.972738    22.758654    9328.6398   -356.72232   -633.97834   -712.99325    858.03583   -148.82303   -424.35168   -3863.0065 
18542000    208.93559   -4143.1474   -3785.0389   -4143.1474            0   -2130.9603    18.714466    22.043169    22.831604    9418.6333   -2916.8352   -1145.9857   -2330.0601    48.881785    526.21966    366.54497     -4077.75 
18543000    208.36668   -4135.9342   -3778.8008   -4135.9342            0     -528.357    18.629654    21.943272    22.728134    9291.1602   -1396.8984    128.44598   -316.61857    350.73061   -318.66399   -222.20631   -3850.3943 
18544000    210.99669   -4137.8692   -3776.2281   -4137.8692            0   -487.94563    18.621758    21.933971    22.718501    9279.3516   -879.60118   -1495.6818    911.44612    783.99391   -668.60769    463.99966   -3842.2617 
18545000    191.28577    -4144.134   -3816.2767    -4144.134            0     -1071.21    18.679326    22.001779    22.788734    9365.6773   -871.48859      258.471   -2600.6124    640.68661   -416.85368   -66.965403    -3962.592 
18546000    214.02991   -4139.0331   -3772.1932   -4139.0331            0    152.69006    18.612494    21.923059    22.707199    9265.5094    818.88301    759.10086   -1119.9137    1012.8349    671.72956    501.95485   -3751.5605 
18547000    198.16361   -4138.5907   -3798.9451   -4138.5907            0   -175.63958    18.641651    21.957402     22.74277    9309.1212    954.35645   -958.38439    -522.8908    801.10604     -1017.69   -39.734757   -3822.7906 
18548000    204.78839   -4123.5865   -3772.5862   -4123.5865            0   -22.677927    18.666368    21.986516    22.772926       9346.2   -416.51381     432.1876   -83.707567     1828.477   -59.737668   -872.29287   -3775.6773 
18549000    204.34851   -4123.6755   -3773.4292   -4123.6755            0   -249.50239    18.676454    21.998396     22.78523    9361.3583   -207.87533   -254.28237   -286.34947   -583.55055     -476.377   -376.90162   -3807.4927 
18550000    206.38694   -4152.0885   -3798.3484   -4152.0885            0   -801.75564    18.639479    21.954844     22.74012    9305.8675   -1442.1999    101.65748   -1064.7245    135.64372    390.82875   -246.36855   -3907.1599 
18551000    212.85451   -4133.9067   -3769.0814   -4133.9067            0   -149.53124    18.667563    21.987923    22.774383    9347.9947   -1129.2289   -1290.0169     1970.652    487.23815   -26.198621    35.596374   -3789.4671 
18552000    210.91878   -4153.5807   -3792.0731   -4153.5807            0    247.65779    18.619577    21.931403    22.715841    9276.0919    644.43025    147.52308   -48.979968     488.6964   -680.61291    648.47409   -3758.5694 
18553000    204.56934   -4145.8625   -3795.2377   -4145.8625            0   -626.47001    18.616363    21.927617     22.71192     9271.289    699.16849   -230.07168   -2348.5068   -271.76502   -204.39211    1060.7827   -3879.9441 
18554000    217.06764   -4135.2509   -3763.2044   -4135.2509            0   -473.54222    18.636773    21.951657     22.73682    9301.8159     -695.435   -624.99238   -100.19927    113.44052    150.73372   -132.49419   -3827.4439 
18555000    208.69775   -4140.5917   -3782.8909   -4140.5917            0    598.68068    18.590202    21.896803    22.680003    9232.2581    286.41277    342.39139    1167.2379    1384.9472    569.56732    472.36128   -3702.2827 
18556000    215.88744    -4120.171   -3750.1473    -4120.171            0   -1109.6279    18.628182    21.941538    22.726339    9288.9582   -1038.9811    44.455655   -2334.3581    625.01997    666.53417    386.51408   -3900.4685 
18557000     209.3498   -4143.9316   -3785.1132   -4143.9316            0   -1418.5186    18.630489    21.944255    22.729153    9292.4101   -1407.7489   -379.85632   -2467.9506    360.66523    64.022833   -61.942613   -3977.3513 
18558000    201.26583   -4124.2606   -3779.2978   -4124.2606            0   -1622.4649    18.680809    22.003526    22.790544    9367.9087   -2379.2771    -1402.218   -1085.8995   -73.746028    534.63899    278.12201   -4000.9611 
18559000    203.39934   -4124.2355    -3775.616   -4124.2355            0   -154.32821    18.642473    21.958371    22.743773    9310.3532   -360.43316    482.65848   -585.20996    527.08479    98.683886    1233.7112    -3796.571 
18560000    195.24648   -4139.7112   -3805.0654   -4139.7112            0   -907.86788    18.580437      21.8853    22.668089    9217.7164   -625.61577   -444.90543   -1653.0824    678.64873   -69.376393   -41.426904   -3927.1109 
18561000    199.13185    -4127.355   -3786.0499    -4127.355            0   -640.90968    18.590671    21.897355    22.680575    9232.9563   -1079.8129   -685.47576   -157.44034    232.01017   -908.36121   -227.67764   -3872.3504 
18562000    206.90653   -4127.5618   -3772.9311   -4127.5618            0   -807.06573    18.660327    21.979401    22.765556     9337.129   -770.19629   -37.316527   -1613.6844   -316.84863   -575.87017    777.54754   -3882.8312 
18563000    218.88335   -4126.1048   -3750.9462   -4126.1048            0   -1377.3158    18.679713    22.002235    22.789207    9366.2602   -891.39421   -1464.0941   -1776.4591    148.57511    854.26781    328.46343   -3939.0838 
18564000    205.28105   -4137.3566   -3785.5119   -4137.3566            0   -879.90107    18.662295    21.981718    22.767956    9340.0827   -1243.2999   -137.62434    -1258.779    455.72868    461.79433   -64.545335    -3905.368 
18565000    203.56541   -4163.5179   -3814.6138   -4163.5179            0   -105.34256    18.577624    21.881987    22.664658    9213.5305   -302.25995    154.55088    -168.3186    972.91282   -657.89282     -820.881   -3828.7686 
18566000      212.349   -4120.3218   -3756.3629   -4120.3218            0   -1251.4867    18.691518     22.01614    22.803609     9384.029   -1569.1901   -401.23875   -1784.0312    244.01508    231.06015   -459.93364   -3927.6369 
18567000    201.18475   -4156.6405   -3811.8167   -4156.6405            0    629.15047    18.586801    21.892797    22.675854    9227.1921   -974.48471    1040.8412    1821.0949    1262.5843   -122.41231    358.19222   -3727.1525 
18568000    218.35616   -4164.0378   -3789.7829   -4164.0378            0   -641.88794    18.628633    21.942068    22.726888    9289.6321   -1223.6573   -452.46344   -249.54307     507.2374    330.62837   -734.70757   -3876.7457 
18569000    191.19346   -4147.6729   -3819.9738   -4147.6729            0    -847.9835    18.634623    21.949124    22.734196    9298.5966   -403.00492   -210.26257    -1930.683    712.99713    1152.6481   -376.03749   -3934.9693 
18570000    202.51784    -4130.662   -3783.5533    -4130.662            0   -1493.7259    18.689667     22.01396    22.801351    9381.2414   -1602.0339   -713.58111   -2165.5628    797.36921     1141.976    482.98269   -3987.9186 
18571000    212.94103   -4145.8738   -3780.9002   -4145.8738            0   -1096.3241     18.65495    21.973067    22.758995    9329.0589   -1732.2147   -657.78951   -898.96811     620.3642    60.646174    140.43133   -3930.0603 
18572000    226.08314   -4120.6893   -3733.1905   -4120.6893            0    -704.7863    18.665448    21.985432    22.771803    9344.8174    -1520.665   -686.09072    92.396826    52.905556   -256.32372    362.37833    -3829.242 
18573000    202.15488   -4163.0199   -3816.5334   -4163.0199            0   -374.52446     18.66119    21.980417    22.766608    9338.4236   -873.54116    721.56815   -971.60038    1093.3896    481.58447    195.14222   -3867.5403 
18574000     200.9154    -4140.219   -3795.8569    -4140.219            0   -552.83845    18.665698    21.985727    22.772108    9345.1938   -394.26508   -576.75005   -687.50024    374.94606    852.22928    374.89606   -3871.2033 
18575000    207.02575    -4144.162   -3789.3269    -4144.162            0   -1660.8785     18.71768    22.046954    22.835526    9423.4869   -1824.7972   -1212.7441   -1945.0941    344.21607    244.69994   -460.60527   -4017.5846 
18576000    207.22592   -4148.5176   -3793.3395   -4148.5176            0    120.42666    18.648821    21.965847    22.751518    9319.8667   -818.25237    577.64151    601.89085     299.5107    323.97458    184.08505    -3776.971 
18577000    204.03344   -4155.9933   -3806.2869   -4155.9933            0   -1315.9242    18.664893    21.984779    22.771126    9343.9844   -943.74251   -1020.6719    -1983.358    929.20394    222.24686    389.06076   -3985.6111 
18578000    213.76024   -4118.6523   -3752.2746   -4118.6523            0   -180.11252    18.679338    22.001793    22.788749    9365.6957    -639.4779    952.44949   -853.30917    846.52804   -455.01083    -164.7877    -3776.876 
18579000    214.04042   -4161.2926   -3794.4347   -4161.2926            0   -1069.7277    18.668215    21.988692    22.775179     9348.975   -1799.7936   -529.11743   -880.27203    535.63603    477.50659    467.95668   -3940.2869 
18580000     213.2611   -4120.2014   -3754.6791   -4120.2014            0   -1055.3389    18.618119    21.929685    22.714062    9273.9131   -1316.5027   -369.06877   -1480.4453    345.11487    1070.5156    -532.6034   -3897.4143 
18581000    211.63588   -4147.6601   -3784.9235   -4147.6601            0   -473.61829    18.638956    21.954228    22.739483    9305.0849    245.45716   -538.10856   -1128.2035    91.295848    36.252317     -634.567   -3849.1959 
18582000    202.55296   -4150.5035   -3803.3347   -4150.5035            0   -1324.4246    18.648564    21.965545    22.751205    9319.4824   -2545.0935   -65.036295   -1363.1439    199.30365   -519.69839    -924.8135    -3983.344 
18583000    200.52072   -4146.5788   -3802.8931   -4146.5788            0   -44.907865    18.635753    21.950455    22.735575    9300.2885   -212.41611    1130.5589   -1052.8664    283.06559    252.91801    -36.24178   -3808.9842 
18584000    211.99239   -4114.7248   -3751.3771   -4114.7248            0   -698.57426    18.628569    21.941994    22.726811    9289.5374    41.117389   -874.98311   -1261.8571    1120.0278    345.60757    1209.0841   -3846.0188 
18585000    212.88734   -4160.4167   -3795.5351   -4160.4167            0    -976.6503    18.627034    21.940185    22.724937    9287.2403   -2084.9339   -454.47513   -390.54186    1031.2577    290.62594    422.18126   -3927.8174 
18586000     204.3509   -4133.9372   -3783.6868   -4133.9372            0   -290.50591    18.612067    21.922556    22.706678    9264.8717   -878.60279    1025.0183   -1017.9333    1693.5553   -359.93623   -792.16523   -3822.9395 
18587000    195.73041   -4139.5671   -3804.0919   -4139.5671            0   -816.28567    18.652101    21.969712     22.75552    9324.7862   -84.495581   -1201.4029   -1162.9585    960.12687    753.71044    428.80262   -3915.1006 
18588000    216.71175   -4134.5697   -3763.1332   -4134.5697            0   -1240.3697    18.664578    21.984407    22.770741    9343.5111   -1496.3217    -1349.825    -874.9625    238.23859   -918.66135    234.96192   -3932.1528 
18589000    197.29078   -4147.7495   -3809.5999   -4147.7495            0   -364.61427    18.640756    21.956348    22.741678    9307.7805   -15.389817    2.0379207   -1080.4909     432.4501    523.59404    1577.3161   -3859.0942 
18590000    205.83766   -4137.6421   -3784.8434   -4137.6421            0    -1587.116    18.696685    22.022226    22.809913    9391.8134   -1558.1852   -1281.6468   -1921.5159    1137.9572    187.42738     737.7342   -4002.2307 
18591000    196.61447   -4146.6295    -3809.639   -4146.6295            0   -827.82436    18.658024    21.976688    22.762746    9333.6724   -1342.9116   -685.33369   -455.22779    232.41233    271.52616    1074.0349   -3922.3242 
18592000    214.53151   -4138.2388   -3770.5391   -4138.2388            0   -330.26743    18.659899    21.978896    22.765033    9336.4863    57.035112   -169.32758   -878.50982    617.74733    230.79053    666.21345   -3815.5094 
18593000    212.36627   -4169.1131   -3805.1246   -4169.1131            0    500.10358    18.563198    21.864995    22.647058    9192.0832   -464.49554     716.2849    1248.5214    281.59392   -659.86682    153.90895   -3738.0822 
18594000    204.59305   -4141.1161   -3790.4506   -4141.1161            0   -1701.8527    18.708937    22.036657     22.82486    9410.2887   -1460.5695   -1158.6467   -2486.3418    634.39579   -8.4970547    888.26686   -4024.0119 
18595000    206.39576    -4161.626   -3807.8708    -4161.626            0    224.13196    18.581847    21.886962     22.66981    9219.8161     96.12903    1078.8731   -502.60624    371.84532   -288.71736   -299.46372   -3777.7336 
18596000    209.49943   -4137.2974   -3778.2225   -4137.2974            0     612.1952    18.569286    21.872166    22.654486    9201.1308    743.03347    301.84191    791.71022    560.36761    509.85389    284.55217   -3696.0726 
18597000    218.09176   -4152.4941   -3778.6923   -4152.4941            0   -1009.1289    18.630127    21.943829    22.728712    9291.8686   -2289.9529    1175.7287   -1913.1625    662.69562    80.917795    449.22163   -3915.4418 
18598000    205.28637   -4169.5749    -3817.721   -4169.5749            0   -1277.4609    18.661683    21.980998     22.76721    9339.1645   -2630.9401    206.68118   -1408.1238    216.96978     14.39315    1260.5026   -3991.7139 
18599000    205.02747   -4134.2308   -3782.8207   -4134.2308            0    -1212.898    18.638304    21.953461    22.738688    9304.1091   -1445.8461   -976.56512   -1216.2827     928.2046   -805.13762   -118.64181   -3947.3999 
18600000    201.21202   -4153.6628   -3808.7923   -4153.6628            0   -1408.3152    18.670595    21.991495    22.778082    9352.5507   -1581.7163   -1140.3023    -1502.927    749.91512     314.1622   -275.50015   -4000.8828 
18601000    200.76323   -4161.9154   -3817.8141   -4161.9154            0   -1977.0836     18.68911    22.013302     22.80067    9380.4013   -1384.1265   -1263.3775   -3283.7468   -465.15467   -410.60309    1261.0891   -4088.2861 
18602000    223.10343    -4155.643   -3773.2514    -4155.643            0   -195.70261    18.638104    21.953225    22.738444    9303.8095   -609.46789    429.77913   -407.41908    321.83439     539.7216    409.02142   -3799.8056 
18603000    204.41495   -4128.4971   -3778.1369   -4128.4971            0    -1735.431    18.640166    21.955654    22.740959    9306.8978   -2607.3388   -1031.5801   -1567.3742    560.63776    401.43248   -104.32753   -4013.6897 
18604000    203.83856   -4136.6744   -3787.3021   -4136.6744            0   -666.88585    18.691049    22.015587    22.803037    9383.3224    574.42733   -1320.9785   -1254.1064   -84.561842    536.91658   -835.95024   -3878.5628 
18605000    215.48917   -4136.6044   -3767.2633   -4136.6044            0    1004.6229    18.573669    21.877329    22.659833    9207.6478    628.79298    492.20124    1892.8745    552.37582   -870.86918   -375.25741   -3632.3585 
18606000    210.24178   -4169.9895   -3809.6423   -4169.9895            0   -707.21644    18.621139    21.933243    22.717747    9278.4267    -1076.603   -439.93243   -605.11388    569.00331    283.90569    187.33731   -3905.3403 
18607000     205.1667   -4157.1649   -3805.5162   -4157.1649            0   -658.39474    18.606844    21.916405    22.700306    9257.0742    178.63111   -577.13983   -1576.6755   -539.32902    -23.75679   -794.94345   -3894.4028 
18608000    196.46894   -4122.4049   -3785.6639   -4122.4049            0    726.66044    18.556836    21.857501    22.639296    9182.6357    1018.4397    1222.3852    -60.84363    24.968955    289.64193    963.53691     -3688.35 
18609000    210.20083   -4152.9558   -3792.6787   -4152.9558            0    33.739226     18.53958    21.837177    22.618245    9157.0438    556.20462    1508.5374   -1963.5243    520.53178    120.60428    722.67456    -3788.173 
18610000    201.73902   -4137.4254   -3791.6516   -4137.4254            0   -1216.4348    18.654963    21.973082    22.759011     9329.079   -2361.6108    180.37803   -1468.0717    149.42036    563.53906   -595.37616   -3957.1537 
18611000    206.71047   -4134.3892   -3780.0945   -4134.3892            0   -1306.1222    18.646036    21.962568    22.748121    9315.6928    -896.4051   -569.01242    -2452.949    425.17958      236.957   -275.09334    -3957.544 
18612000    203.60301   -4130.1844   -3781.2158   -4130.1844            0   -623.09476    18.660112    21.979147    22.765293    9336.8063   -779.71652     -506.591   -582.97676   -397.09991    877.39123   -290.88058   -3866.0612 
18613000    204.57207   -4142.7681   -3792.1386   -4142.7681            0      -644.97    18.604113    21.913188    22.696974    9252.9984   -952.97308    -467.5857   -514.35121   -350.40855    569.52925    112.00895   -3879.1744 
18614000    213.27258   -4115.6574   -3750.1155   -4115.6574            0   -730.24034    18.642811    21.958769    22.744186    9310.8597   -460.58078    -698.5851   -1031.5551     742.5892   -91.680395    427.43881   -3849.2743 
18615000    223.14821    -4145.007   -3762.5386    -4145.007            0   -748.58595    18.656281    21.974635    22.760619    9331.0566   -1131.7916    181.21555   -1295.1818    434.11864   -183.81721    291.05165   -3864.4091 
18616000    202.68882   -4151.2103   -3803.8086   -4151.2103            0    498.70585     18.59987     21.90819    22.691798    9246.6687    181.85067    437.65412    876.61276    620.65569   -76.378693    137.60882   -3736.5565 
18617000    201.71255   -4164.1782   -3818.4498   -4164.1782            0   -954.37015    18.603989    21.913041    22.696823    9252.8131   -862.18108   -295.48991   -1705.4395    791.58383    1110.1158    255.62603   -3947.2352 
18618000    203.24061   -4153.3745   -3805.0271   -4153.3745            0   -75.715276    18.591834    21.898724    22.681993    9234.6886   -276.98468    323.70932   -273.87047    1414.9002    929.07722    304.12018   -3815.2243 
18619000    211.71987   -4139.2209   -3776.3403   -4139.2209            0    383.17587    18.648083    21.964978    22.750617    9318.7604   -654.77477     1405.905    398.39743    223.72469     57.80431   -389.19379    -3724.265 
18620000    205.75218   -4152.9181   -3800.2659   -4152.9181            0   -1131.8579    18.701293    22.027653    22.815534     9398.759   -2110.5008   -259.51599   -1025.5568    290.56452    449.30338   -588.46914   -3955.4111 
18621000      207.785   -4157.3192   -3801.1828   -4157.3192            0   -23.128836    18.611006    21.921306    22.705383    9263.2866   -581.48139   -42.064807    554.15969    326.86003   -397.82178   -693.43576   -3804.3074 
18622000    222.73074   -4135.4429   -3753.6901   -4135.4429            0   -531.52044    18.610595    21.920823    22.704883    9262.6739    -605.4106   -854.91981   -134.23092    300.82635     538.7785    654.71024   -3825.4913 
18623000    198.15822    -4162.197   -3822.5606    -4162.197            0   -584.67023    18.615874    21.927041    22.711323    9270.5584   -734.24796    789.99291   -1809.7556    581.21099    1208.7427   -687.95688    -3901.609 
18624000    211.29561   -4129.1586   -3767.0052   -4129.1586            0     76.90369    18.618983    21.930702    22.715115    9275.2031    359.71106    977.38693   -1106.3869    833.12351   -710.28414   -704.98207   -3756.6024 
18625000    225.92586   -4148.9928   -3761.7636   -4148.9928            0    171.52345    18.599747    21.908045    22.691648    9246.4855   -568.24796    756.66227    326.15604    746.11421   -414.04418   -102.81326   -3738.6336 
18626000    202.81306   -4137.5908   -3789.9762   -4137.5908            0    357.55567    18.628292    21.941667    22.726472    9289.1223   -60.025911    1415.5997   -282.90679    16.900966   -585.96884    243.76647   -3741.5373 
18627000    210.77473   -4144.2697   -3783.0091   -4144.2697            0   -1996.5849    18.668501    21.989028    22.775528    9349.4042   -2462.0402    -607.8733   -2919.8413    462.74238   -235.34955   -560.92756   -4055.2464 
18628000      212.296   -4146.5748   -3782.7068   -4146.5748            0    1317.5703    18.581649    21.886729    22.669569    9219.5213    587.75698     1303.522    2061.4321   -87.049316    221.09049     -691.767   -3605.5499 
18629000    212.57689   -4131.1725    -3766.823   -4131.1725            0   -815.65518    18.593813    21.901056    22.684408    9237.6384   -580.16215   -1252.8764   -613.92699   -7.2973195   -735.26529    540.29002   -3876.7093 
18630000     197.6275   -4152.2559   -3813.5291   -4152.2559            0   -811.50686    18.623488    21.936009    22.720612    9281.9378    497.69239   -745.50945   -2186.7035    874.57177   -120.59487   -318.51931   -3923.3808 
18631000    207.24434   -4172.4165   -3817.2068   -4172.4165            0   -368.02147    18.573564    21.877205    22.659704    9207.4912   -401.35276   -645.05981   -57.651826    108.68204   -698.77033    985.01659   -3866.6254 
18632000     205.5099   -4108.9662   -3756.7292   -4108.9662            0   -796.37772    18.617181     21.92858    22.712917    9272.5103   -1738.7523    551.88355   -1202.2645    726.57193    370.13824    160.87172   -3864.4234 
18633000    200.26389   -4138.8748   -3795.6294   -4138.8748            0   -1142.3633     18.69461    22.019781     22.80738    9388.6857   -1091.4395   -321.35656   -2014.2937    35.120913    190.28903   -64.293999   -3952.0467 
18634000    203.49821   -4149.2953   -3800.5064   -4149.2953            0   -1340.6765    18.678061    22.000289    22.787191    9363.7752   -1770.7656   -328.72737   -1922.5366    421.70151    432.42212    849.63429   -3983.5906 
18635000    195.10713   -4150.8384   -3816.4314   -4150.8384            0   -468.26723    18.635188    21.949789    22.734885    9299.4421   -1181.3644    -468.4847    245.04737   -254.13166   -67.428627    -108.3266   -3879.9392 
18636000    200.42631   -4133.2106   -3789.6867   -4133.2106            0    -260.8122    18.649898    21.967116    22.752832    9321.4823   -1235.1286    705.27408   -252.58211   -596.75421    1052.3603   -89.935387   -3825.1427 
18637000     202.2195   -4149.8428   -3803.2455   -4149.8428            0   -816.69359    18.695922    22.021326    22.808981    9390.6623   -1201.8274    328.55007   -1576.8034    -681.1505    -679.6218    -20.18377   -3915.0942 
18638000    201.84587   -4128.3863   -3782.4294   -4128.3863            0   -1300.6196    18.707494    22.034957      22.8231    9408.1117   -1904.3718   -333.94441   -1663.5427    -849.8051   -355.00009   -633.44327   -3960.8844 
18639000    204.55827   -4177.2843   -3826.6785   -4177.2843            0   -597.23855    18.636557    21.951402    22.736556     9301.492    -627.4541    946.94924   -2111.2108   -613.59664   -247.50689   -774.73808   -3907.6955 
18640000    210.83228   -4151.7736   -3790.4143   -4151.7736            0   -1196.4583    18.725287    22.055914    22.844806    9434.9807   -2144.7706   -600.38888   -844.21548   -356.33645    256.79387   -6.5897605   -3955.0464 
18641000    206.41552    -4167.581   -3813.7919    -4167.581            0   -577.91779    18.663914    21.983626    22.769932    9342.5143    -941.6795    856.94344   -1649.0173   -260.61677   -554.58117   -1097.8291   -3892.5338 
18642000    200.34094   -4141.6904   -3798.3129   -4141.6904            0   -778.20276     18.71391    22.042514    22.830927    9417.7944   -517.06823    136.96784   -1954.5079   -117.86827   -970.46619   -971.50121   -3905.1982 
18643000    200.06192   -4141.8158   -3798.9165   -4141.8158            0   -625.65495    18.723752    22.054107    22.842934    9432.6618   -1101.3647   -412.42775   -363.17238    181.58222   -544.22018    153.45056   -3884.9852 
18644000    207.84325   -4155.7047   -3799.4685   -4155.7047            0   -1730.5444    18.694259    22.019368    22.806953    9388.1579    -2228.708    -1002.207   -1960.7183    758.35764    106.57598    -298.6705   -4036.4088 
18645000    213.82363    -4137.806   -3771.3196    -4137.806            0    545.64482    18.661105    21.980316    22.766504    9338.2957    313.29727    1672.8102   -349.17299   -1194.9555    -19.13992    137.41355   -3697.0086 
18646000    195.42943   -4136.8795   -3801.9201   -4136.8795            0   -1327.6248    18.698563    22.024437    22.812203    9394.6423   -2287.5336    425.22758   -2120.5685    555.81838    1426.6953    108.90188   -3983.8196 
18647000    199.91331   -4154.3951   -3811.7506   -4154.3951            0    -250.7508    18.662035    21.981412    22.767639    9339.6922   -439.39262    120.06877   -432.92857   -264.16969    46.047636   -45.020586   -3845.9053 
18648000     205.8599   -4173.2149    -3820.378   -4173.2149            0   -42.873695    18.616304    21.927547    22.711848    9271.2007    109.51874    1235.3537   -1473.4935   -252.58542   -771.42056   -365.72472    -3826.175 
18649000    209.43135   -4116.9436   -3757.9854   -4116.9436            0   -13.740337    18.670593    21.991493     22.77808    9352.5478    -1157.459    201.53533     914.7027    -886.3887   -799.71991   -127.30289   -3759.8596 
18650000    195.09435   -4127.8319   -3793.4469   -4127.8319            0    347.98944    18.608364    21.918195    22.702161    9259.3434     83.91606    1096.2184    -136.1661   -474.19872    873.70448   -368.45043   -3746.4551 
18651000    218.15683   -4141.9812   -3768.0678   -4141.9812            0   -1208.3324     18.68025    22.002867    22.789861     9367.067   -1286.9845   -340.04737   -1997.9654    171.60974    1016.0067   -657.16341    -3933.137 
18652000    190.28474   -4139.7868   -3813.6452   -4139.7868            0   -475.55749    18.618378     21.92999    22.714378    9274.2999    48.431872   -1465.0941   -10.010245    1178.2363    687.75074    394.12437   -3877.9673 
18653000    204.82003   -4135.3704   -3784.3159   -4135.3704            0   -1374.3602    18.667942    21.988369    22.774845    9348.5637   -2467.8372   -321.05197   -1334.1913    572.03278   -390.92514   -744.15807   -3971.6951 
18654000    203.19974   -4153.0068   -3804.7294   -4153.0068            0     73.77073    18.619598    21.931427    22.715867    9276.1234    41.243864    666.61574   -486.54742   -127.67967    317.99667   -160.73661   -3794.7495 
18655000    203.59901   -4146.5029   -3797.5412   -4146.5029            0    558.37581     18.57756    21.881912     22.66458    9213.4354   -995.93507    1893.9327    777.12981     317.5376    -296.4277    102.39734   -3722.5131 
18656000    196.67565   -4162.1613    -3825.066   -4162.1613            0    -952.0854    18.636415    21.951235    22.736382    9301.2793   -1511.2711   -697.20076   -647.78433    791.26133   -873.08535    75.516876    -3954.216 
18657000    200.25385   -4141.4321   -3798.2039   -4141.4321            0    142.86941    18.656718    21.975149    22.761152    9331.7116    248.64557    1927.0367    -1747.074    295.33877    17.998611   -214.76254   -3778.7603 
18658000     201.3204   -4148.7016   -3803.6453   -4148.7016            0   -861.64639     18.70118     22.02752    22.815396    9398.5878   -2173.9267    1516.2079   -1927.2203    1183.1838   -833.39467   -79.456982   -3921.7501 
18659000    198.48796   -4132.6098   -3792.4082   -4132.6098            0    171.68952    18.625729    21.938648    22.723345    9285.2885     456.4588    428.20646   -369.59668   -87.968837    84.030786    172.14165   -3769.1586 
18660000    216.99612   -4134.3615   -3762.4376   -4134.3615            0   -1050.6737    18.711271    22.039405    22.827707    9413.8101    59.071318   -388.21167   -2822.8808   -1117.1496    202.15963    1305.9969   -3906.6854 
18661000    197.51981   -4159.6978   -3821.1556   -4159.6978            0   -249.00545    18.651357    21.968835    22.754612    9323.6705   -1319.0313    1371.7179   -799.70298    44.076843    104.61488   -329.80713   -3855.0144 
18662000    193.46312   -4135.0069   -3803.4177   -4135.0069            0   -773.25071    18.672918    21.994231    22.780916    9356.0416   -1367.4577   -151.79397   -800.50046   -470.00773     210.2272    6.9724596   -3908.9265 
18663000      195.854    -4123.101    -3787.414    -4123.101            0   -2037.6628     18.71331    22.041807    22.830194    9416.8882   -1618.1798   -873.34077   -3621.4677     90.51803    252.60948   -481.19623   -4067.2577 
18664000    208.77562   -4149.5627   -3791.7285   -4149.5627            0   -202.57072    18.692546     22.01735    22.804862    9385.5767   -1256.7468    857.25317   -208.21856    720.53239    797.59954   -228.42242   -3819.4561 
18665000      210.438   -4158.5562   -3797.8727   -4158.5562            0    950.33985    18.592113    21.899053    22.682334    9235.1047   -75.692813    1798.9082    1127.8042     944.7423    376.36327    1472.5479   -3669.8766 
18666000     212.0541   -4146.3616   -3782.9081   -4146.3616            0    424.70191    18.670703    21.991622    22.778214    9352.7132   -550.47602    1063.5278    761.05397    967.26473   -67.714666    381.85398   -3724.9789 
18667000    195.59684   -4152.9944   -3817.7481   -4152.9944            0   -503.41716    18.651461    21.968958    22.754739    9323.8265   -646.48989   -260.29013   -603.47148    1555.9646    528.39945   -288.68062    -3886.202 
18668000    212.26999   -4126.6866   -3762.8631   -4126.6866            0   -551.76421    18.673258    21.994631    22.781331     9356.553   -26.626008   -491.28427   -1137.3824    14.472037    431.10368    431.70919   -3838.1545 
18669000    228.54989   -4163.0234   -3771.2967   -4163.0234            0   -483.02872    18.653967    21.971909    22.757797    9327.5852      189.029     19.15892   -1657.2741    471.42256    1446.6638   -176.33537   -3837.0047 
18670000    210.39572   -4149.1188   -3788.5077   -4149.1188            0    -540.0518    18.669589    21.990309    22.776855    9351.0384   -2041.4127    1945.1043    -1523.847   -647.73674   -125.75955    1054.3564   -3862.1575 
18671000    211.87873   -4156.4747   -3793.3218   -4156.4747            0   -213.91068    18.692191    22.016932     22.80443    9385.0423   -425.97604    160.08221   -375.83821   -190.28923   -727.37878   -117.94965   -3822.6001 
18672000    214.44795   -4171.1224   -3803.5659   -4171.1224            0    406.85791    18.674963     21.99664    22.783411    9359.1164    454.98079    1252.4716   -486.87869    812.60989   -776.60959   -251.62976   -3748.0326 
18673000    194.52026   -4140.0672   -3806.6661   -4140.0672            0   -355.94791    18.639523    21.954895    22.740174    9305.9334   -1518.0414    1246.2298   -796.03211     1245.151    1285.9097    1012.2057   -3854.9745 
18674000    197.96858   -4147.4618   -3808.1504   -4147.4618            0   -1255.5679    18.706715    22.034039    22.822149    9406.9358   -494.32662    -1583.467     -1688.91    58.575231   -434.17474   -594.23641   -3980.4024 
18675000    213.84197   -4151.4635   -3784.9457   -4151.4635            0   -1507.3939    18.680193      22.0028    22.789792    9366.9817   -2444.7872   -303.75905   -1773.6355    436.89745   -30.623691    690.02845   -3990.8675 
18676000     200.0972   -4145.2287    -3802.269   -4145.2287            0    -763.6879    18.676481    21.998428    22.785263    9361.3985   -923.87887    436.49476   -1803.6796    11.354764    511.80821    436.96235   -3906.5325 
18677000    215.99817   -4140.8679   -3770.6544   -4140.8679            0   -237.91034    18.632887     21.94708    22.732079    9295.9989    340.44959    14.788467   -1068.9691    51.220563    222.40744   -159.77131   -3802.9086 
18678000    205.77035   -4127.5129   -3774.8296   -4127.5129            0    -110.4123    18.698637    22.024525    22.812293    9394.7546   -424.64738    433.73488    -340.3244    155.88527    107.71568   -704.22075   -3789.9575 
18679000    202.51912    -4147.258   -3800.1472    -4147.258            0   -357.46695    18.651619    21.969143    22.754931    9324.0622    179.45182   -883.44554   -368.40712   -530.95335    551.36484   -642.45449   -3848.7562 
18680000    204.42824   -4138.2649   -3787.8819   -4138.2649            0   -1303.6772     18.72475    22.055282    22.844151    9434.1694   -1843.2077    360.18205   -2428.0061   -417.18351    546.54331    657.60749   -3967.2518 
18681000    208.01146   -4133.8024   -3777.2778   -4133.8024            0   -418.42634    18.692072    22.016792    22.804284    9384.8629   -1327.2622   -138.22857    210.21179    22.842404    639.32062   -166.39439   -3834.5473 
18682000    214.26694   -4118.3483   -3751.1021   -4118.3483            0   -1583.4207    18.711243    22.039372    22.827672    9413.7679    -1626.026    -442.4221    -2681.814   -59.534468    878.08735   -494.70773   -3968.4902 
18683000    202.58205   -4146.2339   -3799.0152   -4146.2339            0   -528.76634    18.617059    21.928436    22.712768    9272.3279   -1198.2903    247.04627   -635.05495    840.63733    1311.9291    56.846131   -3870.5189 
18684000    204.64638   -4153.4226   -3802.6657   -4153.4226            0   -789.56416    18.644397    21.960637    22.746121    9313.2365   -1632.1559    368.90163   -1105.4381   -398.86642    237.47943   -99.026132   -3909.9074 
18685000    210.71326   -4131.1481   -3769.9928   -4131.1481            0   -1281.9839    18.666576    21.986761     22.77318    9346.5129   -1686.5961   -1170.1403   -989.21531    596.01022   -510.50653    514.61577   -3944.7391 
18686000    213.30558   -4128.2324    -3762.634   -4128.2324            0   -1088.9446    18.645875    21.962378    22.747924    9315.4518   -1708.2603   -1639.1151    80.541686    626.14622    180.50387    -491.0381    -3910.574 
18687000    206.46987   -4149.3262   -3795.4439   -4149.3262            0   -1036.6656    18.657752    21.976368    22.762414    9333.2642   -1326.6032   -448.14797   -1335.2457    351.20054   -1096.9029   -721.29641   -3936.5508 
18688000    209.41671   -4115.7691    -3756.836   -4115.7691            0    -242.1105    18.688963     22.01313    22.800491    9380.1808   -675.48126    534.43109   -585.28131    526.06596   -267.38241    568.62561   -3789.9568 
18689000    191.98367   -4142.7863   -3813.7329   -4142.7863            0   -510.48489    18.688179    22.012206    22.799534    9378.9998     -547.917   -681.81183   -301.72585    427.71084    937.58731    383.56911   -3883.5586 
18690000    210.40468   -4107.4138   -3746.7874   -4107.4138            0   -930.25104    18.656562    21.974965    22.760962    9331.4774    20.949227   -157.89452   -2653.8078   -13.862041    1254.0433    524.15585   -3873.3853 
18691000    213.37288    -4140.101   -3774.3872    -4140.101            0   -898.55416    18.663663    21.983329    22.769625    9342.1366    -2297.327     236.2349   -634.57043    -199.5798    1015.6578   -608.83804   -3896.8111 
18692000    214.49194   -4142.8166   -3775.1848   -4142.8166            0    595.37171    18.581046    21.886018    22.668833    9218.6233    118.91563     2360.148   -692.94853    674.56899    497.03765     1310.807   -3695.1405 
18693000    208.67147    -4137.151   -3779.4953    -4137.151            0   -894.66019    18.643745    21.959869    22.745326    9312.2594   -993.85293   -1143.0665   -547.06113    685.46709   -190.36748   -409.29611   -3900.9989 
18694000    209.77958   -4129.5222   -3769.9672   -4129.5222            0    -1561.092    18.715683    22.044603     22.83309     9420.472   -2446.5847   -1478.3392   -758.35212    1300.9129   -1214.6084   -140.70481   -3984.4424 
18695000    206.34757   -4140.4158   -3786.7431   -4140.4158            0   -1433.2221     18.69192    22.016613    22.804099    9384.6344   -893.06577    -1229.179   -2177.4214    439.24276    703.69888   -597.84916   -3982.9014 
18696000    210.54108   -4144.5745   -3783.7143   -4144.5745            0   -1015.0709    18.665839    21.985893     22.77228    9345.4057    -948.7675   -230.27904   -1866.1661    542.39772   -313.89181   -459.57651   -3922.0615 
18697000    190.36041   -4106.4791   -3780.2079   -4106.4791            0   -132.28424    18.667899    21.988319    22.774793       9348.5    72.689602    1710.7321   -2180.2744    1030.4843   -597.66044   -723.24921   -3798.2433 
18698000     205.3703    -4128.215   -3776.2174    -4128.215            0   -1843.4384     18.68766    22.011595    22.798902    9378.2193   -2724.5168   -445.12171   -2360.6767    1720.8946    898.20134     321.4339   -4028.3476 
18699000    208.27672   -4125.6455   -3768.6663   -4125.6455            0   -191.06772    18.595247    21.902745    22.686158    9239.7763   -1432.9668    643.67222    216.09146   -545.12215    464.16051    263.34991   -3794.4132 
18700000    209.64668   -4155.3623   -3796.0351   -4155.3623            0    856.93259    18.597808    21.905762    22.689283    9243.5947    1062.7435    968.50615    539.54812   -504.08873    74.115589    636.33638   -3680.5134 
18701000    208.13024   -4143.1159   -3786.3878   -4143.1159            0    -591.7418    18.641743     21.95751    22.742882    9309.2589   -598.52223    179.33491   -1356.0381    5.4301834    479.33539    -349.1868   -3866.7262 
18702000    202.52978   -4126.3506   -3779.2215   -4126.3506            0    402.60006    18.617967    21.929506    22.713876    9273.6854   -397.05557    993.49035     611.3654     1074.958    202.62634    554.07128    -3724.771 
18703000    195.33495   -4143.4555   -3808.6581   -4143.4555            0    51.712405     18.63653    21.951371    22.736524    9301.4527   -527.50194    1289.9805   -607.34136   -256.22348     1724.477    223.41306   -3801.6432 
18704000    192.12889   -4132.5245   -3803.2222   -4132.5245            0   -611.97808    18.719099    22.048626    22.837257    9425.6306   -2096.3935    2035.4754   -1775.0161   -179.55188   -255.86204   -108.59566   -3887.3466 
18705000    194.48344   -4144.9659    -3811.628   -4144.9659            0   -498.46971    18.658067    21.976739    22.762799    9333.7372   -616.15864   -930.73111    51.480618   -703.31054    658.90509    101.01141   -3879.4811 
18706000    204.17566   -4156.2871    -3806.337   -4156.2871            0   -295.56395    18.639209    21.954526    22.739791    9305.4637    240.63648    569.63582   -1696.9642   -416.48187   -161.07111    580.04085   -3846.4482 
18707000    202.08646   -4138.7186   -3792.3493   -4138.7186            0    -690.9841    18.627728    21.941003    22.725785    9288.2789   -236.02873   -369.13522   -1467.7883    740.30684    463.25613    91.503683     -3885.95 
18708000    213.77905   -4142.4121   -3776.0021   -4142.4121            0   -1035.9498     18.67181    21.992926    22.779565     9354.377   -580.08406    -1201.552   -1326.2134   -25.973318   -368.46024    592.01782   -3917.3306 
18709000    202.14768    -4141.767   -3795.2928    -4141.767            0   -1239.5636    18.679749    22.002277    22.789251    9366.3141   -1643.8043   -605.94947   -1468.9371    208.68072     124.2976    98.902762   -3964.6148 
18710000    207.48666   -4126.9232   -3771.2982   -4126.9232            0   -19.352483    18.668524    21.989056    22.775556    9349.4392   -808.19879    1707.4799    -957.3386    566.78303   -613.51367   -594.27754   -3773.9369 
18711000    207.76179   -4159.1677   -3803.0711   -4159.1677            0   -1048.5595    18.674104    21.995628    22.782363     9357.825   -656.20844   -1174.9608   -1314.5093    151.15987   -37.246875    178.35086   -3946.1725 
18712000    210.67507   -4154.6912   -3793.6014   -4154.6912            0   -13.218832    18.669997     21.99079    22.777352    9351.6514    1007.8313    626.24071   -1673.7285     409.4322    349.84586    967.16151   -3795.4042 
18713000    209.92147   -4138.1123   -3778.3141   -4138.1123            0    185.98005    18.679208     22.00164     22.78859    9365.4997   -88.568793    579.97954    66.529408    181.47998   -417.98072   -184.15599   -3752.9118 
18714000     194.1578   -4127.6402   -3794.8604   -4127.6402            0   -206.81308    18.653276    21.971095    22.756953    9326.5479   -271.19369    513.78895   -863.03449   -401.27278    916.25078   -513.68175   -3822.9907 
18715000    196.75532   -4171.0143   -3833.7824   -4171.0143            0    -301.9248    18.638554    21.953755    22.738993    9304.4835   -333.73806   -127.33546   -444.70088   -123.11208   -456.00445    25.288393   -3874.7525 
18716000    211.22856   -4166.8251   -3804.7866   -4166.8251            0     -929.544    18.691665    22.016313    22.803788    9384.2504   -1039.4569   -252.40486   -1496.7702    986.86916     1369.666    505.30961   -3932.0037 
18717000    202.61731    -4162.348   -3815.0688    -4162.348            0     262.0072    18.632542    21.946674    22.731658    9295.4825    -406.6725     196.7585     995.9356    606.69939   -458.37384     471.3063   -3779.5498 
18718000    213.38661   -4152.8559   -3787.1186   -4152.8559            0    324.88476    18.636241    21.951031    22.736171      9301.02   -97.056664    1130.8813   -59.170386    636.53435   -142.03632   -202.39584   -3743.0493 
18719000    211.53963   -4147.7115   -3785.1398   -4147.7115            0    179.56694    18.642521    21.958427    22.743832    9310.4245     477.1815    942.95782   -881.43849   -76.655197    280.56995    541.54628   -3760.7577 
18720000    197.83756   -4155.9676   -3816.8808   -4155.9676            0    1378.1638    18.590187    21.896785    22.679985    9232.2358    1245.3393    2121.5089    767.64314    949.23379    1596.6598   -1067.3054   -3631.3211 
18721000    205.63304   -4143.9702   -3791.5222   -4143.9702            0   -310.10211    18.644756    21.961059    22.746558    9313.7735   -319.90448    1337.0472    -1947.449    213.47208    511.51852    -9.381427   -3833.6439 
18722000     193.5139   -4133.0119   -3801.3357   -4133.0119            0   -1482.2333    18.699455    22.025488    22.813291    9395.9872   -1159.3723   -773.46311   -2513.8645    426.52926   -918.44501   -223.10026   -4004.4474 
18723000    199.02151   -4144.8189   -3803.7029   -4144.8189            0   -2057.7257    18.715337    22.044195    22.832668     9419.949   -1991.5955   -959.04482   -3222.5368    1091.4323    464.46849   -346.09355   -4086.3938 
18724000     211.1343   -4147.3892   -3785.5123   -4147.3892            0    140.32183    18.640152    21.955637    22.740942    9306.8758    37.386486    358.69117     24.88783      281.561    996.45108     235.0477   -3766.4662 
18725000     207.4386   -4158.8208   -3803.2781   -4158.8208            0    94.873166    18.632456    21.946572    22.731553    9295.3535    345.06893   -332.78577    272.33633    672.90229   -90.163173   -380.45423   -3790.4168 
18726000    202.16315   -4131.9135   -3785.4128   -4131.9135            0   -804.19911    18.682368    22.005361    22.792445    9370.2534   -302.36532   -1161.1675   -949.06453     917.5686    103.66091    249.89211   -3895.3111 
18727000    224.40438   -4122.5823   -3737.9609   -4122.5823            0   -1012.5121    18.660116    21.979151    22.765297    9336.8113   -832.29842   -421.65242   -1783.5856    1402.6708     444.2495   -517.06071   -3875.8324 
18728000    212.88677    -4135.323   -3770.4424    -4135.323            0   -657.23237    18.670669    21.991582    22.778173    9352.6624   -865.29564   -157.52795   -948.87353    579.95549    164.99806   -1021.6401   -3860.0882 
18729000    223.64698   -4162.9262    -3779.603   -4162.9262            0   -1618.9316    18.703603    22.030374    22.818352    9402.2416    -1108.171   -1428.0628    -2320.561    215.28995    545.90945    399.13618   -4001.5942 
18730000    215.29774   -4127.4492   -3758.4362   -4127.4492            0   -652.04252    18.604299    21.913407    22.697201    9253.2759   -1052.6294   -236.47854   -667.01959     480.9809    -419.9092    814.49634   -3846.4291 
18731000    201.71781   -4125.6029   -3779.8655   -4125.6029            0   -257.16585    18.644719    21.961017    22.746514    9313.7191    905.29051   -1596.2385   -80.549526    1082.5875    203.30811    172.62631   -3814.7966 
18732000    206.20926   -4144.9725   -3791.5369   -4144.9725            0   -1114.8028    18.663069     21.98263    22.768901    9341.2455   -952.48502   -518.94068   -1872.9827    645.01613   -63.533194    213.01697   -3943.4093 
18733000    197.89162   -4149.0744   -3809.8949   -4149.0744            0   -566.10749    18.647286     21.96404    22.749646    9317.5664   -1032.3033     278.9106   -944.92979    945.12712    643.17911    37.747628   -3886.8216 
18734000    219.12415   -4155.8547   -3780.2834   -4155.8547            0   -312.78832    18.586002    21.891855    22.674879    9226.0013   -38.952453    446.24743   -1345.6599   -381.76993    -91.72164    835.46977   -3822.3696 
18735000    205.94086   -4162.0569   -3809.0814   -4162.0569            0   -650.09606    18.652226    21.969858    22.755672    9324.9728   -1667.3116     215.9148   -498.89137    1026.5467    695.44514    571.56588   -3897.4913 
18736000    209.96731   -4166.7634   -3806.8867   -4166.7634            0   -636.09097    18.582856     21.88815    22.671041    9221.3172   -391.04011    -912.1958   -605.03701    470.21634    -990.3838    -272.2275   -3892.4304 
18737000    204.27567   -4146.2441   -3796.1225   -4146.2441            0   -405.53526    18.606902    21.916472    22.700377    9257.1602   -690.34692    42.737865   -568.99671    798.27948    92.747786   -305.22013   -3850.8723 
18738000    213.53265   -4146.7319   -3780.7443   -4146.7319            0    147.48885    18.629683    21.943306     22.72817    9291.2043    645.31197    278.91994   -481.76537     852.6802   -1403.0155    766.04538   -3760.7591 
18739000    208.50144   -4149.9093    -3792.545   -4149.9093            0   -277.80355    18.617743    21.929242    22.713603    9273.3507   -1447.0733    1702.3237    -1088.661    1190.0634    31.394762    253.90985   -3830.1158 
18740000    207.21307    -4142.391   -3787.2349    -4142.391            0   -305.82023     18.64787    21.964727    22.750357    9318.4409    187.36725     311.4592   -1416.2871    1090.2243    320.14022    -190.7609   -3828.7959 
18741000    197.41093   -4151.5242   -3813.1686   -4151.5242            0   -1314.3067    18.653054    21.970834    22.756683    9326.2155   -1184.3931   -1322.5157   -1436.0114    862.42828   -830.43815   -427.76264   -3991.9318 
18742000    198.80491   -4136.7364   -3795.9916   -4136.7364            0   -468.57317    18.659144    21.978007    22.764112    9335.3528    -371.1589   -820.05847   -214.50214    552.20718    183.36748   -67.985514   -3859.7862 
18743000    207.75617   -4123.8898   -3767.8028   -4123.8898            0   -160.58336    18.686485    22.010211    22.797468    9376.4494    1041.5779   -190.69157   -1332.6364    73.909154   -217.32301    369.21043   -3789.7619 
18744000    202.17429   -4129.7395   -3783.2197   -4129.7395            0    193.39077    18.627388    21.940603     22.72537    9287.7706    709.64756    1370.0465   -1499.5218    379.14226   -793.08966   -1234.0668   -3757.0244 
18745000    222.19351   -4144.4708   -3763.6388   -4144.4708            0   -757.27394    18.669648    21.990379    22.776927    9351.1277   -385.53107   -467.09739   -1419.1934    64.250503   -419.87415   -43.320326   -3866.9132 
18746000    211.50957   -4155.2184   -3792.6982   -4155.2184            0    -509.0501     18.61938     21.93117      22.7156    9275.7967   -1005.0746   -158.07647    -363.9992     548.3058    390.47655    176.46825   -3861.5615 
18747000    207.62792   -4156.8911   -3801.0239   -4156.8911            0   -15.175236    18.610241    21.920406    22.704451    9262.1457   -664.38324    -139.8186    758.67613     63.19171    -531.9773   -209.57132   -3803.0738 
18748000    224.37963   -4149.9643   -3765.3853   -4149.9643            0   -522.76075    18.685038    22.008506    22.795702    9374.2715    188.94682   -24.295306   -1732.9338    474.35239    937.05612    181.03909   -3836.8541 
18749000    202.35051   -4165.4355   -3818.6137   -4165.4355            0    188.62826    18.649419    21.966552    22.752247    9320.7632     524.7553    81.154328   -40.024864    1132.6126   -333.86112    -1134.764   -3792.9727 
18750000    222.71693   -4141.3444   -3759.6152   -4141.3444            0    278.20688     18.65945    21.978368    22.764486    9335.8127    558.52728    1099.1722   -823.07885   -192.09558   -785.68946   -334.52411   -3721.7365 
Loop time of 402.449 on 64 procs for 250000 steps with 864 atoms

Performance: 107.343 ns/day, 0.224 hours/ns, 621.196 timesteps/s
99.0% CPU use with 64 MPI tasks x 1 OpenMP threads

MPI task timing breakdown:
Section |  min time  |  avg time  |  max time  |%varavg| %total
---------------------------------------------------------------
Pair    | 11.982     | 19.657     | 26.958     |  69.5 |  4.88
Bond    | 0.26905    | 0.27788    | 0.28819    |   0.8 |  0.07
Kspace  | 191.23     | 197.5      | 210.81     |  25.3 | 49.07
Neigh   | 1.704      | 1.9471     | 2.3262     |   9.6 |  0.48
Comm    | 70.757     | 79.14      | 87.405     |  35.5 | 19.66
Output  | 1.3105     | 1.3116     | 1.3206     |   0.1 |  0.33
Modify  | 87.15      | 91.775     | 98.703     |  26.7 | 22.80
Other   |            | 10.84      |            |       |  2.69

Nlocal:        13.5000 ave          20 max           6 min
Histogram: 1 0 2 10 11 15 14 9 1 1
Nghost:        1780.86 ave        1806 max        1754 min
Histogram: 1 7 3 9 10 9 12 6 4 3
Neighs:        3298.88 ave        4351 max        1670 min
Histogram: 1 0 3 4 14 8 8 12 11 3

Total # of neighbors = 211128
Ave neighs/atom = 244.36111
Ave special neighs/atom = 2.0000000
Neighbor list builds = 5737
Dangerous builds = 0

unfix		3
unfix		2
unfix		1

write_data	data.final.${pid}
write_data	data.final.0
System init for write_data ...
PPPM initialization ...
  extracting TIP4P info from pair style
  using 12-bit tables for long-range coulomb (../kspace.cpp:340)
  G vector (1/distance) = 0.37188467
  grid = 24 25 27
  stencil order = 5
  estimated absolute RMS force accuracy = 0.0031174196
  estimated relative force accuracy = 9.3880165e-06
  using double precision FFTW3
  3d grid and FFT values/proc = 2730 384
Last active /omp style is kspace_style pppm/tip4p/omp
WARNING: Not all mixed pair coeffs generated from mixing. Use write_data with 'pair ij' option to store all pair coeffs. (../write_data.cpp:312)

write_restart   restart.lmp.${pid}
write_restart   restart.lmp.0
System init for write_restart ...
PPPM initialization ...
  extracting TIP4P info from pair style
  using 12-bit tables for long-range coulomb (../kspace.cpp:340)
  G vector (1/distance) = 0.37188467
  grid = 24 25 27
  stencil order = 5
  estimated absolute RMS force accuracy = 0.0031174196
  estimated relative force accuracy = 9.3880165e-06
  using double precision FFTW3
  3d grid and FFT values/proc = 2730 384
Last active /omp style is kspace_style pppm/tip4p/omp
Total wall time: 0:06:44
