#include		in.partitions
include		in.temp
variable        temperature equal 205.10
variable	tempDamp equal 100.0
include		in.pressure
variable        pressure equal 2107.9
variable        pressureDamp equal 1000.0 # This is 1 ps
include		in.seed
variable        seed equal 745823

units		real
atom_style	full
#include		in.box
read_restart	restart.lmp.${pid}
read_restart	restart.lmp.1
Reading restart file ...
  restart file = 30 Jul 2021, LAMMPS = 30 Jul 2021
  restoring atom style full from restart
  orthogonal box = (0.10781037 0.12419330 0.045423760) to (18.099762 23.504985 22.167772)
  2 by 4 by 4 MPI processor grid
  restoring pair style lj/cut/tip4p/long/omp from restart
  restoring bond style harmonic/omp from restart
  restoring angle style harmonic/omp from restart
  864 atoms
  576 bonds
  288 angles
Finding 1-2 1-3 1-4 neighbors ...
  special bond factors lj:    0        0        0       
  special bond factors coul:  0        0        0       
     2 = max # of 1-2 neighbors
     1 = max # of 1-3 neighbors
     1 = max # of 1-4 neighbors
     2 = max # of special neighbors
  special bonds CPU = 0.002 seconds
  read_restart CPU = 0.007 seconds
include 	in.setup
variable	out_freq equal 1000
variable	out_freq2 equal 10000
variable	out_freq3 equal 1000

timestep	2.0

neigh_modify    delay 7 every 1

include		in.tip4p
# This is TIP4P/Ice

# create groups ###
group ox type 2
288 atoms in group ox
group hy type 1
576 atoms in group hy

# set charges - beside manually ###
set group ox charge -1.1794
Setting atom values ...
  288 settings made for charge
set group hy charge 0.5897
Setting atom values ...
  576 settings made for charge

# ### TIP3P Potential Parameters ###
pair_style lj/cut/tip4p/long/omp 2 1 1 1 0.1577 8.5
pair_coeff 1 1*2 0.000 0.000
pair_coeff 2 2 0.21084 3.1668
bond_style  harmonic
bond_coeff  1 450 0.9572
angle_style harmonic
angle_coeff 1 55 104.52
kspace_style pppm/tip4p/omp 1.0e-5
pair_modify tail yes

thermo          ${out_freq}
thermo          1000
thermo_style    custom step temp pe etotal epair emol press lx ly lz vol pxx pyy pzz pxy pxz pyz enthalpy

restart 	${out_freq3} restart.lmp.${pid} restart2.lmp.${pid}
restart 	1000 restart.lmp.${pid} restart2.lmp.${pid}
restart 	1000 restart.lmp.1 restart2.lmp.${pid}
restart 	1000 restart.lmp.1 restart2.lmp.1


include         in.dump
dump            myDump all atom ${out_freq2} dump.water.${pid}
dump            myDump all atom 10000 dump.water.${pid}
dump            myDump all atom 10000 dump.water.1
dump            myDump2 all dcd ${out_freq2} dump.dcd
dump            myDump2 all dcd 10000 dump.dcd
dump_modify     myDump append yes
dump_modify     myDump2 append yes


variable natoms 	equal  "count(all)"                        # NUMBER ATOMS
variable H      	equal  "enthalpy/v_natoms"                 # ENTHALPY-per-atom
variable Vol      	equal  "vol/v_natoms"                 # volume-per-atom
fix AVG all 		ave/time ${out_freq} 1 ${out_freq} v_Vol v_H file vol_enthalpy.dat
fix AVG all 		ave/time 1000 1 ${out_freq} v_Vol v_H file vol_enthalpy.dat
fix AVG all 		ave/time 1000 1 1000 v_Vol v_H file vol_enthalpy.dat


timer           timeout 23:50:00 every 1000
New timer settings: style=normal  mode=nosync  timeout=23:50:00

fix 		1 all shake 1e-6 200 0 b 1 a 1
       0 = # of size 2 clusters
       0 = # of size 3 clusters
       0 = # of size 4 clusters
     288 = # of frozen angles
  find clusters CPU = 0.000 seconds
fix             2 all nph aniso ${pressure} ${pressure} ${pressureDamp}
fix             2 all nph aniso 2107.9 ${pressure} ${pressureDamp}
fix             2 all nph aniso 2107.9 2107.9 ${pressureDamp}
fix             2 all nph aniso 2107.9 2107.9 1000
fix             3 all temp/csvr ${temperature} ${temperature} ${tempDamp} ${seed}
fix             3 all temp/csvr 205.1 ${temperature} ${tempDamp} ${seed}
fix             3 all temp/csvr 205.1 205.1 ${tempDamp} ${seed}
fix             3 all temp/csvr 205.1 205.1 100 ${seed}
fix             3 all temp/csvr 205.1 205.1 100 745823


run             250000
PPPM initialization ...
  extracting TIP4P info from pair style
  using 12-bit tables for long-range coulomb (../kspace.cpp:340)
  G vector (1/distance) = 0.37154403
  grid = 24 27 25
  stencil order = 5
  estimated absolute RMS force accuracy = 0.0031804193
  estimated relative force accuracy = 9.5777382e-06
  using double precision FFTW3
  3d grid and FFT values/proc = 4410 672
Last active /omp style is kspace_style pppm/tip4p/omp
Neighbor list info ...
  update every 1 steps, delay 7 steps, check yes
  max neighbors/atom: 2000, page size: 100000
  master list distance cutoff = 10.8154
  ghost atom cutoff = 10.8154
  binsize = 5.4077, bins = 4 5 5
  1 neighbor lists, perpetual/occasional/extra = 1 0 0
  (1) pair lj/cut/tip4p/long/omp, perpetual
      attributes: half, newton on, omp
      pair build: half/bin/newton/omp
      stencil: half/bin/3d
      bin: standard
Per MPI rank memory allocation (min/avg/max) = 10.19 | 10.21 | 10.23 Mbytes
Step Temp PotEng TotEng E_pair E_mol Press Lx Ly Lz Volume Pxx Pyy Pzz Pxy Pxz Pyz Enthalpy 
 7250000    220.56812   -4346.8871   -3968.8409   -4346.8871            0    1133.9731    17.991952    23.380791    22.122348    9306.1212     175.9326    1429.5798     1796.407    110.19445    703.94443   -363.71518   -3814.9378 
 7251000    220.07328   -4379.7679   -4002.5698   -4379.7679            0    1056.1166    18.235731    23.435865    21.767875    9302.9394   -301.08542    772.77906    2696.6562   -540.57073    272.82133    489.11491   -3859.2824 
 7252000    203.21809   -4347.5024   -3999.1935   -4347.5024            0    3092.3646    17.933998    23.214868     22.20489    9244.6817    2530.4787    4242.3115    2504.3036    464.97388   -893.57437   -332.75556    -3582.268 
 7253000    198.81353   -4342.0377   -4001.2781   -4342.0377            0    3545.5148    17.956313     23.44859    21.832124    9192.4208    2784.0151    2901.5746    4950.9548   -116.52707    416.64349    212.90936   -3525.9592 
 7254000    194.69043   -4370.6927        -4037   -4370.6927            0    2868.8749    17.954098    23.265588    22.093606    9228.7784    3411.9987    2644.5141    2550.1119    673.50841   -1431.4149   -470.49461   -3650.8716 
 7255000    200.75615   -4338.3954   -3994.3062   -4338.3954            0    542.68375    18.212262    23.409657    21.902458    9337.9556    -610.5794    1326.3523    912.27837   -550.28111    14.077461   -626.86879   -3920.4011 
 7256000     210.3694   -4349.7541   -3989.1881   -4349.7541            0    1345.8994    18.071481    23.315946     22.07397    9300.9489    1058.1924    1500.3955    1479.1103   -490.83177   -77.235856    249.42052   -3806.6239 
 7257000    217.40659   -4371.9902   -3999.3627   -4371.9902            0    2214.0442    17.828827    23.519289    22.005425    9227.3442     1643.455    1311.6669    3687.0105   -309.15971    1019.4454    117.34256   -3701.4158 
 7258000    210.32665   -4345.2719   -3984.7792   -4345.2719            0    3019.1714    17.837633    23.544824     21.91904    9205.6445    1223.2382    3842.5527    3991.7234   -1585.1056   -104.55456   -251.53145   -3579.4407 
 7259000    216.42362    -4346.509   -3975.5663    -4346.509            0    2490.4931    18.057829    23.208279    22.067741    9248.3946    3099.7129    2215.7877    2155.9786   -788.86572   -110.74402    238.31778   -3639.6527 
 7260000    205.12223   -4348.4197   -3996.8472   -4348.4197            0     3271.435    18.078487    23.291926    21.975495    9253.5027    3595.1035    2384.9653    3834.2363    243.94169    281.97149   -290.11243   -3555.3578 
 7261000    207.15801   -4360.2707    -4005.209   -4360.2707            0     1783.978    17.896167    23.544355    22.118644    9319.7728    2327.0435    1579.3393    1445.5512    370.24646   -137.86472     40.42474   -3762.7319 
 7262000    221.50853   -4343.8107   -3964.1526   -4343.8107            0    1328.5309     18.00553     23.56252    21.857715    9273.2596    1266.9168    799.94562    1918.7302   -1008.0778   -419.95283    969.47833   -3784.4808 
 7263000    204.94726   -4328.6687   -3977.3961   -4328.6687            0    1553.3628    17.999512    23.325525    22.116541    9285.5871    1298.5214    392.01678    2969.5503   -63.296316    116.79572    411.51529   -3767.0385 
 7264000    202.00783    -4359.025   -4012.7905    -4359.025            0    2306.7618    18.035468    23.356132    21.962183    9251.3232    1742.6437    1973.0853    3204.5563    873.63273   -148.68768    -95.17816   -3701.5597 
 7265000    209.39894   -4363.5474   -4004.6448   -4363.5474            0    2200.9009    17.928007    23.506176    22.012366    9276.4271    1858.4374    2116.8286    2627.4368    892.71827     323.8351    -537.0646   -3706.8912 
 7266000    206.01448   -4355.7567   -4002.6549   -4355.7567            0    1958.1469    18.217375    23.227554    21.848733    9245.1834    1628.6688    2667.7716    1578.0004    397.25477   -206.26426    446.31793    -3738.635 
 7267000    205.50845   -4348.5465   -3996.3121   -4348.5465            0    3588.8891    17.951105    23.341043    21.988947    9213.3138    3047.8779    4124.8921    3593.8974    971.00649    120.90029    421.01355   -3514.0848 
 7268000    196.99104   -4360.9469    -4023.311   -4360.9469            0    2288.8296    17.960364    23.316254    22.077882    9245.5192     2184.001     2542.127    2140.3608    206.27106      1725.96     377.4437   -3714.6934 
 7269000    206.26611   -4360.5806   -4007.0476   -4360.5806            0    3518.8415    18.139699     23.01897    22.089626    9223.6821    4798.9388    2870.3719    2887.2138    37.573017   -345.56129    415.35392   -3533.7002 
 7270000    200.83995   -4360.7895   -4016.5567   -4360.7895            0    1421.1815    17.872557    23.581856    22.014846    9278.5546    1759.2883   -247.27561    2751.5319    124.50875   -88.027468    279.05174    -3824.245 
 7271000    201.20563   -4357.0048   -4012.1452   -4357.0048            0    2339.1116    18.062769    23.392487    21.925046    9264.0574    1673.7957    1884.3817    3459.1573   -310.00132   -560.80489   -675.13462   -3696.1154 
 7272000    218.70317   -4360.2071   -3985.3573   -4360.2071            0    1677.3827    18.088718    23.247449    22.052837    9273.5826    1867.9511    1853.8468    1310.3503    669.48136   -48.496234    177.54389   -3758.4985 
 7273000    202.15419   -4364.4972   -4018.0119   -4364.4972            0    911.86076    17.731674    23.799672    22.025885       9295.1    1776.2719    1292.5545   -333.24411   -109.12828   -1400.6708     431.2301   -3894.4005 
 7274000    208.77667   -4317.2133   -3959.3773   -4317.2133            0    1703.1951     18.08835    23.333341    22.119673    9335.8653    1818.0059    653.36469    2638.2147   -206.76054     104.7348   -251.80717   -3727.4804 
 7275000    205.92106   -4346.3662   -3993.4245   -4346.3662            0    2020.1303    18.298768     23.12631    21.944429    9286.5091    3329.8001    1698.3294    1032.2615   -426.66665   -181.35024   -610.68203   -3719.8298 
 7276000    220.86838   -4358.9912   -3980.4304   -4358.9912            0    3263.0319    17.931902    23.494046    21.986456    9262.7385    3694.9847    3198.1918    2895.9193    249.60171   -167.64423   -506.00335   -3539.6354 
 7277000    213.30796    -4349.927   -3984.3245    -4349.927            0     2727.444    17.874465    23.438062    22.102321    9259.6086    3210.8264    2413.9451    2557.5603    -234.9841   -635.55038   -320.27222   -3616.0053 
 7278000    210.23604   -4372.3366   -4011.9993   -4372.3366            0    2810.7885    18.132933    23.212185    21.958781    9242.5609    2894.1725    3825.4431    1712.7498   -540.94636    317.21696     667.4391   -3633.1239 
 7279000     198.8698    -4366.502   -4025.6459    -4366.502            0    743.97852    17.935353    23.585285    22.096907    9347.2215    563.89113   -285.57639    1953.6208   -349.91969   -518.20798   -697.63649    -3924.227 
 7280000    210.36344   -4340.3335   -3979.7777   -4340.3335            0    2130.8226     17.97088    23.552039    21.938711    9285.5781    2359.1017    833.92129    3199.4449    201.31383   -1211.9234    677.52343   -3691.2204 
 7281000     216.8081   -4343.9928   -3972.3911   -4343.9928            0      1577.48    18.206083    23.046729    22.105998      9275.47    260.96385    3173.1141     1298.362   -508.33329    101.99415    979.32251   -3759.0003 
 7282000    204.80555    -4339.904   -3988.8743    -4339.904            0    1673.4361    18.013457    23.478585    21.941703    9279.8151    1717.3519    1106.9479    2196.0085   -215.49221   -126.95049   -1301.1413   -3762.3972 
 7283000    221.56459   -4376.3966   -3996.6424   -4376.3966            0    1497.3619    17.865683    23.372399    22.275399    9301.4018    2490.0271    1509.0325    493.02602     618.3283    278.41656    398.02475   -3793.5232 
 7284000    197.08511   -4357.7243   -4019.9271   -4357.7243            0    1750.8354    18.245479    23.372476    21.907638    9342.3373    1522.9393    1622.5957    2106.9713   -1203.2151    217.50972    97.831507   -3781.3786 
 7285000    190.15098   -4354.3976   -4028.4854   -4354.3976            0    2920.1775    17.918852    23.373859    22.102702    9257.3345    3826.4656     3253.466    1680.6009    954.60456    229.55265    349.90552   -3634.2359 
 7286000    193.16664   -4342.0832   -4011.0022   -4342.0832            0    2821.2972    17.986765    23.567768    21.708797    9202.5307     3628.724    1451.9812    3383.1863    158.68525    150.82206   -419.75971   -3632.3574 
 7287000    201.74881   -4340.0136    -3994.223   -4340.0136            0    2557.2006    18.053429    23.087869    22.144728    9230.2597    2975.4553    3708.5623    987.58423   -954.10764   -361.16519    295.63791   -3649.9883 
 7288000    197.04787   -4336.7104   -3998.9771   -4336.7104            0    2261.5157    18.041409    23.595579    21.780624    9271.9571    651.81424     1501.604    4631.1289   -224.29354    231.62875    233.18001   -3693.1704 
 7289000    210.02573   -4352.2566   -3992.2797   -4352.2566            0    2210.6979    17.798828    23.423663    22.151017    9235.0632    2345.1759    1714.6415    2572.2761    527.98423   -408.67544    187.58533   -3694.5342 
 7290000     203.2309   -4349.8769   -4001.5461   -4349.8769            0    2335.5553    18.135932     23.36907    21.805202    9241.4781     1198.378     2756.449    3051.8388   -868.38341    449.60779   -147.38005   -3686.7659 
 7291000    203.81884   -4355.7368   -4006.3983   -4355.7368            0    839.18466     17.93888    23.370245    22.228858    9319.1378    792.13116    15.962933    1709.4599   -1181.6053   -265.39495    864.82603   -3892.3446 
 7292000    205.25185   -4360.7369   -4008.9423   -4360.7369            0    2338.4395    18.046833    23.555384    21.756445    9248.6663    2428.9363    1400.5577    3185.8245   -18.469089    -99.64203    15.149947   -3693.5281 
 7293000    197.44145   -4327.6946   -3989.2867   -4327.6946            0    1968.5431    17.992431    23.343968    22.139401    9298.8746    2758.6321    1242.6932    1904.3039    79.194575    289.69807   -12.781185   -3722.3236 
 7294000    202.39626   -4341.7524   -3994.8521   -4341.7524            0    2129.3271    17.978949    23.450239    21.917608    9240.6971    3545.3162    607.42928    2235.2358    -568.1632   -348.79025    230.18664   -3707.8911 
 7295000    194.24107   -4373.3692   -4040.4467   -4373.3692            0    1478.9443    17.846419    23.541223     22.04249    9260.6345    2458.2854    396.65057    1581.8969   -214.70026   -340.59566    116.37122   -3840.7051 
 7296000    204.86835   -4335.8094    -3984.672   -4335.8094            0    3308.8731     18.21268    23.268837    21.731865    9209.7009    4102.6134    2877.5057    2946.5002   -233.34807    379.01434    53.527647   -3540.2439 
 7297000    205.61765   -4366.7243   -4014.3027   -4366.7243            0    2164.7756    17.986468    23.170242    22.103932    9211.8319    1180.0599    2778.0267    2536.2401   -868.80445    310.37168    261.60841   -3723.4757 
 7298000    210.24054   -4353.5585   -3993.2134   -4353.5585            0    2764.3199     17.87527    23.506481    21.911016    9206.6736    2357.7934    2310.9363    3624.2299    712.85581   -195.65872   -204.30691   -3622.0485 
 7299000    205.66355   -4339.8164   -3987.3161   -4339.8164            0    867.94965    18.032557     23.41597    22.037593    9305.3695    867.01098    1143.0548    593.78311   -618.51866   -679.00485     511.3697   -3869.5273 
 7300000    209.35811   -4370.9221   -4012.0894   -4370.9221            0    2336.7452    18.152474    23.208741    21.877005    9216.6963    3001.6101    2352.6438    1655.9819   -971.06278   -336.18886   -155.24125   -3697.9934 
 7301000    203.36408   -4327.5375   -3978.9784   -4327.5375            0    1892.6621    17.867956    23.412917    22.057281    9227.4641     1560.779    2567.4117    1549.7957    235.32465   -383.00155    35.124374    -3724.277 
 7302000    204.43734   -4362.8077   -4012.4091   -4362.8077            0    1108.8723    18.032098    23.458044    21.950903    9285.1828    -309.7145    1686.9086    1949.4229    33.694691   -448.36174   -443.98528   -3862.2513 
 7303000    199.60938   -4358.3473   -4016.2237   -4358.3473            0    2472.5453    17.890845     23.36305     22.07937    9228.8395    2080.6816    3650.8763     1686.078   -878.45456    232.92407   -194.54423    -3683.436 
 7304000    197.38057   -4321.0783   -3982.7747   -4321.0783            0     3352.073    18.104099    23.452496    21.712353    9218.7678    2647.0653    2420.7118    4988.4419   -289.34259   -87.498913   -404.29746    -3532.101 
 7305000    208.81984   -4360.8197   -4002.9097   -4360.8197            0    1792.4465    17.962684    23.398759    22.118516     9296.512     1705.821    1935.6173    1735.9011   -316.55158   -367.06296    296.88342   -3759.8896 
 7306000     219.1237   -4345.5917   -3970.0212   -4345.5917            0    2770.3405    18.208953    23.461481    21.655039    9251.2279    1132.6909    1545.5565     5632.774    106.14715    57.182058   -306.24726   -3596.2478 
 7307000    212.53641   -4366.0366   -4001.7564   -4366.0366            0    3627.6201    17.962318    23.265894    22.017002    9201.1119    3793.7737    4383.0245    2706.0623   -508.49464    178.05062   -188.54266   -3514.9705 
 7308000    201.99927   -4342.3623   -3996.1424   -4342.3623            0    3272.3123     17.90356    23.400711    21.971622    9205.1435    3086.4629     3332.848    3397.6258   -392.77815    243.87749   -466.67599   -3556.8424 
 7309000    199.45237   -4340.3134   -3998.4589   -4340.3134            0    2681.8642    18.101388     23.18363    22.029353    9244.7477    3160.6332    2595.2366    2289.7227   -399.94207   -347.80247    893.81664   -3636.8761 
 7310000    192.17261   -4365.9885   -4036.6112   -4365.9885            0    934.59002    18.139084    23.447807    21.957168    9338.8612    409.40803    1933.3736    460.98844   -355.97472    270.79145   -22.703837   -3909.3222 
 7311000    206.31155   -4355.1202   -4001.5092   -4355.1202            0    3127.3151    17.862339    23.408297    21.946082    9176.2479    2425.0204    2336.7978    4620.1271   -13.254574   -533.23418    318.14296   -3582.9927 
 7312000    208.03756    -4341.591   -3985.0217    -4341.591            0    2261.2437     18.07763    23.407781    21.895733    9265.3377    2674.8723     2230.233    1878.6258   -117.23784    273.17827     -165.212   -3679.4702 
 7313000    219.59188   -4342.9106   -3966.5377   -4342.9106            0    3283.5787     18.01268    23.224259    22.083857    9238.3656    3503.5039    2882.8799    3464.3522   -44.879709    885.91289   -1281.7262   -3524.1343 
 7314000     204.5877   -4349.8637   -3999.2074   -4349.8637            0    2829.6516    18.169816    23.573154    21.527173     9220.516    3077.6922    2053.7073    3357.5552   -1364.0091    294.34442    593.13789   -3618.6991 
 7315000    196.07309   -4359.6308   -4023.5683   -4359.6308            0    1757.6328    17.882184    23.443586    22.191602    9303.2191    2360.1095    599.28025    2313.5086    154.26472   -411.29888   -132.71405   -3785.0963 
 7316000    211.65588   -4339.9132   -3977.1423   -4339.9132            0    2126.4715     18.18774     23.47699    21.700233     9265.856    455.93412    2159.9311    3763.5492   -562.25916    157.78847   -157.00273   -3689.7858 
 7317000    203.14467   -4375.3561   -4027.1731   -4375.3561            0    2158.7263    17.905865    23.210823    22.212191    9231.6055     1763.912    2690.0716    2022.1953   -118.22014   -387.61875    426.54293   -3736.5363 
 7318000    200.54994   -4347.6555   -4003.9197   -4347.6555            0    2766.4314    17.981667    23.443175    21.829525    9202.1788    2670.4931    2451.1278    3177.6732    343.08894   -355.29003    210.79105   -3632.6526 
 7319000    195.13795    -4374.285   -4039.8252    -4374.285            0    690.36008    17.999026    23.166205     22.34314    9316.3997    1535.1945     485.9721    49.913593   -97.101569   -280.66574    417.28088   -3946.0259 
 7320000     211.2785   -4364.0751    -4001.951   -4364.0751            0    1369.1908    18.131532    23.438707    21.869574    9294.1241    53.042875    2969.2395      1085.29    71.520181    47.291636   -259.81993   -3816.3636 
 7321000     208.5123   -4356.5478   -3999.1649   -4356.5478            0    2386.9347    17.807839    23.417078    22.192323    9254.3664     3246.058    3142.1514    772.59477   -524.62161    210.32917   -495.52983   -3677.0112 
 7322000    226.49317   -4341.2176    -3953.016   -4341.2176            0    2640.2459    18.209436    23.360068    21.733825    9244.9964    1852.2772    2698.4461    3370.0144   -23.232193    257.08187    397.86439   -3597.0349 
 7323000    191.94857   -4358.9421   -4029.9488   -4358.9421            0    1954.3319    17.995923    23.271428    22.113174    9260.7948    1189.4081    3391.2827    1282.3049    525.33195    -76.83543   -147.30312   -3765.9983 
 7324000     205.6612   -4359.9057   -4007.4094   -4359.9057            0     2820.573    17.963084    23.356162    22.010204    9234.3524    2719.3189    1728.1054    4014.2947    1015.4873   -242.96288     219.2829   -3627.5528 
 7325000    212.73365   -4371.4213   -4006.8031   -4371.4213            0    2982.6136    18.012717    23.642988     21.67361    9230.2369    2181.7618    2009.5072     4756.572    3.9820425   -507.33773    973.88956   -3605.3029 
 7326000     213.8098   -4375.6375   -4009.1749   -4375.6375            0    2651.1189    17.996314    23.193888    22.125233    9235.1717    2386.4644    3646.7495    1920.1428    197.47312     -406.858    -489.4312   -3652.1076 
 7327000    205.54806   -4369.6391   -4017.3367   -4369.6391            0    3189.6352    18.074081     23.36712    21.860438    9232.5206    2583.7858    2833.7828     4151.337   -114.20166   -717.02572   -305.61931   -3587.8624 
 7328000    217.12318     -4335.04   -3962.8983     -4335.04            0       1480.9    17.790265    23.548933    22.226495    9311.6072    3337.0208    1437.7013   -332.02226    291.12959   -217.41656   -95.376682   -3761.7918 
 7329000    203.99449   -4361.3479   -4011.7083   -4361.3479            0    2340.5296    18.130627    23.426137    21.803038     9260.416    1346.9332    3090.4826     2584.173     362.6152    188.45748    451.01682   -3695.6112 
 7330000     206.8945   -4330.1319   -3975.5218   -4330.1319            0     2295.478    18.097569    23.146553    22.192729    9296.4529    361.26328    4857.8273    1667.3435    384.03458    472.37273   -79.761169   -3664.3027 
 7331000    203.95294   -4351.7924    -4002.224   -4351.7924            0     2700.388    17.980492    23.527782    21.782886     9215.056    2454.6966    3246.7898    2399.6776   -625.05847    936.75825    422.30008   -3639.3131 
 7332000    201.10633   -4362.9626   -4018.2732   -4362.9626            0    1929.7341    17.884803    23.474329    22.123548     9288.212    1993.9664    1360.6903    2434.5456   -1058.4573    689.30898   -38.075265   -3756.8733 
 7333000    191.34854   -4351.5179    -4023.553   -4351.5179            0    1236.6253    18.139241    23.234654    22.146899    9334.0096    1331.4705    1467.8425    910.56299   -467.08672    146.11053    97.252247    -3855.215 
 7334000    217.13279   -4343.4431    -3971.285   -4343.4431            0    2561.8474    18.017959    23.414468    21.975599    9271.0859    3892.4586      1393.92    2399.1636   -139.85294    -846.0953   -623.40602   -3624.8994 
 7335000    200.26521    -4349.776   -4006.5282    -4349.776            0    2084.1026    17.959545    23.491242    22.008155    9285.0647    2332.7433    3734.4728    185.09158   -928.45886   -120.14206    300.42733   -3724.3134 
 7336000    198.87437   -4342.1657   -4001.3018   -4342.1657            0    2507.0304    18.000879    23.305365    21.939102    9203.8271    2755.4195    2013.0242    2752.6475   -430.83962     -836.151   -66.954725   -3664.7872 
 7337000    197.78019   -4357.1291   -4018.1407   -4357.1291            0    1719.7098    18.084496    23.203493    22.046901    9251.3972    2534.9102    1628.3124    995.90674    165.31108   -439.30435   -299.41669   -3786.1137 
 7338000    212.95591   -4339.3828   -3974.3837   -4339.3828            0    3606.5261    17.947398    23.384922    21.951518    9213.0195    3896.4253    4457.8114    2465.3417   -15.034844    406.96963    545.03979   -3489.8021 
 7339000    205.51544    -4379.077   -4026.8305    -4379.077            0    2897.7109    17.795467    23.492575    22.013624    9203.0453     3463.418    2140.0661    3089.6485   -497.55025   -381.83969   -59.712361   -3637.9085 
 7340000    214.76134   -4374.3546    -4006.261   -4374.3546            0    1076.3294    18.100148      23.4178    22.040194    9342.0809    639.18684    2006.9683    582.83319   -160.77705    264.15184    553.85695   -3859.6169 
 7341000    195.06753   -4360.1134   -4025.7744   -4360.1134            0    1891.9661    18.124791    23.245289    21.961834     9252.872    859.52486    3015.7618    1800.6116    770.54541   -355.29388    609.59733   -3770.4656 
 7342000    203.48536   -4335.9328   -3987.1658   -4335.9328            0     2018.436    17.943976    23.548403    21.968712    9282.9227    1867.1936    803.57556    3384.5388    93.644287   -974.11289    -436.5372   -3713.9061 
 7343000    203.64194   -4370.9587   -4021.9234   -4370.9587            0    2004.4405    17.985504    23.457602    21.975644    9271.4539    1878.2078    1132.3891    3002.7246    147.33339   -1259.3413    444.21958   -3750.8937 
 7344000    193.31293   -4339.0373   -4007.7055   -4339.0373            0    1994.3236    18.039075    23.317977    21.984714    9247.5342    2767.3554    767.11978    2448.4956   -674.76599    170.83855   -435.59041   -3738.7395 
 7345000    193.90646   -4349.6389   -4017.2898   -4349.6389            0    2758.5804    17.884076    23.433763    21.965574    9205.5786    2048.4295    1781.4951    4445.8167   -89.213629   -227.89285    644.92182   -3646.9396 
 7346000    207.95286   -4348.0943   -3991.6703   -4348.0943            0    1843.4248    18.040994    23.450738     21.94052    9282.4774    1289.8278    2495.6273    1744.8192   -457.46422   -553.92403   -909.22165   -3742.1159 
 7347000    196.44979   -4338.2095   -4001.5013   -4338.2095            0    1889.4119    18.063452    23.239495    22.106058    9279.8025    656.75077    3434.1416    1577.3433    67.161502    193.45414    250.53973   -3745.7951 
 7348000    194.68044   -4363.4663   -4029.7907   -4363.4663            0    2822.6826    17.815691    23.720173    21.793324    9209.6681    4157.0193    1848.9882    2462.0403     182.3494    235.36052   -627.33234   -3650.6662 
 7349000    211.02985   -4354.9395   -3993.2416   -4354.9395            0    2164.8353    17.903755    23.424669    22.006653    9229.3595    1031.2273    2676.6895     2786.589   -129.57207   -387.94659    395.78318   -3701.8531 
 7350000     201.0545   -4359.7747   -4015.1742   -4359.7747            0    1979.2479    18.182433    23.272114    21.925949    9277.8264    403.24556    2422.5609    3111.9373   -582.63119    484.08444    391.81051    -3747.367 
 7351000    203.15467   -4381.5672    -4033.367   -4381.5672            0    2422.2277     17.89452    23.485511     22.02505    9256.2905    3248.3262    2189.8554    1828.5014    31.382474   -85.573944   -1057.6731    -3706.382 
 7352000     210.6256   -4352.2523   -3991.2472   -4352.2523            0    2203.8863    18.064161    23.523428    21.907346    9309.1101    1239.7753    1301.6244    4070.2592   -468.23001   -194.02163   -617.06409   -3692.0392 
 7353000    212.00512   -4357.6879   -3994.3184   -4357.6879            0    1681.6911    18.119857    23.209386    22.075221    9283.7505    1699.0753    2507.3876    838.61033   -855.08017    620.95948   -94.872482   -3766.6276 
 7354000    203.94709   -4350.7899   -4001.2316   -4350.7899            0     1810.487    17.805286    23.657165    21.997308    9265.7632    4215.8409    691.63526    523.98478    206.62554    253.16808   -438.63192   -3756.5775 
 7355000    210.07259   -4347.7749   -3987.7176   -4347.7749            0    2544.8777    17.978637    23.433041    22.012387    9273.6898    1802.6948    3517.3018    2314.6366    601.01696    -43.05653    191.04711   -3643.5299 
 7356000    195.37809   -4359.5671   -4024.6958   -4359.5671            0    2122.3618     18.03556    23.274418    21.992355    9231.6683    1607.5942    1733.6139    3025.8774    777.44683   -307.88757    680.14567   -3738.9528 
 7357000    199.84947   -4362.5706   -4020.0355   -4362.5706            0    1228.6762     17.98336    23.625668    21.968289    9333.6422    1868.5407    606.51836    1210.9695   -805.70825   -414.75894    214.26313   -3852.7861 
 7358000    211.03724   -4363.0357   -4001.3251   -4363.0357            0    2586.6583    17.901769    23.438058    22.096393    9271.2644    2815.1153    2361.5131    2583.3466    169.06012   -340.90235    662.02491   -3651.5782 
 7359000    202.89165   -4355.9886   -4008.2392   -4355.9886            0    1420.1538    18.244574    23.225162    21.831841    9250.8757    1252.6506    1432.7658     1575.045   -115.69316   -751.94549    99.375905   -3816.6398 
 7360000    203.18242   -4355.5084   -4007.2607   -4355.5084            0    3088.6882    17.888205    23.235837    22.101412    9186.3948    3387.9675    2345.8094    3532.2875    713.10335   -760.25429    543.52786   -3593.4563 
 7361000    205.16981   -4346.6505   -3994.9964   -4346.6505            0    2886.7376    17.980581     23.51405    21.817288    9224.2681    2457.8162     3777.389    2425.0076    153.47895   -402.10567   -242.79265   -3606.6538 
 7362000     205.9595    -4349.766   -3996.7584    -4349.766            0    3127.4906     17.96244    23.118906    22.182247    9211.6653    2726.0827    4485.8983    2170.4908   -727.61304    1032.6612    772.30495   -3576.6029 
 7363000    202.58713   -4359.5241   -4012.2967   -4359.5241            0    2220.6282     18.09358    23.549255    21.750014    9267.4707    971.31657    2158.6404    3531.9276   -74.987221    515.25664    101.17421   -3712.1642 
 7364000    220.56909    -4348.702   -3970.6541    -4348.702            0    1963.0569     17.85943    23.448792    22.182916    9289.8072     1679.498    1330.2977    2879.3749   -183.92273    377.38009   -160.71617   -3704.6947 
 7365000    204.91351   -4335.9121   -3984.6974   -4335.9121            0    2267.7875    18.111508    23.465413    21.830276    9277.7369    940.60452    1684.4881    4178.2699      226.853   -115.88883   -229.30599   -3677.8515 
 7366000    203.35992   -4361.4809    -4012.929   -4361.4809            0    2013.5949    18.083204    23.068368    22.198218    9259.9866    2252.6679    4259.7784   -471.66146    146.34039   -367.13383   -186.89221   -3740.9982 
 7367000    200.70895   -4374.1972   -4030.1889   -4374.1972            0      2285.53    17.970948    23.513128    21.902933    9255.1543     1523.569     2888.998    2444.0229    -238.2473   -471.00219    -667.4538   -3721.6951 
 7368000    206.86018   -4376.4856   -4021.9344   -4376.4856            0    2400.2695    17.688055    23.473391    22.267746    9245.5373    4088.2036    2452.2996    660.30516    271.11527   -99.947851   -464.98857     -3698.29 
 7369000    206.08074   -4342.7704   -3989.5551   -4342.7704            0    1756.4699    18.166936    23.353434    21.907235    9294.3712    897.35346     1761.614    2610.4422   -8.0317054    509.01169   -434.72215   -3751.4675 
 7370000    202.60327   -4357.9829   -4010.7278   -4357.9829            0    951.48447    18.049033    23.277306    22.208421    9330.4876    332.32441    2507.1026    15.026449    13.745514    174.31748   -916.73211    -3881.254 
 7371000    206.56294   -4365.2086   -4011.1668   -4365.2086            0    4530.7754     17.93072    23.307111    21.811434    9115.2881    4760.9645    4517.9672    4313.3945    625.88143     359.0251   -672.57182   -3408.8585 
 7372000    210.10072   -4339.0125    -3978.907   -4339.0125            0    1376.6103    17.923062    23.476689    22.103711    9300.6705    1787.3399    615.72165    1726.7693    -72.67441   -82.141424   -502.42617   -3792.1826 
 7373000    193.75628   -4363.0972   -4031.0055   -4363.0972            0    1183.1456     18.20946    23.248747    21.920087    9279.8059    427.29634    838.23714    2283.9035      547.618    372.63806     286.6487   -3870.8828 
 7374000    213.11637   -4351.7389   -3986.4647   -4351.7389            0    1255.5465    18.050716    23.190557    22.152554    9273.1958    813.37617    1996.2541    957.00919    386.67553   -159.92336   -392.41066   -3816.6645 
 7375000    212.25667   -4335.3163   -3971.5157   -4335.3163            0    1311.6282      17.9208    23.596181    21.953956    9283.5031    747.69864     1961.824     1225.362   -42.067223    38.052249   -249.89147   -3793.9338 
 7376000    208.97421    -4357.262   -3999.0874    -4357.262            0    3115.0905    17.962528    23.227292    22.222534    9271.7054    3131.9318    3353.9068    2859.4329   -783.15631    323.17743      283.508   -3577.8701 
 7377000    207.78364   -4350.3357   -3994.2017   -4350.3357            0    3209.9435    18.185587    23.212684    21.833583    9216.7477     3203.449    3061.0148    3365.3666    271.34856    333.01717   -81.241083   -3562.7313 
 7378000    195.98365     -4338.03   -4002.1207     -4338.03            0    1819.5225      17.8327    23.585507    22.081023    9287.1297    1540.1468    2805.4051    1113.0156   -402.77357    371.85388   -652.68013   -3755.6786 
 7379000     214.2215   -4350.2141   -3983.0458   -4350.2141            0    1705.6543    17.992897    23.550116    21.944121    9298.4883    1956.7856    313.32537    2846.8521    197.84219    213.73226    731.62221   -3751.7439 
 7380000    196.98193   -4361.5755   -4023.9552   -4361.5755            0    1900.0255    18.060042    23.152605    22.202643    9283.7467    1696.9449    1572.8013    2430.3304     -164.645   -31.082347   -177.86169   -3766.7033 
 7381000    197.93365    -4367.838   -4028.5865    -4367.838            0    1967.4236     18.10336    23.521302    21.793133     9279.834     1807.244    3337.2003    757.82638   -636.44997    211.07695   -612.09113   -3762.3215 
 7382000    200.48044   -4324.5219   -3980.9053   -4324.5219            0    2504.2854     17.86075    23.481426    22.084795    9262.2722    2919.6825    1800.7699    2792.4037   -557.00653   -1003.8069   -601.70642   -3642.6246 
 7383000    205.55069   -4369.5834   -4017.2765   -4369.5834            0    1500.5629    18.086271    23.408947    22.018595     9322.245    1254.4874    1972.5509    1274.6503    399.28235    320.70863   -100.77776   -3813.2669 
 7384000      188.692   -4350.4919   -4027.0803   -4350.4919            0    1526.2248    18.185727    23.315638    21.997466    9327.1857    2877.4722    971.41435    729.78789    178.41507    269.44371   -64.664703   -3819.4718 
 7385000    198.33165   -4377.0613   -4037.1276   -4377.0613            0    1448.7497    17.913629     23.44944    22.128747    9295.5024    1500.9241    2082.8501    762.47498   -498.04391   -255.50694   -331.71066   -3840.7273 
 7386000    199.22046   -4342.3984   -4000.9414   -4342.3984            0    1568.8938    17.984754    23.540265    21.968618    9300.7629    735.28789    1624.0774     2347.316    492.91183   -593.90536    37.559954   -3788.1334 
 7387000    194.37023   -4355.4654   -4022.3215   -4355.4654            0    2347.4109    18.067073     23.14793    22.191063    9280.6435    1991.7151    2522.2195    2528.2981   -123.19324    978.36842    659.64934   -3704.6026 
 7388000    201.82802   -4347.5934    -4001.667   -4347.5934            0    2457.0953    18.037741    23.637615    21.727757    9264.0463    403.20965    3264.5589    3703.5172   -36.830632    846.58853    671.93694   -3669.6972 
 7389000    195.73791   -4379.9748   -4044.4867   -4379.9748            0    2523.3273    17.888832    23.387109    22.095047    9243.8618    1918.4769    3672.1308    1979.3742    203.78691    913.60016    263.48516   -3704.3113 
 7390000    205.90893   -4353.5638    -4000.643   -4353.5638            0    2812.2835    18.174861    23.466936     21.53293    9183.9731    718.46105    3559.2648    4159.1246    1074.6369    744.91305   -159.42968    -3623.969 
 7391000    190.59375   -4355.7054   -4029.0342   -4355.7054            0    1770.1095    17.951303    23.283108    22.147854    9256.9641    2259.5829    1763.4273    1287.3184    712.40612   -17.430122   -344.05051   -3790.0635 
 7392000    195.82105   -4349.9291   -4014.2985   -4349.9291            0    2239.2917    18.006244     23.61928    21.693352    9226.0636    2067.6327    1477.2716    3172.9708   -855.63934    37.327226   0.20291659   -3712.9958 
 7393000     193.1722   -4349.5932   -4018.5026   -4349.5932            0    2119.9221    17.846937    23.431446    22.178461    9274.5782    1449.5992    2527.8656    2382.3014   -823.06868   -472.74387    611.03799   -3731.7615 
 7394000    192.22901   -4342.8517   -4013.3778   -4342.8517            0    1171.8734    18.092948     23.53712    21.891067      9322.44    2362.8685    1087.8155    64.936323   -201.05841   -154.31504   -122.96477    -3854.052 
 7395000    210.28818   -4337.4826   -3977.0559   -4337.4826            0    2849.1693    17.951284    23.214774    22.204132    9253.2387    2215.4948    3010.5372    3321.4759   -206.26061   -551.04648    590.68053   -3592.5633 
 7396000    198.89167   -4356.3294   -4015.4359   -4356.3294            0    2989.5399    18.094392    23.394869    21.724239    9196.2169    1984.3621     2566.262    4417.9956    19.768304    219.63903   -465.58944   -3614.4866 
 7397000     196.3325   -4367.7745   -4031.2673   -4367.7745            0    2201.2603     17.88635    23.376006    22.129661    9252.6643    2957.4075    973.97906    2672.3943   -318.25634   -500.64281    53.552135   -3734.2279 
 7398000    193.35944   -4366.6438   -4035.2323   -4366.6438            0    1528.1873    18.054712    23.604319    21.773133    9279.0381    1773.3183    893.64309    1917.6004     595.7124   -532.24463   -270.10332     -3828.43 
 7399000    210.23916   -4337.1997    -3976.857   -4337.1997            0    561.22459    18.065429    23.279145     22.20376    9337.7411    2075.2788    332.19232   -723.79736    222.76305    378.05571    340.48132   -3900.4287 
 7400000    184.52439   -4328.5871   -4012.3186   -4328.5871            0    2774.2123    18.027843    23.356353     22.00596    9265.9318    3663.3273    2555.9288    2103.3808    331.70691   -853.52101   -221.67267   -3637.4279 
 7401000    210.67183   -4348.1534   -3987.0691   -4348.1534            0    2671.2738     17.82132    23.653203    21.883312    9224.5011    3972.8416    1259.7364    2781.2434    169.64062    519.10479    865.09113   -3627.7029 
 7402000    193.35638   -4361.3562     -4029.95   -4361.3562            0    2411.4324    17.975098    23.392515    22.050646     9271.916    2662.0884    2105.0282    2467.1804   -489.54363   -417.76448   -159.22318   -3703.8728 
 7403000    211.13055   -4362.6474   -4000.7769   -4362.6474            0    1696.5612    18.182212    23.246971    21.944589    9275.5682    1624.7092    2648.2624    816.71211      263.695   -70.172308    88.361451   -3771.2752 
 7404000    201.71346   -4374.2302   -4028.5002   -4374.2302            0    2623.0987    17.832461    23.366954    22.113376    9214.4289     3725.918     1676.167    2467.2111   -292.23092    -1123.642    45.762033   -3676.0003 
 7405000    194.18144   -4344.6035   -4011.7831   -4344.6035            0    2416.9702    17.854433    23.635657    21.828235    9211.5422    1628.8885    1213.5567    4408.4655    73.578977   -362.29067   -336.94328   -3687.0852 
 7406000    195.37702   -4380.1538   -4045.2843   -4380.1538            0    2376.9605    18.124285    23.201413    21.875545    9198.8638    1440.7392    2082.2436    3607.8988    205.92099    730.53183       -42.13   -3726.4008 
 7407000    203.35053   -4369.5418    -4021.006   -4369.5418            0    1689.1172    18.036054    23.500598    21.897755      9281.54    1800.8925   -161.11973    3427.5788      1311.79    307.29908    231.11062   -3792.3641 
 7408000    205.26988   -4370.5882   -4018.7626   -4370.5882            0    1676.9819    17.755451    23.530882    22.169248    9262.3436    3495.6107    -36.17471    1571.5097    448.65554   -4.4987714   -234.36211   -3792.2329 
 7409000    197.88131   -4349.5164   -4010.3546   -4349.5164            0    2668.5176    18.122266    23.283257    21.893419    9237.8268    333.64653    3747.0253    3924.8809    293.42807    374.82193   -877.60732   -3650.8407 
 7410000    205.02781   -4333.2081   -3981.7974   -4333.2081            0    3779.6217    18.011965    23.259805    21.910466    9179.4949    4000.6328    3967.4611     3370.771   -880.78044    467.52838   -842.23788   -3475.8062 
 7411000    195.33922   -4366.7342   -4031.9295   -4366.7342            0    1539.4719    17.915596    23.545061    21.963966    9264.9236    2605.5409    692.81353    1320.0613   -78.995931   -402.01944    193.32239   -3823.9169 
 7412000    198.43911   -4353.5369   -4013.4191   -4353.5369            0    1790.7618    17.965875    23.340575    22.076597    9257.4645    1518.9072    3101.7113    751.66695    479.06856    -1006.911   -704.97626   -3771.6472 
 7413000    208.26472   -4359.9937   -4003.0351   -4359.9937            0    2890.3956    18.184109    23.146513    21.981711    9252.0739    2254.6669    2099.9785    4316.5415    264.02786   -1056.9186    398.30014   -3613.0283 
 7414000    210.20075   -4371.4843   -4011.2074   -4371.4843            0     3740.972    17.866534    23.486838    21.835219    9162.6779      3030.74    3398.4519    4793.7239   -848.36455   -101.09259    581.70982   -3511.3079 
 7415000    197.88383   -4347.0305   -4007.8644   -4347.0305            0    2496.0777    17.940691    23.519317    22.025944    9293.9087      4255.91    351.39811    2880.9251   -779.61942   -121.49256    296.83484   -3669.5407 
 7416000    207.67763   -4350.3587   -3994.4064   -4350.3587            0    2313.0747    18.113614    23.295125    22.026862    9294.4309    770.51877    3667.4567    2501.2486   -327.11749   -325.32492    866.88939   -3680.8697 
 7417000    203.89734   -4378.3899   -4028.9168   -4378.3899            0    3109.9393    18.188816    23.209881    21.913701    9251.0938    2393.1181    3370.8173    3565.8826    337.01583    -184.1296    38.421674   -3609.3309 
 7418000    220.30865   -4354.3399   -3976.7384   -4354.3399            0    1454.6239    17.933654    23.545597    22.004223     9291.472    1401.8753    1255.5132    1706.4831    358.83128   -435.97473   -432.53538   -3779.6273 
 7419000    209.28463   -4336.1542   -3977.4475   -4336.1542            0    1722.1397     17.94423    23.380644    22.198275    9313.2341    1881.5369    2111.9603     1172.922   -826.61041    290.56123   -239.77809   -3743.5397 
 7420000    205.67439   -4365.3967   -4012.8778   -4365.3967            0    2305.3823    18.093079    23.508348     21.84111    9289.8628    2054.5799    1942.5859    2918.9811   -132.39571    74.871958   -201.46208   -3700.5374 
 7421000    198.35509     -4350.28   -4010.3061     -4350.28            0    1488.1355    18.055138    23.439482    21.977234    9300.8333    1498.0962   -51.307923    3017.6183   -709.38253   -467.77725   -185.18418   -3808.4508 
 7422000    200.72316   -4356.4711   -4012.4384   -4356.4711            0    2563.7154    18.006038    23.464004    21.848239    9230.7444    3132.8348    961.98296    3596.3285    117.99683     768.5508   -298.21174   -3667.3087 
 7423000    200.07515   -4358.9649   -4016.0429   -4358.9649            0    1849.6054    17.928421    23.408596    22.137924    9290.8255    1314.1513    2453.0972    1781.5677   -259.07929   -239.63723    392.84582   -3765.4266 
 7424000    194.64709   -4353.4812   -4019.8627   -4353.4812            0    3243.2656     18.05838    23.241359    21.902624    9192.5592    3383.5828    1988.3473    4357.8666    764.62176    410.83852   -228.11695   -3585.0574 
 7425000     203.5363   -4349.7982   -4000.9439   -4349.7982            0     2780.962    17.990926    23.420676    22.009354    9273.8538    2389.8122    2652.6504    3300.4234    1445.7736   -492.11172   -64.165598   -3624.8198 
 7426000     210.6713   -4377.1989   -4016.1155   -4377.1989            0    1498.5964    17.950144    23.461715    21.975664    9254.8567    1274.1461    2141.6203    1080.0228   -238.52296    328.05411   -116.61804    -3813.846 
 7427000    206.96959   -4329.7104   -3974.9716   -4329.7104            0    3109.9042    17.933875     23.37805    21.894409    9179.4286    4523.6945    2283.2487    2522.7694    54.017474    333.56545    332.98032   -3558.6408 
 7428000    199.35392   -4335.2557   -3993.5699   -4335.2557            0    376.50477    18.144537    23.433917    22.018224    9362.0952   -1041.4075    1825.3885    345.53333   -515.96839    311.65111   -280.79218   -3942.1633 
 7429000    203.52571   -4349.5539   -4000.7178   -4349.5539            0    1997.6703    17.834375    23.395396    22.152567    9242.9867    3128.3495    1863.6454     1001.016   -978.66309    223.56728    87.694014   -3731.4329 
 7430000     202.1397   -4354.7007   -4008.2402   -4354.7007            0    1495.1801    18.054541    23.686328    21.700677    9280.2031    1332.1361    374.03759    2779.3667   -196.56271    396.83762   -283.44951   -3805.8791 
 7431000    212.02837   -4359.9965   -3996.5871   -4359.9965            0    2490.0549    17.917767    23.241823    22.112796    9208.6875     2223.899    1567.0497    3679.2159   -171.65722   -934.92272    616.13557   -3662.1746 
 7432000    208.94081   -4338.2454    -3980.128   -4338.2454            0    3033.7959    18.013611    23.423594    21.857108    9222.4647     3588.355    2026.5247    3486.5081   -746.26693    869.77255    902.36918   -3572.0818 
 7433000    201.66778   -4360.1715   -4014.5198   -4360.1715            0    3883.2525    17.767058    23.178042    22.333213    9196.9424    4756.3651    4155.4723    2737.9202   -14.613989   -152.09371   -167.37937    -3493.667 
 7434000    200.38131      -4363.7   -4020.2533      -4363.7            0    3024.6092     18.15017    23.289534    21.836287    9230.3955    3335.0753      3139.11    2599.6423    769.53759    88.139659    166.34344    -3613.093 
 7435000    208.78058   -4346.4579   -3988.6151   -4346.4579            0     2718.999    17.780347    23.213736    22.372622    9234.2612    3513.6325    2935.1261    1708.2385    699.94348    349.35754    825.75317   -3622.4414 
 7436000    199.52066    -4329.935   -3987.9634    -4329.935            0    1485.5612    18.072297    23.646025    21.815082     9322.413    707.45943    626.50669    3122.7175   -269.66453    485.68527    13.139855   -3785.9897 
 7437000    204.27669   -4364.5801   -4014.4568   -4364.5801            0    2170.5332    17.907272    23.081781    22.390719    9254.7944    2434.4672    2695.2852    1381.8472    64.814468     664.7768   -628.86448   -3721.4963 
 7438000    214.21617   -4348.7288   -3981.5696   -4348.7288            0    2494.3598    18.107216    23.379816    21.843428    9247.2702    3107.3884    2732.8867    1642.8042      95.2183   -886.26083   -374.45929   -3645.1754 
 7439000     192.7162   -4357.7876   -4027.4786   -4357.7876            0    2291.3706    17.795848    23.334197    22.263679    9245.0334    2593.3658    1938.3725    2342.3734    186.30736    159.10955    305.76979   -3718.5346 
 7440000    209.62498    -4333.376   -3974.0859    -4333.376            0    1529.9917    18.042605    23.642033    21.776974    9289.2698    1912.0585    630.18076     2047.736   -143.11163   -670.25455    748.83273   -3766.8111 
 7441000    205.51782   -4350.2279   -3997.9774   -4350.2279            0     2287.111    17.998493     23.25884    22.196869    9292.1433    3599.7252    1072.8757    2188.7323   -478.61387   -1026.1896    25.774953   -3688.0364 
 7442000    199.64669   -4333.4689   -3991.2813   -4333.4689            0    2150.1071    18.232749    23.295966    21.845379    9278.8138    791.40393     3215.632    2443.2852    31.012082    134.33507    581.54719   -3700.3246 
 7443000    205.17328   -4359.3425   -4007.6825   -4359.3425            0    1020.6505    17.931808    23.506207    22.200148     9357.558   -693.12154    2833.8532    921.21973    717.97156    465.94141   -454.16771   -3868.3939 
 7444000    206.09481   -4338.8588   -3985.6194   -4338.8588            0    1819.1755    18.020199    23.563956     21.90434    9301.1781    2225.3716    499.39224    2732.7627    583.21216   -203.65411    72.527582   -3738.8516 
 7445000    208.69742   -4359.0959   -4001.3956   -4359.0959            0    3038.4322    18.006276    23.187043    22.078362     9217.988    1569.3595    4397.6407    3148.2962      699.069    563.74109   -120.27828   -3592.9243 
 7446000    208.46382   -4362.7237   -4005.4239   -4362.7237            0    1655.9184    18.029687     23.41401    21.999225    9286.9127    712.46923     1666.978    2588.3079   -77.169811    16.153306   -366.41375   -3781.1461 
 7447000    196.99352   -4339.3125   -4001.6723   -4339.3125            0    1285.4378    17.983969    23.482334    22.069869    9320.2287     1883.432    428.27561    1544.6058    64.657004   -400.74649     309.4391   -3826.9479 
 7448000    205.59112   -4352.5109   -4000.1348   -4352.5109            0    2031.7379    18.097426    23.370332    21.919081    9270.5192    2986.5021    2835.3603    273.35133   -71.896368     336.0076   -297.22412   -3725.4417 
 7449000    211.57409   -4347.4113   -3984.7806   -4347.4113            0    3742.5454    17.910888     23.41809    21.994534    9225.3608    3796.6179    4311.4846    3119.5336    645.26966     363.7406     517.1624   -3481.2495 
 7450000    196.81018   -4343.2437   -4005.9178   -4343.2437            0    2968.6523    17.998508    23.315902    21.914352    9196.3899    2832.6904    3541.5439    2531.7226    31.040929   -120.04711   -298.16934   -3607.7624 
 7451000    206.02096   -4353.3526   -4000.2397   -4353.3526            0    2370.5367    18.009019    23.395166    21.955447    9250.3566    906.57678    2436.9724    3768.0608   -361.30902    586.02746    148.18986   -3680.4378 
 7452000    200.82268   -4338.0491   -3993.8459   -4338.0491            0    2074.1672    17.705361    23.690105    22.026064    9238.6535    4520.1168    729.76103    972.62387    809.53649   -55.808646   -134.93404   -3714.3803 
 7453000    201.29738   -4368.3349   -4023.3181   -4368.3349            0    1773.7953    18.073473    23.499152    21.908163    9304.6439    1993.2103    2146.4067    1181.7689   -1094.3181   -820.10867   -14.385538   -3782.6164 
 7454000    205.79075   -4373.7134   -4020.9951   -4373.7134            0    2793.8196    18.183489    22.996913    21.986212    9193.8449    1779.6119    2144.3658    4457.4812   -137.25186   -186.29101    245.00455   -3646.3919 
 7455000    205.98791   -4378.1198   -4025.0636   -4378.1198            0    2212.7607    17.989332    23.435437    21.958032    9257.2394    1863.9755    1966.0561    2808.2506   -629.11822    315.63529    67.287173   -3726.3247 
 7456000    198.45744   -4363.7335   -4023.5843   -4363.7335            0    3109.9019    17.773594    23.631358    21.974423    9229.5688    4111.1949    2323.9049    2894.6059   -11.893446    293.85346   -22.099598   -3604.9797 
 7457000    201.69982   -4356.2765   -4010.5699   -4356.2765            0    3283.1088    18.028052    23.411634    21.858684    9225.8109    2322.9969    3172.6502    4353.6794   -655.74505   -521.28153    98.107657   -3568.8309 
 7458000    204.90965   -4345.9412    -3994.733   -4345.9412            0    1560.7738    18.463166    23.107827    21.957086    9367.8513    215.84865    3209.1369     1257.336   -165.67193    931.23405   -216.81046   -3781.4993 
 7459000    200.02142   -4352.7119    -4009.882   -4352.7119            0      1711.77    17.888646    23.528591    22.159803    9326.9425    2427.4439    329.35062    2378.5153    431.60918    315.29139   -382.05064   -3777.0404 
 7460000    207.41654   -4339.7507   -3984.2459   -4339.7507            0    2562.6142    17.944107    23.578732    21.850756    9245.0395    1401.4264    2029.7532    4256.6628    -296.7657    -903.0629   -238.33117   -3638.7301 
 7461000    210.83931   -4376.0389   -4014.6675   -4376.0389            0    2042.1306    18.047181    23.284165    22.160431    9312.1136    1123.5175    2485.7261    2517.1481   -279.55273    296.69217   -29.723643   -3737.3306 
 7462000    202.97585   -4351.0882   -4003.1945   -4351.0882            0    1263.7161    18.191156    23.450134    21.900835    9342.5687    816.29505    1638.2891    1336.5641   -610.59323   -645.00979   -51.710403   -3831.0109 
 7463000    206.34903   -4344.8906   -3991.2154   -4344.8906            0    2681.0399    17.885688    23.372115    22.225317    9290.7682    2451.1167    3641.4286    1950.5744    710.22277   -993.30699    214.32968   -3627.9444 
 7464000    207.77439   -4373.2768   -4017.1586   -4373.2768            0    2418.7961    18.030806    23.446639    21.884383    9251.8813     1753.652    3213.1934    2289.5428    497.06975   -421.88795    1038.9034   -3690.7924 
 7465000    201.98925    -4391.326   -4045.1233    -4391.326            0    2796.0924     17.87329    23.321347    22.172594    9242.1845    4575.8681    2467.4157    1344.9934   -841.83019   -631.52652   -522.63574   -3668.2442 
 7466000    205.86034   -4371.2084   -4018.3709   -4371.2084            0    1190.1619    18.009887     23.54206    21.924393      9295.72    2281.2836    828.97153     460.2307    1145.5491   -450.99863    287.04405   -3857.0223 
 7467000    193.37239    -4362.924   -4031.4903    -4362.924            0    384.75038    18.341445    23.093245    22.045447    9337.6465     39.21358    1466.0338   -350.99628    569.75011   -820.79878    -403.7915    -3979.095 
 7468000    216.67305   -4370.5628   -3999.1926   -4370.5628            0     2972.097    18.034093    23.291956    21.904625    9201.0222    2104.9541    2398.3197    4413.0174    881.91984    40.396311   -377.70243   -3600.3744 
 7469000    209.81921    -4350.705    -3991.082    -4350.705            0    1518.4539    17.799116    23.655379    22.085135    9298.8318    2872.7355    930.45086    752.17536   -162.59708   -9.7035548    633.15896   -3785.1585 
 7470000     202.2283   -4373.1572   -4026.5448   -4373.1572            0    2458.2803    18.109797    23.332499    21.831391    9224.7849    1649.0347     1574.035    4151.7712   -199.11897   -647.10141   -596.81008   -3695.8224 
 7471000    209.52902    -4372.088   -4012.9625    -4372.088            0    1558.0414    18.133285    23.367276     22.03981    9338.8289    2288.6254    614.10641    1771.3924    408.40435    70.017015    31.925961   -3800.7615 
 7472000    197.34576   -4357.7104   -4019.4665   -4357.7104            0    3574.2989    17.721614    23.593286    21.977524    9189.0467    5137.5565    1470.7288    4114.6114   -240.39052   -736.57722   -153.53781   -3540.4646 
 7473000    191.41394   -4340.4221   -4012.3452   -4340.4221            0    2739.8662    17.892849    23.522251    21.870147    9204.7092    3802.4834     2173.624    2243.4913   -876.51327   -92.257187   -361.29719   -3644.5421 
 7474000    204.06337   -4348.5172   -3998.7596   -4348.5172            0    2685.2985    18.077453    23.129864    22.058665    9223.3681    2010.9621    3199.8698    2845.0636   -344.55161   -195.41917   -421.64104    -3637.551 
 7475000    215.25562   -4389.7412   -4020.8004   -4389.7412            0    2254.8857    18.053399    23.388867    21.926103    9258.2653    1462.9544    3077.1799    2224.5227   -95.743609   -29.405295   -331.03209   -3716.3406 
 7476000     201.8583   -4349.3591   -4003.3809   -4349.3591            0    1992.9637    17.903326    23.702621    21.791351    9247.2849    2024.8491    2011.3046    1942.7375   -387.74049   -388.14781   -765.24257   -3734.6055 
 7477000     208.3163   -4311.4654   -3954.4184   -4311.4654            0    2028.6188    17.944914    23.324284    22.162684    9276.2418    1604.8986    4314.2137    166.74422   -1083.9444    -434.8232     1305.418   -3679.9778 
 7478000    207.80116   -4337.4955   -3981.3315   -4337.4955            0    3686.4695    18.238752    23.274979     21.63791    9185.4346    2936.6041    3481.6224    4641.1819    -554.7666    901.61981    64.676765   -3487.4915 
 7479000     215.2038   -4363.8603   -3995.0084   -4363.8603            0    2735.5499    17.900944    23.427195    22.096709    9266.6725    2201.1386    2642.5029     3363.008    474.63172   -265.36509   -683.71417   -3625.3127 
 7480000    208.50214   -4338.7412   -3981.3757   -4338.7412            0    1181.5732    18.015651    23.694871    21.828293    9318.0299    2182.3527    371.25423    991.11267    1059.9096    595.00053   -94.985467   -3820.8071 
 7481000    211.54814   -4355.3512   -3992.7649   -4355.3512            0    1618.6234    18.011707    23.248676     22.14204    9271.9427     451.9609    2712.7904     1691.119   -456.48268   -367.02447   -139.74197   -3773.8917 
 7482000    198.87512   -4335.8351   -3994.9699   -4335.8351            0    3341.8414    18.218988    23.484266    21.474694    9188.1534    2185.1711    3336.0085    4504.3445   -275.75318   -476.88507   -383.36572   -3547.1639 
 7483000    192.71815   -4345.3377   -4015.0254   -4345.3377            0    3147.0727    17.859825    23.306703    22.143683    9217.3887    2807.3056    4065.6715    2568.2412   -217.07867    -74.39646    844.35854   -3591.9765 
 7484000    206.87911   -4338.3209   -3983.7371   -4338.3209            0     1929.224    18.081909    23.293294    21.948432     9244.399    1990.2161    1819.6234    1977.8324   -960.06103   -638.25381   -340.33534    -3723.639 
 7485000    201.95273   -4365.6039   -4019.4639   -4365.6039            0    2176.8809    17.776529    23.350846    22.220307    9223.5823    2514.5601    1990.7022    2025.3803    700.15211    256.69558    407.78916   -3726.6375 
 7486000    208.96456   -4367.1803   -4009.0222   -4367.1803            0    3117.1339    17.979815    23.565493    21.742485    9212.3605    2760.0826    3322.0228    3269.2961     65.55514   -822.77349    333.55296   -3590.2264 
 7487000     202.1962   -4347.7679   -4001.2105   -4347.7679            0    2313.9646    18.072027     23.09656    22.188375    9261.4645    1288.1609    2636.7999    3016.9328   -108.92653   -250.89119    123.56282   -3688.6657 
 7488000    200.48769   -4337.7605   -3994.1314   -4337.7605            0    2524.4804    18.177354    23.539903    21.675245     9274.689     1625.362    2300.6228    3647.4563    335.87399   -371.80565   -1.8199537   -3652.6656 
 7489000    194.86802   -4337.4106   -4003.4134   -4337.4106            0    1673.2071    17.877745    23.459953    22.153419    9291.3888    1824.4926    2780.2629    414.86582   -652.54169   -782.59526   -682.43164   -3776.6849 
 7490000    200.77006   -4340.2404   -3996.1274   -4340.2404            0      3045.53    18.151621    23.213671    21.807235    9188.8223    3271.0274    2876.3786    2989.1841   -551.28503   -542.29612   -264.44967   -3587.9973 
 7491000    203.12575   -4370.0814   -4021.9308   -4370.0814            0    3138.2721    17.909932    23.304895    22.010905    9187.1115    3442.2571    3224.3167    2748.2424   -1517.1554    480.68865    588.61541   -3601.4507 
 7492000    207.54836   -4359.1715   -4003.4407   -4359.1715            0    3632.5433    18.037347    23.380691    21.774008    9182.6573    3560.8171    3623.8672    3712.9456    495.75047    191.03208   -136.38827   -3516.9718 
 7493000    204.27255   -4328.9323   -3978.8162   -4328.9323            0    3459.5437    17.928823     23.38052    21.951062    9201.5602    4264.5068    2857.6288    3256.4953   -62.872273    77.451959    330.60055   -3514.5616 
 7494000    206.80372   -4349.4708   -3995.0163   -4349.4708            0    2257.9339      18.0771      23.3425    21.993428    9280.4503    3768.8593    1154.1327    1850.8096   -389.73387   -243.43385    103.01799   -3689.4143 
 7495000    211.91482    -4343.202   -3979.9872    -4343.202            0     2365.687    17.946416    23.469219    21.992965    9263.1811    1637.2606    2871.4488    2588.3517      1548.61    871.75909    1163.6632   -3660.3971 
 7496000    203.86957   -4352.7774   -4003.3519   -4352.7774            0    2096.3221    17.856556    23.600476    21.944032    9247.7243    2110.6927    2180.1011    1998.1726    525.79606    560.23873   -7.4643555   -3720.6239 
 7497000      200.595   -4351.3079    -4007.495   -4351.3079            0    2668.4447    18.114144    23.227761     21.91443    9220.5182    1817.1363     3299.353    2888.8447   -424.10282    258.75964   -31.556239   -3648.6644 
 7498000    215.51284   -4354.0208   -3984.6391   -4354.0208            0    2694.4481    18.123713     23.32775    21.771492    9204.6698    1884.9011    2340.9393    3857.5038    -734.2853    48.906404   -518.57333   -3622.9346 
 7499000    200.11993   -4364.7466   -4021.7479   -4364.7466            0    2265.6488    17.840884    23.591493    22.012182    9264.7755    1471.6629    3179.3326    2145.9511    90.939925    -2.771283    -449.7091   -3715.6197 
 7500000    206.78981   -4331.1919   -3976.7613   -4331.1919            0    1185.9245    18.028383     23.35901    22.199418    9348.7336    551.24154    1253.7119      1752.82    139.64478   -660.19322    1723.1396   -3815.0703 
Loop time of 398.218 on 64 procs for 250000 steps with 864 atoms

Performance: 108.483 ns/day, 0.221 hours/ns, 627.796 timesteps/s
193.4% CPU use with 32 MPI tasks x 2 OpenMP threads

MPI task timing breakdown:
Section |  min time  |  avg time  |  max time  |%varavg| %total
---------------------------------------------------------------
Pair    | 18.227     | 25.395     | 35.883     | 109.2 |  6.38
Bond    | 0.80292    | 1.0892     | 1.6647     |  20.1 |  0.27
Kspace  | 198.05     | 212.48     | 223.43     |  44.3 | 53.36
Neigh   | 1.2536     | 1.393      | 1.5518     |   6.7 |  0.35
Comm    | 59.384     | 64.481     | 68.629     |  25.6 | 16.19
Output  | 0.58031    | 0.58063    | 0.58232    |   0.0 |  0.15
Modify  | 69.557     | 72.808     | 75.752     |  17.9 | 18.28
Other   |            | 19.99      |            |       |  5.02

Nlocal:        27.0000 ave          41 max          17 min
Histogram: 3 4 9 1 3 3 2 2 4 1
Nghost:        2115.66 ave        2209 max        2021 min
Histogram: 10 6 0 0 0 0 0 0 7 9
Neighs:        6500.22 ave        9704 max        3958 min
Histogram: 3 5 6 2 4 2 3 1 4 2

Total # of neighbors = 208007
Ave neighs/atom = 240.74884
Ave special neighs/atom = 2.0000000
Neighbor list builds = 4375
Dangerous builds = 0

unfix		3
unfix		2
unfix		1

write_data	data.final.${pid} nocoeff
write_data	data.final.1 nocoeff
System init for write_data ...
PPPM initialization ...
  extracting TIP4P info from pair style
  using 12-bit tables for long-range coulomb (../kspace.cpp:340)
  G vector (1/distance) = 0.37140039
  grid = 24 27 25
  stencil order = 5
  estimated absolute RMS force accuracy = 0.0031978131
  estimated relative force accuracy = 9.630119e-06
  using double precision FFTW3
  3d grid and FFT values/proc = 4410 672
Last active /omp style is kspace_style pppm/tip4p/omp

write_restart   restart.lmp.${pid}
write_restart   restart.lmp.1
System init for write_restart ...
PPPM initialization ...
  extracting TIP4P info from pair style
  using 12-bit tables for long-range coulomb (../kspace.cpp:340)
  G vector (1/distance) = 0.37140039
  grid = 24 27 25
  stencil order = 5
  estimated absolute RMS force accuracy = 0.0031978131
  estimated relative force accuracy = 9.630119e-06
  using double precision FFTW3
  3d grid and FFT values/proc = 4410 672
Last active /omp style is kspace_style pppm/tip4p/omp
Total wall time: 0:06:38
