LAMMPS (30 Jul 2021)
Processor partition = 1
  using 1 OpenMP thread(s) per MPI task
using multi-threaded neighbor list subroutines
variable        pid world 0 1
variable        phase world IceII IceIII

shell cd ${phase}
shell cd IceIII
include Restart.lmp
echo both
log log.lammps
#include		in.partitions
include		in.temp
variable        temperature equal 121.89
variable	tempDamp equal 100.0
include		in.pressure
variable        pressure equal 4918.8
variable        pressureDamp equal 1000.0 # This is 1 ps
include		in.seed
variable        seed equal 745823

units		real
atom_style	full

read_restart	restart.lmp.${pid}
read_restart	restart.lmp.1
Reading restart file ...
  restart file = 30 Jul 2021, LAMMPS = 30 Jul 2021
  restoring atom style full from restart
  orthogonal box = (0.047697706 0.042144398 0.073947668) to (19.952303 19.957857 20.626050)
  4 by 4 by 4 MPI processor grid
  restoring pair style lj/cut/tip4p/long/omp from restart
  restoring bond style harmonic/omp from restart
  restoring angle style harmonic/omp from restart
  972 atoms
  648 bonds
  324 angles
Finding 1-2 1-3 1-4 neighbors ...
  special bond factors lj:    0        0        0       
  special bond factors coul:  0        0        0       
     2 = max # of 1-2 neighbors
     1 = max # of 1-3 neighbors
     1 = max # of 1-4 neighbors
     2 = max # of special neighbors
  special bonds CPU = 0.007 seconds
  read_restart CPU = 0.019 seconds
include 	in.setup
variable	out_freq equal 1000
variable	out_freq2 equal 10000
variable	out_freq3 equal 1000

timestep	2.0

neigh_modify    delay 7 every 1

include		in.tip4p
# This is TIP4P/Ice

# create groups ###
group ox type 2
324 atoms in group ox
group hy type 1
648 atoms in group hy

# set charges - beside manually ###
set group ox charge -1.1794
Setting atom values ...
  324 settings made for charge
set group hy charge 0.5897
Setting atom values ...
  648 settings made for charge

# ### TIP3P Potential Parameters ###
pair_style lj/cut/tip4p/long/omp 2 1 1 1 0.1577 8.5
pair_coeff 1 1*2 0.000 0.000
pair_coeff 2 2 0.21084 3.1668
bond_style  harmonic
bond_coeff  1 450 0.9572
angle_style harmonic
angle_coeff 1 55 104.52
kspace_style pppm/tip4p/omp 1.0e-5
pair_modify tail yes

thermo          ${out_freq}
thermo          1000
thermo_style    custom step temp pe etotal epair emol press lx ly lz vol pxx pyy pzz pxy pxz pyz enthalpy

restart 	${out_freq3} restart.lmp.${pid} restart2.lmp.${pid}
restart 	1000 restart.lmp.${pid} restart2.lmp.${pid}
restart 	1000 restart.lmp.1 restart2.lmp.${pid}
restart 	1000 restart.lmp.1 restart2.lmp.1


include         in.dump
dump            myDump all atom ${out_freq2} dump.water.${pid}
dump            myDump all atom 10000 dump.water.${pid}
dump            myDump all atom 10000 dump.water.1
dump            myDump2 all dcd ${out_freq2} dump.dcd
dump            myDump2 all dcd 10000 dump.dcd
dump_modify     myDump append yes
dump_modify     myDump2 append yes


variable natoms 	equal  "count(all)"                        # NUMBER ATOMS
variable H      	equal  "enthalpy/v_natoms"                 # ENTHALPY-per-atom
variable Vol      	equal  "vol/v_natoms"                 # volume-per-atom
fix AVG all 		ave/time ${out_freq} 1 ${out_freq} v_Vol v_H file vol_enthalpy.dat
fix AVG all 		ave/time 1000 1 ${out_freq} v_Vol v_H file vol_enthalpy.dat
fix AVG all 		ave/time 1000 1 1000 v_Vol v_H file vol_enthalpy.dat


timer           timeout 02:55:00 every 1000
New timer settings: style=normal  mode=nosync  timeout=02:55:00

fix 		1 all shake 1e-6 200 0 b 1 a 1
Finding SHAKE clusters ...
       0 = # of size 2 clusters
       0 = # of size 3 clusters
       0 = # of size 4 clusters
     324 = # of frozen angles
  find clusters CPU = 0.001 seconds
fix             2 all nph aniso ${pressure} ${pressure} ${pressureDamp}
fix             2 all nph aniso 4918.8 ${pressure} ${pressureDamp}
fix             2 all nph aniso 4918.8 4918.8 ${pressureDamp}
fix             2 all nph aniso 4918.8 4918.8 1000
fix             3 all temp/csvr ${temperature} ${temperature} ${tempDamp} ${seed}
fix             3 all temp/csvr 121.89 ${temperature} ${tempDamp} ${seed}
fix             3 all temp/csvr 121.89 121.89 ${tempDamp} ${seed}
fix             3 all temp/csvr 121.89 121.89 100 ${seed}
fix             3 all temp/csvr 121.89 121.89 100 745823


run             250000
PPPM initialization ...
  extracting TIP4P info from pair style
  using 12-bit tables for long-range coulomb (../kspace.cpp:340)
  G vector (1/distance) = 0.3717965
  grid = 24 24 24
  stencil order = 5
  estimated absolute RMS force accuracy = 0.0035581691
  estimated relative force accuracy = 1.071532e-05
  using double precision FFTW3
  3d grid and FFT values/proc = 2197 216
Last active /omp style is kspace_style pppm/tip4p/omp
Neighbor list info ...
  update every 1 steps, delay 7 steps, check yes
  max neighbors/atom: 2000, page size: 100000
  master list distance cutoff = 10.8154
  ghost atom cutoff = 10.8154
  binsize = 5.4077, bins = 4 4 4
  1 neighbor lists, perpetual/occasional/extra = 1 0 0
  (1) pair lj/cut/tip4p/long/omp, perpetual
      attributes: half, newton on, omp
      pair build: half/bin/newton/omp
      stencil: half/bin/3d
      bin: standard
Setting up Verlet run ...
  Unit style    : real
  Current step  : 11750000
  Time step     : 2
  Walltime left : 2:54:59.89
Per MPI rank memory allocation (min/avg/max) = 9.223 | 9.226 | 9.228 Mbytes
Step Temp PotEng TotEng E_pair E_mol Press Lx Ly Lz Volume Pxx Pyy Pzz Pxy Pxz Pyz Enthalpy 
11750000    127.71837   -4999.5155   -4753.1998   -4999.5155            0    4563.5302    19.904606    19.915712    20.552103    8147.1494    5134.2926    4499.1226    4057.1754     35.07461    1045.2386    420.27936   -4210.9712 
11751000     123.0306   -5006.4328   -4769.1579   -5006.4328            0    5687.3112    19.755561    19.798056    20.635033    8070.8087     6258.405    5319.0497     5484.479   -372.31639   -68.481037    489.07034    -4099.736 
11752000    124.57467   -5011.3164   -4771.0637   -5011.3164            0     5497.589    19.846721    19.789687    20.725002    8139.9605     5482.959    6450.0917    4559.7161   -34.863904    669.29332    344.47593   -4118.4285 
11753000    124.34755   -5014.8169   -4775.0022   -5014.8169            0    5187.3734    19.821115    19.771378    20.679448    8104.0845    4776.0738    5416.2582    5369.7883   -657.90063    -133.9051   -636.08086   -4161.9078 
11754000    119.73943   -5008.7585   -4777.8309   -5008.7585            0    6084.1257     19.76677    19.847136    20.565982    8068.3182    5404.8239    6338.0077    6509.5454   -97.189722    643.86243    592.68927   -4061.9231 
11755000    118.83476   -4998.3937   -4769.2109   -4998.3937            0    4832.9694    19.904065    19.967106     20.45499    8129.3571    4998.0094    4119.3975    5381.5012    313.40905    776.23666   -257.65034   -4196.2221 
11756000    116.96856   -4982.8331   -4757.2494   -4982.8331            0    4591.0772    19.966141    19.962327    20.356626    8113.5532    4247.9174    3545.0868    5980.2276   -751.36676    671.31578    937.82812   -4213.9971 
11757000    120.48048   -5000.4533   -4768.0966   -5000.4533            0    5540.1443     20.03861    19.842945    20.377349     8102.544    4325.6608    5809.3213    6485.4508   -2.9817635    768.14078   -113.34526   -4113.4327 
11758000    122.23438   -4995.3278   -4759.5886   -4995.3278            0    5821.4201    19.868329     19.86404    20.484602    8084.5607     6049.382    5919.6887    5495.1895    73.934518   -921.88612    954.43527   -4073.2139 
11759000    128.14876   -5002.4246   -4755.2789   -5002.4246            0    4514.4021    19.900118    19.833901    20.651509    8151.0879    3575.4763    6022.1951    3945.5347   -119.54702     -280.231    209.52768   -4218.6282 
11760000    123.19254   -5002.3114   -4764.7242   -5002.3114            0    4823.3051    19.756215    19.849014    20.697709    8116.4283    6290.8567    5348.2206     2830.838   -423.43684   -1003.2288   -124.27138   -4193.7906 
11761000    118.61104   -4999.7835   -4771.0321   -4999.7835            0    4591.4947    19.766044    19.958052    20.587837    8121.7318    5782.4658    2913.0965    5078.9216   -189.11028    371.47007    488.20536   -4227.1827 
11762000    126.96369   -4993.2568   -4748.3967   -4993.2568            0    3247.4073    19.805186    19.923092    20.677313    8158.8653    3350.6926    3286.7553    3104.7739   -343.75579   -262.17897   -482.37657    -4361.992 
11763000     131.5987    -5000.875   -4747.0759    -5000.875            0    5880.4734    19.926438    19.828314    20.519117    8107.2602    6147.3992    6316.3858    5177.6352   -313.74447    733.52239   -742.73339   -4051.7918 
11764000    116.10585   -4997.1325   -4773.2126   -4997.1325            0    5327.1371    19.811174    19.908152    20.478586    8076.8338    5987.3918     4879.098    5114.9216     127.1635   -1707.1055    262.75648   -4145.7167 
11765000    124.01636   -5010.7446   -4771.5686   -5010.7446            0    4881.0861    19.866557    19.949992    20.433261    8098.4708    4490.1316      4900.75    5252.3765   -559.00759   -824.03426   -611.84359   -4195.0738 
11766000    124.00633   -5006.6356   -4767.4789   -5006.6356            0    4185.8462    19.843821    19.911749    20.559521    8123.5849    4417.9617    3903.9932    4235.5837    -61.59836    428.11477   -846.45061   -4271.5643 
11767000    121.43699   -5002.4979   -4768.2964   -5002.4979            0    5143.5441    19.828924    19.871626    20.656412    8139.3074    6670.5085    3627.0186     5133.105    13.234651   -444.99739   -676.57612     -4157.74 
11768000    116.30837   -5007.3504   -4783.0399   -5007.3504            0    3988.9869    19.827295    19.893608     20.73701    8179.4324     4458.691    3855.1208    3653.1488    24.656934     1164.896   -523.57715   -4307.1991 
11769000    120.96471   -5003.4599   -4770.1693   -5003.4599            0    4861.5706    19.884457    19.956931    20.498781    8134.5872    6152.2696    3430.1017    5002.3404    165.66604   -254.53585    194.14465   -4193.4187 
11770000     116.2338   -4993.2756    -4769.109   -4993.2756            0    5164.2085    19.851288    19.866872    20.543717    8102.0923    5879.7011    5518.7368    4094.1876    36.802194   -586.10362    220.65598   -4158.9024 
11771000    113.70728   -5000.5192   -4781.2252   -5000.5192            0    4666.5029    19.917432    19.850842    20.519405    8112.9171    4052.9477    5317.7803    4628.7806    460.36229   -284.40039    362.37078   -4229.0912 
11772000     124.9243   -5006.1732   -4765.2461   -5006.1732            0    5420.8865    19.960938    19.874549    20.415578    8099.1585    4327.7443    5944.3964    5990.5189     48.81057    571.89683    16.004298   -4124.9423 
11773000    114.82424   -4997.3963   -4775.9481   -4997.3963            0    6218.3997    19.738486    19.880605    20.522081    8053.1321    7615.8423    4891.2863    6148.0706   -416.48563    -385.9907   -184.14957   -4045.6177 
11774000    125.56894   -4990.2374   -4748.0671   -4990.2374            0    4244.2257    19.917376    19.934456    20.577462    8170.1177    3666.2427    5159.5796    3906.8547    727.39481    410.82814   -763.05516   -4242.3558 
11775000    123.01706   -4990.5715   -4753.3227   -4990.5715            0    5594.8465    19.847168    19.962453    20.506769    8124.7441    5203.0717    6303.9349    5277.5328   -244.70312    375.81854   -249.88844   -4090.3835 
11776000     126.2215   -4997.1748   -4753.7461   -4997.1748            0    4087.3553    19.811018    19.945711    20.564435    8125.9305    5408.6357    3176.9285    3676.5018   -178.18242   -753.51808   -200.46167   -4269.3603 
11777000    125.05417   -4994.1942   -4753.0167   -4994.1942            0    4698.8532    19.829735    20.105227    20.520589    8181.1756    5848.2866    4308.4129    3939.8602   -163.72061    267.41674    943.64553   -4192.3775 
11778000    115.43864   -4993.0917   -4770.4586   -4993.0917            0    6184.9043    19.887406    19.740961    20.544629    8065.7495    6600.1467    5407.6531    6546.9132    -317.0664     656.7545    1152.0675   -4042.9241 
11779000     119.7827    -4997.332    -4766.321    -4997.332            0    4483.8725    19.916911    19.844344     20.62779    8152.8872    5044.4384    4585.2559    3821.9231   -40.427389    -115.9305   -778.14142   -4233.1819 
11780000    122.90584   -4999.3927   -4762.3584   -4999.3927            0    3897.7152    19.890844    19.803552    20.709608    8157.7084    3757.4609    4276.1969    3659.4878   -39.550895    1002.8146    544.02542   -4298.6402 
11781000    125.16403   -4997.6811   -4756.2917   -4997.6811            0    4976.7104    19.872435    19.833896    20.602278    8120.3429    4006.3009    5675.2084    5248.6219    186.52121    435.59909    150.64028   -4166.9155 
11782000    122.22498    -4997.713   -4761.9919    -4997.713            0    4230.3744    19.957431    19.877249    20.499785    8132.2407     2831.375    4931.3961    4928.3521   -122.14105   -639.46287    877.87085   -4260.2678 
11783000      124.836   -5005.8625   -4765.1058   -5005.8625            0    4480.7899    19.830901    19.929932    20.534846    8115.9568    4546.3693    4041.8786    4854.1218   -11.893287   -138.65508    367.50194   -4234.7465 
11784000     118.0374   -5004.1168   -4776.4718   -5004.1168            0    4746.8213     19.94784     19.80058    20.510427    8101.1843    4441.4704    4578.8341    5220.1596   -722.60398    450.74555   -1091.8491   -4215.6469 
11785000    113.81349   -5008.2647   -4788.7658   -5008.2647            0    4701.5562    19.805304    19.822658    20.656717    8109.6985    5165.2881     5202.903    3736.4774   -449.33162    1163.9961   -283.75563   -4232.7051 
11786000    117.61594   -5010.5729   -4783.7407   -5010.5729            0    4775.4313    19.827106    19.868862    20.638782    8130.4836    5092.2313     4790.741    4443.3218    55.473635    369.47887   -191.13432    -4217.495 
11787000    125.52307   -5007.3231   -4765.2413   -5007.3231            0     5062.416    19.669549    19.931192    20.623071    8085.0183    4881.3873    5706.3787    4599.4821    32.092744     119.5833    244.26517   -4168.3232 
11788000    121.69636   -4994.3716   -4759.6699   -4994.3716            0    4015.1461    19.769985    19.924725    20.587266    8109.5608      4115.68    3916.5031    4013.2552    458.37426   -432.13298    157.88534   -4284.8001 
11789000    120.36487   -5010.2407    -4778.107   -5010.2407            0    5304.8992    19.989866    19.820671    20.510626    8126.5675    5507.9575    4476.8818    5929.8584    32.886849    -132.5272    250.39814   -4149.3828 
11790000    118.18656   -4998.1771   -4770.2444   -4998.1771            0    5645.3382    19.793344     19.97016    20.506375    8105.6826    6938.9783    4173.4783    5823.5579    492.32298    255.57585    295.36673   -4102.8916 
11791000    123.18999    -5007.471   -4769.8888    -5007.471            0    3602.6467    20.025706    19.917011    20.522498    8185.4434    3558.7125    2777.3147    4471.9129   -461.05449   -687.12544    -1011.125   -4339.8181 
11792000    126.82428   -5021.4643    -4776.873   -5021.4643            0     3420.147    19.883423    19.769224    20.791097    8172.5609    3230.7606    4446.9675    2582.7129    219.09736    242.78223    136.80394   -4369.2311 
11793000    128.10845   -5009.6998   -4762.6319   -5009.6998            0    5900.8413    19.870501    19.827132    20.579239    8107.7065    6536.3587    4850.7283    6315.4368    340.33746    115.98778   -490.20118   -4064.9012 
11794000    115.47972   -5001.5901   -4778.8778   -5001.5901            0    6476.7052    19.924469    19.909833    20.366848     8079.383    5644.5423    6550.2297    7235.3437   -139.31899    1518.0777   -137.34824   -4015.7307 
11795000    123.00528   -5025.0602   -4787.8342   -5025.0602            0    4124.5434    20.013558    19.727201     20.64465    8150.7445    3497.3062    5064.2989    3812.0251   -141.34337    217.73021   -273.14184   -4297.5487 
11796000    118.98309   -5009.2961   -4779.8272   -5009.2961            0    4867.3718    19.842529    19.822146    20.720096    8149.6591    4505.6317    5528.4925    4567.9912   -475.20746    76.164781   -359.55344   -4201.3186 
11797000    122.72666   -5011.8488   -4775.1601   -5011.8488            0    4134.0749    19.891687    19.925713     20.56349    8150.4633    3966.6982    3612.2506     4823.276   -290.79249    504.92756    438.96315   -4283.7586 
11798000    117.89678   -5012.2517   -4784.8778   -5012.2517            0    4559.2742    19.933918    19.845856    20.610826    8153.7596    4357.5356    4807.0186    4513.2684    289.43774   -84.150327    1813.2655   -4242.7153 
11799000    123.66682   -4999.4453   -4760.9434   -4999.4453            0    5771.1889    19.901355     19.73465    20.589024    8086.2624    5320.3551    6726.9412    5266.2704    386.31843    961.96496    137.21198    -4080.348 
11800000    117.07981   -5009.5594   -4783.7611   -5009.5594            0    5494.4287    19.758999     19.96811    20.533674    8101.5583    5495.0417    5445.9767    5542.2678   -62.584277    389.89877    323.90756   -4134.5783 
11801000    126.91804   -4985.5534   -4740.7813   -4985.5534            0    3076.8538    19.892025    19.918102    20.686531    8196.2387    2841.0175    3196.1109    3193.4329   -354.91998    1207.1197    354.93527   -4372.9934 
11802000     116.9125   -5006.5945   -4781.1189   -5006.5945            0    4894.9083    19.897293    19.967332    20.487281    8139.5119    5123.9665    3101.2295    6459.5288   -460.77479    683.97202   -678.14588   -4200.0618 
11803000    119.26917   -5013.9104   -4783.8898   -5013.9104            0    4428.2753    19.736126       19.917    20.593073    8094.8161    4773.4718    3956.0412    4555.3128    237.30863    466.11195    182.20422   -4261.1115 
11804000    124.33962   -4996.8966   -4757.0972   -4996.8966            0    4909.8498    19.725885    19.961431     20.74321    8167.7818    6275.4167    4939.6358    3514.4968    404.57661    589.19482    628.57017   -4172.2422 
11805000    125.67358   -5006.9491    -4764.577   -5006.9491            0    4483.6806    19.663883    19.977511    20.664683    8117.8203    5476.5724    3678.8397    4295.6297    255.69047   -398.72809    244.33167   -4233.7537 
11806000    132.68911   -5003.3252   -4747.4231   -5003.3252            0    4865.6435    19.837717    19.881454     20.60406     8126.296    6426.7988    4202.9798    3967.1519    63.522647   -781.74938   -107.64911   -4170.7777 
11807000    116.01134   -5007.5942   -4783.8566   -5007.5942            0    4246.9916    20.063204    19.725641     20.49899    8112.6713    3423.9313    5160.3423    4156.7012   -168.21526    671.86856   -251.76829   -4281.3738 
11808000      123.354   -5004.7996    -4766.901   -5004.7996            0    5123.2265    19.841495    19.936775    20.537146      8123.99    5849.7054    4508.8027    5011.1713    201.94147    557.92877    273.37101   -4159.9008 
11809000    120.41936   -5002.7037   -4770.4648   -5002.7037            0    5603.2274    19.800483    19.949472    20.471897    8086.5872    6613.0796    5322.3647    4874.2379    237.54196    99.822654   -357.71958   -4109.6505 
11810000     124.0116   -5005.7503   -4766.5835   -5005.7503            0    5401.1085    19.754512    19.914158     20.53863    8079.7838    4950.6536    5081.6081    6171.0637     24.94294   -263.06427    912.37667   -4130.1419 
11811000    121.86291   -4999.3262   -4764.3033   -4999.3262            0    4277.8071     19.84468    19.855108    20.662247    8141.3031    4735.1706    3989.1571    4109.0937   -195.04656    208.91883   -502.25301   -4256.3883 
11812000    120.61731   -4984.1004   -4751.4797   -4984.1004            0    4900.9491     19.85573    20.017703    20.492176    8144.9454    4464.7831    4242.0126    5996.0516   -106.74567   -1193.7841   -1437.5726   -4169.3172 
11813000    124.25812   -4997.5473   -4757.9051   -4997.5473            0    4475.3162    19.910054    20.012957    20.435809    8142.8329    6096.7258    2510.9235    4818.2994   -45.139722   -218.88457    299.07642   -4226.4395 
11814000    120.61762   -4999.6157   -4766.9945   -4999.6157            0    6316.2423    19.887208    19.879497    20.424435    8074.7536    5990.6052    5630.7398    7327.3819   -372.10785    197.84999    197.68119   -4023.1812 
11815000    120.99006   -5003.1463   -4769.8068   -5003.1463            0    6331.7238    19.725519    19.950363    20.562877    8092.1352    6109.9693    7089.7659    5795.4361    -370.9396    254.06546   -385.76938   -4022.5653 
11816000    129.05831   -5000.4325   -4751.5327   -5000.4325            0    4831.0863    19.902979    19.805305    20.697237    8158.5314    4661.2954    4984.5091    4847.4544    236.41194    19.999897     757.6657   -4176.7116 
11817000    116.24848   -4996.4154   -4772.2205   -4996.4154            0     5237.251    19.797818    19.857249    20.586905    8093.3341    6345.3569    4127.7978    5238.5984   -513.17018   -1521.5078    -511.2402   -4154.0521 
11818000    122.41226   -5006.3267   -4770.2443   -5006.3267            0    4881.1413    19.802877    19.851999    20.650046    8118.0845    5748.3354    4964.4646    3930.6239   -219.71726    323.18179    628.19141   -4192.3468 
11819000    116.50075   -5008.3759   -4783.6944   -5008.3759            0    5542.5343    19.859958    19.752156    20.621221    8089.2305    5493.4929    6541.6913    4592.4185    22.589953   -15.741359   -599.37483   -4129.8243 
11820000    121.95062   -4999.5224   -4764.3304   -4999.5224            0    4952.7656    19.872252    20.029188     20.49257    8156.5568    5259.9559    3644.8197    5953.5212   -570.81742    320.47979   -687.51822   -4175.1741 
11821000    118.43683   -4992.7184    -4764.303   -4992.7184            0    4753.1397    19.863681    19.906451    20.454543     8088.041    4637.0715    4248.6088    5373.7388   -23.503163   -259.46615    1381.3944   -4203.6427 
11822000    132.73165   -5000.6521   -4744.6679   -5000.6521            0     4654.092    19.875532    19.827328    20.656246    8140.1866     4465.719    5190.0347    4306.5224   -80.500428   -265.36636     1110.355   -4192.1515 
11823000     123.6272   -5026.5672   -4788.1418   -5026.5672            0    4333.0445    19.899545    19.790676    20.632208    8125.4888    4043.5502    5063.8472    3891.7361   -224.53645   -193.71029   -438.92603   -4274.6677 
11824000    113.09057   -5002.1916   -4784.0869   -5002.1916            0    4218.3974    19.964877    19.856503     20.59731    8165.4458    5000.2778     4340.153    3314.7615    -476.8389    -282.2475   -725.93718   -4281.7405 
11825000    124.98502   -5014.2273   -4773.1832   -5014.2273            0    4812.1685    19.792168     19.83279    20.657029    8108.5844    4131.6254    6079.4767    4225.4033   -321.82443    630.89379   -161.61388   -4204.1183 
11826000    124.27618    -5006.898   -4767.2209    -5006.898            0    5079.2025    19.685686    19.855151    20.693248    8088.2098    5712.7664    5482.5898    4042.2514   -34.589156    458.96226    385.39212   -4168.0871 
11827000    116.53731   -5015.1401   -4790.3881   -5015.1401            0     4140.372    19.802203    19.851041    20.769028    8164.1876    6104.8833    3056.2057    3260.0269   -404.63466   -453.25432    713.32518   -4297.4093 
11828000    123.00816   -4991.5162   -4754.2846   -4991.5162            0     4635.959    19.843972    19.862641    20.664435    8144.9632    4934.9959    4839.1132    4133.7678   -626.01875    613.18097   -1662.2492   -4203.5979 
11829000    121.06222   -5013.0147   -4779.5361   -5013.0147            0    4725.7202    19.845188     19.91299     20.55027    8120.9949    3913.5434      6011.63    4251.9873    207.52628    1294.9022     -401.705   -4219.8389 
11830000    126.08476   -5004.9172   -4761.7521   -5004.9172            0    4872.8169    19.759069    19.947878    20.627001    8130.1634    5139.5955    5129.5997    4349.2556    849.82345    639.41977    725.35058   -4183.9817 
11831000    121.78705   -4996.0608   -4761.1843   -4996.0608            0    5261.9594    20.016515    19.856473    20.342267    8085.1844    4266.6783    5410.1868    6109.0132    193.29443    17.935504    448.65137    -4140.725 
11832000    118.12927   -5013.4408   -4785.6186   -5013.4408            0    3941.3402    20.018128    19.830036    20.594938    8175.3708    3119.6325    5102.0637    3602.3245    171.66778    546.58096    -110.3506    -4315.695 
11833000     119.0005   -4993.1774   -4763.6749   -4993.1774            0    5016.4901    19.798419    19.955636    20.521642    8107.8963    5640.2598    4319.5663    5089.6442   -100.42789    365.26052    1485.7513   -4170.4983 
11834000    123.11873   -4982.5271   -4745.0823   -4982.5271            0    5818.0335    19.939525    19.841468    20.438972    8086.2592    5255.4882    5379.7889    6818.8234   -574.96886    227.72418   -506.99516   -4058.9628 
11835000    123.33841   -5017.3008   -4779.4323   -5017.3008            0    4194.6313     19.88131    19.976033    20.435803    8116.0729    3420.1479    4987.0776    4176.6684    -406.1055   -127.12903   -141.30687   -4282.9365 
11836000    120.52977   -5006.6402   -4774.1884   -5006.6402            0     5044.242    19.880345    19.889703    20.501053    8106.4062    3625.2726     6121.808    5385.6455    79.947712    174.12329    429.59584   -4177.8399 
11837000    123.10787   -5009.8755   -4772.4516   -5009.8755            0    5207.2618    19.932866    19.783392    20.483006    8077.2624    3908.5237      6080.47    5632.7918    193.82876    604.11326    591.33075   -4159.0435 
11838000      122.967   -5007.3526   -4770.2004   -5007.3526            0    5045.6924    20.039596    19.677199    20.667219    8149.5623     4714.992     6204.968    4217.1172   -65.977431      733.298    -296.5793   -4170.5047 
11839000    114.65036   -5010.0722   -4788.9593   -5010.0722            0    5913.2857    19.906749    19.716492    20.631888    8097.8358    5565.1648     6701.962    5472.7302   -597.22534    162.94306    508.84372   -4090.6084 
11840000    114.38885   -4991.9619   -4771.3534   -4991.9619            0    5079.4291    19.798422    19.878627    20.570963    8096.0203    4528.6926     5940.317    4769.2778     60.18704    575.76485   -371.96359   -4171.6143 
11841000    118.48934   -5005.5455   -4777.0289   -5005.5455            0    5330.9438    19.879645     19.93679    20.460423    8109.2086    5894.2785    5034.0905    5064.4623    201.29455    103.06729    234.84405   -4146.5675 
11842000    121.99824   -5001.4261   -4766.1422   -5001.4261            0    5606.4024    19.960827    19.730095    20.449668    8053.6726    4683.1925    6714.2882    5421.7266    -119.9817     195.6649    743.12579   -4107.6447 
11843000    125.41188   -4996.9496   -4755.0822   -4996.9496            0    6052.6943    19.807053    19.905618    20.518428    8089.8339    6449.0833    5644.0669    6064.9326   -348.94587   -104.12471   -536.37976   -4040.9737 
11844000    119.46714   -5000.2192   -4769.8168   -5000.2192            0    4208.5622    19.660928    19.845358    20.794915    8113.7215    5808.8568    4025.9657     2790.864   -958.68595   -300.67834    -349.9827   -4271.8163 
11845000    119.70037   -5016.5994   -4785.7472   -5016.5994            0     6161.131    19.824008    19.807419    20.645364     8106.659    6239.1212     6695.064    5549.2077    133.64699    1186.8706    51.285401   -4057.3333 
11846000    124.65627   -5000.8113   -4760.4012   -5000.8113            0    4869.1281    19.963451    19.782273    20.567166     8122.435    3497.4976    6133.5014    4976.3853    125.89343    643.55185     412.8178    -4183.617 
11847000    118.22905    -4999.829   -4771.8143    -4999.829            0    4512.9429    19.965065    19.862595    20.529846    8141.2746    2813.9934    6170.5642    4554.2711   -291.00439    943.09316   -62.616619    -4235.983 
11848000     127.3224   -5014.7129    -4769.161   -5014.7129            0    5208.9983    19.864494    19.862413    20.561673    8112.7476    4134.1658    5771.0378    5721.7914    122.35693   -425.76401   -440.36168   -4152.8526 
11849000     121.7194   -5009.2703   -4774.5242   -5009.2703            0    4413.6487    19.914812    19.885887    20.591972    8154.9087    4357.2942    3799.0286    5084.6232    138.84385    609.60918   -173.59406   -4249.6046 
11850000    116.93573   -4994.7545   -4769.2341   -4994.7545            0    4367.1967    19.974247    19.769361    20.541601    8111.4284    4406.6822    4143.8978    4551.0102   -335.70231   -412.82587    105.24311   -4252.6084 
11851000     118.9946   -5019.3528   -4789.8617   -5019.3528            0    4718.9883    19.938225    19.845142    20.479759    8103.3672    3515.6999    5271.6936    5369.5714   -345.10137   -911.79951    82.446242   -4232.1749 
11852000    116.44488   -4994.3802   -4769.8065   -4994.3802            0    4904.2849    19.951621    19.869011    20.495334    8124.7393    3468.8956    5770.4618    5473.4974   -1.3338722    503.10299    815.90532   -4188.6929 
11853000    124.18137   -5003.6186   -4764.1244   -5003.6186            0    3508.6946    19.931654     19.93816    20.510411    8150.8478    3838.4246    2466.8263    4220.8329    434.46215   -852.12035    964.85346   -4347.0397 
11854000    123.87015   -5001.5016   -4762.6076   -5001.5016            0    4938.9406    19.930221    19.829822    20.574554    8131.3256    5682.3846    3672.9019    5461.5353   -133.44951    635.85347   -898.01134   -4176.9133 
11855000      125.303    -4987.917   -4746.2596    -4987.917            0    5014.9049    19.863272    19.704797    20.772004    8130.1983     4311.788    5763.4879    4969.4388    224.56918    508.98001   -168.37991   -4151.6393 
11856000    114.66089   -5001.2284   -4780.0953   -5001.2284            0    4708.7982     19.81881    19.781922    20.728578     8126.725    5276.7717     5281.077     3568.546   -717.76901    920.72498   -541.00583   -4222.0087 
11857000    121.85976   -5000.9367   -4765.9199   -5000.9367            0    4144.7121    20.002698    19.815011    20.482934    8118.4865    3744.8059     4706.394    3982.9363   -198.76353   -488.36014    605.35722   -4275.1868 
11858000     120.5888   -4990.1767   -4757.6111   -4990.1767            0    6713.3056    19.809896    19.878778    20.577364    8103.2944    8337.5968    5426.3112    6376.0087   -86.952253   -279.10405    1202.6486   -3964.2444 
11859000    124.64055    -5011.553   -4771.1732    -5011.553            0    4701.8547    19.777722    19.916864    20.693687    8151.4545    5254.2288    4135.0021    4716.3333   -77.597858   -240.91726   -879.79659   -4212.2139 
11860000    120.87212   -4988.5996   -4755.4876   -4988.5996            0    5007.7082    19.815492    19.931471    20.583013    8129.3003    4489.7254    6052.2472     4481.152   -10.586277    1201.3275     196.6294   -4161.7862 
11861000    127.12017   -5002.9271   -4757.7651   -5002.9271            0    3893.6842    20.027359    19.819918    20.603436    8178.3407    3420.3235    4586.4005    3674.3287    473.45574   -385.93844   -633.54648   -4293.3549 
11862000     120.0805   -4996.1286   -4764.5432   -4996.1286            0    5445.1401    19.972563    19.820135    20.514446     8120.826    6452.8717    4574.0351    5308.5135    592.59842   -135.05423   -155.19271   -4119.6539 
11863000    120.91084   -5012.0607    -4778.874   -5012.0607            0     5197.484    19.788133     19.96569    20.451993    8080.2493    6006.0096     4097.857    5488.5855   -345.09605    1332.2337    -1046.536   -4166.3913 
11864000    123.30288   -4993.1389   -4755.3389   -4993.1389            0     4772.907    19.804249    19.792066    20.517359    8042.1278    3952.6394    5408.7122    4957.3693   -104.13744    166.61359    54.771984   -4195.5428 
11865000     119.8304   -4999.3236   -4768.2206   -4999.3236            0    4894.3827    19.939724    19.785761    20.501123    8088.1569    4790.0029    5249.3335    4643.8117   -879.88686    454.45248   -61.288907   -4190.8916 
11866000    121.98032   -5018.4339   -4783.1846   -5018.4339            0    4668.8779    19.868309    19.894308    20.568554    8130.0554    4871.5539    4977.8174    4157.2624     108.5195    200.30339    78.502393   -4229.6026 
11867000    119.65152   -5016.2113   -4785.4533   -5016.2113            0     4039.064    19.846125    19.947353    20.528856    8126.9157    3072.1375    4084.3064    4960.7481   -5.3467936    613.36605   -742.05929   -4306.7324 
11868000    117.07589   -5003.7409   -4777.9502   -5003.7409            0     4863.777     19.90931    19.929992     20.49351    8131.6688    4296.5887    5572.5329    4722.2092    -642.5848   -830.50631    183.49783   -4201.1449 
11869000    117.20109   -5006.8235   -4780.7913   -5006.8235            0    4501.4962    19.869561    19.818256    20.668759    8138.9448    4527.1479    5001.8409       3975.5    448.46889    581.77185    153.68754    -4246.472 
11870000    125.34521   -5009.6824   -4767.9436   -5009.6824            0    4254.6235     19.84473    19.876005    20.627394    8136.1441    5234.2968    3765.7076    3763.8663   -381.57909   -133.14252   -168.54094   -4263.1014 
11871000    115.12252   -5011.6106   -4789.5871   -5011.6106            0     4237.621    19.980105    19.844771    20.609299    8171.5999    3748.8544    5144.0196    3819.9889   -441.54557   -618.00646    682.45056   -4284.5712 
11872000    119.24849   -4984.7915   -4754.8107   -4984.7915            0    4705.6181    19.792074    19.840922      20.6182    8096.6228    3967.0202    5151.7936    4998.0405    174.54445   -147.61406    797.71464   -4199.1669 
11873000    119.10743   -4998.3266   -4768.6179   -4998.3266            0    4514.1304    19.947812     19.87413    20.492327    8124.0891    4638.8613    3794.5694    5108.9606    206.05936    915.06564    361.71051    -4233.777 
11874000    120.41221   -4998.9444   -4766.7193   -4998.9444            0    4580.4235    19.836633    19.878519    20.610145    8127.0518    5182.1746    4071.1319     4487.964   -62.629628    160.51512   -499.59223   -4223.8259 
11875000     124.2021    -4994.999   -4755.4648    -4994.999            0    5918.8505    19.921555    19.922094    20.460043    8120.1631     4970.276    6588.6041    6197.6713   -367.92961    432.40397    44.131296   -4054.5294 
11876000    119.19886   -5012.4876   -4782.6026   -5012.4876            0    5481.9611    19.806542    19.944633    20.386322    8053.2943    5850.0837    4693.4081    5902.3914   -874.15263    32.056938    622.78431   -4138.7515 
11877000    116.57307    -4992.065   -4767.2441    -4992.065            0    5595.3347    19.765502    19.917158    20.485625    8064.6298    6819.8682    4202.3431    5763.7929   -601.15032    160.34468   -586.73702   -4109.1524 
11878000    119.13493   -5004.1307    -4774.369   -5004.1307            0    4141.6213    19.876722    19.865806    20.529619    8106.4716    4955.1446    3192.5602     4277.159   -424.88712    715.89218    1271.1329   -4284.7276 
11879000    129.60841   -4996.0956   -4746.1349   -4996.0956            0    5741.4048    20.044954    19.855927    20.350876    8099.8753     5252.238    6476.5847    5495.3916   -429.14164    511.43484   -242.65977   -4067.9121 
11880000    116.98559   -5013.0795    -4787.463   -5013.0795            0    5339.6019    19.883721    19.798587    20.622122    8118.3025    5387.4157    5342.9112    5288.4787   -514.15002   -1186.6552    186.09106   -4155.2695 
11881000    114.03537   -5005.8283   -4785.9015   -5005.8283            0    4675.9933    19.970757    19.735577    20.601759    8119.8624    4793.3501    4612.1858    4622.4441   -26.439237   -217.10303    1513.4469    -4232.171 
11882000    123.47725   -4993.3272    -4755.191   -4993.3272            0    4300.4234    19.842124    19.726085    20.788726    8136.8617    5045.7482    3370.9328    4484.5892    -535.6404    -208.8312     177.6334   -4244.8693 
11883000    121.45723   -4987.5835    -4753.343   -4987.5835            0    4553.4601    19.870368    19.801824    20.634564    8119.0721     4858.917    4998.9714    3802.4917    46.011264    1916.2569   -835.28398   -4214.1754 
11884000    120.06153   -5011.9427   -4780.3939   -5011.9427            0     3810.878    20.014555     19.85413    20.544537    8163.8154    3237.1637    3661.1976    4534.2728   -180.29073   -451.45753    114.31666   -4326.6675 
11885000    123.80059   -5007.0851   -4768.3252   -5007.0851            0    5825.1229    19.833241    19.774004     20.58467    8072.9493    5861.9283    5008.4134     6605.027   -177.66318   -616.12834    530.40986   -4082.5004 
11886000    128.84447   -5013.4106   -4764.9232   -5013.4106            0    4779.6263    19.729164    19.829147    20.769538    8125.3026    3885.6601    6210.8657    4242.3532    179.25683   -503.38924    75.955705   -4198.5413 
11887000    115.58488   -5000.7409   -4777.8257   -5000.7409            0    4710.5288    19.884764    19.820548    20.586176    8113.5664     5277.277    3759.5214     5094.788   -63.666962    354.68089     579.9426    -4220.438 
11888000    117.74157   -4998.3745      -4771.3   -4998.3745            0    5864.6722    19.928476    19.747562    20.507701    8070.5763    4404.8162    7537.4759    5651.7243   -110.33337   -1226.7627   -290.59246   -4081.0217 
11889000    116.20462   -5016.4552   -4792.3448   -5016.4552            0    4522.4024    19.793568    20.022615    20.519737    8132.3617    6359.2754    2622.7098    4585.2221    344.29367    574.87646   -291.61507   -4255.9781 
11890000    119.01362    -4997.204   -4767.6763    -4997.204            0    4637.3134    19.919174    19.927702    20.536125    8151.6785    5709.7657     3292.531    4909.6435   -279.31522   -228.34019    899.83669   -4216.3745 
11891000    123.01496   -5011.1929   -4773.9482   -5011.1929            0    4123.3246    19.790259     19.79139    20.698338    8107.0573    3292.8318    4682.7779    4394.3642    505.75349    255.57582   -206.81858   -4286.4347 
11892000    121.86033    -5005.808   -4770.7901    -5005.808            0    4397.0255    19.883918    19.738298    20.688182     8119.588    3140.6348    5400.6427     4649.799      -542.12    875.49465    479.66206   -4250.1125 
11893000    117.71733   -5002.1993   -4775.1716   -5002.1993            0    5015.7041    19.875194    19.830559    20.582538    8112.3234    5731.9003    3069.8224    6245.3895    20.622501   -522.57551   -310.39936   -4181.7641 
11894000     123.2006   -5006.8923   -4769.2896   -5006.8923            0    4609.0757    19.887618    19.839822    20.601884    8128.8193    4883.0687    3879.3166    5064.8416   -343.74962   -251.49101     550.3138   -4222.8814 
11895000    121.08572   -5004.3431   -4770.8191   -5004.3431            0    4286.3531    19.794513    19.907758    20.598245    8117.0345    5085.9702    4048.2509    3724.8383    -372.6727    643.66968   -341.37872   -4263.4066 
11896000     120.2911   -5011.7112   -4779.7197   -5011.7112            0    4027.8693    19.916686    19.870429    20.533199    8126.0771    3764.5323    4303.2457    4015.8298    436.63754   -570.82282   -804.95047   -4302.3749 
11897000    126.39594   -5028.4761   -4784.7109   -5028.4761            0    4969.8389    19.809577    20.032639    20.535345    8149.2075    5013.6501    3951.0926     5944.774     396.7528   -375.51524    829.69887   -4194.0563 
11898000    117.97825   -5004.2824   -4776.7515   -5004.2824            0    5435.0595    19.791791    19.902538    20.575259     8104.736    3709.6598    7233.7808     5361.738   -182.96374    124.65558    -863.5275   -4134.3314 
11899000    124.01647   -5001.7749   -4762.5987   -5001.7749            0    3571.0034    19.970875    19.900631    20.621245    8195.5636     3072.112    4979.6855    2661.2127   -100.12285     713.4778   -423.16062   -4335.7785 
11900000    120.48261   -5004.3271   -4771.9662   -5004.3271            0     5186.392    19.823751    19.847267    20.572788     8094.307    5942.4109    5352.2215    4264.5436   -166.22899    166.51325   -592.21768   -4159.7274 
11901000    130.86488    -5006.403    -4754.019    -5006.403            0    4745.7724    19.912845    19.812675    20.706333    8169.2016    4197.8156    5086.8489    4952.6527    183.26314    776.38859   -722.26642   -4188.6104 
11902000    122.29204   -4997.1003   -4761.2498   -4997.1003            0    5057.6098     19.83067    19.784054    20.641552    8098.3217    6003.7422    3926.1033     5242.984    471.07437    1336.8811     -257.749   -4163.9172 
11903000    116.26316   -4993.7211   -4769.4978   -4993.7211            0    4790.1524    19.849458    19.807107    20.601218    8099.5818    5087.0441    4805.5541    4477.8591   -535.81149    179.50574   -398.89601   -4203.6654 
11904000    118.39342   -4998.4484   -4770.1167   -4998.4484            0    5589.9073    19.962674    19.652307    20.697093    8119.7301    3676.7161    7743.6295    5349.3762    160.01938   -457.81834    488.48166   -4108.1714 
11905000    121.45055   -5004.9105   -4770.6829   -5004.9105            0    5578.9417    19.822107    19.724523    20.780555    8124.8148    5997.8581    5440.7987    5298.1683    -481.8632    287.15743    92.193556   -4109.6224 
11906000    114.25905   -5005.6597   -4785.3015   -5005.6597            0     4485.838    19.811203    19.948235    20.629323    8152.6779    5152.1254    4044.9244    4260.4644   -165.95591   -878.57038    249.51082   -4251.9423 
11907000    120.93273   -4999.7429   -4766.5139   -4999.7429            0     3808.096     19.87821    19.772649    20.620758     8104.883    3517.3661    4454.2779     3452.644   -53.229065    1458.5543    -580.2133   -4316.3916 
11908000    113.20591   -5005.5058   -4787.1787   -5005.5058            0    4333.0061    20.026315     19.82343    20.473186     8127.655    3661.7698     4864.384    4472.8644   -106.38944   -392.18176    1201.8967   -4273.5723 
11909000    119.62168   -5010.9953   -4780.2948   -5010.9953            0     4271.843    19.817707      20.0173    20.552759    8153.2178    4727.9495    3642.5138    4445.0659    367.65268   -129.40039    1165.9654   -4272.3457 
11910000    122.69515   -5000.1768   -4763.5489   -5000.1768            0    5305.2845    19.834831    19.938513    20.471293    8095.9267     4977.711    4938.2896    5999.8528    147.38502    -588.9424    448.13313   -4137.1498 
11911000      123.517   -5016.9816   -4778.7686   -5016.9816            0    4972.0745    19.887235    19.858859    20.508344    8099.5202    5749.1827    4292.4251    4874.6158   -218.23522    959.93606    1008.2658   -4191.4513 
11912000    124.12502   -5003.2276   -4763.8421   -5003.2276            0    5129.5095    19.821249    19.766711    20.722275    8119.0057    5597.6427    4968.1371    4822.7486   -88.872982    150.00169    528.62747   -4156.4703 
11913000    125.90148   -5008.3136    -4765.502   -5008.3136            0    5290.7182    19.872295    19.826719    20.517772    8084.0518    6002.3514    4494.7051    5375.0982    290.21231   -521.25652    25.878532    -4141.739 
11914000    122.30547   -5014.6165   -4778.7401   -5014.6165            0    4565.9527    19.859182    19.953489    20.566163    8149.5469    4035.8801    4587.0818    5074.8963   -137.23834    1113.9716   -230.35865   -4236.0639 
11915000    121.14056   -5006.1862   -4772.5564   -5006.1862            0    5667.6601    19.915034     19.74794    20.683415    8134.3919    5375.9229    6139.3806    5487.6769   -580.19862   -169.26975    -313.2687   -4100.1919 
11916000    124.68722   -5005.5686   -4765.0988   -5005.5686            0    4831.8648     19.87122    19.849488    20.691446    8161.4003    4534.8137    4905.9605    5054.8202   -58.091574    788.47442    718.64774   -4189.9829 
11917000    120.29429   -5001.2216   -4769.2239   -5001.2216            0    5117.1335    19.893924    19.946367    20.448784    8114.3129     5484.814    4407.1165    5459.4699    162.55676   -49.104481    594.30044   -4163.6678 
11918000    121.99796   -4987.8975   -4752.6142   -4987.8975            0    5177.4088    19.843186    19.877954     20.57243    8114.6291    3367.7771    6498.0126    5666.4367   -463.28173    179.87673   -724.34851   -4139.9013 
11919000    124.42298   -4992.5113   -4752.5512   -4992.5113            0    6059.4255    19.945798    19.835219    20.504828    8112.3103    6442.9523    5828.4419    5906.8822   -241.22394   -360.62026   -863.41424   -4035.6622 
11920000    122.28663   -5004.6008   -4768.7608   -5004.6008            0    4928.2557    19.796561    19.909545    20.663631    8144.3742     5210.431    4370.3968    5203.9393    242.07331    929.35864    473.56814   -4183.3957 
11921000    126.47567   -5004.8597   -4760.9407   -5004.8597            0    4914.7354    19.801378    19.893853    20.589404    8110.6953    4543.9188    4896.0706    5304.2169    571.19699    563.42894     449.9913   -4179.5955 
11922000    116.60025   -4999.7257   -4774.8523   -4999.7257            0    5658.5452    19.920113    19.796624    20.538779    8099.4879    4573.7258    6678.2223    5723.6874    533.27676   -66.192602    -203.1162   -4106.4495 
11923000    121.00542   -5013.7402   -4780.3711   -5013.7402            0    5281.8751    19.716178     19.97471    20.568664    8100.4526    6838.6754    4200.0918    4806.8581    467.21999   -507.96887    251.41245   -4156.3873 
11924000    125.13349   -5011.3468   -4770.0164   -5011.3468            0     4535.333    19.892325     19.88634    20.551766    8129.9817    4998.2407    3716.6137    4891.1446    34.512461   -210.03026   -606.83177   -4232.2735 
11925000    118.65875   -5003.5976   -4774.7542   -5003.5976            0    5534.0765    19.839469     19.84972    20.614424    8118.1233    4914.8694    6074.1467    5613.2134   -210.01324   -696.42243     552.8055     -4119.55 
11926000    119.21736   -5011.6195   -4781.6988   -5011.6195            0     5596.161    19.918008    19.675429    20.634356     8086.508    5168.2272    6657.3453    4962.9106   -353.26602      849.339    1412.2821   -4121.7244 
11927000    118.41695   -4997.9432   -4769.5661   -4997.9432            0     5524.209    19.938615    19.799126    20.617372    8139.0611    5308.7332     6009.647    5254.2467    553.90564    162.72614    953.40638   -4113.8433 
11928000    121.00341   -5003.8648   -4770.4996   -5003.8648            0    4958.6235    19.890692    19.901954    20.545699    8133.2955    5762.8249    4562.2597    4550.7859    231.86208   -361.27808   -91.222921   -4182.3286 
11929000    122.65667   -4994.7048   -4758.1511   -4994.7048            0    4267.2732    19.834067    20.005057    20.524552    8143.7652    4125.6968    4022.2714    4653.8515    403.53562    -1111.401    470.38355   -4251.3336 
11930000    122.82537   -4995.5834   -4758.7043   -4995.5834            0    4304.5531    19.909548    19.916746    20.477083    8119.8472    4541.1725    2970.4205    5402.0662    201.34169    841.07369    -190.8997   -4248.9607 
11931000    126.39646   -5021.6775   -4777.9113   -5021.6775            0    5118.5349    19.887346    19.901465    20.517646    8120.6243    3246.3007    6522.0445    5587.2596    453.84026    -126.2968    816.58551   -4171.7182 
11932000    122.82371    -5006.709   -4769.8331    -5006.709            0     5391.209    19.946268    19.754626    20.609447    8120.7623    6384.6397    4617.5198    5171.4676    20.564451   -190.27665    895.68597   -4131.3361 
11933000    117.00779   -5009.6903    -4784.031   -5009.6903            0    4942.4515    19.872329    19.728852    20.711169    8119.9844    4789.1219    5759.2166    4279.0159   -353.12601    48.772386    1099.9971   -4198.7378 
11934000    116.32178   -5006.2308   -4781.8945   -5006.2308            0    4834.1121    19.714183    19.959546    20.603951    8107.3689    5889.3312    3434.7699    5178.2353    17.626312   -789.27129    -574.4043   -4210.3204 
11935000    121.18991   -4989.4071   -4755.6822   -4989.4071            0    5287.7286    19.886105    19.985144    20.413206    8112.7527    4536.7132    5394.5828    5931.8898   -332.82282    496.53704    471.30992   -4130.0584 
11936000    124.63036    -4995.602   -4755.2419    -4995.602            0    5052.8752    20.052188    19.794168    20.410689    8101.3368    4482.9632    4686.4032    5989.2592   -67.216685    820.38349   -588.44337   -4158.2462 
11937000    117.97398   -5003.7929   -4776.2701   -5003.7929            0    5388.6613    19.882293    19.854697    20.540651    8108.5636    4002.5898    7070.9933    5092.4009    81.352904   -293.45369    960.63646   -4139.0335 
11938000    126.85249   -5008.1027    -4763.457   -5008.1027            0      5377.94    19.632133    19.954878    20.698801    8108.8962    6300.4864    4459.6853    5373.6483   -262.97023    1270.1382    110.39713   -4127.4621 
11939000    120.03372   -5012.6753   -4781.1802   -5012.6753            0    6597.6846    19.868417    19.771817    20.532191    8065.7572    6238.0934    7631.9282    5923.0321    93.707233   -381.51131   -111.26859   -4005.0893 
11940000    128.06274   -5002.3615   -4755.3818   -5002.3615            0    3858.2614    19.862037    20.014871    20.600269    8189.3506    4329.2094     3181.269     4064.306    436.79331    451.23222   -922.13757    -4294.577 
11941000    119.60945   -4996.5717   -4765.8948   -4996.5717            0    5969.5648    19.781381    19.868476      20.5844    8090.2019    5503.8424    7488.5798    4916.2722   -4.2923896     795.6343    83.799498    -4061.562 
11942000     124.9194   -4999.2512   -4758.3336   -4999.2512            0    5544.6367    19.781427     19.88774       20.549    8084.1386    5659.3292    5875.3438    5099.2372    54.664045   -265.51126   -648.60544   -4104.6272 
11943000    120.52661    -4997.721   -4765.2753    -4997.721            0     4825.009    19.644049    19.925811    20.726299    8112.7628    6387.8567    3871.3097    4215.8607    334.79226   -535.93666    529.63108    -4194.398 
11944000    125.35185   -4998.1795   -4756.4279   -4998.1795            0    4985.2443    19.868792    19.794786    20.603458    8103.3087    4832.8637      5595.78    4527.0893   -65.776862    160.77817    293.49531   -4167.2795 
11945000    121.72892   -5003.9723   -4769.2079   -5003.9723            0    4444.9159     19.89935    19.867576    20.534795    8118.4693    3849.9047    4545.3453    4939.4977   -246.97637    1415.4518   -300.60129   -4242.9319 
11946000    123.19284   -5012.4176   -4774.8298   -5012.4176            0    4423.1396    19.877919    19.967108    20.486377    8131.1367    3294.8299    4394.7023    5579.8866   -65.902895     512.3408   -255.51402    -4250.315 
11947000    124.49219   -5007.5212   -4767.4275   -5007.5212            0    6280.3227    19.901029    19.852787    20.470079     8087.542    5795.2345    6287.5458    6758.1878   -411.19753     291.0647   -23.275672   -4026.6728 
11948000     120.0256   -5000.4253   -4768.9458   -5000.4253            0    4817.3752    19.816859    19.837285    20.636826    8112.5979     3366.491    6137.5946    4948.0401   -93.663765    20.477744      855.205   -4198.9833 
11949000    127.37012   -5003.2348   -4757.5908   -5003.2348            0     4869.162    19.956909    19.754921    20.659057    8144.7745    4093.5533    5345.6735    5168.2591    225.18671   -358.74008    -301.1035   -4179.2162 
11950000    125.57275   -5022.4724   -4780.2948   -5022.4724            0    4287.4715    19.935799    19.896087    20.627366     8181.729    4080.4205    3793.9614    4988.0325   -527.86998    151.87658    308.21776   -4268.7046 
11951000    120.76733   -5010.3237   -4777.4138   -5010.3237            0    3857.9511    19.920404    19.933837    20.538728     8155.725    4938.3384    3000.8253    3634.6898    415.11931   -231.66755     733.3786   -4318.5379 
11952000    120.05867   -4995.3824   -4763.8391   -4995.3824            0    6392.1744    19.674719    19.821258    20.659138    8056.6027    6790.0056     6444.054    5942.4637    8.6814116   -419.41799    836.34519    -4012.776 
11953000    120.72882   -5015.4182   -4782.5825   -5015.4182            0    4985.8593    19.931708    19.757356    20.651875    8132.6642    3935.4236    5380.8039    5641.3504   -539.07974    950.96932    1089.2946   -4191.2268 
11954000    118.38264   -5012.5555   -4784.2446   -5012.5555            0    4610.4283    19.864447    19.875837    20.641428    8149.7004    3049.1867    5055.7053     5726.393   -183.84543    338.11291    276.99367    -4236.272 
11955000    120.10036   -5019.7453   -4788.1217   -5019.7453            0    4945.5517     19.97467    19.818771    20.603533    8156.3911    5081.3016     4627.316    5128.0374     203.5162    609.49213   -1005.6961   -4199.8355 
11956000    122.45942   -5018.7646   -4782.5913   -5018.7646            0    5024.5235    19.726971    19.887401    20.644867    8099.3568    5813.5856    5159.6135    4100.3714   -97.849375    1316.9706    298.63521   -4189.0905 
11957000    121.21488   -5004.4237   -4770.6506   -5004.4237            0    5523.5713    19.936797    19.691343    20.683339    8119.9131    4911.8128    6020.7667    5638.1345   -79.288454    85.648533    315.24491    -4116.546 
11958000    124.87499   -5006.1652   -4765.3333   -5006.1652            0    4613.4527    19.896348    19.847459    20.529641    8106.9902    4456.8253    4831.0548     4552.478   -149.22942    1328.3476   -1267.5865    -4219.875 
11959000    120.88994   -5005.3916   -4772.2452   -5005.3916            0    4514.0214    19.953362    19.849578    20.483082    8112.6486     2516.001    5647.7419    5378.3213   -335.96085   -844.34132    39.445438   -4238.1703 
11960000    122.04047   -4993.3181   -4757.9528   -4993.3181            0    4204.0766    19.771978    19.939757    20.690622    8157.2453    4418.6418    3678.5553    4515.0327   -95.893953    261.72824    25.320101   -4257.8145 
11961000    124.96565   -5004.4393   -4763.4326   -5004.4393            0    4525.2793    19.924408    19.752949    20.522905    8077.1139    2739.8506    5716.8903    5119.0969   -5.2225448     722.1298   -128.34397   -4230.3709 
11962000    121.01983   -5000.1682   -4766.7713   -5000.1682            0    5337.7841     20.02643    19.724106    20.531916    8110.1773    5233.6298    4962.0192    5817.7033   -31.320402    183.45476    248.23362   -4135.4256 
11963000    126.42677   -5003.3429   -4759.5183   -5003.3429            0    5214.8313    19.844453    19.949146    20.497845    8114.6846    5649.2152    4618.2031    5377.0756    73.643705    568.67958   -387.80485   -4142.3724 
11964000     127.9504   -5016.9139   -4770.1508   -5016.9139            0    4256.6859    19.870082    19.925492    20.644699    8173.6733     4669.271    4254.4131    3846.3735   -224.45021   -534.64315   -144.27646    -4262.734 
11965000    115.82443   -5015.6742   -4792.2971   -5015.6742            0    5608.1305    19.737957    19.984485     20.65414    8147.0859    6272.5505    4854.8312    5697.0097   -640.57207    765.74251    509.77226   -4125.9565 
11966000    116.11723   -5006.4582   -4782.5163   -5006.4582            0    3822.9935    19.887693    19.924675    20.661784    8187.3523    3145.0166    4312.1857    4011.7781   -146.96905    900.67655   -137.90404   -4326.0351 
11967000     118.1886   -5013.3228   -4785.3862   -5013.3228            0     4945.545    19.843115    19.908045    20.592253    8134.7149    5608.6665    4138.2332    5089.7352    116.98017    1017.4809    49.213339   -4198.6642 
11968000    125.80518   -5001.5766   -4758.9507   -5001.5766            0    5898.4073    19.857849     19.91042    20.516717    8111.8609    6461.0597    5564.7228    5669.4393   -301.36008   -483.15748   -361.53613   -4061.1505 
11969000    124.19228   -5005.7625   -4766.2473   -5005.7625            0     4616.904    19.919799    19.848942    20.566058    8131.5507    3838.1483    5699.0109    4313.5529   -189.49092    316.79722    92.764659   -4218.7271 
11970000     114.8127   -5000.0888   -4778.6629   -5000.0888            0    6239.9487     19.91032    19.818611    20.488419    8084.6252     5634.616    6488.2695    6596.9606    -505.4129   -475.10188   -414.00453   -4042.9357 
11971000    122.17269   -5012.6297   -4777.0093   -5012.6297            0    4722.1804    19.953246    19.812741     20.64818    8162.8135    3743.7705    5930.3572    4492.4134   -59.501638   -358.27234    671.64031   -4214.8514 
11972000    120.04162   -5019.6898   -4788.1795   -5019.6898            0    2941.7243    19.818178    19.856707     20.82341    8194.5063    2354.9601    3754.2075    2716.0055   -274.60182    215.26597     133.8963   -4436.6185 
11973000    120.82187    -5015.039   -4782.0239    -5015.039            0    4767.8197    19.913322    19.867548    20.605776    8152.2401    3715.6904     5586.489    5001.2799    184.67697   -28.238132   -404.93521   -4215.1679 
11974000    121.04063   -5006.8492   -4773.4122   -5006.8492            0    5224.1937    19.906095    19.782647    20.644048     8129.528    4840.5768    4925.2615    5906.7427    478.35036    275.41724   -98.167949   -4154.0274 
11975000    117.25755   -5003.7615   -4777.6205   -5003.7615            0    5046.6261    20.027557    19.750562    20.551609     8129.302    4369.8505    6289.3551    4480.6726    186.76705    660.55195   -627.20363   -4179.3049 
11976000    121.16128    -5006.553   -4772.8833    -5006.553            0    4958.8333    19.865949    19.949655    20.453015    8105.9149    4823.4191    4839.1617    5213.9191    60.048408    83.828709   -494.13548   -4186.6676 
11977000    124.82167   -4985.1624   -4744.4333   -4985.1624            0    4608.0511    20.053408    19.964332    20.410661    8171.4672    3377.5445    3933.1401    6513.4686   -415.39298   -443.57304   -197.99476   -4195.2805 
11978000    128.94993   -5007.5316   -4758.8409   -5007.5316            0    4466.7695    19.842914    20.009882    20.495746    8137.9258    5459.1041    2612.0232    5329.1811    165.31987    567.27258    213.35218   -4228.7099 
11979000    124.49205   -5001.1191   -4761.0257   -5001.1191            0    6373.7592    19.989353    19.817969    20.412725     8086.468    5215.1228    6941.9549    6964.1999   -57.897937    202.18606   -2.5071767   -4009.3502 
11980000     124.8338   -4995.6843   -4754.9318   -4995.6843            0    4742.6001    19.878069    19.959192    20.535052    8147.2859    5200.4486    4894.3594    4132.9923    -880.5876    57.619968    416.36878    -4191.417 
11981000    123.13378   -4997.0198   -4759.5459   -4997.0198            0    4265.0223    19.904015    19.853431    20.590975    8136.7911    3219.9226    4819.8435    4755.3007   -192.83954    487.95269   -172.36766   -4253.4296 
11982000    119.32971   -4995.2056   -4765.0682   -4995.2056            0    5794.2723    19.895902    19.868824    20.536175    8118.1179     5730.737    6266.1289    5385.9511    77.495234     277.9645   -995.73883   -4079.0586 
11983000    118.68961   -5007.9154   -4779.0125   -5007.9154            0    3936.2666    19.979717    19.786656    20.628599    8155.1409    2803.9259    3886.3202    5118.5536    291.10869    408.81281    45.087028   -4310.8552 
11984000    122.55076   -4998.9815    -4762.632   -4998.9815            0    5116.1318    19.940565    19.898058    20.497555    8132.9894    5489.4824    4560.7331      5298.18    7.3097314    958.25045   -438.07458   -4155.8009 
11985000    117.72151    -5008.761   -4781.7252    -5008.761            0    5261.2442    19.946793    19.863303    20.405456    8084.8292     4676.567    5606.6422    5500.5234   -258.19338    1161.7965    91.378637   -4161.3774 
11986000    117.02095   -5010.3248   -4784.6401   -5010.3248            0    3708.3899    19.989392    19.792577    20.659687    8173.8309    3959.6528    3992.4928    3173.0242   -493.04381    28.882973    501.51059   -4342.5743 
11987000     119.9411   -5004.4185   -4773.1019   -5004.4185            0    5042.3916    19.963716    19.780312    20.539867    8110.9576    6071.5684    3991.0105    5064.5957   -114.35628    892.35212   -616.63629   -4176.6375 
11988000      118.455   -4988.5991   -4760.1486   -4988.5991            0    4407.8162    19.650697    19.852896    20.737229    8090.0751    5592.2116    3338.9246    4292.3124   -260.46316   -612.18266    93.855853   -4240.0905 
11989000    121.74639   -5009.2982   -4774.5001   -5009.2982            0    4355.3544    19.791346    19.885927     20.65228    8128.1029    5248.8993    3883.6266    3933.5371   -26.785089   -25.049833   -449.14067   -4258.2162 
11990000    128.25126   -5010.6456   -4763.3023   -5010.6456            0    4431.3731    19.861264    19.816801    20.694173    8144.9511    5627.8925    4067.9625    3598.2644    541.87655    275.96838    328.91264   -4236.9183 
11991000    120.10248   -5012.1633   -4780.5356   -5012.1633            0    2964.2871    19.873112    19.773803    20.749375    8153.8194    3402.0014    4228.2852    1262.5747   -655.68314    1315.1774    684.70033   -4428.0371 
11992000    119.72874   -5004.2719    -4773.365   -5004.2719            0    5804.9302    19.897014    19.940121    20.536243     8147.731    5026.8438    6263.8112    6124.1357    113.55865    427.89184    190.46289   -4083.5866 
11993000    127.76918   -5007.4845   -4761.0709   -5007.4845            0    5325.0848    19.870535     20.02178    20.401648    8116.6628    4697.5786    5254.3708    6023.3049    315.71523    384.29673   -122.98906   -4130.7235 
11994000    122.71515   -4999.0018   -4762.3353   -4999.0018            0    6384.7506    19.869099    19.909935    20.417409    8076.9732    6261.7547    5641.8061    7250.6911    69.498062    580.29102    548.33604   -4010.2476 
11995000    127.80457   -4997.5755   -4751.0936   -4997.5755            0    4665.6197    19.838464    20.031069    20.494252    8144.1213    3236.5767    5987.5798    4772.7027    181.80906     789.5228   -223.33796   -4196.9409 
11996000    125.77488    -5003.698   -4761.1306    -5003.698            0    5245.5644    19.874135    19.854167    20.642339    8145.1451    5377.4651    5533.7451    4825.4831    111.28397   -444.64308    25.155127   -4138.0174 
11997000    123.50433   -5004.7465   -4766.5581   -5004.7465            0    6352.1457    19.852528    19.800418      20.4784    8049.8205    7653.7994    5171.8453    6230.7925    215.71557    666.39379   -494.97233   -4020.8265 
11998000    122.12592   -4997.3541    -4761.824   -4997.3541            0    4272.7116    19.821719    20.033884    20.504195     8142.339    4576.7155    3639.6097    4601.8094   -48.618918    141.85075    245.97277   -4254.4495 
11999000    116.09134   -5001.1863   -4777.2944   -5001.1863            0    5025.2417     19.76488    19.926846    20.623129    8122.4546    6347.5571    4156.3049     4571.863    -488.5328    1077.6454   -1213.7769    -4182.016 
12000000    124.71877   -4990.5551   -4750.0245   -4990.5551            0    4911.8128    19.761023    19.888937    20.672984    8125.0153    4986.3725    5560.0423    4189.0237   -141.16875   -537.23829    521.04734   -4167.9991 
Loop time of 352.857 on 64 procs for 250000 steps with 972 atoms

Performance: 122.429 ns/day, 0.196 hours/ns, 708.503 timesteps/s
99.1% CPU use with 64 MPI tasks x 1 OpenMP threads

MPI task timing breakdown:
Section |  min time  |  avg time  |  max time  |%varavg| %total
---------------------------------------------------------------
Pair    | 19.159     | 28.07      | 38.432     |  87.1 |  7.96
Bond    | 0.25666    | 0.27454    | 0.2894     |   1.2 |  0.08
Kspace  | 138.12     | 148.69     | 157.74     |  38.0 | 42.14
Neigh   | 0.90265    | 0.91727    | 0.93693    |   0.8 |  0.26
Comm    | 82.894     | 83.83      | 84.773     |   4.7 | 23.76
Output  | 0.60388    | 0.60575    | 0.6072     |   0.1 |  0.17
Modify  | 84.241     | 85.303     | 85.943     |   4.3 | 24.17
Other   |            | 5.165      |            |       |  1.46

Nlocal:        15.1875 ave          19 max          11 min
Histogram: 1 6 9 6 0 12 11 11 7 1
Nghost:        2295.77 ave        2331 max        2268 min
Histogram: 2 11 9 7 10 10 3 6 3 3
Neighs:        4841.41 ave        6529 max        3367 min
Histogram: 3 6 8 7 13 9 6 5 6 1

Total # of neighbors = 309850
Ave neighs/atom = 318.77572
Ave special neighs/atom = 2.0000000
Neighbor list builds = 2574
Dangerous builds = 0

unfix		3
unfix		2
unfix		1

write_data	data.final.${pid}
write_data	data.final.1
System init for write_data ...
PPPM initialization ...
  extracting TIP4P info from pair style
  using 12-bit tables for long-range coulomb (../kspace.cpp:340)
  G vector (1/distance) = 0.3730494
  grid = 24 24 25
  stencil order = 5
  estimated absolute RMS force accuracy = 0.0033301062
  estimated relative force accuracy = 1.0028516e-05
  using double precision FFTW3
  3d grid and FFT values/proc = 2366 288
Last active /omp style is kspace_style pppm/tip4p/omp
WARNING: Not all mixed pair coeffs generated from mixing. Use write_data with 'pair ij' option to store all pair coeffs. (../write_data.cpp:312)

write_restart   restart.lmp.${pid}
write_restart   restart.lmp.1
System init for write_restart ...
PPPM initialization ...
  extracting TIP4P info from pair style
  using 12-bit tables for long-range coulomb (../kspace.cpp:340)
  G vector (1/distance) = 0.3730494
  grid = 24 24 25
  stencil order = 5
  estimated absolute RMS force accuracy = 0.0033301062
  estimated relative force accuracy = 1.0028516e-05
  using double precision FFTW3
  3d grid and FFT values/proc = 2366 288
Last active /omp style is kspace_style pppm/tip4p/omp
Total wall time: 0:05:53
