LAMMPS (30 Jul 2021)
  using 1 OpenMP thread(s) per MPI task
package omp 0
using multi-threaded neighbor list subroutines
echo both

include		in.partitions
variable        pid world 0
include		in.temp
variable        temperature equal 249.90
variable	tempDamp equal 100.0
include		in.pressure
variable        pressure equal 6000.0
variable        pressureDamp equal 1000.0 # This is 1 ps
include		in.seed
variable        seed world 745823

units		real
atom_style	full
read_restart	restart.lmp.${pid}
read_restart	restart.lmp.0
Reading restart file ...
  restart file = 30 Jul 2021, LAMMPS = 30 Jul 2021
  restoring atom style full from restart
  orthogonal box = (0.50137123 1.6820804 0.61167173) to (17.706201 21.947097 21.601524)
  4 by 4 by 4 MPI processor grid
  restoring pair style lj/cut/tip4p/long/omp from restart
  restoring bond style harmonic/omp from restart
  restoring angle style harmonic/omp from restart
  864 atoms
  576 bonds
  288 angles
Finding 1-2 1-3 1-4 neighbors ...
  special bond factors lj:    0        0        0       
  special bond factors coul:  0        0        0       
     2 = max # of 1-2 neighbors
     1 = max # of 1-3 neighbors
     1 = max # of 1-4 neighbors
     2 = max # of special neighbors
  special bonds CPU = 1.674 seconds
  read_restart CPU = 2.096 seconds
include 	in.setup
variable	out_freq equal 1000
variable	out_freq2 equal 10000
variable	out_freq3 equal 1000

timestep	2.0

neigh_modify    delay 7 every 1

include		in.tip4p
# This is TIP4P/Ice

# create groups ###
group ox type 2
288 atoms in group ox
group hy type 1
576 atoms in group hy

# set charges - beside manually ###
set group ox charge -1.1794
Setting atom values ...
  288 settings made for charge
set group hy charge 0.5897
Setting atom values ...
  576 settings made for charge

# ### TIP3P Potential Parameters ###
pair_style lj/cut/tip4p/long/omp 2 1 1 1 0.1577 8.5
pair_coeff 1 1*2 0.000 0.000
pair_coeff 2 2 0.21084 3.1668
bond_style  harmonic
bond_coeff  1 450 0.9572
angle_style harmonic
angle_coeff 1 55 104.52
kspace_style pppm/tip4p/omp 1.0e-5
pair_modify tail yes

thermo          ${out_freq}
thermo          1000
thermo_style    custom step temp pe etotal epair emol press lx ly lz vol pxx pyy pzz pxy pxz pyz enthalpy

restart 	${out_freq3} restart.lmp.${pid} restart2.lmp.${pid}
restart 	1000 restart.lmp.${pid} restart2.lmp.${pid}
restart 	1000 restart.lmp.0 restart2.lmp.${pid}
restart 	1000 restart.lmp.0 restart2.lmp.0


include         in.dump
dump            myDump all atom ${out_freq2} dump.water.${pid}
dump            myDump all atom 10000 dump.water.${pid}
dump            myDump all atom 10000 dump.water.0
dump            myDump2 all dcd ${out_freq2} dump.dcd
dump            myDump2 all dcd 10000 dump.dcd
dump_modify     myDump append yes
dump_modify     myDump2 append yes


variable natoms 	equal  "count(all)"                        # NUMBER ATOMS
variable H      	equal  "enthalpy/v_natoms"                 # ENTHALPY-per-atom
variable Vol      	equal  "vol/v_natoms"                 # volume-per-atom
fix AVG all 		ave/time ${out_freq} 1 ${out_freq} v_Vol v_H file vol_enthalpy.dat
fix AVG all 		ave/time 1000 1 ${out_freq} v_Vol v_H file vol_enthalpy.dat
fix AVG all 		ave/time 1000 1 1000 v_Vol v_H file vol_enthalpy.dat


timer           timeout 23:50:00 every 1000
New timer settings: style=normal  mode=nosync  timeout=23:50:00

fix 		1 all shake 1e-6 200 0 b 1 a 1
       0 = # of size 2 clusters
       0 = # of size 3 clusters
       0 = # of size 4 clusters
     288 = # of frozen angles
  find clusters CPU = 0.161 seconds
fix             2 all nph iso ${pressure} ${pressure} ${pressureDamp}
fix             2 all nph iso 6000 ${pressure} ${pressureDamp}
fix             2 all nph iso 6000 6000 ${pressureDamp}
fix             2 all nph iso 6000 6000 1000
fix             3 all temp/csvr ${temperature} ${temperature} ${tempDamp} ${seed}
fix             3 all temp/csvr 249.9 ${temperature} ${tempDamp} ${seed}
fix             3 all temp/csvr 249.9 249.9 ${tempDamp} ${seed}
fix             3 all temp/csvr 249.9 249.9 100 ${seed}
fix             3 all temp/csvr 249.9 249.9 100 745823

run             250000
PPPM initialization ...
  extracting TIP4P info from pair style
  using 12-bit tables for long-range coulomb (../kspace.cpp:340)
  G vector (1/distance) = 0.3747129
  grid = 24 24 25
  stencil order = 5
  estimated absolute RMS force accuracy = 0.0030222054
  estimated relative force accuracy = 9.1012818e-06
  using double precision FFTW3
  3d grid and FFT values/proc = 2730 288
Last active /omp style is kspace_style pppm/tip4p/omp
Neighbor list info ...
  update every 1 steps, delay 7 steps, check yes
  max neighbors/atom: 2000, page size: 100000
  master list distance cutoff = 10.8154
  ghost atom cutoff = 10.8154
  binsize = 5.4077, bins = 4 4 4
  1 neighbor lists, perpetual/occasional/extra = 1 0 0
  (1) pair lj/cut/tip4p/long/omp, perpetual
      attributes: half, newton on, omp
      pair build: half/bin/newton/omp
      stencil: half/bin/3d
      bin: standard
Per MPI rank memory allocation (min/avg/max) = 9.240 | 9.245 | 9.252 Mbytes
Step Temp PotEng TotEng E_pair E_mol Press Lx Ly Lz Volume Pxx Pyy Pzz Pxy Pxz Pyz Enthalpy 
20250000    256.39766   -3901.2008    -3461.744   -3901.2008            0    6292.1761     17.20483    20.265017    20.989852    7318.2416    7474.4543    7403.9155    3998.1585   -1020.1143   -738.46101    282.67602    -2790.186 
20251000    253.82469   -3905.0007   -3469.9538   -3905.0007            0    7354.2553    17.093508    20.133894     20.85404    7177.1029    6153.2497    9212.1422    6697.3738    1564.5704   -446.26733    1881.5713   -2700.1789 
20252000    253.65301   -3918.5722   -3483.8196   -3918.5722            0    5352.7042    17.127611    20.174064    20.895646    7220.1459    4782.9833    5928.6728    5346.4567    869.52721    87.602274   -212.50598   -2920.1883 
20253000    240.23731    -3899.402   -3487.6435    -3899.402            0    4548.3123    17.172746    20.227226     20.95071    7277.3757    4917.0843    4940.5038    3787.3489    1111.1593    -237.8546    394.27892   -3004.9172 
20254000    234.08673   -3930.6644   -3529.4478   -3930.6644            0    5414.4067    17.118333    20.163135    20.884326    7208.4188    5793.5666    5344.2836    5105.3698    338.15863    1281.7456   -1829.4523   -2960.2453 
20255000    248.65858   -3890.5639   -3464.3716   -3890.5639            0    5741.6621    17.150681    20.201236     20.92379    7249.3601    6416.6453     4394.181      6414.16    1064.1994    1338.9032   -528.77653   -2857.3374 
20256000    254.14665   -3888.9211   -3453.3224   -3888.9211            0     5722.046    17.159375    20.211477    20.934397    7260.3901    5867.7271    6275.2185    5023.1924    373.07457    208.93261    -1139.368   -2847.4416 
20257000    246.09153   -3873.8792   -3452.0868   -3873.8792            0    7572.1801    17.060479    20.094991    20.813745    7135.5801    9309.3483    4671.2035    8735.9886   -88.127824    516.19514   -52.544216    -2664.087 
20258000    264.16956   -3916.0736    -3463.296   -3916.0736            0    7491.8372    17.112715    20.156518    20.877472    7201.3238    6619.0545    7622.3921     8234.065    1382.9769    1281.3813    326.72185   -2676.4739 
20259000    257.42125   -3872.0942    -3430.883   -3872.0942            0    4905.8743    17.151525    20.202231    20.924821    7250.4311    4453.6542    5461.6637    4802.3049   -660.15553    858.20392    100.63557   -2912.1353 
20260000    244.58991    -3877.146   -3457.9273    -3877.146            0    6387.0178     17.08683    20.126029    20.845893    7168.6948    7860.1409    5877.8772    5423.0352   -97.259139   -367.29896    1300.6834    -2790.177 
20261000    261.61887   -3906.5446   -3458.1388   -3906.5446            0    7116.1713    17.094547    20.135118    20.855307    7178.4116    7081.3328     7272.844    6994.3369   -1444.5357    646.92611    342.79512   -2713.1485 
20262000    266.54739   -3872.2498   -3415.3967   -3872.2498            0    5162.0717    17.146529    20.196347    20.918726    7244.0974    6027.3218    5296.0925    4162.8007    -202.0123   -463.88703     1572.087   -2870.0355 
20263000    256.00536   -3866.5806   -3427.7962   -3866.5806            0    7690.7719    17.114529    20.158654    20.879685    7203.6137     7342.757    7091.1746    8638.3841     657.2215    996.18469   -334.74192   -2619.8243 
20264000    233.60141   -3911.7472   -3511.3624   -3911.7472            0    7741.5998     17.12874    20.175393    20.897022     7221.573    10770.578    5495.6659    6958.5555   -55.467685   -635.08277     860.4302    -2696.023 
20265000    261.79832   -3937.8185   -3489.1051   -3937.8185            0    6951.8889    17.132239    20.179515    20.901292    7226.0005    6116.5693    8098.2154    6640.8819    553.83956   -813.10429    44.379796   -2756.4886 
20266000    243.45264   -3900.8875    -3483.618   -3900.8875            0    5263.3026    17.161724    20.214244    20.937264    7263.3731    4580.0108     4458.135    6751.7622   -191.07642   -533.38954    909.66862   -2926.0824 
20267000    258.27251   -3935.8531   -3493.1828   -3935.8531            0    5907.2596    17.114513    20.158635    20.879665    7203.5936      5656.17    7853.6289    4211.9799    1150.4789    1418.1852   -923.52152   -2872.5837 
20268000    235.31702   -3935.6685   -3532.3432   -3935.6685            0    6911.2812    17.094865    20.135493    20.855695    7178.8124    5753.2842    7751.3495    7229.2098    199.00545    407.08525    363.34262   -2808.7624 
20269000    251.50574   -3933.4163   -3502.3441   -3933.4163            0    5148.7378    17.133203     20.18065    20.902467    7227.2197    7291.0944    4312.8113    3842.3077   -124.39773   -839.62905   -132.21279    -2959.659 
20270000    238.69568   -3913.6877   -3504.5715   -3913.6877            0    8648.3478    17.029076    20.058002    20.775433    7096.2489    9544.3237    6657.3937    9743.3262    1602.3111   -540.69824   -159.28245   -2609.5409 
20271000    256.13069   -3939.7134   -3500.7142   -3939.7134            0    4349.6908    17.134299     20.18194    20.903804    7228.6065    2927.1265    5057.8427    5064.1033   -571.06385   -819.54338   -677.89146   -3042.1619 
20272000    254.27159   -3915.4928     -3479.68   -3915.4928            0    5663.3457    17.210534    20.271736    20.996811     7325.523    6323.1974    5062.5473    5604.2924    1225.8087    115.84176   -373.20239   -2874.6351 
20273000    239.71759   -3908.7653   -3497.8976   -3908.7653            0    6738.9959    17.151442    20.202134     20.92472    7250.3261    5993.3676    7216.9497    7006.6704    167.32503    729.07029   -1105.5847   -2785.3258 
20274000    258.28309    -3851.624   -3408.9356    -3851.624            0    4866.5375    17.165628    20.218843    20.942026    7268.3311    6109.3064    4715.5395    3774.7664    944.91798     702.7954   -636.42561   -2893.0771 
20275000    252.96504   -3867.1697   -3433.5963   -3867.1697            0     8754.629    17.062414     20.09727    20.816105    7138.0077    9794.2871    8701.9496    7767.6502    64.305524    747.90571   -299.50717   -2522.2348 
20276000     259.1995   -3863.9369   -3419.6779   -3863.9369            0    4867.6141    17.195335    20.253833    20.978268    7306.1313    5353.4351    5654.2092     3595.198    1655.1333    12.978252   -357.31467   -2901.0217 
20277000    265.19894   -3899.2167   -3444.6748   -3899.2167            0    7426.8614    17.154434    20.205658     20.92837    7254.1211    6047.2879    7009.0847    9224.2118   -1703.8483    201.65067   -1275.7434    -2658.958 
20278000    244.25468   -3902.9079   -3484.2637   -3902.9079            0    5292.3311    17.199857     20.25916    20.983786    7311.8979    6176.2159    5038.4065    4662.3709     134.7216    367.17798      217.295   -2919.9079 
20279000     234.2135   -3890.8753   -3489.4414   -3890.8753            0    4861.7664    17.209957    20.271057    20.996108    7324.7867    4999.4753    3449.8496    6135.9742   -503.73513    674.90379   -213.72093   -2970.0856 
20280000    257.48021   -3878.3968   -3437.0845   -3878.3968            0    7212.9254    17.202647    20.262445    20.987189    7315.4559     7504.519    5425.2992    8708.9579    876.07251    1366.4328   -620.10117   -2667.5489 
20281000     257.0441   -3872.8592   -3432.2944   -3872.8592            0    3235.0777     17.27112    20.343098    21.070726    7403.1596    2001.2094    4559.4488     3144.575    334.91527    1013.4057    12.868461   -3083.0112 
20282000    258.06699   -3903.2051   -3460.8871   -3903.2051            0    5961.4891    17.111446    20.155023    20.875924    7199.7214     5566.249    6345.2381      5972.98     -1606.61    511.40242    1018.8081   -2834.9275 
20283000     264.2831   -3923.1247   -3470.1526   -3923.1247            0     6103.353    17.121728    20.167134    20.888468    7212.7083      6218.28    3861.7533    8230.0257   -482.45817     1627.916    646.03016   -2828.1411 
20284000    239.86411   -3938.2857   -3527.1668   -3938.2857            0     6917.457    17.139128    20.187629    20.909696    7234.7202    6203.8014    7809.4724    6739.0971   -67.905034   -102.50985     1503.842   -2797.2992 
20285000    238.18935   -3942.3618   -3534.1134   -3942.3618            0    6021.1333    17.102355    20.144315    20.864833    7188.2525    6503.3991    4306.7227    7253.2781   -18.185427   -146.90082    314.60905   -2902.8981 
20286000     240.1914   -3931.2135   -3519.5336   -3931.2135            0    6123.9799    17.150244    20.200723    20.923258     7248.807    4701.0677    7377.5965    6293.2754    636.13814    178.39258    48.885786   -2872.1284 
20287000    263.82303   -3934.1095   -3481.9258   -3934.1095            0    6624.4068    17.141592    20.190531    20.912702    7237.8411    7046.8957    7958.8675    4867.4571    1098.5282   -922.55272    1257.8044   -2782.6767 
20288000     261.4264   -3922.9807   -3474.9048   -3922.9807            0    7467.0919    17.077993     20.11562    20.835112    7157.5785    7840.4833    7235.4834    7325.3089   -518.65329    156.66276   -41.120734   -2695.4454 
20289000    251.42229   -3918.3271   -3487.3979   -3918.3271            0    6267.2321    17.160704    20.213042    20.936018    7262.0771    5407.8498    7568.6711    5825.1753    915.27844   -1975.4452   -90.838178   -2823.6357 
20290000    249.10459   -3909.5084   -3482.5517   -3909.5084            0    5687.2487    17.179555    20.235247    20.959017    7286.0366    4353.7197    5212.5772    7495.4493    701.76334    210.28361    113.83459   -2878.2282 
20291000    238.76993   -3896.4997   -3487.2562   -3896.4997            0    6560.4774    17.152894    20.203843     20.92649    7252.1667    7233.8886    5551.9301    6895.6133   -425.01069   -633.68501    648.31208   -2793.3846 
20292000    247.43145   -3911.3375   -3487.2484   -3911.3375            0     6628.478    17.147976    20.198051    20.920491    7245.9312    8059.5455    5114.2323    6711.6561   -1142.7263   -930.84416   -1172.8677   -2786.7875 
20293000    258.00947    -3907.877   -3465.6576    -3907.877            0    8466.3327    17.104925    20.147342    20.867968    7191.4934    7830.7558    9090.7046    8477.5376   -1044.1344    1805.5423    319.06868   -2577.7039 
20294000    253.64372   -3886.7021   -3451.9655   -3886.7021            0    5505.9066    17.118974    20.163891    20.885109    7209.2288    4516.2062    7473.0855     4528.428   -1277.4677   -87.928355    238.67889   -2873.0788 
20295000    235.94109   -3917.9721   -3513.5772   -3917.9721            0    7345.9071    17.086715    20.125893    20.845752      7168.55    6571.7098    6369.4581    9096.5535   -542.01756    195.10064    740.43148   -2745.5923 
20296000    258.31153   -3927.0092   -3484.2721   -3927.0092            0    5067.6914    17.183609    20.240021    20.963963    7291.1952    5784.8863    5323.5341    4094.6538   -342.02282    44.082843   -132.42426   -2945.4011 
20297000    242.56161   -3925.0454   -3509.3031   -3925.0454            0    6446.5525     17.14566    20.195323    20.917665    7242.9954    5014.2477    9039.9841    5285.4257    468.88201   -838.49406   -293.75601    -2828.343 
20298000    247.99547   -3884.5174   -3459.4616   -3884.5174            0    5919.7065    17.112852    20.156679    20.877639    7201.4965    5444.5602    5608.9158    6705.6434   -234.37449   -3313.5305    188.32837   -2837.7359 
20299000    247.72774    -3879.356   -3454.7591    -3879.356            0    5288.1831     17.14265    20.191777    20.913993    7239.1812    3952.4084    6104.5795    5807.5614   -553.50669   -80.087706   -215.46502   -2896.4537 
20300000    257.12278   -3909.1359   -3468.4363   -3909.1359            0    7399.8356    17.084886    20.123739    20.843521     7166.248    8465.1486    5344.8361    8389.5219    522.32149    2147.1169   -929.65919   -2695.0619 
20301000    242.81011   -3854.9356   -3438.7673   -3854.9356            0    4830.1349    17.163105    20.215871    20.938948    7265.1266     3997.025    6026.5513    4466.8285    337.54285    1512.1532    925.22663   -2926.9932 
20302000    242.74821   -3874.1986   -3458.1365   -3874.1986            0    6588.3462    17.078721    20.116477    20.835999    7158.4928    7144.0738    6361.3884    6259.5766   -908.23805    -1014.385     749.7766   -2770.3179 
20303000    256.35897   -3915.9849   -3476.5944   -3915.9849            0    5291.7729    17.104745    20.147131    20.867749    7191.2672    5535.0428    5297.5522    5042.7236   -1627.7056    1098.5579   -617.25825   -2921.6078 
20304000    255.66275   -3886.6045   -3448.4073   -3886.6045            0     7661.891    17.123034    20.168672    20.890061    7214.3589    7876.5384    8704.6108    6404.5237   -1048.6463   -2097.9902     424.0303   -2642.2689 
20305000    243.04541   -3908.9639   -3492.3923   -3908.9639            0    5373.2882    17.219045    20.281761    21.007195    7336.3966    5714.7677    3906.9557    6498.1412   -947.03644    742.38787   -2179.9877   -2917.4837 
20306000    252.17034   -3882.3384    -3450.127   -3882.3384            0    6108.6122    17.235527    20.301175    21.027303    7357.4838    5179.1817    7849.8627    5296.7922    1013.1874    1273.8093   -31.117457   -2794.6647 
20307000    255.96032   -3920.0765   -3481.3693   -3920.0765            0    6985.1677     17.16738    20.220906    20.944163    7270.5561    6490.0407    7457.5931    7007.8692   -1691.4849    340.11908   -13.181082   -2740.7068 
20308000    244.20178   -3911.4555    -3492.902   -3911.4555            0    5644.5508    17.195626    20.254176    20.978623    7306.5026    5176.2548    4886.8186    6870.5789    676.82974    57.508583   -10.565112   -2891.4308 
20309000    242.34943   -3894.6535   -3479.2749   -3894.6535            0    5029.0959    17.146339    20.196123    20.918494    7243.8562    4530.3671    5548.2433    5008.6771   -294.38722    1483.5405    2.5308787     -2947.98 
20310000    235.76862   -3907.4989   -3503.3995   -3907.4989            0    6086.0486    17.142403    20.191486    20.913691    7238.8681    7021.9525    4609.4837    6626.7097   -68.496628   -906.86494    211.79682   -2860.8864 
20311000    246.25207   -3900.3822   -3478.3145   -3900.3822            0    5105.5263     17.14714    20.197067    20.919471    7244.8718    5085.8575    4898.0711    5332.6504    834.17999    575.76264   -548.18235   -2938.8696 
20312000    261.82449   -3911.2871   -3462.5289   -3911.2871            0    4377.7179    17.214212    20.276068    21.001298    7330.2202    5218.5156    2026.9641     5887.674   -187.04504    1195.3817   -1016.6168   -2994.5344 
20313000    262.33665   -3870.6451    -3421.009   -3870.6451            0    6246.7391    17.181259    20.237254    20.961096    7288.2044    7036.6862    8576.9053    3126.6257  -0.52779791    -223.8613   -1885.0487    -2757.037 
20314000    251.98524    -3885.329   -3453.4349    -3885.329            0     6129.573    17.187035    20.244057    20.968142     7295.557     5023.538     6334.574    7030.6071   -91.257395    -244.0241    810.52787   -2801.2593 
20315000    231.17689   -3908.1722   -3511.9429   -3908.1722            0    3794.1771    17.263944    20.334645    21.061971    7393.9348    5241.1496    2217.6655    3923.7163    773.57136   -225.15638    384.24653   -3102.8056 
20316000    262.55662   -3902.4678   -3452.4547   -3902.4678            0    6306.8059    17.217563    20.280015    21.005387    7334.5019    5999.0687    6997.1188    5924.2302    128.76101   -306.84529    181.29248   -2777.8397 
20317000    242.88184    -3930.694   -3514.4028    -3930.694            0    5090.3594    17.145626    20.195283    20.917624    7242.9526    4297.2476    6069.4029    4904.4277    1445.3677    820.47046   -195.19112   -2976.7029 
20318000    246.62378    -3899.792   -3477.0873    -3899.792            0    3670.1333     17.24799    20.315854    21.042508    7373.4558    4357.3348    4038.9426    2614.1226   -587.83537   -1372.2568   -15.855906   -3082.4221 
20319000    246.53931   -3928.2368   -3505.6768   -3928.2368            0    4256.5066    17.283841    20.358081    21.086245    7419.5291    5608.9782    3926.0741    3234.4675    8.6872425    198.31495    1674.1656   -3045.0964 
20320000    253.57833   -3890.5761   -3455.9516   -3890.5761            0    5681.8385    17.184697    20.241303     20.96529    7292.5798    6896.4144    5411.7992    4737.3018     1431.421   -1945.8967   -660.33747   -2851.6608 
20321000    257.33513    -3910.497   -3469.4334    -3910.497            0    6606.5018    17.148142    20.198246    20.920693     7246.141    6360.5367    7502.8943    5956.0744    1703.7866   -1367.1919    291.01174   -2771.2746 
20322000    269.58368   -3864.3072     -3402.25   -3864.3072            0    5968.7458     17.13164    20.178809    20.900561    7225.2419    6312.4859    5022.4794     6571.272    1364.9163     498.1187   -105.52543   -2773.3069 
20323000    251.79771   -3932.6041   -3501.0315   -3932.6041            0    5431.1518    17.141389    20.190292    20.912455    7237.5843    6733.6808    6333.8275     3225.947    608.03927   -333.69017    906.21067   -2927.7585 
20324000    239.81133   -3904.1491   -3493.1207   -3904.1491            0     4850.606    17.173193    20.227752    20.951255     7277.944    6576.1843    3256.1891    4719.4445   -2389.0634    189.86097    1004.3821   -2978.2708 
20325000    238.29191   -3897.6553   -3489.2311   -3897.6553            0    5031.9035    17.200907    20.260396    20.985066    7313.2362    3808.6807     6891.873    4395.1567   -3617.5985     489.2528    254.10403   -2952.5482 
20326000    240.59013   -3889.6051   -3477.2418   -3889.6051            0     5498.636    17.120131    20.165253     20.88652    7210.6904    4787.6574     7876.324    3831.9267     357.0932   -705.55072    406.69126   -2899.0024 
20327000    251.38064   -3939.6505   -3508.7927   -3939.6505            0    5380.9328    17.107974    20.150934    20.871688    7195.3404    5489.1836    5520.7595    5132.8551    -514.4002   -172.95624   -199.86278   -2944.1356 
20328000    276.67757   -3906.1289    -3431.913   -3906.1289            0    6191.5807    17.129647    20.176462     20.89813    7222.7212    5725.4218    9115.7801    3733.5401   -569.17888    2121.8057   -416.71943   -2779.7168 
20329000     245.8613   -3936.5091   -3515.1112   -3936.5091            0    6774.1194    17.160574    20.212889     20.93586    7261.9127    8987.0507    5312.3483    6022.9593    664.32218    96.831666    582.17611   -2797.6808 
20330000    261.91658   -3889.6396   -3440.7236   -3889.6396            0    5754.8926    17.186449    20.243366    20.967427    7294.8107    5694.8072    6907.4529    4662.4177    526.05877   -1209.1203   -386.43964   -2828.4759 
20331000    242.58184    -3886.404   -3470.6271    -3886.404            0    6939.1277    17.089197    20.128816     20.84878    7171.6738    8860.9965    5895.4989    6060.8877   -394.64861   -577.26703   -83.679567   -2744.8532 
20332000    246.73962   -3916.2583    -3493.355   -3916.2583            0    6971.2604    17.053297    20.086531    20.804982    7126.5712    4704.8251    6560.0738    9648.8823    991.10986   -714.47302    1198.6036   -2768.8059 
20333000    241.38713   -3906.2054   -3492.4761   -3906.2054            0    6456.4003    17.091378    20.131386    20.851441    7174.4206    7733.5569    5773.6958    5861.9484   -172.78285   -2016.8335    102.53332   -2816.9328 
20334000    267.50297   -3908.8419    -3450.351   -3908.8419            0    5787.0749    17.165839    20.219091    20.942284    7268.5993      5181.09    6499.7278    5680.4069    1620.2669    567.95362   -733.99715   -2836.8918 
20335000    249.16259   -3912.5838   -3485.5276   -3912.5838            0    5509.7061    17.195054    20.253502    20.977925    7305.7735    5640.0866     5738.814    5150.2176   -90.773493   -294.76264    188.62798   -2898.4838 
20336000    248.99358    -3902.842   -3476.0756    -3902.842            0    4787.3647    17.161677    20.214189    20.937206    7263.3135    5195.4197    5695.3315    3471.3429    143.12393   -729.92037     367.8065   -2968.9597 
20337000    251.28378   -3938.0538    -3507.362   -3938.0538            0    4949.0898     17.17625    20.231354    20.954985     7281.832    5575.6329    4949.3476     4322.289    492.51987   -72.129586    1558.9887   -2981.7783 
20338000    251.56953   -3875.1318   -3443.9502   -3875.1318            0    7956.5593    17.108341    20.151366    20.872136    7195.8034    7285.5021    7562.3279    9021.8479    430.25001   -177.70302   -281.49827   -2608.9618 
20339000    244.65734   -3951.2549   -3531.9206   -3951.2549            0    4956.7208    17.139894    20.188531    20.910631    7235.6908    7426.8288    4016.3456     3426.988     312.6152    643.85134   -807.73066    -3008.862 
20340000    254.04271   -3919.2956   -3483.8751   -3919.2956            0    5359.2391    17.106105    20.148732    20.869408    7192.9818    7577.6539    3771.4928    4728.5707   -538.56977    1107.2738    1025.1841   -2921.6788 
20341000    240.96712   -3923.5586   -3510.5492   -3923.5586            0    6734.4545    17.137033    20.185161     20.90714    7232.0672    6330.8118    7616.8495    6255.7022    -134.3753    1553.8308   -630.94186   -2800.2509 
20342000    251.84676   -3887.8692   -3456.2125   -3887.8692            0    7890.1099    17.112154    20.155857    20.876788    7200.6154     7201.166    8712.4148     7756.749   -887.10957   -834.40656    1264.6949   -2627.6437 
20343000    240.05282   -3917.7476   -3506.3053   -3917.7476            0    3844.1481    17.166531    20.219906    20.943127    7269.4774    3436.2503    3482.9324    4613.2617   -761.05473   -1192.7618   -1809.9859   -3098.7569 
20344000    245.30684   -3907.5231   -3487.0756   -3907.5231            0    6002.0261    17.112962    20.156809    20.877773    7201.6354    6599.0519     4746.607    6660.4194    1183.1095   -319.96878   -303.95974    -2856.692 
20345000    257.44859   -3941.2414   -3499.9833   -3941.2414            0    6142.9716    17.072607    20.109276     20.82854    7150.8076    5383.0182    6138.2024    6907.6942   -323.98467     42.41526    215.68605   -2859.3501 
20346000    245.61607    -3870.838   -3449.8604    -3870.838            0    6615.8758    17.096324    20.137211    20.857475    7180.6507    5137.0667    7858.3178    6852.2429    -870.6374    454.50259    419.62414   -2757.0299 
20347000     256.0155   -3906.4638    -3467.662   -3906.4638            0    6005.7099    17.137989    20.186287    20.908306    7233.2781    5449.7266    7201.0555    5366.3475    149.59988   -1527.6108    639.49853     -2834.12 
20348000    242.96111   -3928.0865   -3511.6595   -3928.0865            0     5420.842     17.15905    20.211094       20.934    7259.9776     6299.231    4648.8681    5314.4269    933.15611     1074.052    -684.0829   -2937.7044 
20349000    251.94761   -3912.5302   -3480.7007   -3912.5302            0    5098.0027    17.172152    20.226527    20.949985    7276.6212    5364.3469    4370.8171    5558.8439    -543.6135    356.15182   -476.79301   -2939.6901 
20350000    246.14979   -3930.0848   -3508.1924   -3930.0848            0    5023.5938    17.186962    20.243971    20.968054    7295.4645    6109.2827    3959.7849    5001.7137    491.23755   -382.30669   -1093.8109   -2973.6978 
20351000    242.72234   -3933.9227   -3517.9049   -3933.9227            0    6987.3435    17.126484    20.172736     20.89427    7218.7204    6208.8801    7098.2715    7654.8788    1565.1829     181.4594    521.64338   -2782.2939 
20352000    261.95763   -3914.3345   -3465.3481   -3914.3345            0    5731.1054    17.179156    20.234776     20.95853     7285.528    5245.2262    6846.6785    5101.4116   -357.76447   -720.06726   -1855.9879    -2856.407 
20353000    249.31605    -3889.845   -3462.5258    -3889.845            0    5369.7749    17.162549    20.215216     20.93827    7264.4202    5966.6025    3283.1872     6859.535    -976.8681   -35.069506   -392.94761   -2893.6297 
20354000      250.905   -3925.5244   -3495.4819   -3925.5244            0    4445.3406    17.185054    20.241723    20.965725    7293.0345    3946.0934    4465.7421    4924.1862   -1068.6751   -1110.1728    271.82586   -3022.6691 
20355000    259.79137   -3908.5695   -3463.2959   -3908.5695            0     6217.374    17.119972    20.165066    20.886326    7210.4896    7636.5074    5696.9348    5318.6798    71.282626     427.9619   -605.70055   -2809.4918 
20356000     226.3226   -3905.6528   -3517.7436   -3905.6528            0    6096.8105      17.1995    20.258739    20.983349    7311.4417    6590.0723    4628.9845    7071.3748   -277.94382   -53.113871   -357.41122   -2867.6414 
20357000    249.03833   -3938.6215   -3511.7783   -3938.6215            0    4879.2339    17.158681     20.21066    20.933551    7259.5102    4153.2019    6878.3415    3606.1583     917.9584   -85.878673   -19.245651   -2995.2016 
20358000    247.15888   -3904.3753   -3480.7535   -3904.3753            0    6272.4614    17.107318     20.15016    20.870888    7194.5121    7106.1632    5669.5158    6041.7052    -671.5586   -1192.5725    401.55892   -2822.6181 
20359000    256.58341   -3939.2831   -3499.5079   -3939.2831            0    4577.6548    17.115472    20.159766    20.880836    7204.8053     5083.322    4512.1248    4137.5177    -268.6016    -1157.319    1037.2779   -3018.5122 
20360000    251.50759   -3919.8538   -3488.7784   -3919.8538            0    5383.5019     17.07934    20.117207    20.836755    7159.2721    4501.7352    6750.6979    4898.0726   -273.10865    391.35424   -323.92188   -2926.6835 
20361000     250.9685   -3908.1138   -3477.9623   -3908.1138            0    4929.7093    17.150864    20.201453    20.924014     7249.593    3544.7913     5752.343    5491.9936   -1366.4432     741.9075   -395.47579   -2956.7546 
20362000     254.8283   -3917.3323   -3480.5653   -3917.3323            0    7470.0919    17.065876    20.101348    20.820329    7142.3536    8398.4889    6823.9348    7187.8521     1476.372   -7.5054872    544.98067   -2702.4514 
20363000    240.17248   -3909.0742   -3497.4268   -3909.0742            0    8615.0298     17.04246    20.073766    20.791761    7112.9935    9944.1151     8301.921    7599.0534   -1187.4014    -175.3211    753.38778   -2603.7405 
20364000    262.74444   -3903.5418   -3453.2069   -3903.5418            0    6668.8053    17.119918    20.165002     20.88626     7210.421    7358.0744    5704.5772    6943.7643    397.72385   -1319.0771    991.22644    -2751.938 
20365000     254.6679   -3878.8433   -3442.3513   -3878.8433            0    6993.3272    17.054384    20.087812    20.806309     7127.935    5973.2228    9288.3871    5718.3717     34.93841   -1593.0859   -749.81421   -2715.3696 
20366000    253.95142   -3939.0207   -3503.7567   -3939.0207            0    5636.2895    17.139196    20.187709    20.909779    7234.8063    5677.3056    5380.2206    5851.3422   -225.75638   -596.87997    827.72084   -2909.0592 
20367000    247.67281   -3923.4931   -3498.9904   -3923.4931            0    6913.9888    17.101548    20.143364    20.863848    7187.2351    6622.3513    7331.1427    6788.4723    323.88415   -1385.4044   -657.75185   -2774.2768 
20368000    249.38226   -3917.1192   -3489.6866   -3917.1192            0    5904.1613    17.082837    20.121325    20.841021    7163.6697    5381.0787    5833.5315    6497.8737   -639.84488    308.70246    643.25786   -2872.8506 
20369000    261.37766    -3916.939   -3468.9466    -3916.939            0    6704.5982    17.103279    20.145403     20.86596    7189.4176    8544.1656    5214.1683    6355.4605   -88.830624   -124.48258   -1064.3624   -2765.9676 
20370000    241.47588   -3903.2569   -3489.3755   -3903.2569            0    3923.1538    17.203975     20.26401    20.988809    7317.1506    3191.2581    4409.7496    4168.4536   -1202.9881   -373.38548    31.917201   -3070.7234 
20371000    252.16243   -3902.0559   -3469.8581   -3902.0559            0      6755.04    17.077766    20.115352    20.834834    7157.2923    6345.8848    6703.1483    7216.0869   -50.294165    123.02745    1402.2765   -2764.7551 
20372000    270.63059   -3889.1592   -3425.3076   -3889.1592            0    6923.8731    17.109259    20.152447    20.873256    7196.9612    6864.8698    8411.1362    5495.6131    228.79918   -253.82265    1272.7956   -2698.5759 
20373000    233.25699   -3933.2959   -3533.5014   -3933.2959            0     6863.022     17.17326    20.227832    20.951337    7278.0301    7725.1938    4915.3617    7948.5105   -1125.9254    -592.9521   -876.13485   -2805.0424 
20374000    259.73664   -3936.5445   -3491.3648   -3936.5445            0      3655.55    17.252038    20.320622    21.047447    7378.6488    3555.6783    2394.4049    5016.5669   -554.60068    72.992245   -673.89286    -3097.991 
20375000    266.16123   -3903.7889   -3447.5976   -3903.7889            0    5659.8181    17.158669    20.210645    20.933535    7259.4938    6908.2802     4504.024    5567.1501    653.21436   -616.31529   -158.20957   -2848.3798 
20376000     255.4065   -3924.4711   -3486.7131   -3924.4711            0    6431.7465    17.157757    20.209571    20.932423    7258.3364    7687.0333    5685.0466    5923.1595    -1443.003   -1604.4479    322.52066    -2805.878 
20377000    251.27673   -3913.5197   -3482.8399   -3913.5197            0    6955.6818    17.119459    20.164461    20.885699    7209.8406     5616.276    7527.3232    7723.4461    -1034.947    1094.0325   -144.79073    -2751.463 
20378000    256.24578   -3902.0853   -3462.8888   -3902.0853            0    7789.7696    17.095607    20.136367      20.8566    7179.7472    7851.8518    6923.2279    8594.2292    234.76052    18.348644   -623.34267   -2647.2278 
20379000    251.37653   -3865.2935   -3434.4427   -3865.2935            0    7061.4385    17.060027    20.094458    20.813193    7135.0118     5123.472    7829.1832    8231.6604    1176.1957    1368.5035   -948.75017   -2699.6518 
20380000    259.43716   -3958.8911   -3514.2246   -3958.8911            0    8602.0872    17.111578    20.155179    20.876086    7199.8891    8234.8659    9951.9296    7619.4662   -1108.7142   -404.54712   -4.3207236   -2610.9797 
20381000    235.08396   -3934.2988    -3531.373   -3934.2988            0    6787.4884    17.192473    20.250462    20.974777    7302.4845    7834.6883     6109.047    6418.7299   -15.246423   -333.62032    167.40637   -2808.5106 
20382000    256.62933   -3908.3273   -3468.4734   -3908.3273            0    5096.2228    17.164456    20.217462    20.940596    7266.8422     4048.365    4620.4256     6619.878    514.44162   -898.75534    377.06181   -2928.3786 
20383000    239.31455   -3909.7023   -3499.5253   -3909.7023            0    5104.9761    17.190597    20.248253    20.972489    7300.0947    6220.1582    3711.7039    5383.0661    335.40704    16.360274    290.77841   -2956.0271 
20384000    237.70478   -3914.6325   -3507.2147   -3914.6325            0    6520.6014    17.142965    20.192149    20.914378    7239.5811    7370.7964     5140.467    7050.5407   -773.15383   -995.90657    1403.7484   -2818.7574 
20385000     239.3166   -3930.2634   -3520.0829   -3930.2634            0    7984.1511    17.114097    20.158146    20.879158    7203.0685    8441.8646    7913.6067    7596.9821    911.18315    993.24085    469.19804   -2681.3529 
20386000    244.79056   -3908.1862   -3488.6235   -3908.1862            0    5143.6185    17.212642    20.274219    20.999383    7328.2151    5497.8809    6267.7437    3665.2309    32.989044    2530.1019   -723.49945   -2938.9018 
20387000     237.4254   -3916.8783   -3509.9393   -3916.8783            0    5527.2931    17.152858    20.203801    20.926447    7252.1215    5012.3107    4871.6222    6697.9462    -1467.722   -21.392938   -2462.6213   -2925.3465 
20388000     262.4687   -3930.9844    -3481.122   -3930.9844            0    6149.7293     17.23331    20.298563    21.024598    7354.6449    6482.9487    6563.8061    5402.4331   -1028.3438    690.61605   -155.26076   -2821.5024 
20389000    230.39661   -3923.6687   -3528.7768   -3923.6687            0    5069.8314    17.176847    20.232057    20.955713    7282.5913    4469.7812     4885.082    5854.6308   -960.32167    -530.3202    -252.4343   -2990.3144 
20390000    244.40197   -3892.4412   -3473.5445   -3892.4412            0    4665.0405     17.23035    20.295076    21.020987    7350.8556    3192.9066    5114.9615    5687.2533   -579.06369   -1436.3215   -169.81716   -2973.4303 
20391000    250.77342    -3923.509    -3493.692    -3923.509            0    6903.9776    17.157404    20.209156    20.931993     7257.889    5737.9098    7943.6419    7030.3812    372.20055    185.75964   -1285.4299   -2762.9138 
20392000    243.69028   -3918.4608    -3500.784   -3918.4608            0    4107.0086    17.243246    20.310266    21.036719    7367.3725    3829.1946    4770.0964    3721.7347   -673.49211    1395.2484    276.31993   -3059.5041 
20393000    239.98902    -3920.157   -3508.8241    -3920.157            0    6474.0175    17.172452    20.226881    20.950352    7277.0031    7695.0029    7011.8249    4715.2247   -1533.3193    50.837084    -400.0546    -2821.752 
20394000    245.94204   -3928.2163     -3506.68   -3928.2163            0    4643.2784    17.264778    20.335628    21.062989    7395.0073    5255.0741    4905.8955    3768.8656   -592.00872    477.50633   -923.48507    -3005.909 
20395000    244.45274   -3878.4458   -3459.4622   -3878.4458            0    6098.2282    17.255262    20.324419    21.051379    7382.7851    7638.3996    5429.3943    5226.8907   -472.49279     806.3904   -172.58752   -2802.8638 
20396000     240.7307   -3919.7313   -3507.1271   -3919.7313            0    6314.5772    17.180461    20.236313    20.960122    7287.1884    6307.7629    6171.1521    6464.8167   -87.779225    147.38905   -187.53983    -2836.038 
20397000    253.30506   -3956.6765   -3522.5203   -3956.6765            0    5480.6717    17.202566    20.262351    20.987091    7315.3536    5133.9042    5312.7041    5995.4068   -1284.0286   -457.62135   -334.20251   -2937.8043 
20398000    244.35566   -3921.8792   -3503.0619   -3921.8792            0    6836.4644    17.085735    20.124739    20.844557     7167.317    6435.7599    5412.0428    8661.5906   -196.08877    523.34104   -758.06495   -2788.4602 
20399000    255.65547   -3891.3102   -3453.1255   -3891.3102            0    5286.3209    17.248417    20.316357    21.043028     7374.003    6752.6776     6308.134    2798.1511    1321.7022   -832.54355   -1707.0017   -2884.6225 
20400000    239.55472   -3916.8625   -3506.2739   -3916.8625            0    6853.1092    17.199818    20.259113    20.983737    7311.8473    6540.2518    5961.0887     8057.987   -654.23995   -327.00631    1130.9478   -2775.4872 
20401000    255.15576   -3910.5345   -3473.2063   -3910.5345            0    4595.2477    17.206254    20.266694     20.99159     7320.059    5593.5548    5034.7671    3157.4211   -45.689321    870.31142    1017.9193   -2982.6381 
20402000    238.67239   -3928.5728   -3519.4965   -3928.5728            0    6313.0177    17.163824    20.216717    20.939825    7266.0389    6314.0257    6460.9773    6164.0501   -973.87276   -203.97953    859.50536   -2850.5204 
20403000    247.08984   -3930.1157   -3506.6122   -3930.1157            0    5663.6831    17.187561    20.244676    20.968784    7296.2268    5877.2795     3987.727    7126.0427   -396.27471    -358.1134   -504.02239   -2903.9511 
20404000    248.58011    -3975.693   -3549.6352    -3975.693            0    4340.2582    17.218683    20.281334    21.006753    7335.9335     4793.293    4630.7925     3596.689    -842.8894   -295.25938    1236.0848   -3085.2838 
20405000    245.42251   -3930.8614   -3510.2156   -3930.8614            0    7621.2528    17.140092    20.188765    20.910873    7235.9418    9754.0725    6877.1427    6232.5432    400.86286   -1130.8323    856.01133    -2705.954 
20406000    226.65201   -3936.8846   -3548.4108   -3936.8846            0    7104.3505    17.172024    20.226376    20.949829    7276.4583      5890.37    6490.7551    8931.9265   -367.79514   -954.76722    650.59559   -2794.4994 
20407000    249.31657   -3956.2085   -3528.8885   -3956.2085            0    5115.0979    17.128461    20.175064    20.896682    7221.2206    5420.5303    5709.7712    4214.9921   -30.974221   -516.24766   -88.591363   -2990.1966 
20408000    239.40226   -3936.6633    -3526.336   -3936.6633            0    5760.2414    17.175788    20.230809    20.954421    7281.2437    4322.5633     6070.411    6887.7499    -662.3977   -748.85927   -337.39877    -2914.659 
20409000    246.57102   -3946.1585   -3523.5442   -3946.1585            0    3342.4704    17.236142    20.301898    21.028052    7358.2705    5623.8242    2363.9787    2039.6084    250.98742    64.911268   -389.91114   -3164.8542 
20410000    257.29485   -3895.9607   -3454.9661   -3895.9607            0    6677.4756    17.115552    20.159859    20.880933     7204.906     6006.788    7567.1275    6458.5113   -672.82138   -1314.9213    -736.4322   -2753.3226 
20411000    249.21925   -3946.5507   -3519.3975   -3946.5507            0    7682.7016    17.044826    20.076553    20.794647    7115.9564    6954.8041    6877.8268     9215.474   -1444.2714    1401.2735   -1288.0048   -2722.0949 
20412000    233.41498   -3904.7571   -3504.6919   -3904.7571            0    4861.8196    17.160323    20.212594    20.935554    7261.5944     5681.441    3540.2656     5363.752   -882.97518    497.50304    31.475796    -2989.811 
20413000    253.09364   -3916.6475   -3482.8537   -3916.6475            0     6074.855    17.151694     20.20243    20.925026    7250.6449    6367.3831    4435.4989    7421.6829    445.56262    1432.7971    826.72633    -2840.479 
20414000    247.86011   -3929.7574   -3504.9337   -3929.7574            0    4110.5102    17.168232    20.221909    20.945202    7271.6385    6661.4887    1885.9468     3784.095    599.22196    421.34943    1836.7995   -3069.0166 
20415000    257.94795   -3942.6026   -3500.4887   -3942.6026            0    6094.3279      17.1564    20.207973    20.930768    7256.6148    5363.0159    6636.1706    6283.7972    1152.5055    824.84326    1087.0568   -2855.5242 
20416000    251.20384   -3904.0535   -3473.4987   -3904.0535            0    6317.4289    17.125605    20.171701    20.893199    7217.6096    7445.0314    5331.9132    6175.3421     255.1835    282.02765    483.92816   -2808.5171 
20417000    243.88749   -3915.9502   -3497.9354   -3915.9502            0    6713.1984    17.102279    20.144226    20.864741    7188.1573    6173.8437    5210.5939    8755.1575   -1179.5873   -203.03398   -521.57505    -2794.178 
20418000    262.50932   -3920.0852   -3470.1532   -3920.0852            0     6134.003    17.172586    20.227038    20.950515    7277.1729    6952.3575    5425.9483    6023.7031     87.74008   -118.99445   -324.72903   -2819.1509 
20419000    252.08966   -3911.4326   -3479.3596   -3911.4326            0    5448.3293    17.228905    20.293375    21.019224    7349.0066    7600.9577    2533.3537    6210.6766   -68.228204    9.1881103    1240.6886     -2895.42 
20420000     261.1638   -3942.5912   -3494.9654   -3942.5912            0    7238.1363     17.16249    20.215146    20.938197     7264.345     7393.171    7812.1144    6509.1235    652.93075   -1133.3246    1026.1148   -2728.1354 
20421000    241.87271   -3906.1291   -3491.5676   -3906.1291            0    4347.2859     17.24017    20.306643    21.032967    7363.4312    5550.0759    3835.8689     3655.913    1444.8387    698.94957    1019.1203   -3024.7208 
20422000      250.925   -3927.2965   -3497.2197   -3927.2965            0    7405.9107    17.124708    20.170644    20.892104    7216.4754    7010.0329    7666.3165    7541.3826    288.23109   -1547.1764   -579.12739   -2717.7854 
20423000    249.70551   -3906.8818   -3478.8951   -3906.8818            0    5976.0141    17.087863    20.127245    20.847152    7169.9944    5514.5152    4965.9081    7447.6191    -65.76122   -205.64708   -1664.2601   -2854.0011 
20424000    243.33115   -3922.6799   -3505.6187   -3922.6799            0    6530.0818    17.109118    20.152281    20.873084    7196.7836    5285.0055    5746.3127    8558.9272    755.86021   -1465.6378    624.05764   -2820.2362 
20425000    244.96032   -3900.6373   -3480.7836   -3900.6373            0     5497.486     17.11142    20.154992    20.875892    7199.6886    3792.8739    5400.8951    7298.6891    333.46882   -139.10042    759.28249   -2903.5472 
20426000    251.80116   -3936.8992   -3505.3206   -3936.8992            0    5988.1803    17.122529    20.168077    20.889445    7213.7204    7315.5157    4874.3784    5774.6469    121.46869   -476.84086    166.27453   -2875.3358 
20427000    256.45212   -3923.2633   -3483.7132   -3923.2633            0    5448.3849    17.248428     20.31637    21.043042    7374.0177    5076.9766    5626.8485    5641.3295   -224.04444   -1187.7962    199.19986   -2897.7803 
20428000    261.11935   -3917.8759   -3470.3263   -3917.8759            0    5272.3828    17.207925    20.268663    20.993628    7322.1919    5355.6234    5278.2671    5183.2578    146.18262    1141.4157   -1100.5234   -2907.3061 
20429000    240.64577   -3918.7482   -3506.2896   -3918.7482            0    5628.9333    17.216761     20.27907    21.004408    7333.4765    8170.4094    4446.9482    4269.4425   -499.73185   -374.45101    533.19981   -2904.2683 
20430000    247.69337   -3912.2315   -3487.6936   -3912.2315            0    6474.3494     17.21479    20.276749    21.002003    7330.9586    7230.6716     6735.983    5456.3936    1381.5932   -756.54325    -551.3036   -2795.4917 
20431000    261.71701    -3911.498    -3462.924    -3911.498            0    6330.7831    17.214325    20.276201    21.001436    7330.3645    6705.3087    6109.3356    6177.7051    231.16229    395.76404    805.34955   -2786.1263 
20432000    250.61243    -3882.415   -3452.8739    -3882.415            0    7239.4965    17.147674    20.197695    20.920122    7245.5478    5471.2544    9075.8682     7171.367     681.1814     -262.668    -625.3307   -2687.8844 
20433000    237.78624    -3916.943   -3509.3855    -3916.943            0    5594.9718     17.17768    20.233038    20.956729    7283.6507    2298.0714    7512.1827    6974.6614    -22.30043   -394.28956    1041.7981    -2915.062 
20434000    246.01555   -3936.8492    -3515.187   -3936.8492            0     5416.673     17.19187    20.249752    20.974041    7301.7162    3896.6438    7950.7167    4402.6586    274.62158   -1828.4952   -1491.6761   -2938.3761 
20435000    248.54892    -3903.518   -3477.5136    -3903.518            0    4755.2396    17.166449     20.21981    20.943028     7269.374    4685.4028    5243.0145    4337.3016    855.22893    501.10839   -539.04456   -2973.3804 
20436000    250.89558   -3894.4795    -3464.453   -3894.4795            0    5569.3813    17.155124     20.20647    20.929211    7254.9956    6576.3173    5548.2736    4583.5531   -187.68603    326.67014   -482.59622   -2875.1753 
20437000    249.14713   -3918.7569   -3491.7273   -3918.7569            0    5991.9132    17.130707     20.17771    20.899422    7224.0613    5932.5033    4078.3862    7964.8501   -261.98102   -371.73934   -598.20331   -2860.4461 
20438000    258.48893   -3916.7219   -3473.6807   -3916.7219            0    5115.7761    17.158393     20.21032    20.933199    7259.1436    4925.5616    5277.8176    5143.9491    1857.0088   -1594.1126    -1406.289    -2932.088 
20439000    246.90619    -3934.152   -3510.9632    -3934.152            0    6178.2603     17.16749    20.221036    20.944298    7270.6964     4877.368    6013.9251    7643.4879    1130.0941    1043.2518    803.07679   -2855.8474 
20440000     259.7548   -3878.9793   -3433.7684   -3878.9793            0     5812.258    17.178263    20.233725    20.957441    7284.3929    5154.6114    7395.9714    4886.1914   -411.20095    -804.5483   -174.90669   -2816.3009 
20441000    261.04637   -3924.1769   -3476.7523   -3924.1769            0    4672.8932    17.194239    20.252543    20.976932    7304.7355    7851.5095    1799.3038    4367.8662   -352.76652   -683.72248   -338.51727   -2978.9393 
20442000    261.58108    -3929.797    -3481.456    -3929.797            0    6529.2089    17.113781    20.157773    20.878772    7202.6691    6146.1435    6239.2454    7202.2377     331.9991   -627.97579   -957.72188   -2795.6047 
20443000    252.62152   -3899.1662   -3466.1816   -3899.1662            0    3932.3348    17.143214    20.192442    20.914681     7239.896    5943.3988    2594.1134    3259.4922    1077.3474   -33.425657    710.72925   -3050.9803 
20444000    250.42381   -3890.4905   -3461.2727   -3890.4905            0    6281.6208    17.151052    20.201674    20.924243    7249.8307    6188.8916    6085.0976     6570.873   -357.01146   -401.61718   -490.12199   -2797.1085 
20445000    248.53725   -3917.5487   -3491.5643   -3917.5487            0    8011.4089    17.136586    20.184634    20.906595    7231.5016    6803.1679    7695.6976    9535.3611    122.92108   -310.39995   -1138.1081   -2646.6488 
20446000    256.84349     -3931.08   -3490.8591     -3931.08            0    3596.2612    17.222768    20.286146    21.011737    7341.1557    2323.8433    3849.2391     4615.701    865.77209   -1601.1673   -732.02979   -3105.8318 
20447000    234.93208   -3899.6219   -3496.9564   -3899.6219            0    5159.2142    17.110029    20.153354    20.874196    7197.9336    5389.0788    5816.2024    4272.3614    187.94403   -59.579551   -961.22637   -2955.3706 
20448000     245.2353   -3897.6143   -3477.2894   -3897.6143            0    3063.5781    17.201554    20.261159    20.985856    7314.0625    5260.6246    2315.6469    1614.4627   -1585.4782   -1561.5745    475.05163   -3150.5033 
20449000    260.98409   -3908.0107   -3460.6929   -3908.0107            0    6575.1085    17.127863     20.17436    20.895953    7220.4645    6920.1316     6968.921    5836.2729     370.7905   -266.95993   -421.31707   -2768.3138 
20450000    247.72666   -3913.2134   -3488.6183   -3913.2134            0    5638.4124    17.176071    20.231143    20.954766    7281.6041    6225.8979    4695.8285    5993.5107     845.0158    249.12222    668.25922   -2889.8487 
20451000    254.43004   -3899.9331   -3463.8487   -3899.9331            0    5103.9221    17.156264    20.207813    20.930603     7256.443    2711.9545     5430.371    7169.4409    43.275142   -1155.8466    287.72734    -2923.712 
20452000    257.93922   -3894.0655   -3451.9665   -3894.0655            0    4613.4899    17.172877    20.227381     20.95087    7277.5431    5976.7527    4318.9703    3544.7467    1255.7764    300.68706    209.86327   -2962.3114 
20453000    253.08517   -3907.9984   -3474.2191   -3907.9984            0    6564.9066    17.062575     20.09746    20.816302    7138.2101    5890.2312     8250.799    5553.6897   -909.77736     290.4435   -1306.4753   -2790.7895 
20454000    244.79125   -3912.5799   -3493.0161   -3912.5799            0    7043.0073    17.089796    20.129522    20.849511    7172.4279    6936.0231    7814.5924    6378.4065   -506.05216   -1035.9735   -1047.3263   -2756.2999 
20455000    240.06923   -3908.1034   -3496.6329   -3908.1034            0    6316.0402    17.112284     20.15601    20.876947    7200.7798    8347.2879    5027.5415    5573.2913   -714.57477    -382.9395    491.33935   -2833.3477 
20456000    233.64999   -3899.0853   -3498.6173   -3899.0853            0    5678.3531    17.083771    20.122426    20.842161    7164.8454    7739.5224    3160.4559    6135.0809   -242.95464   -1370.6066   -913.38317   -2905.2752 
20457000    250.06449   -3909.7845   -3481.1825   -3909.7845            0    5059.3701    17.183558    20.239962    20.963901     7291.131    3822.3227     4607.217    6748.5707   -960.18108    1054.5408    184.51753   -2943.2011 
20458000    253.54107   -3900.7443   -3466.1836   -3900.7443            0    7756.8398    17.059177    20.093458    20.812157    7133.9465     6273.696    8062.7326    8934.0909    2467.8606   -133.27893   -1555.9368   -2659.1519 
20459000     252.5049   -3927.4194   -3494.6347   -3927.4194            0    5953.1834    17.155641    20.207079    20.929842     7255.652    5829.6466    6508.2351    5521.6685   -862.00872    442.42052   -983.92743   -2864.6912 
20460000    263.69126   -3910.6964   -3458.7386   -3910.6964            0    6875.0209    17.128628    20.175262    20.896887    7221.4323    8267.1344    6890.2137    5467.7145   -112.48411   -10.337585   -326.52457   -2734.6808 
20461000    256.64174   -3952.8985   -3513.0234   -3952.8985            0    7371.4463    17.118895    20.163797    20.885012     7209.129    8951.9036    6247.4078    6915.0276    489.29102   -40.246142   -716.36509   -2738.0061 
20462000    261.03844   -3946.4475   -3499.0366   -3946.4475            0     5705.273    17.176304    20.231417    20.955051    7281.9004    4023.1126    6142.9575     6949.749   -563.84008   -388.69881    288.68375    -2893.142 
20463000    253.37991   -3900.9705    -3466.686   -3900.9705            0    5301.0472    17.173053    20.227588    20.951084    7277.7664    5706.8062    2241.7956    7954.5399   -8.6325827   -1820.0712    265.60947   -2904.0394 
20464000     243.4289    -3902.473   -3485.2442    -3902.473            0     7008.742    17.134783    20.182511    20.904395    7229.2194     8181.888    6248.7717    6595.5661    484.12715    591.35975    -454.2984   -2746.3073 
20465000    235.01374   -3954.1563   -3551.3507   -3954.1563            0    5987.2201    17.099267    20.140678    20.861066    7184.3603    5367.5727     6780.959    5813.1285   -205.76235   -1326.9787    460.01689   -2924.0306 
20466000    253.06203   -3923.2397   -3489.5001   -3923.2397            0    4127.7256    17.055633    20.089283    20.807833     7129.501     6004.925    4249.7951    2128.4569    174.29288    807.34062    914.85536   -3060.3138 
20467000    249.66583   -3936.7101   -3508.7914   -3936.7101            0    6628.7533     17.11881    20.163697    20.884908    7209.0213    6509.4086    7251.1297    6125.7216   -1319.8865    219.58173    241.81017   -2811.8696 
20468000    246.16235   -3904.0293   -3482.1154   -3904.0293            0      5502.86    17.113107     20.15698    20.877951    7201.8188    5190.8704    6626.2792    4691.4304   -1873.7289    75.649216    693.13993   -2904.1438 
20469000    245.33312   -3871.2937   -3450.8011   -3871.2937            0    5718.7189    17.124748    20.170691    20.892152    7216.5251    4885.9378    8747.0874    3523.1316   -212.32304   -724.45832    499.32831    -2848.931 
20470000    239.94229   -3912.2646   -3501.0117   -3912.2646            0    6175.6651    17.025198    20.053434    20.770701    7091.4016    4841.4742    7066.2766    6619.2444    613.55287   -587.16729     114.1083   -2862.3194 
20471000    244.15013    -3900.189   -3481.7241    -3900.189            0    5793.8172     17.04865    20.081058    20.799313    7120.7475    3985.2876    7041.8937    6354.2702   -12.187148    1309.0856     479.9772   -2880.0431 
20472000     249.5307   -3929.9316   -3502.2445   -3929.9316            0    6078.0634    17.082961    20.121471    20.841172    7163.8256    7867.5211    4591.9872    5774.6818   -1023.0608   -1183.1811    68.609319   -2867.2264 
20473000    243.01615   -3905.6106   -3489.0892   -3905.6106            0    5197.8539    17.148764    20.198978    20.921451    7246.9293    3128.1759    6663.3642    5802.0216   -1075.8936    1021.0843   -1566.5339   -2939.7331 
20474000     245.2811    -3910.643   -3490.2396    -3910.643            0    3409.9383    17.228501    20.292898     21.01873    7348.4887    3516.5947    904.93972    5808.2803    435.69046   -409.46477    473.58436   -3124.7959 
20475000     256.4883   -3921.3288   -3481.7166   -3921.3288            0    5714.8945    17.096781     20.13775    20.858033    7181.2267    4645.4982    8355.5434    4143.6417   -614.21703    30.906328   -37.104834    -2883.191 
20476000    253.76641   -3905.9055   -3470.9586   -3905.9055            0    4245.2476    17.184992     20.24165     20.96565    7292.9558    5865.7755     3250.236    3619.7312    203.72688   -1212.2963    1284.3692   -3019.4328 
20477000    276.25876   -3899.5639   -3426.0658   -3899.5639            0    5627.2021    17.190977    20.248701    20.972952    7300.5788    7468.4495    4064.5162    5348.6405    83.576197   -804.24644    698.63142   -2826.9294 
20478000    259.69567   -3902.3666   -3457.2571   -3902.3666            0     7477.878    17.106618    20.149336    20.870034    7193.6293    7404.8256    8243.2504    6785.5579    889.14738   -786.14548     43.36461   -2672.7402 
20479000    254.25728   -3927.8273    -3492.039   -3927.8273            0    3817.7571    17.268594    20.340123    21.067644    7399.9114    4116.0734    4563.1835    2774.0143   -1019.1994    611.26107   -542.30061   -3080.0262 
20480000    268.14159   -3921.8573   -3462.2718   -3921.8573            0    8233.2913     17.14484    20.194357    20.916664    7241.9559    9087.5346    7209.9513     8402.388   -1051.5048    440.19737   -817.34589   -2592.7004 
20481000    251.54547   -3914.5354   -3483.3951   -3914.5354            0    6726.9386    17.138513    20.186905    20.908946    7233.9419    6283.0135    6712.6099    7185.1924   -330.48827   -2291.2153   -201.37851   -2773.7056 
20482000    232.10083   -3890.0636   -3492.2508   -3890.0636            0    6273.9571    17.157022    20.208706    20.931527    7257.4046    6442.7391    3944.8105    8434.3216   -1409.5909   -71.957541    1892.1399   -2828.2038 
20483000    243.57985   -3907.6189   -3490.1314   -3907.6189            0    6679.3612    17.087046    20.126283    20.846156    7168.9667    5436.7747    6566.0294    8035.2796    247.11165   -1655.6401    824.51397   -2791.7907 
20484000    251.98238   -3885.0786   -3453.1894   -3885.0786            0    5408.5892     17.15117    20.201813    20.924387    7249.9805    6568.6773    5915.5807    3741.5095    2606.7715   -954.74562    245.33678   -2881.3202 
20485000    247.16045   -3923.3011   -3499.6765   -3923.3011            0    6372.0793    17.178201    20.233652    20.957365    7284.3137    4797.1574    5594.7239    8724.3566   -389.96296   -136.79652    445.71213   -2822.7435 
20486000    254.25756   -3923.7612   -3487.9725   -3923.7612            0    6574.9453    17.194322     20.25264    20.977032    7304.8405    7102.3061    5568.1237     7054.406    352.79689   -262.60309    977.32783   -2787.5199 
20487000    251.25125   -3891.6916   -3461.0556   -3891.6916            0    6777.9901    17.066928    20.102586    20.821612    7143.6741    5884.9115    7614.6739    6834.3847   -1865.9169   -526.40893   -408.25317   -2754.9031 
20488000    253.53899   -3903.1593   -3468.6022   -3903.1593            0    5678.8484    17.111872    20.155525    20.876444    7200.2599    5984.2708    4790.3888    6261.8856    613.56764    1850.1839   -995.71967   -2872.2754 
20489000    256.36798   -3908.5828   -3469.1769   -3908.5828            0    6193.3017    17.120928    20.166191    20.887492    7211.6968    6133.0229    6826.0472     5620.835    1907.6907    1015.9422    2128.5516   -2817.7951 
20490000    244.61808   -3904.3791   -3485.1121   -3904.3791            0     7086.873    17.114321    20.158409    20.879432    7203.3515    6295.2081    8490.4226    6474.9884   -1763.9422    160.61724    1257.5882   -2740.6114 
20491000     242.7573   -3935.1361   -3519.0584   -3935.1361            0    5115.4365    17.147818    20.197865    20.920298    7245.7309    5687.1591    4167.3426    5491.8078    105.78313    71.122357    900.85283   -2978.5023 
20492000    240.24813   -3918.6485   -3506.8714   -3918.6485            0    5146.5333     17.16178     20.21431    20.937332    7263.4442      4867.56    4645.1527    5926.8872    277.20168    175.68348    1187.5692   -2961.6997 
20493000    264.21913   -3953.9185    -3501.056   -3953.9185            0    3798.9913    17.259563    20.329485    21.056626    7388.3074    4344.0491    3856.0379     3196.887    1880.0054    816.38225    1101.2369   -3091.7113 
20494000    253.67569   -3936.1016   -3501.3101   -3936.1016            0    6721.2847    17.201204    20.260746    20.985428     7313.615     6038.038    6784.8373    7340.9788   -302.79125    949.46967    139.89501   -2784.4073 
20495000    251.19864   -3904.3205   -3473.7747   -3904.3205            0    5944.3042    17.195923    20.254526    20.978986    7306.8818    7166.4352    4419.9727    6246.5046     521.9981   -413.28403   -851.87236   -2840.3295 
20496000    236.42106   -3908.3334   -3503.1158   -3908.3334            0    6367.2446    17.163638    20.216498    20.939598    7265.8027    5965.8594    6114.4192    7021.4551   -956.00347    1727.0516    458.90183   -2828.4153 
20497000    245.07501   -3924.9542    -3504.904   -3924.9542            0    6000.7463    17.186658    20.243613    20.967682     7295.077    5628.1591    5512.9249    6861.1548    807.49787     -356.836    569.09531   -2866.4773 
20498000    262.93125   -3899.2056   -3448.5504   -3899.2056            0     6546.228    17.135521    20.183381    20.905296    7230.1541    6024.3456    6626.0456    6988.2928    60.650515   -847.50148    1060.2405   -2758.2875 
20499000    243.32033   -3927.1637    -3510.121   -3927.1637            0    5821.9925    17.137949     20.18624    20.908258    7233.2278    5653.7532    7047.9427    4764.2817   -556.20583    780.89134   -847.66128   -2895.9636 
20500000    249.10062   -3869.7165   -3442.7666   -3869.7165            0    3986.2409     17.23594     20.30166    21.027806     7358.012    4690.5514    4672.6105    2595.5608   -222.02355    362.27967    152.73001   -3015.0068 
Loop time of 604.083 on 64 procs for 250000 steps with 864 atoms

Performance: 71.513 ns/day, 0.336 hours/ns, 413.850 timesteps/s
99.1% CPU use with 64 MPI tasks x 1 OpenMP threads

MPI task timing breakdown:
Section |  min time  |  avg time  |  max time  |%varavg| %total
---------------------------------------------------------------
Pair    | 21.048     | 26.316     | 31.409     |  49.6 |  4.36
Bond    | 0.25909    | 0.28332    | 0.30933    |   1.6 |  0.05
Kspace  | 259.7      | 275.61     | 293.96     |  46.7 | 45.62
Neigh   | 5.5131     | 6.5063     | 8.171      |  27.8 |  1.08
Comm    | 126.88     | 146.44     | 163.35     |  67.9 | 24.24
Output  | 1.3409     | 1.3421     | 1.3503     |   0.1 |  0.22
Modify  | 136.1      | 140.81     | 146.31     |  26.5 | 23.31
Other   |            | 6.771      |            |       |  1.12

Nlocal:        13.5000 ave          18 max          10 min
Histogram: 4 9 7 13 0 13 8 3 4 3
Nghost:        2175.36 ave        2221 max        2133 min
Histogram: 3 5 4 10 9 16 5 7 1 4
Neighs:        4197.89 ave        5878 max        2543 min
Histogram: 3 4 4 12 12 9 5 6 7 2

Total # of neighbors = 268665
Ave neighs/atom = 310.95486
Ave special neighs/atom = 2.0000000
Neighbor list builds = 12787
Dangerous builds = 0

unfix		3
unfix		2
unfix		1

write_data	data.final.${pid}
write_data	data.final.0
System init for write_data ...
PPPM initialization ...
  extracting TIP4P info from pair style
  using 12-bit tables for long-range coulomb (../kspace.cpp:340)
  G vector (1/distance) = 0.37456456
  grid = 24 24 25
  stencil order = 5
  estimated absolute RMS force accuracy = 0.0030384532
  estimated relative force accuracy = 9.1502116e-06
  using double precision FFTW3
  3d grid and FFT values/proc = 2730 288
Last active /omp style is kspace_style pppm/tip4p/omp
WARNING: Not all mixed pair coeffs generated from mixing. Use write_data with 'pair ij' option to store all pair coeffs. (../write_data.cpp:312)

write_restart   restart.lmp.${pid}
write_restart   restart.lmp.0
System init for write_restart ...
PPPM initialization ...
  extracting TIP4P info from pair style
  using 12-bit tables for long-range coulomb (../kspace.cpp:340)
  G vector (1/distance) = 0.37456456
  grid = 24 24 25
  stencil order = 5
  estimated absolute RMS force accuracy = 0.0030384532
  estimated relative force accuracy = 9.1502116e-06
  using double precision FFTW3
  3d grid and FFT values/proc = 2730 288
Last active /omp style is kspace_style pppm/tip4p/omp
Total wall time: 0:10:08
