#include		in.partitions
include		in.temp
variable        temperature equal 137.10
variable	tempDamp equal 100.0
include		in.pressure
variable        pressure equal 9668.8
variable        pressureDamp equal 1000.0 # This is 1 ps
include		in.seed
variable        seed equal 745823

units		real
atom_style	full

read_restart	restart.lmp.${pid}
read_restart	restart.lmp.1
Reading restart file ...
  restart file = 30 Jul 2021, LAMMPS = 30 Jul 2021
  restoring atom style full from restart
  orthogonal box = (0.22627091 0.064184128 0.17608343) to (19.773730 19.935817 20.523915)
  4 by 4 by 4 MPI processor grid
  restoring pair style lj/cut/tip4p/long/omp from restart
  restoring bond style harmonic/omp from restart
  restoring angle style harmonic/omp from restart
  972 atoms
  648 bonds
  324 angles
Finding 1-2 1-3 1-4 neighbors ...
  special bond factors lj:    0        0        0       
  special bond factors coul:  0        0        0       
     2 = max # of 1-2 neighbors
     1 = max # of 1-3 neighbors
     1 = max # of 1-4 neighbors
     2 = max # of special neighbors
  special bonds CPU = 0.007 seconds
  read_restart CPU = 0.016 seconds
include 	in.setup
variable	out_freq equal 1000
variable	out_freq2 equal 10000
variable	out_freq3 equal 1000

timestep	2.0

neigh_modify    delay 7 every 1

include		in.tip4p
# This is TIP4P/Ice

# create groups ###
group ox type 2
324 atoms in group ox
group hy type 1
648 atoms in group hy

# set charges - beside manually ###
set group ox charge -1.1794
Setting atom values ...
  324 settings made for charge
set group hy charge 0.5897
Setting atom values ...
  648 settings made for charge

# ### TIP3P Potential Parameters ###
pair_style lj/cut/tip4p/long/omp 2 1 1 1 0.1577 8.5
pair_coeff 1 1*2 0.000 0.000
pair_coeff 2 2 0.21084 3.1668
bond_style  harmonic
bond_coeff  1 450 0.9572
angle_style harmonic
angle_coeff 1 55 104.52
kspace_style pppm/tip4p/omp 1.0e-5
pair_modify tail yes

thermo          ${out_freq}
thermo          1000
thermo_style    custom step temp pe etotal epair emol press lx ly lz vol pxx pyy pzz pxy pxz pyz enthalpy

restart 	${out_freq3} restart.lmp.${pid} restart2.lmp.${pid}
restart 	1000 restart.lmp.${pid} restart2.lmp.${pid}
restart 	1000 restart.lmp.1 restart2.lmp.${pid}
restart 	1000 restart.lmp.1 restart2.lmp.1


include         in.dump
dump            myDump all atom ${out_freq2} dump.water.${pid}
dump            myDump all atom 10000 dump.water.${pid}
dump            myDump all atom 10000 dump.water.1
dump            myDump2 all dcd ${out_freq2} dump.dcd
dump            myDump2 all dcd 10000 dump.dcd
dump_modify     myDump append yes
dump_modify     myDump2 append yes


variable natoms 	equal  "count(all)"                        # NUMBER ATOMS
variable H      	equal  "enthalpy/v_natoms"                 # ENTHALPY-per-atom
variable Vol      	equal  "vol/v_natoms"                 # volume-per-atom
fix AVG all 		ave/time ${out_freq} 1 ${out_freq} v_Vol v_H file vol_enthalpy.dat
fix AVG all 		ave/time 1000 1 ${out_freq} v_Vol v_H file vol_enthalpy.dat
fix AVG all 		ave/time 1000 1 1000 v_Vol v_H file vol_enthalpy.dat


timer           timeout 02:55:00 every 1000
New timer settings: style=normal  mode=nosync  timeout=02:55:00

fix 		1 all shake 1e-6 200 0 b 1 a 1
       0 = # of size 2 clusters
       0 = # of size 3 clusters
       0 = # of size 4 clusters
     324 = # of frozen angles
  find clusters CPU = 0.001 seconds
fix             2 all nph aniso ${pressure} ${pressure} ${pressureDamp}
fix             2 all nph aniso 9668.8 ${pressure} ${pressureDamp}
fix             2 all nph aniso 9668.8 9668.8 ${pressureDamp}
fix             2 all nph aniso 9668.8 9668.8 1000
fix             3 all temp/csvr ${temperature} ${temperature} ${tempDamp} ${seed}
fix             3 all temp/csvr 137.1 ${temperature} ${tempDamp} ${seed}
fix             3 all temp/csvr 137.1 137.1 ${tempDamp} ${seed}
fix             3 all temp/csvr 137.1 137.1 100 ${seed}
fix             3 all temp/csvr 137.1 137.1 100 745823


run             250000
PPPM initialization ...
  extracting TIP4P info from pair style
  using 12-bit tables for long-range coulomb (../kspace.cpp:340)
  G vector (1/distance) = 0.37262207
  grid = 24 24 24
  stencil order = 5
  estimated absolute RMS force accuracy = 0.0034553984
  estimated relative force accuracy = 1.040583e-05
  using double precision FFTW3
  3d grid and FFT values/proc = 2197 216
Last active /omp style is kspace_style pppm/tip4p/omp
Neighbor list info ...
  update every 1 steps, delay 7 steps, check yes
  max neighbors/atom: 2000, page size: 100000
  master list distance cutoff = 10.8154
  ghost atom cutoff = 10.8154
  binsize = 5.4077, bins = 4 4 4
  1 neighbor lists, perpetual/occasional/extra = 1 0 0
  (1) pair lj/cut/tip4p/long/omp, perpetual
      attributes: half, newton on, omp
      pair build: half/bin/newton/omp
      stencil: half/bin/3d
      bin: standard
Per MPI rank memory allocation (min/avg/max) = 9.227 | 9.228 | 9.230 Mbytes
Step Temp PotEng TotEng E_pair E_mol Press Lx Ly Lz Volume Pxx Pyy Pzz Pxy Pxz Pyz Enthalpy 
30750000    142.36943   -4945.2991   -4670.7277   -4945.2991            0    9412.9809    19.547459    19.871633    20.347831    7903.9101    9928.3686    9248.5157    9062.0583   -724.86866   -440.08884     239.5294   -3585.6894 
30751000    134.16282   -4948.6781   -4689.9338   -4948.6781            0    10047.234    19.538028    19.853117    20.270393    7862.6984    10379.324    8737.1318    11025.248   -292.29052    79.137587   -691.86112   -3537.8236 
30752000    136.68522   -4949.4786   -4685.8696   -4949.4786            0    9215.9263    19.763356    19.646587    20.244546     7860.603    9460.6658    8848.6191    9338.4941   -389.68941   -564.92707    1155.3045   -3629.3666 
30753000    138.75868    -4964.513   -4696.9052    -4964.513            0    9219.9661    19.710788    19.646894    20.382996    7893.4326    9499.0582    8904.7662     9256.074   -53.432437   -444.84772   -579.86257   -3635.5247 
30754000    133.74947   -4965.0669   -4707.1198   -4965.0669            0    9443.7848    19.639027    19.698734      20.2983    7852.6811    9027.7318    10034.708    9268.9146     -48.7491    1231.5116    199.64985   -3625.5865 
30755000    133.63505   -4943.4886   -4685.7622   -4943.4886            0    10881.568    19.643435    19.694332    20.264374    7839.5636    9118.7306    11957.248    11568.724   -597.74538   -131.46855   -81.782315   -3441.6509 
30756000    141.83285   -4950.3027   -4676.7661   -4950.3027            0     9603.785    19.442551    19.636285    20.530301    7838.0475    9448.2333     10494.82    8868.3023   -141.27933   -213.17822    815.99337   -3578.9585 
30757000    134.92042   -4950.3171   -4690.1118   -4950.3171            0    8741.6719     19.49313    19.784434    20.474956    7896.3827    10009.403    8309.4542    7906.1588    388.25622     982.8719    750.84308   -3683.4152 
30758000    134.79562   -4940.4324   -4680.4677   -4940.4324            0    12065.778    19.513826    19.797298    20.245655    7821.3224    13105.616    10632.542    12459.174    -165.4215   -596.57487   -1014.7327   -3304.1731 
30759000    141.38743   -4952.3075     -4679.63   -4952.3075            0    9122.8043    19.592376    19.769077    20.436138    7915.3901    9890.3403    8976.2012    8501.8713   -183.69031   -731.79477    354.27718   -3626.5131 
30760000    145.01192   -4960.0817    -4680.414   -4960.0817            0    9295.2825    19.402349    19.876086    20.377061     7858.266    10346.333    8069.1939    9470.3201   -81.944058   -48.104435    926.70887   -3615.1305 
30761000     132.6736   -4953.3529   -4697.4807   -4953.3529            0    9789.5783    19.578646    19.902029    20.252859    7891.6233    10190.119    9438.3811    9740.2351    116.53747    -271.0972    335.08986   -3570.7861 
30762000    141.54681   -4946.4495   -4673.4646   -4946.4495            0     8770.882     19.52428    19.955075     20.36425    7934.0841    10168.373    7528.4098    8615.8635   -136.34238    683.19988    1060.3041   -3658.5816 
30763000     143.1952   -4944.1646   -4668.0006   -4944.1646            0    10487.053     19.46717    19.734276    20.463018    7861.2881    11460.927    9816.7045    10183.527   -92.406728    880.44485   -119.85741   -3465.6723 
30764000     138.2683   -4966.3735   -4699.7115   -4966.3735            0    9659.8693    19.526073     19.81401    20.383633    7886.2196    11703.773    8501.0311     8774.804    697.53581   -403.10037     874.0079   -3588.7065 
30765000    131.48773   -4953.8148   -4700.2297   -4953.8148            0    9120.5601    19.749916    19.839019    20.193347     7912.136    8824.0201    9133.6604    9403.9997    -613.9118    -277.4869    490.34748   -3647.8047 
30766000    137.59865   -4960.1364   -4694.7658   -4960.1364            0    9592.4385     19.65685    19.817357    20.306328    7910.2655    9493.8191    9409.8464    9873.6502   -286.39757   -969.36385   -324.05993   -3588.1523 
30767000    137.40692   -4956.8556   -4691.8548   -4956.8556            0    9084.6099    19.603331    19.816746    20.255977    7868.9251    8726.9097    8474.9658    10051.954    748.54034   -42.136562    1109.2807   -3649.3032 
30768000    134.75508   -4964.8875    -4705.001   -4964.8875            0    9820.7219     19.80189    19.739553    20.147983    7875.4527    9726.4041    9560.3773    10175.384   -499.50844    453.16808   -77.662882    -3577.038 
30769000    142.68668   -4968.7151   -4693.5319   -4968.7151            0    9501.8683    19.612808    19.825529     20.28242    7886.5005    9987.9578    8613.4361     9904.211      340.589    492.64118    1581.6323     -3600.66 
30770000    134.47571    -4944.907   -4685.5593    -4944.907            0    10716.548    19.539168    19.663009    20.409438    7841.2824    9284.4334    11960.575    10904.637   -450.11041   -98.500602    288.57242   -3460.0463 
30771000    136.24257   -4967.4925   -4704.7372   -4967.4925            0    10111.328    19.615407    19.639229    20.385803    7853.2528      10699.2    9841.2189    9793.5653   -663.17999   -535.39204   -27.956092   -3546.6702 
30772000    134.81389    -4953.268   -4693.2681    -4953.268            0    9781.2413    19.630593    19.694318    20.413554    7892.1073    9875.3836    9761.9112    9706.4291   -148.45728    743.68278    56.260153   -3567.4639 
30773000    133.96305   -4960.1695   -4701.8105   -4960.1695            0    9767.7601    19.571932    19.634638    20.482059    7871.0053     10656.78     9314.463    9332.0372    232.86404   -1160.3113    215.28933   -3580.5641 
30774000    141.95689   -4934.9246   -4661.1488   -4934.9246            0    10224.738    19.566017    19.762637    20.329738    7861.0236    9846.6583     10610.81    10216.746    60.337111    612.82413    1191.5504   -3488.9341 
30775000     141.5263   -4948.0285   -4675.0832   -4948.0285            0    9976.5855    19.544627    19.690043    20.430451    7862.3432     9577.336    9497.5317    10854.889   -565.21211    49.712356    152.92208   -3531.1259 
30776000    144.49516   -4958.1794   -4679.5084   -4958.1794            0    9493.1196    19.777621    19.616687    20.378067    7906.1074    7311.2451    11609.832    9558.2816    -191.4928   -901.38874    -56.41351   -3584.9282 
30777000    142.64519   -4955.2253    -4680.122   -4955.2253            0    8016.0592    19.718584    19.685664      20.4308    7930.6937    7827.4591    8422.8179    7797.9006    48.122856    209.13026    212.94615   -3752.9763 
30778000    134.99319   -4954.6172   -4694.2714   -4954.6172            0    9654.3987    19.471977    19.575962    20.570956    7841.2919    8623.8671    11519.156    8820.1736    391.49634   -219.92651    627.50878   -3590.2214 
30779000    137.59582   -4957.0798   -4691.7147   -4957.0798            0     9446.702    19.678342    19.753889    20.337848    7905.8054    8690.3687    10250.318    9399.4197   -264.65235   -1043.9474    50.134297   -3602.5283 
30780000    138.03496   -4947.7801   -4681.5681   -4947.7801            0    7840.6965    19.870153    19.671394    20.223505    7904.8346    8009.1094    7725.6133    7787.3668    208.56681    241.07193   -731.06631    -3777.662 
30781000    144.97144   -4948.8182   -4669.2285   -4948.8182            0    11131.378    19.545969    19.673082    20.373449    7834.1911    11460.671     10869.87    11063.593   -623.63198   -368.04413    358.82651   -3397.4281 
30782000    143.13061   -4953.5318   -4677.4924   -4953.5318            0    10839.983    19.592793     19.64326     20.37514    7841.7051    11133.647    10078.649    11307.653    -377.4652    530.43812   -861.63225    -3437.797 
30783000    134.41871   -4944.6064   -4685.3686   -4944.6064            0    10235.546    19.444773     19.70133    20.556633    7874.9974    10004.333    10205.073    10497.231    -1174.171    165.69482    391.72346   -3509.8289 
30784000    133.19039   -4952.5132   -4695.6444   -4952.5132            0    10048.009    19.479621    19.685754    20.433698    7835.7313     9740.438    10449.591    9953.9985    899.67916   -376.53972   -181.59563    -3547.397 
30785000    134.14185   -4971.0371   -4712.3333   -4971.0371            0    10005.355    19.556152    19.812593    20.317971     7872.362    10050.568     9658.692    10306.806   -726.20757    882.87624   -361.85331   -3563.6152 
30786000    132.85506   -4960.5502   -4704.3281   -4960.5502            0    9935.3854    19.512238    19.851724    20.295389    7861.4509    10044.486    10039.769    9721.9016     105.2074    1170.8596    581.32792   -3565.2243 
30787000    137.22834   -4955.3086   -4690.6522   -4955.3086            0    10305.668    19.585182    19.732942    20.310974    7849.6482    9842.2696    11037.781    10036.952   -61.969446    1042.9354    757.88551    -3510.869 
30788000    141.57352   -4956.6779   -4683.6414   -4956.6779            0    9091.2819    19.638888     19.61416    20.541802    7912.7079    9301.1199    9072.5202    8900.2056   -199.68284    584.13087    1458.0958   -3634.5191 
30789000    136.91707   -4964.4319   -4700.3758   -4964.4319            0    9691.0101    19.541042    19.614103    20.529944    7868.7174    7719.1006    12880.078    8473.8516   -455.07055    -69.70324   -512.74512   -3588.2629 
30790000    133.98224   -4943.8223   -4685.4263   -4943.8223            0    10692.356    19.630115    19.658491    20.258042    7817.5467    10755.975    10296.044    11025.049   -943.28949    764.02232    541.94802   -3466.3811 
30791000    137.94719   -4947.9163   -4681.8736   -4947.9163            0    10259.909    19.557981    19.767975    20.267345    7835.7949    9806.4183    10272.302    10701.008    498.45695   -297.15739     1487.126   -3509.4016 
30792000    134.18992   -4947.9564   -4689.1598   -4947.9564            0    10176.834    19.455204    19.701526     20.44018    7834.6642    9998.2362    10530.984     10001.28   -673.17819    273.13611   -755.39847   -3526.3493 
30793000    136.92207   -4948.9061   -4684.8404   -4948.9061            0    9229.8467    19.559285    19.917312    20.245363    7886.9535    8474.4747    9149.0601    10066.005   -629.65503   -246.69903   -269.34698   -3623.1945 
30794000    133.15017   -4965.6187   -4708.8274   -4965.6187            0    10541.207    19.446879    19.813202    20.372733    7849.7149    10596.155    9665.1327    11362.334   -220.49811   -851.50832     1442.227   -3502.0696 
30795000    132.78196    -4957.927   -4701.8458    -4957.927            0    10906.017    19.434485    19.774023    20.375181    7830.1404    12248.243    9236.0586    11233.748    -720.2707    1178.0128   -30.639987    -3456.438 
30796000    133.48587   -4959.4821   -4702.0434   -4959.4821            0    9607.5999    19.628813     19.77435    20.342746    7895.9763    9949.9964    9680.3798    9192.4236   -430.46533   -431.20211    260.25895    -3595.683 
30797000    142.62199   -4971.6254   -4696.5669   -4971.6254            0    9514.3001    19.566673    19.722117    20.425975    7882.3064    8988.3281    10169.976    9384.5958   -615.59138    13.696576    1507.5607   -3602.8472 
30798000    129.02258   -4955.9272   -4707.0963   -4955.9272            0    8650.1901    19.495976    19.641011    20.558759    7872.3735    9263.7571    7859.3486    8827.4647   -312.77531     574.6998   -165.55538   -3713.9637 
30799000    133.73449   -4940.5621   -4682.6439   -4940.5621            0    10504.974    19.593356    19.640098    20.409343    7853.8305    10955.721     10776.17    9783.0307    183.65742    -265.7183    648.78055   -3479.4035 
30800000    129.32999   -4961.1872   -4711.7635   -4961.1872            0    8230.0317    19.754547     19.64185    20.399974    7915.5137    7319.4557     9698.426    7672.2133   -164.55979    -742.0748  -0.75902678   -3761.6915 
30801000    147.34774   -4941.1621   -4656.9896   -4941.1621            0    10169.866    19.691838    19.661219    20.413087    7903.2439    10589.882    9631.9955    10287.719   -129.30891      1199.02    430.22305   -3484.8037 
30802000    130.15133   -4962.5515   -4711.5437   -4962.5515            0    8448.5805    19.744675    19.666829    20.424519    7931.1502     8848.913    8097.2376     8399.591   -809.09067   -152.75638   -1338.1427   -3734.3159 
30803000     130.6954   -4959.2538   -4707.1968   -4959.2538            0    9531.6082    19.644829    19.720151    20.281508    7857.0357    8563.4016    10475.692    9555.7305    169.42252   -721.85653    428.67734   -3615.0002 
30804000    140.68455   -4945.6294   -4674.3074   -4945.6294            0    9404.5491    19.543478    19.773165    20.329225    7855.9526    10426.861    8295.6704    9491.1159   -447.41894    697.82752   -104.98763   -3596.8188 
30805000    140.88329   -4962.4839   -4690.7786   -4962.4839            0    9535.3767    19.696093    19.728876    20.294874    7886.2182    9281.7038    9896.1938    9428.2325    109.05495     785.4634    440.00952    -3594.092 
30806000    143.70318   -4944.2107    -4667.067   -4944.2107            0    9335.9821    19.461569    19.944573    20.284216    7873.3729    10196.303    8043.6974    9767.9461    -445.5418    -231.3322   -90.360779   -3595.0622 
30807000    127.94351   -4954.5196   -4707.7698   -4954.5196            0    9889.9431     19.47629     19.77952    20.410589    7862.8052    10117.326    10324.918    9227.5851    -174.3907    1567.8022   -675.44749   -3573.6806 
30808000    140.10758   -4954.8528   -4684.6435   -4954.8528            0    10281.739    19.432558    19.811044    20.300678    7815.3396    12562.917      7620.67     10661.63   -196.19418    80.326797    1225.9306   -3512.7441 
30809000    139.77651   -4961.3262   -4691.7554   -4961.3262            0    9909.3248    19.629819    19.678854    20.355148    7863.0379    11158.874    8618.5833    9950.5167   -371.14659    19.510277    1407.8676   -3555.4101 
30810000    135.78374   -4954.1148   -4692.2444   -4954.1148            0    9314.0553    19.823562    19.736188    20.138883    7879.1676    8238.2199    9506.6708    10197.275    -346.1861   -204.12758    91.579346   -3621.9703 
30811000    136.92432   -4950.8441    -4686.774   -4950.8441            0    9894.0685    19.775692     19.58576    20.402772    7902.4412     8897.285    10720.362    10064.559   -327.71168    1571.8659    414.05154   -3546.4925 
30812000    141.95362   -4944.7585    -4670.989   -4944.7585            0    9279.7801    19.686077     19.68236    20.371496    7893.3121    8388.8482    9289.0422     10161.45    256.92205   -164.85825   -145.70289   -3602.7391 
30813000     138.0166    -4934.903   -4668.7263    -4934.903            0     10980.36    19.598102    19.611203    20.334793    7815.5219     12165.14    10293.652    10482.287   -176.02269   -184.86589    1174.1764   -3417.1699 
30814000    135.45382   -4949.1999   -4687.9658   -4949.1999            0    9837.5186    19.577025    19.637608    20.454503    7863.6503    10487.881     8961.789    10062.886   -208.68273    134.05402    212.75642    -3559.767 
30815000    138.28022   -4967.0278   -4700.3428   -4967.0278            0    9111.8026    19.601576    19.669804    20.500612    7904.1987    9697.9822    9775.4039    7862.0217    -120.7094    558.11259    321.06403   -3649.9831 
30816000    141.27939   -4939.9656   -4667.4964   -4939.9656            0    9042.3407    19.477655    19.698877     20.49667    7864.3247    7373.0827    10829.259    8924.6803   -670.34053   -648.19965   -239.40364   -3630.4023 
30817000    135.43141   -4957.5506   -4696.3597   -4957.5506            0    10192.508    19.773626    19.717046    20.165495    7862.0728    8827.0884    10875.281    10875.156   -796.04771     1428.139    207.56253    -3527.684 
30818000    139.59662   -4962.6058    -4693.382   -4962.6058            0    10262.009    19.702186    19.718117    20.221039    7855.6715    10833.812    8736.5932    11215.622   -384.33194      34.6768    -309.0511   -3517.6953 
30819000    130.62486   -4963.5079   -4711.5869   -4963.5079            0    8888.5456    19.579814    19.781023    20.357592    7884.6738    9329.0475    8281.9528    9054.6365   -249.84605    715.10211   -666.70033   -3689.4941 
30820000     140.3217   -4956.1893   -4685.5671   -4956.1893            0     9691.228    19.461585    19.857956    20.348795    7864.1438    9958.3205    9316.2271    9799.1363    -469.1944   -719.78235     -794.743   -3574.0756 
30821000     134.9105   -4945.1078   -4684.9216   -4945.1078            0    9255.5171    19.447832    19.811318      20.4289    7870.9935    8161.1505    11015.569    8589.8315   -926.66412    1011.1542    -254.3712   -3622.4774 
30822000    143.30416   -4934.3237   -4657.9496   -4934.3237            0    9822.1623    19.347672    19.820275      20.5936    7897.1553    12891.089    7970.3299    8605.0685    486.41522   -304.72211   -140.54192   -3526.7124 
30823000    130.81112   -4961.9553    -4709.675   -4961.9553            0    7689.6131    19.454826    19.834602     20.40665    7874.4924    8876.3912     5955.548    8236.9001    221.09109   -384.44142    44.746276   -3826.5891 
30824000    133.07718   -4957.2484   -4700.5979   -4957.2484            0    10977.511    19.829613    19.626667    20.175867    7852.2294    10385.237    11759.521    10787.775    302.74757   -398.49548    2085.5124   -3443.4894 
30825000    136.97837   -4966.0261   -4701.8518   -4966.0261            0    8331.5735    19.645995    19.593626    20.555725    7912.6442    8316.8051    8649.1313     8028.784   -41.336361    130.35119   -905.63489   -3740.4066 
30826000    141.87977    -4967.525    -4693.898    -4967.525            0    9760.4339    19.742979    19.667491    20.323314    7891.4386    9184.5833    10041.805    10054.914    316.64941    869.92263    119.68489   -3570.5839 
30827000    130.69095   -4971.8209   -4719.7724   -4971.8209            0    7861.8565    19.601641    19.679415    20.518972    7915.1694    8163.9769     9109.109    6312.4835    164.16832   -175.21093   -431.61605   -3812.2419 
30828000    144.48691   -4958.2121   -4679.5569   -4958.2121            0    9637.2422    19.580713    19.834817    20.367571    7910.3546    10695.625    8284.9078    9931.1936    17.303558   -1058.9327    503.62687   -3567.7622 
30829000    128.89653   -4954.5937   -4706.0059   -4954.5937            0    9195.3202    19.426713    19.846041    20.494203    7901.4037    9772.4281    8788.6945     9024.838   -231.50287    1369.4558   -513.98162   -3646.3936 
30830000    137.52034   -4942.9924   -4677.7728   -4942.9924            0    9806.2132    19.506746    19.707235    20.504876     7882.567    11145.769    9356.2639    8916.6065    136.91289   -781.64697   -513.80761   -3550.4589 
30831000    138.73835   -4961.0065    -4693.438   -4961.0065            0    8912.9496     19.58721    19.693125    20.566493    7933.1826    10088.897    7849.6108    8800.3415   -105.88733    399.04374    310.29455   -3662.2335 
30832000    129.04154   -4958.1939   -4709.3264   -4958.1939            0    9327.2119    19.773813    19.760929    20.262831    7917.6793    9076.1345    8758.5262    10146.975   -492.86952   -128.60313     195.9082   -3632.3018 
30833000    139.79519   -4948.9877    -4679.381   -4948.9877            0    10132.026    19.520743     19.67861    20.372321    7825.8456    9346.3615    10886.321    10163.395   -626.01218    -681.1074   -895.55665   -3522.9933 
30834000    144.64304   -4947.5768   -4668.6205   -4947.5768            0    9336.7661    19.441939     19.74918    20.524472    7880.6246    11475.273    8425.3196    8109.7051    128.91905   -1266.8412   -1207.1605   -3595.5383 
30835000    133.07743   -4960.9923   -4704.3412   -4960.9923            0    9021.5372    19.708488    19.779426    20.268119    7900.9703    7836.2654    9355.3604    9872.9859    155.40536    85.078851    266.28455   -3664.8116 
30836000    130.57968   -4949.5491   -4697.7152   -4949.5491            0    9731.4287     19.51476    19.769887    20.423487    7879.4757    9613.9613    10015.402    9564.9222    398.26862    236.73201   -862.82737   -3579.4371 
30837000    135.64727   -4960.7194   -4699.1122   -4960.7194            0    8364.7964    19.444284    19.717926    20.520638     7867.632    10832.764    6867.1393     7394.486   -173.70556    193.40225    507.43433   -3739.3242 
30838000    142.68878   -4962.6167   -4687.4294   -4962.6167            0    10418.662    19.530889    19.868308    20.227761    7849.2958    10286.939    9388.7893    11580.258    54.586618    939.68897   -1509.5741   -3494.7642 
30839000     133.8535   -4968.7229   -4710.5751   -4968.7229            0    10500.553    19.488291    19.717848    20.408546    7842.3338    12034.686    9107.2803    10359.692   -968.84226    1071.9464   -855.65285   -3509.6018 
30840000    137.14387   -4955.3446   -4690.8511   -4955.3446            0    10416.687     19.61415    19.736568    20.242328     7836.129    11237.549    10015.892    9996.6209   -388.86394     870.6578    1066.4918   -3500.4122 
30841000    135.78232   -4960.6799   -4698.8123   -4960.6799            0     9758.821    19.654996     19.71495    20.292175    7863.1624    8334.9955    11375.172     9566.295   -80.232469    525.79615   -514.36665   -3579.7082 
30842000    130.82444    -4942.565   -4690.2591    -4942.565            0    12015.368     19.61967    19.644237    20.328242     7834.778    10940.162    12337.831    12768.111      -106.87   -120.58742   -93.685085   -3317.3567 
30843000     142.0395   -4953.7283   -4679.7931   -4953.7283            0    10488.202    19.604507    19.621885    20.459837    7870.4366     10222.15     11416.42     9826.035    -328.7527    953.10085   -610.41539   -3475.9338 
30844000    125.36383   -4935.2251   -4693.4504   -4935.2251            0    10330.155    19.581718    19.734451    20.398243    7882.5841    11504.333    9482.8147    10003.319   -83.583383    1062.8186   -488.55959   -3505.9019 
30845000     139.1195    -4984.404   -4716.1003    -4984.404            0    8853.4118     19.59127    19.725932    20.376105    7874.4691    9662.5183    7773.2466    9124.4704    503.88361    1526.2418    348.62958   -3699.3652 
30846000    136.54653   -4956.5995    -4693.258   -4956.5995            0    8379.4185    19.594114    19.693575    20.532192    7922.9242    8862.6972    9141.7695    7133.7889    95.579347    75.721207    980.97512   -3725.0353 
30847000    142.30696   -4966.8986   -4692.4477   -4966.8986            0    9751.2592    19.581693    19.652938    20.473256    7878.8827    10736.428    9563.9151    8953.4349     319.4002    528.50451    275.48085   -3571.9752 
30848000    142.39286   -4965.7901   -4691.1735   -4965.7901            0     10756.88    19.549331    19.605282    20.459171    7841.3895    11304.864    11297.059    9668.7156    85.166945    -937.1104   -12.514854   -3461.0316 
30849000    137.55525   -4957.6423   -4692.3554   -4957.6423            0    9621.2082    19.357357    19.736509    20.575773    7860.9047     9744.887    8510.2948    10608.443    64.870976    266.18072   -823.75724    -3589.349 
30850000    137.38176   -4955.1598   -4690.2075   -4955.1598            0    10673.243    19.573549    19.727565    20.313075    7843.6597    11934.739    8684.6218    11400.368    346.17009    993.12533     921.7174   -3469.2768 
30851000    129.81608   -4963.4356   -4713.0744   -4963.4356            0    10606.648    19.626787    19.642405    20.351338    7845.7929    9115.7135    11492.646    11211.584   -165.72985    -1370.196    1183.2462   -3499.4316 
30852000    144.35792    -4962.948   -4684.5417    -4962.948            0    10814.817    19.455269    19.742947    20.429173    7846.9341    11795.747    9240.3411    11408.362   -300.36838   -1067.1303    1215.9252   -3446.8996 
30853000    135.28015   -4936.9993   -4676.1001   -4936.9993            0     10100.34    19.378534    19.697075    20.568803    7851.1212    10953.252    9269.0471    10078.722    34.555014   -15.777099    -342.4656   -3519.6056 
30854000    140.27863   -4954.1255   -4683.5863   -4954.1255            0    9063.0241    19.649881    19.611033    20.474756    7890.0387    9633.6351    9092.3145    8463.1227   -464.12249   -404.16992    325.81107   -3640.7212 
30855000    149.92725     -4960.76   -4671.6127     -4960.76            0    9162.2922    19.679848    19.627669    20.409572    7883.5962    8127.8707    10639.508    8719.4976   -317.22854    67.579349    73.639726   -3618.1858 
30856000    125.14171   -4945.0153    -4703.669   -4945.0153            0    8640.6622     19.61707    19.702756    20.347005     7864.328    7662.9161    8406.9734    9852.0972    193.70272     542.3509   -469.65494   -3712.6442 
30857000    138.58843   -4961.7399   -4694.4604   -4961.7399            0    10079.314    19.728479    19.725617    20.314683    7905.5893     9740.763    11269.601    9227.5777   -598.25768   -1130.3488     180.8435   -3532.3668 
30858000    135.55592   -4945.0829   -4683.6519   -4945.0829            0    9982.3881    19.659835    19.737467    20.324934     7886.793    9483.6878    10393.449    10070.028   -254.95001   -604.95322   -183.34555   -3535.4698 
30859000    138.00345   -4958.0042   -4691.8529   -4958.0042            0     9635.245    19.587031    19.765704    20.327337    7869.7581    9895.1134    9379.4173    9631.2044  -0.93511017   -232.93803    1224.4414   -3585.9932 
30860000    143.51862   -4949.2064   -4672.4187   -4949.2064            0    10443.053    19.451956    19.609225    20.563617    7843.7402    9939.6705    11130.026    10259.464   -206.19665   -319.73159    678.61035   -3477.8075 
30861000    142.48257   -4952.3742   -4677.5845   -4952.3742            0    9336.5691    19.553641    19.740553    20.407921    7877.4511    11323.588    7942.9382    8743.1814   -619.60888    805.02281    1041.9225   -3604.9571 
30862000    136.53571    -4953.379   -4690.0584    -4953.379            0    9117.0177    19.494424    19.769974    20.497389    7899.7813    10509.006    8649.9859    8192.0614   -499.70725    454.95154   -421.21959   -3639.6849 
30863000    133.92378   -4963.5598   -4705.2765   -4963.5598            0    9790.1938    19.469786    19.737591    20.459414    7862.2803    10535.204    9319.7968    9515.5809    -966.0033    854.74202    229.07624   -3582.7007 
30864000    140.81523   -4951.4006   -4679.8266   -4951.4006            0    9240.5366    19.462024    19.797155    20.372216    7849.2659     8838.603    9683.8134    9199.1933   -130.55682   -69.645769   -327.37446   -3622.0301 
30865000    139.85237   -4966.4027   -4696.6857   -4966.4027            0    7529.2493    19.532621    19.789768    20.440217     7901.085    8159.0478    6891.6092    7537.0908   -393.46846    1173.3142    178.07696   -3829.0962 
30866000    132.53605   -4963.7272   -4708.1203   -4963.7272            0    9324.8407    19.509102    19.774889    20.391057    7866.6728    9243.5104    9003.7607     9727.251   -66.644609   -79.450824    316.62265    -3638.306 
30867000    129.17757   -4958.8265   -4709.6966   -4958.8265            0    9566.8867    19.487122    19.782571    20.448279    7882.9215    11229.695     8764.495    8706.4699   -525.10004   -76.710314    1428.4167    -3609.846 
30868000    133.85685   -4960.6053   -4702.4511   -4960.6053            0    8584.9003    19.614183    19.787298    20.278804    7870.4407    8497.8584    7369.6405    9887.2019    830.61717    996.76857    727.00221   -3717.0564 
30869000    127.57553   -4955.4886   -4709.4485   -4955.4886            0     9591.819    19.745547    19.704589     20.31017    7902.2383    9205.5835    9832.3483    9737.5253     476.0007   -97.861247    583.50389   -3604.0293 
30870000    138.27401    -4956.187   -4689.5139    -4956.187            0    10292.731    19.603869    19.683216    20.382183    7864.8157    10500.899     9835.386    10541.907   -674.52374    1635.3377   -575.07726   -3508.9349 
30871000     135.2352   -4965.6542   -4704.8417   -4965.6542            0    10682.821    19.579707    19.702573    20.331801    7843.4113    9407.6244    11675.848     10964.99   -29.380129   -953.31872   -170.91549   -3482.8541 
30872000    141.25335   -4942.7836   -4670.3646   -4942.7836            0    9992.5355    19.577785    19.553477    20.493768    7845.2965    9057.9961    10832.664    10086.947   -269.89852    411.78977   -373.30667   -3527.0627 
30873000    138.69828    -4959.693   -4692.2017    -4959.693            0    9002.8468     19.60702     19.80912    20.282192    7877.5588    8744.8465    9038.4661    9225.2277    -284.6333    707.56714    321.47844   -3657.8996 
30874000    142.68532   -4962.3891   -4687.2085   -4962.3891            0    9061.7273    19.794654    19.780318    20.131695    7882.4558    7633.5311    9268.5566    10283.094   -8.5007077   -60.655102   -415.48425   -3645.4946 
30875000    143.46722   -4949.0306    -4672.342   -4949.0306            0    10966.875    19.672501    19.648645    20.255266    7829.4292     9917.786    11012.407    11970.432   -54.629449   -1168.0434    670.18499   -3420.0982 
30876000    131.82031   -4972.1832   -4717.9567   -4972.1832            0    7595.6135    19.729544    19.660368     20.45008    7932.3835    6148.2784    8793.1168    7845.4454   -165.06099   -276.39637    862.12302    -3839.253 
30877000    136.53933   -4962.4472   -4699.1196   -4962.4472            0    9260.8134      19.6504    19.652313    20.452171    7898.1337    9536.3735    10369.355     7876.712    149.52946   -296.01167   -553.35886   -3632.4019 
30878000    137.36989   -4954.9737   -4690.0443   -4954.9737            0    10759.886    19.593136     19.66328    20.271398    7809.8665    10579.335    11655.741    10044.582   -584.65598   -583.65654    124.91315   -3464.5052 
30879000     145.9468   -4951.5979   -4670.1272   -4951.5979            0    10190.613    19.646592    19.676675    20.373772    7876.0846    11138.709     8996.923    10436.207   -141.70146   -547.01003    696.82897   -3499.5864 
30880000    131.16059   -4971.0152    -4718.061   -4971.0152            0    9435.2853    19.570675    19.630212    20.522865    7884.4026    9428.3245    10187.212     8690.319   -285.17343    298.39326    592.99252    -3633.136 
30881000    132.16985   -4962.8887    -4707.988   -4962.8887            0    10770.333    19.542714     19.54867    20.515113    7837.4718    10590.447    11260.617    10459.935    810.56201   -23.152303    -779.2687    -3476.923 
30882000    144.85496   -4950.9995   -4671.6345   -4950.9995            0    9677.8813    19.582697     19.71846     20.40989    7881.0875    9907.9933    9304.8722    9820.7783   -474.67173   -306.25126   -359.95103   -3559.2823 
30883000    141.73938   -4952.3965   -4679.0402   -4952.3965            0    9261.9482    19.461641    19.845176    20.470866    7906.2512    10398.896     8036.096    9350.8527   -269.24407    439.47142     69.81408   -3611.0953 
30884000    134.91375   -4970.2215    -4710.029   -4970.2215            0    9632.6276    19.527268    19.673508    20.603417    7915.2121    9845.6083    9876.0298    9176.2448   -464.03979    628.55857   -14.451856   -3598.0842 
30885000    141.46529   -4970.7214   -4697.8937   -4970.7214            0    8980.4492    19.535453     19.70204    20.439242    7866.8249    9695.6585    8297.8879    8947.8011   -429.75295   -1309.7492   -24.607469   -3667.5706 
30886000    141.58397   -4963.8123   -4690.7557   -4963.8123            0    10215.233    19.738703    19.714945    20.305214    7901.7223    7699.6111    11272.649    11673.438    416.98066   -627.59097    -33.65403   -3513.5674 
30887000    134.06851    -4963.378   -4704.8156    -4963.378            0     7773.202    19.526685     19.92996    20.287311    7895.1326    8612.9921    6443.5687    8263.0452    192.12485    848.23942    787.29384   -3809.7903 
30888000    138.88439   -4964.6064   -4696.7562   -4964.6064            0     10926.11    19.453845    19.679467    20.483975    7842.1117    11817.149     10173.43    10787.751    322.94425   -714.24963     680.6934   -3447.1462 
30889000    135.09935    -4972.894   -4712.3436    -4972.894            0    9465.7632     19.51322    19.732797    20.398607    7854.4917    9985.9395    8631.7328    9779.6172    182.97254    1608.5655     653.3673   -3628.0432 
30890000    140.71264   -4959.3094   -4687.9332   -4959.3094            0    9247.0626    19.674492    19.830687    20.246158    7899.2145    9155.3897    8063.2469    10522.551     244.5831   -262.77934     423.8222   -3622.6537 
30891000    135.40625   -4954.6445   -4693.5022   -4954.6445            0    9124.9788    19.591682    19.712953    20.344212     7857.136    9144.9669    8638.9058    9591.0637   -197.60634    14.657376    767.55604   -3647.8867 
30892000    138.00071   -4960.8864   -4694.7405   -4960.8864            0    9844.4738    19.619115    19.724219     20.36425    7880.3887     10126.53    9769.5865    9637.3052   -141.80874    269.44691     852.7217   -3563.3408 
30893000     130.8237   -4947.8687   -4695.5642   -4947.8687            0    10401.053    19.611796    19.736154    20.285097    7851.5784    8892.1261    11084.231    11226.802   -747.43458    660.72564   -64.917688   -3504.5686 
30894000    137.29945   -4952.2099   -4687.4163   -4952.2099            0    10150.871    19.422388      19.8173    20.458497    7874.4611    11186.941    8633.1496    10632.522    -114.7486   -746.55138   -539.67963   -3521.6808 
30895000    138.42736   -4965.2744   -4698.3056   -4965.2744            0    8454.4934    19.562234    19.695042    20.544781    7915.4727    9188.7813    8529.5759     7645.123    -767.5976    178.10637    1398.3702   -3722.3269 
30896000    132.87227    -4959.062   -4702.8066    -4959.062            0    10008.956    19.578211    19.702749    20.448349    7887.8399    10415.564    10228.257    9383.0457   -53.089145    1639.1576   -576.77998   -3551.4158 
30897000    136.36165   -4973.4698   -4710.4849   -4973.4698            0    9199.1737    19.603491    19.720167     20.37189    7875.4491    9550.0672    8639.0088    9408.4453   -235.06241     67.22311    173.36986   -3653.9106 
30898000    131.54608   -4957.3287    -4703.631   -4957.3287            0     9047.247    19.617812    19.730189     20.31853    7864.5544     8663.013    9053.3137    9425.4143    -321.7226    17.705412   -219.89793   -3665.9438 
30899000    146.69586   -4962.1039   -4679.1886   -4962.1039            0    9946.8926    19.571351    19.781199    20.313214    7864.1549    10114.464    9291.4759    10434.738   -346.79564    850.67179      623.342   -3538.3732 
30900000    136.09999   -4958.0937   -4695.6135   -4958.0937            0    9896.7354    19.533928    19.704582    20.395149    7850.2535    11070.121    8404.0359     10216.05   -276.03444    1395.7998    -282.3896   -3562.5571 
30901000    139.87629   -4937.6671   -4667.9039   -4937.6671            0    8584.0869    19.588806    19.729817    20.324981    7855.2707    9471.9583    7004.7051    9275.5972    47.806364     598.7109    1197.6678   -3684.5017 
30902000    139.17545   -4945.6197   -4677.2082   -4945.6197            0    10071.166    19.518936    19.695594    20.398504    7841.9407    10197.815    9381.0805    10634.603   -283.03623    528.61802   -770.48735   -3525.4025 
30903000      134.232   -4954.4783   -4695.6006   -4954.4783            0    9403.1759    19.643592    19.534219    20.527899    7877.0107    8224.2238    11995.825    7989.4788    484.56899    174.86005   -544.78428   -3615.3814 
30904000    141.21788   -4959.8866   -4687.5361   -4959.8866            0    10896.587    19.587942    19.696747    20.322369    7840.7507    10326.148    10942.028    11421.585   -425.22174    -1460.799   -528.66079   -3441.5189 
30905000    139.81632     -4966.63   -4696.9825     -4966.63            0    9889.4297    19.801852     19.61307    20.292336    7881.0384    9453.9838    9589.5706    10624.735   -149.24909   -308.11241   -204.42382   -3560.3225 
30906000    134.03515   -4957.9725   -4699.4745   -4957.9725            0    10699.128    19.793418    19.597144    20.211306    7839.8536    9577.7509     11358.14    11161.493     175.1752   -962.68616    223.05327   -3476.1766 
30907000    132.33351   -4946.7681   -4691.5518   -4946.7681            0    10380.429    19.733056     19.74518    20.246286    7888.6164    8482.6836    10781.719    11876.885    36.139227    687.36141   -181.18684   -3497.3107 
30908000    129.35189   -4964.4199   -4714.9539   -4964.4199            0    8587.5398    19.681449    19.603376    20.463751    7895.3826    6964.5791    10286.192    8511.8481    207.77163   -707.33283    215.01816   -3726.1326 
30909000    129.04592   -4950.6259     -4701.75   -4950.6259            0    9762.1821    19.651585    19.580569    20.479099    7880.1365    11597.796    9371.9712    8316.7794   -258.68178    49.807587   -1418.7542   -3579.8438 
30910000    140.45624   -4962.1393   -4691.2576   -4962.1393            0    9624.6983    19.693116    19.664783    20.321386    7869.6775    8452.3005      10679.4    9742.3947    169.18845    992.78919    1002.7716   -3586.6197 
30911000    132.29226   -4954.0504   -4698.9137   -4954.0504            0    9835.1941    19.784093    19.626324    20.238382    7858.3412    9383.6834    10068.948    10052.951    -28.96183    306.97789    64.502734   -3571.7429 
30912000     134.5929   -4951.6939   -4692.1202   -4951.6939            0     9797.895    19.720196    19.707432    20.328318    7900.2839    10532.596     8731.182    10129.907   -42.648785    -63.21636   -652.36504   -3563.2309 
30913000    138.02903   -4952.2534   -4686.0528   -4952.2534            0    10265.363    19.518893      19.6733    20.370357    7822.2384    10913.513    9671.9117    10210.664    273.82255   -612.33447    798.04311   -3514.9872 
30914000    134.67176    -4959.155   -4699.4292    -4959.155            0    9653.0052    19.641506    19.717373    20.265504    7848.4024     7511.843    10379.185    11067.988   -848.50677   -325.09765      367.863   -3594.5376 
30915000    134.74161   -4946.8603   -4686.9998   -4946.8603            0     10771.45     19.67237    19.632664    20.296701    7839.0129    9662.6318    11631.158     11020.56   -53.254752    1257.8971   -680.53451    -3455.565 
30916000    136.01154   -4936.0952   -4673.7855   -4936.0952            0     11370.12    19.695689    19.614487    20.226159    7813.7865     10713.24    11460.236    11936.884   -35.450831   -467.48435   -703.25346   -3378.0914 
30917000    137.70531   -4959.3318   -4693.7556   -4959.3318            0    10349.984     19.65146       19.734    20.347044    7890.6225     9659.974     10781.28    10608.698    827.88297   -29.733242    393.31664   -3502.7142 
30918000    143.10985   -4950.7232   -4674.7238   -4950.7232            0    9016.3771    19.496519    19.836308     20.40085    7889.8033     10276.12    8304.1721    8468.8396    308.25525   -702.18474     1424.494   -3637.2572 
30919000     139.5599   -4945.7477   -4676.5947   -4945.7477            0    9607.1828    19.500874    19.806575    20.407851    7882.4411    10258.445    9452.6228    9110.4804   -447.97477    137.23588   -1358.9442   -3572.1787 
30920000    137.35723   -4951.8439   -4686.9389   -4951.8439            0    9596.8099    19.634485    19.694874    20.329256    7861.2971    7776.6677    11484.305    9529.4572   -10.917097    1241.6354    161.81815   -3586.6747 
30921000    144.24871    -4965.735   -4687.5392    -4965.735            0    8518.8717    19.719851    19.683921    20.365131    7905.0108     8229.615    9043.9892    8283.0111    458.74384   -713.59238    164.60073   -3705.4285 
30922000     130.2642   -4947.4463   -4696.2209   -4947.4463            0    12027.963    19.698252    19.575728     20.35738    7849.9608    12860.244    11015.211    12208.433    -122.4985    561.05168    88.791769   -3319.2161 
30923000    139.23886   -4974.0022   -4705.4684   -4974.0022            0    8735.3581    19.638631    19.670848    20.378145    7872.2509    8230.1424    9492.1903    8483.7417   -65.382583    281.53849   -198.40422   -3702.5732 
30924000     141.0847   -4959.4767    -4687.383   -4959.4767            0    10812.526    19.573038    19.800169    20.249611    7847.7257    10745.731    10451.125    11240.722   -324.29628    834.46428    1154.3181   -3449.8783 
30925000    147.70142   -4977.6258   -4692.7712   -4977.6258            0    9586.4974    19.633061    19.723574    20.274647    7851.0353    10201.475    9399.3393    9158.6779   -646.83917    10.773772    1088.6716    -3595.124 
30926000    132.87877   -4959.1527   -4702.8848   -4959.1527            0    9779.1327    19.624504    19.640392    20.401715    7863.4932    9184.6054    10052.306    10100.487   -146.18004     922.8196   -1550.5823   -3581.4043 
30927000    132.07034   -4943.7937   -4689.0849   -4943.7937            0    10633.045    19.693979    19.647793     20.35721    7877.0846    11361.287    10101.402    10436.447    537.07359    566.19317    438.29606   -3467.5692 
30928000    139.35148   -4953.5835   -4684.8325   -4953.5835            0    9912.5463    19.528453    19.660845     20.37291    7822.0949    9704.2473    10546.987    9486.4046    322.75309    83.218448   -250.92199   -3554.0366 
30929000    142.86226   -4947.4135   -4671.8916   -4947.4135            0     10071.83    19.483376    19.635452    20.559941    7865.5114    10800.257    10459.157    8956.0763   -155.55495    655.70776   -163.46429   -3516.5477 
30930000    142.51506   -4952.2318   -4677.3795   -4952.2318            0    10118.934    19.411738    19.725612    20.453718    7831.9011    10285.493    10277.922    9793.3859    111.27764    542.85347   -25.890209   -3521.5924 
30931000    135.05986   -4960.7382   -4700.2639   -4960.7382            0    10080.938    19.629451    19.566789    20.561692    7897.4443    10596.692    10511.139    9134.9828    248.39379    1412.0152   -495.43501   -3539.1805 
30932000     134.9454   -4956.2123   -4695.9587   -4956.2123            0    9137.3298    19.505019    19.765788    20.428341    7875.7807    9320.6496    9396.4886    8694.8511    220.00769    232.69461   -177.19776   -3646.4433 
30933000    131.35537   -4961.2147   -4707.8848   -4961.2147            0    10232.474    19.660992    19.713085    20.329168    7879.1551    8992.6899    10331.966    11372.767    367.31915     -898.296   -1076.6292   -3532.0773 
30934000    133.28151   -4962.0034   -4704.9588   -4962.0034            0     9390.614    19.466556    19.638195     20.54332    7853.4653    9569.4648    10356.035     8246.342    130.21962   -399.44634    657.13016   -3629.4073 
30935000    133.74363   -4942.5476   -4684.6118   -4942.5476            0    8609.6952     19.56796    19.695449    20.507168    7903.4574    9213.0528    8125.7202    8490.3125   -810.97438    933.39946    756.88448   -3692.2254 
30936000     138.0668   -4948.5335     -4682.26   -4948.5335            0    8832.8046     19.69304    19.771373    20.328012     7914.883    8717.0827    9411.2638    8370.0673    238.06525    702.75913     178.8577   -3662.6854 
30937000    136.97052   -4966.5448   -4702.3857   -4966.5448            0    10247.693    19.492323    19.586727    20.633025    7877.4993    9616.1625    12498.059    8628.8583    369.36343    805.41454    699.63079   -3525.0769 
30938000    135.49506   -4942.3804   -4681.0667   -4942.3804            0    10293.756    19.419289    19.749956    20.424634     7833.462    10617.889     10032.58      10230.8   -651.17357    1342.2687    1218.4093    -3505.077 
30939000    132.96936   -4966.0178   -4709.5752   -4966.0178            0    9430.4479    19.602156    19.717754    20.362858     7870.458    7697.0962    10084.917    10509.331   -65.049848    923.20694    688.51148   -3627.1243 
30940000    141.21506   -4953.6976   -4681.3525   -4953.6976            0    7750.1675    19.619424    19.792571    20.401976    7922.4714    7608.1439     7195.422    8446.9367    -347.1253    69.495228    13.484099   -3785.8894 
30941000    136.98209   -4957.9048   -4693.7234   -4957.9048            0    9059.2852    19.432838    19.600398    20.745968    7901.9601     9950.456    9204.3077    8023.0918    235.92528     672.8739    629.41372   -3649.7134 
30942000    142.02491   -4957.4228   -4683.5158   -4957.4228            0    9780.0399    19.640222    19.698675    20.312151    7858.4943    8261.3539    9431.0782    11647.688   -593.88841   -578.68979    127.75019   -3562.6442 
30943000    133.52615   -4946.4915    -4688.975   -4946.4915            0     10317.56    19.635871    19.754362    20.239856    7850.9209    10828.094    9647.6777    10476.907   -77.071428   -199.26831   -723.74799   -3507.6389 
30944000    141.25347   -4944.2927   -4671.8735   -4944.2927            0    10881.859      19.5901    19.777057    20.169006    7814.1694     10211.98    11380.842    11052.755   -846.42258   -632.72272     -804.457   -3431.7589 
30945000    141.06746   -4964.5257   -4692.4652   -4964.5257            0    10461.244    19.562286    19.747482    20.375193    7871.0572    12359.547    8820.8237    10203.363    510.77064    956.97684     320.9324   -3491.6054 
30946000    137.88398   -4964.8303   -4698.9094   -4964.8303            0    9508.4349    19.440562    19.865753    20.472665    7906.5718    11744.441      8543.67    8237.1934   -27.166348   -1192.4015    290.41446    -3602.499 
30947000    137.90758   -4963.8205   -4697.8541   -4963.8205            0    8096.7412    19.464649    19.877902    20.480308    7924.1669    8879.5355    6929.1779    8481.5103   -13.380612   -95.455473   -208.59531   -3762.1474 
30948000    140.44664   -4959.9308   -4689.0676   -4959.9308            0    9074.5119    19.568845    19.818323    20.316751    7879.2764    9928.0909    7259.5537    10035.891   -217.11687    219.77853   -358.64709   -3646.3049 
30949000    139.47444   -4945.9506   -4676.9624   -4945.9506            0     9964.153     19.43612    19.766788    20.471537     7864.953    9789.4871    10044.582     10058.39   -158.86426   -995.02615    905.73554   -3534.0514 
30950000    139.73193   -4976.3744   -4706.8896   -4976.3744            0    9365.4595    19.669232    19.772898     20.39806     7933.167    9894.9801    9137.2644    9064.1339    432.04377   -378.01297   -191.20741   -3623.3331 
30951000    130.90475   -4954.2795   -4701.8187   -4954.2795            0    9503.7742    19.817783    19.788638    20.176551    7912.5758    8715.6158    10233.077    9562.6303   -173.99239   -234.19674   -38.157122   -3605.1135 
30952000    136.55568    -4952.312   -4688.9529    -4952.312            0    8662.4504    19.471873    19.730825     20.48075    7868.6249    7873.2381    10348.731    7765.3825   -452.39508    1458.1347    364.82364   -3694.8863 
30953000    137.71702   -4974.3936   -4708.7948   -4974.3936            0    9208.6885    19.855251    19.713174    20.224972    7916.2563    7780.5194     10159.19     9686.356    123.52091    735.51054   -152.24856   -3645.6473 
30954000    128.99386   -4957.2294   -4708.4539   -4957.2294            0    8685.0602    19.652725    19.805763    20.316022    7907.7515    7336.9456    9318.3385    9399.8966    3.1544304   -394.52665   -4.8687831   -3706.8368 
30955000     136.6834   -4985.1863   -4721.5809   -4985.1863            0    8008.0693     19.67871     19.73117    20.507569    7962.7603    7877.1793    8365.0962    7781.9322    124.66686     575.8893    286.08243   -3791.6143 
30956000    135.03729   -4969.4612   -4709.0304   -4969.4612            0    8803.1419     19.53541    19.790055    20.411334    7891.1612    9667.8605    7945.1232    8796.4421    225.43042    142.00578    705.97352   -3695.9253 
30957000    141.32534   -4967.5114   -4694.9536   -4967.5114            0    9318.8798    19.599151    19.772061      20.3883    7900.7846     9775.321    8806.0454     9375.273    23.037035   -152.92606   -527.62891   -3621.1872 
30958000    136.44331   -4948.2442   -4685.1018   -4948.2442            0    8727.3756    19.621082    19.665987    20.398078    7870.9646    8718.1167    9179.1656    8284.8446    96.772938   -651.48556    190.86548   -3683.2868 
30959000    134.98039   -4955.7258   -4695.4048   -4955.7258            0    9930.4262    19.737812    19.473706    20.514173    7884.9985    10200.506    10453.428     9137.345    188.08615    614.13563   -72.673325   -3553.4592 
30960000    140.73051    -4936.363   -4664.9524    -4936.363            0    11419.836    19.567006    19.651734    20.339252    7820.9631    10392.103    11785.074    12082.332   -707.06513   -374.33712    244.57115   -3362.3976 
30961000    138.80623   -4954.4101   -4686.7106   -4954.4101            0     10171.59    19.457279    19.630111    20.548837    7848.5983    11328.316    9580.4844    9605.9708    268.17138   -39.996161    1442.1975   -3522.4321 
30962000    135.57339   -4957.2959   -4695.8312   -4957.2959            0    9673.8153    19.578271    19.663545    20.514985    7897.8224    10409.368    9702.7645    8909.3133   -612.23485    701.84296    273.52499   -3581.5853 
30963000    145.48942   -4963.8362   -4683.2476   -4963.8362            0    8674.9784    19.626517    19.655294    20.434619    7882.9597     7464.644    10734.643    7825.6484   -616.53361      1112.12     412.1912   -3685.9297 
30964000    138.37766   -4954.3108   -4687.4379   -4954.3108            0    9699.8496    19.657199    19.733781    20.297078    7873.4574    9611.3377    9780.0695    9708.1415    12.220527    1019.8687    730.83483   -3573.6401 
30965000    126.77251   -4965.5702   -4721.0788   -4965.5702            0    9624.2255    19.670943    19.849306    20.272293    7915.4093    7812.7581    9286.9693    11772.949   -465.17404   -946.39152   -237.47828   -3610.0762 
30966000    130.14013   -4948.2762     -4697.29   -4948.2762            0    10290.917    19.554809    19.733906    20.358799    7856.3132    9506.0354    10588.278    10778.438   -719.24771    -1126.102   -313.30227   -3518.1951 
30967000    133.00802   -4970.8838   -4714.3666   -4970.8838            0    9547.4576    19.644356    19.866329    20.208832    7886.7243    8255.4607    10335.665    10051.247   -57.947677    1027.8731   -10.135681   -3616.2201 
30968000    137.00886   -4945.5801    -4681.347   -4945.5801            0    9614.9703    19.513006    19.704153    20.474237    7872.0835    9486.4168     10314.05    9044.4442     138.5469    1119.8809   -38.594917   -3577.4882 
30969000    133.60808   -4933.3777   -4675.7033   -4933.3777            0    10942.656    19.508571    19.723945    20.298855    7810.7145    11270.338    10697.873    10859.757   -49.250613    389.96393    1526.9071   -3429.2115 
30970000    132.02258   -4956.7055   -4702.0888   -4956.7055            0    9916.6479    19.649847     19.70106     20.30521    7860.6101    9986.6428     8912.469    10850.832    49.905381   -558.46623   -92.466162   -3565.2549 
30971000    140.06377   -4965.1097    -4694.985   -4965.1097            0    10810.394    19.575924    19.688042    20.342553    7840.2564     10451.37    11332.567    10647.244    370.43428   -1243.5194   -304.58728   -3458.9019 
30972000    129.56493   -4947.9089    -4698.032   -4947.9089            0    10776.125    19.547036    19.706914    20.341213    7835.6745    10384.296    12181.368    9762.7102   -123.88143   -531.86051   -31.040378   -3466.5874 
30973000    134.43165   -4969.0583   -4709.7956   -4969.0583            0    8598.5012    19.532626    19.787457    20.528335    7934.2221    9050.1498    9221.3049    7524.0487   -90.433596    581.05494   -76.192997   -3714.8416 
30974000    132.34835    -4946.401   -4691.1561    -4946.401            0    9940.4135    19.681689    19.753742    20.255472     7875.064    9895.0181    8741.5311    11184.691    -120.6123   -409.86061    110.51953   -3549.5022 
30975000    135.41829   -4973.6065    -4712.441   -4973.6065            0    8682.5331    19.712516    19.697896    20.375666    7911.7706    8309.9867     8964.031    8773.5816   -597.53391   -203.46283    -1070.804   -3710.6064 
30976000    136.31756   -4944.0844   -4681.1846   -4944.0844            0    12129.708    19.502803    19.726296    20.221826    7779.7019     10597.98    13348.529    12442.616   -121.61492    360.68234    88.175253   -3304.9603 
30977000    146.52814   -4935.4044   -4652.8125   -4935.4044            0    9981.8024    19.561885    19.710208    20.319588    7834.5994    9709.5587      9989.77    10246.078   -423.93738    26.706581    495.71937   -3512.2958 
30978000    139.27598   -4947.9173   -4679.3118   -4947.9173            0    9419.7695    19.894152    19.768448    20.052467     7886.164    6515.6989    11710.331    10033.279    -532.0434   -375.15364    665.70172    -3595.929 
30979000    140.40016   -4956.7876   -4686.0141   -4956.7876            0    9591.0775     19.59075    19.677219    20.430272    7875.6959    9447.1013    9587.6198    9738.5112    321.29061     989.7408   -528.72691    -3584.393 
30980000    137.68663   -4941.0416   -4675.5013   -4941.0416            0    8869.4071    19.506252    19.763263    20.468193    7890.6357    8626.9705    9530.7049    8450.5461   -72.467174     768.7278    64.077967   -3654.8381 
30981000    133.08741   -4940.1046   -4683.4343   -4940.1046            0    8108.7992    19.497824    19.899234    20.360953    7899.8819    9532.1082     7135.604    7658.6853    425.57873    622.94429   -921.64627    -3749.206 
30982000    136.79419   -4952.5385   -4688.7194   -4952.5385            0     9627.512    19.726968    19.658129     20.33957    7887.5895    7335.9841    10962.723    10583.829    -34.66861    265.80325    1079.9758   -3581.2436 
30983000    134.94248   -4955.7705   -4695.5226   -4955.7705            0    9826.1951    19.467132    19.711634    20.459354    7850.8469    11260.753    8236.7259    9981.1064    795.92615    492.43572    962.05612   -3570.4572 
30984000    139.01453   -4946.6458   -4678.5446   -4946.6458            0     11547.57    19.562793    19.737686    20.374501    7867.0891    12786.266    10095.712    11760.732   -60.051197    733.56323    613.44568   -3353.6523 
30985000    130.87323   -4962.2358   -4709.8357   -4962.2358            0    9368.5584    19.522546    19.784737    20.441931     7895.664      8386.11    10373.323    9346.2428   -538.82912    306.21135   -514.74237   -3631.0447 
30986000    129.97864   -4951.1858   -4700.5111   -4951.1858            0    9641.3958    19.555263    19.701689    20.418588    7866.7044    10354.917    8956.6496    9612.6211   -881.20891     1169.485    637.48212   -3594.3748 
30987000    139.45066   -4960.4888   -4691.5465   -4960.4888            0    10474.984    19.627374    19.581503    20.426169    7850.4607    11052.927    10201.643    10170.382   -345.22517   -499.06949   -2.2390989    -3492.256 
30988000    139.38238   -4949.4065   -4680.5959   -4949.4065            0    10728.031    19.644096    19.665251    20.308807    7845.4156    9471.7497    11688.244    11024.098   -152.53485    778.72182    1458.1638   -3453.1232 
30989000    137.40752   -4956.1466   -4691.1446   -4956.1466            0    8755.0496    19.570588     19.81561    20.346552    7890.4572    8097.1231    9717.4354    8450.5902    596.78803   -468.81352    749.63858   -3683.6641 
30990000    142.05225   -4955.0127    -4681.053   -4955.0127            0    10014.645    19.498221    19.818093    20.309735    7848.0382    11310.391    9079.7877    9653.7578    229.83635   -526.23711    693.91434   -3534.8208 
30991000    137.32052    -4966.409   -4701.5749    -4966.409            0    10815.321    19.562935    19.777018    20.323287    7863.0092    11486.969     10486.73    10472.263   -582.76779    423.67511   -49.033562   -3461.3396 
30992000    138.58458   -4957.0142   -4689.7422   -4957.0142            0     9369.544    19.475537     19.83604    20.306699     7844.834    9152.8178    9051.0141    9904.8001   -148.01886   -222.46081    47.527404   -3617.7833 
30993000     138.8006   -4950.7508   -4683.0622   -4950.7508            0    9677.7807    19.482059    19.899379    20.298198    7869.2228    10277.813    9527.8519    9227.6768   -349.17816    488.74097    595.85393   -3572.3961 
30994000    133.50269   -4940.9587   -4683.4875   -4940.9587            0    9932.5926    19.479765    19.718633     20.46372    7860.4081    9145.2317    11158.056    9494.4897    108.40952    1582.4292    625.13305   -3544.8549 
30995000    142.68715   -4950.4494   -4675.2652   -4950.4494            0    8581.3987    19.538229    19.871219    20.360347    7904.8728     9703.142    8045.3744    7995.6798   -46.062458    -593.9566   -516.96048   -3685.9633 
30996000    141.53252   -4960.5569   -4687.5996   -4960.5569            0    9797.1655    19.593662    19.788125    20.357739      7893.14    9997.7933    10138.011    9255.6919    355.60451   -25.503985    1199.3004    -3559.815 
30997000    132.06282    -4943.876   -4689.1817    -4943.876            0     11049.81    19.524859     19.60672    20.494835    7845.8011    10167.947    12230.593     10750.89   -676.96195   -476.13208   -378.24372   -3424.8298 
30998000     134.5132   -4935.2589   -4675.8389   -4935.2589            0    10042.201     19.55767     19.79862    20.332755    7873.1455    10372.987     9794.944    9958.6723   -249.48352   -1221.7788   -714.83095   -3522.7758 
30999000     130.5583   -4963.1506   -4711.3579   -4963.1506            0    8869.6823    19.773099    19.752316    20.300925    7928.8207     8920.943    9700.4336    7987.6702    488.53579   -224.93138    159.74645   -3685.7236 
31000000    140.88433   -4942.9125   -4671.2053   -4942.9125            0    8554.8757    19.475778    19.773034    20.495426    7892.6908    8707.1099    8211.5092     8746.008    557.82584    976.15565    844.68428   -3686.4809 
Loop time of 342.184 on 64 procs for 250000 steps with 972 atoms

Performance: 126.248 ns/day, 0.190 hours/ns, 730.600 timesteps/s
99.1% CPU use with 64 MPI tasks x 1 OpenMP threads

MPI task timing breakdown:
Section |  min time  |  avg time  |  max time  |%varavg| %total
---------------------------------------------------------------
Pair    | 19.46      | 28.857     | 39.507     |  85.6 |  8.43
Bond    | 0.25911    | 0.27551    | 0.28966    |   1.0 |  0.08
Kspace  | 130.46     | 140.96     | 150.56     |  38.8 | 41.19
Neigh   | 0.99412    | 1.0205     | 1.0359     |   0.8 |  0.30
Comm    | 82.717     | 83.634     | 84.32      |   3.8 | 24.44
Output  | 0.4806     | 0.48171    | 0.48284    |   0.1 |  0.14
Modify  | 81.228     | 82.208     | 82.791     |   4.0 | 24.02
Other   |            | 4.749      |            |       |  1.39

Nlocal:        15.1875 ave          20 max          11 min
Histogram: 1 6 11 7 9 12 8 6 3 1
Nghost:        2358.97 ave        2382 max        2337 min
Histogram: 3 3 3 9 12 17 6 7 3 1
Neighs:        4960.80 ave        7083 max        3240 min
Histogram: 3 7 6 13 8 13 6 4 3 1

Total # of neighbors = 317491
Ave neighs/atom = 326.63683
Ave special neighs/atom = 2.0000000
Neighbor list builds = 2916
Dangerous builds = 0

unfix		3
unfix		2
unfix		1

write_data	data.final.${pid}
write_data	data.final.1
System init for write_data ...
PPPM initialization ...
  extracting TIP4P info from pair style
  using 12-bit tables for long-range coulomb (../kspace.cpp:340)
  G vector (1/distance) = 0.37260634
  grid = 24 24 24
  stencil order = 5
  estimated absolute RMS force accuracy = 0.0034607976
  estimated relative force accuracy = 1.0422089e-05
  using double precision FFTW3
  3d grid and FFT values/proc = 2197 216
Last active /omp style is kspace_style pppm/tip4p/omp
WARNING: Not all mixed pair coeffs generated from mixing. Use write_data with 'pair ij' option to store all pair coeffs. (../write_data.cpp:312)

write_restart   restart.lmp.${pid}
write_restart   restart.lmp.1
System init for write_restart ...
PPPM initialization ...
  extracting TIP4P info from pair style
  using 12-bit tables for long-range coulomb (../kspace.cpp:340)
  G vector (1/distance) = 0.37260634
  grid = 24 24 24
  stencil order = 5
  estimated absolute RMS force accuracy = 0.0034607976
  estimated relative force accuracy = 1.0422089e-05
  using double precision FFTW3
  3d grid and FFT values/proc = 2197 216
Last active /omp style is kspace_style pppm/tip4p/omp
Total wall time: 0:05:42
