LAMMPS (30 Jul 2021)
Processor partition = 0
  using 2 OpenMP thread(s) per MPI task
using multi-threaded neighbor list subroutines
variable        pid world 0 1
variable        phase world IceIh IceIII

shell cd ${phase}
shell cd IceIh
include Restart.lmp
echo both
log log.lammps
#include		in.partitions
include		in.temp
variable        temperature equal 205.22
variable	tempDamp equal 100.0
include		in.pressure
variable        pressure equal 1664.2
variable        pressureDamp equal 1000.0 # This is 1 ps
include		in.seed
variable        seed equal 745823

units		real
atom_style	full
#include		in.box
read_restart	restart.lmp.${pid}
read_restart	restart.lmp.0
Reading restart file ...
  restart file = 30 Jul 2021, LAMMPS = 30 Jul 2021
  restoring atom style full from restart
  orthogonal box = (0.083016736 0.062599705 0.19480266) to (18.124556 23.566578 22.018393)
  2 by 4 by 4 MPI processor grid
  restoring pair style lj/cut/tip4p/long/omp from restart
  restoring bond style harmonic/omp from restart
  restoring angle style harmonic/omp from restart
  864 atoms
  576 bonds
  288 angles
Finding 1-2 1-3 1-4 neighbors ...
  special bond factors lj:    0        0        0       
  special bond factors coul:  0        0        0       
     2 = max # of 1-2 neighbors
     1 = max # of 1-3 neighbors
     1 = max # of 1-4 neighbors
     2 = max # of special neighbors
  special bonds CPU = 0.002 seconds
  read_restart CPU = 0.007 seconds
include 	in.setup
variable	out_freq equal 1000
variable	out_freq2 equal 10000
variable	out_freq3 equal 1000

timestep	2.0

neigh_modify    delay 7 every 1

include		in.tip4p
# This is TIP4P/Ice

# create groups ###
group ox type 2
288 atoms in group ox
group hy type 1
576 atoms in group hy

# set charges - beside manually ###
set group ox charge -1.1794
Setting atom values ...
  288 settings made for charge
set group hy charge 0.5897
Setting atom values ...
  576 settings made for charge

# ### TIP3P Potential Parameters ###
pair_style lj/cut/tip4p/long/omp 2 1 1 1 0.1577 8.5
pair_coeff 1 1*2 0.000 0.000
pair_coeff 2 2 0.21084 3.1668
bond_style  harmonic
bond_coeff  1 450 0.9572
angle_style harmonic
angle_coeff 1 55 104.52
kspace_style pppm/tip4p/omp 1.0e-5
pair_modify tail yes

thermo          ${out_freq}
thermo          1000
thermo_style    custom step temp pe etotal epair emol press lx ly lz vol pxx pyy pzz pxy pxz pyz enthalpy

restart 	${out_freq3} restart.lmp.${pid} restart2.lmp.${pid}
restart 	1000 restart.lmp.${pid} restart2.lmp.${pid}
restart 	1000 restart.lmp.0 restart2.lmp.${pid}
restart 	1000 restart.lmp.0 restart2.lmp.0


include         in.dump
dump            myDump all atom ${out_freq2} dump.water.${pid}
dump            myDump all atom 10000 dump.water.${pid}
dump            myDump all atom 10000 dump.water.0
dump            myDump2 all dcd ${out_freq2} dump.dcd
dump            myDump2 all dcd 10000 dump.dcd
dump_modify     myDump append yes
dump_modify     myDump2 append yes


variable natoms 	equal  "count(all)"                        # NUMBER ATOMS
variable H      	equal  "enthalpy/v_natoms"                 # ENTHALPY-per-atom
variable Vol      	equal  "vol/v_natoms"                 # volume-per-atom
fix AVG all 		ave/time ${out_freq} 1 ${out_freq} v_Vol v_H file vol_enthalpy.dat
fix AVG all 		ave/time 1000 1 ${out_freq} v_Vol v_H file vol_enthalpy.dat
fix AVG all 		ave/time 1000 1 1000 v_Vol v_H file vol_enthalpy.dat


timer           timeout 23:50:00 every 1000
New timer settings: style=normal  mode=nosync  timeout=23:50:00

fix 		1 all shake 1e-6 200 0 b 1 a 1
Finding SHAKE clusters ...
       0 = # of size 2 clusters
       0 = # of size 3 clusters
       0 = # of size 4 clusters
     288 = # of frozen angles
  find clusters CPU = 0.001 seconds
fix             2 all nph aniso ${pressure} ${pressure} ${pressureDamp}
fix             2 all nph aniso 1664.2 ${pressure} ${pressureDamp}
fix             2 all nph aniso 1664.2 1664.2 ${pressureDamp}
fix             2 all nph aniso 1664.2 1664.2 1000
fix             3 all temp/csvr ${temperature} ${temperature} ${tempDamp} ${seed}
fix             3 all temp/csvr 205.22 ${temperature} ${tempDamp} ${seed}
fix             3 all temp/csvr 205.22 205.22 ${tempDamp} ${seed}
fix             3 all temp/csvr 205.22 205.22 100 ${seed}
fix             3 all temp/csvr 205.22 205.22 100 745823


run             250000
PPPM initialization ...
  extracting TIP4P info from pair style
  using 12-bit tables for long-range coulomb (../kspace.cpp:340)
  G vector (1/distance) = 0.37186825
  grid = 24 27 25
  stencil order = 5
  estimated absolute RMS force accuracy = 0.0031339985
  estimated relative force accuracy = 9.4379435e-06
  using double precision FFTW3
  3d grid and FFT values/proc = 4410 672
Last active /omp style is kspace_style pppm/tip4p/omp
Neighbor list info ...
  update every 1 steps, delay 7 steps, check yes
  max neighbors/atom: 2000, page size: 100000
  master list distance cutoff = 10.8154
  ghost atom cutoff = 10.8154
  binsize = 5.4077, bins = 4 5 5
  1 neighbor lists, perpetual/occasional/extra = 1 0 0
  (1) pair lj/cut/tip4p/long/omp, perpetual
      attributes: half, newton on, omp
      pair build: half/bin/newton/omp
      stencil: half/bin/3d
      bin: standard
Setting up Verlet run ...
  Unit style    : real
  Current step  : 9500000
  Time step     : 2
  Walltime left : 23:49:59.93
Per MPI rank memory allocation (min/avg/max) = 10.19 | 10.21 | 10.23 Mbytes
Step Temp PotEng TotEng E_pair E_mol Press Lx Ly Lz Volume Pxx Pyy Pzz Pxy Pxz Pyz Enthalpy 
 9500000    223.41357   -4344.7518   -3961.8286   -4344.7518            0    1523.7051    18.041539    23.503978     21.82359    9254.2486    373.13018    831.65853    3366.3267    741.24372   -735.71515    264.56087   -3756.1837 
 9501000    211.29996   -4357.3709     -3995.21   -4357.3709            0    1847.1481    17.834358     23.26552    22.298147    9252.0722    2916.5966    2215.3912    409.45643   -195.48198   -61.025275    654.64227   -3745.9706 
 9502000    210.49987   -4363.6185   -4002.8289   -4363.6185            0    944.74413    18.154656    23.483536    21.894846    9334.5506    33.745513    522.86901    2277.6179    566.14733    84.884296   -33.292452   -3874.2164 
 9503000    196.98164   -4342.0059   -4004.3861   -4342.0059            0     1573.925     17.98113    23.261773    22.205873    9288.1167    1762.2333    1053.0602    1906.4816    10.121709   -215.11676    828.37279   -3791.1859 
 9504000    192.23708    -4359.156   -4029.6682    -4359.156            0     1155.025    18.266252    23.536442    21.582341    9278.7358    163.92353   -93.532909    3394.6845   -883.91429    344.16267   -577.97334   -3873.3693 
 9505000    214.28988   -4359.4536   -3992.1681   -4359.4536            0    851.71221    17.938268    23.450001    22.107316    9299.4956     778.1853     523.4251    1253.5262     264.0601   -841.56161   -103.55046   -3876.6558 
 9506000    213.50446   -4348.1933   -3982.2539   -4348.1933            0    2177.1309    18.027561    23.428923    21.997292    9290.9157    2404.0717    1424.1162    2703.2049   -415.64393   -181.85264   -253.62123    -3687.256 
 9507000    209.92311   -4357.9845   -3998.1834   -4357.9845            0    1461.5966    18.189449    23.284027    21.855863    9256.4739    2551.3417    42.726556    1790.7214    39.643536    214.11871   -36.464166   -3800.8735 
 9508000    202.83815   -4336.6191   -3988.9614   -4336.6191            0     1425.447    17.965655    23.391306    22.202584    9330.4165    1547.6282    1807.0274    921.68527    229.74881   -214.66175    275.46152   -3794.9944 
 9509000    209.75389   -4336.5638   -3977.0528   -4336.5638            0    550.75518    18.154769     23.46488    21.959009    9354.5259   -561.51336    1781.7955    431.98339   -347.86795   -116.77776    62.580178   -3901.9154 
 9510000    208.57394   -4353.1563   -3995.6677   -4353.1563            0    925.22644    17.944967    23.287115    22.285381      9312.76    1282.9393     1711.884   -219.14394    1105.5125    448.69262    748.41648   -3870.0062 
 9511000    201.22972   -4351.8809   -4006.9801   -4351.8809            0    1340.0424    18.107282    23.513422    21.997384    9365.6982    447.74621    1717.0489    1855.3321   -660.21917     421.1839   -496.10811   -3823.9449 
 9512000    223.35776   -4344.7149   -3961.8874   -4344.7149            0    1007.3957     18.01271    23.306905    22.168426    9306.7604   -355.84557    1797.6524    1580.3804    339.40721    53.881043   -174.15831    -3825.154 
 9513000    207.98774   -4336.1392   -3979.6554   -4336.1392            0    1716.8867    18.206944    23.345514    21.904231    9310.4034    1673.5591   -86.401158    3563.5022   -327.41484   -294.83852     117.4316   -3746.5319 
 9514000    200.82173   -4358.2391   -4014.0375   -4358.2391            0    2574.9479    17.775533    23.533441     22.15125    9266.2989    4106.6634    2646.5982    971.58222   -701.46287    689.38224     767.3173   -3666.0604 
 9515000    203.43654    -4348.456   -3999.7727    -4348.456            0    1602.1312    18.107823    23.428721    22.000944    9333.7492    1152.3576    804.80885    2849.2271   -186.01786    28.002997    502.87774   -3781.6856 
 9516000    206.10236   -4352.0928   -3998.8405   -4352.0928            0    970.25425    18.136577     23.19302    22.209977    9342.4487    537.90194    2084.1484    288.71243   -443.72091   -515.17378   -726.72878   -3866.6433 
 9517000    214.64239   -4362.8465   -3994.9568   -4362.8465            0    1221.1778    18.065553    23.784211    21.825843    9378.0174     1383.858   -858.23418    3137.9095   -532.53772   -626.15413    521.06264   -3827.9378 
 9518000     201.6332   -4370.3371   -4024.7447   -4370.3371            0    2328.5501    17.907681    23.304575    22.147035    9242.6422    2279.6726    2985.9454    1720.0323    -701.5809    -664.7994    310.23947    -3710.869 
 9519000    207.17756   -4358.2739   -4003.1787   -4358.2739            0    1690.1077    18.181586    23.325013    21.946752     9307.304    1259.3479    2371.1448    1439.8303    70.257046   -17.825874    84.338581   -3773.7677 
 9520000    199.16413   -4357.7105     -4016.35   -4357.7105            0    2035.1347    17.938594    23.411011    22.103353    9282.5373    3041.9095    979.25267    2084.2418    6.1892829   -300.99861    736.01248   -3740.8411 
 9521000    201.33392   -4363.0352   -4017.9557   -4363.0352            0    10.386291    18.051737    23.630012    22.019393    9392.6533   -547.68346   -1372.5677    1951.4101   -789.24969   -280.52051   -302.94273    -4016.533 
 9522000     204.0959   -4335.8925   -3986.0791   -4335.8925            0    792.44715    18.144928    23.434809    22.113804    9403.2961   -256.34649    958.32678    1675.3612    1117.5846    217.06317    597.51871   -3877.4049 
 9523000    203.80293   -4366.1637   -4016.8524   -4366.1637            0    2055.3713    17.909094    23.415365    22.072593    9256.0973    2239.6909    2020.1599     1906.263   -984.92365    660.49242   -805.75807   -3739.3964 
 9524000    208.01615   -4312.1112   -3955.5786   -4312.1112            0    1281.4443     18.15222    23.573699    21.847125    9348.7114    1590.9215    423.43368    1829.9777   -12.405575    384.47983    -398.4473   -3780.8647 
 9525000    203.47028   -4338.1891    -3989.448   -4338.1891            0    1178.3398    18.094256    23.171129    22.200443     9307.854    1126.5588     1659.945    748.51567    962.78093    286.94604   -390.23314   -3829.4937 
 9526000    211.88945   -4332.5548   -3969.3836   -4332.5548            0    2874.1118    17.959269    23.474728    21.906476    9235.5281    3050.4846     1950.065    3621.7858    817.25155    554.10585    306.55741   -3582.2674 
 9527000    213.60527   -4345.7223   -3979.6102   -4345.7223            0    1642.2214    17.947202    23.537379    21.948538    9271.7228    1988.9233    410.21946    2527.5215   -514.86372    447.03812   -51.054688   -3757.5514 
 9528000    203.43856    -4356.843   -4008.1562    -4356.843            0    3019.6504    17.980932     23.26442    22.077315    9235.2929     2887.002    3637.6849    2534.2643    251.95186   -524.61308    171.88731   -3601.4477 
 9529000    202.66878   -4369.7571   -4022.3897   -4369.7571            0    2720.7052    18.027507    23.453888    21.822555    9226.9062    4125.9379     2044.211    1991.9667   -61.885035   -362.39418   -535.85664   -3656.2781 
 9530000    214.76068   -4350.0913   -3981.9989   -4350.0913            0     1465.728    17.930309     23.26662    22.327809    9314.6637    908.00929    2766.8712    722.30338    813.60657    -239.4423    630.47571   -3782.8873 
 9531000    209.43085   -4329.0328   -3970.0755   -4329.0328            0    3039.4263    18.001056    23.380687    21.861833     9201.144     2293.479    2708.3253    4116.4745    43.037037    412.41693    138.98581   -3562.2171 
 9532000    210.18088   -4348.3825   -3988.1397   -4348.3825            0    2646.8879    17.886621    23.313518    22.139254      9232.07    2800.4662    2483.4271    2656.7705   -55.502118   -528.43487    177.82483    -3631.762 
 9533000    220.09408   -4366.3199   -3989.0861   -4366.3199            0    2345.5674    18.218281    23.248609    21.863888    9260.4429    563.46486    2497.0788    3976.1587   -1057.3042     453.0994   -293.86741   -3672.3077 
 9534000    192.93223   -4351.7966   -4021.1173   -4351.7966            0    702.56903    17.913079    23.378618    22.324122    9348.9636    1269.8952    852.07792   -14.266088   -1008.0218    763.86527   -56.111118   -3925.3255 
 9535000    204.12391   -4382.8814     -4033.02   -4382.8814            0    885.29844    18.008586    23.540598    22.026169    9337.6174    1443.2465    347.04903    865.59982    384.78565    465.20839    182.08857   -3912.4604 
 9536000    208.89592     -4376.17   -4018.1295     -4376.17            0    1811.7503    18.011228    23.233578    22.228784    9301.9741    2121.5275    2786.0626    527.66069   -64.832421   -28.578297   -449.42248   -3772.3479 
 9537000    207.77685   -4351.5097   -3995.3873   -4351.5097            0    325.64883    18.207494    23.459263    21.939422    9371.0819    1438.4856   -1149.5456    688.00641    539.13563   -401.50964    71.526089   -3950.8816 
 9538000    204.55862   -4346.4867   -3995.8802   -4346.4867            0    1214.5569    17.766666    23.640997     22.24033    9341.4211    1858.9782    487.68052    1297.0119    1228.2518   -663.99169    1141.1089    -3830.415 
 9539000    205.47603   -4348.8249    -3996.646   -4348.8249            0    1976.5104    18.014338    23.503116     21.93644    9287.7369     2309.991    1471.2964    2148.2438   -444.27593   -357.33855     376.4739   -3728.9235 
 9540000     207.7397   -4363.9541   -4007.8954   -4363.9541            0    2682.4747    18.069255    23.189803    21.960858    9202.0929    2463.2791    3871.9202    1712.2249   -307.79022    704.50022    211.05258    -3647.899 
 9541000    197.73026   -4338.0946   -3999.1917   -4338.0946            0    1556.9987    18.015447    23.531865    21.893488     9281.461    1093.3886    1836.3793    1741.2282    1273.6487    437.21839   -76.902797   -3788.4354 
 9542000    201.91388   -4349.2067   -4003.1332   -4349.2067            0    2180.2591    17.859595    23.493426    22.049968    9251.7931    2683.7593    2060.5185    1796.4995    193.61093   -1157.9338   -92.223083   -3708.9554 
 9543000    216.39123   -4362.4862    -3991.599   -4362.4862            0    1063.5519    18.248383    23.266529    21.875909    9287.9971    1249.3665     1961.397   -20.107993    26.410599    36.956236   -217.84179   -3847.5346 
 9544000    205.35737   -4350.7386   -3998.7631   -4350.7386            0    1432.5179    18.094304    23.218257    22.081006    9276.6324    689.94635    1843.9086    1763.6986    280.52285    76.862933   -310.91571   -3804.9575 
 9545000    203.57405    -4387.644    -4038.725    -4387.644            0    2312.0948    17.796056    23.591955    21.968778    9223.4545    3038.1415    1929.8178    1968.3249     -378.524    363.20559    384.44699   -3727.7145 
 9546000    208.44791   -4339.2526     -3981.98   -4339.2526            0    1971.6856    18.038581    23.313697    21.990114     9247.855    2143.3828    1597.8442    2173.8297    353.93505   -685.38006    498.33798   -3716.0578 
 9547000    198.69219   -4353.7803   -4013.2287   -4353.7803            0    482.91793    18.268221    23.113112    22.204881    9375.6878   -692.11718    1584.9705    555.90045    205.73359    339.16181   -9.4410267    -3947.197 
 9548000     203.3966   -4344.8788    -3996.264   -4344.8788            0    1031.3696    18.031155    23.539003    22.044793    9356.5906    1690.6677    1118.8024    284.63868   -26.618321     173.7003    105.20211   -3855.5272 
 9549000     207.0673   -4342.8834   -3987.9772   -4342.8834            0    3056.5463    17.971337    23.462149    21.937877    9250.0219     5293.248    3102.8244    773.56666   -1989.1915    139.01331    157.68919   -3575.6427 
 9550000    204.72854    -4363.368   -4012.4703    -4363.368            0    2677.8973    18.008492    23.234101    22.080836    9238.8674    2649.8481    3791.8564    1591.9873   -374.11814   -754.88854   -154.10341    -3651.652 
 9551000    217.17458   -4353.1826   -3980.9528   -4353.1826            0     1084.359    18.259978    23.414166    21.825804    9331.4513   -505.58696   -120.21465    3878.8785   -20.815496    245.40542   -549.67966   -3833.3828 
 9552000    197.76998   -4344.2894   -4005.3185   -4344.2894            0    1037.0135    17.887176    23.544593    22.185444    9343.3173    1552.6974    1105.4205    452.92242   -620.98781   -237.47975    478.33248   -3864.0122 
 9553000    207.86264   -4371.0952   -4014.8258   -4371.0952            0     1459.558     18.06848     23.64517    21.791114    9309.8673    409.47924    2365.2006    1603.9941    242.84496   -227.23003   -365.73713   -3816.6545 
 9554000    217.96562   -4359.3823   -3985.7967   -4359.3823            0    1252.8136    18.103343    23.191668    22.267443     9348.913    682.30014    1605.6416    1470.4991   -403.36089    939.14508    697.58752   -3814.9827 
 9555000    206.86084   -4353.0819   -3998.5295   -4353.0819            0    1571.6286    18.061218    23.527169    21.843622    9281.9956    2137.3186    659.46933     1918.098   -359.64628    129.47887   -367.22176   -3785.7807 
 9556000    202.41461   -4316.6444   -3969.7127   -4316.6444            0    2231.7302    17.946872    23.493027    22.061901    9301.8782    2808.0359    2331.2112    1555.9436    933.68809    199.48149    661.62496   -3666.9598 
 9557000    208.54347   -4352.9396   -3995.5032   -4352.9396            0    2139.8011    18.292566    23.054982    22.069942    9307.6616    632.31158    3729.9295    2057.1621    809.60431   -423.46807    245.67825   -3705.0408 
 9558000    204.40545   -4351.7828   -4001.4389   -4351.7828            0     1973.618    17.937563    23.477537    22.043137     9283.022    943.93468    1419.3538    3557.5657   -344.58766   -746.52911   -52.985719   -3734.2438 
 9559000    200.62997    -4335.921   -3992.0481    -4335.921            0    1378.9804    17.981222    23.506514    22.048008    9319.1604    2100.3942    1674.8276    361.71947   -840.81626    791.26535   -46.470947   -3804.6303 
 9560000    199.16345   -4370.2203    -4028.861   -4370.2203            0    653.52316    18.015067    23.297854    22.173691    9306.5734    553.95389    404.93636    1001.6792   -968.02864    148.51381    180.72095   -3940.1604 
 9561000     197.4434   -4339.8152   -4001.4039   -4339.8152            0    1307.2057    18.035518    23.645411    21.814959    9303.1467    1224.7764    538.50933    2158.3313   -60.194515    233.60174     304.5149   -3824.0464 
 9562000    211.75597    -4348.643   -3985.7005    -4348.643            0    1048.1099    17.901458    23.344792    22.297432    9318.2265    491.76953    1924.6283    727.93195   -26.019684    250.53131    1000.2345   -3843.2657 
 9563000    208.92778   -4326.1902   -3968.0951   -4326.1902            0    1697.6458    18.164513    23.322361    21.907545    9280.8978    1938.8493    1192.4303     1961.658    -1277.804    45.865607   -519.28708   -3738.3147 
 9564000    202.47459   -4343.8026    -3996.768   -4343.8026            0    2542.1255    17.702636    23.592864    22.220711    9280.6109    3462.3312    2513.7863     1650.259   -553.49256   -231.32957   -757.57701    -3652.696 
 9565000    194.31991   -4360.8996    -4027.842   -4360.8996            0    1299.5489     18.04047    23.550468    21.900165    9304.5373    616.85995     870.3206     2411.466    1034.2178   -430.50035   -128.85216   -3851.4969 
 9566000    229.97799    -4370.957   -3976.7826    -4370.957            0    251.72932    18.210855    23.176366    22.192275    9366.5034    607.29785    1091.5426   -943.65252    962.00742    548.38361    24.168215   -3942.3962 
 9567000    201.41714   -4375.5958   -4030.3738   -4375.5958            0     2165.492    18.010753    23.445836     21.92286    9257.5231    2447.4472    1521.9331    2527.0957    497.26428    218.35767    61.425575   -3738.0075 
 9568000    201.93878    -4349.247   -4003.1308    -4349.247            0    2354.0731    17.837404    23.506248    22.025083    9234.9067     3676.863    2884.7434    500.61295     789.5796    -276.8126    159.44436   -3686.0804 
 9569000     196.3461   -4372.0021   -4035.4716   -4372.0021            0    963.38279    18.120589    23.344106     22.03038    9319.0477       597.01    1909.2834    383.85501    667.64727   -513.93855     395.5078   -3904.5395 
 9570000    206.51282   -4352.0007   -3998.0448   -4352.0007            0    429.13233    18.295565    23.217021    22.064591    9372.3437    -413.8544     1776.698   -75.446565   -504.01865    8.6588261   -326.53403   -3939.3884 
 9571000    206.14339   -4359.7093   -4006.3866   -4359.7093            0    1405.4557    17.945845    23.557475    22.030537    9313.6033     1863.252    614.47967    1738.6354   -12.314115    -279.7244    486.56008   -3815.4845 
 9572000     216.6829   -4321.5287   -3950.1416   -4321.5287            0    1595.1301    18.026089    23.488507    22.022846    9324.6037    2368.5472    2340.3193    76.523731   -77.784896   -1004.3792   -367.75696   -3733.2202 
 9573000    189.99595   -4356.4834   -4030.8369   -4356.4834            0    2140.7097    18.130828    23.290195    22.090659    9328.2344    1964.5969    2505.8776    1951.6544   -355.61968   -630.46119    67.849438   -3739.6089 
 9574000     210.3489   -4367.7872   -4007.2564   -4367.7872            0    1725.8981    18.188137     23.36494    21.858147    9288.9412    1858.7766    1147.1736    2171.7441    148.26667   -297.89431    392.98456   -3773.4496 
 9575000    213.10126   -4373.0909   -4007.8426   -4373.0909            0    1428.2964    17.911264     23.48125    22.133305    9308.8002    1060.5178      2350.32     874.0514    291.76286   -797.34448   -66.971499   -3813.9381 
 9576000    206.72282    -4356.385   -4002.0691    -4356.385            0    2517.1116    18.109924    23.318508    21.816659    9213.0966    1208.5144    2942.7441    3400.0761    634.75836    158.48167    167.48734    -3663.861 
 9577000     195.6741   -4353.0888     -4017.71   -4353.0888            0    891.04983    18.100394    23.292821    22.118352    9325.3016    432.22183    960.18645    1280.7412    224.76703    76.812801   -219.28307   -3896.5273 
 9578000     217.6552   -4340.5706    -3967.517   -4340.5706            0     1144.751    18.032745    23.712159     21.82998     9334.397    1686.0951    1292.0626    456.09541    62.151097   -157.69159    228.48096   -3811.6791 
 9579000    208.77351   -4368.3452   -4010.5145   -4368.3452            0    1373.0479    17.765559    23.660919    22.140864       9306.9    1441.7799    1743.4413    933.92236    610.55319    100.74685   -929.93805   -3824.1486 
 9580000    221.62711   -4353.4523    -3973.591   -4353.4523            0    1834.2084    18.147191    23.379979    21.940999    9309.1478    1307.0443    1532.1732    2663.4077   -91.670676   -36.738211    320.76344   -3724.5708 
 9581000    199.68423   -4340.5239    -3998.272   -4340.5239            0    1367.7941    18.005631     23.35165    22.219271    9342.3414    2848.2563    401.30155    853.82435    -212.6652    723.74758   -21.789717   -3811.9121 
 9582000     203.6165    -4372.984   -4023.9923    -4372.984            0     1631.045    18.068975    23.702122    21.802246    9337.3146    1131.4618    739.85738    3021.8159    131.38122    584.98808    804.03437   -3801.8845 
 9583000    195.50545   -4355.9736    -4020.884   -4355.9736            0    1495.3981    18.036628    23.180263     22.23592    9296.7005    1115.3725    1951.3463    1419.4756   -261.04187   -26.574689    516.90378   -3818.1337 
 9584000    212.51872   -4333.8132   -3969.5633   -4333.8132            0    328.44964    18.242199    23.421169     21.96355    9384.0063     -694.252    471.85458    1207.7463    80.522958    381.30472     568.9467    -3924.613 
 9585000    203.98663   -4352.4188   -4002.7927   -4352.4188            0    950.43237    17.970708    23.435741     22.18582    9343.7103    1605.8774    1330.3452   -84.925476   -1563.0913    140.98339   -191.38144   -3873.2788 
 9586000    200.55788   -4340.3538   -3996.6045   -4340.3538            0    2305.1338     17.83235    23.739577    21.944446    9289.7958    3129.9818   -104.25576    3889.6753   -1688.8693    552.71835    638.88807      -3684.3 
 9587000    208.81154   -4372.6907   -4014.7949   -4372.6907            0    1631.1062    18.058248    23.314827    22.085314     9298.468    1784.6004    1845.9094    1262.8088   -598.32748    46.199091    79.466496   -3793.6028 
 9588000    223.21981   -4358.7298   -3976.1387   -4358.7298            0    2006.6448     18.14456    23.258469    22.021107    9293.2306    1956.9123    3189.0432    873.97897   -215.43664    103.37762    415.37317   -3704.1736 
 9589000    197.85659   -4366.9679   -4027.8485   -4366.9679            0    1823.1817    17.865806    23.443803    22.107581    9259.5927    3019.8172    1389.6807    1060.0472   -878.45087   -501.41326   -116.44055    -3781.643 
 9590000    201.46483   -4344.0915   -3998.7877   -4344.0915            0    487.57486    17.962099    23.693963     21.91722    9327.8222    1507.2611   -18.423559   -26.112962   -527.98107   -312.09835    74.513096   -3932.4596 
 9591000    194.14382   -4358.1195   -4025.3636   -4358.1195            0    2383.5519    18.119329    23.230821    22.080316     9294.199    318.39044    3465.0395    3367.2257    709.28066   -95.364101   -515.77432   -3702.2818 
 9592000    213.03782   -4351.8874   -3986.7479   -4351.8874            0    582.92115    18.083482    23.574194    21.930767     9349.163    181.84334    936.58573    630.33438   -339.43274    17.304356   -365.95916   -3907.2678 
 9593000    201.11858   -4360.1553    -4015.445   -4360.1553            0    2226.5667     17.85593    23.557397    21.980711    9245.9493    2976.3164    1849.6783    1853.7053    650.08469    603.70653    778.96958   -3715.2088 
 9594000    193.11822   -4342.2171    -4011.219   -4342.2171            0    1915.2791    18.282214     23.20592    21.929959    9303.9074    356.74578    2822.9044     2566.187   -249.44009    599.53131    652.03623   -3751.3388 
 9595000    200.74318   -4360.3448   -4016.2779   -4360.3448            0    1298.9294    18.072727    23.405805    22.013213    9311.7368     1995.287    928.70201    972.79905    234.01504    -207.9613    -476.0654   -3839.8805 
 9596000    210.61784   -4345.3799   -3984.3881   -4345.3799            0    1031.5814    18.065697    23.515756    22.014029    9352.1873     1579.587    749.31924    765.83781    108.13199   -108.49509   -328.18436   -3843.6886 
 9597000    214.62516    -4367.303   -3999.4429    -4367.303            0    1397.8291    17.959186    23.412512     22.19869    9333.8761    1034.2431   -173.21429    3332.4585   -343.00634   -1.7755997   -61.535006   -3809.1634 
 9598000    190.01289   -4353.5752   -4027.8997   -4353.5752            0     1524.361    18.211507    23.490069    21.620814    9249.1585     153.5692    1454.6974    2964.8165   -113.76736    -552.0598   -354.87315   -3822.2794 
 9599000    214.35738   -4362.2037   -3994.8025   -4362.2037            0    2065.3986    18.000809     23.23573    22.111181    9248.2652    1616.2992    2644.0962    1935.8005     -467.301   -548.33222    85.715699   -3716.2288 
 9600000    210.61472   -4379.0879   -4018.1015   -4379.0879            0    159.36184    18.113784    23.668985    21.845023    9365.7234    16.555257    -831.9986    1293.5289    351.78934    -48.11684   -472.80339   -3996.3343 
 9601000    201.95103   -4377.7922   -4031.6551   -4377.7922            0    2454.8459    17.917603    23.400693    22.070548    9253.8346     2215.727    3145.2081    2003.6025     -172.484    420.99321    955.74513   -3700.3547 
 9602000    212.74136   -4350.4533   -3985.8218   -4350.4533            0    1945.7308    18.134296    23.412934    21.820069     9264.301    1814.1486   -119.31117    4142.3551    163.70715   -880.60503    159.18084   -3722.9335 
 9603000     201.2425   -4331.5398    -3986.617   -4331.5398            0    1727.0522    17.971729    23.245137    22.184632    9267.7481    2698.6176    2255.1761    227.36301    307.73901   -249.79734   -480.69332   -3753.1876 
 9604000    204.36051   -4352.7044   -4002.4375   -4352.7044            0    893.57386    17.974578    23.752728    21.819731    9315.8312    279.03521    929.53704    1472.1493   -548.81379   -57.185748   -67.368462   -3881.0349 
 9605000    207.74514   -4339.8309   -3983.7628   -4339.8309            0    1519.0941     17.98568    23.287371    22.177867    9288.9599     2134.251    1060.3363     1362.695   -1047.8549   -414.19087    -27.23021   -3777.9712 
 9606000    195.90841    -4362.829   -4027.0487    -4362.829            0    649.49505    18.119994    23.449669    22.005183    9350.1755    1511.5564    609.80558   -172.87682    79.238711   -81.115616    698.78948   -3938.4818 
 9607000     202.4948   -4363.3466   -4016.2774   -4363.3466            0    2033.9991    17.754774    23.372021    22.327781    9265.2462     2346.648    2768.9467    986.40266    1180.6072    246.60991    170.13214   -3741.4351 
 9608000       209.27   -4357.2146    -3998.533   -4357.2146            0    1085.3297    18.132286    23.438018    21.844461    9283.5651    220.84087    2307.6439    727.50443    714.49411   -550.82073    413.66885   -3851.5889 
 9609000    201.05463   -4349.3645   -4004.7637   -4349.3645            0    1767.4062    18.007832    23.310413    22.073131    9265.6384    2429.5249    1902.9332    969.76049    360.76189    91.405896    631.20554   -3765.9344 
 9610000    202.81588   -4356.6054    -4008.986   -4356.6054            0    1832.5953    18.045428    23.546181    21.791604    9259.2724    1198.8948    876.38708     3422.504    193.62248    145.60669    549.27296   -3761.5178 
 9611000     206.1427   -4348.0092   -3994.6876   -4348.0092            0    3350.5242    17.902541    23.236444    22.137639    9209.0673    2352.6633     4250.301    3448.6083   -1092.0957    359.36526   -552.89442   -3544.6961 
 9612000    204.63985   -4347.2762   -3996.5305   -4347.2762            0    1683.0667    17.993763     23.48881    21.921408    9265.1287    1881.2915    720.08007    2447.8285    520.94665   -761.08276   -360.49954   -3769.1105 
 9613000    216.98292    -4383.559   -4011.6577    -4383.559            0    1178.4377    17.909751     23.45621     22.16046    9309.4959    857.59072    923.67405    1754.0484   -466.59282    358.22214    320.23554   -3851.6619 
 9614000    204.92999   -4324.2961   -3973.0531   -4324.2961            0    419.53137    18.014342    23.525032    22.070572    9353.2431    410.67338   -898.59138    1746.5121     327.0863     348.4235    713.98936   -3915.8259 
 9615000    221.55415   -4362.3974   -3982.6612   -4362.3974            0    3748.8466    17.937757    23.467548    21.837363    9192.5513    2967.6322    3773.1177    4505.7899     78.23623    70.968477    647.52642    -3480.076 
 9616000     200.6912   -4353.9303   -4009.9524   -4353.9303            0    1839.5137    18.087487    23.219505    22.085498    9275.5225    1111.7023    1986.6579    2420.1809    657.38999   -530.55975    482.78688   -3761.1141 
 9617000    200.40911   -4373.3781   -4029.8837   -4373.3781            0    3115.9735    17.982229    23.581866    21.786196    9238.5344    2454.2952    2287.2806    4606.3446   -15.251764   -115.51262   -344.97402   -3610.0545 
 9618000    204.21561   -4369.4994   -4019.4809   -4369.4994            0    1215.8759    17.993651    23.424371    22.082336    9307.4828      2145.88   -17.785023    1519.5327   -760.35245   -415.21457    -623.3096   -3854.4378 
 9619000    207.63312   -4343.3019   -3987.4259   -4343.3019            0    2460.4359    18.180659    23.305054     21.85133    9258.4358    1259.1032    2588.6358    3533.5688    668.97776    512.19499    563.08712    -3655.206 
 9620000    207.97617    -4365.039    -4008.575    -4365.039            0    1212.2502    18.014757    23.337699    22.166975    9319.5053    1059.4372    1834.6569     742.6566   -1229.3316   -100.26859    -251.0481   -3843.8115 
 9621000    211.57504   -4377.5873   -4014.9549   -4377.5873            0    2002.2339    17.978532    23.543993    21.953019     9292.415    3030.5998    1329.8965    1646.2055   -165.08607    -115.5544   -407.20527   -3743.6115 
 9622000    218.99396   -4353.1515   -3977.8033   -4353.1515            0    1703.4895    18.028323    23.148017    22.122189    9232.0305    1539.4936     2724.629    846.34575   -427.77742   -44.450168   -76.361243    -3748.446 
 9623000    192.04313   -4357.1991   -4028.0437   -4357.1991            0    1156.4547    18.133627    23.484012    21.899721    9326.0029    714.26736    957.31343    1797.7833    -853.0447    30.450705     526.7467   -3870.7541 
 9624000    202.59298   -4330.6352   -3983.3977   -4330.6352            0    2156.9998    17.914541    23.414843    22.087226    9264.8441    3781.3544    1421.4827    1268.1622   -87.652122    224.52242   -471.38429   -3691.9477 
 9625000    216.40916   -4342.0171   -3971.0992   -4342.0171            0    972.38549    18.172461    23.542325    21.812717    9331.9597    159.91414   -102.40316    2859.6455   -686.55979    86.257313    164.03751   -3838.7604 
 9626000    200.67737   -4346.5823   -4002.6282   -4346.5823            0    1927.7493    18.141304    23.229977     22.12356    9323.3565    1555.3877    2007.9943     2219.866   -715.15768   -339.43168    198.97891    -3740.509 
 9627000    208.74297   -4352.4506   -3994.6723   -4352.4506            0    2002.2649    17.944896    23.675793     21.79885    9261.4516    2421.8652    1006.9961    2577.9333   -827.49678    609.92253    712.12224   -3724.2288 
 9628000    210.61819   -4363.9615   -4002.9691   -4363.9615            0    1360.6838     17.87695     23.35891    22.302351     9313.151    1654.2901    1529.1615    898.59981   -23.513715    376.69508    320.04327   -3818.1573 
 9629000    204.74421   -4333.6727   -3982.7482   -4333.6727            0    1240.1636    18.094347    23.440011    21.900063    9288.5109    765.46494    1132.0645    1822.9614   -265.80524   -301.85847   -979.45645   -3814.7514 
 9630000    199.11465   -4366.4402   -4025.1645   -4366.4402            0    1257.1592    17.966501    23.404674     22.16775     9321.541    1076.5496    701.06352    1993.8643   -517.69287      95.8844    59.197862   -3854.2599 
 9631000    191.97539   -4355.9915   -4026.9522   -4355.9915            0    2637.1874    18.064803    23.457765     21.81266    9243.3306    2499.6826    1337.7375    4074.1421    1200.0201   -213.45642    665.47653   -3671.4475 
 9632000    207.45305   -4328.5988   -3973.0314   -4328.5988            0    1673.2002    17.897423    23.314156    22.256513    9286.8261    2164.3858    1590.6698    1264.5449   -953.13013    709.62635   -95.413357   -3746.4151 
 9633000    205.78838   -4365.8564   -4013.1421   -4365.8564            0    1215.7469    18.161986    23.445326    21.883129    9318.1356      622.565    966.91995    2057.7558   -29.631463    447.27218   -696.05088   -3847.9276 
 9634000    198.67113   -4361.5434   -4021.0279   -4361.5434            0    3294.3403    17.897543    23.189725    22.151765    9193.8488    2164.1291    3498.2105    4220.6812   -520.10362   -7.3675074   -268.89791   -3579.3134 
 9635000    191.38706   -4363.3281   -4035.2972   -4363.3281            0    1393.5706    18.063265    23.522072    21.919762    9313.3875    1511.3803    1224.4828    1444.8488    408.77276    -537.1776   -457.99977   -3846.0138 
 9636000    204.50896   -4355.3912   -4004.8698   -4355.3912            0    2596.6874    17.851471    23.316362    22.144434    9217.2077    4212.2071    3208.1038    369.75127   -27.362523      212.157   -687.56792    -3655.814 
 9637000    208.46114   -4376.1601   -4018.8649   -4376.1601            0    706.83949    18.207249     23.57928    21.672874    9304.4645    895.92937    280.19553    944.39355   -101.41088    72.134329    33.235812   -3922.9495 
 9638000    205.11859   -4353.4255   -4001.8593   -4353.4255            0    1839.4877    17.978672    23.308585    22.111874    9266.1444    2046.8795    2810.9705    660.61308   -671.81633    83.807872    350.58285    -3753.276 
 9639000    187.87369   -4365.1157   -4043.1066   -4365.1157            0    1740.2391    18.054863    23.538762     21.79248    9261.5668    1534.9991    1884.5222    1801.1959    449.50688   -649.33462    1013.5618   -3808.0517 
 9640000    192.47405   -4340.4601   -4010.5662   -4340.4601            0    2288.4002    17.870301    23.348154    22.257858    9286.8361    3438.8908    2642.0813    784.22863   -254.85179   -64.968479    -252.9403   -3700.6276 
 9641000    211.13454   -4387.1462   -4025.2688   -4387.1462            0    1381.7595    18.073489    23.546626    21.874555    9309.1474    1928.3867    903.11348    1313.7782     112.6944   -642.55291    896.11166   -3837.6751 
 9642000    199.46092   -4360.6354   -4018.7662   -4360.6354            0    872.66696    17.920524     23.34808    22.260305    9313.9305    785.77943    1260.5524    571.66904   -193.09038    542.75154   -267.38852   -3900.2283 
 9643000    187.06681   -4340.1051    -4019.479   -4340.1051            0    1234.3588    18.145331    23.378344    21.970389    9320.0099    434.73031    1824.5685    1443.7775   -340.28165   -686.27992    207.89303   -3851.7015 
 9644000    202.18348   -4359.1928   -4012.6573   -4359.1928            0    1286.0034    17.859303    23.466461    22.277636    9336.4378    1342.6074     1471.099    1044.3037   -18.947014   -66.687338   -610.56999    -3837.552 
 9645000    219.52714     -4359.43    -3983.168     -4359.43            0    1419.4563    18.067711     23.54439    21.801213    9274.0889    1427.2703   -14.034785    2845.1334   -700.49475   -758.99009   -518.35632   -3791.1821 
 9646000    202.35234   -4359.7036   -4012.8786   -4359.7036            0    1356.5883    18.027454    23.119466     22.23364    9266.6499    1689.0941    1226.7794    1153.8913   -1092.1616    203.42338     69.78084   -3829.5431 
 9647000    199.87135   -4377.4997   -4034.9271   -4377.4997            0    3088.5029    18.018869     23.38807    21.924375    9239.5138    2873.2898    3757.7484    2634.4704    447.17669   -704.97819   -10.684182   -3618.7549 
 9648000    194.88643   -4362.4135   -4028.3848   -4362.4135            0    2267.9264    17.823151    23.291155    22.149026    9194.5426    3736.3187    2725.0438    342.41662   -343.55166   -185.36438    -136.7487   -3724.2718 
 9649000    209.21794   -4328.5387   -3969.9463   -4328.5387            0    562.31374    18.138004    23.583574    21.808985    9328.9889    770.03126   -1024.2531     1941.163    284.95957    13.253768   -56.509709   -3893.4414 
 9650000    201.38378   -4360.9329    -4015.768   -4360.9329            0    1160.5922    17.961698    23.324128    22.209483    9304.4618    1705.3586    1068.6966    707.72126    -299.2788   -772.10173   -761.16517   -3858.2803 
 9651000    206.62555   -4342.8954   -3988.7463   -4342.8954            0    1320.0484    18.208427    23.557663    21.744293    9327.1711     1740.134    331.63725    1888.3741   -400.68929   -389.19434   -550.36099   -3809.1838 
 9652000    190.77801   -4357.6235   -4030.6366   -4357.6235            0    635.43231    17.923487     23.38454    22.233045    9318.5922    1198.8529    560.50269    146.94133    1391.1373   -909.14461    120.85327     -3944.28 
 9653000    211.42965   -4360.5495   -3998.1663   -4360.5495            0    2055.1725    18.178357    23.602944     21.68136    9302.6639      1038.94    2272.5707    2854.0069   -410.25572    117.15711   -631.18121   -3719.3414 
 9654000    194.94921   -4358.5402   -4024.4039   -4358.5402            0    1274.8751    17.930321    23.385579    22.159587    9291.7574    1762.5721    1568.0487    494.00458   -360.70338    188.07447   -173.65852   -3851.6446 
 9655000    206.93163   -4365.3219   -4010.6482   -4365.3219            0    1156.8014    18.180482    23.495837    21.841762    9330.0504     1603.345    1592.0172    275.04198    478.96457   -121.39352    116.10597   -3853.2431 
 9656000     195.9282    -4383.214   -4047.3997    -4383.214            0    2452.3519    17.980356    23.266582    22.169799    9274.5455     3880.634    2067.4969    1408.9249   -416.92132   -432.98988   -370.15552   -3715.6953 
 9657000    206.20462    -4370.278   -4016.8503    -4370.278            0     1549.515    18.064298    23.630163    21.833344    9319.8313    1406.2531    1974.6347    1267.6572   -1035.6858    -302.5359   -4.8097567     -3806.24 
 9658000    208.15316   -4376.0773   -4019.3099   -4376.0773            0    2023.0222    17.932741    23.317761    22.164126    9267.9598    2611.4198    2416.6087    1041.0383     30.48178   -522.92647   -135.74124   -3745.8708 
 9659000    198.90243   -4351.7599   -4010.8479   -4351.7599            0    2082.1117    18.121254    23.315713    21.980565    9287.0074    898.83588    3568.1768    1779.3224    100.80865   -224.13028    530.20929   -3728.8436 
 9660000    212.01001    -4341.974   -3978.5961    -4341.974            0    2770.3783    18.055322    23.282137    22.016685    9255.0766    1679.9694    3333.4401    3297.7254   -35.796564   -199.84022   -343.03062    -3604.662 
 9661000    198.94794   -4371.1018   -4030.1118   -4371.1018            0    2213.7794    17.808194    23.616811    22.034456    9267.0919    2865.5396    2825.0993    950.69923    385.45248   -427.06415    209.78076   -3730.9172 
 9662000    193.61515   -4348.1748   -4016.3251   -4348.1748            0    1125.1936    18.029178    23.419139    22.023259    9298.8327    949.95846    1531.4543    894.16821    92.363971    4.8005632     309.7958   -3863.7331 
 9663000    205.58694   -4353.8431   -4001.4741   -4353.8431            0    1644.3246    18.203394    23.381347    21.920879    9329.9617    210.41627    2321.1295    2401.4282   -47.006315    233.71609   -489.18095   -3777.7343 
 9664000    202.81147   -4366.6462   -4019.0343   -4366.6462            0    1512.1918    17.872736    23.597617     22.08667    9315.1407    3666.0093    2214.5757   -1344.0096     415.6506    1106.1441   -99.394587   -3813.6004 
 9665000    205.82037   -4361.3425   -4008.5734   -4361.3425            0    1295.3036    18.041892    23.475084    21.964012    9302.5264   -19.914489    2136.9198    1768.9055    273.60557    228.63983   -365.81897   -3832.8424 
 9666000    204.17639   -4342.6875   -3992.7362   -4342.6875            0     2123.705     18.05557    23.318067    22.110063    9308.8007    2014.2636    2535.1845     1821.667   -704.26053     222.6089   -658.93976   -3704.4234 
 9667000    200.03284   -4369.0463   -4026.1968   -4369.0463            0    141.08266    17.953101    23.692007    22.056337    9381.5525    445.24993    181.38153   -203.38347   -422.11576    -872.6343   -340.63401   -4006.8938 
 9668000    215.10084   -4344.4437   -3975.7682   -4344.4437            0     1700.933    18.034723     23.50145    21.991792    9321.0483    2334.2242     987.7484    1780.8263   -401.45325   -16.622199   -264.08364   -3744.5469 
 9669000    206.41561   -4334.9249   -3981.1356   -4334.9249            0     1926.439     18.02927    23.398571    22.001491    9281.5308    1074.7781    2020.3473    2684.1916   -925.60452   -120.32568    613.15261   -3720.3697 
 9670000    206.72256    -4362.027   -4007.7116    -4362.027            0    671.33197     17.95498    23.458968    22.190281    9346.6641      1708.92    343.96574   -38.889822    548.29018    233.92914    281.73484   -3916.2013 
 9671000    202.32952   -4356.5144   -4009.7285   -4356.5144            0    1092.7725    18.092669    23.461843    21.988537     9333.856    674.52196   -98.718491    2702.5139     274.0119   -77.348789    194.37528   -3860.9752 
 9672000    205.87679   -4364.9682   -4012.1025   -4364.9682            0    1813.5119    18.041476    23.327762    22.085904    9295.2336    1259.1186    3069.5514    1111.8657   -1140.8239    562.07215    110.46576   -3766.2602 
 9673000    194.94208   -4350.1226   -4015.9985   -4350.1226            0     1505.583    18.039593    23.549369      21.8894    9299.0774    1418.2256    1355.6874     1742.836    984.56263   -447.10744    1168.0546   -3811.8151 
 9674000    204.99507   -4368.8022   -4017.4477   -4368.8022            0    3021.9526    17.928812    23.275134    22.086281    9216.5059    2085.0335    2768.7058    4212.1185    190.75274   -671.50988   -3.4271795   -3611.2571 
 9675000    201.67938   -4345.1498   -3999.4782   -4345.1498            0    1600.9365    18.164789    23.377733    22.024034    9352.5413    720.57199    2137.6419    1944.5954    713.88646   -401.81327    80.989668   -3781.1149 
 9676000     196.3344   -4351.8246   -4015.3142   -4351.8246            0    2937.3319    17.718033    23.656639    22.056975    9245.1618     3500.304    2023.1278    3288.5639    407.36576    345.46367   -586.67632   -3619.2702 
 9677000    203.07699     -4337.39    -3989.323     -4337.39            0    834.83644    18.131879    23.535126    22.047147    9408.3126    487.05236    524.76998     1492.687    259.72999   -315.47912   -274.70536   -3874.7746 
 9678000    213.15078   -4351.6863   -3986.3531   -4351.6863            0   -182.39892     18.22247    23.317479    22.138986    9406.9009   -1034.1463    961.01842   -474.06888     -654.782    358.22559   -219.12434   -4011.3765 
 9679000    204.44292   -4361.8205   -4011.4123   -4361.8205            0    1525.1134    17.889833    23.597861    22.081906     9322.137    1977.7084    1269.9975    1327.6343    1343.1847    728.80116   -247.04896   -3804.0674 
 9680000    203.77137   -4361.5391   -4012.2819   -4361.5391            0    1368.0174    17.958866    23.564627    21.995478    9308.3537    1975.1904    511.24763    1617.6142   -898.87043    -162.6628    480.44537   -3826.5698 
 9681000    214.04636   -4360.7391    -3993.871   -4360.7391            0    2337.8145    18.299781    23.023067    21.929325    9239.1987    1263.7144    4037.3643     1712.365   -463.56222   -1089.2465    442.67186    -3678.864 
 9682000    205.91709   -4330.6466   -3977.7118   -4330.6466            0    1036.0589     18.03705    23.436964     22.08063    9334.2264    495.67406    2244.7819    367.72081   -1157.3635    30.327639    730.51028   -3836.6729 
 9683000    201.60132   -4364.1674   -4018.6297   -4364.1674            0    1613.9032    17.849638    23.723623    21.947334    9293.7758     2625.589   -19.059704    2235.1804    -767.7367    845.04505   -470.37551   -3799.8809 
 9684000    206.07643   -4374.0535   -4020.8455   -4374.0535            0     2869.193     18.03715    23.399945    21.959503    9268.4101    1445.1862    3967.2392    3195.1537   -747.54153   -290.67677    455.41944    -3633.016 
 9685000    207.96812    -4348.213   -3991.7628    -4348.213            0    1641.0907    18.176335    23.153594    22.045601    9277.8355     1830.094    1339.1341    1754.0439    354.06614   -539.15421    504.87812   -3769.7105 
 9686000    206.60862   -4344.1632   -3990.0431   -4344.1632            0    1803.4787    17.911882    23.523189    22.063947    9296.5247    1971.0541    1519.5424    1919.8395    46.651273    123.66479    -76.56038    -3745.527 
 9687000    198.60631   -4354.2045   -4013.8001   -4354.2045            0    1074.3175    17.991819    23.466112    22.045081    9307.3901    1777.7363   -169.64558    1614.8617    537.89659   -140.96898    859.58587   -3867.9736 
 9688000    217.53472   -4355.4076   -3982.5605   -4355.4076            0    1741.1518    18.134179    23.279769    21.945302    9264.4176    845.82694    3297.3458    1080.2825     -1586.31    52.385104   -4.5708588   -3747.3099 
 9689000    204.84508   -4379.4613   -4028.3638   -4379.4613            0     1579.915    18.120304    23.282775    22.025772    9292.4741    1498.7489    2530.2348    710.76121    9.5383582   -567.97991    176.57289   -3814.2518 
 9690000    215.77793   -4340.5193   -3970.6833   -4340.5193            0     190.2964    17.909896    23.688342    22.193673    9415.7934    325.53957   -152.97163    398.32127   -339.99211    802.09147    608.78881   -3944.5519 
 9691000     214.2873     -4363.06   -3995.7789     -4363.06            0    2462.2077    17.941293    23.589918    21.849104    9247.2756    2474.2163    1387.6855    3524.7213   -443.16652    1096.0648   -207.10966   -3663.7206 
 9692000    210.37371   -4357.8404   -3997.2671   -4357.8404            0    1081.4652    18.133415     23.22163    22.189059    9343.5346    992.06669    1634.6766    617.65219   -343.88074   -227.69283   -258.70976   -3849.9003 
 9693000    196.53046   -4338.0493   -4001.2029   -4338.0493            0    1507.5587    18.092933    23.651348    21.911304    9376.3347    1622.2443    1041.0452    1859.3865    1164.5078    915.27373     688.2125   -3795.0529 
 9694000    210.49597   -4341.6104   -3980.8275   -4341.6104            0    2313.4932    17.906354    23.364443    22.158264    9270.3971    2845.8112    1206.7652    2887.9032    1027.3252   -553.54061   -667.55352    -3668.045 
 9695000    213.01087   -4370.3771   -4005.2838   -4370.3771            0    3412.5316    18.119161    23.237886    21.903823    9222.6265    3538.3827    4171.5458    2527.6664   -258.15019    86.428257     470.1473   -3546.2896 
 9696000    208.63899   -4360.1877   -4002.5877   -4360.1877            0    2082.4715    18.014703    23.341393    22.051168    9272.2573    4332.2935     1137.497     777.6238   -1441.4593   -291.30521    46.443677   -3720.9826 
 9697000     194.9865   -4336.5683   -4002.3681   -4336.5683            0    1232.6952    18.090972    23.500679    22.068174    9382.2872    464.98094    1481.0727    1752.0319    783.99845    73.031221   -300.39864   -3833.6971 
 9698000    204.41092   -4346.6062   -3996.2529   -4346.6062            0    1242.1929    18.026726    23.371811    22.072303    9299.4417    586.87057    2201.4703    938.23777   -20.732197   -19.211992    578.79004   -3827.7832 
 9699000    211.81891     -4349.46   -3986.4096     -4349.46            0    707.10379    17.970888    23.470268    22.183106    9356.4251    795.01568    1287.1947       39.101    588.14094   -443.55868   -910.83091   -3889.9226 
 9700000    202.26595    -4355.246   -4008.5691    -4355.246            0    2162.2573    18.087348    23.615151    21.727631    9280.6417     2034.243    2177.2358    2275.2932    312.65984   -87.128206   -154.38479   -3715.9105 
 9701000    212.33117   -4366.3479   -4002.4196   -4366.3479            0    1271.0298    17.898455    23.193933    22.337512    9273.0959    1758.7554    1164.2579    890.07617    42.268067   -686.67588    536.26872   -3830.5273 
 9702000     204.5509   -4347.2173    -3996.624   -4347.2173            0    2398.9754    18.076405    23.393169    21.861459    9244.4329    410.37875    4291.1306    2495.4168    72.331412    -645.5016    22.224642   -3673.1928 
 9703000    204.05487   -4374.4632   -4024.7201   -4374.4632            0    799.49513    17.770768    23.477975    22.391592    9342.2569    2052.1033    1238.1874   -891.80535    538.45186   -163.75667    367.88076   -3915.7911 
 9704000     194.1787   -4352.9948   -4020.1792   -4352.9948            0     2422.424    18.117385    23.349032    21.895105    9262.1418    2882.1766    2742.8338    1642.2616   -1168.0536    303.51641    368.00301    -3692.961 
 9705000    204.61185   -4377.0575   -4026.3598   -4377.0575            0    3101.9431    18.002104    23.252951    21.998943    9208.8021    2646.8934    2948.1262    3710.8097    127.03459    460.18405   -711.23985    -3609.766 
 9706000    199.17658   -4363.0698    -4021.688   -4363.0698            0    898.49726     17.90445    23.903287    21.834359     9344.564    518.99538    768.24152    1408.2549   -1201.2885    160.76479   -463.26568     -3899.24 
 9707000    201.37541   -4358.6783   -4013.5277   -4358.6783            0     925.3044    18.008245    23.397624    22.102433    9312.8636   -137.29762    1626.3765    1286.8343   -84.962568   -890.35783   -116.07441   -3887.8542 
 9708000    205.78871   -4346.6939   -3993.9791   -4346.6939            0    1816.8024    18.206273    23.328193    21.970241    9331.1888    839.34677    2928.6284     1682.432    -1399.384    769.90929    295.36262    -3746.738 
 9709000    202.36429   -4352.1363   -4005.2908   -4352.1363            0    1728.6658    17.905999    23.450105    22.072236    9268.0781    2213.7267    1721.8963    1250.3743    94.540129   -246.95985   -216.64823    -3771.635 
 9710000    214.70628   -4350.7224   -3982.7232   -4350.7224            0    431.26411    18.137211    23.502206    21.955361    9358.7905   -905.17231    473.13265     1725.832   -59.116994    40.032406    1036.6428   -3923.8606 
 9711000    195.49735   -4351.7702   -4016.6944   -4351.7702            0    611.63262    18.169688    23.361382    22.177503    9413.6631     423.5354    1782.9157   -371.55323   -668.21933   -45.100002    65.807334   -3932.7242 
 9712000    197.93261   -4342.2914   -4003.0417   -4342.2914            0    1839.3418    17.942857    23.583727    22.023363    9319.3938    2761.8891    1642.6556    1113.4806    -45.40998    780.52784   -278.28805   -3753.0498 
 9713000    214.10863   -4356.7095   -3989.7346   -4356.7095            0    1407.8916    18.084555    23.523197    21.938669    9332.8538    1845.2582    692.73792    1685.6786   -132.89635    294.64477    609.83026   -3798.1064 
 9714000    197.81957   -4349.9216   -4010.8656   -4349.9216            0    1559.6245    18.127213    23.284371    22.136091     9343.218    1002.5888    3470.4207    205.86404   -481.53669   -54.853821   -363.20387   -3798.3493 
 9715000    197.16648   -4389.4762   -4051.5396   -4389.4762            0    1889.6705    17.892351    23.701357    21.911464    9292.0604    4057.6988    -141.8188    1753.1316   -57.739354    949.50085    108.48306   -3795.4606 
 9716000    201.15812    -4368.099   -4023.3208    -4368.099            0    1358.9778    18.014645    23.338679    22.214499    9339.8198    1422.5696    1706.0019    948.36187   -755.94086   -1033.5913    23.731721   -3838.2122 
 9717000    197.11477    -4363.575    -4025.727    -4363.575            0    1635.7208    18.144438    23.331707    21.979787    9304.9388    1792.4786    665.73256    2448.9513   -192.31005   -418.37774   -253.42086   -3803.7548 
 9718000    209.73846   -4354.5647   -3995.0801   -4354.5647            0    2843.5004    17.694162    23.488547    22.254695    9249.2771    4118.7204    2924.7543    1487.0265   -1125.7514    85.247118   -349.82782   -3611.5169 
 9719000    212.20772    -4354.755   -3991.0383    -4354.755            0    2409.9976    18.067043    23.473132     21.88977    9283.2343    2278.8754    3227.8243    1723.2932   -330.14458     374.4196    875.60394   -3664.7572 
 9720000    197.66978   -4368.2047   -4029.4055   -4368.2047            0    1742.1908    18.193883    23.034581    22.233217    9317.6851    1259.6097    2413.4247    1553.5379   -684.55634     67.22823   -121.02139   -3792.6611 
 9721000    195.77713   -4347.0064   -4011.4511   -4347.0064            0    1712.6553    17.994517    23.656526    21.926248    9333.7356    2035.2394    2184.7941     917.9324    28.994065   -773.52513     3.011848   -3778.3194 
 9722000    203.63112   -4365.5002   -4016.4835   -4365.5002            0    2456.7221    17.871774    23.340214    22.095677    9216.7926    3355.9829    2850.2199    1163.9636    208.28392    -411.7404   -215.01322   -3686.2571 
 9723000    201.18292   -4361.1426    -4016.322   -4361.1426            0    649.85531    18.242345    23.345862    21.921163    9335.8568    258.03489     357.4044    1334.1266    999.54551   -32.962104    641.95592   -3927.8416 
 9724000    206.08129   -4354.6978   -4001.4816   -4354.6978            0    2612.3722    17.804691    23.348584    22.106319    9189.9132    4319.6994    3499.4935    17.923718   -535.50906    46.287439   -91.631786   -3651.3572 
 9725000    195.04351   -4353.5013   -4019.2034   -4353.5013            0    285.94712    18.128552    23.657941     21.88549    9386.3409   -811.25621    285.69168    1383.4059    426.45412    215.10196   -447.99502   -3980.0601 
 9726000    196.82948   -4337.8191   -4000.4601   -4337.8191            0    1239.2467    18.103627    23.284487    22.180758    9349.9362     422.3499    2081.4801    1213.9101   -620.84265   -766.71494    1096.3208   -3831.4774 
 9727000    222.34693   -4336.8564   -3955.7614   -4336.8564            0    1529.7409    18.087799    23.652398    21.745625    9303.2089   -76.700403    1768.7975    2897.1256    606.22391   -674.55925    -647.8977   -3748.2096 
 9728000    217.69737   -4355.7974   -3982.6716   -4355.7974            0    1917.8659    18.010534    23.429193      22.0596      9308.54    2234.4069    1317.0696    2202.1211    737.99526    411.34798    206.21253   -3722.3107 
 9729000    216.77031   -4365.1301   -3993.5932   -4365.1301            0    373.35873    18.165821    23.388481     22.03481    9361.9506    972.48593    739.30333   -591.71306      1093.52    285.01948   -108.97791   -3942.6169 
 9730000    207.63797    -4327.436   -3971.5516    -4327.436            0    989.61755    18.139234    23.175064    22.201695    9333.1026    1015.5936    1866.8613    86.397752    -294.0637    286.09125    753.01817   -3836.8511 
 9731000    209.49193   -4349.3146   -3990.2526   -4349.3146            0    1253.0315    17.979578    23.774276    21.875084    9350.5362    871.36209     735.4302    2152.3021   -467.19138    576.12507    179.09583   -3819.3792 
 9732000    205.18486   -4351.9915   -4000.3117   -4351.9915            0    1562.1434    17.932859    23.459085    22.080917    9289.1868    531.04367    390.13391    3765.2526   -268.94768   -355.96794   -188.24323    -3788.683 
 9733000    196.60778   -4355.2014   -4018.2224   -4355.2014            0    1318.3802    18.318949    23.295623    21.891759    9342.3372    1025.4426     2223.366    706.33218   -275.70902   -16.264474    288.91298   -3838.5952 
 9734000    204.45357    -4337.716   -3987.2895    -4337.716            0    1388.2018    18.009846    23.403004    22.168089    9343.5057    2024.5333    1391.1282    748.94401    1175.3342   -236.51832    302.70902   -3798.1256 
 9735000    199.14964    -4360.469   -4019.1333    -4360.469            0    2862.8333    17.959232    23.428732    21.945197    9233.7056    3085.1176    1036.2596    4467.1228    743.74757    464.83103     989.3465   -3633.6123 
 9736000    206.56892   -4363.5949   -4009.5428   -4363.5949            0    2775.3423    18.095429    23.232095    21.930467    9219.4528    1695.0549    4015.3164    2615.6557    -402.3904   -1612.0921   -291.02812   -3636.3807 
 9737000    210.30964   -4367.1261   -4006.6625   -4367.1261            0    1255.8494    18.141718     23.27031    22.037657    9303.4926    860.79256    2444.6419    462.11377    664.03712    196.37418   -534.88957   -3836.2665 
 9738000     206.5766    -4346.344   -3992.2787    -4346.344            0    2057.0934    17.964662    23.560572    22.004044    9313.3812    2689.2622    898.81509     2583.203    -538.8422   -157.89256    73.896908   -3712.8717 
 9739000    200.52772   -4347.9514   -4004.2538   -4347.9514            0    765.19264    18.032953    23.513655    22.142239    9388.7666    1194.1752   -73.172209    1174.5749   -319.64786    134.92489    44.930633   -3899.4793 
 9740000    202.04729   -4347.6304   -4001.3282   -4347.6304            0    1430.9649    18.059451    23.342938     22.03486    9289.0298    2258.2043    296.59647    1738.0938   -767.69038   -1499.1254   -227.52203    -3807.474 
 9741000    193.10092   -4351.0621   -4020.0937   -4351.0621            0   -977.29184    18.135133     23.43935    22.222938    9446.4312    -2108.731   -1153.9004    330.75587    133.26351   -99.895655    626.22315   -4154.7318 
 9742000    206.12314   -4354.0607   -4000.7727   -4354.0607            0      1781.82    17.981861    23.423557    21.997132     9265.173    1464.1713    2152.6395    1728.6491    133.79025   -271.78524   -323.16989   -3760.0077 
 9743000    216.48339   -4361.3249   -3990.2798   -4361.3249            0    1910.5423    17.872609    23.572028    22.103495    9312.0617    2005.4296    1731.5362    1994.6612   -757.03224    475.37492   -942.31603    -3730.815 
 9744000    204.90777   -4341.1562   -3989.9513   -4341.1562            0    2323.8976     18.29698    23.145094     21.87434     9263.462    2028.9987    2918.9952    2023.6988   -471.69254    99.045792    438.34661   -3675.9972 
 9745000    201.69602   -4325.9359   -3980.2359   -4325.9359            0     2069.501    18.069117    23.401787    22.007665    9305.9327    569.61431     2480.732    3158.1567   -1766.7508   -1046.4317   -384.02756   -3699.3684 
 9746000     210.7583   -4368.0199   -4006.7874   -4368.0199            0    714.35238    17.831287    23.691552     22.09188    9332.7337    1317.7936   -261.11461    1086.3782    12.422556    209.54206    55.753275    -3909.558 
 9747000    201.32804   -4350.3296   -4005.2602   -4350.3296            0    1028.0671    18.161608    23.369998    22.011449    9342.4679    546.33311    1382.8482      1155.02    218.56744   -48.922133    362.29296   -3865.1858 
 9748000     215.9642   -4347.2821   -3977.1269   -4347.2821            0    983.27655    18.170002    23.254527    22.152047    9360.0104    989.17751    1594.4069    366.24527    -971.7222     19.77395   -811.40803   -3842.9036 
 9749000    192.98178   -4351.1311    -4020.367   -4351.1311            0     1752.796    18.005689    23.555736    21.927931    9300.4526    2142.8505    2919.8217    195.71568   -498.27929     96.07725   -195.39328    -3782.622 
 9750000    218.58596   -4345.3948    -3970.746   -4345.3948            0    1142.3012    17.942168    23.578984    22.159951    9374.9468    821.69326    548.18413    2057.0263    9.0688598   -98.405572   -241.78874    -3814.566 
Loop time of 350.117 on 64 procs for 250000 steps with 864 atoms

Performance: 123.387 ns/day, 0.195 hours/ns, 714.047 timesteps/s
194.3% CPU use with 32 MPI tasks x 2 OpenMP threads

MPI task timing breakdown:
Section |  min time  |  avg time  |  max time  |%varavg| %total
---------------------------------------------------------------
Pair    | 16.887     | 25.186     | 32.9       |  99.8 |  7.19
Bond    | 1.0089     | 1.2484     | 1.9807     |  17.2 |  0.36
Kspace  | 175.92     | 184.43     | 192.61     |  39.5 | 52.68
Neigh   | 1.1137     | 1.1724     | 1.2167     |   2.5 |  0.33
Comm    | 51.626     | 55.42      | 58.718     |  24.7 | 15.83
Output  | 0.57738    | 0.57846    | 0.57996    |   0.0 |  0.17
Modify  | 63.72      | 65.866     | 70.98      |  20.7 | 18.81
Other   |            | 16.21      |            |       |  4.63

Nlocal:        27.0000 ave          38 max          19 min
Histogram: 6 5 5 0 2 5 1 3 3 2
Nghost:        2105.56 ave        2206 max        2012 min
Histogram: 11 5 0 0 0 0 0 2 7 7
Neighs:        6484.34 ave        8875 max        4461 min
Histogram: 7 3 3 3 0 5 2 1 3 5

Total # of neighbors = 207499
Ave neighs/atom = 240.16088
Ave special neighs/atom = 2.0000000
Neighbor list builds = 4378
Dangerous builds = 0

unfix		3
unfix		2
unfix		1

write_data	data.final.${pid} nocoeff
write_data	data.final.0 nocoeff
System init for write_data ...
PPPM initialization ...
  extracting TIP4P info from pair style
  using 12-bit tables for long-range coulomb (../kspace.cpp:340)
  G vector (1/distance) = 0.37127636
  grid = 24 27 25
  stencil order = 5
  estimated absolute RMS force accuracy = 0.0032147489
  estimated relative force accuracy = 9.681121e-06
  using double precision FFTW3
  3d grid and FFT values/proc = 4410 672
Last active /omp style is kspace_style pppm/tip4p/omp

write_restart   restart.lmp.${pid}
write_restart   restart.lmp.0
System init for write_restart ...
PPPM initialization ...
  extracting TIP4P info from pair style
  using 12-bit tables for long-range coulomb (../kspace.cpp:340)
  G vector (1/distance) = 0.37127636
  grid = 24 27 25
  stencil order = 5
  estimated absolute RMS force accuracy = 0.0032147489
  estimated relative force accuracy = 9.681121e-06
  using double precision FFTW3
  3d grid and FFT values/proc = 4410 672
Last active /omp style is kspace_style pppm/tip4p/omp
Total wall time: 0:05:50
