LAMMPS (30 Jul 2021)
Processor partition = 1
  using 2 OpenMP thread(s) per MPI task
using multi-threaded neighbor list subroutines
variable        pid world 0 1
variable        phase world IceIh IceIII

shell cd ${phase}
shell cd IceIII
include Restart.lmp
echo both
log log.lammps
#include		in.partitions
include		in.temp
variable        temperature equal 205.22
variable	tempDamp equal 100.0
include		in.pressure
variable        pressure equal 1664.2
variable        pressureDamp equal 1000.0 # This is 1 ps
include		in.seed
variable        seed equal 745823

units		real
atom_style	full

read_restart	restart.lmp.${pid}
read_restart	restart.lmp.1
Reading restart file ...
  restart file = 30 Jul 2021, LAMMPS = 30 Jul 2021
  restoring atom style full from restart
  orthogonal box = (-0.048838769 -0.14570022 -0.074755927) to (20.048840 20.145701 20.774754)
  2 by 4 by 4 MPI processor grid
  restoring pair style lj/cut/tip4p/long/omp from restart
  restoring bond style harmonic/omp from restart
  restoring angle style harmonic/omp from restart
  972 atoms
  648 bonds
  324 angles
Finding 1-2 1-3 1-4 neighbors ...
  special bond factors lj:    0        0        0       
  special bond factors coul:  0        0        0       
     2 = max # of 1-2 neighbors
     1 = max # of 1-3 neighbors
     1 = max # of 1-4 neighbors
     2 = max # of special neighbors
  special bonds CPU = 0.002 seconds
  read_restart CPU = 0.006 seconds
include 	in.setup
variable	out_freq equal 1000
variable	out_freq2 equal 10000
variable	out_freq3 equal 1000

timestep	2.0

neigh_modify    delay 7 every 1

include		in.tip4p
# This is TIP4P/Ice

# create groups ###
group ox type 2
324 atoms in group ox
group hy type 1
648 atoms in group hy

# set charges - beside manually ###
set group ox charge -1.1794
Setting atom values ...
  324 settings made for charge
set group hy charge 0.5897
Setting atom values ...
  648 settings made for charge

# ### TIP3P Potential Parameters ###
pair_style lj/cut/tip4p/long/omp 2 1 1 1 0.1577 8.5
pair_coeff 1 1*2 0.000 0.000
pair_coeff 2 2 0.21084 3.1668
bond_style  harmonic
bond_coeff  1 450 0.9572
angle_style harmonic
angle_coeff 1 55 104.52
kspace_style pppm/tip4p/omp 1.0e-5
pair_modify tail yes

thermo          ${out_freq}
thermo          1000
thermo_style    custom step temp pe etotal epair emol press lx ly lz vol pxx pyy pzz pxy pxz pyz enthalpy

restart 	${out_freq3} restart.lmp.${pid} restart2.lmp.${pid}
restart 	1000 restart.lmp.${pid} restart2.lmp.${pid}
restart 	1000 restart.lmp.1 restart2.lmp.${pid}
restart 	1000 restart.lmp.1 restart2.lmp.1


include         in.dump
dump            myDump all atom ${out_freq2} dump.water.${pid}
dump            myDump all atom 10000 dump.water.${pid}
dump            myDump all atom 10000 dump.water.1
dump            myDump2 all dcd ${out_freq2} dump.dcd
dump            myDump2 all dcd 10000 dump.dcd
dump_modify     myDump append yes
dump_modify     myDump2 append yes


variable natoms 	equal  "count(all)"                        # NUMBER ATOMS
variable H      	equal  "enthalpy/v_natoms"                 # ENTHALPY-per-atom
variable Vol      	equal  "vol/v_natoms"                 # volume-per-atom
fix AVG all 		ave/time ${out_freq} 1 ${out_freq} v_Vol v_H file vol_enthalpy.dat
fix AVG all 		ave/time 1000 1 ${out_freq} v_Vol v_H file vol_enthalpy.dat
fix AVG all 		ave/time 1000 1 1000 v_Vol v_H file vol_enthalpy.dat


timer           timeout 02:55:00 every 1000
New timer settings: style=normal  mode=nosync  timeout=02:55:00

fix 		1 all shake 1e-6 200 0 b 1 a 1
Finding SHAKE clusters ...
       0 = # of size 2 clusters
       0 = # of size 3 clusters
       0 = # of size 4 clusters
     324 = # of frozen angles
  find clusters CPU = 0.000 seconds
fix             2 all nph aniso ${pressure} ${pressure} ${pressureDamp}
fix             2 all nph aniso 1664.2 ${pressure} ${pressureDamp}
fix             2 all nph aniso 1664.2 1664.2 ${pressureDamp}
fix             2 all nph aniso 1664.2 1664.2 1000
fix             3 all temp/csvr ${temperature} ${temperature} ${tempDamp} ${seed}
fix             3 all temp/csvr 205.22 ${temperature} ${tempDamp} ${seed}
fix             3 all temp/csvr 205.22 205.22 ${tempDamp} ${seed}
fix             3 all temp/csvr 205.22 205.22 100 ${seed}
fix             3 all temp/csvr 205.22 205.22 100 745823


run             250000
PPPM initialization ...
  extracting TIP4P info from pair style
  using 12-bit tables for long-range coulomb (../kspace.cpp:340)
  G vector (1/distance) = 0.37177262
  grid = 24 24 25
  stencil order = 5
  estimated absolute RMS force accuracy = 0.003487306
  estimated relative force accuracy = 1.0501918e-05
  using double precision FFTW3
  3d grid and FFT values/proc = 3458 576
Last active /omp style is kspace_style pppm/tip4p/omp
Neighbor list info ...
  update every 1 steps, delay 7 steps, check yes
  max neighbors/atom: 2000, page size: 100000
  master list distance cutoff = 10.8154
  ghost atom cutoff = 10.8154
  binsize = 5.4077, bins = 4 4 4
  1 neighbor lists, perpetual/occasional/extra = 1 0 0
  (1) pair lj/cut/tip4p/long/omp, perpetual
      attributes: half, newton on, omp
      pair build: half/bin/newton/omp
      stencil: half/bin/3d
      bin: standard
Setting up Verlet run ...
  Unit style    : real
  Current step  : 9500000
  Time step     : 2
  Walltime left : 2:54:59.94
Per MPI rank memory allocation (min/avg/max) = 10.19 | 10.19 | 10.20 Mbytes
Step Temp PotEng TotEng E_pair E_mol Press Lx Ly Lz Volume Pxx Pyy Pzz Pxy Pxz Pyz Enthalpy 
 9500000    207.20282   -4783.9362   -4384.3281   -4783.9362            0     292.5055    20.097679    20.291401     20.84951    8502.6399    229.14554   -307.79584    956.16681   -599.34572    1050.2667     1139.304   -4348.0568 
 9501000    202.78037   -4817.1067   -4426.0277   -4817.1067            0    1220.5273     19.97333    19.968399    21.299179    8494.8674    2239.0664    1105.3603    317.15516   -363.18823    1354.9559   -155.77554   -4274.8179 
 9502000    205.70076   -4819.6212     -4422.91   -4819.6212            0    1600.9502     20.05396    20.075563    20.968563    8441.8288    1072.0595     1214.357    2516.4339    832.94756    291.91796     110.8932   -4225.8084 
 9503000    205.81067   -4824.7115   -4427.7883   -4824.7115            0    1593.3357    20.035262    20.223635    20.853735    8449.6378    3142.1716   -437.07227    2074.9078   -32.421623    217.48618   -238.99909   -4231.4427 
 9504000    205.42274   -4849.0414   -4452.8664   -4849.0414            0       879.68    20.164488    19.978867    20.975504    8450.2676    2471.9324    249.14391   -82.036271   -160.86985   -939.34097     37.70408   -4344.4559 
 9505000    207.04044   -4821.9786   -4422.6837   -4821.9786            0     297.5035    20.215337    19.934757    21.198682    8542.8108   -1061.9299    1619.6444    334.79604    139.11169   -417.68559    743.06033   -4385.6183 
 9506000    209.93638   -4817.3003   -4412.4203   -4817.3003            0    2045.1185     20.19831    20.038938    20.891342    8455.8267    1210.0715    1756.4604    3168.8238    262.51667    33.378909    53.260817   -4160.2172 
 9507000    200.71708   -4807.0483   -4419.9485   -4807.0483            0    3049.8093    19.916039    20.072446    21.224679    8484.8549    3637.2156    2466.6943     3045.518    386.10707   -138.00596   -143.81327   -4042.5562 
 9508000    201.41019   -4813.3507   -4424.9142   -4813.3507            0    1225.4591    20.131619    20.127061    20.939144    8484.3385    997.49159    652.53974    2026.3459   -399.08202    506.48468     -17.5386   -4273.2816 
 9509000    215.79575   -4810.2653    -4394.085   -4810.2653            0    2973.4135    19.982407     19.93393    21.334153    8497.9888    3078.0493    3790.0929    2052.0984    182.86872     365.5389   -266.41441   -4025.5767 
 9510000    207.67058   -4809.3566   -4408.8464   -4809.3566            0    3699.4165    20.163904     20.00583    20.861729    8415.5304    3607.1326    4654.7436    2836.3734    178.81356   -1231.1595   -994.64851   -3954.8101 
 9511000    207.18853   -4827.0218   -4427.4413   -4827.0218            0    2654.9884    19.883785    20.183455    21.029774    8439.7424    2622.3263    1919.2939     3423.345   -704.42726    794.13544    1001.1863   -4100.6521 
 9512000    208.19399   -4787.7735   -4386.2539   -4787.7735            0    1099.5002    20.116622    20.314273     20.81681    8506.8837    1492.1324    95.954337     1710.414   -346.95686    838.48115   -59.507084   -4249.8453 
 9513000    222.78244   -4818.2971   -4388.6424   -4818.2971            0    2537.9327    20.070831    20.054433    20.948284    8431.8758    2524.4595    2557.3097    2532.0291   -380.28219   -71.866578   -259.31159   -4076.5522 
 9514000    203.92262   -4820.9409    -4427.659   -4820.9409            0    2098.0018    19.854974    20.150654    21.132514    8454.9228    4639.9442   -121.55376    1775.6149   -187.59643     38.47046   -1133.5217    -4168.962 
 9515000    209.26677   -4828.0393   -4424.4507   -4828.0393            0    1266.8605    20.202627    20.190451    20.825999    8494.9283    1426.7831   -419.43742    2793.2359    -460.5569    554.80397   -1268.0004   -4267.4996 
 9516000    206.38093   -4817.4147   -4419.3918   -4817.4147            0    2424.9789    20.083573    19.929953    21.116652    8452.2497    2161.3405    2460.2626    2653.3335   -334.63684    1438.5511      469.815   -4120.4709 
 9517000    210.11454   -4835.4603   -4430.2367   -4835.4603            0    19.436063    20.194648    20.203818    20.802385    8487.5602   -225.94636   -1453.6375     1737.892    181.02926    766.95879    525.48126   -4427.8309 
 9518000    200.33536   -4829.7191   -4443.3556   -4829.7191            0    145.95159    20.098747    20.075415    21.069727    8501.4384     1431.104   -1275.1143    281.86505    325.19311    1062.6125     423.3975   -4425.2598 
 9519000    196.33599   -4801.5175    -4422.867   -4801.5175            0    1559.0081    20.151914    20.181469    20.814453    8465.1386     2765.822    161.30904    1749.8932    9.5608726   -387.66346   -183.18386   -4230.3991 
 9520000    197.80799   -4810.1504   -4428.6611   -4810.1504            0    1263.2374    20.123659    20.000333    20.938971    8427.5143    1256.4831    1797.5641    735.66511   -193.53183    342.25517   -584.74145   -4273.4008 
 9521000    194.13779   -4824.0089   -4449.5979   -4824.0089            0    1719.8501    20.264531    19.891902    21.087179    8500.2431     802.3559    4100.1965    256.99794    -155.7268   -1137.0245    1195.9979   -4236.3926 
 9522000    207.96035   -4821.8757   -4420.8067   -4821.8757            0    1782.2922    20.162815    19.998653    20.978217    8459.0287    1827.6937    1055.5019    2463.6811   -69.454867   -204.06282    829.31239    -4200.932 
 9523000    211.09002   -4846.4531   -4439.3482   -4846.4531            0    2473.6854    20.073176    20.144921    20.838555    8426.5394    1517.7075    2848.6427    3054.7059    231.64161    181.87683   -632.59804    -4135.351 
 9524000    223.52099   -4815.6951   -4384.6161   -4815.6951            0    1466.9149    19.972385    20.210345    21.048526    8496.2118    1612.1122    1370.4335    1418.1991    23.194507    989.72425   -2028.4672   -4202.8528 
 9525000    210.04353   -4797.8522   -4392.7656   -4797.8522            0    3045.4237    20.153317    20.052669    20.924038    8455.9852    2158.6334    3932.4309    3045.2068   -27.810665   -1118.3654    710.46223   -4017.1983 
 9526000    211.79784   -4799.8716   -4391.4016   -4799.8716            0    844.37271     20.19401    20.101725    21.051808    8545.6538    1357.3457   -34.417813    1210.1902   -428.89025    871.25333    676.87511   -4286.1678 
 9527000     221.7506   -4817.2868   -4389.6221   -4817.2868            0    2082.2856    20.085009    20.048546    20.937692    8431.0895    2988.2096    1272.0596    1986.5877    904.51836   -1095.5847   -898.74605   -4133.5868 
 9528000    208.66344    -4835.163    -4432.738    -4835.163            0    1479.0608     19.98851     20.04443    21.143498    8471.3178    1653.2304    1687.9936    1095.9583   -286.25593    95.766871    203.20404   -4250.0067 
 9529000    206.86953   -4816.0713    -4417.106   -4816.0713            0    1676.8219    19.993181     19.91579     21.16418    8427.1529    1719.5956    3432.3076   -121.43761   -472.29588    849.79836   -904.92558   -4211.0223 
 9530000    204.04814   -4802.4974   -4408.9734   -4802.4974            0    3092.5336    20.030877    20.149172    20.785756    8389.2476    5194.2964    841.13221    3242.1722    111.41072   -955.93583    349.75913   -4030.6063 
 9531000     212.5889   -4807.3747   -4397.3791   -4807.3747            0    2947.6744    20.029878    19.860614    21.156188    8416.0515    2693.5628    3150.4424     2999.018    103.62959    2163.2827    1151.7058   -4035.5831 
 9532000    202.68966   -4802.0769   -4411.1728   -4802.0769            0    1282.5718    20.146105    20.030205    21.090906    8510.8261    1319.1785    950.88858    1577.6483   -185.39933   -125.70825    1119.0346   -4251.9779 
 9533000    204.29072   -4810.2335   -4416.2416   -4810.2335            0     1094.641    20.137654    20.270568    20.796708    8489.2511    1378.7281    865.71294    1039.4821   -442.52101    361.59362   -198.33747   -4280.7174 
 9534000    206.40548    -4834.833   -4436.7626    -4834.833            0    1815.5192    20.136459    19.980694    21.038629    8464.6907    1572.2029    1391.6179     2482.737    355.35248   -203.11763    24.984479   -4212.6389 
 9535000    203.44344   -4851.9706   -4459.6128   -4851.9706            0    1317.6644    20.094141    20.086646    20.995131    8474.1365    3200.9958    731.45824    20.539019    65.007644   -245.27034    1488.3605   -4296.7672 
 9536000    198.83953   -4825.8281   -4442.3493   -4825.8281            0    2832.7305    20.079228    20.154017    20.687402     8371.718    2086.8334    2912.1772    3499.1809    627.99231   -816.86021   -352.60192    -4096.493 
 9537000     209.6472   -4826.8858   -4422.5635   -4826.8858            0    2832.9391    19.926528    20.006022    21.181427    8443.9878     3969.797    3441.4209    1087.5994   -260.90131   -260.76248   -630.34864   -4073.6959 
 9538000    204.65326   -4800.2281   -4405.5371   -4800.2281            0    2887.0191     20.15062    20.137081    20.890566    8476.8624    3050.0298    1730.2093    3880.8181    -269.7568   -604.60145    387.54829   -4048.6255 
 9539000    197.85371    -4819.021   -4437.4435    -4819.021            0      1218.18    20.121186    20.026139    21.101522    8502.8516    223.56057    2573.6133    857.36621   -281.96377   -714.01532   -687.03231   -4286.3826 
 9540000    203.68345    -4820.145   -4427.3243    -4820.145            0    799.12354    20.240752    20.152876    20.908256    8528.6728    620.77919    1029.6375    746.95394   -317.83552   -432.01583    728.83193   -4327.9278 
 9541000    206.13342   -4812.8965   -4415.3509   -4812.8965            0    1441.3484    20.012891    20.122743    21.252975     8558.876     3967.803    250.78985    105.45228   -395.10356   -1397.6921     780.7969   -4235.4383 
 9542000    208.80526   -4835.0395    -4432.341   -4835.0395            0    1962.7604    20.121898    20.123692    20.998096    8502.6935    1346.4877    1746.2809    2795.5126    235.63311   -835.03122   -425.91546   -4188.9527 
 9543000    213.78397   -4820.4927   -4408.1923   -4820.4927            0    1910.3431    20.149042    19.980236    20.854153    8395.5192    1684.0687    2112.3713    1934.5891    -48.88222    170.95651    420.10156   -4174.2899 
 9544000    205.73952   -4841.5541   -4444.7682   -4841.5541            0    1663.2215    19.910149    20.105618    21.256862    8509.2463    980.69145    2868.5532    1140.4199    228.70644   -1262.7816     301.8321   -4238.3646 
 9545000    200.72254   -4833.6326   -4446.5223   -4833.6326            0    1520.4313     20.13683    20.111942    20.848153     8443.309    1677.3722    1462.8955    1421.0261    271.08491    1321.0885    672.30333    -4259.301 
 9546000    207.47953   -4834.7711   -4434.6293   -4834.7711            0    1185.3497    20.097522    20.048417    21.108113    8504.9547    2009.8912    372.61795    1173.5401    60.717621     982.4534    1714.3706   -4287.6033 
 9547000    216.30175   -4840.7806   -4423.6245   -4840.7806            0    1993.3225    20.100918    20.269205    20.858411     8498.335    2176.9904     2049.963     1753.014    78.026463   -282.44184   -947.36914   -4176.5731 
 9548000    199.47008   -4830.2287   -4445.5339   -4830.2287            0    602.11003    19.891332    20.219871    20.935388    8420.2162     669.8143    533.35875    603.15705   -462.13396   -328.41116    193.56213   -4371.5947 
 9549000    208.60921   -4813.3334    -4411.013   -4813.3334            0    982.91622    19.883689    20.094811    21.287387    8505.5663    297.43459    2085.0047    566.30939   -20.151317   -127.14934    905.71574   -4289.0872 
 9550000    211.45095   -4853.3941   -4445.5932   -4853.3941            0    1487.2521    20.215298    20.083982    20.746274    8423.0636    948.59429    1813.9408    1699.2213   -276.58098   -15.718153    537.56898   -4262.8965 
 9551000    222.29056   -4796.6684   -4367.9624   -4796.6684            0    1886.1498    20.122792     19.93507    21.068043    8451.4299    1921.1923    1566.8398    2170.4172    159.07556   -1216.3904   -855.50494   -4135.4842 
 9552000    200.15314   -4827.2184   -4441.2062   -4827.2184            0    1991.0556    20.119376    20.057658    20.921853    8442.9626    2447.6643    1520.8227    2004.6797    12.020491   -227.62578    468.71961   -4196.0437 
 9553000    204.00933   -4841.2125   -4447.7633   -4841.2125            0    3097.7041    20.019142    19.992061    21.111912     8449.492    2908.9746    3387.4276      2996.71    287.31281   -395.80899   -351.17837    -4066.042 
 9554000    213.57993   -4805.4987   -4393.5918   -4805.4987            0    2186.1384    19.976077    20.229429    20.932666     8458.987    2526.8825    1809.6846     2221.848   -480.74408   -92.311853   -496.20443   -4123.8974 
 9555000    209.57304   -4822.8725   -4418.6933   -4822.8725            0    2067.7821    20.072599    19.972988    21.115361    8465.3551    2537.9495    2057.7398    1607.6571   -434.91432   -714.16587    1708.8421   -4163.4079 
 9556000    220.34241   -4813.8543   -4388.9054   -4813.8543            0    1374.3633    20.029503     20.09777    21.041325    8470.1504    3431.7058   -125.71798    817.10198   -181.65855   -760.55329   -50.497065   -4219.1325 
 9557000    197.75422   -4827.7802   -4446.3945   -4827.7802            0    2172.9385    19.951952    20.112441    20.967222    8413.7784    4246.9857    801.90899    1469.9208    204.00575   -539.85289   -810.08256   -4179.7612 
 9558000    207.02228   -4816.6003   -4417.3404   -4816.6003            0    1477.8284    20.092056    20.095545    21.028724    8490.5751     378.7752    2535.3312    1519.3787    284.98461    1175.6531    869.78528   -4234.3464 
 9559000    203.69588   -4819.1933   -4426.3486   -4819.1933            0    3319.9506    19.857367    20.192961    20.918538    8387.8952    5056.5238    1552.9583    3350.3698   -800.70836     835.6474   -908.92714   -4020.2229 
 9560000    199.87499   -4806.3348   -4420.8591   -4806.3348            0    2540.7242    19.997517     20.05286    21.001487    8421.7519    2004.1141    2888.4295    2729.6288     175.9554    229.24178   -34.744536   -4108.8007 
 9561000    206.96144   -4818.8807   -4419.7382   -4818.8807            0    1557.4323    20.318553    19.992845    20.829437    8461.4523    1110.9814    1359.8679    2201.4475    301.49948   -234.18711   -323.81902   -4227.5485 
 9562000    212.97911   -4796.8104   -4386.0623   -4796.8104            0    2079.0161    20.069453    19.946282    21.094177    8444.2306    4119.6016    608.06355    1509.3833    120.88782    68.706939   -80.159104   -4130.0305 
 9563000    209.46559   -4804.3627   -4400.3907   -4804.3627            0    1594.0558    20.242577    20.034839    20.888069    8471.2977    407.09125    2696.2695    1678.8066    198.89985   -479.74789   -1069.4376   -4203.4528 
 9564000    205.32579   -4810.4237   -4414.4357   -4810.4237            0    2177.6187    20.044271    20.180147    20.917474    8461.0414    1467.3553    2066.4718    2999.0291    263.90976    421.96578    639.83009   -4145.7271 
 9565000    216.07365   -4847.2551   -4430.5389   -4847.2551            0    2451.7327     19.93024    20.083168    21.083089    8438.7669    3448.5965    1280.1989    2626.4026   -163.31976    1677.8366    56.570211   -4128.8023 
 9566000    217.39638    -4805.994   -4386.7268    -4805.994            0    874.54559    20.085353    20.113777    21.042629    8501.0605    1256.9597    1117.7142     248.9629    420.45501    361.62409    926.16229   -4278.3013 
 9567000    204.02534   -4830.1658   -4436.6858   -4830.1658            0    1104.5532    20.075458    20.100829    20.965037    8460.0912     2267.896    12.018522    1033.7449    116.18578   -159.60335   -330.26749   -4300.4041 
 9568000    206.07678   -4824.2675   -4426.8311   -4824.2675            0    389.93192    20.139771    20.051487    21.235511    8575.5864    335.72463     615.1639    218.90723    43.551866   -336.84278    1033.2264   -4378.0638 
 9569000    196.79029   -4833.9428   -4454.4162   -4833.9428            0    1208.5173    20.171419    20.199343    20.833418    8488.5639   -415.36076    1500.5544    2540.3583    194.51909     148.9507   -554.82474   -4304.8053 
 9570000    207.44425   -4815.9799   -4415.9062   -4815.9799            0   -23.814713    20.299382    19.958982    21.171196    8577.6162   -1656.9152    519.64231    1065.8288    23.565721    547.91859    683.27687   -4418.8854 
 9571000    205.54773   -4808.6576   -4412.2415   -4808.6576            0    2731.1294    20.105305    19.923961    20.933528    8385.4967    2405.7627    3203.1405    2584.4851   -525.06277    2383.7633    288.31762   -4078.2411 
 9572000    222.53505   -4803.0392   -4373.8616   -4803.0392            0     2023.892     20.15066    20.240474    20.757787    8466.2483     3663.877    -818.4364    3226.2353    151.27262    1286.7423   -725.61139   -4123.9685 
 9573000    198.58633   -4834.2499   -4451.2594   -4834.2499            0    1639.6378    20.152988    19.940638    21.090075    8475.3302    2799.7436    832.22558    1286.9442   -459.52391    293.06887   -66.352566   -4248.5936 
 9574000    202.17265   -4829.0231   -4439.1162   -4829.0231            0    3680.8605    20.069199    20.082427    20.753682    8364.5271    3340.7374    3689.9531    4011.8911   -389.89242   -822.91798   -936.09966   -3990.0952 
 9575000    202.95597   -4821.7367   -4430.3191   -4821.7367            0    135.98666    20.294545    20.133004    20.920631    8547.9643    95.231019   -238.98403    551.71299     226.1916   -949.72955    613.66416   -4413.3665 
 9576000    202.39444   -4811.5759   -4421.2412   -4811.5759            0    1805.0326    20.072072    19.917091    21.386231    8549.7293    2022.1456    2337.3595    1055.5927   -92.310941    240.74628    319.50345   -4196.1735 
 9577000    190.36436   -4824.8153   -4457.6816   -4824.8153            0    2113.5738    20.150129    20.117861     20.88848    8467.7193    1230.5368      3231.27    1878.9146   -829.68647    53.208188   -129.11188     -4196.67 
 9578000    217.83419    -4814.808   -4394.6965    -4814.808            0    2100.5285    20.059264    20.212958    20.896463    8472.6184    3484.7568      1235.83    1580.9988   -139.92032    767.00173    168.22168   -4135.1458 
 9579000    200.95063   -4827.9064   -4440.3562   -4827.9064            0    1716.3541    20.031577    20.070511    20.998936    8442.4958    1428.6845     1101.185    2619.1928    459.82972   -1057.4819    831.79135   -4229.0299 
 9580000    204.61414   -4795.4387   -4400.8231   -4795.4387            0    2482.9049    19.976223    20.148611    20.972996    8441.4869    1955.1833    2542.8727    2950.6586    -342.3747    129.42858   -436.68955   -4095.1516 
 9581000    213.25921   -4825.6556   -4414.3673   -4825.6556            0    1342.5171    20.161801    20.168366    20.753219    8438.8933    895.81581    521.33469    2610.4008   -756.51516   -441.78126    838.57614   -4249.1402 
 9582000    196.72935   -4822.0864   -4442.6773   -4822.0864            0    2077.1796      20.1539    19.932948    21.155075    8498.5572     1565.966    2848.4142    1817.1587   -689.37218    190.26707     296.1542   -4185.2259 
 9583000    210.72243   -4818.5383   -4412.1423   -4818.5383            0    486.72944    20.211808     20.06023    20.850182    8453.7796    757.73319   -382.39014    1084.8453    146.96683   -25.186484    452.08794   -4352.1336 
 9584000    210.57419   -4794.7534   -4388.6433   -4794.7534            0    641.53939     20.29431    19.876488    21.093645    8508.7467    -536.5453    1561.5239    899.63954   -467.60668    709.99696    455.43032   -4309.0339 
 9585000    198.80941   -4824.8605   -4441.4398   -4824.8605            0    2600.1338    20.111993    20.035479    21.068868    8489.7719    3125.7987    2641.8154    2032.7873   -110.24895    550.81118    -295.0231   -4119.5052 
 9586000    203.06634   -4823.6138   -4431.9833   -4823.6138            0    1879.5223    20.183943    20.049673    20.762897    8402.3597    1406.9772    2478.3411    1753.2484    935.01096    758.42204    1558.7394    -4201.667 
 9587000    197.81485   -4816.7007   -4435.1981   -4816.7007            0    1351.9078    20.250791    19.968745    21.006681    8494.7422    2223.9495    1151.2301     680.5439    304.08698   -1030.3101   -518.12942   -4267.7142 
 9588000     202.1987   -4812.5971   -4422.6399   -4812.5971            0    1891.8481    20.277884    19.952246     21.04429    8514.2949    1286.6955    1391.7826    2997.0662   -185.40884    1174.7315   -1180.9649   -4187.7248 
 9589000    203.66042   -4852.4276   -4459.6513   -4852.4276            0    2053.4277    20.041866    20.310353     20.66751    8412.8621    1702.1698    1078.4993     3379.614   -639.62702   -500.28648    867.28921   -4207.7102 
 9590000     200.2536   -4818.7007   -4432.4948   -4818.7007            0    1120.9625    20.034801    20.115574    21.071111    8491.9004    1472.1619    350.74198    1539.9837    299.19883    863.06961   -1028.3388   -4293.6684 
 9591000    200.34018   -4818.4747   -4432.1018   -4818.4747            0    1506.2608    20.019516    20.025292    20.824507    8348.4751     1928.083    597.39457    1993.3048    389.90851    206.23013   -678.92528   -4248.7086 
 9592000     197.0004   -4810.6594   -4430.7276   -4810.6594            0    518.48394    20.043981    20.154604    21.027019    8494.4637    385.80659    1259.0457    -89.40046   -153.46471   -1162.1175   -653.65688   -4366.4962 
 9593000    214.89169   -4820.0169   -4405.5802   -4820.0169            0    812.04498    20.062925    20.146909    21.146377     8547.491   -488.00178    2962.5116    -38.37487    204.85851   -158.46393    641.10962   -4304.3537 
 9594000    204.33411   -4826.7491   -4432.6735   -4826.7491            0    2120.3394    20.117169    20.078531    20.903827     8443.541    2289.8722    1975.6128    2095.5333    146.01883   -484.75349   -710.03369   -4171.5741 
 9595000    195.62686   -4827.2462   -4449.9633   -4827.2462            0    1824.9225     20.15367    20.032408    20.991636    8474.8803    1386.8948    1528.4651    2559.4077    -750.2697   -562.05733    51.841402   -4224.4076 
 9596000    204.04844   -4807.4537   -4413.9291   -4807.4537            0    436.94878    20.040259    20.141305     21.01943    8484.2188    227.99655    1280.8772   -198.02738    407.02661    523.89529    577.10606   -4359.8638 
 9597000    205.60669    -4819.807   -4423.2772    -4819.807            0    2358.8607    20.106208    20.119323    20.867132    8441.2411    2852.2717   -7.9446793     4232.255   -545.73491    1006.9256    582.09095   -4132.8853 
 9598000    200.12853   -4811.7571   -4425.7924   -4811.7571            0    2098.7058    20.007335     20.07856    21.045346    8454.3047    2614.0541    2338.4796    1343.5837   -24.403728    382.10583    619.17139   -4167.0275 
 9599000    196.25161   -4815.2157   -4436.7279   -4815.2157            0    1000.0958    20.177299    20.201943    20.885169    8513.2264   -128.45942    1688.5724    1440.1746    447.24481   -133.76585   -160.22056   -4312.5594 
 9600000    204.38505    -4817.736   -4423.5622    -4817.736            0    1399.5187    20.215561    19.974392     21.15973    8544.1625    1702.7897    834.45466    1661.3116    -886.6867   -39.235797    1224.8163   -4249.1712 
 9601000    210.16538   -4859.3039   -4453.9823   -4859.3039            0    1856.1691    20.368635    19.940111    20.791053    8444.3452   -748.71305    3891.7329    2425.4875   -8.1651932    449.58252   -1563.6218   -4225.3911 
 9602000    204.08037   -4815.8099   -4422.2238   -4815.8099            0     715.4588    20.159174    19.946021    21.176973     8515.161    1540.5756    1420.1998     -814.399    159.43891   -318.10973   -67.407606   -4333.3746 
 9603000    203.77622   -4797.1624   -4404.1629   -4797.1624            0    3874.5088    20.123831    19.911226    20.888005    8369.6178    3689.4926    4147.7252    3786.3086   -471.11777     700.5895    -868.4313   -3931.2314 
 9604000    203.94499   -4800.1882   -4406.8632   -4800.1882            0    1626.3647    20.218418    19.970008    20.939826    8454.7053    118.10743    3276.6835    1484.3032   -513.31209    1137.5218    736.82065   -4206.3272 
 9605000    216.43253   -4805.0704   -4387.6621   -4805.0704            0    660.11993    20.202379    20.196292    21.050134    8588.7316    1948.9059   -636.55728    668.01121   -614.04039   -646.73778   -147.33113   -4304.9769 
 9606000    199.61046   -4829.4393   -4444.4737   -4829.4393            0    1827.6131    20.064965     20.06041    21.009891    8456.7213    2228.5186    1688.3985    1565.9223   -507.70714    159.13019   -473.15134   -4219.0694 
 9607000    211.46911   -4818.7366   -4410.9007   -4818.7366            0    2953.7247    19.848995    19.981358    21.189245    8403.8638    3306.2357     2893.746    2661.1925   -60.682663    1042.1568   -411.45929   -4048.8871 
 9608000    210.92694   -4814.6946   -4407.9043   -4814.6946            0    1769.5157    20.173327    20.317753     20.66436    8469.8392    1180.4037    1462.2258    2665.9174   -506.87022   -828.15527   -750.97535   -4189.3267 
 9609000    208.40457   -4832.8377   -4430.9119   -4832.8377            0    251.62796    20.207462    20.129342    20.995375    8540.1401   -356.46596   -54.785872    1166.1357   -38.006548    4.2234609    1026.0288   -4399.5719 
 9610000    217.33355   -4821.4233   -4402.2773   -4821.4233            0    969.37294    20.040607    19.956697    21.207235    8481.7134    806.67924    2021.4681     79.97153    244.65152    86.821404    159.15508   -4282.3687 
 9611000    212.44818   -4804.0854   -4394.3613   -4804.0854            0    2476.2189    19.994761    20.202629    20.872335    8431.3112    3267.4284    2202.4676    1958.7606   -102.53858    1323.0508    268.37755   -4089.8804 
 9612000    204.31099   -4806.0717   -4412.0407   -4806.0717            0     2078.047    20.158912    19.957819    20.931546    8421.3451    1661.5161    2225.3213    2347.3037    372.47234    592.29204   -1211.5173   -4156.8219 
 9613000    197.66469   -4827.2233   -4446.0103   -4827.2233            0    2884.3768    20.127339    19.822424    21.048349    8397.7153    2572.2397    3451.0523    2629.8384   -257.09768    850.72297    425.29967   -4092.7548 
 9614000    203.56511   -4809.2847   -4416.6922   -4809.2847            0    1541.0414    20.141279    20.187134    20.906772    8500.5828    2740.6494    22.527475    1859.9473   -3.0424103   -270.19948   -1052.5563   -4225.6458 
 9615000    201.62834   -4814.8358   -4425.9786   -4814.8358            0    1052.1058    19.970523    20.242485    20.947424    8468.0593    2971.7686   -719.54669    904.09562     -479.718    83.471201    591.31997   -4296.0457 
 9616000    200.24349   -4830.1817   -4443.9953   -4830.1817            0    1945.0167    19.996693    20.034959    21.147592    8472.4217     1816.767    2361.2863    1656.9969    169.00714    990.93695     361.7149    -4203.666 
 9617000    201.79091   -4844.6383   -4455.4676   -4844.6383            0    932.00012    20.226476    20.145019       20.902     8516.786    1194.5215    718.70555    882.77334    131.21081   -461.05411   -76.341449   -4339.7052 
 9618000    194.36734   -4816.4824   -4441.6287   -4816.4824            0    1500.1777    20.023999    20.163312    20.962697    8463.6918    2194.4544    788.47913    1517.5996    177.52985    1567.3725    873.43347   -4256.4553 
 9619000    199.45615   -4832.4277   -4447.7597   -4832.4277            0    791.13984    20.124027    20.106646    20.982447    8490.0581    1366.8848    467.76889    538.76578    442.39605    7.8442186   -66.227618   -4349.8017 
 9620000    205.37267   -4812.7651   -4416.6867   -4812.7651            0    1845.5448    19.976876    20.120684    21.051614     8461.663    2221.1134      2034.26    1281.2609     426.9152   -1255.8828   -631.87932   -4188.9378 
 9621000    185.17846   -4809.8036   -4452.6714   -4809.8036            0    931.95567    20.134422    20.222051    20.890992    8505.9619     1024.399   -344.43878    2115.9068    229.91118    23.946535   -1090.7854   -4337.0616 
 9622000     206.5411   -4801.7536   -4403.4217   -4801.7536            0    1930.7719    20.171991    19.941417    21.088548    8483.0389    1574.3378    2393.8557    1824.1223    -406.0976   -389.23952   -72.694505   -4164.5535 
 9623000    209.37055   -4824.3649   -4420.5762   -4824.3649            0    1105.7812    20.212252     20.00424    20.884911    8444.4117     795.0714    1514.1302    1008.1419   -460.44452    390.39101   -249.12723   -4284.3959 
 9624000    211.37961   -4820.4623    -4412.799   -4820.4623            0    2684.9603    20.005704    19.996888    20.996682    8399.7605    1772.2622    2883.8977    3398.7209   -500.66885    46.186836    -1281.068   -4083.8863 
 9625000    208.82172   -4802.9554   -4400.2251   -4802.9554            0    533.88111    20.064465     20.29232    21.039509    8566.3318    1000.5531    281.60815    319.48208   -444.04848    -470.2186     609.8316   -4333.5267 
 9626000     193.7863   -4821.9568   -4448.2237   -4821.9568            0    449.06382    20.189663    20.126545    20.946389    8511.5265    1499.0098   -796.62064    644.80226   -314.15723   -632.47572    61.529151   -4392.4805 
 9627000    199.82608   -4817.1883   -4431.8069   -4817.1883            0    1130.4884    20.102634     19.90012    21.282651    8514.0149    1722.8693    1070.1689    598.42693    221.14828    670.64639   -1276.7026   -4291.4362 
 9628000    213.64164   -4844.0896   -4432.0637   -4844.0896            0    1754.1295    20.176007    20.051419    20.999735    8495.6019    888.77887     2343.245    2030.3648   -373.29898    223.91264   -854.75974   -4214.7277 
 9629000    214.27487   -4800.0283   -4386.7812   -4800.0283            0    2051.7379    20.166301    20.078543    20.891811    8459.3022    675.23318    3638.1717    1841.8089     -476.546    754.03357   -156.18565   -4133.6578 
 9630000    200.74211   -4842.1614   -4455.0134   -4842.1614            0    1342.6971    19.873759    19.993015    21.193701    8421.0279    1774.7082    2061.9423     191.4408    47.303111    486.27297     159.9561    -4290.114 
 9631000    199.27693   -4843.0517   -4458.7294   -4843.0517            0    1014.5883    20.108201    20.134413    20.885398    8455.8048   -52.260788    1291.8792    1804.1465    350.50837    831.97885    1323.1447   -4333.6112 
 9632000    210.57358   -4807.0867   -4400.9779   -4807.0867            0    3481.1484    20.042762    19.974343     20.98897    8402.7455    2184.0697    5087.0119    3172.3636   -147.95322     53.06406   -112.62097   -3974.3791 
 9633000    208.76156    -4796.765   -4394.1507    -4796.765            0     3310.346    20.088985    20.139975    20.866051    8442.2303    3832.7633    3017.5045    3080.7701    446.24284    45.618994   -390.92393   -3986.5767 
 9634000    212.08525   -4847.4868   -4438.4626   -4847.4868            0    2104.2597    20.124978      20.0041    21.105686    8496.7709    1798.5269    2747.5294    1766.7228    176.86019    271.77436    886.24743   -4177.7097 
 9635000    202.58966   -4824.3685   -4433.6573   -4824.3685            0    3041.9211     20.05463    19.901589     20.98182    8374.2432     2566.495    4177.2377    2382.0304    71.223412    301.25162     -201.037   -4062.1483 
 9636000    207.99526   -4815.9263   -4414.7899   -4815.9263            0    2542.4256    20.143288    19.862863    20.966775    8388.8776     2516.795     2949.658     2160.824    498.38312   -57.817581   -25.363845   -4103.7415 
 9637000    201.49115   -4827.0338   -4438.4412   -4827.0338            0    2909.9833    20.121056    20.156942    20.705239    8397.6094    3495.6915     1543.781    3690.4775    260.73233   -856.47695   -1499.3882    -4082.054 
 9638000    208.47274   -4838.0647   -4436.0074   -4838.0647            0    702.12986     20.06456    20.115873    20.965583    8462.0478    656.29037    805.95437    644.14484   -371.23483    135.16301    62.503413   -4349.3574 
 9639000    195.41459   -4832.3634     -4455.49   -4832.3634            0    2710.5184    20.127533    19.880949    21.221962    8492.0628    3628.9901    2484.1289     2018.436    695.61012    269.50792   -277.92334   -4119.7976 
 9640000    214.99979   -4830.8047   -4416.1595   -4830.8047            0    1646.9322    20.149647    20.089044    20.966773    8487.0803    2823.2762    1612.1331    505.38728   -621.29708   -41.388557    -408.8582   -4212.3099 
 9641000    207.42504   -4826.5182   -4426.4816   -4826.5182            0    1799.5173    19.947646     20.16848    21.008119    8451.8542    3680.9179     1074.749    642.88505    185.48526    368.80971   -1371.8691   -4204.6701 
 9642000    200.32223    -4811.358   -4425.0197    -4811.358            0    1159.6017      20.0151    20.102036    21.032048    8462.1238    1794.5488    935.12994    749.12621   -109.47708   -209.49674    -429.0652   -4281.9117 
 9643000    202.16682   -4824.9176   -4435.0219   -4824.9176            0     708.2162    20.229585    20.063585    20.867047    8469.4754   -996.30553    2069.2452    1051.7089   -59.841258    282.81474   -353.77719    -4347.544 
 9644000    209.05437   -4819.1675   -4415.9886   -4819.1675            0     1490.633    20.168523    20.129083    20.776098    8434.5532    2179.7976    626.09513    1666.0063   -372.37996   -684.78737   -512.42343   -4232.6268 
 9645000    198.46226   -4806.0361   -4423.2849   -4806.0361            0    1477.1864     19.90985    20.041197    21.190463    8455.3601    2193.2595    1273.6719    964.62773   -464.81791    925.24384    318.28051    -4241.129 
 9646000    201.10501   -4829.0315   -4441.1835   -4829.0315            0    3094.8078    20.159462     20.06883    20.721999    8383.6405    2813.3657    1918.9545    4552.1032    551.28935   -8.8021576    906.52555   -4062.7913 
 9647000      195.022   -4822.9653    -4446.849   -4822.9653            0    1142.1193    20.052573    20.033074    21.054989    8458.0983    1793.5673    340.92442    1291.8661     324.8256    184.26211   -653.93484   -4305.9655 
 9648000    200.07329   -4829.7127   -4443.8545   -4829.7127            0    513.86541    20.084693    20.219785    20.898539    8487.0676    820.39658    290.87841    430.32123    445.07145    632.48031    362.73927   -4380.2508 
 9649000    203.78715   -4801.7971   -4408.7765   -4801.7971            0     962.8207    20.111554    20.052566    21.052499    8490.2256    968.11024    1644.0428    276.30909   -512.00944   -355.35549   -330.72686   -4289.5588 
 9650000    209.65427   -4833.5399    -4429.204   -4833.5399            0    2197.9156    20.059849    20.108813    20.858632    8413.9499    1880.2335    2292.6369    2420.8763   -113.87846   -856.80981   -1158.2448   -4159.5004 
 9651000    213.03558   -4806.8401   -4395.9831   -4806.8401            0   -281.11513    20.086168    20.084267    21.258142    8575.8737    -1565.995    1359.2299   -636.58022    613.73228   -1071.9598   -382.90698   -4431.1422 
 9652000    215.87755   -4826.8539   -4410.5159   -4826.8539            0    1812.0103    20.093116    20.185705    20.781162    8428.7084    985.19288    2297.7953    2153.0428   -381.10254     134.6696    140.98192   -4187.7762 
 9653000    193.93062   -4803.3966   -4429.3851   -4803.3966            0    910.09346    20.026051    20.024718    21.218964     8509.145    1146.6223     1529.767    53.891132   -181.57103    746.88779   -1046.4034    -4316.445 
 9654000    197.78541   -4794.2086   -4412.7628   -4794.2086            0    1467.7322    20.140307    20.032822    20.871806    8421.0891    3091.4382   -385.22912    1696.9874    136.70035    -535.3484   -1434.3067   -4232.5063 
 9655000     204.8926   -4824.5834   -4429.4308   -4824.5834            0    2490.2193    20.034181     20.00893     21.04783    8437.2863     4887.832    1411.5887    1171.2372    106.40063    -46.55148   -367.14401   -4123.0114 
 9656000    197.07392   -4820.1315   -4440.0579   -4820.1315            0    1142.6343    20.163508    20.192322    21.051658    8571.1417    686.84014    883.30107    1857.7617   -59.582164   -10.299807   -1199.9614   -4297.2271 
 9657000    207.57858   -4819.7664   -4419.4337   -4819.7664            0    972.41593    20.212371    20.060075    20.945445    8492.5756   -200.78057    1689.2957    1428.7327     307.1904    365.99269   -66.832298   -4298.9946 
 9658000    198.44505   -4833.5241   -4450.8061   -4833.5241            0    766.42598    20.131762    20.019842    21.048299     8483.195    653.55914   -312.74901    1958.4678    133.74444    676.03118   -93.043971   -4355.9849 
 9659000     201.5464   -4834.5768   -4445.8776   -4834.5768            0    1284.8799    20.162552    20.043406    20.967392    8473.4722     2807.203   -50.540147    1097.9768    86.800901    1238.0224    474.89571   -4287.0961 
 9660000    205.83459   -4818.7826   -4421.8132   -4818.7826            0   -442.07586    20.105419     20.13147    21.140037    8556.4649   -1350.3324    245.80946   -221.70463   -469.75692   -478.37118   -121.02663   -4476.9787 
 9661000    199.52884   -4826.7336   -4441.9255   -4826.7336            0    1214.0825    20.191725    20.057838    20.906731    8467.2753   -136.49612    2214.5837    1564.1599   -496.92367    701.49108    203.67922   -4292.0027 
 9662000    210.88849   -4827.3778   -4420.6616   -4827.3778            0    160.23514    20.246148    20.026024    21.048418    8534.0776   -543.00577    1073.6495   -49.938268    291.16142    238.72611    15.311868   -4400.7186 
 9663000    214.76304   -4833.5206    -4419.332   -4833.5206            0    1488.4724    20.181899     19.90366     21.14145    8492.3862    2706.1031    426.53249    1332.7817   -770.58173    561.95087    918.93111   -4234.9806 
 9664000    209.68397   -4843.7612    -4439.368   -4843.7612            0    1514.3965    20.133686    20.054509    20.973284    8468.4078    2128.7503    500.92084    1913.5182   -22.119945   -656.46081   -384.85738   -4252.3354 
 9665000    198.15129   -4810.5638   -4428.4124   -4810.5638            0    1589.5593    20.080195    20.194639    21.012681    8520.9004    2582.1713    815.19935    1371.3072    25.854869    547.16503    769.08197   -4230.8801 
 9666000    211.40127   -4820.5048   -4412.7996   -4820.5048            0    649.50751     19.94949    20.154185    21.107959     8486.787    1020.5318   -283.78157    1211.7723     244.7248    225.13584    19.842529   -4332.4094 
 9667000    206.21757   -4823.3852   -4425.6773   -4823.3852            0    507.98422     19.95888    20.241995    21.035009    8498.3023    1056.7585    474.36787   -7.1736499   -358.67183    799.57374    742.38513   -4362.7182 
 9668000    204.47921   -4788.1832   -4393.8278   -4788.1832            0    1587.6325    20.092486    20.175799    20.821211    8440.5431     1068.254    1633.6045    2061.0391   -493.51849    1624.5938   -500.02092   -4198.3956 
 9669000    210.16864   -4805.0226   -4399.6947   -4805.0226            0    688.06575    20.044273    20.135995    20.958578    8459.1208    1148.2352    1.0834356    914.87861     346.2122   -11.365212    114.80414   -4314.8097 
 9670000    203.12381   -4805.0632   -4413.3218   -4805.0632            0    2445.2965    19.975673    20.064691    21.062863    8442.1156    4005.6431    1521.9627    1808.2835   -111.28543    437.83239    994.75757   -4112.2579 
 9671000    201.89946   -4800.5981   -4411.2181   -4800.5981            0   -536.48646    20.177872    20.208294    20.972423    8551.7232   -658.32342   -1487.1718    536.03587   -328.52542    301.41509    624.74578   -4478.1276 
 9672000    199.01727   -4816.7848   -4432.9633   -4816.7848            0    1522.8333    20.321619    19.898537    21.068675    8519.5505    2003.6704     1624.369    940.46056    -88.78088    1392.8081   -182.67861   -4243.7529 
 9673000    206.76384   -4845.7572   -4446.9958   -4845.7572            0    1281.7932    20.241768    19.989199    20.980901    8489.2232     858.6746    1167.4929     1819.212   -731.07733   -132.48369    341.15481   -4288.3013 
 9674000    207.76892   -4830.8093   -4430.1094   -4830.8093            0    1357.0863    20.010511    20.117018    21.058715    8477.2238    2063.2061    1898.1051    109.94765    275.81069    506.14023    543.21337   -4262.3307 
 9675000    203.07958   -4822.2846   -4430.6286   -4822.2846            0    2090.3573    20.079658     20.13976    20.904172    8453.6366      1964.97    2341.1609    1964.9412   -16.062911   -324.58024    93.484155   -4172.9134 
 9676000    200.09953    -4832.857   -4446.9482    -4832.857            0    2264.4002    20.100081    20.089308    20.853291    8420.4906    1720.2249    2684.1892    2388.7865   -376.77351    827.22888    575.25403   -4168.8703 
 9677000     211.3018   -4821.2031   -4413.6898   -4821.2031            0    1261.5629    20.108693    20.087492    21.020837    8491.0142    1484.5389    919.46988    1380.6799    45.538787   -587.07408    357.71763    -4257.467 
 9678000    200.47128   -4810.6496   -4424.0239   -4810.6496            0    1244.9287    20.240748    19.995758    20.966451    8485.7327    1198.4474    2090.3034    446.03528    238.74204   -291.51331    468.94057   -4269.9568 
 9679000    204.88345    -4796.044   -4400.9091    -4796.044            0    898.00126    19.965073    20.226272    21.147964    8539.9497    2022.0526    672.19897  -0.24784695   -130.37264   -398.83683    3.5564536   -4289.0662 
 9680000     209.7547    -4817.448   -4412.9185    -4817.448            0    1540.2794    20.133911    20.104831    20.869267    8447.6471    965.16801    2413.2643    1242.4058   -656.74512    332.23836   -89.622289   -4223.1556 
 9681000    210.36166   -4846.4504   -4440.7502   -4846.4504            0    800.40024    20.084934    20.080452    20.983833    8463.0851    391.71906    656.10277    1353.3789    114.67175    512.54837    365.93704   -4341.9605 
 9682000    207.63854   -4826.1834   -4425.7351   -4826.1834            0    893.85212    20.114121    20.026786     21.08673    8494.1816    950.42694    408.94579    1322.1836    88.580151   -156.27968    48.363342   -4315.0056 
 9683000    205.17813   -4841.6338   -4445.9306   -4841.6338            0    2724.6253    20.226506    20.121982    20.792209    8462.3753     1680.525    2788.2226    3705.1284    211.37834    -545.0537    292.15728   -4109.6707 
 9684000    198.92155   -4832.0755   -4448.4386   -4832.0755            0    1770.3971    20.045535    20.066359    21.169453    8515.2201    1662.3934    1961.9128    1686.8851    -571.3136    117.63798    -217.0864   -4228.5805 
 9685000    215.45848   -4822.2057   -4406.6759   -4822.2057            0    2578.6648    20.073923    20.201392    20.718898    8401.9517    2546.0056    2415.2337    2774.7551      241.952   -339.78795    949.32987   -4090.7022 
 9686000    212.40842   -4814.9562   -4405.3087   -4814.9562            0    2618.3399    19.924963    20.019007    21.123812    8425.8231    337.01803    4763.6051    2754.3966   -95.759343    1078.2832   -961.60264   -4083.5619 
 9687000    206.78354   -4830.9662   -4432.1668   -4830.9662            0    1773.2136    20.065292    19.947148     20.96345    8390.5237     2013.795    2087.0576    1218.7882   -86.136627    1025.7004    277.28753   -4215.1836 
 9688000    209.36032   -4810.9359   -4407.1669   -4810.9359            0     1944.102    20.212523    19.960954    20.951301     8453.038    1279.0848    2133.1526    2420.0685    -364.7908   -274.88628     126.6799   -4167.5002 
 9689000     193.2235   -4819.9165   -4447.2687   -4819.9165            0    2470.1723    20.000868    20.086588    21.032726    8449.8806    3424.9895    2320.5784    1664.9489    442.05289   -315.52814    -262.9283   -4142.8623 
 9690000    206.42198   -4788.0978   -4389.9956   -4788.0978            0    1132.9198    19.974038    20.195969    21.124394     8521.476    2184.6307    755.66739    458.46131    85.875493   -336.83884    -128.1563   -4249.1998 
 9691000    197.97607   -4802.6695    -4420.856   -4802.6695            0     2274.698    20.250095    20.018019    20.819025     8439.341    2500.6352    2110.4727    2212.9862   -619.77498    350.29678      980.454   -4140.8882 
 9692000    202.79895   -4814.6604   -4423.5456   -4814.6604            0    1560.2086    20.202062    19.901246    21.167579    8510.3447    720.00553    2912.0582     1048.562    209.77453   -10.960783   -999.56516   -4229.9008 
 9693000    207.79438   -4822.9155   -4422.1665   -4822.9155            0    504.30026    20.178552    20.109143    21.104147    8563.5009    1164.6781   -655.61437    1003.8371   -368.13814    -18.25893     400.2116   -4359.1845 
 9694000    213.94911   -4826.0767   -4413.4579   -4826.0767            0    574.75579    20.173492    20.221514    20.922892    8535.2543      817.759    22.457781    884.05059   -383.95135    1075.6725   -1220.9986   -4341.9135 
 9695000    207.53456   -4821.6153   -4421.3675   -4821.6153            0    1090.7927    20.021752     20.02827      21.0919     8457.874    -774.4141    2118.5166    1928.2756   -592.29583   -298.24586   -276.05861   -4286.8188 
 9696000    212.60952    -4844.823   -4434.7876    -4844.823            0    891.21434    19.978503    20.195575    21.020818    8481.4239      1927.83   -821.30024    1567.1133   -406.31839    773.16119    125.19862   -4324.5508 
 9697000    204.72946   -4814.0482   -4419.2102   -4814.0482            0    985.87478    20.186448    20.096376     20.78135    8430.4627    478.94882    1111.2576     1367.418     613.2425   -815.97057    749.70596   -4297.9972 
 9698000     206.5392   -4813.5572    -4415.229   -4813.5572            0    1872.8845    20.115557    20.107454    21.125201    8544.5662    1297.7286    2384.3222    1936.6028    20.025451     908.0704    541.50007   -4181.8418 
 9699000     202.0686   -4793.6613   -4403.9551   -4793.6613            0    841.41191    20.166596    20.097321    21.069652    8539.4151    322.55121    975.02587    1226.6586    434.27348   -287.41636     883.4698   -4299.1668 
 9700000    204.45029   -4823.3827   -4429.0832   -4823.3827            0    2222.4673    20.136317     20.04086     20.78377     8387.272    1954.4707    2424.9973    2287.9339   -359.77054   -523.79893    1585.1872   -4157.2315 
 9701000     196.4158   -4803.7934    -4424.989   -4803.7934            0    1282.7401    20.133261    19.930209    21.239668    8522.6312    884.80962    1673.0687    1290.3421    413.70188    326.17982   -667.58794   -4265.5523 
 9702000    203.04405   -4813.0344   -4421.4469   -4813.0344            0    1706.8085    20.276339    19.956506    20.945832    8475.6236    178.52883    3298.0752    1643.8213    251.11685   -1957.2774    255.45807   -4210.4712 
 9703000      206.847     -4843.83   -4444.9082     -4843.83            0    2055.8248    20.142248    19.967929     20.94923    8425.7585    715.26786    3130.5486    2321.6578   -783.65846    14.231352   -662.72215   -4192.2863 
 9704000    203.86337   -4837.2476   -4444.0799   -4837.2476            0    1972.4775    20.183723    20.178574    20.688532    8425.9992    4413.1709   -272.45297    1776.7147   -248.81803    1138.9691   -142.23945   -4201.6929 
 9705000    195.27979   -4825.4077   -4448.7942   -4825.4077            0    1956.8562    20.057909    19.858206    21.165001    8430.3181     2304.656    3602.3806   -36.468009    -199.3953    1557.7272    599.55976   -4208.2036 
 9706000    190.72835   -4813.5605   -4445.7248   -4813.5605            0    2418.8113    20.064196    20.025081    20.997681    8436.5987    2179.8568    2701.8108    2374.7665   -162.09114    -91.96053   -70.880933   -4148.1163 
 9707000    207.25968   -4830.0714   -4430.3536   -4830.0714            0    862.82793    20.154094    19.968494    21.145626    8509.9917    590.20722    1402.5293    595.74726    147.35885   -258.89205    -388.0775   -4323.2685 
 9708000    209.28803    -4822.365   -4418.7354    -4822.365            0    2788.5164    20.092411     19.98404    20.931802    8404.6951    3547.2577    2193.0593     2625.232   -356.77041   -1764.0909    617.30473   -4076.9362 
 9709000    201.54803   -4815.9328   -4427.2304   -4815.9328            0    3060.7954    20.045002    20.109923    20.881618    8417.4526    4516.0841    935.77851    3730.5235    -157.8871    196.50817   -990.67501   -4051.4875 
 9710000    211.37056   -4807.9527   -4400.3067   -4807.9527            0    2184.3255    20.203744    20.062485    20.952452    8492.8107    1334.6648    3104.6022    2113.7095    343.66385    617.57054    631.91046   -4129.7585 
 9711000    209.44513   -4825.0265   -4421.0939   -4825.0265            0    3337.8548    20.056027    19.954188    20.926632    8374.8744    4082.7678    3005.2482    2925.5483    12.233378    536.24281    334.12723   -4013.4118 
 9712000    205.00993    -4819.677   -4424.2981    -4819.677            0    2352.5739     20.23877    20.023082    20.907061    8472.4308    3059.5414    1096.9334    2901.2469   -37.878131   -1397.9132   -81.354752     -4133.61 
 9713000    207.13621   -4809.5723   -4410.0927   -4809.5723            0    139.82046    20.223262       19.966    21.243117    8577.4962    2.6792238    1873.9331    -1457.151    194.44864     245.0102   -23.499294    -4392.602 
 9714000     208.8615   -4824.1634   -4421.3564   -4824.1634            0     2459.441    19.980514    20.191743    20.980268    8464.3087    2751.8286    1533.0474    3093.4469   -95.184979   -662.67845    384.77229    -4117.755 
 9715000    194.25539   -4836.8204   -4462.1825   -4836.8204            0     2758.265    19.948011    20.195053    20.897399    8418.5412    4019.0954    1312.1381    2943.5614   -71.905079    231.14004    48.432955   -4123.5344 
 9716000    201.40299   -4829.4739   -4441.0513   -4829.4739            0    1686.5979    20.017568     20.15328    21.047799    8491.0955    1765.3981    1492.5362    1801.8595    -106.0501    1013.6094    31.294959   -4232.1933 
 9717000    190.16519   -4816.0967   -4449.3471   -4816.0967            0     2971.401    19.879163    20.098049     21.09926    8429.8377    3079.4423    3345.0544    2489.7064    245.19591   -1232.5313   -521.59314   -4084.0415 
 9718000    205.09021   -4801.8402   -4406.3064   -4801.8402            0    1452.3891    20.032712    20.284377    20.835772    8466.6384    2513.4721   -905.14185     2748.837    834.62059   -263.82835   -561.75539   -4226.9695 
 9719000    205.74574   -4813.0242   -4416.2262   -4813.0242            0     874.3364    20.145581    20.136108    20.931231    8490.8292    1327.2014   -501.27033    1797.0782   -316.10075    672.60872    -562.4548   -4307.9571 
 9720000    199.66671   -4833.3447   -4448.2706   -4833.3447            0    2539.0171    20.043167    19.980261    21.032958    8423.0206    2100.7989    2776.2021    2740.0502   -363.78803    682.99807   -170.08652    -4136.375 
 9721000     202.4417   -4816.7305   -4426.3047   -4816.7305            0    2538.5627    20.114779    20.109687    20.889055    8449.6625    1646.7719     2049.122    3919.7943    123.72321    1078.6274    396.86799   -4113.4785 
 9722000    206.97964   -4842.9905   -4443.8128   -4842.9905            0    1379.3512    20.231898     20.10632    20.824181    8471.0483    114.20582    1587.3701    2436.4777   -424.02948    593.51757   -836.42316   -4273.4056 
 9723000    200.57986   -4824.6986   -4437.8634   -4824.6986            0     1137.534    20.044637    20.055883    21.113072    8487.7273    970.28032    745.41761    1696.9041    31.417926    51.782456    716.54408    -4297.054 
 9724000    206.90559   -4824.1888    -4425.154   -4824.1888            0    1533.2157    20.152557    20.242244    20.744481    8462.3577    2638.9058   -308.86146    2269.6027    316.13926    463.96698    1854.3832   -4235.9325 
 9725000    206.52615   -4840.8769   -4442.5738   -4840.8769            0    2434.2519    20.124104    19.954992    21.084152    8466.8968    2864.1726    2352.8527    2085.7306   -149.79228   -158.35217    18.228827     -4141.99 
 9726000    204.18716   -4815.8157   -4422.0236   -4815.8157            0    1421.0575    20.178896    19.982676    21.090872    8504.4372   -515.41379    4129.5635    649.02295    132.84458    363.78966    111.29579   -4245.7719 
 9727000    215.86724   -4793.8836   -4377.5655   -4793.8836            0    1573.3662    20.254198    20.163869    20.861799    8520.0212    781.72104    868.51436    3069.8632   -512.00193    368.97295     1462.804   -4182.0657 
 9728000     206.1013   -4801.4835   -4403.9998   -4801.4835            0    1627.2514    20.029584    20.105258    20.979053    8448.2638    2151.6281     1117.871    1612.2551   -770.07427   -88.193141    1350.4701   -4203.5074 
 9729000    205.18847   -4808.4168   -4412.6936   -4808.4168            0    788.07395     20.19586    20.096899    21.112245    8568.9146    546.65511    727.36421    1090.2025     590.3882    592.11687   -305.12836   -4314.2089 
 9730000    209.66406   -4804.6895   -4400.3347   -4804.6895            0    77.508907    20.186578    20.190146    20.888914     8513.694    609.03374   -396.08728    19.580256    33.873595    834.09336    -1396.903    -4390.711 
 9731000    209.81039   -4813.4487   -4408.8117   -4813.4487            0    2128.2239    19.974048     20.03156    21.105076    8444.3802    1119.8413     4207.542    1057.2885   -3.9915787    29.797359    647.78893   -4146.7153 
 9732000    206.93025   -4820.1899   -4421.1075   -4820.1899            0    981.33431    20.005591    20.101528    21.005668    8447.2812    785.33031    1696.4264    462.24625    224.72106   -1531.8787   -748.35218   -4300.2121 
 9733000    203.08856   -4823.7698   -4432.0964   -4823.7698            0    2187.8825    20.083574    20.224013    20.750144    8428.0957    1636.0557    2198.5503    2729.0414   -416.26642    965.63289   -1119.1151   -4163.1725 
 9734000    209.74253   -4816.9654   -4412.4593   -4816.9654            0    955.98802      20.0295    20.127316    21.052783    8487.2203    1298.9091   -236.16166    1805.2166    261.88307   -574.44503   -247.72623   -4294.1295 
 9735000    193.77126   -4817.5066   -4443.8025   -4817.5066            0     1251.227    20.019386    20.222958    20.873518    8450.6685     2304.459    863.25462    585.96738    57.827763   -151.34924   -224.07633   -4289.5958 
 9736000    201.10869   -4822.5766   -4434.7216   -4822.5766            0    686.38741     19.88415    20.084995    21.305941    8509.0189    1494.2793    347.89939    216.98357    193.84787   -32.118766    158.58102   -4349.5442 
 9737000    195.56895   -4803.2731   -4426.1019   -4803.2731            0     432.3481     20.19621    20.207518    20.939037    8545.5409    79.071679     353.6129    864.35973   -56.676971    1404.5363   -384.75567   -4372.2192 
 9738000     204.4355   -4809.0817   -4414.8107   -4809.0817            0    2432.0781    20.217162    19.828894    20.960332    8402.6611    2080.6615    2347.0225    2868.5505     282.9326   -6.3373624   -547.12576   -4116.7736 
 9739000    204.37377   -4823.3514   -4429.1994   -4823.3514            0    1370.5869    20.019672    20.138599     21.02702    8477.4249    846.00588    2527.5996    738.15522    133.16052    -34.59563    588.69292   -4259.7475 
 9740000     207.8097    -4817.394   -4416.6155    -4817.394            0     1912.808    20.083828    20.290995     20.82224    8485.4973     1252.696    1952.3842    2533.3439    547.82608    837.77245   -216.49759   -4179.9011 
 9741000    190.99407   -4808.7354   -4440.3873   -4808.7354            0    2414.7015    19.925129    19.975669     21.02026    8366.4371    2697.2935     2238.388    2308.4228   -340.84039    638.79526   -256.90061   -4145.7553 
 9742000    205.12295   -4823.6759   -4428.0791   -4823.6759            0    1916.3843    20.013682    20.106285    20.858504    8393.4787    2105.0691    1425.0447    2219.0391    -74.19828   -681.99317   -978.83258   -4193.4939 
 9743000    199.89979   -4803.0666    -4417.543   -4803.0666            0     362.1972    19.992757     20.03785    21.345251    8551.1605    335.01843    1176.6938    -425.1206    530.19505   -1230.6682   -1995.7518   -4372.3735 
 9744000    209.90509    -4814.894   -4410.0743    -4814.894            0    991.20221    20.297819    19.975385    20.849361    8453.5139   -261.25621    1224.3278     2010.535    127.60727    1.8475017   -965.40745   -4287.8732 
 9745000       213.73   -4797.6583    -4385.462   -4797.6583            0    804.17074    20.208132     20.06429    21.071288    8543.6025    42.777542    981.87038    1387.8643    -331.0777   -159.09086   -680.50095   -4285.2626 
 9746000    214.01575   -4823.5493   -4410.8019   -4823.5493            0      1652.42    20.154205    19.948098    20.997593     8441.831    -597.6919    4126.6598    1428.2921    198.41455   -36.928741   -1132.4131   -4207.3635 
 9747000     205.7563   -4831.2041   -4434.3858   -4831.2041            0    677.68486    20.131106    20.214903    20.955701    8527.8878    1892.1545     112.0483    28.851824    181.83943   -543.86289    627.11102   -4350.1018 
 9748000    204.02034   -4802.3082   -4408.8378   -4802.3082            0    2391.8936    20.004063    20.065754    21.137524      8484.53    2868.7824    2046.2733     2260.625   -460.08729    1273.9254    877.99745   -4112.8693 
 9749000    206.96943   -4844.1052   -4444.9473   -4844.1052            0    1252.9315    20.089868    20.250112    20.780317    8453.8916    923.25893    1054.5039    1781.0316   -262.99945   -1085.9357   -300.79506   -4290.4717 
 9750000    214.04822   -4800.1645   -4387.3545   -4800.1645            0    1897.9851    20.068626    20.029584    21.019656    8449.1921    1000.3483    3497.2564    1196.3505   -379.20247    694.53889    1856.8801   -4153.4795 
Loop time of 328.949 on 64 procs for 250000 steps with 972 atoms

Performance: 131.327 ns/day, 0.183 hours/ns, 759.996 timesteps/s
195.1% CPU use with 32 MPI tasks x 2 OpenMP threads

MPI task timing breakdown:
Section |  min time  |  avg time  |  max time  |%varavg| %total
---------------------------------------------------------------
Pair    | 28.389     | 34.294     | 41.283     |  64.0 | 10.43
Bond    | 0.95683    | 1.1844     | 1.4998     |  10.6 |  0.36
Kspace  | 141.68     | 151.3      | 159.39     |  33.3 | 46.00
Neigh   | 1.4051     | 1.5194     | 1.6113     |   5.0 |  0.46
Comm    | 60.2       | 63.239     | 66.218     |  21.1 | 19.22
Output  | 0.52186    | 0.52222    | 0.52388    |   0.0 |  0.16
Modify  | 64.318     | 65.782     | 68.497     |  12.3 | 20.00
Other   |            | 11.11      |            |       |  3.38

Nlocal:        30.3750 ave          40 max          25 min
Histogram: 2 4 7 5 6 4 3 0 0 1
Nghost:        2563.12 ave        2613 max        2522 min
Histogram: 3 2 3 5 5 5 4 3 1 1
Neighs:        9328.69 ave       13360 max        7352 min
Histogram: 2 7 7 6 6 1 2 0 0 1

Total # of neighbors = 298518
Ave neighs/atom = 307.11728
Ave special neighs/atom = 2.0000000
Neighbor list builds = 5265
Dangerous builds = 0

unfix		3
unfix		2
unfix		1

write_data	data.final.${pid}
write_data	data.final.1
System init for write_data ...
PPPM initialization ...
  extracting TIP4P info from pair style
  using 12-bit tables for long-range coulomb (../kspace.cpp:340)
  G vector (1/distance) = 0.37197883
  grid = 24 24 25
  stencil order = 5
  estimated absolute RMS force accuracy = 0.0034597053
  estimated relative force accuracy = 1.04188e-05
  using double precision FFTW3
  3d grid and FFT values/proc = 3458 576
Last active /omp style is kspace_style pppm/tip4p/omp
WARNING: Not all mixed pair coeffs generated from mixing. Use write_data with 'pair ij' option to store all pair coeffs. (../write_data.cpp:312)

write_restart   restart.lmp.${pid}
write_restart   restart.lmp.1
System init for write_restart ...
PPPM initialization ...
  extracting TIP4P info from pair style
  using 12-bit tables for long-range coulomb (../kspace.cpp:340)
  G vector (1/distance) = 0.37197883
  grid = 24 24 25
  stencil order = 5
  estimated absolute RMS force accuracy = 0.0034597053
  estimated relative force accuracy = 1.04188e-05
  using double precision FFTW3
  3d grid and FFT values/proc = 3458 576
Last active /omp style is kspace_style pppm/tip4p/omp
Total wall time: 0:05:29
