LAMMPS (30 Jul 2021)
Processor partition = 0
  using 2 OpenMP thread(s) per MPI task
using multi-threaded neighbor list subroutines
variable        pid world 0 1
variable        phase world IceIh IceIII

shell cd ${phase}
shell cd IceIh
include Restart.lmp
echo both
log log.lammps
#include		in.partitions
include		in.temp
variable        temperature equal 57.72
variable	tempDamp equal 100.0
include		in.pressure
variable        pressure equal 2117.5
variable        pressureDamp equal 1000.0 # This is 1 ps
include		in.seed
variable        seed equal 745823

units		real
atom_style	full
#include		in.box
read_restart	restart.lmp.${pid}
read_restart	restart.lmp.0
Reading restart file ...
  restart file = 30 Jul 2021, LAMMPS = 30 Jul 2021
  restoring atom style full from restart
  orthogonal box = (0.15446563 0.12299962 0.16809400) to (18.053107 23.506178 22.045102)
  2 by 4 by 4 MPI processor grid
  restoring pair style lj/cut/tip4p/long/omp from restart
  restoring bond style harmonic/omp from restart
  restoring angle style harmonic/omp from restart
  864 atoms
  576 bonds
  288 angles
Finding 1-2 1-3 1-4 neighbors ...
  special bond factors lj:    0        0        0       
  special bond factors coul:  0        0        0       
     2 = max # of 1-2 neighbors
     1 = max # of 1-3 neighbors
     1 = max # of 1-4 neighbors
     2 = max # of special neighbors
  special bonds CPU = 0.002 seconds
  read_restart CPU = 0.007 seconds
include 	in.setup
variable	out_freq equal 1000
variable	out_freq2 equal 10000
variable	out_freq3 equal 1000

timestep	2.0

neigh_modify    delay 7 every 1

include		in.tip4p
# This is TIP4P/Ice

# create groups ###
group ox type 2
288 atoms in group ox
group hy type 1
576 atoms in group hy

# set charges - beside manually ###
set group ox charge -1.1794
Setting atom values ...
  288 settings made for charge
set group hy charge 0.5897
Setting atom values ...
  576 settings made for charge

# ### TIP3P Potential Parameters ###
pair_style lj/cut/tip4p/long/omp 2 1 1 1 0.1577 8.5
pair_coeff 1 1*2 0.000 0.000
pair_coeff 2 2 0.21084 3.1668
bond_style  harmonic
bond_coeff  1 450 0.9572
angle_style harmonic
angle_coeff 1 55 104.52
kspace_style pppm/tip4p/omp 1.0e-5
pair_modify tail yes

thermo          ${out_freq}
thermo          1000
thermo_style    custom step temp pe etotal epair emol press lx ly lz vol pxx pyy pzz pxy pxz pyz enthalpy

restart 	${out_freq3} restart.lmp.${pid} restart2.lmp.${pid}
restart 	1000 restart.lmp.${pid} restart2.lmp.${pid}
restart 	1000 restart.lmp.0 restart2.lmp.${pid}
restart 	1000 restart.lmp.0 restart2.lmp.0


include         in.dump
dump            myDump all atom ${out_freq2} dump.water.${pid}
dump            myDump all atom 10000 dump.water.${pid}
dump            myDump all atom 10000 dump.water.0
dump            myDump2 all dcd ${out_freq2} dump.dcd
dump            myDump2 all dcd 10000 dump.dcd
dump_modify     myDump append yes
dump_modify     myDump2 append yes


variable natoms 	equal  "count(all)"                        # NUMBER ATOMS
variable H      	equal  "enthalpy/v_natoms"                 # ENTHALPY-per-atom
variable Vol      	equal  "vol/v_natoms"                 # volume-per-atom
fix AVG all 		ave/time ${out_freq} 1 ${out_freq} v_Vol v_H file vol_enthalpy.dat
fix AVG all 		ave/time 1000 1 ${out_freq} v_Vol v_H file vol_enthalpy.dat
fix AVG all 		ave/time 1000 1 1000 v_Vol v_H file vol_enthalpy.dat


timer           timeout 23:50:00 every 1000
New timer settings: style=normal  mode=nosync  timeout=23:50:00

fix 		1 all shake 1e-6 200 0 b 1 a 1
Finding SHAKE clusters ...
       0 = # of size 2 clusters
       0 = # of size 3 clusters
       0 = # of size 4 clusters
     288 = # of frozen angles
  find clusters CPU = 0.000 seconds
fix             2 all nph aniso ${pressure} ${pressure} ${pressureDamp}
fix             2 all nph aniso 2117.5 ${pressure} ${pressureDamp}
fix             2 all nph aniso 2117.5 2117.5 ${pressureDamp}
fix             2 all nph aniso 2117.5 2117.5 1000
fix             3 all temp/csvr ${temperature} ${temperature} ${tempDamp} ${seed}
fix             3 all temp/csvr 57.72 ${temperature} ${tempDamp} ${seed}
fix             3 all temp/csvr 57.72 57.72 ${tempDamp} ${seed}
fix             3 all temp/csvr 57.72 57.72 100 ${seed}
fix             3 all temp/csvr 57.72 57.72 100 745823


run             250000
PPPM initialization ...
  extracting TIP4P info from pair style
  using 12-bit tables for long-range coulomb (../kspace.cpp:340)
  G vector (1/distance) = 0.37205414
  grid = 24 27 25
  stencil order = 5
  estimated absolute RMS force accuracy = 0.0031193358
  estimated relative force accuracy = 9.3937871e-06
  using double precision FFTW3
  3d grid and FFT values/proc = 4410 672
Last active /omp style is kspace_style pppm/tip4p/omp
Neighbor list info ...
  update every 1 steps, delay 7 steps, check yes
  max neighbors/atom: 2000, page size: 100000
  master list distance cutoff = 10.8154
  ghost atom cutoff = 10.8154
  binsize = 5.4077, bins = 4 5 5
  1 neighbor lists, perpetual/occasional/extra = 1 0 0
  (1) pair lj/cut/tip4p/long/omp, perpetual
      attributes: half, newton on, omp
      pair build: half/bin/newton/omp
      stencil: half/bin/3d
      bin: standard
Setting up Verlet run ...
  Unit style    : real
  Current step  : 39250000
  Time step     : 2
  Walltime left : 23:49:59.94
Per MPI rank memory allocation (min/avg/max) = 10.21 | 10.22 | 10.23 Mbytes
Step Temp PotEng TotEng E_pair E_mol Press Lx Ly Lz Volume Pxx Pyy Pzz Pxy Pxz Pyz Enthalpy 
39250000    60.651549   -4637.3595   -4533.4049   -4637.3595            0    1672.0359    17.898641    23.383179    21.877008    9156.1211    1489.7616    1284.9355    2241.4106   -430.86196    348.41363   -325.18823   -4310.1335 
39251000    57.984363   -4638.5417   -4539.1585   -4638.5417            0    1756.7899      17.8469    23.299715    21.977732    9138.9497    1940.5018    2135.9256    1193.9423   -389.21168      181.103   -32.450787   -4305.0097 
39252000    58.445296    -4640.247   -4540.0738    -4640.247            0    2077.6759    17.955888    23.191325    21.898082    9118.8175    2677.9234    1942.5477    1612.5565   -176.58427    242.63189   -190.57511   -4263.7665 
39253000    58.254377   -4641.3689   -4541.5229   -4641.3689            0    2082.3851    17.870375    23.356917      21.8809     9133.019    2473.5883    1937.4826    1836.0844    372.31674     138.8988   -454.19919   -4264.1581 
39254000    52.505972   -4637.2922   -4547.2988   -4637.2922            0    2072.0704    17.882928    23.320239    21.875423    9122.7986    1924.7835    2033.4301    2257.9977    21.088243   -19.103519   -483.37776   -4271.6167 
39255000    57.240151   -4633.0558   -4534.9481   -4633.0558            0    1880.8774    17.884412    23.275712    21.928583    9128.2649    1567.3822    1827.9018    2247.3482     280.5538    158.87402   -64.103462   -4284.5538 
39256000    60.881581   -4638.5457   -4534.1967   -4638.5457            0    1979.5658    17.905401    23.319503    21.872859    9132.9039    1331.7366    2377.1626    2229.7983   -89.019496    186.34372    442.60729   -4270.5304 
39257000     56.26512   -4635.2634   -4538.8269   -4635.2634            0    1805.4392    17.837876    23.360764    21.911208    9130.5408    2714.0829    620.09071    2082.1441   -307.92122   -167.49205   -123.74385   -4298.4154 
39258000    57.095442   -4632.2401   -4534.3805   -4632.2401            0    2103.9999    17.976901    23.215114    21.856876    9121.6573    2053.7379     1809.672    2448.5899   -184.75632   -108.91173    284.67424   -4254.4853 
39259000    58.526129   -4632.3766   -4532.0648   -4632.3766            0    1749.7026    17.867258    23.385038    21.907688    9153.6128    1423.4982     1517.696    2307.9137   -663.87815   -30.990644    35.752669   -4298.4864 
39260000    57.549652   -4635.9106   -4537.2724   -4635.9106            0    1512.1308    17.944861    23.322449     21.89036    9161.5118    1908.7981    1574.5077    1053.0866     221.9824   -18.882435     466.4443   -4335.2347 
39261000    57.627994   -4637.6619   -4538.8895   -4637.6619            0    1530.2836      17.8294    23.316847    21.983571    9139.1286    1491.2116    1800.7638    1298.8753   -47.639306   -285.36568    47.922043   -4334.9259 
39262000    61.459449   -4635.0211   -4529.6817   -4635.0211            0     1679.774    17.946139    23.312359    21.884199    9155.6233    939.10505    2103.1784    1997.0385    841.22015   -203.17491   -72.443331   -4305.3893 
39263000    62.172067   -4639.6662   -4533.1054   -4639.6662            0    1434.9688    18.023983    23.289088    21.803435    9152.2561     1294.372    935.22426    2075.3102   -224.56184   -45.865068    197.73535   -4341.5712 
39264000    56.739464   -4640.2353   -4542.9858   -4640.2353            0    2020.9917    17.897458    23.326852    21.881097    9135.1685    1486.4178    1699.8812    2876.6761   -569.02698    145.72892    108.29001    -4273.735 
39265000    54.542524   -4631.8697   -4538.3857   -4631.8697            0    2237.9321    17.927574    23.256934    21.891702     9127.535    1583.7688    2421.8354    2708.1921    312.06271    342.93133   -49.573243   -4240.4817 
39266000    58.572756   -4637.6391   -4537.2474   -4637.6391            0    1784.1055    17.936257     23.33587    21.841322    9141.8641    1498.3582    1572.5239    2281.4343    71.705456    295.66402   -36.714087    -4299.382 
39267000    58.816289   -4638.8872   -4538.0781   -4638.8872            0     2075.781    17.874554    23.306688     21.93343    9137.3934    2047.5537    1932.1942     2247.595    -86.03381    171.03436    93.551393   -4261.4605 
39268000    58.199418   -4645.9415   -4546.1896   -4645.9415            0    2098.8747     18.03002     23.23113    21.769517    9118.3306    2221.3215    2162.2233    1913.0794   -14.772978   -201.86753    -71.68773   -4267.0781 
39269000    57.866032   -4638.3323   -4539.1519   -4638.3323            0    1738.5877     17.82705     23.44193     21.88431    9145.4633    2007.1229    1679.3968    1529.2434   -50.414259   -12.345508    345.09469   -4307.2639 
39270000    55.133814   -4639.4393   -4544.9418   -4639.4393            0    1850.9159    17.951409    23.346542    21.804562    9138.3648    1295.2612    1881.6646    2375.8218   -619.76308   -135.10761    240.66555   -4298.2634 
39271000    54.599537   -4637.0812   -4543.4995   -4637.0812            0    1912.0957    17.981073    23.241182    21.871909    9140.3013    1351.3877    2409.8864    1975.0129   -135.46957   -441.65062   -15.053419   -4288.6134 
39272000    59.273146   -4636.2761    -4534.684   -4636.2761            0    2032.6629    17.885896    23.446982    21.782358    9134.8736     2437.858     1326.991    2333.1397   -286.16891    -568.6563   -60.796114    -4263.887 
39273000    57.372538   -4644.1682   -4545.8336   -4644.1682            0    2244.8125    17.949325    23.340289    21.780644    9124.8359    1815.7601    2438.6231    2480.0544    157.92949    -340.3251    79.400333   -4247.1021 
39274000    61.649704   -4633.8506   -4528.1851   -4633.8506            0    1902.4747    18.007497    23.262208    21.850493    9153.0438    965.97962    2385.9418    2355.5025    97.888014   -316.64558    8.8220033   -4274.2281 
39275000     56.61688   -4635.9244    -4538.885   -4635.9244            0    1642.9911    17.846167    23.460649    21.892684    9166.0869    1847.5283    741.34413    2340.1008    439.47357    -410.3655   -134.16793   -4319.2533 
39276000    58.379185   -4632.4109    -4532.351   -4632.4109            0    1778.3525    17.971369    23.223666    21.950876    9161.4415    1393.7605    2210.7391     1730.558   -201.71838   -55.352007   -147.38739   -4294.7449 
39277000    58.278516   -4637.0902   -4537.2028   -4637.0902            0    1114.7508    17.971005    23.220188    22.032232    9193.8326    1285.0237     2242.314   -183.08542   -44.246279    324.20859   -24.702629   -4387.7341 
39278000    56.250986   -4639.7403    -4543.328   -4639.7403            0    1867.1644    17.933166     23.31913    21.880917    9150.2892    2070.8333    1966.6643    1563.9956    215.20611    127.73313    -376.4091   -4294.1595 
39279000    55.042096   -4641.1333    -4546.793   -4641.1333            0    1795.3534    17.887307    23.288254    21.967667    9150.9426    1682.1032    1795.4433    1908.5137   -559.16148    131.46119   -291.71474   -4307.1903 
39280000    57.731866   -4634.0961   -4535.1456   -4634.0961            0    2362.6408    17.897636    23.251207     21.94072    9130.4471    2141.5132    2103.0415    2843.3676    316.74629   -266.23351   -104.90602   -4220.5406 
39281000    60.149997   -4635.9814   -4532.8864   -4635.9814            0     2097.775    17.936402    23.253254    21.939152    9150.3753     1705.385    1601.9441     2985.996    30.480372    -509.9002   -8.8752799   -4252.9407 
39282000    57.708746   -4633.0346   -4534.1238   -4633.0346            0    2672.7065    17.841821    23.297361    21.929867    9115.5296    3026.3736     2619.423     2372.323   -250.19106    319.00958     370.3073   -4178.8124 
39283000    58.793438   -4638.4048   -4537.6349   -4638.4048            0    1993.2621    17.913885    23.227927    21.999284    9153.9552    1999.1794    2256.1845    1724.4224   -577.08096    154.10726    124.80141   -4271.5323 
39284000    56.840581   -4642.6601   -4545.2373   -4642.6601            0    1868.1223    17.903145    23.406986     21.85714    9159.4239    2211.6805    1348.0213     2044.665   -428.45432    240.00007     220.0826    -4295.692 
39285000    55.453245   -4642.5641   -4547.5191   -4642.5641            0    1581.2668    17.821807    23.437675     21.91252    9152.8972    1911.2051    1330.8184    1501.7769    130.94858    247.99489    33.247627   -4336.4428 
39286000    56.262819   -4640.1616    -4543.729   -4640.1616            0    1891.1461    17.902794    23.364779    21.860777      9144.25    1571.8138    2319.5102    1782.1143   -293.86327    116.01385   -120.45174   -4291.5267 
39287000    56.227406    -4632.603   -4536.2311    -4632.603            0    1390.2919    17.891122    23.321857    21.952612    9159.8193     1231.326    1588.4765    1351.0733    316.79695   -48.721011   -99.398594   -4350.5068 
39288000    58.872701   -4640.2321   -4539.3263   -4640.2321            0    1527.9157    18.001665    23.263061    21.868143    9157.8057    1108.3047    1479.3858    1996.0567     788.0144    -446.8985    279.53097   -4335.2621 
39289000    57.380355   -4634.8156   -4536.4676   -4634.8156            0    2512.8419     17.87244    23.225833    21.954843    9113.5058    2965.4932    2048.2215    2524.8109    418.41316   -404.11006    154.72645   -4202.4829 
39290000    60.748959     -4644.02   -4539.8984     -4644.02            0    1858.8897    17.921903    23.285003    21.904461    9140.9851    2001.0839    1377.3881    2198.1972   -473.49357    53.943735    119.66487   -4292.0863 
39291000    58.402356   -4640.2828   -4540.1832   -4640.2828            0    1694.6391    17.990588    23.249542    21.897544    9159.1499    1790.6695    1616.3815    1676.8664    255.71246    147.60839   -52.486427   -4313.8187 
39292000    58.054643   -4639.3593   -4539.8556   -4639.3593            0    2137.0999    17.885381    23.275646     21.93619    9131.8998    1729.7637    2126.4182    2555.1176    4.5616246    108.49624    144.53057    -4255.238 
39293000    55.943149   -4631.1855   -4535.3009   -4631.1855            0     2078.929    17.907958    23.206539    21.998908    9142.3443    2300.0149    1850.3506    2086.4216    339.14702    61.755083    -143.4348   -4258.1137 
39294000    59.239116   -4636.6963   -4535.1625   -4636.6963            0    2757.8464    17.941899    23.268601    21.820393    9109.6405    2940.9113    3074.7635    2257.8644    170.96618    418.35792    229.41391   -4168.7695 
39295000    57.915659   -4647.6585    -4548.393   -4647.6585            0    2869.8435    17.865492    23.330448    21.834558    9100.8609    2632.1551    2675.5141    3301.8612   -394.63335    127.93669   -185.95727   -4167.4881 
39296000    60.006954    -4637.656   -4534.8061    -4637.656            0    2725.9051    17.785458    23.370449    21.915634    9109.3241    3117.1252    2582.8546    2477.7356    -259.5282    41.142089    528.19088   -4172.6692 
39297000    57.322153   -4640.2247   -4541.9765   -4640.2247            0    2407.4589    17.978244    23.148149    21.927064    9125.2343    1749.5944    3152.8998    2319.8824    12.284646    10.147957    219.50089   -4221.5866 
39298000    56.563371   -4632.8505   -4535.9029   -4632.8505            0    2616.5923    17.861779    23.227163    21.923256     9095.487    3100.5955    2458.6973    2290.4841    130.37927   -134.76043    77.801758   -4188.8162 
39299000    60.510772   -4638.1024    -4534.389   -4638.1024            0    2607.7144    17.873765    23.266123    21.910709    9111.6389    2834.5869    2933.3388    2055.2174   -318.31367   -522.43954    137.80123   -4187.8657 
39300000    56.004735   -4637.8417   -4541.8515   -4637.8417            0    2304.3653    17.888963    23.235791    21.930699    9115.8067    3067.4246    2111.9497    1733.7215    296.26934    -178.4631    46.081395   -4235.4984 
39301000    58.262797    -4633.138   -4533.2775    -4633.138            0    2555.0881    17.978971    23.293662    21.762309    9113.9699    2184.9857    2237.3921    3242.8866    48.580095      80.9447    219.08363   -4193.6606 
39302000    58.405098   -4640.8887   -4540.7844   -4640.8887            0    1773.6836    17.859078    23.288072    21.999914    9149.8413    2544.8645    1466.5667    1309.6195    -704.0381   -359.07412    62.997205   -4304.1022 
39303000    56.853174   -4640.1998   -4542.7554   -4640.1998            0    2139.0566    17.839342    23.403857    21.875715    9133.3169    2825.7239    1291.0663    2300.3795     546.6487    75.141785    67.301365    -4257.833 
39304000    57.368277   -4632.0663   -4533.7391   -4632.0663            0    2425.5188    17.974296     23.27127    21.770541    9106.2841    2212.2021    2534.4899    2529.8643    188.67913    421.22506   -93.789618   -4211.6161 
39305000    55.843643   -4635.5461    -4539.832   -4635.5461            0    1957.5861      17.9487    23.226402    21.917085    9136.8757    2071.2351    2506.0869    1295.4363     24.55191    7.6115291    54.006984   -4278.9798 
39306000     58.88458   -4633.1969   -4532.2708   -4633.1969            0    2288.4496    17.952902    23.246966    21.858987     9122.859     2053.041    2638.4331    2173.8748    59.505088   -381.85308    199.20327   -4227.7982 
39307000    59.290658   -4638.9474   -4537.3253   -4638.9474            0    2429.2867    17.803627    23.292092     21.96736    9109.5063    3196.3474    2512.8513    1578.6613    639.45445   -292.50089    178.54903   -4214.5877 
39308000    57.658318   -4639.4761   -4540.6518   -4639.4761            0    2164.5202    17.861516    23.392053    21.859286    9133.1927    2195.9782    1915.3742    2382.2082   -313.68928   -246.09892   -181.62917   -4252.3415 
39309000    58.521204   -4638.1467   -4537.8434   -4638.1467            0    2209.9968    17.879419    23.277166    21.913372    9119.9554    2134.0658     1837.834    2658.0906    40.777138    225.64804     5.704613   -4243.9023 
39310000    56.363182   -4643.6083   -4547.0037   -4643.6083            0    1830.8013    17.904084    23.393279    21.813259    9136.1614    2313.1029    1390.4361    1788.8648   -363.65744    -210.1458   -112.63034   -4303.0649 
39311000    54.265937   -4631.7503   -4538.7404   -4631.7503            0    2050.3636    17.944389    23.199228    21.938661    9132.9763    1976.0629    2601.9627    1573.0652     -21.4969   -24.033023    60.689885    -4265.642 
39312000    58.096833   -4635.9076   -4536.3316   -4635.9076            0    1267.4805    17.990563      23.3325    21.864245    9177.8403     1230.518    857.23095    1714.6925    207.96364   -78.581058    64.241997   -4366.6801 
39313000    59.360233   -4632.4979   -4530.7565   -4632.4979            0    2421.0017    17.949176    23.254535    21.868704    9127.9916    1871.8719    2737.3163    2653.8168    70.824901    12.495927   -42.511156    -4208.467 
39314000    59.219901   -4642.0706   -4540.5697   -4642.0706            0     1878.113    17.973037    23.216756    21.936333    9153.4968    2090.1715    1418.1251    2126.0424    399.93207    128.91798   -435.20378   -4289.8522 
39315000    57.408038   -4643.5943   -4545.1989   -4643.5943            0    2145.5309    17.913804    23.240505    21.905897    9119.9914    1954.0604    2510.6122    1971.9201   -365.50748   -155.43637     -173.943    -4259.831 
39316000    58.143664   -4631.0134   -4531.3571   -4631.0134            0    2527.9575    17.898316    23.266379     21.90767    9122.9893     2603.718    2635.9785     2344.176   -286.08974    108.84922   -151.82693   -4195.0138 
39317000    54.318981   -4639.9439    -4546.843   -4639.9439            0     2133.654    17.867093     23.24716    21.975926     9127.902    1974.7692    2517.6381    1908.5548   -259.48406   -40.772224     111.3336   -4262.8086 
39318000    57.319488   -4638.6876    -4540.444   -4638.6876            0    1655.9855    17.876559     23.25224    21.985679    9138.7884    1670.4779    1888.5542    1408.9243   -327.44995     336.3093     106.5108   -4319.7344 
39319000    55.249962   -4643.1885    -4548.492   -4643.1885            0    1939.2547    18.045353    23.159666    21.880931    9144.5741    1400.9354    2075.1066    2341.7221   -278.52668   -250.49664   -26.088614   -4289.8647 
39320000     57.70224   -4638.6964   -4539.7967   -4638.6964            0     1701.227    17.878246    23.282152     21.95315    9137.8679    1747.6632    1989.2764    1366.7413    107.18805   -171.34172    438.71323   -4313.0803 
39321000     58.09272   -4640.1755   -4540.6065   -4640.1755            0    2257.0209    17.876802     23.41355    21.790762    9120.7286    2879.1101    1661.0202    2230.9325   -36.331601   -14.455676    104.37503   -4240.3856 
39322000    63.837432   -4636.5079   -4527.0927   -4636.5079            0    2552.1266    17.878664    23.410478    21.772187    9112.7069    2914.2144    2358.4503    2383.7152   -441.91442   -177.54193   -96.087888   -4187.9164 
39323000    55.122262   -4640.6979   -4546.2202   -4640.6979            0    2453.1115    17.849789    23.348813    21.876971    9117.6953     2668.908    2719.4824     1970.944   -140.31792    70.158578    187.14551   -4220.0245 
39324000    59.454791   -4641.6777   -4539.7743   -4641.6777            0    2295.8084    18.000052    23.221711    21.841697    9129.6549    2003.3294    2106.2705    2777.8253    136.84237   -101.89482    135.32903   -4234.0951 
39325000    57.258274   -4637.1556   -4539.0169   -4637.1556            0    2549.3569    17.838834    23.239173    21.985162    9114.1635    3165.6688    2723.3836    1759.0182    34.291696    133.29498    59.336524   -4200.1545 
39326000    56.210433   -4635.8486   -4539.5058   -4635.8486            0    2637.2777    17.867218     23.32272    21.839269    9100.6885    2809.6501    2583.9434    2518.2396   -485.55418   -253.68087    228.58008   -4189.4753 
39327000    57.442691   -4642.2571   -4543.8023   -4642.2571            0    2371.3552    17.944844    23.219227    21.881858    9117.4135    2519.8846    1981.5204    2612.6606    605.38846   -252.55059    436.70637   -4228.4876 
39328000     60.71825   -4633.0576   -4528.9886   -4633.0576            0    2131.8231     17.89892    23.320596    21.857617    9123.6641    2179.2143    2700.6539     1515.601    625.16958   -448.78198    486.83888   -4245.3298 
39329000    58.093116    -4640.915   -4541.3454    -4640.915            0    2078.4166    17.852592    23.385087    21.868512    9129.7628    1827.4469    2562.0567    1845.7462   -67.606652   -281.84438    149.21678   -4264.6079 
39330000    60.311978   -4633.4342   -4530.0616   -4633.4342            0    2051.8693    17.879334    23.270694     21.90758    9114.9666    2324.2154    1711.5277    2119.8647    233.91518    -344.0152    144.50801   -4257.3016 
39331000    58.256745   -4639.9415   -4540.0914   -4639.9415            0    1431.4781    17.917457    23.332899    21.915237    9162.0202    1339.8629    1455.4256    1499.1457   -449.20709   -435.49388   -38.715826   -4348.8192 
39332000    57.050988   -4642.5269   -4544.7434   -4642.5269            0    1703.7408    18.044951    23.081554    21.977914    9153.9221    1166.3509    2498.8451    1446.0264    154.11892    230.56974    264.23097   -4317.2931 
39333000    53.308729   -4635.8266   -4544.4573   -4635.8266            0    1536.7964    18.026662    23.281459    21.769654    9136.4409    1179.7993    1606.8464    1823.7434   -408.02903    586.64927   -57.566799   -4339.6859 
39334000    59.890898   -4635.1553   -4532.5043   -4635.1553            0    1840.2122    17.900071    23.385902    21.854788    9148.6173    1684.9583    1343.4837    2492.1947    359.23075    262.22882    232.53437   -4286.9773 
39335000    57.476124   -4638.3865   -4539.8744   -4638.3865            0    2433.8696    17.867989    23.292525    21.881685    9106.9513    2879.3801    1669.6895    2752.5391   -110.77407    281.71358    254.76437   -4216.6187 
39336000     59.28858   -4640.2129   -4538.5943   -4640.2129            0    3151.6172    17.926225    23.185014    21.844001    9078.7989    3027.4965    3610.7774    2816.5778    307.47888   -228.34035     78.56835   -4121.3045 
39337000    58.246978   -4642.1235   -4542.2902   -4642.1235            0    2802.8058    17.973774    23.185004    21.820315    9093.0058    2664.3471    3121.4938    2622.5765   -107.57888     60.27596    477.76034   -4170.6041 
39338000    59.067822   -4634.7705   -4533.5303   -4634.7705            0    1944.1814    17.854013    23.351564    21.941771    9147.9443    2020.0389     1758.632    2053.8731    454.96531   -233.00353   -76.307352   -4274.1505 
39339000    52.540913    -4635.439   -4545.3857    -4635.439            0    2441.0848    17.895072    23.159076    21.987737    9112.4515    2734.6301    2554.8133    2033.8109    477.64449   -23.119783    289.66675   -4220.9759 
39340000    57.410921    -4635.045   -4536.6447    -4635.045            0    2302.2182    18.020741    23.280434     21.78902    9141.1622    1956.4376    2480.0222    2470.1948   -465.27482   -76.290575   -83.298198   -4229.7257 
39341000    54.753225   -4640.3812    -4546.536   -4640.3812            0    1850.2569    17.900521    23.288108    21.924797    9139.7735    1855.9917    1829.7648    1865.0143    186.72677   -433.80901   -186.42097   -4299.9075 
39342000    58.167916   -4635.9322   -4536.2344   -4635.9322            0     2016.171     17.90584     23.28727    21.931238    9144.8468    2497.0808    2043.7074    1507.7249    134.68671   -59.424345    124.10706   -4267.3412 
39343000    54.949747   -4639.5956   -4545.4136   -4639.5956            0    2364.2679    17.950613     23.30682    21.788075     9115.514    1755.8473    2786.7896    2550.1667   -40.214349    289.81815    -83.60082   -4231.1069 
39344000    55.801942   -4636.8087   -4541.1661   -4636.8087            0    2369.4273    17.909616    23.296577    21.864056       9122.4    1818.1296    2872.8917    2417.2605     53.91936   -231.51539   -133.97887   -4225.9355 
39345000    56.248644   -4640.2533   -4543.8451   -4640.2533            0     2662.554     17.90857    23.204985    21.910663    9105.3725     2528.485    2918.6832    2540.4939    76.694948   -114.88488      169.053   -4190.2778 
39346000    58.306124   -4637.5963   -4537.6616   -4637.5963            0    1579.0502    17.900494    23.287858    21.976745     9161.317    929.56606    1699.0336     2108.551    397.27218   -260.09068    165.92918   -4326.6872 
39347000    58.592073   -4639.3836   -4538.9588   -4639.3836            0    1646.5944    17.891209    23.370543    21.889204    9152.4732     1535.989     1972.301    1431.4932   -196.41458   -417.78595    74.229052   -4319.1723 
39348000    55.602563   -4641.1587   -4545.8578   -4641.1587            0     1804.722    18.014191    23.122557    21.950422    9143.1003    1571.9131    2413.6525    1428.6004    292.21042    34.118588    336.30369   -4305.2113 
39349000    59.193028    -4639.713   -4538.2582    -4639.713            0    2072.4567    17.857691    23.377973    21.868435    9129.5606    2483.4149    1561.9723    2171.9828   -706.58834    -68.81268   -32.055721   -4262.3204 
39350000    55.278842   -4642.7788   -4548.0327   -4642.7788            0    1365.4825    17.959258     23.38918    21.848503    9177.5144    707.81531    1168.6549    2219.9772   -65.035619    179.48894   -197.39456   -4365.2702 
39351000    55.910488   -4643.3712   -4547.5425   -4643.3712            0    1754.8684    17.880273    23.276311     21.95921     9139.133    1421.2225    2042.5015    1800.8812   -44.847207    20.814663    140.24975   -4313.6451 
39352000    58.919406   -4636.6673   -4535.6815   -4636.6673            0    2325.9332    17.838786    23.251584    22.018248    9132.7294    2108.1633    2849.6202     2020.016    116.31932    454.67173    59.307693    -4225.887 
39353000    58.856052   -4636.9745   -4536.0972   -4636.9745            0    2568.4432    17.961543    23.279907     21.79052    9111.5542    2450.7789    2570.7511    2683.7998    127.44136    224.43196    65.879245   -4194.7956 
39354000    59.082932   -4642.7386   -4541.4725   -4642.7386            0    2291.0498    17.885724    23.275107    21.910952     9121.357    2936.0241    2006.8139    1930.3115    283.38829    113.60662    119.32519   -4236.7041 
39355000    59.506138    -4635.398   -4533.4065    -4635.398            0    3322.4783    17.977724    23.120822    21.843192     9079.336    2780.9879    3758.8084    3427.6387    19.290268    22.007771    176.48318   -4093.4678 
39356000    56.569201   -4641.7009   -4544.7432   -4641.7009            0    2812.3068    17.771198    23.379613    21.907001     9102.002    2594.0712    2537.3265    3305.5228    505.50716   -203.81182    247.96098   -4171.4281 
39357000    58.712539   -4645.4376   -4544.8063   -4645.4376            0    1885.8632    17.857948    23.313002    21.948499     9137.651    1926.5966    1946.9197    1784.0734   -293.85726    195.18801    153.68983   -4293.4901 
39358000    56.639148   -4639.5651   -4542.4875   -4639.5651            0    1369.8744    17.973163    23.234813    21.955132    9168.5308    1078.5846    954.34548    2076.6931    54.156367    67.913215    244.02364   -4359.3167 
39359000    57.459278   -4641.9672    -4543.484   -4641.9672            0    1623.7342    17.888386    23.372383    21.902299    9157.2243    1786.5664    1088.2157    1996.4206    28.088397    198.10211    340.79986   -4326.6364 
39360000    55.407854   -4637.3648   -4542.3976   -4637.3648            0    1883.9409    17.909161    23.281244      21.9262    9142.0751    1601.3383    2095.6325    1954.8519    17.745196   -75.904107   -46.891991    -4291.216 
39361000    57.520528   -4635.9879   -4537.3997   -4635.9879            0    1879.4454    18.012237    23.104077    21.986847    9149.9609    1221.3875    2654.3076     1762.641   -102.36607    95.439156    25.762152   -4286.6012 
39362000     60.88562   -4642.8756   -4538.5197   -4642.8756            0    2338.5736    17.865474    23.345431    21.882616      9126.74     2561.685    2511.3269    1942.7089   -36.168557    12.580547    91.956581   -4227.2459 
39363000    55.674099   -4635.9628   -4540.5393   -4635.9628            0    2050.4572    17.885344    23.338599    21.868813     9128.455    2027.0221     2375.251    1749.0985    332.22491   -37.223747    39.061156   -4267.5637 
39364000    60.195116   -4635.0105   -4531.8381   -4635.0105            0    2589.5744    17.943682     23.34039    21.767043    9116.3107    2923.2391    1480.6201     3364.864    196.31054   -122.90425    159.21718   -4187.5489 
39365000    60.530718   -4639.1412   -4535.3936   -4639.1412            0    2317.7471    17.925365    23.305344    21.838727    9123.2767    2349.5562    2047.0848    2556.6003    182.68336   -69.237471    251.12515    -4227.009 
39366000    58.404318   -4642.6132   -4542.5102   -4642.6132            0    3219.3793    17.883772    23.267584       21.833    9084.9771    2912.1749    2406.5428    4339.4201   -356.53599   -365.11757    471.17912   -4115.9583 
39367000    54.433032   -4640.1517   -4546.8553   -4640.1517            0    2583.3935    17.911381    23.259637    21.884268     9117.254    2243.2951     2472.613    3034.2725    382.60013   -300.79721   -256.43835   -4203.3523 
39368000    56.990053    -4641.834    -4544.155    -4641.834            0    2428.9452    17.866844    23.352277     21.84911    9116.1366    2440.8614    2467.0896    2378.8845   -681.54362    65.350847    15.558538    -4221.228 
39369000    59.613252    -4638.478   -4536.3029    -4638.478            0    2433.3302     17.80805    23.331653    21.943492    9117.3289    2963.9535    2452.3377    1883.6994   -525.93501     352.2048   -365.99984   -4212.7506 
39370000    57.295817   -4640.7964   -4542.5934   -4640.7964            0    2260.7471      17.9572    23.233936    21.875833    9126.9569    2801.9014    2024.6206    1955.7195   -405.46377    298.22264    140.66316   -4241.6714 
39371000    58.362165   -4641.5834   -4541.5527   -4641.5834            0    2530.2672    17.804297    23.252733    22.000902    9108.3415    2264.7892    3261.8434    2064.1689     525.1641   -75.096136   -69.303834   -4205.4426 
39372000    59.117385   -4634.9316   -4533.6064   -4634.9316            0    2952.1545    17.910612    23.281675    21.820954     9099.099     2533.192    2690.0726    3633.1988     333.1984    40.699867    362.24553   -4141.8525 
39373000    55.833205   -4643.4113   -4547.7151   -4643.4113            0    2645.5477    17.819736    23.363495     21.85635    9099.4827    2465.6509    1569.3643    3901.6278    186.63085   -191.16164   -6.6217756   -4196.6334 
39374000    59.020142   -4637.2668   -4536.1083   -4637.2668            0    2034.7671    18.044597    23.178901    21.866392    9145.7043     1367.157     2247.874    2489.2702   -215.50804   -257.80157    169.27041   -4264.7096 
39375000    60.377499   -4634.9212   -4531.4363   -4634.9212            0    2022.3332    17.960478    23.180523    21.923149    9127.3366    1569.7146    2723.9387    1773.3462   -18.002336   -175.56716    212.48755   -4262.2377 
39376000    58.986811   -4640.2359   -4539.1345   -4640.2359            0    2462.0168    17.924298    23.160252    21.956595     9114.869    2538.2705    2708.1444    2139.6354   -72.285169    31.069495    457.78772   -4211.8562 
39377000    58.453053   -4637.8123   -4537.6257   -4637.8123            0    2167.2343    17.840783    23.311812    21.949647    9128.8795    2608.8745    1796.6205    2096.2079    145.50597    31.705909    630.68587   -4249.0903 
39378000    59.502241   -4643.6148     -4541.63   -4643.6148            0    2026.6104    17.983198    23.303767    21.818057    9143.4298    1730.7273    2600.9008    1748.2031   -246.04011   -22.899364    403.55726   -4271.3865 
39379000    58.738516    -4634.518   -4533.8422    -4634.518            0    2452.6694    17.929016    23.328372    21.786575    9112.3384    2954.1849    1836.5307    2567.2925    469.59372   -350.18422   -174.16511   -4207.8969 
39380000    56.116352   -4642.5206   -4546.3391   -4642.5206            0    2118.5869    17.911125    23.342413    21.856125    9137.8027    2053.8937    2116.2438     2185.623    93.910619   -417.47387   -527.14991   -4264.0046 
39381000    56.723706   -4644.0267   -4546.8042   -4644.0267            0    2131.4299    17.887258    23.331359    21.842651     9115.682    2348.1837    2360.4332    1685.6729    299.64564   -204.53913   -251.64293   -4263.4458 
39382000    56.664876   -4629.1425   -4532.0208   -4629.1425            0    2028.6312    17.804464    23.293485    22.036581    9139.1877    2432.1994    2381.4967    1272.1975    111.10205    322.53566   -180.88926   -4261.6333 
39383000    57.272569   -4639.2929   -4541.1297   -4639.2929            0    2537.4722    17.982604    23.106109    21.917543    9106.9145    2940.4655    2715.3546    1956.5966    30.662766    277.14607    184.84479   -4204.1153 
39384000     57.75078   -4644.8318    -4545.849   -4644.8318            0    2369.8726    17.981003    23.184651    21.864456    9114.9262    2589.8528     1515.434    3004.3311    -116.1205   -158.01164   -122.74305   -4230.8174 
39385000    52.037066   -4637.4108    -4548.221   -4637.4108            0    2357.9105    17.876023    23.319335    21.875869    9119.1085    2541.6109    2679.9461    1852.1744   -85.499578   -22.802222   -44.795781   -4234.6358 
39386000    56.137056   -4635.9776   -4539.7607   -4635.9776            0     1764.187    17.857474    23.322027    21.961994    9146.5666    1747.1781    1910.0624    1635.3205   -180.16565    45.426196   -13.673925   -4304.4299 
39387000    54.217914   -4638.4845   -4545.5568   -4638.4845            0     1848.782    17.976422    23.184414    21.931356    9140.3927    1120.0298     1751.603    2674.7134   -368.85112   -264.50704    203.61018   -4299.1082 
39388000    58.137693   -4639.3183   -4539.6723   -4639.3183            0    1648.6363    18.052434    23.225009     21.82434    9150.2461    1272.2052    1938.6259    1735.0778   -167.39491    45.053088    90.515334   -4319.6668 
39389000    55.672849   -4647.5341   -4552.1127   -4647.5341            0    1220.1325    17.919876    23.302226    21.954137     9167.455    1381.7969    1670.2392    608.36133   -45.818553    168.23506     426.2892   -4388.9835 
39390000    56.129321   -4635.4708    -4539.267   -4635.4708            0    2260.5004    17.804293     23.37174    21.895162    9110.9559    2950.1488    2320.6176    1510.7348    310.23975   -231.27187    333.68278   -4238.9054 
39391000    57.866318   -4646.1926   -4547.0117   -4646.1926            0    2117.3468    17.943764    23.276766    21.853584    9127.6476    2129.1787    2309.4184    1913.4433   -155.93098    -371.1087    505.31555    -4265.156 
39392000    58.102537   -4642.7121   -4543.1263   -4642.7121            0    2518.1167    17.866596    23.223006    21.957354    9110.4588    2567.4941     2128.324    2858.5321    381.25395    -192.2227    131.45337   -4208.5525 
39393000    52.899686   -4634.6721   -4544.0038   -4634.6721            0    2101.0618     17.78139    23.465662    21.867252    9124.1567    2364.2306    1998.6741    1940.2807   -237.32162    58.809584   -61.073026    -4264.423 
39394000    58.017821    -4639.778   -4540.3375    -4639.778            0    2651.8281    17.880841    23.351089    21.788694    9097.5887    2392.0771    2934.1407    2629.2666   -451.96694   -204.47877    319.56127   -4188.4956 
39395000    58.748194   -4635.2526   -4534.5603   -4635.2526            0    2368.3513    17.922844    23.356702    21.771032    9113.7572    1937.5585    1809.5022    3357.9934    245.98139   -163.71308   -162.71297   -4219.7713 
39396000    56.343442   -4640.1998   -4543.6291   -4640.1998            0    1888.9601     17.84254    23.286785    21.996926    9139.6213    1813.1064    2143.2522    1710.5218    128.97905    229.13225   -219.75675   -4291.8458 
39397000    55.141126   -4643.4545   -4548.9445   -4643.4545            0    1744.8705     18.02235    23.234198     21.82175    9137.5273    1018.3135    1914.9181      2301.38   -144.88214    290.20585    286.92275   -4316.4205 
39398000    53.401901   -4639.7507   -4548.2217   -4639.7507            0    1983.2733    17.917551    23.254611    21.927805     9136.564    2060.5571     1811.039    2078.2238   -617.88015   -100.19384    331.26376   -4283.9557 
39399000    59.655449   -4635.4884    -4533.241   -4635.4884            0    2006.3842    17.963228     23.19533    21.947029    9144.5151    1661.4812    2005.4709    2352.2006    -11.13404    241.16653    153.33919   -4265.6629 
39400000    57.178863   -4640.1369   -4542.1343   -4640.1369            0    2276.3082    17.928501    23.224207    21.892992    9115.6994    2359.6642    2200.2165    2269.0441   -566.38872   -255.18161    86.762262   -4239.5147 
39401000     57.59193   -4634.0174   -4535.3068   -4634.0174            0    2208.9438    17.976418    23.286065    21.803285    9126.8563    2302.7913     2228.126    2095.9142   -96.692043    14.785761   -94.060679   -4241.2835 
39402000    57.203002   -4646.0304   -4547.9864   -4646.0304            0    2249.4946    17.851709    23.394744     21.86148    9130.1447    2571.1116     1706.607    2470.7651    281.13908    310.89845   -21.130111   -4248.4577 
39403000    57.481338    -4635.591     -4537.07    -4635.591            0    2834.5999    17.894578     23.35947    21.769944    9100.0082    2604.0555    2474.9708    3424.7733   -14.247853    243.03831    474.69476   -4160.8781 
39404000    55.444372   -4640.9822   -4545.9525   -4640.9822            0    2224.0154    17.851599    23.419122    21.817756    9121.3224    3044.0309    1729.6529    1898.3624      505.296    47.276004    193.11134   -4250.1026 
39405000    57.407479   -4639.4719   -4541.0775   -4639.4719            0    1420.4111    17.881101    23.392834    21.877558    9151.1554    1265.8886    1696.6775    1298.6672   -184.93985    -201.9493    441.16691   -4351.5091 
39406000    54.271737   -4643.8422   -4550.8223   -4643.8422            0    2097.5596    17.929591    23.310873     21.83441    9125.7881    2104.9655    2053.0816    2134.6316    -105.4513    454.27833   -512.91196   -4271.6575 
39407000    57.041372   -4642.0753   -4544.3084   -4642.0753            0    2448.9028    17.893294    23.206577    21.953268    9115.9208    2213.2164    3106.6028    2026.8892   -6.5830253    173.76104   -186.86399   -4218.7357 
39408000    58.516721   -4643.6425   -4543.3468   -4643.6425            0    2814.6092    17.867597    23.290009    21.857065    9095.5226    3157.5451    2973.2128    2313.0696   -14.184408    127.20718     55.69018   -4169.9921 
39409000     57.69614   -4639.9431   -4541.0539   -4639.9431            0    2073.6301    17.867102    23.264034    21.954804    9125.7531    2117.3304    2326.3949    1777.1649   -110.49541   -209.83926    34.150541    -4265.075 
39410000    60.152727   -4636.8208   -4533.7211   -4636.8208            0    1941.9209    17.931898    23.185975    21.990359    9142.8992    1723.7861    2667.2438    1434.7327    32.601172   -524.50935    168.79323   -4274.7858 
39411000    54.563775   -4642.3528   -4548.8324   -4642.3528            0    1385.0182    18.013262    23.217825    21.903581    9160.7078    908.19519     2152.283    1094.5763   -50.707916   -331.07178    67.192581   -4363.7946 
39412000    55.934603   -4638.2774   -4542.4074   -4638.2774            0    2344.8894    17.906032    23.169934    21.973457    9116.3824    2245.7671    3151.6155    1637.2855     79.59602    -541.4907    202.07671   -4230.6471 
39413000    55.951906   -4635.6419   -4539.7422   -4635.6419            0    2159.9351    17.908986    23.376688    21.839171    9143.0297    1627.7929     2088.818    2763.1944    383.91235     303.6902     193.5736   -4251.7328 
39414000    55.346498   -4636.4733   -4541.6113   -4636.4733            0    2304.5858    17.833752    23.264078    21.975459    9117.3061    2709.1541    2431.6741    1772.9294    13.059901   -122.84033    346.83509   -4235.1784 
39415000    55.176042   -4634.3825   -4539.8127   -4634.3825            0    1866.8878    17.963295    23.269256    21.854302    9134.9346    2024.3464     745.0141    2831.3031   -391.95119    127.78569    118.18309    -4291.099 
39416000    57.533645   -4635.2587    -4536.648   -4635.2587            0    2160.4623    17.901646    23.201705    21.992852    9134.7027    2081.1208    2396.8079    2003.4583   -361.69449    262.78988   -226.07583   -4248.8306 
39417000     56.30579   -4641.4781   -4544.9719   -4641.4781            0    2504.8008    17.872683    23.164939    22.009354     9112.304    2365.4053    3183.1761    1965.8211    354.74143   -171.33512    -146.2098   -4212.0999 
39418000    59.664789   -4631.4086   -4529.1452   -4631.4086            0    2902.0242    17.855738    23.368698    21.813261     9101.918    3021.6108    2711.3421    2973.1197   -92.115423   -174.60915   -323.25303   -4143.9243 
39419000    59.891738   -4635.3497   -4532.6973   -4635.3497            0     2151.212    17.897991    23.322037    21.878036    9132.2778    2131.3748    1642.2874    2679.9739   -18.185273   -61.918509   -241.57765   -4246.1883 
39420000    57.978343   -4637.3771   -4538.0042   -4637.3771            0    2353.1875    17.750198    23.481773    21.871446    9116.1527    2754.1195     2053.769    2251.6742   -114.89932     224.0495    167.02438   -4225.1486 
39421000    57.133497   -4639.6663   -4541.7414   -4639.6663            0    2152.2834    17.871047    23.228713    21.987971    9127.6779    2134.8515    3005.7201    1316.2787   -679.07218    427.40528   -35.044414   -4255.2341 
39422000    58.191476   -4642.4789   -4542.7407   -4642.4789            0    1972.1213    18.000862    23.126642    21.948436     9137.123    2127.5755    2596.6263    1192.1621    620.30279   -29.676062   -200.93365   -4279.9446 
39423000    56.653557   -4641.8058   -4544.7036   -4641.8058            0     1969.683    17.896209    23.245365    21.989606    9147.7623    1917.4132    2487.8731    1503.7628    10.376947    44.291593   -79.909678   -4281.9267 
39424000    57.548176    -4644.191   -4545.5554    -4644.191            0    1827.3681    17.951948    23.223221    21.940585    9147.0753    1315.0898    1789.4176     2377.597    78.778411   -98.280038   -340.30576   -4301.7832 
39425000    59.802292   -4640.8775   -4538.3784   -4640.8775            0    2054.2009    17.858077    23.314005    21.942872     9135.768    2345.2968    2065.2588     1752.047   -284.20413    291.73556   -320.23388   -4264.6853 
39426000    59.982023   -4645.5534   -4542.7463   -4645.5534            0    1707.4035    17.884207     23.45439    21.779625    9135.7502     1901.367    1623.0373    1597.8061    252.09697   -32.233054    12.495462   -4315.2595 
39427000    60.240414   -4640.0435   -4536.7935   -4640.0435            0       1700.2    17.895642    23.407245     21.86036    9157.0353    2052.5416     1659.486    1388.5724    -133.6575   -445.55839    454.24898   -4309.7387 
39428000    58.591625   -4636.4539   -4536.0298   -4636.4539            0    1722.4561    17.788317    23.448985    21.932934    9148.6209    2330.6933    1269.1617    1567.5132    -266.7182   -27.922278    121.72414   -4306.2141 
39429000    56.442965   -4638.6337   -4541.8924   -4638.6337            0    2143.2527    17.850339     23.41766    21.858817    9137.2733     2303.421    1852.1961     2274.141   -116.07233   -29.230692   -81.856572   -4256.2874 
39430000    56.758808   -4640.3735   -4543.0908   -4640.3735            0    2513.8117    17.924685    23.268556    21.867313    9120.4526    2246.5418    2849.3237    2445.5698    88.273032    180.88465   -166.41676   -4208.7226 
39431000     58.94783   -4639.6855   -4538.6509   -4639.6855            0    2043.9544    17.874586    23.358296    21.872117    9132.0437    1927.2292    2123.4825    2081.1515   -298.91147    55.825406    284.58537    -4266.434 
39432000    58.740145   -4634.2921   -4533.6135   -4634.2921            0    1738.8746    17.922068    23.352522     21.87954    9157.1453    1424.8669    1361.6847    2430.0722   -489.44761   -256.53163   -65.910484    -4301.391 
39433000    56.034163   -4640.4795   -4544.4388   -4640.4795            0    1838.5696    18.023039     23.09114    21.984662    9149.4123    1750.1531    1335.7476    2429.8079    494.53229   -330.07876   -141.41505   -4299.1097 
39434000    59.781187    -4647.181   -4544.7181    -4647.181            0    1921.9362    17.921248    23.334784     21.84016    9133.3028    1844.1365      1958.72    1962.9522   -222.20066    133.35678    -278.9798   -4288.7165 
39435000    59.349179   -4638.9107   -4537.1882   -4638.9107            0    1472.9663    17.897545    23.277169    21.990398    9161.2919    1142.9995    1592.5294      1683.37   -360.41695    196.04829   -529.73116   -4340.3881 
39436000    60.937763   -4641.3369   -4536.8916   -4641.3369            0    2421.6863    17.975098    23.202127     21.82336    9101.6619     2086.012    2468.5819     2710.465    331.69685   -79.249418    189.79445   -4215.4409 
39437000    55.597778   -4637.7479   -4542.4553   -4637.7479            0    2167.1818    17.878385    23.380246    21.829246    9124.6477    2225.2563    1940.7806    2335.5087    982.78894    148.32544    202.85517   -4254.0605 
39438000    62.101858   -4640.2045    -4533.764   -4640.2045            0    2304.9258    17.892298     23.32948    21.860675    9125.0393    1964.5229    2147.3834    2802.8711    205.59929   -336.95115    41.191229    -4227.026 
39439000    56.373193   -4642.5639   -4545.9422   -4642.5639            0    2307.5494    18.005137    23.138378    21.868577    9110.6608    1965.7999    2508.6415    2448.2069    443.74718   -99.020121    120.07547   -4239.3389 
39440000     59.74927   -4634.4354   -4532.0272   -4634.4354            0    2126.6718    17.887045    23.330173    21.848715    9117.6399    1912.6867    2723.5848     1743.744   -353.90241    150.77774    236.58282   -4249.2406 
39441000    57.918042    -4639.337   -4540.0674    -4639.337            0    2344.8063    17.883733    23.369879     21.83919    9127.4862    2180.4782    2836.1864    2017.7542    315.22039   -86.112999   -228.42431   -4227.9385 
39442000    55.754592   -4632.6814     -4537.12   -4632.6814            0     2529.157    17.876838    23.222493    21.948241    9111.6967    2620.6007       2374.4    2592.4701    275.89024   -422.42618    633.33303   -4201.0336 
39443000    57.387014   -4634.6842   -4536.3248   -4634.6842            0    2876.8952    17.829066    23.182928    21.980055     9085.015     2881.373    3075.8162    2673.4963    131.77578   -211.99301   -31.809632   -4155.1488 
39444000    61.292289   -4637.8719    -4532.819   -4637.8719            0    2204.7527    17.990275    23.109685    21.941367    9122.1144    1912.4228     2541.352    2160.4833   -301.81152   -181.58686    420.79494    -4239.506 
39445000    55.723587   -4636.4847   -4540.9764   -4636.4847            0    2211.3442    17.962411    23.218095    21.863683    9118.3137    2320.1612      2130.79    2183.0815    35.828746   -93.593171    262.02469   -4246.9091 
39446000    57.108621   -4638.0169   -4540.1347   -4638.0169            0    2024.4767    17.778152    23.463156    21.882623    9127.9324    2599.5031    1293.1422    2180.7849   -247.70977    79.556634   -55.573935   -4270.6333 
39447000    56.345221   -4634.5541   -4537.9803   -4634.5541            0    1935.3003    17.918983    23.242923    21.933452     9135.053    2221.8624    1942.2851    1641.7535   -158.75284   -335.75731   -209.89857   -4280.1492 
39448000    59.066084    -4641.216   -4539.9787    -4641.216            0    1690.0049    18.016461    23.307554    21.772759    9142.8086    1872.0878    1425.7186    1772.2084    -19.44133    -319.1357   -199.30701    -4314.636 
39449000    58.814675   -4637.7496   -4536.9433   -4637.7496            0    1379.0428    17.970042    23.318179    21.854119    9157.5019     1508.477    1927.9122    700.73908   -242.03929   -37.138926    156.17225   -4352.7683 
39450000    57.811459   -4639.5126   -4540.4257   -4639.5126            0    2082.9255    17.892643    23.405706    21.759363    9112.6022    2316.6655    2033.0652    1899.0457   -10.658036    77.779067   -139.73732   -4263.6092 
39451000    57.086253   -4635.6698   -4537.8259   -4635.6698            0    1918.3503    17.847804    23.300677    21.963654    9133.9349    1665.3862    2465.2747      1624.39   -7.5583169    41.746035    168.23691   -4282.2842 
39452000    57.317867   -4636.9044   -4538.6635   -4636.9044            0    1247.6646    17.909339    23.386155     21.89607    9170.7435    1161.3818    1548.3147    1033.2972     -243.862    209.20853   -277.40356   -4371.7935 
39453000    54.322127   -4639.2049   -4546.0986   -4639.2049            0    1880.8677    17.916281    23.342603    21.866288    9144.7581    2489.9372    1682.7623    1469.9037    54.074245    42.305661      396.967   -4295.2531 
39454000     54.81466   -4636.5571   -4542.6066   -4636.5571            0    2023.4219    17.808514    23.398476    21.874076    9114.7547    2823.8465    1692.3158    1554.1034   -98.929005    109.36668   -18.101896   -4273.6345 
39455000    56.100316   -4642.3099   -4546.1559   -4642.3099            0    2319.2076    17.927826    23.288751    21.851074    9123.1882    2142.3522    2590.8236    2224.4469   -338.89868   -310.29067    14.459564   -4237.5799 
39456000    58.051545   -4644.7136   -4545.2152   -4644.7136            0     1967.036    17.896684    23.295624    21.902179     9131.334    2347.0899    2056.3267    1497.6915   -320.22063    276.10937    140.44935   -4283.2628 
39457000    57.359818   -4642.1134   -4543.8007   -4642.1134            0    1761.7732    17.824233    23.424255    21.884174     9137.067    2324.1919    1276.5968    1684.5309    46.934748    25.210322    248.10676    -4309.036 
39458000    61.956149   -4643.2803   -4537.0896   -4643.2803            0     2303.996    17.912072    23.284321    21.875121    9123.4662    2704.4802    3097.6796    1109.8283   -78.851697   -534.98751    89.449957   -4230.5282 
39459000    54.484716   -4634.2444   -4540.8594   -4634.2444            0    2565.5885    17.977239    23.222918    21.821711     9110.214    1750.7012    3494.3687    2451.6957   -203.48992   -15.995223     6.036178   -4199.9873 
39460000     59.91031   -4636.2501   -4533.5658   -4636.2501            0    2529.3019    17.931523    23.336797    21.812538    9127.7687    2297.8726    3306.5943    1983.4387   -77.164267     36.38354   -305.89318   -4196.8673 
39461000    59.377369     -4643.87   -4542.0992     -4643.87            0     1922.563     17.90269    23.250215    21.921675    9124.7084    1552.7946    2018.3669    2196.5274   -291.72998    68.905339    310.15861   -4286.2551 
39462000    61.640893   -4645.4349   -4539.7845   -4645.4349            0    2201.9924    17.938252    23.238777     21.91208    9134.3361    1683.8422    1888.9947    3033.1404   -145.80177   -88.191467    256.93756   -4246.4463 
39463000    60.484804   -4641.5232   -4537.8543   -4641.5232            0    1787.1488    18.059988    23.172044    21.878649    9155.9269    1464.8741    1759.6133     2136.959    44.389665    -423.3428    45.726226   -4299.2167 
39464000    56.917303    -4639.116   -4541.5617    -4639.116            0    2726.5016    17.765762    23.302016    21.973499    9096.5467    2856.7692    2894.8705    2427.8651    759.74804    327.74207   -215.83908   -4179.8536 
39465000    54.021684   -4644.9425   -4552.3511   -4644.9425            0    2223.5412    17.878667    23.239369    21.955923    9122.4431    2525.3344    1637.4786    2507.8106   -142.97983   -105.32698   -5.4514521   -4256.5279 
39466000    56.222727   -4639.8675   -4543.5037   -4639.8675            0    1998.3094     17.92893    23.303663    21.840498    9125.1727     1691.983     2157.535    2145.4101   -130.54176   -184.42572   -94.751789   -4277.5661 
39467000    56.897917   -4644.3272   -4546.8061   -4644.3272            0    2886.3977    17.905729    23.315357    21.791366     9097.426    2359.0831    2428.8604    3871.2495    412.15919   -115.11591   -47.958814   -4163.8486 
39468000    57.186988    -4637.312   -4539.2955    -4637.312            0    2100.0258    17.902126    23.244549    21.901285    9113.7127    1979.8676    1794.0777    2526.1322    107.61984    221.09395   -196.78195   -4260.1723 
39469000    60.655727   -4641.7014   -4537.7395   -4641.7014            0      2860.71    17.849301    23.402051    21.768919    9093.1011    2626.1242     2755.702    3200.3038    14.858014    291.02093    67.653374   -4158.3706 
39470000    56.953535    -4642.587   -4544.9706    -4642.587            0    2881.3117    17.866148    23.324574    21.834948    9099.0658    3083.0407    1809.7399    3751.1546    387.49645    179.11285   -310.45025    -4162.619 
39471000    56.017973   -4634.4374   -4538.4245   -4634.4374            0    3024.7656    17.950635    23.139805    21.887507    9091.5055     2371.803    2960.6445    3741.8492   -545.32465   -59.514417    -412.9039     -4137.37 
39472000    54.986133   -4638.7008   -4544.4564   -4638.7008            0    2525.0646      17.7875    23.387464    21.894106    9108.0469    2814.9604    2418.0652    2342.1682     89.32726   -50.580789   -244.43072   -4209.0483 
39473000    56.016685   -4640.2616   -4544.2509   -4640.2616            0    2612.5924    17.811676    23.391911    21.852541    9104.8424    2705.8847    2394.0033    2737.8892    372.86338   -6.5936729    92.627091   -4197.3384 
39474000    57.974109    -4639.059   -4539.6934    -4639.059            0    2217.9135     17.97335    23.201502    21.881141    9124.6263    1373.7227     2985.632    2294.3859   -336.75099   -551.69003    224.91738   -4244.5483 
39475000    56.123264   -4639.7361   -4543.5428   -4639.7361            0    2200.9781    17.874944    23.188419    22.007452     9121.906    2486.0053    2245.8704    1871.0585    51.562738   -175.05494    383.74033   -4250.7387 
39476000    58.977425   -4641.3165   -4540.2313   -4641.3165            0    2256.2388    17.938459    23.147652    21.937336      9109.11    2719.6725     1863.515    2185.5288   -427.98067    356.19076    325.88698   -4240.4966 
39477000    60.685962   -4630.1366   -4526.1229   -4630.1366            0    2246.1461    17.829739    23.235512     22.04171    9131.5082    2292.8237    2245.2852    2200.3295   -118.80835    179.29763    171.48843   -4226.9954 
39478000    62.770402   -4641.6501   -4534.0638   -4641.6501            0    2141.9885     17.88141    23.304037    21.914469    9131.9576    2177.1048    2020.2064    2228.6542   -642.36941   -47.178129   -111.57891   -4248.7933 
39479000    59.102257   -4640.5227   -4539.2234   -4640.5227            0    1540.8187    17.996024     23.22337    21.878877    9143.8026    1441.5174    1560.8317    1620.1069   -490.25358    -285.7002    90.024102   -4333.7507 
39480000    61.413848   -4640.2683   -4535.0071   -4640.2683            0    1671.9238    17.965614    23.273757     21.91524    9163.3607    1608.7489    1696.5602    1710.4624   -291.30286   -215.67715    309.79168   -4311.5741 
39481000    58.729287   -4638.3085   -4537.6485   -4638.3085            0    2037.7594    17.823102    23.369966    21.954733    9144.7012    2791.7673     1067.897     2253.614   -373.20883    206.89107    381.04746   -4265.8805 
39482000    58.350735   -4639.4566   -4539.4455   -4639.4566            0    1990.2301    17.929892    23.432856    21.757765    9141.4942    1748.8761    1293.7321     2928.082   -521.43508    132.53867    430.37803   -4274.1093 
39483000    58.524041   -4644.7731   -4544.4649   -4644.7731            0    1832.5701    17.884339     23.34394    21.905004    9145.1403     1775.677      2302.95    1419.0834   -150.89525    409.91843    13.231212   -4300.0504 
39484000    59.282201   -4636.1878   -4534.5801   -4636.1878            0    1814.4027    17.948241    23.278599    21.850715    9129.4451    1852.4146    2004.1568    1586.6367    510.30234   -157.28361    -156.6339    -4293.004 
39485000      58.5093   -4644.7629     -4544.48   -4644.7629            0    1743.7287    17.931095    23.260971     21.91081    9138.8824    2103.2327    1874.3465     1253.607    428.61588   -588.17129   -229.88585   -4312.0737 
39486000    56.369389   -4638.3649   -4541.7497   -4638.3649            0    2078.9544    17.844824    23.334189    21.932772    9132.6855    2395.8258    1458.0154    2383.0221    68.411938   -295.34923   -224.81177    -4264.852 
39487000    57.612949   -4639.0115   -4540.2649   -4639.0115            0    1682.5488    17.926074     23.29505     21.90192    9145.9965    1514.9514    1582.6723    1950.0227   -411.54177   -64.250324    143.01044   -4315.8381 
39488000    56.942361   -4634.5613    -4536.964   -4634.5613            0     1784.264    17.946224    23.306253    21.870983    9147.7409    1325.9062    2397.4973    1629.3883   0.55698718   -18.483224    222.21022   -4298.9246 
39489000    54.920778   -4632.2673    -4538.135   -4632.2673            0     2015.031     18.03916    23.219573    21.833068    9145.0339    1674.9066    2497.1232    1873.0632    498.62166   -20.823345    290.14653   -4269.3884 
39490000    60.337599   -4642.3063   -4538.8897   -4642.3063            0    2534.2289    17.867163    23.339445    21.854438    9113.5119    3318.4532     2302.611    1981.6225   -163.12273    148.16344    167.76266   -4202.0623 
39491000    56.179521   -4640.7735   -4544.4837   -4640.7735            0     2243.027    17.793511    23.341681    21.953751    9118.0613    2797.5334    2543.5462    1388.0014   -565.76766     114.4148   -260.35935   -4246.2114 
39492000    57.078973   -4638.1392   -4540.3078   -4638.1392            0    2264.1094    17.905676    23.276106    21.886502    9121.7341    2247.3153    3049.1171    1495.8958   -98.625837    153.42947    429.82477   -4239.1108 
39493000    58.225539   -4634.8548   -4535.0583   -4634.8548            0    1987.8301    17.982478    23.244202    21.855397    9135.3016    1407.8964    1492.1485    3063.4455   -209.56044    -198.0069   -79.512592   -4270.2216 
39494000     57.91965   -4636.3183    -4537.046   -4636.3183            0    1929.0191    18.034486     23.26034    21.803098    9146.1438    1220.2633    1554.3177    3012.4764    445.80829   -253.06994   -35.745523   -4279.7397 
39495000    58.896137   -4635.1469    -4534.201   -4635.1469            0    1929.0952    17.859006    23.442702     21.84772    9146.8396    2435.5156     2039.844    1311.9259    294.03814    -455.7397    42.285674   -4276.8649 
39496000     53.82923   -4633.5032   -4541.2417   -4633.5032            0     2349.369    17.824208    23.370613    21.902363    9123.7071    2836.1636    2445.5066    1766.4369    393.68687   -119.20796   -138.33735   -4228.6349 
39497000    55.334142   -4638.8458    -4544.005   -4638.8458            0    1757.0384    18.005841    23.258352    21.863597    9156.1722    1689.4039    2601.1325    980.57873    74.043365   -107.92811   -89.877627   -4309.3817 
39498000    59.196281   -4634.9499   -4533.4895   -4634.9499            0    2010.7267    18.021788    23.119014    21.925667    9135.2412    1329.6645    2486.6159    2215.8996     -2.04119    289.50445    359.49989   -4265.6042 
39499000    56.206104   -4643.6366   -4547.3012   -4643.6366            0    1690.3752     17.99606    23.208556    21.905627    9149.1601    1339.2134    1861.6656    1870.2466   0.77914996    262.08886    246.53183   -4321.7526 
39500000    60.776495   -4637.5052   -4533.3364   -4637.5052            0    1590.4002    17.904224     23.32457    21.915988    9152.2992    1752.9987    1090.3569    1927.8449   -370.58621     200.5856    202.12552   -4321.0547 
Loop time of 347.702 on 64 procs for 250000 steps with 864 atoms

Performance: 124.244 ns/day, 0.193 hours/ns, 719.007 timesteps/s
193.8% CPU use with 32 MPI tasks x 2 OpenMP threads

MPI task timing breakdown:
Section |  min time  |  avg time  |  max time  |%varavg| %total
---------------------------------------------------------------
Pair    | 16.88      | 24.669     | 34.022     | 111.0 |  7.09
Bond    | 0.95774    | 1.1659     | 1.3732     |   8.4 |  0.34
Kspace  | 171.99     | 182.66     | 193.12     |  42.9 | 52.53
Neigh   | 0.084927   | 0.088805   | 0.096414   |   1.0 |  0.03
Comm    | 51.105     | 55.056     | 57.817     |  21.5 | 15.83
Output  | 0.56835    | 0.57187    | 0.57365    |   0.1 |  0.16
Modify  | 64.689     | 66.031     | 69.188     |  13.8 | 18.99
Other   |            | 17.46      |            |       |  5.02

Nlocal:        27.0000 ave          38 max          17 min
Histogram: 3 7 4 2 0 4 4 0 1 7
Nghost:        2164.34 ave        2278 max        2053 min
Histogram: 8 7 1 0 0 0 0 1 8 7
Neighs:        6638.97 ave        9432 max        4310 min
Histogram: 6 4 3 3 0 5 3 0 5 3

Total # of neighbors = 212447
Ave neighs/atom = 245.88773
Ave special neighs/atom = 2.0000000
Neighbor list builds = 284
Dangerous builds = 0

unfix		3
unfix		2
unfix		1

write_data	data.final.${pid} nocoeff
write_data	data.final.0 nocoeff
System init for write_data ...
PPPM initialization ...
  extracting TIP4P info from pair style
  using 12-bit tables for long-range coulomb (../kspace.cpp:340)
  G vector (1/distance) = 0.37205432
  grid = 24 27 25
  stencil order = 5
  estimated absolute RMS force accuracy = 0.0031199623
  estimated relative force accuracy = 9.3956738e-06
  using double precision FFTW3
  3d grid and FFT values/proc = 4410 672
Last active /omp style is kspace_style pppm/tip4p/omp

write_restart   restart.lmp.${pid}
write_restart   restart.lmp.0
System init for write_restart ...
PPPM initialization ...
  extracting TIP4P info from pair style
  using 12-bit tables for long-range coulomb (../kspace.cpp:340)
  G vector (1/distance) = 0.37205432
  grid = 24 27 25
  stencil order = 5
  estimated absolute RMS force accuracy = 0.0031199623
  estimated relative force accuracy = 9.3956738e-06
  using double precision FFTW3
  3d grid and FFT values/proc = 4410 672
Last active /omp style is kspace_style pppm/tip4p/omp
Total wall time: 0:05:47
