LAMMPS (30 Jul 2021)
  using 1 OpenMP thread(s) per MPI task
package omp 0
using multi-threaded neighbor list subroutines
echo both

include		in.partitions
variable        pid world 0
include		in.temp
variable        temperature equal 265.49
variable	tempDamp equal 100.0
include		in.pressure
variable        pressure equal 9375.0
variable        pressureDamp equal 1000.0 # This is 1 ps
include		in.seed
variable        seed world 745823

units		real
atom_style	full
read_restart	restart.lmp.${pid}
read_restart	restart.lmp.0
Reading restart file ...
  restart file = 30 Jul 2021, LAMMPS = 30 Jul 2021
  restoring atom style full from restart
  orthogonal box = (0.67010876 1.8808309 0.81753112) to (17.537464 21.748347 21.395665)
  4 by 4 by 4 MPI processor grid
  restoring pair style lj/cut/tip4p/long/omp from restart
  restoring bond style harmonic/omp from restart
  restoring angle style harmonic/omp from restart
  864 atoms
  576 bonds
  288 angles
Finding 1-2 1-3 1-4 neighbors ...
  special bond factors lj:    0        0        0       
  special bond factors coul:  0        0        0       
     2 = max # of 1-2 neighbors
     1 = max # of 1-3 neighbors
     1 = max # of 1-4 neighbors
     2 = max # of special neighbors
  special bonds CPU = 1.866 seconds
  read_restart CPU = 2.231 seconds
include 	in.setup
variable	out_freq equal 1000
variable	out_freq2 equal 10000
variable	out_freq3 equal 1000

timestep	2.0

neigh_modify    delay 7 every 1

include		in.tip4p
# This is TIP4P/Ice

# create groups ###
group ox type 2
288 atoms in group ox
group hy type 1
576 atoms in group hy

# set charges - beside manually ###
set group ox charge -1.1794
Setting atom values ...
  288 settings made for charge
set group hy charge 0.5897
Setting atom values ...
  576 settings made for charge

# ### TIP3P Potential Parameters ###
pair_style lj/cut/tip4p/long/omp 2 1 1 1 0.1577 8.5
pair_coeff 1 1*2 0.000 0.000
pair_coeff 2 2 0.21084 3.1668
bond_style  harmonic
bond_coeff  1 450 0.9572
angle_style harmonic
angle_coeff 1 55 104.52
kspace_style pppm/tip4p/omp 1.0e-5
pair_modify tail yes

thermo          ${out_freq}
thermo          1000
thermo_style    custom step temp pe etotal epair emol press lx ly lz vol pxx pyy pzz pxy pxz pyz enthalpy

restart 	${out_freq3} restart.lmp.${pid} restart2.lmp.${pid}
restart 	1000 restart.lmp.${pid} restart2.lmp.${pid}
restart 	1000 restart.lmp.0 restart2.lmp.${pid}
restart 	1000 restart.lmp.0 restart2.lmp.0


include         in.dump
dump            myDump all atom ${out_freq2} dump.water.${pid}
dump            myDump all atom 10000 dump.water.${pid}
dump            myDump all atom 10000 dump.water.0
dump            myDump2 all dcd ${out_freq2} dump.dcd
dump            myDump2 all dcd 10000 dump.dcd
dump_modify     myDump append yes
dump_modify     myDump2 append yes


variable natoms 	equal  "count(all)"                        # NUMBER ATOMS
variable H      	equal  "enthalpy/v_natoms"                 # ENTHALPY-per-atom
variable Vol      	equal  "vol/v_natoms"                 # volume-per-atom
fix AVG all 		ave/time ${out_freq} 1 ${out_freq} v_Vol v_H file vol_enthalpy.dat
fix AVG all 		ave/time 1000 1 ${out_freq} v_Vol v_H file vol_enthalpy.dat
fix AVG all 		ave/time 1000 1 1000 v_Vol v_H file vol_enthalpy.dat


timer           timeout 23:50:00 every 1000
New timer settings: style=normal  mode=nosync  timeout=23:50:00

fix 		1 all shake 1e-6 200 0 b 1 a 1
       0 = # of size 2 clusters
       0 = # of size 3 clusters
       0 = # of size 4 clusters
     288 = # of frozen angles
  find clusters CPU = 0.380 seconds
fix             2 all nph iso ${pressure} ${pressure} ${pressureDamp}
fix             2 all nph iso 9375 ${pressure} ${pressureDamp}
fix             2 all nph iso 9375 9375 ${pressureDamp}
fix             2 all nph iso 9375 9375 1000
fix             3 all temp/csvr ${temperature} ${temperature} ${tempDamp} ${seed}
fix             3 all temp/csvr 265.49 ${temperature} ${tempDamp} ${seed}
fix             3 all temp/csvr 265.49 265.49 ${tempDamp} ${seed}
fix             3 all temp/csvr 265.49 265.49 100 ${seed}
fix             3 all temp/csvr 265.49 265.49 100 745823

run             250000
PPPM initialization ...
  extracting TIP4P info from pair style
  using 12-bit tables for long-range coulomb (../kspace.cpp:340)
  G vector (1/distance) = 0.37478552
  grid = 24 24 24
  stencil order = 5
  estimated absolute RMS force accuracy = 0.003101738
  estimated relative force accuracy = 9.3407917e-06
  using double precision FFTW3
  3d grid and FFT values/proc = 2535 216
Last active /omp style is kspace_style pppm/tip4p/omp
Neighbor list info ...
  update every 1 steps, delay 7 steps, check yes
  max neighbors/atom: 2000, page size: 100000
  master list distance cutoff = 10.8154
  ghost atom cutoff = 10.8154
  binsize = 5.4077, bins = 4 4 4
  1 neighbor lists, perpetual/occasional/extra = 1 0 0
  (1) pair lj/cut/tip4p/long/omp, perpetual
      attributes: half, newton on, omp
      pair build: half/bin/newton/omp
      stencil: half/bin/3d
      bin: standard
Per MPI rank memory allocation (min/avg/max) = 9.238 | 9.240 | 9.242 Mbytes
Step Temp PotEng TotEng E_pair E_mol Press Lx Ly Lz Volume Pxx Pyy Pzz Pxy Pxz Pyz Enthalpy 
21750000    268.88372   -3819.0748   -3358.2173   -3819.0748            0    10627.128    16.867355    19.867516    20.578134    6895.9886    10632.622    10691.741    10557.022   -376.24046    1521.1045   -787.76487   -2289.4373 
21751000    282.52375   -3886.5586   -3402.3226   -3886.5586            0     9154.645    16.932094     19.94377    20.657115     6975.697    11142.514    8328.3371    7993.0843    2386.2491    912.32988    -580.0261   -2470.9895 
21752000    266.32553   -3879.4679    -3422.995   -3879.4679            0    5815.8451    16.996034    20.019083    20.735122    7055.0218    6935.1837    4790.6021    5721.7495   -1128.4924    -477.0073    297.45679   -2824.6012 
21753000    269.10896   -3853.1713   -3391.9277   -3853.1713            0    8218.0412    16.932066    19.943737    20.657081    6975.6618    6772.5004    7655.9551    10225.668   -1007.0287   -348.85568    678.01786   -2555.8828 
21754000    247.42378   -3886.5324   -3462.4565   -3886.5324            0    8357.0346    16.930838     19.94229    20.655582    6974.1442     7346.629    9818.6765    7905.7982   -35.456396   -1134.9599    -684.1922   -2612.4563 
21755000    266.17052   -3831.7024   -3375.4953   -3831.7024            0    10418.414    16.842568    19.838321    20.547894    6865.6324    9741.2865    10744.573    10769.381   -92.402316   -3.2606232   -1934.2401   -2332.3182 
21756000    273.14547   -3826.6721   -3358.5101   -3826.6721            0    9624.9955    16.941434    19.954771     20.66851    6987.2466    10788.421    9471.3932    8615.1728   -511.60512   -362.27493    -1454.753   -2377.7055 
21757000    270.76934   -3843.3395   -3379.2501   -3843.3395            0    7910.8731    16.946244    19.960437    20.674378    6993.1998    8651.6604    7934.8957    7146.0633   -192.86872   -119.80279     1683.925   -2572.4308 
21758000    277.49516   -3841.0124   -3365.3952   -3841.0124            0     7680.206    16.968054    19.986126    20.700986    7020.2355    7084.0139    7597.9837    8358.6205   -57.701624   -521.47378   -1379.1325   -2579.0732 
21759000    284.07204   -3833.5254   -3346.6357   -3833.5254            0    12301.186    16.881042    19.883637    20.594831     6912.789     10610.57    15267.844    11025.143   -843.43911    355.97063     995.1599   -2106.4801 
21760000    263.42692   -3825.4995   -3373.9948   -3825.4995            0    9328.7505    16.945719    19.959819    20.673738    6992.5506    10583.413    11347.725    6055.1131    765.95202    -54.70583   -195.73275   -2422.6565 
21761000    269.71427   -3877.7335   -3415.4525   -3877.7335            0    8092.4949    16.953134    19.968552    20.682784    7001.7332    8941.9883    8062.6868    7272.8095   -757.57168    692.33972    927.70557   -2589.1027 
21762000    271.24865   -3817.0471   -3352.1362   -3817.0471            0    10454.741    16.937946    19.950663    20.664254     6982.932    13263.497    9366.9455    8733.7817    82.004192    2210.2374    327.82628   -2287.4368 
21763000     277.1909   -3846.8659   -3371.7701   -3846.8659            0     8060.798    16.966648     19.98447    20.699271    7018.4909    7031.6757    8993.0662    8157.6523    1470.2321     513.0416    1780.1457   -2546.6871 
21764000    264.16418   -3859.0772   -3406.3088   -3859.0772            0    8611.2401    16.895312    19.900446    20.612242    6930.3357    8011.4886    9693.6466    8128.5851   -172.97822   -1367.1887   -1614.4078   -2535.9549 
21765000     271.9807    -3858.782   -3392.6164    -3858.782            0     8886.771    16.889218    19.893268    20.604807    6922.8389    8427.7517    11069.983    7162.5781   -962.83217     1779.243   -997.60528   -2495.3857 
21766000       272.23   -3869.9784   -3403.3855   -3869.9784            0    12586.872    16.832192    19.826099    20.535235    6852.9509    12151.713    13427.267    12181.637   -668.34746   -1117.4107   -268.84835   -2145.4125 
21767000    252.62831    -3815.556   -3382.5597    -3815.556            0    10197.771    16.901448    19.907674    20.619728    6937.8892      9365.86    10626.603    10600.849    973.28097   -53.190055   -432.09721   -2350.7289 
21768000     252.4866    -3849.471   -3416.7176    -3849.471            0     7413.388    16.873761    19.875061    20.585948    6903.8483    5984.2134    9619.3351    6636.6156    330.76107   -1815.0985    210.15397   -2670.2966 
21769000    271.20352   -3845.4488   -3380.6153   -3845.4488            0     10425.06    16.828411    19.821645    20.530622    6848.3339    11885.681    7811.7999      11577.7   -3.2711689     1177.506   -37.245543   -2339.4027 
21770000    266.51251     -3872.81   -3416.0166     -3872.81            0    7895.4269    16.882793      19.8857    20.596968    6914.9412    8516.5208    7263.4712    7906.2888   -477.57976   -94.563454    215.68017    -2619.784 
21771000    269.29186    -3860.782    -3399.225    -3860.782            0    10313.657    16.811922    19.802224    20.510506    6828.2234    10336.033    7911.6143    12693.323    453.00466    284.02477      1067.41   -2372.1639 
21772000    272.28976   -3849.2118   -3382.5164   -3849.2118            0    10242.419    16.844786    19.840933    20.550599    6868.3446      11390.3    9398.0454    9938.9114   -1674.5167   -178.15503    2460.3353   -2356.5563 
21773000    259.51009   -3852.5621   -3407.7707   -3852.5621            0    8792.9157    16.854483    19.852355     20.56243    6880.2133    10267.551    8522.2791    7588.9167      204.304    2120.0128   -560.96716   -2525.4821 
21774000    275.88013   -3814.8561    -3342.007   -3814.8561            0    8852.4192    16.917314    19.926361    20.639084    6957.4457    8002.7786    10605.516    7948.9628    1270.1571   -699.09096   -397.02569   -2443.7767 
21775000    263.65804   -3847.1226   -3395.2218   -3847.1226            0    7796.4922    16.950323    19.965242    20.679355    6998.2514    10375.443    5940.7886    7073.2445    533.69178    424.09857   -1046.9152   -2599.4937 
21776000    271.60447   -3799.3042   -3333.7834   -3799.3042            0    9509.6731    16.960313    19.977008    20.691542    7010.6319    7865.2942    11576.125    9087.6002    1059.8114    187.21068    701.97833   -2361.4871 
21777000    262.71115   -3831.9011   -3381.6232   -3831.9011            0    9427.0154    16.951413    19.966525    20.680684    6999.6007    7760.0089    10386.928     10134.11    1245.6036   -1838.9259     1178.865   -2419.2947 
21778000    261.82668   -3858.5915   -3409.8295   -3858.5915            0      11357.3    16.909568    19.917238    20.629634    6947.8932    11904.841    11934.681    10232.377    -5.011701   -1328.4255    2211.9347   -2259.0182 
21779000    257.09639   -3881.0754   -3440.4209   -3881.0754            0    8049.7929    16.966512    19.984311    20.699106    7018.3226    7143.7365    11474.662    5530.9807    -697.1272   -599.51834    941.73857   -2616.4841 
21780000    271.27562   -3833.1733   -3368.2162   -3833.1733            0    9652.5402    16.891882    19.896406    20.608057    6926.1153    8274.3712    12426.543    8256.7065   -970.08774   -85.558349   -1136.3949   -2393.2103 
21781000    269.20934   -3822.1491   -3360.7335   -3822.1491            0     8458.803    16.953166     19.96859    20.682823    7001.7729    10275.094    8905.9382    6195.3765   -221.78008   -1356.2978   -693.53079    -2496.974 
21782000     269.0491   -3840.4695   -3379.3286   -3840.4695            0    8318.2395    16.988795    20.010556     20.72629    7046.0106    7231.9265     10054.96    7667.8316   -89.439965    932.93075    2350.6072   -2524.5559 
21783000    273.93571   -3865.6129   -3396.0965   -3865.6129            0    8430.5631    16.948077    19.962596    20.676614    6995.4691    7443.3555    9917.3467     7930.987   -1172.3087   -240.73719    1567.9227   -2535.9958 
21784000    269.37119   -3860.8829   -3399.1899   -3860.8829            0    10095.838    16.797756    19.785538    20.493223    6810.9768     11128.25    11086.715    8072.5487    662.88787   -1102.1524   -35.539045   -2396.3591 
21785000    252.10585   -3879.0923   -3446.9915   -3879.0923            0    8238.0354    16.940199    19.953317    20.667003    6985.7189    8578.7042    8781.9248    7353.4772    792.68504    483.53148    343.85433   -2607.7042 
21786000    256.22704   -3869.7345   -3430.5701   -3869.7345            0    9824.8464     16.92712    19.937912    20.651047    6969.5515     10242.84    10168.097     9063.602   -397.59695     -774.492     335.3833   -2431.9357 
21787000    266.75285   -3873.4928   -3416.2876   -3873.4928            0    9884.1091    16.957429    19.973612    20.688024    7007.0565    10013.461    8228.5453    11410.321      145.036    226.39958    730.14394   -2406.2232 
21788000    271.35335   -3861.8257   -3396.7354   -3861.8257            0    8892.3469    16.922667    19.932666    20.645614    6964.0522    8050.9881    9355.2277     9270.825    -297.5775   -1097.1126    37.270872    -2493.597 
21789000    265.83699   -3870.9646   -3415.3291   -3870.9646            0     10638.89     16.95524    19.971033    20.685353    7004.3434    9288.4513    10723.095    11905.124   -470.29746    274.51211    820.36264   -2328.5541 
21790000    266.58504   -3870.6281   -3413.7105   -3870.6281            0    9636.6279    16.920118    19.929664    20.642504    6960.9052    11402.723    9449.0975    8058.0631   -496.53293   -1371.5583   -464.62103   -2435.4225 
21791000    256.40548   -3838.5979   -3399.1277   -3838.5979            0    8048.4879    16.911741    19.919796    20.632284    6950.5714     7638.534    8587.4566     7919.473   -308.84084   -297.19372   -1620.9171    -2583.277 
21792000    261.43692   -3861.7783   -3413.6843   -3861.7783            0    10612.994    16.907233    19.914487    20.626785     6945.015    9743.1095    9957.1541    12138.718    759.40239   -432.50997   -16.746983   -2338.7375 
21793000    259.98994   -3814.8564   -3369.2426   -3814.8564            0    10898.448    16.904342    19.911082    20.623258     6941.453    9870.2141    10706.703    12118.428   -1386.6651   -1778.0761   -615.13028   -2265.9494 
21794000    267.32234   -3861.9574   -3403.7761   -3861.9574            0    8495.1292    16.961929    19.978912    20.693514    7012.6361    7932.2209    9872.4716    7680.6951    68.021072    612.84776     774.3757   -2534.9613 
21795000    267.84607   -3910.2951   -3451.2162   -3910.2951            0    9946.1421     16.93625    19.948665    20.662185    6980.8346    9186.5571    10329.566    10322.303    1834.0293     481.7598   -1050.8577   -2438.6162 
21796000    272.41075   -3857.3992   -3390.4965   -3857.3992            0    11000.285    16.952236    19.967495    20.681688    7000.6206    10549.829    11395.855    11055.171   -1538.1487    1107.9207   -1983.2495   -2267.4018 
21797000    256.34805   -3874.8219   -3435.4501   -3874.8219            0    11343.633    16.954934    19.970673     20.68498     7003.964    12324.268    11177.863    10528.769    1379.2665   -380.51469    592.43571   -2276.7475 
21798000    268.24394   -3856.0665   -3396.3055   -3856.0665            0    9823.3665    16.925841    19.936405    20.649486    6967.9713    9034.5756    10046.863    10388.661      49.6673   -1291.5497   -689.34502    -2398.048 
21799000    277.82631   -3866.2161   -3390.0313   -3866.2161            0    10654.477     16.92304    19.933106     20.64607    6964.5131    11627.258    9810.7355    10525.438    47.458052   -450.00361    1653.0033    -2307.853 
21800000    270.13109   -3878.9733   -3415.9778   -3878.9733            0    10076.797    16.911084    19.919023    20.631483    6949.7621    9521.7264    9692.7975    11015.867   -1281.1379    1671.9389      1970.99   -2394.6426 
21801000    281.29902   -3903.5562   -3421.4193   -3903.5562            0    8226.2899    17.001637    20.025682    20.741957    7062.0013    9056.1998    8395.6428     7227.027   -1216.8308     -589.288    28.266249   -2574.1769 
21802000    264.79224   -3887.0886   -3433.2438   -3887.0886            0    9794.4647    16.938504    19.951321    20.664936    6983.6227    10288.561    10358.069    8736.7637    -1243.638    2428.8154   -1609.0018   -2435.6876 
21803000    263.86039   -3880.5184   -3428.2707   -3880.5184            0    10894.871     16.89038    19.894636    20.606224    6924.2673    11051.386    10708.028      10925.2    83.942432    -57.50057   -10.652124   -2328.0702 
21804000    265.56528   -3841.3777   -3386.2079   -3841.3777            0    8383.8035    16.955679     19.97155    20.685889     7004.887    8187.5074    8337.8916    8626.0117   -219.98294   -752.81165    701.69666   -2529.7262 
21805000    277.15913   -3875.0807   -3400.0395   -3875.0807            0    8556.6732    16.943791    19.957548    20.671385    6990.1637    9015.7624    7612.4227    9041.8345   -524.48548   -382.47201   -299.79612   -2527.7348 
21806000    275.92782   -3848.9687   -3376.0379   -3848.9687            0    9558.6062    16.869571    19.870127    20.580838    6898.7074    11187.118    9955.4557    7533.2452   -253.35448    685.77336    747.26371   -2414.3411 
21807000    272.35514   -3851.9946   -3385.1872   -3851.9946            0    10343.664    16.856237    19.854421     20.56457    6882.3614    8290.2917    10851.643    11889.056    903.21938   -191.18628   -863.68481   -2346.9711 
21808000    263.52549   -3857.2896   -3405.6159   -3857.2896            0    7796.2689    16.947715    19.962169    20.676172    6995.0208    6869.4083    6040.1749    10479.224     818.1664    726.24226   -383.52917    -2610.278 
21809000    270.48898   -3869.2744   -3405.6656   -3869.2744            0    9217.6723    16.900419    19.906462    20.618472    6936.6222    8296.5316    9467.1196    9889.3655    1392.1032    653.08312    393.38144   -2473.1734 
21810000    266.34843   -3883.8759   -3427.3638   -3883.8759            0     9803.045    16.816247    19.807318    20.515782    6833.4945    10731.608    9978.0086    8699.5184    12.277942   -590.19117   -238.40268   -2450.3972 
21811000    262.40792   -3839.8424   -3390.0842   -3839.8424            0    9172.6309    16.882338    19.885164    20.596413    6914.3817    9242.7097    7826.4389    10448.744   -417.83124    1437.4185    399.75449   -2465.1237 
21812000    269.23782   -3837.6513   -3376.1869   -3837.6513            0     9353.627    16.993437    20.016024    20.731953    7051.7883    9418.7305    8372.1402     10270.01    657.05486     742.1419   -221.43057   -2414.2309 
21813000    275.62166   -3809.7706   -3337.3645   -3809.7706            0    9935.3621    16.920202    19.929763    20.642607    6961.0099    8264.9076    11164.315    10376.864   -626.17145   -2351.2636   -473.06888   -2328.7346 
21814000    253.24319   -3828.9716   -3394.9214   -3828.9716            0    6956.2418    16.931434    19.942992     20.65631    6974.8809    7536.2043    5898.7833    7433.7379    1083.8596    2256.5799   -685.05276   -2687.3222 
21815000    255.01376   -3868.0282   -3430.9433   -3868.0282            0    10734.852    16.846932     19.84346    20.553217    6870.9697     11745.05    9565.5753     10893.93    1150.2038    1098.9212    90.570111   -2355.2463 
21816000    282.86213   -3853.2359   -3368.4199   -3853.2359            0    8969.1328     16.90615    19.913211    20.625463    6943.6806    6580.8333    11533.068    8793.4966    1052.5217    722.45795   -1042.6449   -2460.1475 
21817000    263.67425   -3863.4481   -3411.5195   -3863.4481            0    8019.4092     16.91557    19.924308    20.636956    6955.2947    8322.3864    8507.9608    7227.8805    1470.6304    903.70239    367.35732   -2598.0639 
21818000    259.96387   -3832.5635   -3386.9944   -3832.5635            0    8936.7592    16.947667    19.962113    20.676115    6994.9623    9768.2254    7475.7909    9566.2613    854.41098   -501.27078   -906.59819   -2475.3167 
21819000    251.54335   -3861.4863   -3430.3496   -3861.4863            0    8370.8688    16.951466    19.966588    20.680749    6999.6673     8315.292    9951.6743      6845.64   -302.48262   -256.47645   -861.52895   -2575.8265 
21820000    263.92371   -3846.1116   -3393.7554   -3846.1116            0    8147.8389     16.91258    19.920786    20.633309    6951.6069    9082.4661    7614.2346     7746.816    -286.8793   -379.50508    2489.1935   -2567.7107 
21821000    260.55626   -3852.6838   -3406.0993   -3852.6838            0    6953.3122    16.971854    19.990602    20.705622    7024.9532    6976.1339    8038.5917    5845.2112   -1377.6893    173.19149   -939.17898   -2693.7204 
21822000    280.30283   -3814.0597   -3333.6303   -3814.0597            0    10023.399    16.938911      19.9518    20.665432    6984.1259    9876.9046      9784.91    10408.383    895.37476    1139.7925    702.59064   -2312.6838 
21823000    259.97664    -3883.155   -3437.5639    -3883.155            0    8559.2823    16.911499    19.919511    20.631989    6950.2731    7430.9828    8896.1948    9350.6692   -323.55887    413.38674    732.64326   -2569.9728 
21824000    260.25773   -3845.1655   -3399.0926   -3845.1655            0    12484.702    16.823532    19.815898    20.524669    6842.3787     11685.21     12030.27    13738.627   -1456.6594    462.22345    681.08054   -2153.2557 
21825000    262.13946   -3858.4699   -3409.1718   -3858.4699            0    9184.3795    16.952996     19.96839    20.682616    7001.5629    9947.6831    9796.5839    7808.8716    1141.0791    557.52521   -724.53927   -2471.3492 
21826000    259.44078   -3846.8348   -3402.1621   -3846.8348            0    9359.2171    16.910867    19.918768    20.631218    6949.4946    11155.047    8822.5051    8100.0992   -1437.8878   -832.03591    593.30557   -2453.5938 
21827000    270.53849    -3893.048   -3429.3542    -3893.048            0    12216.448    16.831333    19.825088    20.534187    6851.9023    14209.715    11708.302    10731.325    234.71635   -825.00214    348.71275   -2208.5895 
21828000     274.1674   -3825.9024   -3355.9889   -3825.9024            0    9246.2377    16.986062    20.007337    20.722956    7042.6109    10324.875    7374.1174    10039.721    429.16118    1192.2351    -14.83555   -2406.3147 
21829000    267.11356   -3853.7689   -3395.9454   -3853.7689            0    11387.669    16.875746      19.8774    20.588371    6906.2861    12072.323    12206.194    9884.4909   -248.43772   -832.68595   -186.81035   -2248.9668 
21830000    286.05726   -3846.2265   -3355.9341   -3846.2265            0    9895.1964    16.891936     19.89647    20.608123    6926.1818    9250.2301    9154.1839    11281.175    617.01129    -535.0765   -1164.6881   -2356.4079 
21831000     263.4983   -3865.3699   -3413.7429   -3865.3699            0    10734.434    16.875975     19.87767    20.588651    6906.5671    12183.935    11344.755    8674.6128     727.5897    -983.8099    770.96104   -2332.5149 
21832000    275.04434   -3912.3714   -3440.9548   -3912.3714            0    10122.574      16.8897    19.893835    20.605394    6923.4309    10910.804    10161.022    9295.8955   -2207.5085    -1841.678   -185.11429    -2418.867 
21833000     254.2628   -3854.9963   -3419.1985   -3854.9963            0    10131.992    16.905126    19.912005    20.624214    6942.4188    10500.501    9629.2155    10266.261   -1734.7138    451.54582    503.25596    -2393.354 
21834000    273.56766   -3845.0687   -3376.1831   -3845.0687            0    7974.3222    16.993486    20.016082    20.732013    7051.8491     9770.694    7756.9358    6395.3368   -742.02837   -1234.9679     1759.531    -2556.072 
21835000    268.19952   -3862.6788   -3402.9941   -3862.6788            0    7925.2442    16.905301    19.912212    20.624428    6942.6348    9465.6529    7692.9941    6617.0857    -367.1617    180.13732   -265.53505   -2600.5535 
21836000    260.57587   -3856.3191    -3409.701   -3856.3191            0    10418.779    16.902797    19.909262    20.621373    6939.5499    8436.7236    11060.458    11759.157   -262.57842    1948.9399   -1753.4115   -2355.2558 
21837000    256.89449    -3855.886   -3415.5776    -3855.886            0    11748.363    16.871483    19.872379     20.58317    6901.0536     12201.41    11838.729     11204.95    290.50577   -177.84591    432.58964   -2233.1661 
21838000    275.59629   -3843.6994   -3371.3367   -3843.6994            0     9183.135    16.932575    19.944336    20.657701    6976.2908    9501.7211    8719.2641    9328.4197     976.7927    840.66924    1757.1493   -2437.0258 
21839000    256.33064    -3856.238   -3416.8961    -3856.238            0    11198.368    16.866054    19.865984    20.576547    6894.3934    11753.135    12754.852    9087.1176    51.220307    447.52865    1132.9229   -2290.9264 
21840000    270.46808   -3865.8843   -3402.3113   -3865.8843            0    10369.126     16.87187    19.872834    20.583642    6901.5282    9710.5498    11878.653    9518.1763   -1847.5393     271.2303    1973.8501    -2358.641 
21841000    254.62613   -3841.2654   -3404.8449   -3841.2654            0    11579.505     16.83985    19.835118    20.544577     6862.308     12339.38     9993.483    12405.651    171.65798   -1083.1708    181.42947   -2245.9713 
21842000    270.63713   -3830.0815   -3366.2187   -3830.0815            0    8554.4514    16.927802    19.938715    20.651879    6970.3935    6787.7606    9467.0336      9408.56    773.59376   -177.51831    896.91385    -2496.607 
21843000    255.86148   -3842.1812   -3403.6434   -3842.1812            0    10970.797    16.883582     19.88663    20.597931    6915.9106    12890.117    11089.095    8933.1785    -662.1198    1588.4998   -250.90255   -2297.1128 
21844000    269.18699   -3872.5963    -3411.219   -3872.5963            0    8954.4138    16.959364    19.975891    20.690385    7009.4559    9886.8763    9602.6861     7373.679   -596.63107    1022.2103   -120.08221   -2495.8476 
21845000    273.59015   -3871.3753   -3402.4511   -3871.3753            0    10099.435    16.868665    19.869059    20.579732    6897.5955    10505.259    8937.3966    10855.648   -563.69549   -141.29259   -191.17213    -2386.505 
21846000    281.45247   -3834.5772   -3352.1773   -3834.5772            0    10852.882    16.882802     19.88571    20.596978    6914.9515    11975.906    10873.358    9709.3833    110.66662    -220.1296    711.15967   -2257.6915 
21847000    273.60575   -3843.5363   -3374.5854   -3843.5363            0    8492.2682     16.93161      19.9432    20.656524    6975.0984    10170.266    7553.0159    7753.5221   -97.457485   -178.74101   -388.91581   -2510.7124 
21848000    252.90776   -3867.9231   -3434.4478   -3867.9231            0    9434.5399    16.968283    19.986396    20.701265    7020.5195    8305.0931    9575.9536    10422.573   -287.80429    567.89036    1290.8116   -2468.4728 
21849000    273.59594   -3860.8953   -3391.9613   -3860.8953            0    9662.3387    16.950265    19.965173    20.679284    6998.1794    10043.225    8017.6197    10926.171     812.6493   -218.55779    1217.1851   -2405.8107 
21850000    259.71613    -3870.331   -3425.1864    -3870.331            0    11575.131    16.925514     19.93602    20.649087    6967.5672    12813.563    10864.015    11047.817    1245.5377    172.87668   -537.76017   -2248.9815 
21851000    258.07716   -3876.1502   -3433.8148   -3876.1502            0    8659.4585     16.97024    19.988701    20.703653     7022.949    8452.3185    8316.2696    9209.7874    723.52199    32.337467    828.82076   -2546.8913 
21852000    273.12705   -3848.4619   -3380.3315   -3848.4619            0    8978.5689     16.94567     19.95976    20.673677    6992.4891    9923.5816    8314.3427    8697.7823   -537.10279   -1599.1815    761.74771   -2464.7124 
21853000     276.0618   -3864.0838   -3390.9233   -3864.0838            0    10913.628    16.982185     20.00277    20.718226    7037.7895    10930.224    11240.103    10570.557    1076.4024    982.82137   -1606.2438   -2270.7601 
21854000    260.80848   -3867.3711   -3420.3543   -3867.3711            0    10663.819    17.008994    20.034348    20.750933    7071.1728    10964.837    7632.9832    13393.636    486.84636    1160.8957   -294.88823   -2320.6394 
21855000    262.69854    -3823.709   -3373.4527    -3823.709            0    9815.0564    16.912999    19.921279    20.633819    6952.1233    10125.623    10591.417    8728.1294    1841.8803   -1570.8552   -2338.2526   -2378.3082 
21856000     252.6192   -3869.9007   -3436.9201   -3869.9007            0    8321.7296    16.935095    19.947305    20.660776    6979.4064    7363.6821    8319.2901    9282.2167   -1546.8118    246.19751    486.89468   -2589.8721 
21857000    267.20371   -3865.3754   -3407.3974   -3865.3754            0    8133.9238    16.949751    19.964568    20.678656    6997.5424    7525.1761    7630.1309    9246.4642    63.303406   -674.12478   -1414.5261   -2577.3144 
21858000    260.45085   -3852.9712   -3406.5673   -3852.9712            0       9558.5    16.918504    19.927762    20.640535    6958.9134    9536.8146    11262.616    7876.0689    1844.5635   -2671.7718    634.79531   -2436.4884 
21859000    261.37697   -3860.7383   -3412.7472   -3860.7383            0    8829.4166    16.898807    19.904562    20.616505    6934.6365    10100.681     8503.609    7883.9601    765.51573   -299.94237    401.40184    -2519.788 
21860000    254.55586   -3858.9261   -3422.6261   -3858.9261            0    10527.136    16.887754    19.891544    20.603021    6921.0392    10211.694     11284.76    10084.954    54.608518   -1992.8914    1202.5043   -2360.0564 
21861000    261.13869   -3820.3759   -3372.7931   -3820.3759            0    9185.6967     16.91594    19.924743    20.637408    6955.7511    10963.036    8525.4275    8068.6264    84.480934   -1404.0099    128.12087   -2440.9731 
21862000    260.84232   -3839.6757   -3392.6008   -3839.6757            0    8632.5694    16.952234    19.967493    20.681686     7000.619    9925.0899    7674.6236    8297.9947    104.55097   -711.10832   -344.28157   -2511.2427 
21863000    263.32228   -3858.2068   -3406.8814   -3858.2068            0    10235.554    16.889181    19.893224    20.604761    6922.7926    10645.385    12732.631    7328.6447   -699.92184    46.461639   -347.87767   -2373.4812 
21864000    274.25473   -3826.4513    -3356.388   -3826.4513            0    11411.205    16.918668    19.927956    20.640735     6959.116    10254.461    12505.764    11473.391   -1299.7271   -573.39596    143.57574   -2198.2469 
21865000    269.45974   -3851.2816   -3389.4369   -3851.2816            0    10513.392    16.916279    19.925142    20.637821    6956.1686    10887.297    9968.4964    10684.384    681.77157    575.59359    456.59593   -2322.8681 
21866000    255.27851   -3874.2325   -3436.6939   -3874.2325            0    9954.4853    16.926575    19.937269    20.650382    6968.8776    11531.565    10388.114     7943.777   -266.14738   -1127.2225    590.35416   -2424.9804 
21867000    247.16268   -3862.5353    -3438.907   -3862.5353            0    9795.6797    16.877002    19.878879    20.589903    6907.8272    10388.679     9735.028    9263.3323    617.96919   -2506.0497    608.49647   -2452.0552 
21868000    260.36178   -3867.3979   -3421.1467   -3867.3979            0    10041.615    16.861251    19.860326    20.570686    6888.5045    10449.028    11320.617    8355.1986    1337.1321     -476.092    51.383826   -2412.3483 
21869000    259.22613    -3830.457   -3386.1523    -3830.457            0    11097.891    16.898123    19.903757    20.615671    6933.7954    7555.6271    13766.364    11971.682    65.405537    840.63162    674.81307   -2263.9081 
21870000    258.65732   -3849.3668    -3406.037   -3849.3668            0    10131.638    16.858695    19.857316    20.567569    6885.3731    10985.631    9207.8401    10201.442   -432.62216    182.83757    571.04262   -2388.6575 
21871000    263.28285   -3865.3969   -3414.1391   -3865.3969            0    11256.835    16.817605    19.808917    20.517439    6835.1496    12742.582    11022.218    10005.704     231.1984   -1665.0085    252.78485   -2292.0168 
21872000    273.11736   -3837.2669   -3369.1531   -3837.2669            0    10609.871     16.87145     19.87234     20.58313    6901.0131      9533.07    13031.679     9264.863    382.39026    603.62792     730.6743   -2301.3311 
21873000    261.93892   -3885.6679   -3436.7136   -3885.6679            0    12040.452    16.851384    19.848704    20.558649    6876.4187    11065.458    13645.961    11409.937    1415.3178    968.65236     1150.734   -2229.2306 
21874000    257.81966   -3844.2713   -3402.3772   -3844.2713            0    8358.1719    16.926704    19.937422     20.65054    6969.0375    7150.3556    10401.983    7522.1768    278.56343   -1636.8924   -760.46875   -2552.8839 
21875000    282.72236   -3833.5697   -3348.9933   -3833.5697            0    10025.089    16.892595    19.897246    20.608927    6926.9928    8995.3622    12055.646    9024.2589    1645.5029   -423.30523   -811.91841   -2336.2278 
21876000    284.41346   -3854.8537   -3367.3788   -3854.8537            0    9447.5518    16.930382    19.941754    20.655027    6973.5815    8655.1774    9144.4239    10543.054    180.73449   -2477.2003    905.89249   -2406.5388 
21877000    261.61752   -3825.5753   -3377.1719   -3825.5753            0    9889.5527    16.923973    19.934204    20.647207    6965.6642    9295.5787    10126.621    10246.458    129.71437   -834.50669   -129.31212   -2372.5212 
21878000    277.20679   -3855.1943   -3380.0714   -3855.1943            0    11068.529    16.886829    19.890454    20.601892    6919.9019    10129.055    10314.415    12762.117    1695.4916      393.428    703.94875   -2263.0391 
21879000    278.26214   -3849.9707   -3373.0389   -3849.9707            0    7932.1696     16.92569    19.936227    20.649302    6967.7848     7645.214    7115.7471    9035.5475    24.729707    380.80953    329.45944   -2566.9878 
21880000    258.60993   -3882.8125   -3439.5639   -3882.8125            0     11525.24    16.783289    19.768497    20.475573    6793.3939    10798.386    12355.262    11422.071    1673.0143    803.72755   -518.54916   -2297.7045 
21881000    258.14996   -3909.2127   -3466.7525   -3909.2127            0    7758.9591    16.946171    19.960351    20.674289    6993.1101    9432.4268    6009.0304    7835.4203   -1708.6915   -742.44453    170.47133   -2675.4369 
21882000    273.06421   -3847.1751   -3379.1524   -3847.1751            0    8962.9877    16.986048    20.007321    20.722939     7042.594    8854.6733    9054.7596    8979.5301    261.14349   -169.21659   -1173.3488   -2458.5728 
21883000    252.23895   -3825.2036   -3392.8747   -3825.2036            0    9795.0274    16.903432    19.910011    20.622148    6940.3327    9717.3464    7403.9637    12263.772      147.504    2674.2892    366.89745   -2401.4452 
21884000    265.97501   -3901.8382   -3445.9661   -3901.8382            0     9857.421    16.948302    19.962861    20.676889    6995.7485    10543.794    8309.3832    10719.086    400.12568   -339.57313    1860.8167   -2440.2547 
21885000    260.81513   -3898.4413   -3451.4131   -3898.4413            0    8928.5711     16.93143    19.942989    20.656306    6974.8768    10880.774    7895.2055    8009.7333    1314.1632   -1049.2918    1034.2498   -2543.1861 
21886000    268.00861   -3854.6914   -3395.3338   -3854.6914            0    9202.8777    16.873123     19.87431    20.585171    6903.0656    8098.5452    9172.2721    10337.816    1083.1435    1292.3809   -1998.6095   -2468.8421 
21887000    258.34067   -3867.0787   -3424.2916   -3867.0787            0    10458.561    16.866289     19.86626    20.576833    6894.6808    9390.5868    11051.409    10933.686    1063.7677       15.685   -302.15571    -2372.664 
21888000    267.76438   -3851.7367   -3392.7977   -3851.7367            0    9197.3112    16.879013    19.881247    20.592356     6910.297    10389.107    8025.0502    9177.7765    1331.6796    11.934921   -156.76493   -2465.8964 
21889000    252.85343   -3874.7691    -3441.387   -3874.7691            0    7409.1938     16.85531    19.853329    20.563439    6881.2266    6820.1548    8351.0483    7056.3783   -710.84883   -98.781621   -1042.1693   -2697.8327 
21890000    260.30368   -3831.7739   -3385.6223   -3831.7739            0    9466.6931    16.907982    19.915369    20.627698    6945.9382    8739.4586    8310.4063    11350.214    212.69479    391.95421    787.98693   -2426.6522 
21891000    259.89225   -3873.7275   -3428.2811   -3873.7275            0    9159.1968    16.857266    19.855633    20.565826    6883.6224    8860.7431    9649.7567    8967.0905    -881.8147   -715.28866   -40.836603   -2508.7841 
21892000    262.60646   -3875.6704   -3425.5719   -3875.6704            0    9590.9124    16.886695    19.890296    20.601728    6919.7365    8738.0589    9658.6304    10376.048   -508.25217   -822.83562    647.65931   -2457.6833 
21893000    264.11301   -3875.5305   -3422.8498   -3875.5305            0    8449.1125    16.896427     19.90176    20.613602    6931.7079    8517.0644    8894.3287    7935.9445    1631.2834    3466.4087    2251.8816   -2568.7134 
21894000    260.22767   -3855.9054    -3409.884   -3855.9054            0    9044.8092    16.935749    19.948075    20.661574    6980.2151    7525.1811    7828.1542    11781.092   -335.23566   -415.27015    462.39969    -2489.129 
21895000    266.23982   -3831.5262   -3375.2003   -3831.5262            0    9202.7474    16.969102    19.987361    20.702265    7021.5372    8767.9327    7910.1232    10930.186   -622.68036    1427.0134    1547.3694   -2432.8213 
21896000    276.86877    -3886.186   -3411.6424    -3886.186            0    10096.635    16.845599     19.84189    20.551591    6869.3388     10067.99    10470.239     9751.675    36.125929   -1035.5801    1078.2989   -2400.1387 
21897000    260.69676    -3874.807   -3427.9816    -3874.807            0    8804.8114    16.911615    19.919649    20.632131     6950.417    10485.165    7649.5114    8279.7576    680.00544   -734.85296    730.96847   -2535.4845 
21898000    262.13664    -3893.837   -3444.5437    -3893.837            0    9172.8584    16.916485    19.925385    20.638073    6956.4234    8363.6188    11132.127    8022.8291    1374.2248    632.22701    244.45252   -2513.9362 
21899000    285.26919   -3851.7816     -3362.84   -3851.7816            0    9201.7783    16.896821    19.902224    20.614083    6932.1926    9170.3989    9003.5802    9431.3559    720.11769   -707.64996   -1819.8106   -2432.5502 
21900000    258.60368   -3865.7996   -3422.5617   -3865.7996            0    9915.2344    16.860924    19.859942    20.570288    6888.1043     10144.42    10596.553    9004.7301   -332.53625    2165.1703    364.90165   -2426.5176 
21901000    271.66778    -3856.918   -3391.2888    -3856.918            0    7746.4738    16.953543    19.969035    20.683283    7002.2406    7848.7917    7668.6508     7721.979    1045.9086    1910.5955    865.55098    -2600.215 
21902000    253.72807   -3879.1946   -3444.3133   -3879.1946            0    9312.5397    16.835943    19.830517    20.539811    6857.5337    7426.1955    10769.436    9741.9871    110.35676     101.8261    1127.0643   -2512.9654 
21903000    267.46511   -3861.1387   -3402.7127   -3861.1387            0    8667.3997    16.906996    19.914208    20.626495     6944.723    9392.7193    6915.3023    9694.1776    151.44289     688.8702    -39.88318    -2524.864 
21904000     250.5201   -3855.0603   -3425.6775   -3855.0603            0    7447.2462    16.946838    19.961137    20.675103     6993.936    6809.0359     8593.408    6939.2947   -14.165946    759.44353   -412.76335   -2666.0629 
21905000    260.49325   -3837.8643   -3391.3878   -3837.8643            0    12236.279    16.837407    19.832241    20.541597     6859.322    11815.113    12627.236    12266.487   -440.14806    1099.5105    402.56792   -2167.3173 
21906000    234.53053   -3853.9678   -3451.9905   -3853.9678            0    8020.2517    16.989105    20.010922    20.726668    7046.3967    6125.0487    8008.6668    9927.0396   -361.50801    167.16117    -408.3816   -2627.7936 
21907000     263.7603   -3852.0317   -3399.9556   -3852.0317            0     9767.288    16.911001    19.918925    20.631381    6949.6593    9734.5646    9924.6378    9642.6615   -12.743769   0.35496173   -25.430024   -2410.0053 
21908000    274.60982   -3875.8555   -3405.1836   -3875.8555            0    9337.8673    16.988904    20.010685    20.726423    7046.1468    8293.6158    11126.626    8593.3604   -298.61233    514.56945    485.76643   -2445.6167 
21909000    269.43958   -3839.0929   -3377.2827   -3839.0929            0    9011.2337    16.950904    19.965926    20.680063    6998.9705    8183.0175    9210.1834    9640.5001    409.45948   -959.31783    1488.1449   -2457.4808 
21910000    279.44613   -3830.4762   -3351.5151   -3830.4762            0    8641.2201    16.974779    19.994048    20.709191    7028.5867    9135.4511    9683.7606    7104.4485   -67.733277    872.44049    1425.6148   -2465.7492 
21911000    245.02576   -3850.2488   -3430.2831   -3850.2488            0    9559.2622    16.937397    19.950017    20.663585    6982.2534     8171.715    10126.511     10379.56   -1297.2152    804.29513   -170.98482   -2456.8729 
21912000    256.88334   -3840.1771   -3399.8879   -3840.1771            0    9416.1426    16.981807    20.002326    20.717765    7037.3202    8518.1594    10039.872    9690.3969   -142.42312   -1511.1415   -1749.3519   -2433.4894 
21913000    264.15288   -3833.0292   -3380.2802   -3833.0292            0     11388.21    16.874935    19.876444    20.587381    6905.2895    10828.852    12494.209    10841.568   -1998.0483   -781.63362   -64.473596   -2233.4128 
21914000    277.85417   -3902.5626   -3426.3301   -3902.5626            0    8892.0934    16.908006    19.915398    20.627728    6945.9681    7952.5169    7808.5314    10915.232    1086.6751    151.91895   -679.77787   -2525.5626 
21915000    269.83225   -3890.2312    -3427.748   -3890.2312            0    9477.4736    16.925205    19.935656     20.64871    6967.1858    9663.4608    6850.0637    11918.896   -480.93985   -46.908008   -160.75854   -2464.7489 
21916000     266.3802   -3868.4053   -3411.8387   -3868.4053            0    9396.2517    16.984512    20.005512    20.721066    7040.6838    8800.5556    9266.3821    10121.817    965.97428    1122.3411   -27.086872   -2447.0208 
21917000    259.11196   -3909.4639   -3465.3549   -3909.4639            0     8627.678    16.934704    19.946844    20.660299    6978.9227    7893.3471    9765.0504    8224.6366   -827.82696    251.58909   -217.07538   -2587.2261 
21918000    267.36654   -3843.9597   -3385.7026   -3843.9597            0    9592.6613    16.972178    19.990984    20.706018    7025.3561    7300.5234    10157.667    11319.794    1634.7203    1059.2748   -232.47007   -2402.8614 
21919000    287.11922   -3883.7014   -3391.5888   -3883.7014            0    8920.9896      16.9532     19.96863    20.682865    7001.8155    6933.3743    11763.015    8066.5798    199.45505    1099.6993   -703.25488   -2480.6283 
21920000    258.95025   -3844.3638    -3400.532   -3844.3638            0    9760.3365    16.966146    19.983879    20.698658    7017.8677     9827.643    11538.245    7915.1212    318.56341   -1307.2716    581.00935   -2401.5771 
21921000    265.64412   -3871.2401   -3415.9351   -3871.2401            0    8225.1542    17.038637    20.069264    20.787098    7108.2087     9468.952    5872.4407    9334.0698    119.38099   -473.09048    386.03789   -2563.2668 
21922000    264.80313   -3860.7801   -3406.9166   -3860.7801            0    10185.096    16.912161    19.920292    20.632797    6951.0904    11730.652    9488.0061    9336.6282   -112.36533    749.12072    201.69038   -2374.4074 
21923000    258.82625    -3870.004   -3426.3847    -3870.004            0    8765.0476    16.968973    19.987209    20.702107    7021.3763    9668.3586    9029.6009    7597.1833    1739.9817    2306.5746    636.25258   -2528.8476 
21924000    266.20667   -3894.7003   -3438.4312   -3894.7003            0    9017.6484    16.949599    19.964388    20.678471    6997.3542    8000.9359    11484.005    7568.0048   -131.45778   -1038.4694    1980.0226   -2518.1871 
21925000    282.72998   -3875.9055    -3391.316   -3875.9055            0    11070.841    16.873269    19.874482    20.585349    6903.2447    10048.253    12929.093    10235.177    1381.8914    1361.8729    2247.8484   -2276.7397 
21926000     269.4375   -3870.5343   -3408.7277   -3870.5343            0    10397.837    16.896508    19.901854      20.6137    6931.8069    9281.1822    10832.655    11079.673    813.36162    1351.2862    275.59166   -2357.5761 
21927000    285.43372    -3869.373   -3380.1493    -3869.373            0    8127.7931    16.962825    19.979968    20.694607    7013.7481     8570.522    8475.1115    7337.7458   -655.44548   -56.550763   -70.446479    -2548.771 
21928000     271.7197   -3857.9519   -3392.2336   -3857.9519            0    8409.0775    16.963928    19.981266    20.695953    7015.1159    7384.9192    9432.7066    8409.6069   -20.643178   -1543.3922    1242.4949   -2531.9155 
21929000     262.6225   -3871.2276   -3421.1017   -3871.2276            0     9648.734    17.019888     20.04718    20.764223    7084.7685    10340.201    10143.663    8462.3386    279.75429    873.78084   -693.82699   -2424.1551 
21930000    248.37483   -3852.2116   -3426.5056   -3852.2116            0    7729.6268    16.990636    20.012725    20.728537    7048.3024    8064.7313    6712.5348    8411.6142   -505.81566   -687.34978    593.94212   -2631.9598 
21931000    274.58873   -3852.7998   -3382.1641   -3852.7998            0    11109.329    16.865168    19.864941    20.575466    6893.3072    11599.353    10688.722    11039.913   -409.53011   -527.71302    591.55011   -2265.3231 
21932000    283.05227   -3853.5084   -3368.3665   -3853.5084            0    9043.9388    16.920308    19.929887    20.642736    6961.1398    10424.751    9256.9876    7450.0784    210.43363     478.3493   -795.08948    -2450.216 
21933000    265.02987   -3879.4525   -3425.2004   -3879.4525            0    8731.3212    16.937701    19.950375    20.663956    6982.6294    9340.0098    8490.1938    8363.7598    1379.4905   -436.40709    224.23925   -2536.0507 
21934000    264.85619   -3882.7684   -3428.8139   -3882.7684            0    9633.7183      16.9275    19.938359     20.65151    6970.0204    6984.7288    11629.154    10287.272   -627.94298   -1125.3414   -1093.8164   -2449.5407 
21935000    274.08344   -3858.7301   -3388.9605   -3858.7301            0    9986.8373    16.966654    19.984477    20.699278    7018.4977    11436.794    10966.635    7557.0829    1262.1092   -84.091383    738.42803   -2366.7319 
21936000    275.15463     -3840.47   -3368.8644     -3840.47            0    8741.3932     16.93533    19.947582    20.661063    6979.6976    9613.2761     8492.183    8118.7206    1251.3154   -550.54656    1371.8409   -2479.0628 
21937000    254.12881    -3832.515   -3396.9469    -3832.515            0    8781.2929    16.935215    19.947447    20.660923    6979.5554    6710.2425    10027.166    9606.4698   -419.12903   -1008.0533    2129.6657   -2503.1021 
21938000    278.76779   -3834.4733   -3356.6748   -3834.4733            0    10142.255    16.904271    19.910998    20.623171    6941.3656    10437.941    10236.558    9752.2655   -102.87905   -2366.6937   -627.74901    -2329.947 
21939000    254.01842   -3853.5213   -3418.1425   -3853.5213            0    9275.7579    16.915815    19.924595    20.637254    6955.5957    8195.8244    8981.5757    10649.874   -1296.6664   -298.26326   -1680.8798   -2477.2075 
21940000    275.24562   -3852.3896    -3380.628   -3852.3896            0     9864.761    16.955206    19.970993    20.685312     7004.301    9961.6944     8687.206    10945.383   -687.11609   -1714.3168    1365.4777   -2372.9373 
21941000    269.26738    -3851.412   -3389.8969    -3851.412            0    8570.0844    16.986432    20.007773    20.723407    7043.0712     7472.597    9016.0484    9221.6077   -1268.4836    1074.0376    24.321689   -2509.6124 
21942000    270.10947   -3862.1848   -3399.2264   -3862.1848            0     8541.078    16.914751    19.923342    20.635956    6954.2835    8025.7711    7665.6951    9931.7677     277.9195    3.4009803    -833.9573   -2532.9809 
21943000    268.21422   -3872.4705   -3412.7606   -3872.4705            0    9666.1605    16.948942    19.963615     20.67767    6996.5413    8700.8287    10313.717    9983.9358    82.584028   -969.72764   -1304.0168   -2426.4509 
21944000    279.40611   -3874.4554   -3395.5628   -3874.4554            0     7918.796     16.89907    19.904872    20.616826    6934.9604     6541.533    9068.5517    8146.3034      828.759   -1319.6842   -1435.5945   -2594.6615 
21945000    269.09244    -3872.155   -3410.9397    -3872.155            0    8552.4729    16.927199    19.938005    20.651143    6969.6488    7764.3478    9207.6638     8685.407   -536.22849     578.3403    855.17766   -2541.6221 
21946000    270.32927   -3859.5604   -3396.2253   -3859.5604            0    9925.2887    16.916786    19.925739    20.638439    6956.7937     9663.547    9890.3941    10221.925   -1050.6986   -547.78354     -637.704   -2389.2283 
21947000    249.64144   -3819.4503   -3391.5735   -3819.4503            0    7774.0384    16.965063    19.982604    20.697337    7016.5243    9175.9947    8313.9132    5832.2074   -319.20561    1556.2742   -1874.1227   -2596.0654 
21948000    271.39609    -3851.584   -3386.4204    -3851.584            0    8652.1782     16.96782    19.985851    20.700701    7019.9454     7747.223    9699.9458    8509.3658    127.54067   -1326.0115    201.15469   -2500.6217 
21949000    272.70377   -3862.1432   -3394.7383   -3862.1432            0    10486.209    16.929857    19.941135    20.654386    6972.9323    10393.366    9913.9675    11151.294    60.905692    211.25846   -2217.7777   -2328.3636 
21950000    263.17085   -3871.1776   -3420.1118   -3871.1776            0      11387.9    16.870211     19.87088    20.581618    6899.4923     9106.244    11131.497    13925.958   -711.14632    921.63585   -1764.5872   -2274.2383 
21951000    253.64196   -3862.2193   -3427.4857   -3862.2193            0    9057.9201    16.956048    19.971985    20.686339    7005.3446    8768.2903    10217.154    8188.3154   -619.32881    2242.3893    -2001.486   -2502.0763 
21952000    275.29191    -3842.954   -3371.1131    -3842.954            0    10542.568    16.852049    19.849488    20.559461    6877.2332    10772.467    10309.262    10545.976    127.67649    609.32674   -845.14986    -2313.721 
21953000    260.64715    -3893.129   -3446.3887    -3893.129            0     10409.12     16.92912    19.940267    20.653487    6972.0221    10958.259    11474.055    8795.0461   -140.30306    432.52296     1773.563   -2387.9915 
21954000    259.67221   -3880.4384   -3435.3692   -3880.4384            0    9952.9654    16.867111    19.867229    20.577837      6895.69     10807.68    10317.168    8734.0474    31.644873   -1073.5961    777.62029   -2434.4336 
21955000    263.16421   -3904.1802   -3453.1258   -3904.1802            0    7411.5963     16.93573    19.948053    20.661551    6980.1917    7733.3489    5049.3259     9452.114   -670.52265   -193.69135   -1496.5046   -2698.6332 
21956000    253.62073   -3893.1493   -3458.4521   -3893.1493            0    8433.2273    16.882386    19.885221    20.596472    6914.4413    7944.0084    8514.9425    8840.7309    591.61546   -823.44004    1243.7763   -2608.0452 
21957000    262.95796   -3885.5251   -3434.8241   -3885.5251            0    9547.1821    16.880425    19.882911    20.594079    6912.0319      9854.97    9138.8575    9647.7188     183.6854    -398.6485   -1059.6023   -2472.4214 
21958000    268.32117   -3874.3155   -3414.4222   -3874.3155            0    11738.961    16.835535    19.830037    20.539314    6857.0354    12679.237    10613.068    11924.576   -695.12089   -565.22723    132.18874   -2240.4929 
21959000    261.96046   -3887.8346   -3438.8433   -3887.8346            0    12151.504    16.906515    19.913641    20.625908    6944.1301    13094.296    11522.459    11837.757    1069.8085   -350.68092   -444.62931   -2208.2239 
21960000    264.77668   -3852.2361    -3398.418   -3852.2361            0    8478.2287    16.944993    19.958964    20.672852    6991.6515    10667.411    7977.3552    6789.9196   -157.50013    2382.0938     832.2988   -2533.9263 
21961000    267.81514   -3885.8522   -3426.8262   -3885.8522            0    8663.5471    16.858924    19.857585    20.567848     6885.653     8654.796    7351.5576    9984.2877   -1314.1771   -1214.2369    430.94245   -2556.8312 
21962000    260.61328   -3871.6856   -3425.0033   -3871.6856            0    10469.255    16.856204    19.854382     20.56453    6882.3212    10331.775     10785.68    10290.311    2335.8691    -1130.956   -1177.6858   -2374.1875 
21963000     275.9357   -3858.3624    -3385.418   -3858.3624            0    9196.0994    16.853381    19.851057    20.561085    6878.8636    8101.1761    11518.764    7968.3575   -976.51369    967.22552   -276.62998   -2462.8546 
21964000    260.38573   -3846.0305   -3399.7382   -3846.0305            0    7788.0801     16.91704    19.926038    20.638749    6957.1071    8816.3017    8696.7058    5851.2328   -139.93401   -994.68503   -893.05715    -2609.542 
21965000    252.97112   -3883.0872   -3449.5034   -3883.0872            0    8871.6378    16.849915    19.846975    20.556858    6874.6212    9593.5753    8935.2251    8086.1129    967.46983   -1546.7077    542.84755   -2560.0392 
21966000    259.69167   -3845.4132   -3400.3105   -3845.4132            0    9180.9838    16.875426    19.877022     20.58798    6905.8921     8376.354    9737.9188    9428.6786    1373.9149    283.24329    373.86515   -2475.6445 
21967000    254.36302   -3872.1818   -3436.2122   -3872.1818            0    11040.714    16.884682    19.887925    20.599273    6917.2626    11787.527    9427.5907    11907.025    259.37341    1735.4388    89.092827    -2322.412 
21968000    255.10451   -3847.4205   -3410.1801   -3847.4205            0     10829.24    16.854667    19.852571    20.562654    6880.4384    11315.274    10886.458     10285.99   -1592.7925   -468.83979    1555.4241   -2323.5294 
21969000    268.64683    -3845.094   -3384.6426    -3845.094            0    9947.6248    16.880478    19.882973    20.594143    6912.0963    8242.9554    9884.0359    11715.883   -660.71882    552.17644   -960.46459   -2381.8639 
21970000    261.33481   -3888.0965   -3440.1775   -3888.0965            0    9417.6994    16.883009    19.885955    20.597232    6915.2064    9343.7887    8567.5321    10341.777     468.9002    -1335.619    877.10451   -2490.3913 
21971000    267.68119   -3876.9824    -3418.186   -3876.9824            0    7173.5489    16.986113    20.007398    20.723019     7042.675    5992.4873    8594.8005    6933.3589    -448.9662    157.61431    587.56834   -2681.3894 
21972000    251.42792   -3855.8376   -3424.8988   -3855.8376            0    9054.6838    16.881694    19.884406    20.595628    6913.5911    8262.1019    9036.8032    9865.1463   -654.17021   -755.97586    2892.3993   -2511.9364 
21973000     259.2119   -3853.9921   -3409.7118   -3853.9921            0    9113.9438    16.895184    19.900295    20.612085    6930.1775    8773.1708    6718.3903     11850.27   -69.925035    181.56061    1201.1352   -2488.5697 
21974000    272.15465   -3883.7292   -3417.2655   -3883.7292            0    9505.8171    16.947622     19.96206    20.676059    6994.9064    10083.469    8934.5792    9499.4035    843.37852    -440.4133    1067.2582   -2447.5435 
21975000    245.48215    -3840.224    -3419.476    -3840.224            0    9889.1851    16.897753    19.903321    20.615219    6933.3394    8799.8422    10876.284     9991.429   -1304.8982    946.42136   -923.33743   -2419.5247 
21976000    268.44363   -3860.2079   -3400.1047   -3860.2079            0    8894.3029    16.914987    19.923621    20.636245    6954.5754    8619.2667    8827.2716    9236.3705   -1361.5049    53.854419    -662.0056   -2497.9969 
21977000    267.13104   -3772.7165   -3314.8631   -3772.7165            0    8288.4529    16.973976    19.993102    20.708212    7027.5893    7078.4931    9533.8818    8252.9838    1171.0823       -735.5   -455.65041    -2465.378 
21978000    278.15686   -3841.6104    -3364.859   -3841.6104            0    8090.1345    17.012097    20.038003    20.754719     7075.044      8290.62    8869.7061    7110.0773   -309.64577    342.49115    1333.8839   -2530.1007 
21979000    263.79946   -3847.3168   -3395.1735   -3847.3168            0    9134.0362    16.986382    20.007714    20.723346    7043.0088    8700.5542     7378.147    11323.407   -1435.1229   -282.14524    748.37395   -2456.9705 
21980000    266.95459    -3834.953   -3377.4019    -3834.953            0    8026.5315    16.994981    20.017843    20.733838     7053.711     5371.639      9463.05    9244.9056    653.01696   -1914.8214   -650.80669   -2551.7035 
21981000    277.57421   -3840.1881   -3364.4354   -3840.1881            0    9789.3972    16.888055    19.891898    20.603388    6921.4091    10189.821    10760.386    8417.9852    2518.5265    745.72394    820.58565   -2376.2774 
21982000    264.31595   -3860.5141   -3407.4856   -3860.5141            0    10076.404    16.900479    19.906532    20.618545    6936.6961    9240.9736    9634.7818    11353.458    87.385357   -98.858376   -427.20667   -2388.1103 
21983000    250.12982   -3844.9555   -3416.2415   -3844.9555            0    9309.2959    16.951958    19.967167    20.681349    7000.2766    9162.2377    8164.8493    10600.801   -1444.0522    122.80288   -63.340328   -2465.8382 
21984000    271.50097   -3840.8562   -3375.5129   -3840.8562            0    9371.6447    16.950286    19.965198     20.67931    6998.2055    11187.198    8836.9623    8090.7739    1107.2967   -706.14688    598.75191   -2419.0273 
21985000    269.25608   -3891.9699   -3430.4742   -3891.9699            0     9820.237    16.857209    19.855566    20.565756    6883.5523    11597.334    9635.3289    8228.0483   -759.65323   -1945.7721   -16.492159    -2444.625 
21986000    266.31346   -3859.2994   -3402.8473   -3859.2994            0    11558.344    16.899675    19.905585    20.617564    6935.7053    12798.564    12418.568    9457.9002    1034.3404   -612.01092   -452.53205   -2233.7191 
21987000    255.49618   -3817.0409   -3379.1292   -3817.0409            0    7923.7974    16.929231    19.940398    20.653623    6972.1594     7956.024    7394.5103    8420.8578   -1320.7557    324.35618    1007.2676   -2573.4232 
21988000    262.75687   -3836.8944   -3386.5381   -3836.8944            0    7940.4391    17.006555    20.031476    20.747958    7068.1319    7989.7443     8612.949    7218.6241    1076.9675    673.64581   -305.20022   -2568.0261 
21989000    260.85422    -3862.825   -3415.7298    -3862.825            0     9420.302    16.923482    19.933626    20.646608    6965.0582    7290.3733     9799.825    11170.708    247.29714    1961.5885   -842.65798   -2458.8322 
21990000    269.66913   -3881.3612   -3419.1575   -3881.3612            0    8922.8891    16.958384    19.974736    20.689189    7008.2399    10433.197    7736.7586    8598.7111    2317.7832   -160.28744   -868.82353    -2507.167 
21991000    249.52376   -3854.8117   -3427.1365   -3854.8117            0    11393.188    16.896171    19.901458    20.613289    6931.3922    12517.774    11567.963    10093.827   -490.32732   -157.07185   -950.31405   -2275.4306 
21992000    269.48535   -3845.5171   -3383.6284   -3845.5171            0    8742.9752    16.916798    19.925754    20.638454     6956.809    7035.3206    9485.5155    9708.0896    -2598.244   -288.91981    993.09227   -2496.5843 
21993000    275.72734   -3837.5579   -3364.9707   -3837.5579            0    8913.1314    16.983418    20.004223     20.71973    7039.3228     9186.264    10726.508     6826.622   -11.375445    943.48629   -209.15553    -2449.937 
21994000    275.35458    -3821.141   -3349.1927    -3821.141            0     9277.295    16.902295     19.90867     20.62076    6938.9314    10700.475    11137.775    5993.6345     284.2292    518.31426    250.28098   -2410.3564 
21995000    273.77456   -3832.4309   -3363.1907   -3832.4309            0    9472.8953    16.978745    19.998719    20.714029    7033.5135    10590.229    9028.6755    8799.7819    320.67205    729.51077   -640.03988   -2391.4935 
21996000     257.0321   -3838.5161   -3397.9719   -3838.5161            0    7644.8716    17.018631    20.045699     20.76269    7083.1989    6758.3543    8180.8451    7995.4154    -187.6117   -1995.5098   -994.77968   -2608.2475 
21997000    264.04734    -3861.895   -3409.3269    -3861.895            0    9203.5799    16.987392    20.008904    20.724579    7044.2655    7311.9968    12519.361    7779.3819    375.51717   -827.14647   -173.17345    -2463.812 
21998000    279.93457   -3834.0435   -3354.2453   -3834.0435            0    10063.606    16.953561    19.969056    20.683305    7002.2629    9714.9896    10973.182    9502.6456   -525.55331    741.23288   -171.28914   -2326.5416 
21999000     251.6252   -3878.0534   -3446.7765   -3878.0534            0    8081.4355    16.939553    19.952556    20.666215    6984.9197     9063.719     5364.747    9815.8403    646.06559    1772.0725    236.61634   -2623.5377 
22000000    279.39977   -3854.8845   -3376.0029   -3854.8845            0    8851.9253    16.943207    19.956859    20.670673    6989.4405    8305.4929    8673.1838    9577.0991    1192.5456    635.45547   -1122.8822   -2473.6923 
Loop time of 463.569 on 64 procs for 250000 steps with 864 atoms

Performance: 93.190 ns/day, 0.258 hours/ns, 539.294 timesteps/s
99.1% CPU use with 64 MPI tasks x 1 OpenMP threads

MPI task timing breakdown:
Section |  min time  |  avg time  |  max time  |%varavg| %total
---------------------------------------------------------------
Pair    | 21.892     | 27.438     | 32.109     |  48.7 |  5.92
Bond    | 0.27452    | 0.28487    | 0.30273    |   1.1 |  0.06
Kspace  | 195.52     | 207.28     | 217.58     |  32.3 | 44.71
Neigh   | 5.4981     | 6.5167     | 7.5672     |  21.7 |  1.41
Comm    | 94.739     | 106.24     | 118.86     |  48.4 | 22.92
Output  | 1.9056     | 1.9073     | 1.9193     |   0.2 |  0.41
Modify  | 105.17     | 109.29     | 113.51     |  24.4 | 23.58
Other   |            | 4.616      |            |       |  1.00

Nlocal:        13.5000 ave          19 max           8 min
Histogram: 2 6 3 11 16 5 7 6 4 4
Nghost:        2261.11 ave        2328 max        2215 min
Histogram: 2 4 11 15 13 11 4 3 0 1
Neighs:        4407.25 ave        7123 max        2771 min
Histogram: 7 6 9 16 11 7 1 3 3 1

Total # of neighbors = 282064
Ave neighs/atom = 326.46296
Ave special neighs/atom = 2.0000000
Neighbor list builds = 14429
Dangerous builds = 0

unfix		3
unfix		2
unfix		1

write_data	data.final.${pid}
write_data	data.final.0
System init for write_data ...
PPPM initialization ...
  extracting TIP4P info from pair style
  using 12-bit tables for long-range coulomb (../kspace.cpp:340)
  G vector (1/distance) = 0.37441608
  grid = 24 24 24
  stencil order = 5
  estimated absolute RMS force accuracy = 0.003143422
  estimated relative force accuracy = 9.4663218e-06
  using double precision FFTW3
  3d grid and FFT values/proc = 2535 216
Last active /omp style is kspace_style pppm/tip4p/omp
WARNING: Not all mixed pair coeffs generated from mixing. Use write_data with 'pair ij' option to store all pair coeffs. (../write_data.cpp:312)

write_restart   restart.lmp.${pid}
write_restart   restart.lmp.0
System init for write_restart ...
PPPM initialization ...
  extracting TIP4P info from pair style
  using 12-bit tables for long-range coulomb (../kspace.cpp:340)
  G vector (1/distance) = 0.37441608
  grid = 24 24 24
  stencil order = 5
  estimated absolute RMS force accuracy = 0.003143422
  estimated relative force accuracy = 9.4663218e-06
  using double precision FFTW3
  3d grid and FFT values/proc = 2535 216
Last active /omp style is kspace_style pppm/tip4p/omp
Total wall time: 0:07:48
