LAMMPS (30 Jul 2021)
  using 1 OpenMP thread(s) per MPI task
package omp 0
using multi-threaded neighbor list subroutines
echo both

include		in.partitions
variable        pid world 0
include		in.temp
variable        temperature equal 245.85
variable	tempDamp equal 100.0
include		in.pressure
variable        pressure equal 3375.0
variable        pressureDamp equal 1000.0 # This is 1 ps
include		in.seed
variable        seed world 745823

units		real
atom_style	full
box tilt large
read_restart	restart.lmp.${pid}
read_restart	restart.lmp.0
Reading restart file ...
  restart file = 30 Jul 2021, LAMMPS = 30 Jul 2021
  restoring atom style full from restart
  triclinic box = (-10.791461 -9.2663806 -0.015585991) to (12.771461 12.256379 21.875585) with tilt (-9.5419491 1.7959657 2.9410817)
  4 by 4 by 4 MPI processor grid
  restoring pair style lj/cut/tip4p/long/omp from restart
  restoring bond style harmonic/omp from restart
  restoring angle style harmonic/omp from restart
  1296 atoms
  864 bonds
  432 angles
Finding 1-2 1-3 1-4 neighbors ...
  special bond factors lj:    0        0        0       
  special bond factors coul:  0        0        0       
     2 = max # of 1-2 neighbors
     1 = max # of 1-3 neighbors
     1 = max # of 1-4 neighbors
     2 = max # of special neighbors
  special bonds CPU = 0.957 seconds
  read_restart CPU = 1.229 seconds
include 	in.setup
variable	out_freq equal 1000
variable	out_freq2 equal 10000
variable	out_freq3 equal 1000

timestep	2.0

neigh_modify    delay 7 every 1

include		in.tip4p
# This is TIP4P/Ice

# create groups ###
group ox type 2
432 atoms in group ox
group hy type 1
864 atoms in group hy

# set charges - beside manually ###
set group ox charge -1.1794
Setting atom values ...
  432 settings made for charge
set group hy charge 0.5897
Setting atom values ...
  864 settings made for charge

# ### TIP3P Potential Parameters ###
pair_style lj/cut/tip4p/long/omp 2 1 1 1 0.1577 8.5
pair_coeff 1 1*2 0.000 0.000
pair_coeff 2 2 0.21084 3.1668
bond_style  harmonic
bond_coeff  1 450 0.9572
angle_style harmonic
angle_coeff 1 55 104.52
kspace_style pppm/tip4p/omp 1.0e-5
pair_modify tail yes

thermo          ${out_freq}
thermo          1000
thermo_style    custom step temp pe etotal epair emol press lx ly lz vol pxx pyy pzz pxy pxz pyz enthalpy

restart 	${out_freq3} restart.lmp.${pid} restart2.lmp.${pid}
restart 	1000 restart.lmp.${pid} restart2.lmp.${pid}
restart 	1000 restart.lmp.0 restart2.lmp.${pid}
restart 	1000 restart.lmp.0 restart2.lmp.0


include         in.dump
dump            myDump all atom ${out_freq2} dump.water.${pid}
dump            myDump all atom 10000 dump.water.${pid}
dump            myDump all atom 10000 dump.water.0
dump            myDump2 all dcd ${out_freq2} dump.dcd
dump            myDump2 all dcd 10000 dump.dcd
dump_modify     myDump append yes
dump_modify     myDump2 append yes


variable natoms 	equal  "count(all)"                        # NUMBER ATOMS
variable H      	equal  "enthalpy/v_natoms"                 # ENTHALPY-per-atom
variable Vol      	equal  "vol/v_natoms"                 # volume-per-atom
fix AVG all 		ave/time ${out_freq} 1 ${out_freq} v_Vol v_H file vol_enthalpy.dat
fix AVG all 		ave/time 1000 1 ${out_freq} v_Vol v_H file vol_enthalpy.dat
fix AVG all 		ave/time 1000 1 1000 v_Vol v_H file vol_enthalpy.dat


timer           timeout 10:00:00 every 1000
New timer settings: style=normal  mode=nosync  timeout=10:00:00

fix 		1 all shake 1e-6 200 0 b 1 a 1
       0 = # of size 2 clusters
       0 = # of size 3 clusters
       0 = # of size 4 clusters
     432 = # of frozen angles
  find clusters CPU = 0.716 seconds
fix             2 all nph tri ${pressure} ${pressure} ${pressureDamp}
fix             2 all nph tri 3375 ${pressure} ${pressureDamp}
fix             2 all nph tri 3375 3375 ${pressureDamp}
fix             2 all nph tri 3375 3375 1000
fix             3 all temp/csvr ${temperature} ${temperature} ${tempDamp} ${seed}
fix             3 all temp/csvr 245.85 ${temperature} ${tempDamp} ${seed}
fix             3 all temp/csvr 245.85 245.85 ${tempDamp} ${seed}
fix             3 all temp/csvr 245.85 245.85 100 ${seed}
fix             3 all temp/csvr 245.85 245.85 100 745823


run             250000
PPPM initialization ...
  extracting TIP4P info from pair style
  using 12-bit tables for long-range coulomb (../kspace.cpp:340)
  G vector (1/distance) = 0.36669756
  grid = 27 40 32
  stencil order = 5
  estimated absolute RMS force accuracy = 0.0046203362
  estimated relative force accuracy = 1.3914005e-05
  using double precision FFTW3
  3d grid and FFT values/proc = 4845 560
Last active /omp style is kspace_style pppm/tip4p/omp
Neighbor list info ...
  update every 1 steps, delay 7 steps, check yes
  max neighbors/atom: 2000, page size: 100000
  master list distance cutoff = 10.8154
  ghost atom cutoff = 10.8154
  binsize = 5.4077, bins = 7 5 5
  1 neighbor lists, perpetual/occasional/extra = 1 0 0
  (1) pair lj/cut/tip4p/long/omp, perpetual
      attributes: half, newton on, omp
      pair build: half/bin/newton/tri/omp
      stencil: half/bin/3d/tri
      bin: standard
Per MPI rank memory allocation (min/avg/max) = 9.397 | 9.410 | 9.422 Mbytes
Step Temp PotEng TotEng E_pair E_mol Press Lx Ly Lz Volume Pxx Pyy Pzz Pxy Pxz Pyz Enthalpy 
 9500000     254.1952   -6304.9457   -5651.0441   -6304.9457            0    2585.0552    23.562922    21.522759    21.891171    11101.869    2359.6766    3860.3126    1535.1764    331.41291    59.467324    830.90125   -5232.4994 
 9501000    241.52193    -6316.475   -5695.1745    -6316.475            0    3719.2052    23.303194     21.51852    21.944648    11004.149    4329.5356    2889.7451    3938.3349    1076.0596    48.899289   -929.55783   -5098.3007 
 9502000    241.02928   -6308.0688   -5688.0357   -6308.0688            0    3801.5688    23.437488    21.688036    21.697471    11029.109    3869.1754    2982.9927    4552.5382   -723.59315   -1149.2335   -488.90453     -5076.56 
 9503000    250.64378   -6343.1992   -5698.4333   -6343.1992            0    3158.2674    23.478611    21.564147    21.861903    11068.599     3292.941    1663.0175    4518.8437    47.810694   -853.78721    1467.9144   -5188.6127 
 9504000    239.77978   -6346.1624   -5729.3435   -6346.1624            0    3151.2348    23.268786    21.481231     22.04811    11020.575    3456.1253    3276.0948    2721.4842    267.52313   -635.69394     64.65765   -5222.8651 
 9505000    240.33753   -6317.9299   -5699.6762   -6317.9299            0    2583.7395    23.604123    21.508892     21.77446    11054.861    1784.3304      3425.88     2541.008   -404.18704    339.99988    240.73139   -5283.1159 
 9506000     238.6641   -6293.4841   -5679.5353   -6293.4841            0    2558.0629    23.663001    21.654813    21.640828    11089.147     1070.956    2546.9962    4056.2364   -77.370733   -202.52933   -651.38433   -5265.8355 
 9507000    231.29987   -6310.5749   -5715.5701   -6310.5749            0    2611.5342    23.364811    21.522068    22.015299    11070.592    2565.2218    3359.9303    1909.4505   -473.99616    290.96778   -904.33547   -5293.9294 
 9508000    251.26598   -6336.1274    -5689.761   -6336.1274            0    4379.0868    23.352746    21.517609    21.843757    10976.385    3854.7961    5017.4339    4265.0304   -417.14143   -680.96164    62.183549   -4988.7598 
 9509000    260.18132   -6318.1681   -5648.8675   -6318.1681            0    4012.1667    23.537525    21.487423    21.656677    10953.098    2092.1599    5156.0092     4788.331     1326.348    847.90913    166.61409   -5007.9652 
 9510000     245.4084   -6311.7695   -5680.4714   -6311.7695            0    3797.4173    23.442005    21.518885    21.842825    11018.522    4633.3569    3750.0554    3008.8397   -1412.3293    49.938141    113.24658   -5070.2498 
 9511000    242.56556   -6319.9503   -5695.9652   -6319.9503            0    1548.4267    23.251978     21.58192    22.121714     11101.17    3249.0036    1679.3835   -283.10701   -657.02066   -365.82835   -674.26131   -5445.2762 
 9512000    243.10508    -6289.941    -5664.568    -6289.941            0     1982.616    23.655775     21.38066    21.953984      11103.8    2136.3214    2671.6891    1139.8376   -854.91495    750.08668   -615.26699   -5343.5081 
 9513000    251.72181    -6322.975    -5675.436    -6322.975            0    4088.8638    23.303539    21.779831    21.588503    10957.183    4658.5868    2440.0721    5167.9324   -724.15971     554.6098    528.48069   -5022.0385 
 9514000    235.44347   -6331.9463   -5726.2823   -6331.9463            0    4429.5764    23.494347     21.36959    21.851923    10971.076    4893.3219     5113.432    3281.9752   -663.26699   -817.28193    146.13904   -5017.5417 
 9515000    251.20452   -6336.0548   -5689.8465   -6336.0548            0    2900.5623    23.266709    21.636938    21.938859    11044.468    2864.4959    3022.6887    2814.5024      51.6668    368.22906    641.57311   -5222.6464 
 9516000    249.27121   -6332.4707   -5691.2357   -6332.4707            0    3892.2129    23.607938    21.493567    21.619657     10970.22    2614.9607    4535.0549    4526.6233     1116.013    112.14134   -664.55395   -5068.5229 
 9517000    244.81046   -6321.1853   -5691.4253   -6321.1853            0      4414.86    23.394221    21.535129    21.785842    10975.654    5732.1571    4349.0579    3163.3651    111.19481   -1032.9801   -860.84455   -4984.7445 
 9518000    246.18548   -6366.1073   -5732.8102   -6366.1073            0    2604.8732    23.309286    21.681963    21.862248    11048.985    2917.9409     2777.873    2118.8057   -994.73332     579.9199   -523.65649   -5313.0658 
 9519000    246.37336   -6334.7226   -5700.9421   -6334.7226            0     4078.538    23.560938    21.228297    21.930662    10968.809    3203.8589    5642.4489    3389.3062   -605.36253    534.00532   -1519.6126   -5048.5032 
 9520000    238.46474   -6318.2106   -5704.7746   -6318.2106            0     3511.121    23.233578     21.73102    21.772453    10992.679    3673.9771    2665.6346    4193.7513   -20.846739    589.54461   -250.12542   -5141.8824 
 9521000    245.15279   -6362.9161   -5732.2755   -6362.9161            0    2786.2299    23.586181    21.455847    21.782541    11023.306    2653.4328     3391.727      2313.53    315.51659    1119.6217    189.88599   -5284.3511 
 9522000    251.92139      -6336.3   -5688.2476      -6336.3            0    2015.3391    23.372534    21.618127    21.882523    11056.591     2224.998    1344.8692      2476.15   -76.086134    598.57532   -340.18394   -5363.2761 
 9523000    246.92625   -6347.1394   -5711.9367   -6347.1394            0    1364.9522    23.475895    21.607033    21.884968    11101.028    120.05919    1633.5546    2341.2428   -198.02496    549.24258    323.15013   -5490.9548 
 9524000    252.15783   -6274.8145   -5626.1538   -6274.8145            0    3670.8228    23.451788     21.41379    21.980872    11038.611     5155.785     3011.189    2845.4944   -120.16161    73.878615   -195.43971   -5035.1997 
 9525000    253.82562   -6312.4139   -5659.4629   -6312.4139            0    4198.3065    23.178439    21.691901    21.848877    10985.275    4136.7461     4420.259    4037.9143   -267.52179     1447.752   -237.09218   -4986.8566 
 9526000    254.13728   -6311.0631   -5657.3105   -6311.0631            0    3501.6392    23.546604    21.367553    21.845633    10991.266    2967.7419    3771.2432    3765.9325    485.88667    94.003375   -381.22673   -5096.0105 
 9527000    245.61274   -6309.9439   -5678.1201   -6309.9439            0     2554.799    23.253697    21.761064    21.864403    11063.939    3019.6042    2111.1816    2533.6113     1955.069   -919.11459    -504.4558   -5265.8874 
 9528000    241.38374    -6353.449    -5732.504    -6353.449            0    2095.6183    23.599048    21.388977    21.923684    11066.188    1772.6761    2168.4865    2345.6923   -229.56516    480.38564    1761.4754   -5394.2943 
 9529000     240.7601   -6337.0808   -5717.7401   -6337.0808            0    2791.8089    23.198469    21.695786    21.878347    11011.569    3956.3461    2053.9873    2365.0931   -286.71892    11.656465    306.36739   -5269.3967 
 9530000    251.61947   -6303.8942   -5656.6185   -6303.8942            0    3259.2337    23.520856    21.538913    21.876825    11083.099    2822.2276    3521.8281    3433.6453   -1640.9828   -356.93529   -341.43044   -5129.8102 
 9531000     256.0569   -6329.6077   -5670.9169   -6329.6077            0    2163.5325    23.553501    21.579857    21.828628    11095.081    2018.1786    2239.4416    2232.9774   -511.94349    15.133019    64.417721   -5320.8349 
 9532000    258.83462    -6349.545   -5683.7087    -6349.545            0    2238.6403    23.324347    21.658788    21.911328    11069.101    3505.0453    1185.3415     2025.534    177.23279    -271.7823    47.531393   -5322.3217 
 9533000    243.00451   -6321.3598   -5696.2455   -6321.3598            0    3656.8294      23.4845    21.369874    21.920461     11001.02    3496.4159    4890.0158    2584.0564   -789.95905   -957.10937   -617.33467    -5109.549 
 9534000    249.10574   -6354.8608   -5714.0514   -6354.8608            0    3636.0503    23.318744     21.64497      21.8083     11007.38    3107.3885    4392.7077    3408.0547    301.98153    391.39265   -802.54272   -5130.3514 
 9535000     246.0898   -6352.9696   -5719.9186   -6352.9696            0    4994.1057    23.746283     21.35527    21.590029    10948.483    3212.0129     4847.721    6922.5832   -344.45273   -406.19583   -835.04488   -4922.4978 
 9536000    237.29711   -6326.7964   -5716.3641   -6326.7964            0     3551.735    23.374442    21.512812    21.872984     10998.83    2790.9211    4670.9521    3193.3318   -158.94736   -33.140954   -542.07351   -5146.6422 
 9537000    251.17565   -6331.7026   -5685.5686   -6331.7026            0    4061.5011    23.407493    21.493445    21.850362    10993.084    4339.6786    2753.2646    5091.5603    791.16849   -1225.8671    1549.4566   -5034.4171 
 9538000    249.55711   -6337.2523   -5695.2819   -6337.2523            0    3524.0514    23.460462    21.452713    21.866405    11005.155    3455.6884    3533.2367    3583.2291    -108.1041    553.95507    1045.5657   -5129.6755 
 9539000    251.65931   -6333.4392   -5686.0609   -6333.4392            0      4233.55    23.205889    21.662136    21.841513    10979.491    5490.5477     3398.127    3811.9753    443.69811   -1612.0316   -410.66459   -5008.1653 
 9540000    235.17888    -6312.572   -5707.5886    -6312.572            0     4036.154    23.484555    21.433505    21.872063    11009.441    4407.6447    3950.6878    3750.1296    -419.2817   -376.86652   -173.21117   -5059.5381 
 9541000    256.90497   -6382.0986   -5721.2263   -6382.0986            0    1614.3496     23.48298    21.685927    21.703913    11052.722    1452.9642    1574.0837     1816.001    1222.8409   -867.83731   -565.14849    -5461.005 
 9542000    235.57207   -6312.4845   -5706.4897   -6312.4845            0    4564.7956    23.567717    21.494225    21.676512    10980.666    3676.8702    5005.2582    5012.2582   -507.91132    -267.9285    865.34761   -4975.4753 
 9543000    256.40386   -6343.0581   -5683.4748   -6343.0581            0    4085.3249    23.352047    21.577389    21.804942    10986.992    4047.8706    3881.3184    4326.7856    517.89871   -550.70318   -14.339575   -5028.8669 
 9544000    246.49622   -6322.4625    -5688.366   -6322.4625            0    4308.0732    23.268232    21.527524    21.837744    10938.688     4873.546    4617.6255    3433.0482    471.56541   -304.63864    649.98003   -5001.1011 
 9545000    233.63376   -6354.7075   -5753.6989   -6354.7075            0    4004.3718    23.564733     21.39911    21.756906    10971.231    2805.0978    4761.5856    4446.4322    1416.8047   -275.43535    324.34593   -5112.9828 
 9546000    244.31435   -6316.8797   -5688.3959   -6316.8797            0    3573.3222    23.320456    21.636225    21.881539    11040.694    3407.6567    2993.3526    4318.9572    217.26109    562.13502    467.15444   -5113.0296 
 9547000     234.0314   -6322.0359   -5720.0043   -6322.0359            0    4081.8137    23.415759    21.555912     21.80287    11004.956    4268.6028    3989.6801    3987.1582    124.29859   -976.87203   -1301.6821   -5064.8896 
 9548000    249.10024   -6320.8636   -5680.0684   -6320.8636            0    3303.2577    23.612019    21.592681    21.623855    11024.853    2768.8922    3666.6122    3474.2687   -749.56132   -152.83685    64.264774   -5148.9503 
 9549000    256.03773   -6329.6906   -5671.0491   -6329.6906            0    4097.9398     23.33388    21.557311    21.833525    10982.606    4024.3424    4280.0441    3989.4328   -184.09872   -535.48792    856.09638   -5014.6819 
 9550000    249.89476   -6327.9793   -5685.1402   -6327.9793            0    4653.8204    23.216239     21.38596    22.045668    10945.708    5987.4352    4897.2724    3076.7537   -481.96803     49.11241    753.79133   -4942.2419 
 9551000    247.93818    -6300.936   -5663.1302    -6300.936            0    2859.8378     23.50889     21.58752    21.775779    11051.178    2988.1331     2354.232    3237.1482      372.683    285.56648    406.79021   -5202.2099 
 9552000    241.75046   -6349.0129   -5727.1246   -6349.0129            0     2107.352    23.435335    21.572751    21.904684    11074.234    2484.3623    2087.2644    1750.4291   -140.87944    238.15904    -619.9699   -5386.7738 
 9553000    243.26304    -6354.599   -5728.8197    -6354.599            0    2918.4425    23.336677    21.537778    21.954538    11034.793    2895.8323    2521.0875    3338.4077    1033.4873    410.41313    272.32109   -5259.1514 
 9554000     255.6133   -6338.4314   -5680.8817   -6338.4314            0    3064.0037    23.531911    21.509132    21.752661     11010.13     1630.871     3517.918    4043.2221   -630.75758    652.86999   -121.20549   -5188.8902 
 9555000    251.86052   -6321.9479    -5674.052   -6321.9479            0    4537.6387    23.291383    21.437355    21.963461     10966.48     4715.841    5750.1679    3146.9072   -573.63808   -310.53836    -177.0626   -4948.3254 
 9556000     245.5284   -6284.8641   -5653.2572   -6284.8641            0    2740.0848    23.413024    21.542534    21.929183    11060.551    2358.2184    2847.0758    3014.9602     905.9527    1410.3492    1101.5656    -5211.263 
 9557000    246.45782   -6331.2476   -5697.2498   -6331.2476            0    2350.3814     23.46495    21.560387    21.837868     11048.07     1765.748    2686.8539    2598.5424    129.62634    586.92994    764.63015   -5318.5452 
 9558000     254.1169   -6352.8944   -5699.1941   -6352.8944            0    4373.8546    23.235354    21.591657    21.832508    10953.147    5452.1932    3845.0742    3824.2964   -588.54469   -368.09155   -517.66211   -5000.5128 
 9559000    249.29961   -6326.4558   -5685.1478   -6326.4558            0    3576.1277    23.556164    21.467691    21.765964    11006.971    3457.3286    2899.2021    4371.8524    -421.0649    203.91617    -308.1284   -5111.0885 
 9560000    244.75022   -6361.6884   -5732.0834   -6361.6884            0    895.56946    23.432904    21.726023    21.902859    11150.829    22.052112    1915.6101    749.04618    445.56051    381.22962   -342.07794   -5586.4428 
 9561000    249.58029   -6335.6428   -5693.6127   -6335.6428            0    2443.9676    23.474592    21.575423    21.874981    11079.115    3069.8452    1654.0195    2608.0379    663.21723    215.25445    1563.5809   -5298.7225 
 9562000    249.31427    -6316.852   -5675.5062    -6316.852            0    3024.7836    23.492553    21.464029    21.898478    11042.194    3163.2887    3303.1523    2607.9099    845.76944   -716.82845    464.81472   -5188.3979 
 9563000    262.22874   -6318.8668   -5644.2994   -6318.8668            0    3228.8398    23.396785      21.7035    21.824096    11082.104    2816.3241    1775.1671    5095.0283    166.49433   -79.082755   -720.36639   -5122.4507 
 9564000    240.16138   -6319.0269   -5701.2264   -6319.0269            0     3707.074     23.60542    21.363733    21.776311    10981.792    3363.4891    4297.7519    3459.9812   -981.88601   -922.43147    375.12726   -5107.5082 
 9565000    231.97969    -6338.408   -5741.6544    -6338.408            0    2726.9945    23.401075    21.499827    21.958086    11047.532    1669.0074     3328.835    3183.1412   -15.017773    994.68185    1004.0043   -5302.2894 
 9566000     248.1345    -6299.866   -5661.5551    -6299.866            0     4424.834    23.361266    21.524242     21.95028    11037.337    3840.3514    4974.5977    4459.5527    1404.6296   -873.06134   -649.12735   -4949.2974 
 9567000    238.81393   -6349.0761   -5734.7418   -6349.0761            0    3596.0299    23.533757    21.415988    21.787785    10981.015    4268.0446    3215.1069     3304.938    -169.3558     703.7311    521.43062    -5158.849 
 9568000    240.21373   -6341.3237   -5723.3885   -6341.3237            0    2640.8544    23.180979     21.92025    21.693221    11023.039    2960.6171   -315.55703    5277.5032   -205.05217    1010.0888    2134.1707   -5298.8455 
 9569000    236.95607   -6362.9083   -5753.3533   -6362.9083            0    3346.4255    23.548439    21.264459    21.924069    10978.364    2423.1344    4508.8672    3107.2748    9.7967281   -609.19117    -364.1422   -5217.5632 
 9570000    243.88058   -6328.1945   -5700.8266   -6328.1945            0    3442.1276    23.289054    21.605771     21.85005    10994.464     5155.333    2247.1395    2923.9104    67.036717   -434.51369    -341.0654   -5148.9056 
 9571000    249.80866   -6334.3196    -5691.702   -6334.3196            0    1777.9341    23.495271    21.619929     21.84862    11098.358    3067.3273    376.10356    1890.3714   -1035.6982   -231.30422   -465.00268   -5403.9289 
 9572000    256.83226   -6294.6142   -5633.9288   -6294.6142            0    3133.2714    23.588714     21.52055    21.779981    11056.435    3579.1524    3155.1986    2665.4633    214.43916    617.74192   -842.75765   -5128.6989 
 9573000    247.18141   -6366.5033   -5730.6441   -6366.5033            0    3425.8699    23.288523    21.654417      21.7905    10988.936    3939.8379    2853.5334    3484.2385   -432.06598    576.53532    129.63529   -5181.6061 
 9574000    236.32046   -6311.5742   -5703.6542   -6311.5742            0    3604.1539    23.518324    21.371674    21.869608    10992.233    2856.8382    5526.0717    2429.5517     149.7384   -1150.3645    -556.4857   -5125.8707 
 9575000     249.7259   -6335.0172   -5692.6125   -6335.0172            0    4430.7366    23.435193    21.609285    21.655251    10966.604    3917.6377    3827.9302    5546.6419    669.00924   -591.77644    348.58579   -4983.9753 
 9576000    260.93466   -6372.1067   -5700.8682   -6372.1067            0    1647.6765    23.471889    21.621718     21.80634    11066.773    1982.8769    948.05352    2012.0992    510.49763   -387.52225    580.96542   -5434.9372 
 9577000    239.64031   -6339.9261    -5723.466   -6339.9261            0    1824.7332    23.576845    21.527681    21.880486    11105.545    661.03284    2229.6596     2583.507    1238.1604   -60.118461   -1027.0977   -5427.9268 
 9578000    248.55272   -6301.7136   -5662.3269   -6301.7136            0    3503.6511    23.353651    21.670223    21.842896    11054.227     4832.026    1984.8818    3694.0455     362.1206   -498.39127    62.561549   -5097.4873 
 9579000    240.06518   -6344.0859   -5726.5328   -6344.0859            0    4248.9598    23.555325    21.445598    21.729998    10977.083    3316.5376    4965.9375    4464.4042    690.47299    107.11305    216.46539    -5046.319 
 9580000    248.97131   -6294.5333   -5654.0698   -6294.5333            0    4598.6815    23.392701    21.664497    21.651409    10972.742     4655.298    4395.4187    4745.3278    666.10198    4.6578487   -161.36272   -4918.1603 
 9581000    242.85766   -6338.1391   -5713.4026   -6338.1391            0    2899.3485    23.442294    21.462938    21.941804    11039.811    3364.9172     2923.015    2410.1132    28.140288   -275.41973   -596.14597    -5246.595 
 9582000    242.62042   -6338.0476   -5713.9213   -6338.0476            0    3834.0582    23.319393     21.48855    21.988543    11018.458    5442.7289    4238.2431    1821.2025    556.94147   -744.71881   -774.01385   -5097.8154 
 9583000    246.28084   -6335.3487   -5701.8062   -6335.3487            0    3027.9059    23.426875    21.682375    21.703614    11024.357    2501.3178    1950.5222    4631.8777    56.829013   -1410.1957   -125.21853   -5214.9827 
 9584000    259.15891   -6315.3213   -5648.6508   -6315.3213            0    2172.4683    23.584296     21.54225    21.825449    11088.612    1350.0528    2538.4096    2628.9423    743.41092    104.91565    231.26266   -5297.3279 
 9585000    241.64701   -6337.5416   -5715.9193   -6337.5416            0    4510.5954    23.307271    21.502399    21.835704    10943.231    4986.7737    3417.8616    5127.1508    764.58452   -577.42148    624.28114   -4996.0473 
 9586000    247.97256   -6355.7402   -5717.8459   -6355.7402            0    3447.8531    23.296355     21.46255    22.106537    11053.251    3115.9404    3665.5809     3562.038   -540.51714   -360.69699    1834.4267   -5162.0509 
 9587000    231.00361   -6317.9415   -5723.6988   -6317.9415            0    3736.9302    23.496289    21.488199    21.741596    10977.178    4092.3942    3834.6941    3283.7024    336.58836   -1065.2328   -568.30631   -5125.4504 
 9588000    243.54877   -6310.7088   -5684.1944   -6310.7088            0    2627.7195    23.444817    21.686128    21.833303    11100.648    3922.0864      2558.61    1402.4621    245.23376   -639.17449   -945.80979   -5258.7888 
 9589000    239.29602   -6370.7784   -5755.2039   -6370.7784            0    2551.7362    23.587011    21.373623    21.837272     11009.04    568.69749    3617.8881    3468.6232    991.77341    707.27085    277.66837   -5345.5085 
 9590000    247.31503   -6358.3638   -5722.1609   -6358.3638            0    3865.8297    23.274137    21.469742     21.95166    10969.019    5194.0382    4236.3801    2167.0709    129.77633    92.958304   -542.71269   -5103.7369 
 9591000    249.72338   -6374.3065   -5731.9083   -6374.3065            0    2993.2937    23.417383    21.548644     21.76023    10980.491    2549.5969    2520.8389    3909.4452   -59.937506    219.35521    517.39104   -5252.5646 
 9592000    239.53652   -6313.2789   -5697.0858   -6313.2789            0    2856.0428    23.542158    21.691958    21.637824    11049.907    1992.1412    2329.3022     4246.685    -1559.506     94.06678   -447.60871     -5236.83 
 9593000    244.83792   -6330.2976    -5700.467   -6330.2976            0    3023.6785    23.330076    21.587146      21.9312    11045.205    2766.0181    2865.8677    3439.1496   -339.89783    103.46698    44.244856   -5213.4038 
 9594000    242.28693   -6316.8384     -5693.57   -6316.8384            0     3340.627    23.378588    21.519368    21.895444    11015.433    3833.5758    3261.6475    2926.6576   -237.60502   -519.22803   -472.49558   -5156.9023 
 9595000    238.91096   -6356.4257   -5741.8418   -6356.4257            0    3987.1784     23.42597     21.51715    21.764018    10970.374    3837.0013    2610.9722    5513.5618    362.81369   -675.40613    800.73293   -5103.9265 
 9596000    249.68192   -6316.3489   -5674.0574   -6316.3489            0    4070.9514    23.455534    21.455168    21.839322    10990.473    2732.0051     5023.192    4457.6572    248.26121    528.76505   -933.00102   -5021.5459 
 9597000     239.6152   -6320.7121   -5704.3166   -6320.7121            0    3772.9648    23.250754    21.539942     22.03314    11034.635    3820.0943    4451.7101      3047.09   -330.86281      2255.55   -1099.1956   -5097.1378 
 9598000    228.58299   -6331.3062   -5743.2904   -6331.3062            0    3437.7781    23.540704    21.485442    21.793025    11022.529    3842.9114    3658.8066    2811.6162    385.84669    527.25267   -1549.4852   -5190.6598 
 9599000    237.48055   -6312.1989   -5701.2947   -6312.1989            0    1342.4639    23.394983      21.7106    21.857863    11102.026    1381.2872    774.99458      1871.11    492.92338    814.11004    554.96719   -5483.9341 
 9600000    238.49443   -6336.1691   -5722.6567   -6336.1691            0    4882.3592    23.384715    21.417175    21.834211    10935.327    3765.5064    6266.7331    4614.8381    -650.3965   -279.35696    439.28651   -4944.0155 
 9601000    236.23758   -6331.7009   -5723.9941   -6331.7009            0    5198.4464    23.449659    21.551577    21.605805     10919.08    3718.0214    6225.3713    5651.9464   -315.96224   -298.66508    493.02713   -4896.1749 
 9602000    250.32187   -6342.9951   -5699.0573   -6342.9951            0    2717.7967    23.311853    21.732164    21.852451    11070.823    3078.8242    3199.6031    1874.9628   -247.81719    178.84507   -1168.8649   -5260.2511 
 9603000    245.99827   -6303.1895    -5670.374   -6303.1895            0    2737.5155    23.528618    21.432136    22.021431    11104.715    1828.5241    2685.0965     3698.926    1429.1885   -340.62478   -280.83649   -5227.0309 
 9604000    247.99995   -6334.5449   -5696.5801   -6334.5449            0    2962.9447    23.393295    21.570317    21.840678    11020.823    2968.2382    2983.8619     2936.734    1073.2703   -181.03772   -65.099367   -5220.3537 
 9605000    241.23492   -6302.3397   -5681.7776   -6302.3397            0    3709.2478    23.402434    21.467144    21.963067    11033.881    3299.6879    4721.5752    3106.4804   -951.55976     609.7799    153.09866   -5084.8934 
 9606000    240.31905   -6334.0892   -5715.8831   -6334.0892            0    4252.0671    23.378249    21.517037    21.787214    10959.637    4768.2007     4992.764    2995.2365   -361.42087    415.74846   -684.88645   -5036.2537 
 9607000    248.90883    -6352.225   -5711.9222    -6352.225            0    3072.0298    23.456547    21.573906    21.774805    11019.126    1540.4171    3937.6118    3738.0606    26.530551    1136.2262   0.67383801   -5218.2389 
 9608000    242.72442   -6329.2186   -5704.8249   -6329.2186            0    2694.0531    23.567411    21.402021    21.912959    11052.682    2248.1019    3578.5341    2255.5232   -865.68585    18.383675   -659.08544    -5270.565 
 9609000    246.55688     -6352.33   -5718.0774     -6352.33            0    2042.8139      23.2464    21.603364    22.028097     11062.52    3419.9962    2052.9388    655.50679   -74.267653    576.93813    317.11335    -5388.499 
 9610000    236.60319   -6322.9084   -5714.2611   -6322.9084            0    2912.8233    23.528892    21.490919    21.856841    11052.076    2197.2053    3563.6993    2977.5652    597.43134   -580.91027   -44.692048    -5244.763 
 9611000    234.48445    -6299.681    -5696.484    -6299.681            0    2608.7619    23.442156    21.656442    21.788936    11061.669    3378.0757     1870.373     2577.837   -731.91114    446.75517   -448.86987   -5275.6304 
 9612000     250.1169   -6342.3606   -5698.9501   -6342.3606            0    2938.6893    23.444274    21.497087    21.922956     11048.81    3133.9669    4242.6229     1439.478    297.07577    -402.2765   -2093.2756   -5225.4227 
 9613000     244.4073   -6321.7122   -5692.9893   -6321.7122            0    4705.1059    23.429952    21.439474    21.809416    10955.433    5543.9616    4881.7504    3689.6056   -416.27865   -418.42743   -980.96031   -4941.2369 
 9614000    245.63881   -6314.7133   -5682.8224   -6314.7133            0    4894.8546    23.362542     21.58922     21.70503    10947.563    4863.8014    4537.4584    5283.3041    608.77304    838.62768    148.67743   -4901.3149 
 9615000    256.92326   -6345.9361   -5685.0167   -6345.9361            0    2758.4531    23.516452    21.462154    21.910549    11058.555    1379.0548    2846.0609    4050.2436    160.98703    767.10208     1884.695   -5240.1398 
 9616000     241.1818   -6364.7867   -5744.3612   -6364.7867            0    2091.7849    23.425565    21.510872    21.954752    11063.095    1798.3193    1721.5247    2755.5106   -831.89316    235.94098    1083.4636   -5406.8645 
 9617000    235.36715   -6370.5082   -5765.0406   -6370.5082            0    3228.7387    23.364676    21.695733    21.715164    11007.716    3771.5927    2119.6598    3794.9634    878.15192   -1143.0152   -842.51085    -5246.711 
 9618000    237.11799   -6346.3172   -5736.3456   -6346.3172            0    4324.0232    23.439962    21.437121    21.825403    10966.944    4895.7574    4313.6341     3762.678    1091.2192   -1852.3815    354.11157   -5044.7543 
 9619000    250.24178   -6346.9047    -5703.173   -6346.9047            0     4271.744     23.40258    21.517845     21.79564    10975.698    5721.3375    3565.3496    3528.5449   -394.38019    29.355442   -753.32834    -5019.398 
 9620000    254.69655   -6363.9905   -5708.7991   -6363.9905            0    1943.8895     23.45993    21.523748    21.942238    11079.637    1936.0556    2995.6656    899.94734    626.60811   -409.06439   -674.46155   -5394.6955 
 9621000    240.00991   -6330.3464   -5712.9356   -6330.3464            0     2808.622    23.555374    21.604204    21.735158    11060.915    1900.6566     2362.293    4162.9165    316.57807    587.97176    74.645064   -5259.8708 
 9622000    236.71997     -6267.15   -5658.2023     -6267.15            0    4871.2668    23.399768    21.697647    21.624132    10979.002    6425.5483    2979.2365    5209.0155    351.04349   -1546.9823    1495.9857   -4878.2273 
 9623000    240.35965   -6330.4077   -5712.0971   -6330.4077            0    3987.2233    23.444027     21.38111    21.887983    10971.556    4618.4856    3810.8835    3532.3009    366.91762   -124.17115    124.41706   -5074.1059 
 9624000    256.49793   -6352.9037   -5693.0784   -6352.9037            0     3771.244    23.270231    21.603297    21.902828    11010.852    4358.5618    2530.4138    4424.7563    805.16397    -61.22624    677.48407   -5087.4846 
 9625000    246.19476    -6304.274    -5670.953    -6304.274            0      4800.76    23.466487    21.591103     21.58797    10937.919    4568.9313    3485.9637    6347.3851    371.89623   -696.11636    459.15371   -4905.1438 
 9626000    248.61903   -6340.7843   -5701.2269   -6340.7843            0      4062.11    23.428016    21.525306     21.85592    11021.836    5408.6483    3299.9995    3477.6822   -536.87396   -845.72017    353.48133   -5048.2746 
 9627000    248.89039   -6346.9002   -5706.6449   -6346.9002            0    2247.7459    23.345352    21.621892    21.934087    11071.684    3648.9572    2055.1051    1039.1754    -73.34368    105.30138    494.30816   -5343.7032 
 9628000    246.19821    -6337.121   -5703.7911    -6337.121            0    3093.3159    23.586766    21.448343    21.815841     11036.57    2480.9919    3856.3772    2942.5786    794.99477   -281.70932   -181.88896   -5205.9001 
 9629000    242.23207   -6274.6745   -5651.5473   -6274.6745            0    3713.4116    23.313628    21.493428    22.010544    11029.259     4585.304    4810.9118     1744.019    1634.7085    258.77629   -2036.0391   -5054.2435 
 9630000    236.52831   -6361.0095   -5752.5548   -6361.0095            0    2362.4241    23.593367    21.541607     21.72291    11040.431    823.73383    2244.8142    4018.7243    1375.4936    84.696011     394.4153    -5372.173 
 9631000    238.84379    -6363.845    -5749.434    -6363.845            0    2643.7973    23.389627    21.624973    21.738254     10995.21    2944.5871    1588.2039    3398.6009   -98.468739    552.41855   -345.72541   -5325.4908 
 9632000    253.90894   -6323.8974   -5670.7321   -6323.8974            0    3720.7575    23.381323    21.515908    21.958592    11046.717    4363.2406    3768.4715    3030.5602     1163.295   -1165.8502    281.89917   -5071.2993 
 9633000    245.69316   -6324.0858   -5692.0551   -6324.0858            0    2195.2365     23.55086    21.590425    21.797313    11083.347    1363.2215    2498.4128    2724.0752    1.9078179   -1918.4287     645.3565   -5337.2187 
 9634000    248.66171   -6378.8221    -5739.155   -6378.8221            0    3282.2329    23.432843    21.542739     21.75835    10983.781    3736.2326      3388.18     2722.286    651.50203   -2171.7569   -623.15136   -5213.3834 
 9635000    232.83517   -6335.1157   -5736.1614   -6335.1157            0    4573.1278    23.238508    21.562302     21.85133    10949.171    5220.8723    5161.2657    3337.2455    156.12582    104.31254   -920.80144   -5005.9133 
 9636000    251.76856   -6320.1253    -5672.466   -6320.1253            0    4085.3918    23.554678    21.349355    21.855241    10990.502    3710.3302    4185.8444    4360.0007    1366.3756    182.21107    845.93494   -5017.6382 
 9637000    248.45073   -6350.2482   -5711.1239   -6350.2482            0    4686.8804    23.341536    21.677453     21.60188    10930.228    3993.1812    4068.9483    5998.5117    203.90619    1348.1615   -396.49914   -4964.0062 
 9638000    247.78705   -6368.4222   -5731.0051   -6368.4222            0    2913.9954    23.672357    21.381191    21.747681     11007.44    2866.9683    2994.7476    2880.2703   -482.52663   -1097.3199    74.847888   -5263.2149 
 9639000    231.08393   -6311.0877   -5716.6384   -6311.0877            0    3826.4038    23.314221    21.596236    21.833175    10992.991    3548.7319    3518.0259    4412.4536     587.7513   -199.81924    379.82497   -5103.1836 
 9640000    241.12638   -6316.8639    -5696.581   -6316.8639            0    2866.2132    23.711953    21.378203    21.821896    11061.932    1050.1803    3717.9955    3830.4639   -878.04956   -12.863841    858.31818   -5234.1836 
 9641000     247.5713   -6362.2121     -5725.35   -6362.2121            0    2222.6383     23.19555    21.682257    21.954818    11041.778    3063.6451    1342.2998      2261.97    616.78378    274.52414    137.96743   -5367.4319 
 9642000    245.05012   -6334.7844   -5704.4079   -6334.7844            0    2526.9985    23.474989     21.53589    21.773324    11007.608    1937.2478    2774.6071    2869.1405    29.646167    680.21752   -98.596497   -5298.7371 
 9643000    247.04789    -6336.343   -5700.8274    -6336.343            0    2462.3395    23.627043    21.504227    21.776788    11064.379     3513.967    1607.1173    2265.9341    -543.8558     105.5085   -1162.1737   -5303.4978 
 9644000    238.82984   -6320.4755   -5706.1003   -6320.4755            0    4829.9721    23.155718    21.562607    22.010743    10989.912    6834.0515    3877.3535    3778.5113   -908.48236    497.99007   -508.91977   -4931.9688 
 9645000    254.01222   -6313.3347   -5659.9037   -6313.3347            0    4330.2416    23.425452    21.398925    21.920626     10988.36     4380.321    4099.6631    4510.7405   -665.26807    896.39432    224.63546   -4965.9654 
 9646000    247.30275   -6352.2832    -5716.112   -6352.2832            0    4137.4011    23.427936    21.617257    21.664738    10972.057    4107.2495    3720.4602    4584.4936    922.94153     386.9601    833.39467   -5054.0608 
 9647000    243.05649   -6353.9168   -5728.6688   -6353.9168            0    3563.2512    23.385152    21.560531    21.801916    10992.446    2971.3392    4570.2289    3148.1855   -722.01424   -1008.7305    981.04326   -5157.4314 
 9648000    240.44174   -6350.1493   -5731.6276   -6350.1493            0    2959.3017     23.36838    21.528345    21.924486    11029.826    3303.1532    2450.4979    3124.2539   -1371.0169   -428.60665    497.53432   -5255.5982 
 9649000    249.35994   -6308.3031   -5666.8398   -6308.3031            0    2979.2209    23.550574    21.606337    21.690225     11036.89    2519.3287    2783.9972    3634.3369    31.819194    261.93767    180.21795   -5187.2993 
 9650000    246.85528   -6359.5352   -5724.5151   -6359.5352            0    3428.8703    23.319931    21.504598     21.90251    10983.796    3841.8459    3521.4079     2923.357    343.36474   -343.56306    -79.40514   -5175.2532 
 9651000    248.06473   -6315.7406   -5677.6092   -6315.7406            0    3045.4865    23.421958     21.50581    21.950094    11056.442    4328.4021    2705.8205     2102.237    132.14487    -941.2341   -1058.0199   -5186.5341 
 9652000    242.46008   -6358.1131   -5734.3993   -6358.1131            0    2947.5276    23.652456     21.48733    21.665672    11011.104    1809.8933     3083.093    3949.5967    485.85524   -532.60598   -148.72309   -5261.0686 
 9653000    255.34193   -6326.5824   -5669.7309   -6326.5824            0    4175.9994    23.253412    21.590338    21.916943     11003.38    5821.3732    3216.5025    3490.1226   -142.35841   -405.56184   -718.60108   -4999.5957 
 9654000    243.84651   -6321.9329   -5694.6526   -6321.9329            0    4339.3677     23.43047    21.361531    21.887746    10955.051    4342.3834    5438.9282    3236.7915   -198.11688    140.06305   -108.28881   -5001.3597 
 9655000    247.09264   -6361.5779   -5725.9471   -6361.5779            0     2950.495    23.410333    21.605178    21.747927    10999.762    2187.1774    3125.7926    3538.5151    933.79645   -639.62174     686.8259    -5252.628 
 9656000    238.66521   -6360.0515   -5746.0998   -6360.0515            0     2224.931    23.525887    21.600075    21.768234    11061.766    1695.2764    1620.6113    3358.9051    761.40521   -848.01285    96.988415   -5387.1639 
 9657000    239.65397   -6339.7796   -5723.2844   -6339.7796            0    2269.9926    23.496559    21.530603    21.910907     11084.62    2569.7491    2834.8174    1405.4111   -1336.0842   -1016.8235   -845.80463   -5356.3223 
 9658000    242.00347   -6355.3768   -5732.8377   -6355.3768            0    3044.2144     23.47629    21.616558    21.707451    11016.023    3309.6485    1631.0074    4191.9874   -139.92115   -524.06827    299.09124   -5243.7621 
 9659000    251.08453   -6350.9363   -5705.0367   -6350.9363            0    4809.4627    23.327979    21.417783    21.872451    10928.211    4470.6841     5461.433    4496.2709     158.1726    340.54602   -80.067991   -4938.5201 
 9660000    246.38249   -6340.8524   -5707.0485   -6340.8524            0    4110.4245    23.322392    21.564907      21.8458     10987.24     4490.395    3133.1685      4707.71    1120.3973   -1026.7267    138.55455   -5048.4038 
 9661000    240.19455   -6352.5293   -5734.6435   -6352.5293            0    2499.1811    23.585797    21.596471    21.720212    11063.624    2488.7492    1221.4787    3787.3154    799.67634   -620.45822    599.06237   -5331.3966 
 9662000    243.70442   -6330.2871   -5703.3723   -6330.2871            0    1932.9608    23.529989    21.583965    21.888917    11116.735    1944.1912    1619.9173    2234.7738    400.62253   -575.88602    826.05715   -5389.9888 
 9663000    248.02925   -6344.2528   -5706.2127   -6344.2528            0    3654.8465      23.3622    21.578245     21.80307    10991.261    3994.7578    3582.0807    3387.7009   -565.07747   -400.44491    832.04805   -5120.3545 
 9664000    239.90224   -6345.0203   -5727.8864   -6345.0203            0     4469.528     23.49061    21.414004    21.807904    10969.987    4574.7539    5265.3884    3568.4419   -927.00681   -605.56967   -362.02889   -5012.8244 
 9665000    240.54365   -6321.3381   -5702.5542   -6321.3381            0     3205.029    23.307124    21.633167    21.884214    11034.172    4328.3768    2403.7865    2882.9236    689.85325   -2060.3151    351.33843   -5186.7943 
 9666000    254.11786   -6326.9764   -5673.2737   -6326.9764            0    2164.3298    23.448655     21.65126     21.78554    11060.364    2819.2564    962.29432    2711.4386   -1026.2851   -1800.1002    480.43816   -5324.1585 
 9667000    237.71908   -6330.3728    -5718.855   -6330.3728            0    3455.5453    23.482725    21.474133    21.844892    11015.749    3311.2659    3713.0323    3342.3378    203.18318   -15.197723    221.05606   -5163.7099 
 9668000    243.84801   -6298.2068   -5670.9227   -6298.2068            0    4332.7495    23.285587    21.684824    21.779535    10997.443    4200.5705    4838.7537    3958.9244     1039.252    566.99287    48.658382   -4976.0085 
 9669000    252.05105   -6283.5032   -5635.1173   -6283.5032            0    4545.6526    23.493126    21.339657    21.969116    11013.892    4777.8396    5196.6151     3662.503    909.51994   -349.63258    616.40783   -4904.9658 
 9670000    248.02661   -6343.9895   -5705.9562   -6343.9895            0    2663.9397    23.369112    21.681492    21.779103    11034.975     3114.138    865.69459    4011.9863    1106.1057     1004.006    732.12114   -5277.2383 
 9671000    238.15232    -6320.502   -5707.8697    -6320.502            0    3649.4725    23.497995    21.404015    21.901321    11015.301    3414.7692    4621.5312    2912.1173   -170.47424   -645.43357    242.80406   -5121.5933 
 9672000    239.55374   -6320.2973   -5704.0599   -6320.2973            0    3415.7793     23.39188     21.53482    21.908664    11036.269    3515.4647    4236.0589    2495.8144   -230.48665   -451.51141   -306.61221   -5154.2811 
 9673000    248.96222   -6364.6715   -5724.2314   -6364.6715            0    3611.4959    23.290893    21.660997    21.781045    10988.623     4696.973    2773.1558     3364.359   -635.15365   -1229.2506    134.52041    -5145.461 
 9674000    241.58348   -6342.9124   -5721.4536   -6342.9124            0    4316.0273    23.454853    21.440613    21.803782    10964.826    3412.2091    5457.8441    4078.0287    426.23519   -1293.2776    253.83827   -5031.2745 
 9675000    248.35925   -6339.0007   -5700.1116   -6339.0007            0     3298.961    23.300121    21.602109    21.834432    10989.963     3318.188    2243.1703    4335.5246   -543.03375    445.75784    543.39808    -5171.363 
 9676000    248.23961   -6357.5017   -5718.9204   -6357.5017            0    4808.1771    23.468617    21.274791    21.860633    10914.794    6111.3838    5532.1417    2781.0058    295.07214   -1491.1936    274.73089   -4953.5496 
 9677000    265.09897   -6341.4245   -5659.4735   -6341.4245            0    3073.0664     23.53245    21.670298    21.593313    11011.622    2322.2027    2583.2529    4313.7438    1575.0236    303.53651   -785.82382   -5165.9599 
 9678000    242.50364   -6314.7001   -5690.8743   -6314.7001            0     2788.966    23.359026    21.648093    21.807231    11027.445    3326.0606    2265.7448    2775.0925   -540.14394    1370.2446    155.03024   -5242.3417 
 9679000    235.22155   -6303.3528   -5698.2597   -6303.3528            0    2752.5753    23.634915    21.365089    21.852099    11034.481    2561.1208    4056.4119    1640.1932   -413.82477    158.85959   -1804.5032   -5255.2971 
 9680000    252.65045   -6345.8784   -5695.9505   -6345.8784            0    2802.4913    23.244016    21.834363    21.752724    11039.905    2552.5994    2548.1838    3306.6907    1979.5408     545.8872    199.50417   -5244.7335 
 9681000    251.56522   -6351.9775   -5704.8413   -6351.9775            0    4676.2518    23.478545    21.362804    21.830477    10949.459    4731.3134    5253.9992    4043.4426     575.9884    790.12047   -93.267606   -4958.1065 
 9682000     254.9619   -6330.2106   -5674.3367   -6330.2106            0    4054.2487    23.337906    21.556041    21.885665    11010.084    4113.2814    3689.3133    4360.1514    6.3177901   -588.98505    702.81393   -5023.3428 
 9683000    246.38013   -6362.4034   -5728.6055   -6362.4034            0    2105.4488    23.583739    21.643851    21.694481    11073.795    2029.1881    666.83625    3620.3222    295.65419   -481.47881    562.81862   -5388.5757 
 9684000     243.4924   -6348.6193   -5722.2499   -6348.6193            0    2469.7633    23.547946    21.532136    21.777943    11042.236     1553.596    3038.4684    2817.2255    674.28331    -418.0308     181.8007     -5324.52 
 9685000    238.78577   -6295.7505   -5681.4887   -6295.7505            0     3183.868    23.369135    21.630539    21.875374    11057.717    3974.0553    2730.6834    2846.8653    1506.9447   -649.04627    882.66238   -5168.0407 
 9686000    258.18047   -6345.0085   -5680.8549   -6345.0085            0    4254.9234    23.520469    21.477609    21.719955    10972.127    4036.8079    3016.3412    5711.6211    28.138569   -685.07429    583.58294   -4999.9939 
 9687000    234.37787   -6339.3297   -5736.4069   -6339.3297            0    3862.2251    23.315799    21.564378    21.820074     10970.93     5174.581     3858.558    2553.5362   -573.95653   -681.03965   -383.49416   -5118.4518 
 9688000    250.26231    -6316.159   -5672.3745    -6316.159            0    4066.9607      23.4035    21.494835    21.854843    10994.174    4648.5354    3373.1685    4179.1782    645.13139   -917.74389   -504.61535   -5020.2831 
 9689000    242.65469   -6365.8453   -5741.6309   -6365.8453            0    2575.9683    23.513093    21.552929    21.739243    11016.927    1594.0417    2760.1837    3373.6794    1244.6777   -330.09472    697.21304   -5327.7486 
 9690000    247.55902   -6286.5103   -5649.6798   -6286.5103            0     3241.328     23.55879    21.585281    21.747418    11059.064    2439.1361    2917.6082    4367.2397   -183.33486    856.97222    690.22765   -5126.9019 
 9691000    250.60218   -6320.7336   -5676.0747   -6320.7336            0    4931.9397    23.291129    21.526623    21.898987      10979.7    5242.3655    5557.9982    3995.4553   -22.647107    281.30573   -306.92114   -4886.3348 
 9692000    250.50241   -6331.1331   -5686.7309   -6331.1331            0    4874.0601    23.369718    21.368379    21.944158     10958.32    6324.9652    5037.6293    3259.5857   -763.02901   -751.70362   -874.40339   -4907.7788 
 9693000    249.98731   -6357.0851    -5714.008   -6357.0851            0      3925.46     23.45244    21.609299     21.62879    10961.272    2326.2634    4363.6276     5086.489    227.30979    1421.9581   -845.60521   -5086.4882 
 9694000    249.76972   -6341.5042   -5698.9868   -6341.5042            0    1822.2415    23.556014    21.448059     21.87197    11050.392    1459.7068    1625.8515    2381.1662    315.01923    761.79909    127.14087   -5405.3169 
 9695000    238.73479   -6296.3077    -5682.177   -6296.3077            0    3390.7736    23.427952    21.497627    21.944055    11052.022     3986.925    4366.8161    1818.5797   -21.957347    830.20236   -551.32576   -5135.6439 
 9696000    248.12081   -6350.0474   -5711.7718   -6350.0474            0    3357.6337    23.340721     21.74974    21.702225    11017.234    3014.9811    1989.8532    5068.0668   -342.21804    185.97264    1320.6542   -5172.2838 
 9697000    243.29211   -6328.0119   -5702.1578   -6328.0119            0    2396.1005    23.526166    21.489833    21.906039     11075.11    2697.6782    2123.5639    2367.0594   -108.56333   -1071.0794    235.94084   -5315.1417 
 9698000    255.76497   -6348.2422   -5690.3024   -6348.2422            0    3169.2927    23.234828    21.725144     21.85103    11029.962    4627.7579    2743.8158    2136.3043    -61.11648   -327.89752   -346.54362   -5180.4878 
 9699000    250.93687   -6329.2142   -5683.6943   -6329.2142            0    4272.8041    23.448002    21.442495    21.906536    11014.248    3588.8018    5143.1303    4086.4802    774.28667    67.136417    252.34089   -4997.3474 
 9700000    238.41669   -6328.0583   -5714.7458   -6328.0583            0    4473.5357    23.377757    21.512306     21.75748    10942.042    4058.1519     5497.231    3865.2242     292.0146    714.43563   -227.46246   -5000.8659 
 9701000    250.71591   -6338.8914     -5693.94   -6338.8914            0    4366.0645    23.473524    21.457309    21.786459    10973.375    3758.6564    4094.0849    5245.4524   -505.64933    937.32628    25.701826    -4995.215 
 9702000    252.38547   -6352.4729   -5703.2267   -6352.4729            0    3258.4005      23.4371    21.551963    21.846883    11035.199    2946.7163    3140.2445    3688.2408    1071.7378    12.723249    147.11845   -5178.8293 
 9703000    234.44341   -6368.6382   -5765.5468   -6368.6382            0     1368.246    23.449539    21.567048    21.977174    11114.677    2163.6733    1339.9941    601.07082   -1332.9246    183.64243   -459.87719   -5543.7594 
 9704000    243.14502   -6341.4642   -5715.9885   -6341.4642            0    3995.6276    23.404125    21.403405    21.943503    10992.115    3432.1045    5080.7029    3474.0755   -948.88324   -30.585383   -281.34639   -5075.4545 
 9705000    237.81126   -6337.4101   -5725.6552   -6337.4101            0    3150.0896    23.372042    21.575816    21.776275    10981.142    3639.0933    3405.6874    2405.4882   -1052.2957    680.58223     275.4422   -5221.1725 
 9706000    234.59668   -6344.9075   -5741.4218   -6344.9075            0    3478.4695    23.443927    21.409744    21.885293    10984.852    3328.8691     4319.231    2787.3084    10.996488    830.34033    586.34867   -5184.1612 
 9707000    242.71708   -6349.9073   -5725.5324   -6349.9073            0    3180.1676     23.35098    21.644365    21.809649     11022.97    4212.6249    2477.0885    2850.7893   -1214.2933    1213.2584   -1037.7067   -5214.2927 
 9708000    242.55299   -6321.7381   -5697.7854   -6321.7381            0    2490.3484    23.615235    21.491629    21.805967     11067.18    2766.5919    1715.9172    2988.5361   -636.62392   -63.229782   -495.76971   -5295.8345 
 9709000    250.82686   -6330.0175   -5684.7807   -6330.0175            0    2681.4499    23.419145    21.598267    21.797422    11025.418    4111.1467    1906.3406    2026.8625   -425.15265   -960.01436   -20.849872   -5253.6185 
 9710000    245.84836   -6336.3321   -5703.9022   -6336.3321            0    2728.5449    23.394437    21.578343     21.87728    11043.939    1926.7133     4152.888    2106.0335    1505.5724   -61.231865   -91.778902   -5264.4304 
 9711000    249.76845   -6332.7639   -5690.2497   -6332.7639            0    3353.9664    23.415786    21.409489    21.998588    11028.333    4691.2311    3847.5372    1523.1309    724.56327   -1084.2014    736.73185   -5150.8081 
 9712000    243.18639   -6349.8686   -5724.2864   -6349.8686            0    4070.6633    23.426966    21.596274    21.721364    10989.602    2939.6523    5115.2773    4157.0604   -79.808949   -634.84937   -329.77562   -5071.8728 
 9713000    239.74579   -6324.6947   -5707.9632   -6324.6947            0    3783.4708    23.481023    21.573267    21.733611     11009.43    2594.4796     3867.832    4888.1009   -503.10083   -185.44091   -752.50413   -5100.4845 
 9714000    254.06462   -6354.1343   -5700.5685   -6354.1343            0    3973.0323    23.226053    21.568305    21.959881    11000.727    5225.6628    3756.2045    2937.2297   -733.68306   -1332.2922   -124.20307   -5063.1578 
 9715000    241.77671   -6367.1402   -5745.1844   -6367.1402            0     4016.626    23.432598    21.495475    21.748878    10954.797    3851.4152    4670.0289    3528.4339   -3.8235949   -1389.4815    265.58371   -5103.4702 
 9716000    244.84115    -6340.405    -5710.566    -6340.405            0    4928.3481    23.413419    21.446375    21.824114    10958.608    3341.9349    5170.4773    6272.6323    1590.7784    161.65396   -347.90949   -4922.9172 
 9717000    242.52857   -6336.0174   -5712.1275   -6336.0174            0    2607.3507    23.407414    21.716338    21.748271    11055.154    2158.7857    2564.9081    3098.3583    2490.4747   -239.52048   -372.38502   -5291.7493 
 9718000    239.92424   -6297.4256   -5680.2351   -6297.4256            0    4029.5819     23.46332    21.522596    21.883697    11051.082    5266.3253    3489.5154     3332.905   -473.39392     -444.129   -413.86969   -5030.7926 
 9719000    248.19085   -6346.8052   -5708.3494   -6346.8052            0    4606.3416    23.483674    21.558142    21.668902    10970.193    4739.9383    5209.8484     3869.238   -304.81175    1102.8082   -511.98172   -4971.3853 
 9720000    234.47273   -6347.9858   -5744.8189   -6347.9858            0    3970.7271    23.430949     21.58395    21.728706    10988.912    3992.5539     4111.469    3808.1584    -535.2639   -131.80273    726.18828   -5108.4622 
 9721000    238.35834    -6331.771   -5718.6087    -6331.771            0    4121.8923    23.333654    21.389225    22.034051    10996.947    5815.2916    5121.4827    1428.9026   -1306.6239   -1561.5346   -933.59724   -5057.5429 
 9722000    252.00443   -6366.9349   -5718.6689   -6366.9349            0    3953.4473    23.254526    21.530616    21.929135    10979.573    5282.1649    3850.4408    2727.7363    504.10185   -653.70821    198.37563   -5085.6199 
 9723000     239.9455   -6341.7034   -5724.4582   -6341.7034            0    3841.2579    23.569849    21.626442    21.560656    10990.155    2897.6269    3463.5872    5162.5596    1073.6013    430.29611    939.03987   -5108.7809 
 9724000    257.40011   -6335.1658   -5673.0197   -6335.1658            0     4154.269    23.447527    21.448653    21.838228    10982.835    2373.6184    6654.6883    3434.5001    659.14402   -607.90849   -523.16844   -5007.6164 
 9725000    241.74306   -6338.9685   -5717.0992   -6338.9685            0    2833.3617    23.252357    21.542228    22.072595     11056.33    3778.1439    3110.0211    1611.9201    615.83135   -844.59757    -187.0814   -5260.2332 
 9726000    246.05673   -6344.1608   -5711.1949   -6344.1608            0    2212.4838    23.432698    21.615599    21.776346    11029.976    1513.1029    2098.0038    3026.3447    1352.6524    749.79102    108.74653   -5355.2928 
 9727000    257.78787   -6314.4536     -5651.31   -6314.4536            0    3330.0161    23.609847    21.453782    21.732642    11008.029    2717.5848    2769.3219    4503.1418   -557.83348    184.98632    565.95116   -5116.7065 
 9728000    248.13456   -6297.9167   -5659.6057   -6297.9167            0    2789.8795    23.271957    21.690826    21.954325     11082.28    2652.1462    1952.5358    3764.9566   -86.625273    945.35255   -564.21234   -5208.6951 
 9729000    248.44684   -6329.5321   -5690.4177   -6329.5321            0    2696.5069    23.496642    21.536508     21.92324     11093.94    3252.1889    2959.2119    1878.1199    525.94973   -489.69383    -1325.428   -5254.1398 
 9730000    246.96464   -6305.8394   -5670.5379   -6305.8394            0    2089.4107    23.629212    21.588977    21.745892    11093.243    1049.8431    2329.7284    2888.6605    450.59658    171.18072    251.11017   -5332.5056 
 9731000    256.58705   -6328.9112   -5668.8567   -6328.9112            0    4535.3802    23.224769    21.505307     21.91788    10947.012    5213.7514    5585.1358    2807.2533   -113.56458    275.21655   -94.857605    -4944.779 
 9732000    247.23866   -6333.1486   -5697.1422   -6333.1486            0    5175.2725    23.349938    21.400164    21.863324    10924.939    5205.4432    6010.7343    4309.6401    770.88907    308.25835     639.3323    -4872.571 
 9733000    242.77483   -6340.9211   -5716.3976   -6340.9211            0    4257.9421    23.401176    21.573351    21.697768    10953.939    4638.7632    3841.5575    4293.5055    743.26644   -153.10358    372.18402    -5036.183 
 9734000    239.36131   -6310.1369   -5694.3945   -6310.1369            0    3267.6351    23.219389    21.514745    22.188131    11084.285    4007.1134    3617.2008    2178.5911    83.560168   -293.79769    530.30275   -5166.1717 
 9735000    243.15641   -6334.9041   -5709.3991   -6334.9041            0    3673.3498     23.55094    21.524416    21.713739    11007.133     2155.439    4179.0672    4685.5434    665.39301   -354.08452   -44.265176   -5119.7245 
 9736000    243.32894   -6335.5373   -5709.5884   -6335.5373            0    4050.6715    23.504988    21.626481    21.589955    10974.825    4245.9402    2649.0435    5257.0308    645.87067   -742.09408    771.64237   -5061.2519 
 9737000    235.04408   -6327.6721   -5723.0355   -6327.6721            0     3103.388    23.458815    21.420629    21.991201    11050.635    2602.4343    3928.4476    2779.2821    837.81987   -511.64671   -441.78967   -5222.8867 
 9738000    244.21495   -6300.4385   -5672.2104   -6300.4385            0    3266.9091    23.332263    21.571624    21.915352    11030.321    4265.5315     2825.558    2709.6377    406.87576   -152.22014    551.14644   -5146.6761 
 9739000    246.70972    -6348.877   -5714.2313    -6348.877            0    2199.8955    23.653296    21.572308    21.663104    11053.732     1248.855    3100.6197    2250.2119    874.51166    18.597985   -294.44952   -5359.5919 
 9740000    252.66021     -6338.67    -5688.717     -6338.67            0    3335.4133    23.441566    21.568249    21.812219    11028.117    2000.4079    3247.0843    4758.7478    520.68239    219.21766    425.99656   -5152.2699 
 9741000    244.41004   -6343.1127   -5714.3828   -6343.1127            0     3750.411    23.229162    21.475311    22.016988    10983.251    4050.1473    5192.8523    2008.2333    1247.3337   -1198.7047   -1277.9614    -5113.644 
 9742000    238.82018   -6331.4118   -5717.0615   -6331.4118            0      1948.83    23.438386    21.591807    21.847552    11056.546    2655.1241    1429.2432    1762.1227    163.04574   -1421.3619    603.44817   -5402.8158 
 9743000    246.26127   -6323.2633   -5689.7712   -6323.2633            0    2428.2852    23.586607    21.577372    21.725908    11057.118    1724.3351    2613.0462    2947.4742    32.669601   -174.00085    622.86148   -5298.1939 
 9744000    239.22924   -6320.0087    -5704.606   -6320.0087            0    2536.1599    23.375573    21.587067     21.94235    11072.331    2658.7445    3337.5696    1612.1655    839.20409    141.85634    610.93321   -5295.0705 
 9745000    253.78809   -6309.5038   -5656.6494   -6309.5038            0    3450.7042    23.424936    21.509617    21.938078    11053.751    3890.6951    3364.7828    3096.6346   -1096.2969    363.55381   -159.41843   -5100.3696 
 9746000     236.7055    -6331.224   -5722.3135    -6331.224            0    3046.4662    23.578971    21.485251    21.742725    11014.866    596.63095    4497.2236    4045.5442    168.69858    2565.3601    639.34296   -5232.9276 
 9747000    242.04534   -6323.4335   -5700.7866   -6323.4335            0    4103.6946    23.316881    21.552717     21.82359    10967.274    3558.9901    5755.2365    2996.8572    234.88805    1324.4917    -952.0897   -5044.4153 
 9748000      249.026   -6330.8195   -5690.2153   -6330.8195            0    3657.1034    23.333907    21.508999    21.945031    11013.969    4022.6757    4882.4988    2066.1357    -697.4517    99.855298   -452.38593   -5102.7842 
 9749000    248.21662     -6357.13   -5718.6078     -6357.13            0    2528.1138    23.575119    21.539834    21.726181    11032.645    1826.9465    2162.5171    3594.8779   -638.30171   -104.11237    961.80748   -5311.8348 
 9750000    255.89671   -6308.1434   -5649.8647   -6308.1434            0     2946.657    23.330639    21.755065    21.840197    11085.201    3085.8874    2009.8865    3744.1971   -1308.5255     1016.029    975.73223   -5173.4897 
Loop time of 580.927 on 64 procs for 250000 steps with 1296 atoms

Performance: 74.364 ns/day, 0.323 hours/ns, 430.346 timesteps/s
99.3% CPU use with 64 MPI tasks x 1 OpenMP threads

MPI task timing breakdown:
Section |  min time  |  avg time  |  max time  |%varavg| %total
---------------------------------------------------------------
Pair    | 29.807     | 38.845     | 47.71      |  95.4 |  6.69
Bond    | 0.2724     | 0.27871    | 0.28822    |   0.6 |  0.05
Kspace  | 285.1      | 301.19     | 321.46     |  46.1 | 51.85
Neigh   | 4.5282     | 5.1629     | 6.2357     |  19.9 |  0.89
Comm    | 93.3       | 109.49     | 120.72     |  59.5 | 18.85
Output  | 1.4889     | 1.4907     | 1.506      |   0.2 |  0.26
Modify  | 114.6      | 117.88     | 120.38     |  14.7 | 20.29
Other   |            | 6.591      |            |       |  1.13

Nlocal:        20.2500 ave          28 max          13 min
Histogram: 2 3 12 3 10 10 14 4 4 2
Nghost:        2518.19 ave        2550 max        2483 min
Histogram: 3 3 4 6 12 11 9 11 4 1
Neighs:        6291.77 ave        8730 max        3975 min
Histogram: 2 3 12 3 10 15 9 6 2 2

Total # of neighbors = 402673
Ave neighs/atom = 310.70448
Ave special neighs/atom = 2.0000000
Neighbor list builds = 9173
Dangerous builds = 0

unfix		3
unfix		2
unfix		1

write_data	data.final.${pid}
write_data	data.final.0
System init for write_data ...
PPPM initialization ...
  extracting TIP4P info from pair style
  using 12-bit tables for long-range coulomb (../kspace.cpp:340)
  G vector (1/distance) = 0.36920196
  grid = 30 40 32
  stencil order = 5
  estimated absolute RMS force accuracy = 0.0040476038
  estimated relative force accuracy = 1.2189239e-05
  using double precision FFTW3
  3d grid and FFT values/proc = 5168 640
Last active /omp style is kspace_style pppm/tip4p/omp
WARNING: Not all mixed pair coeffs generated from mixing. Use write_data with 'pair ij' option to store all pair coeffs. (../write_data.cpp:312)

write_restart   restart.lmp.${pid}
write_restart   restart.lmp.0
System init for write_restart ...
PPPM initialization ...
  extracting TIP4P info from pair style
  using 12-bit tables for long-range coulomb (../kspace.cpp:340)
  G vector (1/distance) = 0.36920196
  grid = 30 40 32
  stencil order = 5
  estimated absolute RMS force accuracy = 0.0040476038
  estimated relative force accuracy = 1.2189239e-05
  using double precision FFTW3
  3d grid and FFT values/proc = 5168 640
Last active /omp style is kspace_style pppm/tip4p/omp
Total wall time: 0:09:44
