#include		in.partitions
include		in.temp
variable        temperature equal 125.71
variable	tempDamp equal 100.0
include		in.pressure
variable        pressure equal 5793.8
variable        pressureDamp equal 1000.0 # This is 1 ps
include		in.seed
variable        seed equal 745823

units		real
atom_style	full

read_restart	restart.lmp.${pid}
read_restart	restart.lmp.1
Reading restart file ...
  restart file = 30 Jul 2021, LAMMPS = 30 Jul 2021
  restoring atom style full from restart
  orthogonal box = (0.13330765 0.059544454 0.042850772) to (19.866693 19.940457 20.657147)
  4 by 4 by 4 MPI processor grid
  restoring pair style lj/cut/tip4p/long/omp from restart
  restoring bond style harmonic/omp from restart
  restoring angle style harmonic/omp from restart
  972 atoms
  648 bonds
  324 angles
Finding 1-2 1-3 1-4 neighbors ...
  special bond factors lj:    0        0        0       
  special bond factors coul:  0        0        0       
     2 = max # of 1-2 neighbors
     1 = max # of 1-3 neighbors
     1 = max # of 1-4 neighbors
     2 = max # of special neighbors
  special bonds CPU = 0.010 seconds
  read_restart CPU = 0.024 seconds
include 	in.setup
variable	out_freq equal 1000
variable	out_freq2 equal 10000
variable	out_freq3 equal 1000

timestep	2.0

neigh_modify    delay 7 every 1

include		in.tip4p
# This is TIP4P/Ice

# create groups ###
group ox type 2
324 atoms in group ox
group hy type 1
648 atoms in group hy

# set charges - beside manually ###
set group ox charge -1.1794
Setting atom values ...
  324 settings made for charge
set group hy charge 0.5897
Setting atom values ...
  648 settings made for charge

# ### TIP3P Potential Parameters ###
pair_style lj/cut/tip4p/long/omp 2 1 1 1 0.1577 8.5
pair_coeff 1 1*2 0.000 0.000
pair_coeff 2 2 0.21084 3.1668
bond_style  harmonic
bond_coeff  1 450 0.9572
angle_style harmonic
angle_coeff 1 55 104.52
kspace_style pppm/tip4p/omp 1.0e-5
pair_modify tail yes

thermo          ${out_freq}
thermo          1000
thermo_style    custom step temp pe etotal epair emol press lx ly lz vol pxx pyy pzz pxy pxz pyz enthalpy

restart 	${out_freq3} restart.lmp.${pid} restart2.lmp.${pid}
restart 	1000 restart.lmp.${pid} restart2.lmp.${pid}
restart 	1000 restart.lmp.1 restart2.lmp.${pid}
restart 	1000 restart.lmp.1 restart2.lmp.1


include         in.dump
dump            myDump all atom ${out_freq2} dump.water.${pid}
dump            myDump all atom 10000 dump.water.${pid}
dump            myDump all atom 10000 dump.water.1
dump            myDump2 all dcd ${out_freq2} dump.dcd
dump            myDump2 all dcd 10000 dump.dcd
dump_modify     myDump append yes
dump_modify     myDump2 append yes


variable natoms 	equal  "count(all)"                        # NUMBER ATOMS
variable H      	equal  "enthalpy/v_natoms"                 # ENTHALPY-per-atom
variable Vol      	equal  "vol/v_natoms"                 # volume-per-atom
fix AVG all 		ave/time ${out_freq} 1 ${out_freq} v_Vol v_H file vol_enthalpy.dat
fix AVG all 		ave/time 1000 1 ${out_freq} v_Vol v_H file vol_enthalpy.dat
fix AVG all 		ave/time 1000 1 1000 v_Vol v_H file vol_enthalpy.dat


timer           timeout 02:55:00 every 1000
New timer settings: style=normal  mode=nosync  timeout=02:55:00

fix 		1 all shake 1e-6 200 0 b 1 a 1
       0 = # of size 2 clusters
       0 = # of size 3 clusters
       0 = # of size 4 clusters
     324 = # of frozen angles
  find clusters CPU = 0.001 seconds
fix             2 all nph aniso ${pressure} ${pressure} ${pressureDamp}
fix             2 all nph aniso 5793.8 ${pressure} ${pressureDamp}
fix             2 all nph aniso 5793.8 5793.8 ${pressureDamp}
fix             2 all nph aniso 5793.8 5793.8 1000
fix             3 all temp/csvr ${temperature} ${temperature} ${tempDamp} ${seed}
fix             3 all temp/csvr 125.71 ${temperature} ${tempDamp} ${seed}
fix             3 all temp/csvr 125.71 125.71 ${tempDamp} ${seed}
fix             3 all temp/csvr 125.71 125.71 100 ${seed}
fix             3 all temp/csvr 125.71 125.71 100 745823


run             250000
PPPM initialization ...
  extracting TIP4P info from pair style
  using 12-bit tables for long-range coulomb (../kspace.cpp:340)
  G vector (1/distance) = 0.37195934
  grid = 24 24 24
  stencil order = 5
  estimated absolute RMS force accuracy = 0.003540153
  estimated relative force accuracy = 1.0661066e-05
  using double precision FFTW3
  3d grid and FFT values/proc = 2197 216
Last active /omp style is kspace_style pppm/tip4p/omp
Neighbor list info ...
  update every 1 steps, delay 7 steps, check yes
  max neighbors/atom: 2000, page size: 100000
  master list distance cutoff = 10.8154
  ghost atom cutoff = 10.8154
  binsize = 5.4077, bins = 4 4 4
  1 neighbor lists, perpetual/occasional/extra = 1 0 0
  (1) pair lj/cut/tip4p/long/omp, perpetual
      attributes: half, newton on, omp
      pair build: half/bin/newton/omp
      stencil: half/bin/3d
      bin: standard
Per MPI rank memory allocation (min/avg/max) = 9.225 | 9.227 | 9.230 Mbytes
Step Temp PotEng TotEng E_pair E_mol Press Lx Ly Lz Volume Pxx Pyy Pzz Pxy Pxz Pyz Enthalpy 
15000000    129.96571   -4985.6021   -4734.9523   -4985.6021            0    6206.6456    19.733386    19.880912    20.614296    8087.3535    6028.5893    5659.3104    6932.0371   -150.90985    1514.5672     885.8371   -4002.9048 
15001000    124.13064   -4995.8389   -4756.4425   -4995.8389            0    5008.7146    19.857266     19.85924    20.597051    8122.4514    5389.5723    5659.4657    3977.1059   -130.40274    18.393279   -639.38922   -4163.1221 
15002000    124.65606   -4989.2157   -4748.8061   -4989.2157            0    4966.7063    19.842084     19.74861    20.595789    8070.5338    5729.3994    3875.8823    5294.8371    188.87644    97.409344   -201.24863   -4164.2225 
15003000    131.20392   -5003.1064   -4750.0686   -5003.1064            0    6083.0951    19.912302    19.953976    20.175047    8016.1433    5933.5933    5001.5645    7314.1275    150.80809    470.23109     239.3707   -4038.9109 
15004000    126.63494   -5015.1531    -4770.927   -5015.1531            0    4748.2654    19.976342    19.881748    20.378752    8093.7193    5014.6282    4145.5188    5084.6492   -160.15638   -47.740901    210.22843   -4210.4484 
15005000    121.06451    -4984.355   -4750.8719    -4984.355            0    5663.3099    19.914893    19.828729    20.442391    8072.4347    5567.1023    4981.2866    6441.5407    72.391176    485.05295    103.70025   -4084.1407 
15006000    124.52646   -4979.9327   -4739.7729   -4979.9327            0    6420.1673    19.858754    19.706564    20.595303    8059.9265    6757.5361     6490.924    6012.0418   -2.3870213   -21.147664   -1559.2254   -3985.1095 
15007000     118.8018   -4981.5557   -4752.4364   -4981.5557            0    6501.0955    19.856172    19.768063    20.594394    8083.6712    4541.3156    8182.7082    6779.2628    445.29479   -832.75492    114.66835    -3986.009 
15008000    129.30861   -4997.7071   -4748.3246   -4997.7071            0    6178.1957    19.851381    19.745135    20.616237    8080.9094    6121.7861    6659.4719    5753.3291   -318.31163     65.65375    291.44778   -4020.2132 
15009000    127.02659    -4983.302   -4738.3205    -4983.302            0    5588.8343    19.770973    19.818582    20.581378    8064.4558    5869.4953    6371.4122    4525.5952    39.269551    309.63668    781.65363   -4081.0076 
15010000    124.13996     -4982.18   -4742.7657     -4982.18            0    4888.7049    19.896157    19.747293    20.604986    8095.6013    5087.8245    5801.8322     3776.458   -160.83794    218.78303    1066.2489   -4165.5756 
15011000    123.89496    -4990.016   -4751.0742    -4990.016            0    6077.2997    19.724387     19.80962    20.638847    8064.2707    7039.9509    4846.4913    6345.4569   -481.12136    925.20473   -79.013141   -4036.3283 
15012000    129.01924   -4980.7986   -4731.9741   -4980.7986            0    6405.6149    19.851018    19.754095    20.616573    8084.5603    5108.3687    8156.6788    5951.7972    221.07816    694.25185   -1750.7892     -3976.72 
15013000    126.98907   -4976.3902   -4731.4811   -4976.3902            0     6722.222    19.877281    19.777184    20.525993    8069.1095    6678.4456    6809.9875    6678.2328    214.85553   -240.32919   -1060.8782   -3940.4121 
15014000    127.79175   -5004.0708   -4757.6136   -5004.0708            0    4964.2803    19.759512    19.995378     20.43742    8074.8026    4935.3291    4274.2173    5683.2946    8.7407136   -199.78174   -92.563688   -4173.0065 
15015000    127.35876   -4996.5046   -4750.8825   -4996.5046            0    5048.5223    19.776088    19.944012    20.442076    8062.6519    4696.6733    5242.0932    5206.8004   -332.98686    1036.0112   -258.69794   -4157.2494 
15016000    119.15366   -4979.7747   -4749.9768   -4979.7747            0    4794.2157    19.928051    19.937948    20.350507    8085.7538    4500.4864    3956.4839    5925.6767    654.74884    92.076315   -613.28675   -4184.6313 
15017000    121.96871   -4979.6386   -4744.4117   -4979.6386            0    6714.2889     19.80379    19.743762    20.533463    8028.6111    5581.9155    8115.9185    6445.0327    180.86618    660.83562    934.45956   -3958.2419 
15018000    125.41191   -5003.7099   -4761.8425   -5003.7099            0    5994.2461    19.849887    19.727382    20.576539     8057.491    6075.4672    6767.6249    5139.6462    51.003858    435.94235   -344.35884   -4057.4572 
15019000    124.80416   -4994.1899   -4753.4946   -4994.1899            0    5565.2689    19.801582    19.777867    20.644233    8084.9639    5385.6317    5886.1906    5423.9846    38.609779    1139.9844    3.8212052   -4097.2887 
15020000    123.81481   -4993.6919   -4754.9046   -4993.6919            0    5998.1151    19.782682    19.856133    20.584524    8085.7567    6774.0644    5540.8666    5679.4143    -378.6894    1515.8672   -306.97534   -4047.5921 
15021000    125.43757   -5006.8012   -4764.8843   -5006.8012            0    5718.7102    19.711649    19.912029    20.532773    8059.0915    6349.8362    4946.3262    5859.9681   -308.60774   -441.97919    -475.0848   -4092.7438 
15022000    128.71823   -4995.7934   -4747.5494   -4995.7934            0    5612.0845     19.79933     19.91926    20.503705    8086.4153    6678.0623     5591.683    4566.5082    20.003955   -128.61239   -458.43866   -4085.7047 
15023000    120.70879   -4999.6695   -4766.8724   -4999.6695            0    5641.6604    19.802648    19.797783    20.651345     8096.329    5788.5447    5391.4067    5745.0299   -339.62869   -405.51456   -359.38095    -4100.724 
15024000    134.20451    -4987.768   -4728.9433    -4987.768            0    5211.6537     19.92402    19.757695    20.568707    8096.9273    4559.2486    6016.8049    5058.9077   -345.35511    354.66085   -1265.6132   -4113.5232 
15025000    126.35337   -4978.7651    -4735.082   -4978.7651            0    5643.5927    19.963897    19.655629    20.537141    8058.8347    6270.0803    6357.2464    4303.4513    89.181336   -755.85135    206.45704   -4071.7915 
15026000    131.11997   -4991.7937   -4738.9178   -4991.7937            0    5247.9521    19.721335    19.805024    20.681419    8077.7798    5837.7557    5292.3561    4613.7446   -210.89417    518.70897   -241.22446   -4120.6768 
15027000    131.03547   -4985.4848   -4732.7719   -4985.4848            0    6594.5881    19.648227    19.918932    20.577482    8053.4443    8286.5262    4597.4993    6899.7387    384.18394   -290.33603    393.90862   -3958.2294 
15028000    125.97783   -5004.6248   -4761.6659   -5004.6248            0    5293.6908    19.884658    19.841492    20.566421    8114.3019    5829.9078    4630.2492    5420.9154    215.65802    1926.0624   -659.96893   -4135.2171 
15029000    124.73182     -4987.78   -4747.2242     -4987.78            0    5112.2867     19.85581    19.923028    20.399655     8069.856    4076.6359    5559.0911    5701.1332   -455.26507    25.568947    259.04959   -4145.5563 
15030000    132.41786   -4999.5202   -4744.1413   -4999.5202            0    5184.0458    19.826186    19.783195    20.646542    8098.0957    5413.1709    5704.6818    4434.2849    452.22974    766.81867   -763.56217   -4131.8929 
15031000    127.43413   -4984.0126   -4738.2451   -4984.0126            0     5301.502    19.759159    19.843393    20.678858    8107.9477    4867.9135    6696.9649    4339.6277    81.075452   -64.735362   -53.031975   -4111.3632 
15032000    124.96384   -4987.4577   -4746.4544   -4987.4577            0    6200.3461     19.84867    19.859492    20.501543    8081.3906    6013.5425    6280.4769     6307.019   -484.09372    1012.4191    54.703921   -4015.6891 
15033000    128.48118   -4993.1566   -4745.3698   -4993.1566            0      5955.72    19.815336    19.834974    20.501622    8057.8895    6665.0907    5793.4813    5408.5879   -532.94492    279.20021   -438.79355   -4045.4771 
15034000    120.92424    -4991.937   -4758.7245    -4991.937            0    5047.8744    19.823433    19.870384    20.536838     8089.445    5092.4831    5494.9658    4556.1744    48.462568    363.64616    285.61424   -4163.1951 
15035000    123.70517   -5014.2837   -4775.7079   -5014.2837            0    5535.4081    20.013274    19.808584    20.449615    8106.9352    4991.4322    5229.4723    6385.3198    214.09868    146.04083   -336.31925   -4121.2492 
15036000    118.78512   -4990.5819   -4761.4948   -4990.5819            0    5594.3765    19.751521    19.702519    20.697177     8054.404    5871.2376    5219.8327    5692.0592   -293.81087   -1215.5202    875.99146   -4104.3501 
15037000    118.72597   -4976.4328   -4747.4598   -4976.4328            0     6926.155    19.890935    19.697667    20.520451    8040.0153    5370.0128    8994.5519    6413.9003    -138.3015    316.09706   -839.20536   -3935.3309 
15038000    127.15173   -4988.1597   -4742.9369   -4988.1597            0     4797.536    19.966173    19.681456    20.578726    8086.6854    3713.2444    6368.3928    4310.9709   -10.177134    237.10046    956.16818   -4177.1346 
15039000     116.8206   -4987.7337   -4762.4353   -4987.7337            0    6113.8427    19.823958    19.872928    20.512626    8081.1562    6876.6374    5536.3065    5928.5842   -155.13743    -126.2606    931.97927   -4041.8861 
15040000    123.13693   -4990.5642   -4753.0843   -4990.5642            0    4765.3093    19.704548    19.761429    20.766663    8086.3316    5429.0341    5286.8482    3580.0454     95.78465    987.28286   -48.657465   -4191.1073 
15041000    125.79271    -4991.371   -4748.7692    -4991.371            0    6190.4068    19.936372    19.802579    20.558726    8116.4121    5429.1752     7455.998    5686.0472    189.28472    425.55557   -1127.4482   -4016.0135 
15042000    123.34433   -4995.9478   -4758.0678   -4995.9478            0    5243.7977    19.814381      19.9038    20.513843    8090.2793    6859.6227    3461.9125    5409.8579    -242.2055    507.69645    580.04309   -4139.3604 
15043000     130.2565   -4988.3059   -4737.0953   -4988.3059            0    6847.0042    19.554019    19.982525     20.58574     8043.645     8143.156    5776.4224    6621.4342    11.897504   -9.6570037    319.78397   -3933.8848 
15044000      122.052   -5000.9786    -4765.591   -5000.9786            0    5656.0111    19.903337    19.883738    20.441449    8089.7598     4973.618    5292.3837    6702.0317   -76.010441    85.573268    703.94189     -4098.29 
15045000    125.39915   -5008.7983   -4766.9555   -5008.7983            0    5927.7537    19.886614    19.729146    20.478138    8034.5134    6748.6597    5380.7258    5653.8758   -450.68347    877.27064    305.75031   -4072.3701 
15046000    119.68696   -4990.7427   -4759.9164   -4990.7427            0    5194.0771    19.818173     19.85826     20.57612    8097.8233    6050.4924    4051.4612    5480.2777   -407.00457   -1597.4449   -580.75532   -4146.5039 
15047000    124.79787    -4994.213   -4753.5298    -4994.213            0    6558.6442    19.707272    19.848876     20.59846    8057.4424    7190.4749    6736.7036     5748.754    89.773829   -133.27035   -1148.4905   -3982.8266 
15048000    118.32546   -4996.9168   -4768.7162   -4996.9168            0    5923.2756    19.874809    19.841933    20.558217    8107.2279    6494.7227    5770.8019    5504.3023   -769.13678    282.15757    81.246465   -4068.3742 
15049000    127.78494   -4991.8639   -4745.4199   -4991.8639            0    5786.2593    19.818729    19.849767    20.474908    8054.7706    5532.3384    6596.5258    5229.9137   -204.12725   -160.93462    89.506556   -4065.7047 
15050000    126.24284   -5009.5655   -4766.0955   -5009.5655            0    5605.0671    19.823202     19.82606    20.536574     8071.202    6507.5681    6344.1111     3963.522    61.167696   -144.85762    116.33932    -4106.322 
15051000    138.36692   -4981.5878   -4714.7356   -4981.5878            0    6145.6999    19.890706    19.734145    20.459285     8030.803    6829.3178    6225.2897    5382.4921   -724.96426   -54.949987   -63.433643   -3994.9449 
15052000    121.77186   -4996.4675   -4761.6203   -4996.4675            0    5788.1836    19.777206    19.822958    20.508123    8040.0609    6593.7047    5134.3233    5636.5229   -98.060167   -70.209809    127.48745   -4082.9208 
15053000    122.88362    -5002.401   -4765.4096    -5002.401            0    5718.2708    19.926996    19.774598     20.45865     8061.697    4223.8854    6424.2683    6506.6587   -578.13059    116.82199    433.90707   -4093.1035 
15054000    129.07987   -4990.0854    -4741.144   -4990.0854            0    6040.8457    19.822202    19.864425    20.605218    8113.4413    7534.6372    4018.5462    6569.3538   -40.058051   -93.898664   -1017.6015   -4026.3536 
15055000     125.3885   -4993.0735   -4751.2513   -4993.0735            0    5506.3858     19.83821    19.875368     20.58198    8115.3041    4376.9344    5746.3142    6395.9087    232.52366    690.70362     856.3958   -4099.5519 
15056000    128.27325   -4973.5561   -4726.1704   -4973.5561            0    6364.7181     19.85441    19.690901     20.58343    8047.1169    6287.9536    7202.1506    5604.0501    224.40544      546.556    196.83054   -3979.2138 
15057000    120.99518   -5001.2291   -4767.8797   -5001.2291            0     5476.765    19.873025    19.791413    20.509492    8066.6961     3680.033    6813.4218    5936.8401   -575.40323   -410.04333    609.87085   -4123.5685 
15058000    127.24701   -4996.8968   -4751.4903   -4996.8968            0    4495.4237    19.975002    19.687768     20.56938    8089.1801    3354.4766    5887.6915    4244.1031    13.228348    514.79558    357.78846   -4221.1544 
15059000    119.09691    -4986.009   -4756.3206    -4986.009            0       4786.1    19.936883    19.850078    20.478414    8104.3054    4878.1889    4153.4883     5326.623    104.96415    1032.9868    314.99797   -4190.6371 
15060000    127.26885   -5000.9353   -4755.4866   -5000.9353            0    5506.3257    19.880806    19.859254    20.529799    8105.5337    6193.4399    5228.3345    5097.2027   -524.25727    425.42765   -897.80553   -4104.5789 
15061000    124.45228    -4990.147   -4750.1303    -4990.147            0    5024.9371    19.977845    19.885634    20.502028    8144.8841    4839.6819    5279.4894      4955.64   -91.442367    960.91309   -726.24403   -4153.2443 
15062000    135.69449   -4993.8864   -4732.1881   -4993.8864            0    5450.4676    19.717439    19.861019     20.66268    8091.6792     6146.908    6007.0748    4197.4201   -157.12125    655.68949    651.70598   -4088.9848 
15063000    129.80273   -4995.3527   -4745.0173   -4995.3527            0    5063.1213    19.847876    19.863812    20.693545    8158.5227    4663.4454     5878.964    4646.9544    484.92504    4.0335796    874.70572   -4142.5884 
15064000    130.00803   -5002.5002   -4751.7688   -5002.5002            0     6286.787    19.832978    19.845369    20.466169     8055.336    5998.6304    7008.7534    5852.9773   -200.28171   -257.44266   -59.294592   -4013.2045 
15065000    127.35066   -5003.9643   -4758.3579   -5003.9643            0    5941.3086    19.844253    19.887435    20.502365    8091.2849     5868.136    5906.8723    6048.9174    17.482375    792.93037    298.46379   -4057.2651 
15066000    128.31933   -4982.1676    -4734.693   -4982.1676            0      4483.61    19.939126    19.912285    20.401869    8100.2268    4351.4739    3814.9164    5284.4397    344.80733   -126.43337   -117.98559   -4205.0285 
15067000    123.93223   -5002.2106   -4763.1968   -5002.2106            0    5957.1849    19.852519    19.959758    20.439926    8099.3504    6438.4313    5768.3419    5664.7815   -366.41857   -319.72028   -767.88158   -4059.5299 
15068000     120.5295   -4981.7814   -4749.3301   -4981.7814            0    5999.6987     19.70914    19.793679    20.668528    8063.1318    6466.9721     5964.239    5567.8851    17.086221   -322.17519   -504.51497   -4043.8105 
15069000    118.10498   -4996.8653   -4769.0899   -4996.8653            0      6217.15    19.787951    19.970394    20.492422    8098.0557    4748.5612    7774.2272    6128.6618   -294.79744   -37.407857   -306.77354   -4034.8331 
15070000    118.83946   -4976.8949    -4747.703   -4976.8949            0    4315.3483     19.88413    20.003579     20.42474    8124.0172     4204.486    4123.5726    4617.9863   -619.82572    743.64958    182.11804   -4236.4185 
15071000    125.35092   -4988.8899   -4747.1401   -4988.8899            0    5953.7263    19.811781    19.936682    20.446527    8075.9931     5917.858    5262.7158    6680.6051   -360.74419    178.97133    443.31547   -4045.9098 
15072000    134.53682   -4981.9986   -4722.5331   -4981.9986            0    5711.2721    19.766771    19.984702    20.487717    8093.3248    5077.3645    5186.0399    6870.4118   -552.25731    1110.0764   -288.00302   -4048.4154 
15073000    123.81975   -5008.4946   -4769.6978   -5008.4946            0    5532.8635    19.874912    19.926459    20.352439    8060.3116    5946.4335    5065.0295    5587.1276    150.87423    267.22948    164.67359   -4119.3021 
15074000    123.37114   -5005.9424   -4768.0108   -5005.9424            0    5381.3982    19.993087     19.73663    20.536623    8103.6728    6085.6166    5905.0179    4153.5602   -150.24768   -1394.2007    -36.31203   -4132.0169 
15075000     124.8357   -4996.6964   -4755.9402   -4996.6964            0      5421.55      19.7616    19.930315    20.491759      8070.78    6705.2534    3290.1003    6269.2964   -6.6261042    -452.3943    61.882164   -4117.8018 
15076000     125.1497    -4996.057   -4754.6953    -4996.057            0    5850.5698     19.80767    19.806801    20.624879    8091.6886    7480.8793    5432.8611    4637.9691     145.8695    173.05559    36.213028   -4064.2756 
15077000    120.53937   -5002.2889   -4769.8186   -5002.2889            0    6563.0464     19.72004    19.802997    20.591161    8041.1756    8574.5664    5276.3787     5838.194    -408.8656   -88.729292    260.59812    -4000.155 
15078000    129.48957   -4979.7628   -4730.0313   -4979.7628            0    6084.3869    19.672936     19.93776    20.547959    8059.6137    6281.7291    5688.7713    6282.6605   -300.24499    725.42003    787.21073   -4014.8652 
15079000    120.84285   -4997.0664   -4764.0108   -4997.0664            0    4506.3715    19.850431     19.89532    20.573922    8125.2728    5542.6567    3593.4538     4383.004   -134.06433    892.31983    1000.7536   -4230.0114 
15080000    132.15146   -4997.3916   -4742.5264   -4997.3916            0    5517.3964    19.892201    19.777577    20.544432    8082.5807    5307.9113    6139.5258    5104.7522   -232.85493    752.52066   -394.46977    -4092.157 
15081000    126.45048   -4994.1132   -4750.2428   -4994.1132            0     4518.929    19.917693     19.83304    20.476042    8088.6182    4890.1045    4594.9955     4071.687    362.11804   -30.996987    518.97303    -4217.171 
15082000    124.45752   -5004.5448    -4764.518   -5004.5448            0    5939.2083    19.992163    19.706571     20.52192    8085.1641    5117.0971    6743.7433    5956.7843   -193.58506    381.06159    -1140.423   -4064.2032 
15083000    125.58361    -4987.615   -4745.4164    -4987.615            0    4805.4934    19.784309    19.894798    20.496447    8067.5002    5014.1674    3829.3567     5572.956   -280.90116     274.0659    -524.3764   -4180.0202 
15084000    129.10308   -4979.4435   -4730.4574   -4979.4435            0    4788.0816    20.028029    19.766845    20.428881    8087.6092    3985.1725     4068.125    6310.9473   -525.03298    697.45827   -552.14147   -4165.7056 
15085000    125.59652   -5004.7354   -4762.5119   -5004.7354            0    5057.7414    19.982821    19.888047    20.370691    8095.7058    3676.4193    5780.5209    5716.2839    184.53413   -375.55343    477.41695   -4165.3567 
15086000    123.70488   -4999.7633    -4761.188   -4999.7633            0    4744.4934    19.930776    19.844768    20.491174    8104.7024    4551.9179    5109.8222      4571.74    145.78464   -666.30681    789.40668   -4200.3947 
15087000    123.25007    -4995.934   -4758.2359    -4995.934            0    5894.7726    19.840492    19.913128     20.49078    8095.6259    5466.2256    5690.8245    6527.2677     30.60641    196.79229    294.56183   -4062.2613 
15088000    123.15446   -4986.5459   -4749.0322   -4986.5459            0    5748.6449    19.724208     20.04276    20.354708    8046.7773    6662.8051    4155.7907     6427.339    78.383433    663.92125    38.439287   -4074.4058 
15089000    117.33428   -4997.3575   -4771.0684   -4997.3575            0    6027.6993    19.848622    19.819394    20.432353    8037.8358    5546.5723    6299.4862    6237.0394   -270.90531    1245.3269   -10.181503   -4064.4799 
15090000    122.98073   -4994.1745   -4756.9958   -4994.1745            0    6041.3742    20.002583    19.746341      20.4384     8072.715    5353.7426    6854.4206    5915.9592   -188.49513   -169.96546    782.92512   -4045.7311 
15091000    120.10319   -4992.1979   -4760.5688   -4992.1979            0    5524.7599    19.829988    20.028276    20.329904    8074.2343     5366.972     4377.652    6829.6555   -188.63417   -440.25501    -648.1258   -4110.0039 
15092000    129.28052   -5002.6759   -4753.3476   -5002.6759            0    5302.6831    19.990173    19.849723    20.352906    8076.0208    5472.1328    5415.8019    5020.1146   -437.60289    953.51937    376.40395    -4128.795 
15093000    128.78522   -4983.7393   -4735.3662   -4983.7393            0    6650.9182    19.838853    19.921282    20.295131    8020.9478    6566.4171    5508.4425    7877.8949   -59.665202    99.009646   -827.82605   -3957.3597 
15094000    120.78854    -4986.742   -4753.7911    -4986.742            0    5109.0433    19.775886    19.965833    20.486894    8089.0869     5681.313     4416.737    5229.0798    539.87708    300.70355    994.50731    -4151.072 
15095000    119.89032   -5005.4258   -4774.2072   -5005.4258            0    5886.1287    19.689824    19.983366    20.649198    8124.8184    7466.4424    3961.6964    6230.2472   -493.29071    540.47282   -998.55893   -4076.7472 
15096000    130.35511   -4999.7363   -4748.3355   -4999.7363            0    6098.0971    19.793042    19.830442    20.605221    8087.6474    5721.8785    6359.9112    6212.5017   -190.56695   -562.49058   -841.17918   -4029.0647 
15097000    127.74557   -4991.4743   -4745.1063   -4991.4743            0    6562.0179    19.668473    19.781887     20.62937    8026.4652    6983.1075    6625.8056    6077.1406   -16.349554   -622.65708   -684.64669   -3976.9711 
15098000    131.56156   -5010.0739   -4756.3464   -5010.0739            0    4701.8536    19.897604    19.811096    20.570715    8108.8389    5194.7453    4682.8405     4227.975   -461.09365   -570.57162    315.91484   -4200.3094 
15099000    130.41931   -5005.7887   -4754.2641   -5005.7887            0    5535.2021    19.956583    19.713268    20.581523    8096.9663    3769.7414    7206.0158     5629.849    287.64183    42.539033    238.01362   -4100.6345 
15100000    129.23991   -5002.0732   -4752.8231   -5002.0732            0    4704.7474     19.85538    19.741157    20.618698    8081.8732    4761.4094    5195.0566    4157.7763   -115.92836    254.44513    510.55076   -4198.2942 
15101000    120.07657   -5011.0804   -4779.5026   -5011.0804            0    4948.1177    19.812314    19.924042     20.61895    8139.1523    4915.9404    4238.7975    5689.6152   -277.11183    537.80989    1124.7256   -4192.1552 
15102000    127.54496   -4999.3027   -4753.3215   -4999.3027            0    4841.3658    19.912443    19.817555    20.560143    8113.3598    4059.5998    5913.6219    4550.8758   -241.27488    40.181956    717.02419   -4180.4667 
15103000    126.15475   -4986.7997   -4743.4997   -4986.7997            0    6314.6505    19.927824    19.724557    20.577745    8088.4426    5657.8607    7266.4506    6019.6403    -92.28048    328.36148   -929.57509   -3998.6132 
15104000     128.3393   -4989.7862   -4742.2731   -4989.7862            0    5979.5758    19.902917    19.659974    20.643112    8077.4602    5798.2342    6659.0572     5481.436    41.580742   -402.14295    226.76706   -4037.8702 
15105000    130.78207   -4985.1543     -4732.93   -4985.1543            0    6201.8867    19.856478    19.790559    20.578771    8086.8562    6074.1825    6918.3134    5613.1641    139.90363     332.1077   -948.88053   -4001.4888 
15106000    118.88769   -4992.6503   -4763.3654   -4992.6503            0    6222.2928    19.909539    19.799199    20.453982    8062.8151    8069.2291    4559.9405    6037.7087   -148.37893    395.59131   -558.42251   -4031.6991 
15107000    129.47365   -5000.1137   -4750.4128   -5000.1137            0    5632.8973    20.091278    19.865313      20.2666     8088.796    4950.8654    5518.5716    6429.2548   -661.32399   -238.84233   -673.37649    -4085.918 
15108000    125.42749   -4979.3314    -4737.434   -4979.3314            0    7133.3321    19.811132    19.844782    20.380427    8012.5156     7838.923    6634.5175    6926.5559   -45.764057     1119.234   -247.33441   -3903.8733 
15109000    123.79797     -4993.36   -4754.6052     -4993.36            0    4206.2614     19.85603    20.118035    20.403573     8150.499    5851.4276    1808.2439    4959.1127   -234.03647    286.18603    3.5870292   -4254.6209 
15110000    125.81553   -4982.9689   -4740.3231   -4982.9689            0     4252.967    19.881422    19.831864     20.52735    8093.6397    4587.9131    3657.9156    4513.0724    698.93767     805.9223    563.48424   -4238.3138 
15111000    137.23303   -5001.1353   -4736.4699   -5001.1353            0    5793.7885     19.89199    19.871059    20.495204    8101.2399    4636.1268    6051.3318    6693.9069   -71.620781   -820.98268    126.83221   -4051.9438 
15112000    130.87653   -5001.5066   -4749.1002   -5001.5066            0    5236.6391    19.966478    19.975346    20.388442    8131.6715    4372.8667    4720.1222    6616.9285   -426.94411    266.77136    290.86654   -4128.0763 
15113000    130.18782   -5016.6551   -4765.5769   -5016.6551            0    5462.0354     19.78413     19.91872    20.503953    8080.0859    5582.9651    5688.9282    5114.2129    160.84707    661.26126    559.22019    -4121.932 
15114000    128.51923   -4998.6255   -4750.7653   -4998.6255            0    3773.4656    20.037884    19.712194    20.642646    8153.6521    3217.8634    4143.1257    3959.4076   -367.63998      195.208   -294.86321   -4302.0525 
15115000    118.64919   -4980.9579    -4752.133   -4980.9579            0    5967.3726    19.851848    19.793077    20.630224    8106.2164    6905.0205    5051.8524    5945.2449    208.16506    35.634875     637.6519   -4046.6651 
15116000    120.18464    -4998.516   -4766.7298    -4998.516            0    5072.1342    19.889219    19.751507    20.619395    8100.1654    5104.0628    5364.0305    4748.3093   -187.40189    482.50571   -226.32138   -4167.5454 
15117000    117.52914   -4993.1436   -4766.4787   -4993.1436            0    5705.3576    19.783081    19.664114    20.731425     8064.872    5345.5444    6852.0413    4918.4871   -67.717109    -106.0739     235.4956   -4095.4266 
15118000    121.21617   -4999.1915   -4765.4159   -4999.1915            0    6284.8152    19.796683    19.774209    20.649877    8083.6785     6782.205    6352.8904    5719.3502    156.33137   -512.20132    591.76827   -4024.4855 
15119000    118.00887    -4992.198    -4764.608    -4992.198            0    6226.1628    19.968825    19.672106    20.553051    8073.8308    4208.8403     7713.291     6756.357    242.18058    626.41926    949.32119   -4031.4864 
15120000    130.55366   -4996.9564   -4745.1727   -4996.9564            0    7224.2224    19.816909    19.763941    20.488169    8024.4007    6176.9941    8254.1065    7241.5667   -345.77507    701.48094    745.19578   -3899.7389 
15121000    125.29827   -5009.8948   -4768.2466   -5009.8948            0    5675.7048    19.624829    19.882308    20.627048    8048.4038     7088.227    4741.5704    5197.3168   -142.06236   -564.31015    1125.4803   -4102.0453 
15122000    125.80756   -4986.8046   -4744.1742   -4986.8046            0    4786.8343    19.877596    19.891853    20.520969    8114.0363    5136.4907    4195.5998    5028.4123    288.28781   -605.74708   -576.03123   -4177.7246 
15123000     125.3284   -4997.4724    -4755.766   -4997.4724            0    4915.1612    19.842661    19.980011    20.447899    8106.7041    4564.7225    4872.4067    5308.3543   -168.41793    544.27182    956.75183   -4174.6565 
15124000    124.20359   -4987.4086   -4747.8716   -4987.4086            0    6596.1902    19.761417    19.945065    20.442823    8057.3905     6996.792    5776.1066    7015.6718    107.38904     327.4574   -292.32274   -3972.7613 
15125000    131.99104   -4996.7711   -4742.2153   -4996.7711            0      4601.13    19.864085    19.874122    20.560761    8117.0027    5175.0963     3333.289    5295.0048   -57.433534   -374.32395    174.85323    -4197.542 
15126000    120.05544   -4997.8323   -4766.2953   -4997.8323            0    5805.0998    19.869396    19.744501    20.541804    8058.7819    6867.7703    4608.6222    5938.9068    189.05425    334.18463   -94.462682   -4084.0273 
15127000    124.09741   -4999.3062   -4759.9739   -4999.3062            0    4663.9013    19.900336     19.72163    20.684375    8117.9362    5323.9862    4275.7367     4391.981    169.09687    417.68639   -448.94036   -4207.8063 
15128000    124.86042   -5004.3509   -4763.5471   -5004.3509            0     6665.803    19.862337    19.755289    20.668188    8109.9116    7885.1239    6037.7785    6074.5068    9.1278384    1117.7115   -892.10723    -3975.151 
15129000    136.14051   -4990.0363   -4727.4779   -4990.0363            0    5872.8128    19.820252    19.722964    20.549733    8033.1808    7000.1798    4922.4566    5695.8021    550.39885    857.07663    192.19362   -4039.4443 
15130000     121.0068      -5004.8   -4771.4283      -5004.8            0    4964.1203    19.857638    19.779026    20.554353    8073.0251    4472.6907    5468.3228    4951.3475    186.72834   -197.49527    408.57586   -4186.9687 
15131000     122.9785   -5004.8447   -4767.6703   -5004.8447            0    6447.3826    19.882536    19.759629    20.463494    8039.5245    4931.2747    7998.0621    6412.8111    208.82686   -1351.1016   -108.20869   -4011.7262 
15132000    127.86452   -4984.4976   -4737.9001   -4984.4976            0    4955.3639     19.89376    19.890226    20.445125    8089.9595    4228.2863    4439.0078    6198.7974    200.26392    1813.3734    431.79627   -4153.2477 
15133000    132.05294   -4987.9312   -4733.2559   -4987.9312            0    6995.2387    19.981744    19.845945    20.297526    8049.1176    6837.2486    6103.6753    8044.7924    204.02629    336.20896   -711.27904    -3912.098 
15134000    127.17672   -5003.9786   -4758.7076   -5003.9786            0    6139.7739    19.797272    19.869593    20.452177     8045.145    6050.6423    5670.2191    6698.4604   -520.62397    96.803753   -699.29312   -4038.3267 
15135000     128.6163   -4998.6453   -4750.5979   -4998.6453            0    6935.9038    19.750657    19.809836    20.507953    8023.8857    8577.6967     5155.066    7074.9486   -528.23894   -732.86355    420.72088   -3938.9575 
15136000    127.79583   -4994.9612   -4748.4962   -4994.9612            0    5653.3746    19.731165     19.80454    20.702929     8090.014    5709.0053    6741.9556    4509.1629    155.82227     710.1659    21.317527   -4081.4853 
15137000     121.3252   -4995.4317   -4761.4458   -4995.4317            0    6353.1911    19.770991    19.821629    20.566449    8059.8524    4433.4844    8637.0354    5989.0536   -702.58208    1105.8575    742.92244    -4014.662 
15138000      123.412   -4998.1856   -4760.1752   -4998.1856            0    4858.7489    19.930188    19.703787    20.619876    8097.4293    4630.1465    5910.8229    4035.2773    154.55848    662.37255    235.48256   -4186.3924 
15139000     118.6222   -5002.0521   -4773.2792   -5002.0521            0    6045.6082    19.786504    19.731905    20.668656    8069.5686    7239.2935    6051.9117    4845.6194   -268.98706   -675.52178    587.05734   -4061.7935 
15140000     126.2522   -4986.7736   -4743.2857   -4986.7736            0    6581.5542    19.861522    19.704286    20.519254    8030.3563    6419.9954    7065.1959    6259.4714    125.99182    1058.2873    357.22166   -3972.4902 
15141000    125.22124   -4999.3197     -4757.82   -4999.3197            0    5261.9487    19.889033     19.79175    20.594894    8106.9492    4250.4095    6583.2953    4952.1412    551.99381   -323.99689   -21.528743   -4135.6918 
15142000    120.82527   -4988.5594   -4755.5377   -4988.5594            0    5936.3018    19.838131    19.801917    20.558415    8076.0246    6738.7191    6508.7535    4561.4329   -953.42944     -1080.25    17.040288   -4056.3569 
15143000    124.67634   -4995.2357   -4754.7869   -4995.2357            0     6199.303    19.917728    19.725058    20.506515    8056.5653     6614.099    5508.7249     6475.085   -84.354726    643.04131    290.46314    -4026.389 
15144000    124.33315   -4994.1921   -4754.4051   -4994.1921            0     5645.676    19.813905     19.85616    20.543841    8082.5242    5380.9972    6964.8319    4591.1988    181.98276    664.18225   -631.59876   -4088.9193 
15145000    120.92329   -4991.8188   -4758.6081   -4991.8188            0     4771.659    19.786968    19.885314    20.590477    8101.7365    4193.6111    4846.2013    5275.1645   -230.58861   -321.07506   -259.65499   -4194.8102 
15146000    122.15411   -5001.3239   -4765.7395   -5001.3239            0    4163.6625    19.829485     19.81427    20.597859    8093.0384    3452.2538    4940.8679    4097.8657   -262.61052    792.65694   -368.48119   -4274.3079 
15147000    125.22914    -5013.427   -4771.9121    -5013.427            0    4517.2835    19.820126    19.887625    20.573694    8109.6407     4124.626    4128.1559    5299.0688   -784.17421    303.47978   -1003.5201   -4237.6494 
15148000    118.62992   -4990.1342   -4761.3464   -4990.1342            0    5764.6043    19.781787    19.804843    20.625384    8080.5135    5991.4169    6125.5897    5176.8064   -12.955572    969.36497    871.38141   -4082.0108 
15149000    127.82241   -4989.9058   -4743.3896   -4989.9058            0    5537.0846    19.762674    19.954604    20.509453    8088.0329    5301.3301    5883.1068    5426.8169   -434.58254   -656.42931    519.19394   -4090.2591 
15150000    127.84396   -5002.0285   -4755.4706   -5002.0285            0    6778.5708    19.930629     19.85218    20.398429    8070.9735    6533.0636    7378.5942    6424.0546   -195.74809   -4.0074158    480.60545   -3957.5863 
15151000    128.61375   -4977.3053   -4729.2628   -4977.3053            0    5917.7947    19.884719    19.941897    20.294356    8047.5042    5496.7126    4787.8154    7468.8561    75.396051   -669.86413    416.52928   -4034.7233 
15152000    128.94098   -4997.0803   -4748.4068   -4997.0803            0    4522.7246    19.944531    19.870937    20.501019    8124.8926    3878.8961    5354.8583    4334.4194   -159.15346   -27.465356    265.14587   -4212.4946 
15153000    129.24788   -5004.5947   -4755.3293   -5004.5947            0    6568.2399    19.643061    19.994547    20.498713     8050.954    7578.8181    5582.7413    6543.1604    193.35907    356.01791    604.15244   -3984.1201 
15154000    124.73211   -4997.4552   -4756.8989   -4997.4552            0      5210.42    19.826303    19.822596    20.599303    8095.7072    5917.1932    5025.5494    4688.5174   -156.62496   -1127.5974    10.928656   -4141.7172 
15155000    131.71512   -5010.1961   -4756.1724   -5010.1961            0     5225.407    19.877602    19.739512    20.650225    8102.6146    6931.6017    3711.5459    5033.0735   -222.07387   -738.32701      458.462   -4138.6949 
15156000    118.28803   -4992.7423   -4764.6138   -4992.7423            0    5736.1477    19.753135    19.915034    20.508917     8067.887    6263.0974    4555.2123    6390.1334    325.18144    1107.0691   -258.10078    -4089.688 
15157000    127.27219    -4993.474   -4748.0189    -4993.474            0    5946.2256    19.757891    19.949733    20.503316    8081.6823    6883.7312     4582.139    6372.8066   -552.35171    86.186252    297.64592   -4047.1786 
15158000    116.62892   -4988.7992   -4763.8705   -4988.7992            0    7713.1459    19.891313    19.715863    20.426241    8010.6488    8366.8811    6919.8432    7852.7135   -122.72947    980.02214   -186.27048   -3862.7661 
15159000    120.07249    -4996.481   -4764.9111    -4996.481            0    5969.7106    19.794572     19.88948    20.504618    8072.7448    7290.8996    5496.8505    5121.3817   -2.3297157    141.44985   -113.20663    -4062.081 
15160000    123.71413   -4991.9125   -4753.3194   -4991.9125            0    5643.8411    19.836735    19.857159    20.578508    8105.8988    6347.6952    5510.0968    5073.7313    60.625576     1323.416   -670.65837   -4086.1259 
15161000    119.65405    -4991.987   -4761.2242    -4991.987            0    6396.2388    19.681454    19.767628    20.684536    8047.4359    5983.9311    7211.9324    5992.8528    365.83225    1097.3005    279.16693   -4010.5386 
15162000    122.48791   -4986.1122    -4749.884   -4986.1122            0    5793.9848    19.927606     19.73405    20.611014      8105.33    5503.9508    6258.4268    5619.5768    68.782654    1002.9063   -656.56937   -4064.9891 
15163000    127.73635   -4992.7377   -4746.3874   -4992.7377            0    6066.1025    19.930189     19.78604    20.437203    8059.1965    5951.5109    5911.9798    6334.8168   -141.30497   -184.67521   -434.39051   -4033.4073 
15164000    123.92605   -5003.1929   -4764.1911   -5003.1929            0    4950.4727    19.724494    19.950185    20.486182    8061.4622    5587.6183    3836.0166    5427.7833   -139.52786    1047.8818     -762.803   -4182.1731 
15165000    129.56922   -5001.0103   -4751.1252   -5001.0103            0    6172.0555    19.703616    19.745927    20.664357     8039.802    6801.7741    6475.5586    5238.8338    77.690017   -640.50736    328.73669   -4027.4377 
15166000    128.71327    -4990.568   -4742.3336    -4990.568            0    6513.0203    19.916011    19.673162    20.571842     8060.272    7042.4983     6584.479    5912.0837    194.62347   -65.044431   -268.85164   -3976.7228 
15167000    128.57841    -5000.293   -4752.3187    -5000.293            0    5403.6403    19.938814      19.8643    20.517219    8126.2667    5851.3231    5648.1752    4711.4226    54.722559    221.15005   -227.04894   -4111.9157 
15168000    130.87569   -4988.6242   -4736.2194   -4988.6242            0    4588.2062    19.838218    19.961645    20.448696    8097.7544    3169.6784    4978.3375    5616.6026    37.581369    692.50885    -171.7367    -4194.364 
15169000    131.35542   -4989.2695   -4735.9395   -4989.2695            0    6193.3686    19.680221    19.956475    20.520792    8059.4966    7252.8305    5375.3125    5951.9628    198.10198    309.18494    1208.9969   -4007.9741 
15170000    125.35413    -4993.739    -4751.983    -4993.739            0     5439.713    19.810466    19.874419    20.645467    8128.5645    6132.7969    4991.3784    5194.9637     -46.4583   -953.64926    1110.7788   -4107.1226 
15171000    131.71336   -5006.3692   -4752.3489   -5006.3692            0     5172.201    19.788861    19.881214    20.733647    8157.1681    6584.0635    3940.0414    4992.4982    274.63507    88.782846   -732.46184   -4137.0435 
15172000    126.70899   -5000.9982   -4756.6293   -5000.9982            0    7274.6544    19.977392    19.825666    20.274088     8029.859    7404.7883    7337.8838    7081.2912    -150.8583   -563.96581   -177.40838   -3904.7144 
15173000    124.68236   -5008.4801   -4768.0197   -5008.4801            0    3811.9397    19.872487    19.972665    20.470567    8124.9018    2898.8738    4103.4591    4433.4861   -75.202996    362.60814    427.20184   -4316.3302 
15174000    119.83675   -4983.4078   -4752.2926   -4983.4078            0     6675.347    19.892679    19.769811    20.513259     8067.342    6733.4957     6995.524    6297.0212   -120.55263   -221.63819   -977.71038   -3966.9119 
15175000    128.31763   -5000.9624   -4753.4911   -5000.9624            0    5974.5135    19.807564      19.7406    20.544705    8033.2506    5985.8185    6481.1799     5456.542    -248.3995    743.44959    1134.5896   -4053.5367 
15176000    122.83558   -5002.2519   -4765.3531   -5002.2519            0    6255.1567    19.870705     19.76516    20.512059    8056.0637    6733.3491    6566.4998    5465.6211    531.32691    459.46996   -298.02142   -4030.4384 
15177000    128.18339   -4997.3355   -4750.1231   -4997.3355            0    6659.2547     19.83898    19.838692    20.476113    8058.9768    5971.5425    7538.6212    6467.6006   -6.5208053     1508.404    268.17669   -3967.4482 
15178000    127.61452   -5000.2177   -4754.1024   -5000.2177            0    4083.3794    19.784536    19.763954    20.694942    8092.1495     4273.303     4547.913    3428.9222    -60.30448    506.46541    399.04178   -4272.1995 
15179000    135.83348   -5007.3128   -4745.3465   -5007.3128            0    4878.5115    19.879528    19.792308    20.679374    8136.5424    4989.2726    5121.6881    4524.5737    3.5895315   -344.78518   -178.29243   -4166.4471 
15180000    131.31724   -4995.0048   -4741.7485   -4995.0048            0    5046.3567    19.698609    19.841663    20.668021    8078.1614    5052.9441     6653.624    3432.5019   -409.57218    112.01324   -368.00191   -4147.2287 
15181000    122.50939   -4997.1353   -4760.8656   -4997.1353            0    5429.7632    19.909145    19.840957    20.495935    8096.2324    5711.0598     5560.161    5018.0689    90.785365    -712.4102   -607.46732    -4119.745 
15182000    128.76022   -4999.1859    -4750.861   -4999.1859            0    6609.1373    19.917366    19.849383    20.435418    8079.0898    6197.6041    6668.3087    6961.4992   -245.08032    149.20589   -368.32043   -3972.1378 
15183000    124.36947   -5013.8498   -4773.9928   -5013.8498            0    4160.5517    19.843308    20.018458    20.533441    8156.5488    4952.6247    3596.5711    3932.4592   -244.49493   -689.03049   -338.93884   -4279.0748 
15184000    124.78251   -5002.4968   -4761.8432   -5002.4968            0    6164.0062    19.922665    19.770949    20.439074    8050.7465    5457.5451     7094.977    5939.4966    174.28673    871.44917    535.56129   -4038.1157 
15185000    127.09403   -4987.5507   -4742.4392   -4987.5507            0    5914.2976    19.961703    19.959535    20.315283    8094.1432    5013.4289    5211.7356    7517.7284   -610.65558   -326.24943   -707.54413   -4044.2872 
15186000    124.20825   -4975.1673   -4735.6213   -4975.1673            0    6686.9775    19.846748    19.794505    20.424455    8023.8815    6361.9377    6487.6853    7211.3096   -561.17603     955.6811   -391.93096   -3953.1106 
15187000    124.82087   -4996.7423   -4756.0147   -4996.7423            0    5958.0954    19.839007    19.784398    20.485848    8040.7533     4964.875    6925.8962    5983.5149   -65.193754   -221.47627   -454.20689   -4057.3319 
15188000    127.39011   -4991.3891   -4745.7065   -4991.3891            0    5188.7582    19.953471    19.692305    20.570678     8082.833    4820.5161    5853.1924    4892.5661    258.45255   -484.44152   -262.31426   -4134.0566 
15189000    117.98223   -4993.6024   -4766.0638   -4993.6024            0    6420.6712    19.765862    19.845069    20.546333    8059.3996    7004.6445    6899.8455    5357.5235    327.05425   -297.55818    420.61058   -4011.3905 
15190000    131.76994   -4988.7031   -4734.5737   -4988.7031            0    4933.1512    19.812884    19.889981    20.590908    8114.4214    5435.3438    4643.2193    4720.8905    42.125986     383.7521   -723.57201    -4150.782 
15191000    121.32521   -4984.9327   -4750.9468   -4984.9327            0    4546.5595     19.85535     19.86326    20.596277    8123.0061    4564.8154    4158.6035    4916.2595   -230.48748     746.5288    70.337845   -4212.3354 
15192000    126.04061   -4993.0949   -4750.0149   -4993.0949            0    5914.4273    19.852828    19.746339    20.622065    8084.2756    5567.7521    6343.9325    5831.5975    54.663838    767.32648   -209.87901   -4052.6988 
15193000    123.33957     -4987.93   -4750.0593     -4987.93            0    6337.8503    19.767685    19.799923    20.610626    8066.9709    5877.2771     7109.828    6026.4459    53.067167    440.59185    231.95362   -4004.4207 
15194000    129.49509   -4989.7419   -4739.9998   -4989.7419            0    5300.6653    20.054094    19.819273    20.355199    8090.3281    3449.7924     5561.989    6890.2146    252.37089   -409.45543   -397.28802   -4114.5788 
15195000       128.68   -4997.1977   -4749.0275   -4997.1977            0    5294.8168    19.809771    19.970966    20.411966    8075.3874    4888.8148    5240.5978    5755.0377    665.75009    119.60385   -299.56935   -4125.4504 
15196000    124.43092    -4995.916   -4755.9405    -4995.916            0    5139.0131    19.830725    19.800606    20.610981     8093.116    5075.6166    4724.2568     5617.166   -157.24362   -119.05622   -50.039575   -4149.3839 
15197000     122.5959   -4992.4884   -4756.0519   -4992.4884            0    4694.8242    19.813121     19.98249    20.550215    8136.1488    4777.4278    4530.1739     4776.871   -62.316499    501.09274    410.32283   -4198.9763 
15198000     125.5983   -4990.8976   -4748.6707   -4990.8976            0    5736.6962    19.752414    19.921924    20.492289    8063.8405    6578.5306     4749.966    5881.5921    138.28324    205.95295    1244.2866   -4074.0189 
15199000    129.31738   -4991.0862   -4741.6868   -4991.0862            0    5106.1351    19.945725    19.955148    20.361058     8104.106    5146.1762    4650.1049    5522.1241    376.04195     1116.404   -728.90124   -4138.1923 
15200000    118.27467   -4989.4544   -4761.3518   -4989.4544            0    4772.5051    19.818307     19.96346    20.437442    8085.9101     4715.459    4379.8544    5222.2019   -119.60679    86.968361    171.86267   -4198.5555 
15201000    125.07944    -4994.399   -4753.1728    -4994.399            0    6466.6929    19.816697    19.856541    20.427006    8037.8438    5284.6501    7766.8136    6348.6149   -132.20941    714.26788    -725.6525   -3995.1231 
15202000    124.88655    -4994.717   -4753.8628    -4994.717            0    5462.6914    20.002687    19.881018    20.392208    8109.4467    4482.1818    5316.3482    6589.5441    241.46722    231.62273   -222.54827   -4107.8014 
15203000    121.13394   -4995.3406   -4761.7236   -4995.3406            0    6035.5047    19.791588    19.943993    20.394015    8049.9927    6588.0957    5410.5957    6107.8226    54.504145    535.63555   -752.46286     -4053.15 
15204000     117.5244   -4986.7092   -4760.0535   -4986.7092            0    7028.2058    19.721144    19.951434     20.38661    8021.4195    6657.7495    6657.4767    7769.3913   -64.791399    -742.4578    106.36307   -3937.8646 
15205000    119.52706   -4998.8313   -4768.3134   -4998.8313            0    5583.5368    19.847472    19.970462    20.350022    8065.9997    6147.1368    4463.1519    6140.3217   -639.42165    127.43756    63.302098   -4111.4977 
15206000    118.01596   -4992.9308   -4765.3271   -4992.9308            0     5035.583    19.939024     19.79071    20.462895     8074.811    4563.9403     5677.394    4865.4146    98.047239   -147.02339    530.25836   -4172.3226 
15207000     125.6099   -4996.8358   -4754.5865   -4996.8358            0    6431.8751    19.867948    19.932744     20.36757    8066.0207    6487.2634      4588.75    8219.6118   -105.58158    102.57491    932.82685   -3997.9752 
15208000    127.31847   -4995.1216   -4749.5772   -4995.1216            0    5559.3233    19.869756     19.97391    20.380003    8088.3488    5842.3746    5070.8579    5764.7374    -344.9082    182.56447    1041.3014   -4093.7979 
15209000    124.08185   -4994.9456   -4755.6433   -4994.9456            0    6041.7868    19.765879    20.012513    20.420373    8077.5827    8499.7825    3477.8234    6147.7545    123.24742      111.561    26.079363   -4043.9011 
15210000    129.82803   -4988.2951   -4737.9108   -4988.2951            0    5260.4297    19.792668    19.866842    20.564109    8086.1736    5776.9717     4709.232    5295.0854   -44.528319   -623.28561   -156.91909    -4117.556 
15211000    128.08646   -5002.4658   -4755.4403   -5002.4658            0    6071.2498    19.795619    19.873697    20.545393     8082.807    7683.3258    4777.5266    5752.8971    159.87208   -397.71983   -31.493518   -4039.7648 
15212000    123.18576   -4989.6542   -4752.0801   -4989.6542            0    5267.4709    19.910961    19.714271    20.609006    8089.6548    4751.0101    6500.4796    4550.9228   -482.76117     803.9946   -344.62449   -4130.6275 
15213000    132.92738   -4994.2748   -4737.9131   -4994.2748            0    6569.4487    19.820493       19.828    20.469822    8044.6553    8027.8868    4628.6751    7051.7842   -741.73177     -297.212    886.46218   -3967.1654 
15214000    124.37245   -4990.5672   -4750.7045   -4990.5672            0    6314.5878    19.842683    19.750766    20.610076    8077.2574    6007.0697    6894.7204    6041.9731   -447.53975    100.26891    798.04662   -4006.8554 
15215000    126.75846   -5021.0888   -4776.6245   -5021.0888            0    4863.4619    19.818035    19.771402    20.655164    8093.3197    5333.5912    5225.1414     4031.653   -160.40247    179.02034    626.80488   -4202.5766 
15216000    126.90993   -5008.0152   -4763.2588   -5008.0152            0    4919.8215    19.969219    19.781751    20.481358    8090.6714    4723.5899    4317.9963    5717.8781   -67.379227   -46.854813    -404.2095   -4182.7486 
15217000    119.28132    -4996.427   -4766.3829    -4996.427            0    6216.0644    19.707241    19.940771    20.447826    8035.5372    7644.1379    4561.0818    6442.9734   -381.18364    308.53158   -1635.7509   -4037.9219 
15218000    128.76093   -4992.3145   -4743.9882   -4992.3145            0    4820.6466    19.797277    19.963514    20.508961    8105.6176    3845.9029    5750.1742    4865.8628   -673.59139    284.20361   -93.556342   -4174.1294 
15219000    120.53345   -4978.3148   -4745.8559   -4978.3148            0     6757.915    19.915571    19.819769    20.432518    8065.1648    6024.5723    7159.3833    7089.7895   -207.91971    782.29825   -32.270226   -3950.9754 
15220000    123.46756   -4998.1762   -4760.0586   -4998.1762            0    5703.7491    19.615578      19.9149    20.488945    8003.8477    6104.3474    5229.1732    5777.7266    286.42789     578.1144   -272.63096   -4094.2719 
15221000    119.63298   -4989.7032   -4758.9809   -4989.7032            0    5207.1411    19.941175    19.895319    20.426985    8104.1212    6723.9049    4694.3293     4203.189    39.407582    -78.85455    422.10287   -4143.5474 
15222000    128.52018   -5010.6025   -4762.7405   -5010.6025            0    5842.2871    19.823836    19.796416    20.588203    8079.6527    5870.0635    6030.9782    5625.8195   -234.69223   -453.85206    74.458148   -4074.3237 
15223000    125.79706   -5007.1268   -4764.5166   -5007.1268            0    4400.3164    19.898745    19.776516    20.642706      8123.48      5468.75    3523.4639    4208.7352   -351.75844     556.3417   -372.52394   -4243.1996 
15224000    128.49779   -4996.8768    -4749.058   -4996.8768            0    6121.8244    19.749854     19.89272    20.457318    8037.2364    7502.1468    5549.1516    5314.1747   -279.54623   -113.89441    748.05349   -4031.4893 
15225000    122.33035    -4997.736   -4761.8117    -4997.736            0    6311.9251    19.795664    20.011382     20.36864    8068.8042    6641.8977    5652.1222    6641.7553    235.00425   -861.45982    55.414758   -4019.0544 
15226000     127.3421   -4994.0857   -4748.4958   -4994.0857            0    7142.3508    19.821834    19.814803    20.428125    8023.4676    7361.7138    6667.1116    7398.2268   -519.18502   -121.08756    123.27739   -3912.7404 
15227000    133.08125   -4980.3179   -4723.6596   -4980.3179            0    5829.7118    19.899667    19.881291    20.455159    8092.6961    6136.3962    4958.7866    6393.9526    478.84788    1268.2254   -52.257081   -4035.6156 
15228000    126.89579   -4993.4662    -4748.737   -4993.4662            0    3767.9143    20.081021     19.85527    20.466235    8160.1762    2762.5875    3848.0661    4693.0893   -492.89157    170.89832    533.16882   -4300.3258 
15229000    125.82321   -4982.0538   -4739.3931   -4982.0538            0    6792.0572    19.876611    19.733321    20.459489    8024.8568    6180.2034     7361.771    6834.1974   -390.02639   -195.51872     102.5439   -3944.4894 
15230000    131.07118   -4986.2768    -4733.495   -4986.2768            0    5554.7975    19.848084     19.84972    20.504376    8078.2916    6253.7226    4935.1242    5475.5457   -78.390255    193.26696    457.18279   -4079.0644 
15231000    128.82548   -4995.8196   -4747.3688   -4995.8196            0    5198.2567    19.733078    19.867251    20.671009    8103.9036    6069.5094    5816.2287    3709.0319    260.52811    768.40839    520.54377   -4133.0018 
15232000    126.90322   -4997.9332   -4753.1897   -4997.9332            0    5360.2351    19.823518    19.856092    20.536838    8083.6611    4588.7432    5599.2243    5892.7377   -106.66415    366.99341    287.71614   -4121.2614 
15233000     126.7254   -5007.6667   -4763.2661   -5007.6667            0    4388.7946    19.814998    19.999854    20.526911    8134.7546    5193.4479    2962.7523    5010.1836    327.63421      564.498    348.01178   -4242.5924 
15234000    128.99592   -4995.3622   -4746.5828   -4995.3622            0    4680.2744    19.989619    19.773092    20.508425    8106.0897    4761.0391    4232.5223    5047.2618    373.35494   -313.79706   -918.92999   -4193.2854 
15235000     116.9891   -4996.3329   -4770.7096   -4996.3329            0    6019.3229    19.872572     19.79076    20.605268    8103.9141    5554.9446    6506.8306    5996.1935    362.77379   -589.40509    1768.8695   -4059.3022 
15236000    122.14793   -5003.6069   -4768.0344   -5003.6069            0    4042.7274    19.752892    19.891354    20.675346    8123.5868    5127.6339     4424.821    2575.7273   -95.239897     -856.737    -486.2772   -4289.0756 
15237000    119.59254   -4986.6523    -4756.008   -4986.6523            0    6069.0247    19.810611    19.915331     20.52865    8099.2684    7900.2386    4521.7195     5785.116   -369.48938     243.5662    567.42893   -4039.1378 
15238000    126.45006   -4991.3017   -4747.4321   -4991.3017            0    5661.0834    19.723124     19.78281    20.718937    8084.0901    5509.3415    6118.5478    5355.3609     37.76267    225.73077    22.500872   -4080.0008 
15239000    122.76114   -4994.4594   -4757.7042   -4994.4594            0    4401.1496    19.982422    19.804897    20.605437    8154.5977    3094.0914    5544.5365    4564.8211   -556.61185   -478.50858   -456.68252   -4234.2911 
15240000    126.32907   -4992.7182    -4749.082   -4992.7182            0    6625.7494    19.897913    19.734246    20.601232    8089.4922    6848.9607    6658.8336    6369.4541   -298.84856    1122.0114    -685.1036   -3967.3963 
15241000     124.6468    -5004.911   -4764.5192    -5004.911            0    4759.1133    19.856607    19.866763    20.526919    8097.5931    5179.4013    4639.8882    4458.0503   -274.39198   -105.66176    935.45789   -4202.4912 
15242000    133.07138    -5009.097   -4752.4577    -5009.097            0    6260.1518    19.857731    19.742563    20.515767    8043.0524    6528.6178     6848.797    5403.0406   -174.73084    90.046908   -111.20362    -4018.144 
15243000    128.35268   -4993.1545   -4745.6156   -4993.1545            0    4955.8319    19.900304     19.95056    20.394417    8097.0367    5250.9594    4192.2419    5424.2943    28.573176     211.4162   -55.589694   -4160.3964 
15244000    121.93314   -4983.8438   -4748.6855   -4983.8438            0    5548.8038    19.807463    19.905681    20.493039    8080.0168    5356.8368    4386.7016    6902.8729    117.19691    1673.5205   -417.46203   -4094.8213 
15245000    131.02953   -4990.1097   -4737.4082   -4990.1097            0    5641.4729    19.836008    20.043573    20.429348    8122.3916    4683.1749    6042.4217    6198.8221   -275.94407   -688.08751    242.03855   -4069.1377 
15246000    126.90881   -4987.8397   -4743.0853   -4987.8397            0    6323.9183    19.882111    19.760027    20.515617    8059.9918    6532.4742    5926.9465    6512.3343    -312.2097    137.22347   -514.61022   -3999.7295 
15247000    119.48704   -4987.2749   -4756.8341   -4987.2749            0    6206.8826    19.814097    19.841799    20.563126    8084.3383    6764.5963    6202.9534    5653.0982    459.92944   -1017.3855    99.485829   -4025.0316 
15248000    126.83715   -4985.3626   -4740.7465   -4985.3626            0    4905.1673    20.077743     19.74611     20.40067    8087.9952    3466.0949    5456.1664    5793.2405   -167.70532   -388.55657   -793.11707   -4162.1569 
15249000    126.35887   -5009.3182   -4765.6245   -5009.3182            0    5642.1514    20.009614    19.699551    20.501706    8081.3711    4558.3234    7079.4867     5288.644   -486.68207    269.36965   -254.52259   -4100.6489 
15250000    129.43768   -4976.3832   -4726.7518   -4976.3832            0    5687.7517    19.779468    19.668859    20.681487    8045.9168    5818.3206    6085.0124    5159.9222    72.203602   -272.58619    583.15088   -4059.3428 
Loop time of 341.999 on 64 procs for 250000 steps with 972 atoms

Performance: 126.316 ns/day, 0.190 hours/ns, 730.995 timesteps/s
99.1% CPU use with 64 MPI tasks x 1 OpenMP threads

MPI task timing breakdown:
Section |  min time  |  avg time  |  max time  |%varavg| %total
---------------------------------------------------------------
Pair    | 19.167     | 28.28      | 38.689     |  86.7 |  8.27
Bond    | 0.25956    | 0.27452    | 0.28723    |   1.1 |  0.08
Kspace  | 131.71     | 142.11     | 151.35     |  39.3 | 41.55
Neigh   | 0.89146    | 0.9022     | 0.91385    |   0.6 |  0.26
Comm    | 81.721     | 82.673     | 83.738     |   4.5 | 24.17
Output  | 0.5727     | 0.57364    | 0.57509    |   0.0 |  0.17
Modify  | 80.998     | 82.298     | 82.895     |   5.1 | 24.06
Other   |            | 4.891      |            |       |  1.43

Nlocal:        15.1875 ave          19 max          10 min
Histogram: 1 0 5 11 9 12 7 4 12 3
Nghost:        2334.88 ave        2357 max        2312 min
Histogram: 5 5 4 5 14 6 8 7 4 6
Neighs:        4880.92 ave        6738 max        2605 min
Histogram: 1 0 4 10 14 10 8 8 5 4

Total # of neighbors = 312379
Ave neighs/atom = 321.37757
Ave special neighs/atom = 2.0000000
Neighbor list builds = 2694
Dangerous builds = 0

unfix		3
unfix		2
unfix		1

write_data	data.final.${pid}
write_data	data.final.1
System init for write_data ...
PPPM initialization ...
  extracting TIP4P info from pair style
  using 12-bit tables for long-range coulomb (../kspace.cpp:340)
  G vector (1/distance) = 0.37332538
  grid = 24 24 25
  stencil order = 5
  estimated absolute RMS force accuracy = 0.0032968779
  estimated relative force accuracy = 9.9284499e-06
  using double precision FFTW3
  3d grid and FFT values/proc = 2366 288
Last active /omp style is kspace_style pppm/tip4p/omp
WARNING: Not all mixed pair coeffs generated from mixing. Use write_data with 'pair ij' option to store all pair coeffs. (../write_data.cpp:312)

write_restart   restart.lmp.${pid}
write_restart   restart.lmp.1
System init for write_restart ...
PPPM initialization ...
  extracting TIP4P info from pair style
  using 12-bit tables for long-range coulomb (../kspace.cpp:340)
  G vector (1/distance) = 0.37332538
  grid = 24 24 25
  stencil order = 5
  estimated absolute RMS force accuracy = 0.0032968779
  estimated relative force accuracy = 9.9284499e-06
  using double precision FFTW3
  3d grid and FFT values/proc = 2366 288
Last active /omp style is kspace_style pppm/tip4p/omp
Total wall time: 0:05:42
