LAMMPS (30 Jul 2021)
Processor partition = 0
  using 4 OpenMP thread(s) per MPI task
using multi-threaded neighbor list subroutines
variable        pid world 0 1
variable        phase world IceIh Liquid

shell cd ${phase}
shell cd IceIh
include Restart.lmp
echo both
log log.lammps
#include		in.partitions
include		in.temp
variable        temperature equal 278.65
variable	tempDamp equal 100.0
include		in.pressure
variable        pressure equal -1875.0
variable        pressureDamp equal 1000.0 # This is 1 ps
include		in.seed
variable        seed equal 745823

units		real
atom_style	full
#include		in.box
read_restart	restart.lmp.${pid}
read_restart	restart.lmp.0
Reading restart file ...
  restart file = 30 Jul 2021, LAMMPS = 30 Jul 2021
  restoring atom style full from restart
  orthogonal box = (-0.16310575 0.049087888 0.010165118) to (18.370678 23.580090 22.203031)
  2 by 4 by 2 MPI processor grid
  restoring pair style lj/cut/tip4p/long/omp from restart
  restoring bond style harmonic/omp from restart
  restoring angle style harmonic/omp from restart
  864 atoms
  576 bonds
  288 angles
Finding 1-2 1-3 1-4 neighbors ...
  special bond factors lj:    0        0        0       
  special bond factors coul:  0        0        0       
     2 = max # of 1-2 neighbors
     1 = max # of 1-3 neighbors
     1 = max # of 1-4 neighbors
     2 = max # of special neighbors
  special bonds CPU = 0.001 seconds
  read_restart CPU = 0.006 seconds
include 	in.setup
variable	out_freq equal 1000
variable	out_freq2 equal 10000
variable	out_freq3 equal 1000

timestep	2.0

neigh_modify    delay 7 every 1

include		in.tip4p
# This is TIP4P/Ice

# create groups ###
group ox type 2
288 atoms in group ox
group hy type 1
576 atoms in group hy

# set charges - beside manually ###
set group ox charge -1.1794
Setting atom values ...
  288 settings made for charge
set group hy charge 0.5897
Setting atom values ...
  576 settings made for charge

# ### TIP3P Potential Parameters ###
pair_style lj/cut/tip4p/long/omp 2 1 1 1 0.1577 8.5
pair_coeff 1 1*2 0.000 0.000
pair_coeff 2 2 0.21084 3.1668
bond_style  harmonic
bond_coeff  1 450 0.9572
angle_style harmonic
angle_coeff 1 55 104.52
kspace_style pppm/tip4p/omp 1.0e-5
pair_modify tail yes

thermo          ${out_freq}
thermo          1000
thermo_style    custom step temp pe etotal epair emol press lx ly lz vol pxx pyy pzz pxy pxz pyz enthalpy

restart 	${out_freq3} restart.lmp.${pid} restart2.lmp.${pid}
restart 	1000 restart.lmp.${pid} restart2.lmp.${pid}
restart 	1000 restart.lmp.0 restart2.lmp.${pid}
restart 	1000 restart.lmp.0 restart2.lmp.0


include         in.dump
dump            myDump all atom ${out_freq2} dump.water.${pid}
dump            myDump all atom 10000 dump.water.${pid}
dump            myDump all atom 10000 dump.water.0
dump            myDump2 all dcd ${out_freq2} dump.dcd
dump            myDump2 all dcd 10000 dump.dcd
dump_modify     myDump append yes
dump_modify     myDump2 append yes


variable natoms 	equal  "count(all)"                        # NUMBER ATOMS
variable H      	equal  "enthalpy/v_natoms"                 # ENTHALPY-per-atom
variable Vol      	equal  "vol/v_natoms"                 # volume-per-atom
fix AVG all 		ave/time ${out_freq} 1 ${out_freq} v_Vol v_H file vol_enthalpy.dat
fix AVG all 		ave/time 1000 1 ${out_freq} v_Vol v_H file vol_enthalpy.dat
fix AVG all 		ave/time 1000 1 1000 v_Vol v_H file vol_enthalpy.dat


timer           timeout 23:50:00 every 1000
New timer settings: style=normal  mode=nosync  timeout=23:50:00

fix 		1 all shake 1e-6 200 0 b 1 a 1
Finding SHAKE clusters ...
       0 = # of size 2 clusters
       0 = # of size 3 clusters
       0 = # of size 4 clusters
     288 = # of frozen angles
  find clusters CPU = 0.000 seconds
fix             2 all nph aniso ${pressure} ${pressure} ${pressureDamp}
fix             2 all nph aniso -1875 ${pressure} ${pressureDamp}
fix             2 all nph aniso -1875 -1875 ${pressureDamp}
fix             2 all nph aniso -1875 -1875 1000
fix             3 all temp/csvr ${temperature} ${temperature} ${tempDamp} ${seed}
fix             3 all temp/csvr 278.65 ${temperature} ${tempDamp} ${seed}
fix             3 all temp/csvr 278.65 278.65 ${tempDamp} ${seed}
fix             3 all temp/csvr 278.65 278.65 100 ${seed}
fix             3 all temp/csvr 278.65 278.65 100 745823


run             250000
PPPM initialization ...
  extracting TIP4P info from pair style
  using 12-bit tables for long-range coulomb (../kspace.cpp:340)
  G vector (1/distance) = 0.37076123
  grid = 24 27 25
  stencil order = 5
  estimated absolute RMS force accuracy = 0.0032526645
  estimated relative force accuracy = 9.7953026e-06
  using double precision FFTW3
  3d grid and FFT values/proc = 5700 1296
Last active /omp style is kspace_style pppm/tip4p/omp
Neighbor list info ...
  update every 1 steps, delay 7 steps, check yes
  max neighbors/atom: 2000, page size: 100000
  master list distance cutoff = 10.8154
  ghost atom cutoff = 10.8154
  binsize = 5.4077, bins = 4 5 5
  1 neighbor lists, perpetual/occasional/extra = 1 0 0
  (1) pair lj/cut/tip4p/long/omp, perpetual
      attributes: half, newton on, omp
      pair build: half/bin/newton/omp
      stencil: half/bin/3d
      bin: standard
Setting up Verlet run ...
  Unit style    : real
  Current step  : 7750000
  Time step     : 2
  Walltime left : 23:49:59.95
Per MPI rank memory allocation (min/avg/max) = 12.22 | 12.25 | 12.27 Mbytes
Step Temp PotEng TotEng E_pair E_mol Press Lx Ly Lz Volume Pxx Pyy Pzz Pxy Pxz Pyz Enthalpy 
 7750000    301.13671   -4164.6459   -3648.5079   -4164.6459            0   -1755.1423    18.533784    23.531002    22.192866    9678.7194   -2041.5214   -2158.9246    -1064.981   -39.470005    -600.9968   -91.327475   -3896.2536 
 7751000    282.12453   -4169.3404   -3685.7886   -4169.3404            0   -1725.2299    18.341145    23.614915     22.43095    9715.3962   -1883.3004    -974.6748   -2317.7145   -497.08572   -473.00917    512.71096   -3930.2348 
 7752000    287.14693   -4176.5579   -3684.3979   -4176.5579            0     -2636.13    18.216865    23.955303    22.431198    9788.7623   -1732.8028   -2938.3707   -3237.2165      809.428   -475.49414    889.42695   -4060.7294 
 7753000    278.29474   -4166.3792   -3689.3916   -4166.3792            0   -2675.6511    18.139802    24.042216    22.417194      9776.61   -2644.4221    -2231.642   -3150.8893   -179.78445     279.4395   -292.67167   -4070.8908 
 7754000    256.34982   -4181.4136   -3742.0388   -4181.4136            0   -1980.2434    18.372902    23.725849    22.230341    9690.4881   -2192.4451    -1845.723    -1902.562   -1113.7046    -569.7265    271.54901   -4021.8983 
 7755000    280.15285   -4160.1514    -3679.979   -4160.1514            0    -1948.576    18.489055    23.437919    22.388146    9701.7903   -3772.8685    -1275.177   -797.68242   -489.44362   -53.746055    137.15364   -3955.6843 
 7756000    290.34219    -4179.078   -3681.4414    -4179.078            0   -1598.7066    18.302126    23.597998    22.433369    9688.8269   -2676.0513   -1858.3267    -261.7418     -281.668   -756.68646   -94.353934   -3907.3412 
 7757000    278.58071   -4169.7851   -3692.3073   -4169.7851            0   -1015.8636     18.11827    23.827022    22.200217    9583.9315   -1101.8652   -956.61252   -989.11309   -863.37702    143.30311    599.68593   -3834.2964 
 7758000    284.05926   -4161.7755   -3674.9076   -4161.7755            0   -692.84331    17.958525    23.899209    22.341047    9588.6552   -143.88682   -1118.5856   -816.05756    1065.9176    -812.7866    1151.5287   -3771.7953 
 7759000     294.8129    -4168.761   -3663.4618    -4168.761            0   -863.10424    18.309939    23.769991    22.204872    9664.1617      682.254   -2712.2449   -559.32178   -483.31604   -109.98791   -652.15655   -3785.1093 
 7760000    288.26313   -4172.9546   -3678.8814   -4172.9546            0   -1389.7677    18.545054    23.340947    22.373111    9684.4052   -1106.0612   -1013.6601   -2049.5817   -560.92775   -601.72444   -170.01095   -3875.1682 
 7761000    280.86953   -4177.3054   -3695.9046   -4177.3054            0   -1316.2888    18.271456     23.58725    22.411058    9658.5699   -520.10721   -947.15686   -2481.6022    -522.7151    599.82707    491.36155   -3881.3175 
 7762000    288.60885   -4131.1975   -3636.5318   -4131.1975            0    -1570.633    18.129862    24.129549    22.149204    9689.5102     -1929.36   -1960.3616   -822.17734   -747.08943    174.36321   -366.66018   -3858.4804 
 7763000    288.27042   -4145.1127   -3651.0271   -4145.1127            0   -2526.6579    18.121455    23.949418    22.433848    9736.2522   -1797.0651   -2458.5083   -3324.4004   -259.60481    249.70909    658.41299   -4009.7955 
 7764000    267.57113   -4175.7639   -3717.1562   -4175.7639            0   -2746.3055    18.258057    23.691665    22.594351    9773.4978   -3173.6548   -1346.1782   -3719.0834    723.11538    166.22058    64.737581   -4108.6048 
 7765000    291.76917   -4190.5372   -3690.4548   -4190.5372            0   -1806.4749    18.394416    23.682624    22.266271    9699.8123   -2168.1732   -1746.5228   -1504.7286   -599.17463   -628.83161   -370.41159    -3946.002 
 7766000    289.48246   -4173.0643   -3676.9013   -4173.0643            0   -1354.5277    18.451914    23.547726    22.253508    9669.1628   -1325.0094   -806.28301   -1932.2906    288.11466    190.07851    225.19178   -3867.9098 
 7767000    284.41823   -4170.3021    -3682.819   -4170.3021            0   -1584.6157     18.21644    23.607188    22.558502    9701.0341   -1216.3053   -1323.1507   -2214.3909    -1001.972    941.54245   -730.67218   -3907.0098 
 7768000    263.78472   -4175.3363   -3723.2183   -4175.3363            0   -2157.2221    18.195973    24.128584     22.11836    9710.9125    -2238.762   -3060.0772   -1172.8271    161.74778   -281.22949   -287.08297   -4028.7321 
 7769000     290.3182   -4183.6005   -3686.0051   -4183.6005            0   -3107.5684    18.222498    23.913981      22.4539    9784.7916   -3066.6873   -3843.8574   -2412.1607   -328.97905   -530.58769   -314.27272   -4129.4587 
 7770000    262.66849   -4151.1346   -3700.9298   -4151.1346            0   -2638.6871    18.361131    23.802179    22.500551    9833.5262   -3079.8576   -2985.6172   -1850.5864    1381.1976     218.6762    113.44849   -4079.3489 
 7771000    281.95736    -4182.704   -3699.4387    -4182.704            0   -2224.3753     18.49741    23.635681    22.308495    9753.2495    -2677.547   -2836.2602   -1159.3187   -66.794138    554.55575    433.03403   -4015.8364 
 7772000    280.43994   -4140.9655   -3660.3011   -4140.9655            0   -1305.0457    18.287474    23.647985    22.492291    9727.0588   -417.99615   -1249.1442   -2247.9968   -726.09022    649.43774   -516.06807   -3845.4338 
 7773000    263.14366   -4167.5978   -3716.5785   -4167.5978            0   -875.92148    18.195145    23.965676    22.199756    9680.4019   -1861.7138   -685.01915   -81.031521    192.39848    272.35686    456.17828     -3840.24 
 7774000    287.20033   -4116.5212   -3624.2696   -4116.5212            0   -1754.9442    18.237564    23.859484     22.23597    9675.7349   -1858.8874   -2521.4377    -884.5074    458.72135    166.73722   -90.916527    -3871.911 
 7775000    279.59881   -4156.4406   -3677.2178   -4156.4406            0   -844.89734     17.91835    23.521164    22.733733    9581.3693   -247.64508     932.6991    -3219.746   -25.414359    485.50641    956.02207   -3795.2791 
 7776000    287.63853   -4146.6227   -3653.6201   -4146.6227            0   -1702.3714    18.276721    23.839876     22.17419    9661.6217   -1750.8936   -2656.3401    -699.8803   -15.957058    575.95099    198.78583   -3893.4925 
 7777000    267.09446   -4121.3089   -3663.5182   -4121.3089            0   -1219.9177    18.299145    23.760343    22.177071    9642.4564    -1519.474   -1579.3919   -560.88706    115.95926    94.461564    615.85465   -3835.0695 
 7778000    281.50769   -4194.6401   -3712.1455   -4194.6401            0   -1903.3599    18.212618    23.332395    22.708476    9649.8303   -1346.2549   -1300.8048     -3063.02      615.557   -250.25224     233.7087   -3980.0108 
 7779000    266.48679   -4177.1541   -3720.4049   -4177.1541            0   -2288.0464    18.330855    23.777232    22.198411    9675.3326   -2074.5668   -1578.7655   -3210.8069   -145.57826   -934.11386    247.95479   -4043.2592 
 7780000    279.96619   -4142.3319   -3662.4795   -4142.3319            0   -879.03338    18.139797    23.868557    22.277528    9645.5184   -1156.0721   -601.91394   -879.11406    286.34388    904.34335    -661.8322   -3786.1331 
 7781000    283.57878   -4142.3941   -3656.3498   -4142.3941            0   -813.04209    18.041808    23.719166    22.392554     9582.594     1166.621   -1308.3565   -2297.3908    66.160939    304.98067    102.90312   -3769.9743 
 7782000    281.04506   -4153.1723   -3671.4707   -4153.1723            0   -2578.9409    18.400057    23.714974    22.222385    9696.8905   -3072.2596   -1999.3511   -2665.2121    386.03317   -280.86702   -178.83512   -4036.1825 
 7783000    284.18597   -4169.7838   -3682.6988   -4169.7838            0   -1766.5883    18.396767    23.480011    22.514383    9725.2298   -2867.5128    416.77314   -2849.0251    805.49349   -382.09029    508.74646   -3933.2584 
 7784000    271.00823   -4190.0639   -3725.5651   -4190.0639            0   -1413.0723    18.158089    23.783677    22.311349    9635.5159   -1891.9026   -1747.8261   -599.48822    766.76969     74.03433    631.35209   -3924.1358 
 7785000    266.34337   -4185.3179   -3728.8145   -4185.3179            0   -1430.1461    18.160033     23.94067    22.277931     9685.628    -1109.327   -2259.2115   -921.89966   -724.80022   -437.75012   -1222.8457   -3930.8297 
 7786000    267.15502   -4179.9196   -3722.0251   -4179.9196            0   -695.13214    18.033718    23.809029    22.393356    9614.9304    924.43279    -2190.662   -819.16719    830.41714    586.62461    376.99885   -3819.4992 
 7787000    295.69665   -4185.8886   -3679.0746   -4185.8886            0   -2788.5953     18.37854    23.552959    22.462169    9723.1763   -2721.8027   -2140.2416   -3503.7415   -1085.9718   -829.00496    359.62193   -4074.5046 
 7788000    294.21247   -4195.6605   -3691.3904   -4195.6605            0   -1256.2826    18.516238    23.669063    22.004721    9643.8335   -1974.1018   -742.69683   -1052.0492    -901.8679   -694.49917    392.31426   -3868.0808 
 7789000    275.56949   -4157.2526   -3684.9359   -4157.2526            0   -413.59054    18.091732    23.671202    22.449459    9614.0492    822.89485   -336.03355   -1727.6329   -400.62914    26.996261    972.91017   -3742.9258 
 7790000    290.52165   -4195.7997   -3697.8556   -4195.7997            0   -1224.0021    17.943203    24.245424    22.179873    9649.1442    61.279433   -2402.5533   -1330.7323   -141.62903   -271.84861   -837.14926   -3870.1006 
 7791000    264.66682   -4148.2626   -3694.6327   -4148.2626            0   -1324.2964    18.215213    23.896329    22.381308    9742.0623   -7.9919013   -3098.9874   -865.90998    872.83856   -105.41971    442.64255   -3882.7861 
 7792000    282.72302    -4182.974   -3698.3965    -4182.974            0   -1185.8602    18.471838    23.366229     22.48008    9702.7895   -3071.5421    1100.1051   -1586.1437    -571.1163   -93.147169    271.21958   -3866.2019 
 7793000    287.39764   -4168.3666   -3675.7769   -4168.3666            0   -1879.2378    18.473922    23.650605     22.29099     9739.367   -2273.6741   -1732.2252   -1631.8143    336.55444   -302.58366    506.03673   -3942.7013 
 7794000    275.55962   -4154.9888   -3682.6891   -4154.9888            0   -2068.7978    18.232298    23.921586    22.326693    9737.6861   -1529.0332     -2651.44   -2025.9203   -282.71363     720.9936     570.0873   -3976.4877 
 7795000    269.55613   -4206.6914   -3744.6814   -4206.6914            0   -2289.7378    18.107702    23.789173    22.517669    9699.8747   -1141.2455   -1511.6782   -4216.2898    363.20214   -154.63712   -253.46163    -4068.594 
 7796000     290.6133   -4167.2848   -3669.1835   -4167.2848            0   -2593.3956    18.487099    23.859163     22.13349    9762.7881   -3763.8392   -1508.9579   -2507.3898    458.23874    186.72709   -25.694362   -4038.4318 
 7797000    263.38344   -4158.0611   -3706.6309   -4158.0611            0   -2680.7349    18.333744    23.696704    22.491501    9771.4169   -1459.8665   -2322.3818   -4259.9564   -304.24173   -188.80545    383.42654    -4088.652 
 7798000    279.25083    -4151.065   -3672.4386    -4151.065            0   -2666.8655    18.245962    23.717184    22.661323    9806.5254   -2513.2318   -1020.2188   -4467.1459    584.27164   -864.92931    290.39098   -4053.8487 
 7799000    286.66871   -4164.7498   -3673.4094   -4164.7498            0   -2002.6746    18.326885    23.886746    22.171268    9705.9081   -1894.1918    -2028.288   -2085.5439   -123.24448    282.34271    537.37751   -3956.8894 
 7800000    285.51024   -4189.0845   -3699.7298   -4189.0845            0   -2169.6058    18.092661    23.582821    22.686089    9679.6093   -210.70135   -1646.1559     -4651.96   -224.75255   -98.141489    130.61353   -4006.0069 
 7801000    282.48938   -4139.9833   -3655.8062   -4139.9833            0    -1920.478    18.303773    23.770493    22.327615    9714.5153   -3622.1008   -1957.0859   -182.24733    -814.5879    159.08926    205.54363   -3927.8923 
 7802000    282.58972   -4179.0143   -3694.6652   -4179.0143            0   -1480.4993    18.480223    23.763316    22.036995    9677.5767   -3019.5085   -1411.8624   -10.126932    164.05684    599.66042    809.52277   -3903.6192 
 7803000    271.72393    -4173.755   -3708.0294    -4173.755            0   -2920.8311    18.346664    23.511109    22.549341     9726.668   -2930.4015    -1981.521   -3850.5709    462.52718   -270.40662   -142.64905   -4122.3595 
 7804000    282.40451    -4145.081   -3661.0493    -4145.081            0   -1469.9199    18.399306    23.813441    22.112891    9688.7809   -2446.3086   -226.43273   -1737.0183   -215.26022    89.275378   -363.41679   -3868.7504 
 7805000    284.39727    -4171.972   -3684.5249    -4171.972            0   -2414.9196    18.208616    23.958981    22.371726    9759.8866   -2824.3492    -1483.588   -2936.8216   -1180.2175   -194.39149   -321.14182   -4028.2595 
 7806000    277.02124   -4119.9512   -3645.1463   -4119.9512            0   -1168.1659    17.985847    23.918626    22.606905    9725.4173    -1142.103   -295.05749   -2067.3372   -604.33374    166.69584    73.633372   -3810.8334 
 7807000    293.82023   -4190.1098    -3686.512   -4190.1098            0   -1650.6139    18.394392    23.800169    22.103612     9676.732   -2889.3198   -959.84137   -1102.6804    207.69513   -781.79876    552.23181   -3919.4553 
 7808000    276.31255   -4152.6065   -3679.0163   -4152.6065            0   -3080.9058    18.461174     23.51744    22.704153    9857.2248    -3383.128   -1720.6184   -4138.9709   -146.94374    497.49236     1149.979   -4121.9196 
 7809000    290.32314   -4175.9663   -3678.3623   -4175.9663            0   -2302.2312    18.359081    23.754247    22.392837    9765.6537   -2357.1756   -2118.9452   -2430.5727   -333.75951   -243.95069    215.03629   -4006.2508 
 7810000    268.79248   -4185.5761    -3724.875   -4185.5761            0   -2095.0952      18.4225    23.884003    22.142955    9742.9676   -1458.8727   -4112.6043   -713.80862    -122.2276   -766.60908    209.22484   -4022.5695 
 7811000    271.78841   -4151.7413   -3685.9053   -4151.7413            0   -2921.9152    18.192638    24.016857    22.428978    9799.8929   -2151.3072   -3259.7844    -3354.654   -602.85368    360.55115    529.91458   -4103.5094 
 7812000    269.34071   -4116.1368    -3654.496   -4116.1368            0   -3698.9146    18.177925    24.237167    22.425502    9880.2592   -3276.7321   -3783.4482   -4036.5634    738.99336   -44.987969   -334.31534   -4187.4854 
 7813000    303.16295   -4169.8085   -3650.1976   -4169.8085            0    -2386.633    18.406349    23.694101    22.392963    9766.0612   -3165.7648   -1100.6556   -2893.4786    206.09112    692.02534    84.292469   -3990.1209 
 7814000    280.35337   -4161.7494   -3681.2334   -4161.7494            0   -1526.2351    18.488659    23.436629    22.444884    9725.6341   -1350.6118   -1361.6731   -1866.4205    1824.8744    301.54685    176.89278   -3897.7121 
 7815000    270.48405    -4188.715   -3725.1146    -4188.715            0   -1991.4595    18.424448     23.72752    22.160635    9687.8865   -2139.3181    -1157.474   -2677.5865    448.60657   -99.675894    234.83282   -4006.4837 
 7816000    279.88534   -4125.0914   -3645.3776   -4125.0914            0   -2285.6478    18.111045    23.914757    22.491498    9741.5458    -2298.638   -1726.5939   -2831.7116   -1047.5074   -525.68428    382.33523   -3970.1006 
 7817000    265.59151   -4190.9141   -3735.6993   -4190.9141            0   -2102.8788    18.158266    23.945729    22.339589     9713.542   -3331.3917   -2581.9751   -395.26965    -366.1899    627.93014    -252.3754   -4033.5974 
 7818000    262.51473   -4145.6998   -3695.7586   -4145.6998            0   -2860.3524    18.443866    23.889549    22.193151    9778.6493   -3461.9027    -3408.765   -1710.3896   -111.47065    636.47214    263.50808   -4103.6779 
 7819000     265.0911   -4186.9736   -3732.6166   -4186.9736            0   -2490.3645    18.384228    23.419026    22.648387    9751.0524   -1659.2142   -1383.7855   -4428.0938    49.063199    169.86571   -430.22413   -4086.7691 
 7820000    274.50542   -4158.2559    -3687.763   -4158.2559            0   -2087.5373    18.388325    23.672032    22.333382    9721.4759   -3353.0631   -2001.7236    -907.8253    129.72585   -387.25694   -220.50189   -3983.7294 
 7821000    272.45871   -4160.6108   -3693.6259   -4160.6108            0   -2559.4434    18.223946    23.776543    22.389908    9701.6016   -2612.2447   -3596.3514   -1469.7342    245.23153   -101.74384   -341.47577   -4055.7561 
 7822000    302.61287   -4142.1876   -3623.5195   -4142.1876            0   -1999.4611    18.220132    23.868784    22.404706    9743.6365   -956.32875   -1714.1831   -3327.8714    600.17828    439.59563    360.34589   -3907.6448 
 7823000    259.94511   -4174.1334   -3728.5964   -4174.1334            0   -1618.8225    18.372046    23.861638    22.076492    9678.0498   -628.24944   -1914.4917   -2313.7264   -428.84005     83.04621    307.25125   -3957.0842 
 7824000    288.67643   -4184.5202   -3689.7387   -4184.5202            0   -2997.8645    18.325718    23.547462    22.619573    9760.8922   -1806.1258   -3386.8128   -3800.6548    699.36515    98.015818      178.449   -4116.4925 
 7825000    275.51032   -4168.5396   -3696.3244   -4168.5396            0   -303.52946    18.270486    23.701322    22.295945    9654.9174   -154.38268   -1631.8657    875.65996   -70.678876   -253.07277   -767.27175   -3739.0634 
 7826000    280.33845   -4184.4822   -3703.9917   -4184.4822            0    -1327.029    18.239422     24.00376     21.96176    9615.1817   -1827.3221    -1865.325   -288.43998    505.37301    178.92152    669.35622   -3890.0777 
 7827000    270.46442   -4177.7101   -3714.1433   -4177.7101            0   -1175.1456     18.09718    23.658932    22.544322    9652.5753     788.0696   -821.35898   -3492.1473    315.73645    412.71761    706.21044    -3879.572 
 7828000    302.71144   -4157.2293   -3638.3922   -4157.2293            0   -1291.1929    18.504066    23.850385    21.915671    9672.0236   -2931.5913   -2128.2982    1186.3108   -669.90115    492.88831   -35.547782   -3820.5234 
 7829000     274.7944    -4177.743   -3706.7547    -4177.743            0    -763.5489    18.329791    23.681947    22.255474    9660.7702   -1444.6531   -627.20519   -218.78843   -1088.1632    330.32717    569.19617    -3814.333 
 7830000    293.99947   -4143.7179   -3639.8129   -4143.7179            0   -1901.4153    18.316526    23.452136    22.683888    9744.1284   -1865.1176    574.83144   -4413.9599    321.34562    33.576425   -409.83258   -3910.0194 
 7831000    279.20877   -4164.7013    -3686.147   -4164.7013            0   -1316.3416    18.317247    23.773747    22.306162    9713.6551   -1127.1446   -1780.8408   -1041.0395   -691.42995    8.7195719    677.09428   -3872.6248 
 7832000     271.9469   -4175.3711   -3709.2635   -4175.3711            0   -1167.0309    18.088198    23.914576    22.331398    9659.9284   -631.68698    -557.0793   -2312.3263   -248.08833    88.277117    400.96296   -3873.6749 
 7833000    276.32752   -4186.3423   -3712.7264   -4186.3423            0   -2101.2419    18.115899    23.865816    22.430746    9697.9487   -2071.3336   -1924.9246   -2307.4675   -753.58265   -50.257522    218.61858   -4009.9148 
 7834000    291.16541   -4151.9911   -3652.9435   -4151.9911            0   -1842.0147    18.289333    23.738977    22.354471    9705.6423   -2409.9855   -2416.5941   -699.46433   -445.93628   -128.95171    783.86373   -3913.6749 
 7835000    284.64946   -4183.0596   -3695.1802   -4183.0596            0   -1147.9099    18.533397    23.332198    22.344533    9662.3324   -3202.0338    10.552482   -252.24831   -270.82208    97.813016   -464.17825   -3856.9382 
 7836000    274.77706   -4156.4431   -3685.4846   -4156.4431            0   -1791.6831    18.360683    23.651508    22.387034    9721.7453   -1971.7236   -667.46439   -2735.8614   -51.325633   -376.71453   -18.305715   -3939.5125 
 7837000    281.98758    -4198.672   -3715.3549    -4198.672            0    -798.6233    18.136147    23.874429    22.176287    9602.1136   -2068.9457   -285.95621   -40.968005   -151.20826    708.23451    80.115807   -3827.1917 
 7838000    294.17854   -4157.5136   -3653.3016   -4157.5136            0   -296.91288    18.061461    23.758204    22.395169    9609.9434    511.28515    412.21643   -1814.2402    353.97366    -255.2713   -757.24172   -3694.9143 
 7839000    284.18117   -4220.0496   -3732.9728   -4220.0496            0    -1921.265    18.333554    23.699308     22.25555    9669.8704   -1046.2855   -2380.7955   -2336.7141   -629.39649   -266.56741   -467.90754   -4003.9195 
 7840000     275.7435   -4163.6898   -3691.0749   -4163.6898            0   -1555.9424    18.513717    23.421964    22.350426    9691.7619   -2318.6494   -1048.1588    -1301.019    1174.1621   -217.02834    251.14815   -3910.9987 
 7841000    257.44936   -4167.6778   -3726.4184   -4167.6778            0   -1214.2475    18.308925    23.585453    22.447011    9693.1649   -1765.2842   -1173.0475   -704.41089     229.0409    -43.71214    -684.5185   -3898.0703 
 7842000    292.73982   -4170.0221    -3668.276   -4170.0221            0    -1784.312     18.09643    23.951041    22.303008    9666.7556   -1340.4706   -1106.4502   -2906.0151    587.09496   -506.66414   -36.895332   -3919.8278 
 7843000    286.83238   -4211.2726   -3719.6517   -4211.2726            0   -1873.8552      18.1698    23.975976    22.232021    9685.1281   -2471.9128   -3556.3208    406.66808   -281.63923   -385.01185    -582.9883   -3984.3294 
 7844000     257.5234   -4137.8311   -3696.4448   -4137.8311            0   -2442.5113    18.389828    23.692649    22.443978    9778.9251   -3586.4916    -1696.868   -2044.1742   -548.52562   -485.53651    435.26173    -4044.785 
 7845000    261.72379   -4151.3212   -3702.7356   -4151.3212            0   -4097.4513    18.549721    23.709045    22.435465    9867.0314   -3969.1835   -4437.0947   -3886.0756    585.18459    91.750111    375.05171    -4292.361 
 7846000    294.14667   -4171.3942   -3667.2369   -4171.3942            0   -1916.1583    18.257462    23.755982    22.405296    9717.7135   -544.14235   -2521.3457   -2682.9867    97.370488   -131.31438    376.15346   -3938.8004 
 7847000    291.33425   -4183.5907   -3684.2538   -4183.5907            0   -1381.0628    18.151837    23.996492    22.181871    9661.9889    -1542.405   -3171.0209    570.23751    1120.5015    122.56012    841.84995   -3878.8596 
 7848000    265.68907   -4180.6979   -3725.3159   -4180.6979            0   -2555.1322    18.266296    23.814698     22.45987    9770.1857   -1389.1734   -2350.3488   -3925.8744   -842.22738    153.66814   -271.65901   -4089.3919 
 7849000    289.92445   -4179.5189   -3682.5983   -4179.5189            0   -898.70709    18.463736    23.196615    22.442096    9611.8636   -1924.1583   -621.86415   -150.09888   -105.33031    46.964713    89.275963   -3808.5783 
 7850000    271.19065   -4172.6769   -3707.8654   -4172.6769            0   -2297.3569    18.431325    23.661464    22.341205    9743.2707    -3692.109   -1986.4684   -1213.4934   -912.82936    7.4911357    823.86712   -4034.3098 
 7851000    272.17184   -4197.2993   -3730.8061   -4197.2993            0   -1919.0291    18.145202     23.92002    22.413802    9728.3432    -1572.061   -2199.1086   -1985.9178   -563.97594   -372.08444      437.248   -4003.0739 
 7852000    276.41608   -4142.4056   -3668.6379   -4142.4056            0   -2994.6927    18.167929    24.143162    22.339031    9798.5974   -2936.0935   -3333.1342   -2714.8504     104.0667   -1062.5004    203.03042    -4096.587 
 7853000    287.51797   -4159.9814   -3667.1855   -4159.9814            0   -2710.0581    18.291372    23.860285    22.381804    9768.2553   -1911.9975    -4193.317   -2024.8597   -461.73285   -570.11133    343.14867   -4053.2603 
 7854000    270.31876   -4138.0971   -3674.7799   -4138.0971            0   -3617.8505    18.277535    23.698264    22.724535    9843.0377   -2406.4228   -3196.6216   -5250.5071    289.48505   -579.44386   -802.71994   -4194.1246 
 7855000    273.60868   -4128.1011   -3659.1452   -4128.1011            0   -2439.2315    18.630965    23.573771    22.191424    9746.5199    -2762.232   -3442.6998   -1112.7629    320.73358   -897.83402   -533.24788   -4005.8648 
 7856000     257.8014   -4151.5095   -3709.6467   -4151.5095            0   -2471.1138     18.55874    23.432103    22.400364    9741.2534   -3382.6521   -2241.8922    -1788.797    1133.0177    424.73052    393.09714   -4060.7085 
 7857000    273.45118   -4177.2977   -3708.6118   -4177.2977            0   -2814.7966    18.347847    23.657468    22.459087    9748.6724   -3886.4804   -2764.7992   -1793.1101   -655.30971   -57.065386    266.06351   -4108.8037 
 7858000    264.14024   -4127.9159   -3675.1886   -4127.9159            0   -3090.1471    18.411427    23.935997    22.258199    9809.0961   -3575.4785   -3195.6997    -2499.263   -640.96915   -139.79594   -467.44365   -4117.2514 
 7859000    277.77416   -4166.6494    -3690.554   -4166.6494            0   -3361.1686    18.193779     23.77159    22.599488    9774.1671    -2377.708   -2977.2353   -4728.5624    330.41752    378.14583   -752.45963   -4169.6758 
 7860000     279.0458   -4162.5167   -3684.2417   -4162.5167            0   -2607.7252    18.350639    23.708852    22.409454     9749.739   -2427.8962   -3783.3836   -1611.8958   -705.79541    -1.889701    184.05718    -4055.034 
 7861000    283.37016    -4166.716   -3681.0292    -4166.716            0   -2299.8086    18.380107    23.757326     22.15166    9672.7926   -1479.1788   -2893.7995   -2526.4475    158.94429   -583.58763   -574.94723   -4005.4581 
 7862000    274.31388   -4156.3004   -3686.1358   -4156.3004            0   -1800.6382    18.129177    23.652464    22.556334    9672.1495   -1279.4159      -1715.1   -2407.3987    547.59671   -510.30445    137.74794   -3940.1309 
 7863000    276.40799   -4185.8879   -3712.1341   -4185.8879            0   -1541.2618    18.210164    23.757927    22.226545     9615.998   -1147.8231   -685.45826   -2790.5042   -368.69005   -129.24641   -571.75508   -3928.2798 
 7864000    284.55061   -4144.7298   -3657.0198   -4144.7298            0   -1592.4347    18.271239    23.743979    22.328025    9686.6097   -1535.0515   -3203.9082    -38.34451   -299.79903   -218.29117   -242.10565   -3881.9819 
 7865000    288.15136   -4168.0647   -3674.1831   -4168.0647            0   -1921.8089    18.400415    23.408206    22.542418    9709.4864    -1419.522   -906.21957    -3439.685       778.03   -631.13705   -298.55469   -3946.3168 
 7866000    268.97009   -4169.5579   -3708.5524   -4169.5579            0    -2102.126    18.406407    23.706916    22.336973    9746.9427   -3126.0366   -783.23383   -2397.1077    1155.2616    548.05046    87.678674   -4007.3678 
 7867000    262.85528   -4173.5053   -3722.9803   -4173.5053            0   -4030.7595    18.353967    23.825204     22.53335    9853.5411   -3328.0906   -3881.0602   -4883.1275   -1104.7543   -90.426823    93.823261   -4302.2157 
 7868000    279.83995   -4187.1831    -3707.547   -4187.1831            0    -3228.869    18.192155    23.923843    22.418986    9757.3314   -2494.2724   -2744.9073   -4447.4271    845.52529    25.843506   -107.65312   -4167.0172 
 7869000    288.39866   -4170.1219   -3675.8164   -4170.1219            0   -2266.6142    18.089621    23.894447    22.520209    9734.1683   -2456.6088   -2449.7279    -1893.506   -649.99073    -841.9766   -540.85058   -3997.5915 
 7870000    272.61938   -4173.6377   -3706.3774   -4173.6377            0   -1275.3999    18.407017    23.708766    22.210709    9692.9234     -1828.02    -1194.102   -804.07776    371.13699    425.12413    160.06474   -3886.6697 
 7871000    273.78553   -4172.9019   -3703.6429   -4172.9019            0   -1108.7436    18.407462    23.592983    22.271155    9672.0722   -2312.5546   -1015.0555    1.3793723   -1386.6991   -253.11279   -524.54409   -3860.0392 
 7872000    287.21746    -4150.121   -3657.8401    -4150.121            0   -1836.6672    18.219958    23.579733     22.49818    9665.7071   -1104.8941   -1704.4342   -2700.6733    462.67092   -881.36587   -287.92921   -3916.7448 
 7873000    271.48026    -4187.917   -3722.6092    -4187.917            0   -1311.0607    18.371668    23.982494    21.947935    9670.2257   -1325.8391   -2057.8679   -549.47507    1561.0696    97.898155   -399.45332   -3907.5085 
 7874000    288.09945   -4163.9236    -3670.131   -4163.9236            0   -1106.9908    18.190404    23.741265    22.424694    9684.4004   -243.39644   -1665.1752   -1412.4008    83.171275   -795.38398    199.59336   -3826.4791 
 7875000    274.84474   -4112.1532   -3641.0787   -4112.1532            0   -2526.1584     18.26878    23.715062    22.555237    9771.9491   -3013.0048   -2487.2932   -2078.1774   -493.55007    925.57952    737.52258   -4001.0913 
 7876000    279.37052   -4169.4741   -3690.6426   -4169.4741            0   -1343.1507    18.424793     23.59132    22.079978    9597.3977   -595.35792   -2483.0391   -951.05494    99.760357    1163.9413   -289.17404    -3878.641 
 7877000      282.317   -4174.1869   -3690.3053   -4174.1869            0   -745.24772    18.125844    23.493327    22.444878    9557.8457    215.14868    29.123312   -2480.0152   -52.241178    346.89983   -497.57619   -3794.1864 
 7878000    278.16109   -4163.2213   -3686.4627   -4163.2213            0   -1944.2609    18.353219    24.002608    21.997345    9690.3828   -1628.3909   -2994.7979   -1209.5938   -333.37394    407.70584   -430.07375    -3961.234 
 7879000    287.40507   -4149.1725     -3656.57   -4149.1725            0   -2344.1614    18.173344    23.745283    22.552415    9732.0709   -1225.4285   -2222.4268   -3584.6289   -1012.2407    63.879132    500.01552   -3989.2822 
 7880000    273.24359   -4188.7337   -3720.4036   -4188.7337            0   -1153.1191    18.247538    23.696628    22.378725    9676.6752   -1918.2255   -613.05296   -928.07882   -840.31492    171.75219    590.96806   -3883.1368 
 7881000    267.04247   -4174.6543   -3716.9527   -4174.6543            0   -2725.1629    18.536638    23.895468    21.946383    9720.9667   -1914.9526   -4008.7825   -2251.7535   -300.10554    421.18425    825.19537   -4103.2999 
 7882000    284.21391   -4142.4419    -3655.309   -4142.4419            0     -2181.58     18.23373    23.631598    22.469687    9682.0123   -526.78069   -2409.5727   -3608.3866   -434.66447   -402.61796     272.2091    -3963.353 
 7883000    270.03053     -4162.31   -3699.4869     -4162.31            0   -3100.1705    18.204665    23.774663    22.524927    9749.0083   -2803.5956   -3645.1367   -2851.7793   -50.527495   -4.4799879   -453.85746    -4140.267 
 7884000     264.6632   -4178.3917    -3724.768   -4178.3917            0   -1462.7227    18.280236    23.858909    22.227799    9694.5763   -1515.0158   -793.15991   -2079.9923    338.69515    315.39502   -156.46821   -3931.5757 
 7885000    266.85126   -4185.9183   -3728.5444   -4185.9183            0    -1693.455    18.063064    23.796462    22.472787    9659.6359    441.78983    -3808.064   -1714.0909     362.2536   -123.65712   -642.16123   -3967.1114 
 7886000    268.41009    -4150.947   -3690.9013    -4150.947            0   -1914.5927    18.305504    23.646368    22.341903    9670.8868   -310.75537   -2195.9106    -3237.112   -79.700123   -476.69642  -0.55567527   -3960.9354 
 7887000    276.28577   -4187.8505   -3714.3062   -4187.8505            0    -1353.955    18.360329     23.35913    22.367452    9592.9825   -2241.0215   -45.878995   -1774.9645   -669.07468   -135.06637    711.12754   -3903.7296 
 7888000    286.15657   -4185.8205    -3695.358   -4185.8205            0   -1256.7268    18.218849    23.645047    22.335852    9621.9621   -371.66169   -1771.9604   -1626.5582   -540.42703    1029.7625    320.48553     -3871.71 
 7889000    261.47443   -4192.1406   -3743.9824   -4192.1406            0    -2443.469    18.237802    24.046879    21.993325    9645.4413   -1498.1658   -2024.8194   -3807.4217    344.69701    515.64508   -390.72091   -4087.7024 
 7890000    275.86175   -4169.9846    -3697.167   -4169.9846            0   -1990.2794    18.149798    23.690478    22.507989    9677.9265   -677.79378   -2947.4247   -2345.6197   -202.03484   -300.45598     720.5447   -3978.0803 
 7891000    275.55554   -4204.0648   -3731.7721   -4204.0648            0    592.06057    18.217934    23.596218    22.106882    9503.1814    524.10575    194.05408    1058.0219   -1.0692077   -573.25245    552.90954   -3649.7159 
 7892000    271.80413    -4179.258   -3713.3951    -4179.258            0   -1364.6682    18.322093    23.673641    22.285991    9666.5631   -870.36429   -1706.7254    -1516.915   -246.19093    806.86221   -52.960523   -3905.7818 
 7893000    261.27073   -4160.4702   -3712.6611   -4160.4702            0   -1109.6373    18.163515    23.543764    22.532804    9635.8718   -502.09976   -525.54837   -2301.2637   -970.89147     514.7241   -684.63662   -3868.5977 
 7894000    271.34073   -4169.5088   -3704.4401   -4169.5088            0   -1245.8477    18.184218    23.713539    22.349216    9637.2539    -300.8624    -2304.657   -1132.0238   -352.48157    830.01253   -181.64573   -3879.5433 
 7895000    290.36123   -4167.7174   -3670.0482   -4167.7174            0   -1744.2472    18.314653    24.023756    21.931568    9649.5996   -2718.0206   -1890.0042   -624.71681      600.464    309.17604    40.145093   -3915.5153 
 7896000    276.14421   -4186.4417     -3713.14   -4186.4417            0   -1598.6354     18.20221    23.552023     22.54775    9666.1949   -2045.1546   -892.06752    -1858.684   -104.24823   -489.11657    -422.6447   -3938.5021 
 7897000     269.0427   -4191.7127   -3730.5827   -4191.7127            0    -1782.124    18.293371     23.68972    22.232655     9634.851   -859.67128   -2795.0778   -1691.6228    83.999209    547.71567    104.71482   -3980.9968 
 7898000    268.36634   -4195.3599   -3735.3891   -4195.3599            0   -1231.9434    18.467136    23.609396    22.054501    9615.7166   -2859.1336   -1352.5143    515.81786    283.54994    563.29905    33.701703   -3908.1512 
 7899000    285.00969   -4137.1742   -3648.6774   -4137.1742            0   -2199.1516    18.203432    23.604757    22.602452    9711.9928   -1901.2825   -2309.9611    -2386.211   -262.64814   -396.04658   -19.000336    -3960.164 
 7900000    277.72187   -4171.6573   -3695.6516   -4171.6573            0   -3431.1155    18.243486    24.139491    22.322774    9830.6921   -4558.2979   -3599.6819   -2135.3668    248.02038   -7.0786214    211.56046   -4187.5725 
 7901000    280.11514   -4132.1374   -3652.0296   -4132.1374            0   -3822.6026    18.375514    24.000173    22.399891    9878.6993   -4644.5151   -4071.3281   -2751.9645    -148.9288   -64.973763    -550.5952   -4202.7546 
 7902000    274.42785    -4190.326    -3719.966    -4190.326            0   -2646.7867    18.442151    23.560571    22.413947    9739.0305   -2606.7692   -2520.8475   -2812.7434   -111.30462    289.56307   -50.679852   -4095.8991 
 7903000    280.26856   -4157.9247    -3677.554   -4157.9247            0   -1993.5071    18.419412    23.407419    22.435405    9673.0451   -2829.7037   -500.45518   -2650.3623   -68.062023   -635.68315    969.73184   -3958.7809 
 7904000    268.38919   -4173.9595   -3713.9496   -4173.9595            0    -3566.334    18.410078    23.928811    22.337695    9840.4536   -3080.3661   -3588.4179   -4030.2179    1263.5682    86.699302   -211.49633   -4225.7646 
 7905000    276.23443   -4177.4847   -3704.0284   -4177.4847            0     -3070.43    18.241953    23.826703    22.441124    9753.9362   -3170.5764   -2994.5709   -3046.1427    518.16198   -544.59936    360.76153   -4140.8006 
 7906000    264.38944   -4193.0017   -3739.8473   -4193.0017            0   -2630.3565    18.317789    23.906489    22.384735    9802.5895   -1964.2284   -2448.2447   -3478.5965    271.83793   -752.65167    371.83807   -4115.8849 
 7907000    274.59439   -4171.7681   -3701.1227   -4171.7681            0   -2712.6561     18.37783    23.781723    22.305937    9748.9541   -1928.5288   -4579.4817   -1629.9579   -182.10236    808.54743   -213.88745   -4086.8041 
 7908000    280.93642   -4186.6691   -3705.1536   -4186.6691            0   -1066.0336    18.262628    23.489477    22.460679    9635.1729    100.05493   -484.66614   -2813.4896   -163.91026   -700.29766     993.9204   -3854.9517 
 7909000    269.28363   -4165.5899   -3704.0469   -4165.5899            0   -1497.2199    18.361854     23.84343    22.098878    9675.1006   -520.52296   -2555.9068   -1415.2299    185.43168   -461.11261    325.61239   -3915.3068 
 7910000     281.7753   -4147.3763   -3664.4231   -4147.3763            0   -2153.3117    18.402256    23.611603    22.448361     9753.965   -2422.0739   -1804.1452    -2233.716   -409.11174   -220.75966    659.80562   -3970.7351 
 7911000    273.27067    -4199.069   -3730.6924    -4199.069            0   -2270.9635    18.277202    23.543243    22.477327    9672.0975   -1517.6086   -1049.3716   -4245.9104    556.73725    297.70089    202.54041   -4051.0291 
 7912000    261.16082   -4149.6779   -3702.0572   -4149.6779            0   -2153.4133     18.59682    23.966655    21.831424    9730.3438   -3853.1156   -4541.3062    1934.1821    110.53886   -684.64062    245.94168   -4007.6418 
 7913000    281.70293   -4174.1182    -3691.289   -4174.1182            0   -2284.4857    18.315049    23.788569    22.379592    9750.5381   -3047.2239   -1740.8729   -2065.3602    549.80929    194.94276    265.17565   -4016.1465 
 7914000    287.44867   -4196.3717   -3703.6945   -4196.3717            0   -1931.7235    18.242174    23.634942    22.552107    9723.4023   -1173.8371   -1008.2696   -3613.0638    456.15659   -180.91141    -186.5802   -3977.6242 
 7915000    283.25317   -4180.2518   -3694.7655   -4180.2518            0   -2312.5827    18.482175    23.793392    22.092971    9715.4643   -2813.8011   -2613.5125   -1510.4345   -904.46548    301.23932     223.4415   -4022.4356 
 7916000    287.34968   -4167.6533   -3675.1458   -4167.6533            0   -944.56638    18.149744    23.493875    22.578349    9627.5851   -623.35003   -234.32234   -1976.0268    377.18021    -209.1684      776.775   -3807.7709 
 7917000    270.80006   -4193.8493   -3729.7072   -4193.8493            0   -2174.1471    18.249326     23.70004    22.489768    9727.0436   -1493.4013   -1246.6856   -3782.3544     564.7347   -245.64337    503.52186   -4038.1294 
 7918000    277.68287   -4130.5657   -3654.6268   -4130.5657            0   -2002.8928    18.227988    24.148444    22.129359    9740.8471    -1314.229   -3846.3783   -848.07104    228.81119   -165.94116    72.255545   -3939.1583 
 7919000    289.62333   -4153.5544   -3657.1499   -4153.5544            0   -2485.6461    18.223627     23.75989    22.552044    9764.8403   -1842.8503   -1300.0923   -4313.9958   -449.43327   -104.40549    158.59244   -4011.1312 
 7920000    280.56095    -4169.804   -3688.9321    -4169.804            0   -2023.4872      18.3855     23.71014    22.343635    9740.0993   -898.51747   -2895.2959   -2276.6484    392.91389   -348.96036   -33.817387   -3976.3672 
 7921000    276.63867   -4171.1492        -3697   -4171.1492            0   -1861.0957    18.175121    23.599952    22.576049    9683.5897   -1805.7634   -1788.2874   -1989.2363    839.64331   -328.25038   -36.651636   -3959.8337 
 7922000    275.19756   -4171.2587   -3699.5795   -4171.2587            0   -1985.3132    18.196025    23.875706    22.391955    9728.0267    -1120.364   -2968.5458   -1867.0298   -815.44191   -206.71202   -772.59702   -3981.2424 
 7923000    272.50445   -4174.5238   -3707.4605   -4174.5238            0   -2917.6353    18.394581    23.917576    22.145645    9743.0607    -3403.172   -2407.0683   -2942.6655   -1206.1615   -362.59947   -238.12474   -4122.0347 
 7924000    248.68839   -4134.2625   -3708.0191   -4134.2625            0   -2048.0285    18.306937    23.774674    22.429705    9762.3378   -2028.6953   -2234.3618   -1881.0284    26.556403    583.02047   -211.70317   -3999.6045 
 7925000    290.99753   -4173.9099   -3675.1501   -4173.9099            0   -2048.9703    18.316311    23.648455    22.477088    9736.0059   -2554.8929   -1822.2228   -1769.7953   -992.00144    647.66896   -235.99837   -3966.0827 
 7926000    271.64551   -4176.9791    -3711.388   -4176.9791            0   -2129.1748    18.370459    23.833032    22.141191     9693.939   -3360.6269    -2288.465   -738.43254   -629.98539    1227.5827   -28.575091   -4012.4025 
 7927000    287.87619   -4155.9268   -3662.5169   -4155.9268            0   -1695.8545    18.214931      23.6818    22.558999     9731.103   -522.53029    -1881.717   -2683.3163   -441.24073   -186.18649    562.25893   -3903.1894 
 7928000    289.71549   -4174.5984    -3678.036   -4174.5984            0   -1383.2306    18.118915     23.83696     22.30841     9634.999   -1586.0662   -2149.0866   -414.53916   -658.33323   -482.36214   -1235.0502   -3872.4028 
 7929000    264.63696   -4148.3048   -3694.7261   -4148.3048            0   -2364.8412    18.260037    23.848988    22.336466      9727.16   -1376.8437    -3472.127    -2245.553   -144.08149   -267.40318    64.965741    -4030.204 
 7930000    278.92914   -4178.4824   -3700.4074   -4178.4824            0   -2448.8838    18.341607    23.617643    22.452523    9726.1078   -2806.0416   -2037.2945   -2503.3153      448.031    2.3705251    -246.3132   -4047.7701 
 7931000    286.39415   -4172.4532   -3681.5834   -4172.4532            0    -2613.406    18.630778    23.524119    22.112726     9691.403   -4154.5139   -1079.0492   -2606.6548   -385.64352   -325.99121    -279.3079     -4050.96 
 7932000    286.84524   -4147.7511   -3656.1082   -4147.7511            0   -944.56525    18.232647     23.60868    22.446487    9662.0618   -253.28945   -97.855895   -2482.5504    194.15694     344.6242   -308.17839   -3789.2081 
 7933000    274.87286   -4193.7946   -3722.6719   -4193.7946            0   -865.01386    18.047294    23.809485    22.277934    9572.7564   -295.39674   -1021.3272   -1278.3176     438.6443    244.39741     360.6028   -3843.4355 
 7934000    271.66768   -4197.9634   -3732.3343   -4197.9634            0   -1198.7767     18.18385    23.860902    22.172857     9620.427   -685.73209   -1198.6503   -1711.9476   -1357.4381   -678.88972    257.96833   -3900.5275 
 7935000    284.31682   -4164.6713    -3677.362   -4164.6713            0   -1377.7076    18.115304    23.533343    22.605131     9636.876   -178.92899   -1538.9005   -2415.2933   -1085.4508    803.82509     243.5114   -3870.9904 
 7936000    285.13203   -4153.4466     -3664.74   -4153.4466            0   -2317.6124     18.38859    23.770892    22.325101    9758.5959   -2289.3826   -1842.6258   -2820.8288   -249.17714    173.52664    706.66687   -3994.5806 
 7937000    267.05391   -4159.6809   -3701.9596   -4159.6809            0   -2900.8444       18.349     23.86357    22.317439    9772.1964   -3204.0226   -2334.4394   -3164.0711    889.89514   -464.71675     510.3692   -4115.3806 
 7938000    296.32081   -4162.9197    -3655.036   -4162.9197            0   -2670.1956    18.105325    23.762854    22.588018    9718.1379    -2229.508   -2673.1646   -3107.9143    535.58027   -942.25219    265.34691   -4033.4803 
 7939000    258.37334   -4174.2822   -3731.4392   -4174.2822            0   -122.27735    18.292323    23.913105    21.842658    9554.5519    223.52181    2.5607474    -592.9146   -107.52519   -78.637842    513.86835   -3748.4777 
 7940000    278.32895   -4125.1318   -3648.0855   -4125.1318            0   -2031.9988    18.285718    23.764469    22.384521    9727.2023   -2042.3049   -1155.8637   -2897.8277   -1075.3506    293.23677   -292.09596   -3936.3474 
 7941000    274.05073   -4153.9337   -3684.2201   -4153.9337            0   -2074.4763    18.160146    23.750746    22.604621    9749.7576   -2097.4717   -1263.5449   -2862.4123    1137.6606   -416.76451   -639.96138   -3979.1903 
 7942000     282.6294   -4167.5034   -3683.0863   -4167.5034            0    -1496.523    18.353836    23.891112    22.120255    9699.5893   -2004.4054   -718.06933   -1767.0943    851.71056   -623.85407   -735.83466   -3894.7823 
 7943000    276.54742   -4160.6404   -3686.6475   -4160.6404            0   -669.06466    18.168719     23.53333    22.571536    9650.9221     78.02104   -606.82337   -1478.3917   -632.46006    -136.9085   -363.96811   -3780.8176 
 7944000    278.86347   -4147.5622   -3669.5998   -4147.5622            0   -1377.6089    18.169798    23.806598    22.333161    9660.4563   -409.95671   -938.63736   -2784.2328    364.99048    295.78653    797.92617   -3863.6882 
 7945000    284.77425   -4189.0422   -3700.9489   -4189.0422            0   -1797.2629    18.245061     23.85836     22.29746    9706.0228   -2525.6705   -956.54706   -1909.5712   -891.96734   -799.82091     -347.146   -3955.3557 
 7946000    288.00998   -4187.2105   -3693.5713   -4187.2105            0    -3050.101    18.168661     23.56559    22.630598    9689.4088   -3128.7318    -1878.978   -4142.5931   -281.99499    284.60489   -1171.3221   -4124.5813 
 7947000    263.05768   -4142.7514   -3691.8796   -4142.7514            0   -2327.2844    18.473033    23.706727    22.032061    9648.6137   -3678.2086    -2203.991   -1099.6536   -233.68125   -255.20553   -883.57973   -4019.3637 
 7948000    274.79393   -4157.4932   -3686.5058   -4157.4932            0   -1887.8235    18.222455    23.538479    22.536491     9666.552   -1440.4227   -1584.6124   -2638.4354    478.21504    417.34722    483.08117    -3952.645 
 7949000    294.27288   -4168.7925   -3664.4188   -4168.7925            0    -2508.748    18.313974     23.75458    22.421954    9754.4637   -1388.0566   -2573.5522   -3564.6353   -328.14956    781.52321    515.54912   -4021.3104 
 7950000    268.32727   -4161.5338     -3701.63   -4161.5338            0   -1733.4032    18.380918    23.908803     22.08486    9705.5395   -1208.1902   -2141.8282   -1850.1911    1107.4187   -1497.1358   -398.54735   -3946.9852 
 7951000    279.87756   -4165.4621   -3685.7616   -4165.4621            0   -3729.0649    18.181806    23.813123    22.729316    9841.0119   -3578.1404   -2924.2214   -4684.8328    592.94533   -976.38008   -617.24607   -4220.9609 
 7952000     281.1012   -4156.4937   -3674.6959   -4156.4937            0   -2715.2247    18.322148    23.894306    22.351111    9785.2051   -4208.9381   -2486.7721   -1449.9639    9.3331176    54.646526   -983.31392   -4062.1779 
 7953000    266.95958   -4169.5009   -3711.9414   -4169.5009            0   -1332.0678    18.249675    23.807736    22.442446    9750.8713   -2944.7081   -972.78949   -78.705656   -129.55392    466.78702    25.834729     -3901.37 
 7954000    260.33257   -4159.8849   -3713.6838   -4159.8849            0   -2455.1851    18.479779    23.564347    22.420134    9763.1593    -2716.168   -1303.2357   -3346.1517   -572.17048    378.09516   -574.14504   -4063.2669 
 7955000    275.04262   -4198.0813   -3726.6677   -4198.0813            0    -1928.807    18.548359    23.472197    22.234994    9680.4656   -1661.7849   -2367.3783   -1757.2577    861.82866   -371.63123    -13.54618    -3998.976 
 7956000    278.15666   -4191.5303   -3714.7793   -4191.5303            0   -3215.8621     18.29552    23.962996    22.373324    9808.8113   -2901.9265    -2932.457   -3813.2028    90.910425   -313.13756    1010.5377   -4174.8131 
 7957000    287.01702   -4190.5319   -3698.5945   -4190.5319            0   -2589.5229     18.20212     23.92676    22.326362     9723.527   -2375.1658    -2945.568   -2447.8348   -1848.3537    453.86878   -871.08009   -4065.8087 
 7958000    280.10545   -4160.6385   -3680.5473   -4160.6385            0    -1486.061    18.134341    23.841255    22.348721    9662.3678   -456.12548   -3148.2631   -853.79461   -387.16115    202.82366   -11.737614   -3889.9567 
 7959000    267.08205   -4155.7778   -3698.0083   -4155.7778            0   -1631.1429    18.388985     23.42311    22.393861    9645.6455    -1896.419   -1455.7509   -1541.2587   -153.27418    505.68584   -672.37318   -3927.4642 
 7960000    293.00418   -4172.2119   -3670.0127   -4172.2119            0    288.37223    18.412474     23.53613    22.044537    9553.1851    703.00669   -900.99952    1063.1095   -47.011598    677.40743   -701.95767   -3629.8357 
 7961000    284.53029   -4204.9294   -3717.2543   -4204.9294            0   -1803.3899    18.206904     23.70702     22.36537    9653.5969   -176.66045   -2173.6499   -3059.8595   -673.64738    367.45886   -839.46891   -3971.1496 
 7962000    280.15343   -4183.6438   -3703.4704   -4183.6438            0   -693.59085    18.130378    23.817134    22.189851    9581.8802   -307.92863    226.04315   -1998.8871    152.51897   -719.33447   -907.83108   -3800.3941 
 7963000     306.2661   -4208.9167   -3683.9871   -4208.9167            0   -1962.7581     18.32807    23.739056    22.216928    9666.3871   -3145.5816   -2027.6147   -715.07809    -20.45666   -79.595058      325.237   -3960.6856 
 7964000    283.74386   -4196.0961   -3709.7688   -4196.0961            0   -257.85193    18.257913    23.566666    22.281872    9587.4026   -253.47267    354.18787   -874.27099   -807.52626   -854.39683    276.99344   -3745.8223 
 7965000    264.26939   -4220.9501   -3768.0014   -4220.9501            0   -1455.6382    18.286946    23.530005    22.410006    9642.8446   -1647.9866   -324.48739   -2394.4405   -1095.1243   -745.12224    247.68221   -3972.7092 
 7966000    283.78836   -4195.8942   -3709.4907   -4195.8942            0   -1862.2677    18.305555     23.86048    22.140055    9670.3183   -2204.1068   -1820.7761   -1561.9202   -389.05961   -229.44952    158.52426   -3972.1294 
 7967000    272.71083   -4190.4519   -3723.0349   -4190.4519            0   -2487.3124    18.095753    23.677895    22.719627    9734.6634    -2075.963   -2294.5235   -3091.4505   -78.022284   -88.270687   -379.80124   -4076.1589 
 7968000    286.47409    -4188.051   -3697.0442    -4188.051            0   -1917.6699    18.325177    23.783645    22.169506    9662.3463   -2466.2284    -2381.368   -905.41318    1439.7079   -823.29041   -324.03233   -3967.2735 
 7969000    282.29584   -4164.5153   -3680.6699   -4164.5153            0    -1635.889    18.257753    23.684874    22.370258    9673.6289   -3209.3221   -1548.4752   -149.86969       102.06    120.63124   -1025.1604   -3911.4611 
 7970000    283.19791   -4211.1277   -3725.7362   -4211.1277            0   -1926.2723    18.285647    23.505576    22.504305    9672.6798   -1291.8749    -1893.265   -2593.6772    362.22197   -154.49618   -110.86173   -3997.4679 
 7971000    284.74003   -4187.4681   -3699.4334   -4187.4681            0     -2244.19     18.41478    23.713298    22.090096    9646.1964   -2881.8061   -2294.1497    -1556.614   -225.21744    525.65276    19.434515   -4015.1458 
 7972000    271.54459   -4189.6976   -3724.2795   -4189.6976            0   -1768.5109    18.149687     23.71177    22.364427     9624.782   -2140.3789    -2270.994   -894.15968    73.667801   -816.15201    397.02773    -3972.521 
 7973000    261.00243   -4161.5161   -3714.1668   -4161.5161            0   -837.30508    18.063307    23.808043    22.357009    9614.6764    234.42425   -1997.8334   -748.50613   -327.62347    71.403692     86.87731   -3831.5739 
 7974000    288.93703   -4190.6604   -3695.4322   -4190.6604            0   -1698.9509    18.344118     23.86992    22.151533    9699.5499   -1597.4832   -3159.2704   -340.09923    130.52972    346.08813    420.60364   -3935.7624 
 7975000    279.41293   -4194.6449   -3715.7407   -4194.6449            0   -1847.7262    18.290173    23.486102    22.538139    9681.5931   -2290.4422   -1017.8062   -2234.9303    866.43878    432.44808    131.86428   -3976.6324 
 7976000    273.49852   -4157.5421    -3688.775   -4157.5421            0   -1932.2678    18.442977     23.68309    22.280271    9731.7255   -2835.2813   -873.41408    -2088.108   -388.95735    98.673535   -839.10292   -3963.0164 
 7977000    295.15828    -4131.579   -3625.6878    -4131.579            0   -2192.3511    18.291162    23.941682    22.324389    9776.3224   -2562.0528   -2359.6373   -1655.3631   -290.05227   -914.49599    272.01328    -3938.268 
 7978000    284.39182   -4146.7107   -3659.2728   -4146.7107            0   -2462.5743     18.13765    23.868896    22.608055    9787.6073   -2370.8079   -3486.1846   -1530.7305    552.26902    184.02756    708.13649   -4010.7861 
 7979000    293.42654   -4184.5845   -3681.6614   -4184.5845            0   -1900.7684    18.457419      23.7067    22.160093    9696.4697   -1837.6371   -1483.5077   -2381.1603    21.403087    249.82563   -74.814342   -3950.4549 
 7980000    270.69633   -4112.5969   -3648.6326   -4112.5969            0    -2835.373    18.430972    23.732589    22.419276    9806.5208   -3987.9156    -2327.902   -2190.3014    1129.0949   -156.64582    148.36821   -4054.1421 
 7981000    288.50668    -4166.788   -3672.2974    -4166.788            0    -2802.378    18.279736    23.676357    22.651163    9803.3681   -2731.5404   -2342.4976    -3333.096   -256.65718   -713.38048    -64.10505   -4072.9592 
 7982000    280.87502   -4174.3143   -3692.9041   -4174.3143            0   -1595.4514    18.368675    23.812746    22.096171    9665.0547   -1020.6334   -1698.4691   -2067.2516   -908.06898   -94.657847    313.60005   -3917.7908 
 7983000    278.84478    -4189.662   -3711.7316    -4189.662            0   -517.74428    18.113228    23.709418    22.371768    9607.6472   -192.21541    45.388853   -1406.4063    6.9083585   -153.70193   -572.14858   -3784.2767 
 7984000    284.79841   -4158.6026   -3670.4679   -4158.6026            0   -1517.1697    18.155383    23.828827    22.420174    9699.4488   -980.58723   -1121.6372   -2449.2847    547.86602   -1016.0901       173.84   -3885.0814 
 7985000    258.76634   -4162.3667     -3718.85   -4162.3667            0   -1652.1347    18.325164    23.811029    22.212638    9692.2851   -1256.8003   -1513.6842   -2185.9197   -150.90806    180.01658   -437.73355   -3952.3826 
 7986000    274.56475     -4169.66   -3699.0654     -4169.66            0   -1745.1327    18.366456    23.456548    22.595178     9734.311   -1537.7412   -1458.6017   -2239.0553   -172.77353    163.29095   -473.38442   -3946.8131 
 7987000    293.75128   -4198.5117    -3695.032   -4198.5117            0   -3250.4162    18.529756    23.786136    22.199843    9784.6094   -4562.2523   -2759.5958   -2429.4005   -40.815775    683.52112    426.11719   -4158.8615 
 7988000    275.63282   -4145.3561   -3672.9309   -4145.3561            0   -2321.5038    18.247417     23.84496    22.451812    9768.9842   -2408.1432   -3390.3216   -1166.0466   -489.80443    675.11336   -450.70769    -4003.677 
 7989000    269.60983   -4156.8189   -3694.7169   -4156.8189            0   -2167.7267    18.055562    23.866463    22.421818    9662.0637   -1472.6882    -1924.593    -3105.899   -387.74634    -511.6436     405.8678   -4000.1741 
 7990000    265.99841   -4146.6557   -3690.7436   -4146.6557            0   -2152.9495    18.318809    23.790561    22.267926    9704.6903   -2503.2226   -1508.9495   -2446.6764    391.86095     38.05611    63.421836   -3995.4569 
 7991000    266.98216   -4171.4508   -3713.8525   -4171.4508            0   -3417.2178    18.511352    23.483438    22.548984     9802.273   -3872.6655   -2198.7018    -4180.286    84.733861    -35.29863    506.65905   -4202.3646 
 7992000    276.44798   -4166.1632   -3692.3409   -4166.1632            0   -2150.7248    18.332168    23.651157    22.326417    9680.2207   -1757.6663   -2191.5401   -2502.9681   -433.62895   -616.57247   -206.59942   -3995.9718 
 7993000     279.8324   -4136.8924   -3657.2693   -4136.8924            0    -2758.226    18.509283    23.769391    22.184425    9760.1354    -1056.705   -3959.0369    -3258.936   -391.12669   -164.66396    59.331938   -4049.8795 
 7994000    271.72725   -4142.3003   -3676.5691   -4142.3003            0   -2806.2532    18.189147    23.858306    22.482041    9756.3567   -3289.5792   -2312.7887   -2816.3918    314.58941     255.7759    59.042886   -4075.8609 
 7995000    294.92388   -4151.9572   -3646.4678   -4151.9572            0   -2564.8516    18.187465    24.058602    22.356562    9782.4487   -2598.1733   -3724.6196   -1371.7617   -239.03091     -192.804    383.65417   -4012.3874 
 7996000    270.49103   -4164.8223   -3701.2099   -4164.8223            0   -2341.3757    18.298962    23.707949    22.335569    9689.8592   -1332.6318   -2375.7325   -3315.7628   -346.91158    75.997126    448.88976   -4032.0853 
 7997000    268.38111   -4155.7333   -3695.7372   -4155.7333            0   -231.07484    18.356016    23.557152    22.137194    9572.4651   -1348.4664   -367.46062    1022.7025   -538.95589    326.59134   -156.90329   -3727.9963 
 7998000    280.97256   -4134.2815   -3652.7042   -4134.2815            0   -1503.7368    18.193843    23.703908    22.403885    9662.0154   -614.01092   -521.91332   -3375.2861    285.15662    448.45649    805.86032   -3864.5966 
 7999000    263.84682   -4166.1511   -3713.9267   -4166.1511            0    -2359.696    18.307744    24.060808    22.142328    9753.6757   -2756.4796   -2291.0609   -2031.5475    22.398126   -504.59073   -380.58454   -4049.5872 
 8000000    288.98205   -4140.5799   -3645.2746   -4140.5799            0   -2374.8533    18.323864    23.863719     22.35885    9776.9782    -1668.899   -2393.7462   -3061.9148   -1547.3094    258.40681   -158.84034   -3983.8983 
Loop time of 351.738 on 64 procs for 250000 steps with 864 atoms

Performance: 122.819 ns/day, 0.195 hours/ns, 710.755 timesteps/s
377.6% CPU use with 16 MPI tasks x 4 OpenMP threads

MPI task timing breakdown:
Section |  min time  |  avg time  |  max time  |%varavg| %total
---------------------------------------------------------------
Pair    | 24.454     | 26.863     | 28.867     |  27.9 |  7.64
Bond    | 1.6005     | 1.8299     | 2.4614     |  16.5 |  0.52
Kspace  | 177.88     | 183.14     | 188.4      |  24.7 | 52.07
Neigh   | 1.6658     | 1.8505     | 2.0712     |  10.7 |  0.53
Comm    | 48.925     | 54.45      | 57.497     |  33.7 | 15.48
Output  | 0.73033    | 0.7306     | 0.73193    |   0.0 |  0.21
Modify  | 58.719     | 64.238     | 69.417     |  44.7 | 18.26
Other   |            | 18.64      |            |       |  5.30

Nlocal:        54.0000 ave          64 max          42 min
Histogram: 1 1 2 3 1 0 0 1 6 1
Nghost:        2437.06 ave        2481 max        2395 min
Histogram: 4 0 1 3 0 0 3 1 2 2
Neighs:        12476.9 ave       14559 max        9864 min
Histogram: 1 0 5 1 1 0 1 2 2 3

Total # of neighbors = 199631
Ave neighs/atom = 231.05440
Ave special neighs/atom = 2.0000000
Neighbor list builds = 7706
Dangerous builds = 0

unfix		3
unfix		2
unfix		1

write_data	data.final.${pid} nocoeff
write_data	data.final.0 nocoeff
System init for write_data ...
PPPM initialization ...
  extracting TIP4P info from pair style
  using 12-bit tables for long-range coulomb (../kspace.cpp:340)
  G vector (1/distance) = 0.37025673
  grid = 24 27 25
  stencil order = 5
  estimated absolute RMS force accuracy = 0.0033251791
  estimated relative force accuracy = 1.0013678e-05
  using double precision FFTW3
  3d grid and FFT values/proc = 6300 1296
Last active /omp style is kspace_style pppm/tip4p/omp

write_restart   restart.lmp.${pid}
write_restart   restart.lmp.0
System init for write_restart ...
PPPM initialization ...
  extracting TIP4P info from pair style
  using 12-bit tables for long-range coulomb (../kspace.cpp:340)
  G vector (1/distance) = 0.37025673
  grid = 24 27 25
  stencil order = 5
  estimated absolute RMS force accuracy = 0.0033251791
  estimated relative force accuracy = 1.0013678e-05
  using double precision FFTW3
  3d grid and FFT values/proc = 6300 1296
Last active /omp style is kspace_style pppm/tip4p/omp
Total wall time: 0:05:51
