#include		in.partitions
include		in.temp
variable        temperature equal 137.26
variable	tempDamp equal 100.0
include		in.pressure
variable        pressure equal 10543.8
variable        pressureDamp equal 1000.0 # This is 1 ps
include		in.seed
variable        seed equal 745823

units		real
atom_style	full

read_restart	restart.lmp.${pid}
read_restart	restart.lmp.1
Reading restart file ...
  restart file = 30 Jul 2021, LAMMPS = 30 Jul 2021
  restoring atom style full from restart
  orthogonal box = (0.24955869 0.15822405 0.13609722) to (19.750442 19.841777 20.563901)
  4 by 4 by 4 MPI processor grid
  restoring pair style lj/cut/tip4p/long/omp from restart
  restoring bond style harmonic/omp from restart
  restoring angle style harmonic/omp from restart
  972 atoms
  648 bonds
  324 angles
Finding 1-2 1-3 1-4 neighbors ...
  special bond factors lj:    0        0        0       
  special bond factors coul:  0        0        0       
     2 = max # of 1-2 neighbors
     1 = max # of 1-3 neighbors
     1 = max # of 1-4 neighbors
     2 = max # of special neighbors
  special bonds CPU = 0.006 seconds
  read_restart CPU = 0.016 seconds
include 	in.setup
variable	out_freq equal 1000
variable	out_freq2 equal 10000
variable	out_freq3 equal 1000

timestep	2.0

neigh_modify    delay 7 every 1

include		in.tip4p
# This is TIP4P/Ice

# create groups ###
group ox type 2
324 atoms in group ox
group hy type 1
648 atoms in group hy

# set charges - beside manually ###
set group ox charge -1.1794
Setting atom values ...
  324 settings made for charge
set group hy charge 0.5897
Setting atom values ...
  648 settings made for charge

# ### TIP3P Potential Parameters ###
pair_style lj/cut/tip4p/long/omp 2 1 1 1 0.1577 8.5
pair_coeff 1 1*2 0.000 0.000
pair_coeff 2 2 0.21084 3.1668
bond_style  harmonic
bond_coeff  1 450 0.9572
angle_style harmonic
angle_coeff 1 55 104.52
kspace_style pppm/tip4p/omp 1.0e-5
pair_modify tail yes

thermo          ${out_freq}
thermo          1000
thermo_style    custom step temp pe etotal epair emol press lx ly lz vol pxx pyy pzz pxy pxz pyz enthalpy

restart 	${out_freq3} restart.lmp.${pid} restart2.lmp.${pid}
restart 	1000 restart.lmp.${pid} restart2.lmp.${pid}
restart 	1000 restart.lmp.1 restart2.lmp.${pid}
restart 	1000 restart.lmp.1 restart2.lmp.1


include         in.dump
dump            myDump all atom ${out_freq2} dump.water.${pid}
dump            myDump all atom 10000 dump.water.${pid}
dump            myDump all atom 10000 dump.water.1
dump            myDump2 all dcd ${out_freq2} dump.dcd
dump            myDump2 all dcd 10000 dump.dcd
dump_modify     myDump append yes
dump_modify     myDump2 append yes


variable natoms 	equal  "count(all)"                        # NUMBER ATOMS
variable H      	equal  "enthalpy/v_natoms"                 # ENTHALPY-per-atom
variable Vol      	equal  "vol/v_natoms"                 # volume-per-atom
fix AVG all 		ave/time ${out_freq} 1 ${out_freq} v_Vol v_H file vol_enthalpy.dat
fix AVG all 		ave/time 1000 1 ${out_freq} v_Vol v_H file vol_enthalpy.dat
fix AVG all 		ave/time 1000 1 1000 v_Vol v_H file vol_enthalpy.dat


timer           timeout 02:55:00 every 1000
New timer settings: style=normal  mode=nosync  timeout=02:55:00

fix 		1 all shake 1e-6 200 0 b 1 a 1
       0 = # of size 2 clusters
       0 = # of size 3 clusters
       0 = # of size 4 clusters
     324 = # of frozen angles
  find clusters CPU = 0.001 seconds
fix             2 all nph aniso ${pressure} ${pressure} ${pressureDamp}
fix             2 all nph aniso 10543.8 ${pressure} ${pressureDamp}
fix             2 all nph aniso 10543.8 10543.8 ${pressureDamp}
fix             2 all nph aniso 10543.8 10543.8 1000
fix             3 all temp/csvr ${temperature} ${temperature} ${tempDamp} ${seed}
fix             3 all temp/csvr 137.26 ${temperature} ${tempDamp} ${seed}
fix             3 all temp/csvr 137.26 137.26 ${tempDamp} ${seed}
fix             3 all temp/csvr 137.26 137.26 100 ${seed}
fix             3 all temp/csvr 137.26 137.26 100 745823


run             250000
PPPM initialization ...
  extracting TIP4P info from pair style
  using 12-bit tables for long-range coulomb (../kspace.cpp:340)
  G vector (1/distance) = 0.37280219
  grid = 24 24 24
  stencil order = 5
  estimated absolute RMS force accuracy = 0.0034356596
  estimated relative force accuracy = 1.0346387e-05
  using double precision FFTW3
  3d grid and FFT values/proc = 2197 216
Last active /omp style is kspace_style pppm/tip4p/omp
Neighbor list info ...
  update every 1 steps, delay 7 steps, check yes
  max neighbors/atom: 2000, page size: 100000
  master list distance cutoff = 10.8154
  ghost atom cutoff = 10.8154
  binsize = 5.4077, bins = 4 4 4
  1 neighbor lists, perpetual/occasional/extra = 1 0 0
  (1) pair lj/cut/tip4p/long/omp, perpetual
      attributes: half, newton on, omp
      pair build: half/bin/newton/omp
      stencil: half/bin/3d
      bin: standard
Per MPI rank memory allocation (min/avg/max) = 9.228 | 9.230 | 9.233 Mbytes
Step Temp PotEng TotEng E_pair E_mol Press Lx Ly Lz Volume Pxx Pyy Pzz Pxy Pxz Pyz Enthalpy 
34250000    140.51108   -4936.7032   -4665.7158   -4936.7032            0     10562.57    19.500884    19.683553    20.427804    7841.1445    11429.282    9457.5558    10800.872    114.31146    431.49738   -296.96965   -3457.8326 
34251000    130.32042   -4945.2471   -4693.9132   -4945.2471            0    9992.9228    19.563639    19.737486    20.331775    7850.8521    10393.361    9727.9094    9857.4982    31.051249    64.254606   -193.27793   -3549.7573 
34252000    137.44675   -4950.3514   -4685.2738   -4950.3514            0    10475.284      19.4893    19.841546    20.228191    7822.1978    11422.567    8705.3558    11297.929     170.3714    898.33406    -322.3801   -3490.2667 
34253000    134.15923   -4955.6619   -4696.9245   -4955.6619            0    9476.7018    19.542815    19.815087      20.3277    7871.7513    9889.5148    9675.7985     8864.792   -413.15824   -1054.0248   -536.59854   -3608.9857 
34254000    132.21424   -4963.6544   -4708.6681   -4963.6544            0    10123.421    19.546803    19.733182    20.326164    7840.2203    10636.143    8872.7728    10861.348   -5.6011224    1857.4427   -463.60535   -3551.1403 
34255000    136.88089   -4940.7533    -4676.767   -4940.7533            0    11777.061    19.420252    19.791994     20.27544    7793.1797    12260.601    10211.756    12858.825    417.53653   -968.50572    430.58239   -3338.2388 
34256000    135.50001   -4942.0871    -4680.764   -4942.0871            0    11456.494    19.581425    19.726518    20.331942    7853.6871    11135.772    11825.318    11408.392    1.6990296    1046.3168   -362.18244   -3368.5604 
34257000    134.88269   -4949.1822   -4689.0496   -4949.1822            0    10156.575    19.611763    19.594274     20.41654    7845.6324    9744.2604    10891.833    9833.6325    331.88647   -41.763794     396.8635   -3526.9292 
34258000    135.26532   -4937.3032   -4676.4327   -4937.3032            0     11177.64    19.546992    19.708313    20.282796    7813.7087    10124.103    12478.093    10930.723    275.34321    -688.6453   -258.39272   -3402.6856 
34259000    142.56323   -4946.3686   -4671.4234   -4946.3686            0    11531.221     19.58647    19.786373    20.213967    7833.8257    10279.184    12785.676    11528.802    178.53336    -105.0251   -480.97007   -3354.0009 
34260000    136.84518   -4945.6792   -4681.7617   -4945.6792            0    10249.813    19.620776    19.769061    20.271595    7863.0334    10592.089    8639.6201     11517.73    157.15083    -75.39718    612.23634   -3506.3718 
34261000    133.68062   -4945.9821   -4688.1678   -4945.9821            0    11146.413    19.620262    19.755884    20.244394    7847.0433     11613.93    10338.318    11486.991    21.012428    476.41707    -475.3086   -3412.5602 
34262000    141.33463   -4942.3056   -4669.7299   -4942.3056            0    8913.1101     19.67872    19.708013    20.385347    7906.0182    7582.8228    9891.6596    9264.8478      165.825   -154.84196   -364.75004   -3642.0379 
34263000    135.18713   -4929.5064   -4668.7867   -4929.5064            0    9817.1313    19.499237    19.778364    20.385172    7861.8066    9528.7248    9887.1768    10035.492   -548.40037   -757.99313   -563.91231   -3543.1899 
34264000    136.35891   -4952.4413   -4689.4617   -4952.4413            0     10726.95    19.604513    19.618422    20.308981    7811.0294    8686.1449    13034.836    10459.868   -1017.4455    633.34294    330.19947   -3467.4921 
34265000    134.42053   -4951.7518   -4692.5105   -4951.7518            0    8990.2548    19.597456    19.631441    20.415593    7854.4153    10344.229    8094.1868    8532.3487   -302.82202    324.32129    502.92193   -3662.6895 
34266000    138.72266   -4959.9067   -4692.3684   -4959.9067            0    9407.5043    19.540692     19.67085     20.48422    7873.7659    9595.5194    10354.008    8272.9859    648.63815    793.67898    1023.6619   -3612.0972 
34267000    142.28817   -4961.9815   -4687.5667   -4961.9815            0    9656.2864    19.473497    19.718621    20.425955    7843.3729     9803.403    9977.6587    9187.7974   -13.160607    398.50348    145.94923   -3583.0078 
34268000    137.71563   -4968.4644   -4702.8682   -4968.4644            0    9043.8484    19.494789    19.661873    20.482671    7851.0909    9756.5459    8970.4319    8404.5675   -128.19275    1169.9552    1156.1795   -3667.3466 
34269000    136.22593   -4956.8213   -4694.0981   -4956.8213            0    10296.324     19.58357    19.657725    20.446254    7871.1624    11527.354     9283.169     10078.45    195.72587    463.67722    346.71968   -3512.1539 
34270000     130.5858   -4931.0412   -4679.1955   -4931.0412            0    11663.201    19.620728    19.607163    20.289414    7805.4756    12503.451    11857.515    10628.637   -85.429052    17.434895    326.79858   -3351.5167 
34271000    137.69173    -4965.897   -4700.3469    -4965.897            0    11339.258    19.523039    19.760023    20.289984    7827.3827    12829.149    9750.0392    11438.587    239.48719   -748.03599    181.96165   -3405.9212 
34272000    145.55713   -4964.7185   -4683.9993   -4964.7185            0     9612.487    19.485288    19.902159    20.244543    7850.8197    10270.053    8105.8027    10461.606   -330.33937    577.34989    341.33776   -3583.4065 
34273000    136.03549   -4967.2218   -4704.8659   -4967.2218            0    9150.4486    19.598676    19.734496    20.358328    7873.9902    8936.4885    9619.0553     8895.802   -492.51612   -690.39241   -242.43369   -3654.0827 
34274000    141.95779   -4934.7539   -4660.9764   -4934.7539            0    10608.663    19.487037    19.618987    20.533692    7850.3575    10610.273    10848.012    10367.706    153.38186   -393.15843   -825.90706   -3446.3968 
34275000    139.29631   -4937.9522   -4669.3076   -4937.9522            0    10653.126    19.473726    19.674562    20.421166    7824.1049    10080.144    11205.646    10673.589   -398.57505    828.88002   -17.599733   -3453.7162 
34276000    140.81809   -4942.1664   -4670.5869   -4942.1664            0    10003.765    19.445593    19.807909    20.381049    7850.3018    9866.8037    9872.3679    10272.122   -288.19062   -1046.8306    1326.4287   -3525.2699 
34277000    140.42888   -4937.3647   -4666.5358   -4937.3647            0    11009.947    19.393292    19.704111    20.462247    7819.1887    12039.881    10543.034    10446.925   -465.15728   -566.66855    712.68487   -3411.0182 
34278000    136.24067   -4961.3397   -4698.5881   -4961.3397            0    9979.5123    19.541091    19.722075    20.334773    7836.8359    10488.573     10010.52     9439.444    481.65444    -1281.025    -224.3755   -3558.0076 
34279000    143.32559   -4959.3861   -4682.9706   -4959.3861            0    11016.345    19.521679    19.622537    20.416304    7820.7687    11276.194    10564.443    11208.397   -413.15143    1652.1015    34.427797   -3426.4696 
34280000    141.20099   -4951.1352   -4678.8172   -4951.1352            0    10486.792    19.585462     19.57232    20.502874    7859.4267    9939.8446    11018.658    10501.873   -285.04167    884.26186   -278.98291   -3476.8036 
34281000    138.49958   -4943.3739   -4676.2658   -4943.3739            0    10544.499    19.624756    19.648194    20.407981    7869.1341    11456.397    10216.005    9961.0952   -479.42091    111.00745    488.41774   -3466.1448 
34282000    140.65291   -4952.3307   -4681.0697   -4952.3307            0    9797.0718    19.550235    19.739089    20.358717    7856.5066    10638.087    7806.6956    10946.433   -1455.5077    423.96664   -228.53234   -3558.5302 
34283000    136.30583   -4953.7587   -4690.8815   -4953.7587            0    10075.423    19.572152    19.715382    20.507876    7913.4246    10094.629     9165.134    10966.506    191.39593    875.73027   -316.80495   -3528.0852 
34284000    134.33147   -4955.0973   -4696.0277   -4955.0973            0    10553.574    19.561139    19.715617    20.324948    7838.5177    11249.693    8793.5976     11617.43   -243.76841    -358.8421   -315.75386   -3489.5776 
34285000    137.06626   -4975.8677   -4711.5238   -4975.8677            0    9854.4694    19.574045    19.580236     20.42724    7829.0343    8499.0859    10827.306    10237.017   -141.83754    1085.2715   -450.66717    -3586.356 
34286000    140.04008   -4961.0277   -4690.9486   -4961.0277            0    11218.084    19.549144    19.495135    20.377529    7766.1448    11649.561    11781.768    10222.925   -80.402127   -382.26404      -278.31   -3420.3743 
34287000     134.5067   -4947.2534   -4687.8459   -4947.2534            0    10697.394    19.627001    19.602056    20.338309     7824.749    10254.558    11407.883    10429.741   -484.31724    1056.7492    667.81543   -3467.1027 
34288000    134.80381   -4937.4137   -4677.4333   -4937.4137            0    10736.649    19.590421    19.716846    20.292229    7838.1028    10218.021    11122.395    10869.532    -648.2551   -363.66251    1545.9948   -3450.1195 
34289000    133.60858   -4951.6206   -4693.9452   -4951.6206            0    10356.277     19.56624    19.684103    20.330336    7830.1042    10278.593    10470.145    10320.092   -125.79425    117.52845    485.19999   -3511.3201 
34290000    137.81392   -4949.9462   -4684.1604   -4949.9462            0    10213.032     19.55595    19.614994     20.38142     7818.106    9949.5083    11138.666     9550.922    -109.5657    431.18435   -612.61848   -3519.6801 
34291000     140.8923    -4955.829   -4684.1064    -4955.829            0    10541.383    19.548147    19.765163    20.253157     7825.259    10418.372    10116.821    11088.956   -806.73424   -67.714721    285.58159   -3481.0882 
34292000    134.34331   -4954.2623   -4695.1699   -4954.2623            0     10145.59     19.51414    19.780576     20.34225    7852.1273    10448.282    10193.153     9795.335     50.55441    343.20479   -713.49798   -3533.3454 
34293000    140.88892   -4947.8536   -4676.1375   -4947.8536            0    10870.288    19.409904    19.784766    20.396859    7832.8101    10665.862    10953.001    10992.001   -794.09619    151.14595    824.48557   -3434.3864 
34294000    134.46309   -4954.3684    -4695.045   -4954.3684            0    12192.991    19.515857    19.655201    20.301145    7787.2775    12766.177    11389.943    12422.854   -1143.7091   -419.58801    1130.9348   -3310.2936 
34295000    136.25509    -4962.873   -4700.0936    -4962.873            0    10848.835    19.589818     19.57697     20.34179    7801.2649    11231.382    11766.389    9548.7345    238.79976    518.16814   -1029.7063   -3465.7843 
34296000    136.81087   -4961.1542    -4697.303   -4961.1542            0    9750.2876    19.563153    19.568113     20.50106    7848.0926    9118.1197     10442.63    9690.1128   -228.56132    109.23851   -326.55125   -3581.3203 
34297000    138.35695   -4952.3526   -4685.5196   -4952.3526            0    10960.048    19.516609    19.712628    20.313632    7815.1348    9486.5547    11490.122    11903.467    -92.47102     661.6783    1001.8051   -3436.3402 
34298000    133.72326    -4946.076   -4688.1794    -4946.076            0    11752.077    19.473271    19.577115    20.280918    7731.7042    11271.311     11411.67     12573.25   -403.14688   -132.98752   -139.64812   -3363.0273 
34299000    140.67396   -4952.5995   -4681.2979   -4952.5995            0    10706.284    19.507193    19.743084    20.336897     7832.393    10927.136    9391.5106    11800.204   -115.34387   -522.38615    753.06261   -3458.3468 
34300000    132.39431   -4960.2305   -4704.8969   -4960.2305            0    9050.2353    19.620193    19.868989    20.204131    7876.2452    10071.226     7328.604    9750.8757   -614.55898    451.26853   -844.65554    -3665.324 
34301000    149.18427   -4932.9235    -4645.209   -4932.9235            0    10407.988    19.619325    19.672213    20.226815    7806.6515    9635.8444    10324.437    11263.682   -411.42274   -624.21662   -15.673668   -3460.2388 
34302000      132.369   -4950.9253   -4695.6405   -4950.9253            0     11396.19    19.591072    19.707166    20.242729    7815.4039    11168.149    10990.354    12030.068   -320.20841    -349.0603    754.77409   -3396.7068 
34303000     131.0847   -4956.0441   -4703.2363   -4956.0441            0    10353.129    19.514628    19.749032     20.28127    7816.3006    11542.265    9627.7846    9889.3386    5.8335185    611.09725    1384.1619   -3523.0548 
34304000    141.89541   -4940.8188   -4667.1615   -4940.8188            0     11104.67    19.542523     19.67043    20.312894    7808.4759    10210.162    12075.306    11028.543   -114.24327    810.50855   -27.036633   -3402.5771 
34305000    142.95501   -4962.4899   -4686.7891   -4962.4899            0     10076.86    19.614501    19.595392    20.402261    7841.6872    9470.6117    11410.999    9348.9693   -491.45864   -270.29853    1068.4477   -3534.3695 
34306000    146.24468    -4946.786   -4664.7408    -4946.786            0    10079.369     19.64687    19.722837    20.253872    7848.2141    9775.4472    9666.9467    10795.713   -258.52605    607.43926   -254.00104   -3511.0749 
34307000    132.08289   -4963.2383   -4708.5053   -4963.2383            0    9901.5034    19.710373    19.699654    20.238405    7858.3206    9096.8614     10535.79    10071.859    316.30843    135.36588    -222.0307   -3573.7381 
34308000    140.25517   -4957.1998   -4686.7059   -4957.1998            0    9605.5715    19.513908    19.817711    20.293517    7847.9292    8812.8596    9768.1325    10235.722    9.5791843   -10.626731    1475.9859   -3587.3098 
34309000     139.6834   -4959.5763   -4690.1851   -4959.5763            0    9612.6665    19.402716    19.759977    20.453693     7841.889    8636.1173    10238.775    9963.1073   -832.24415    968.17631    797.52064   -3590.8238 
34310000    140.12763     -4959.82    -4689.572     -4959.82            0    9833.6239    19.581371     19.82294    20.244804    7858.2302    10954.213    8058.5082     10488.15   -333.86057    267.66177    135.47485   -3562.5972 
34311000    140.99779   -4951.9693   -4680.0432   -4951.9693            0    10722.474    19.473294    19.748894    20.362673    7830.9954    10808.899    10629.192    10729.329    419.20948     1043.514    833.91029   -3455.4613 
34312000    141.47233   -4925.5182   -4652.6769   -4925.5182            0    13702.649    19.427449    19.669137    20.365001    7781.8976    14213.237    13238.979     13655.73    240.42907    653.82942   -1819.9147   -3097.5497 
34313000    137.93299   -4944.0889   -4678.0735   -4944.0889            0    9788.6362    19.589631    19.759817    20.340979    7873.7394    10803.763    8772.1111    9790.0342   -643.47737   -916.16763   -13.501313   -3554.0404 
34314000    132.49065   -4946.2898   -4690.7705   -4946.2898            0    10564.756    19.610023    19.801946    20.255118    7865.3989    10092.233    10703.901    10898.134    209.56978   -143.66829   -1301.0879   -3478.9002 
34315000    134.35481   -4939.0888   -4679.9743   -4939.0888            0    12259.026    19.345897    19.642072    20.398244    7751.1998    12906.005    11009.175    12861.897    559.17596    2171.0092    546.39138   -3294.1736 
34316000    146.39188   -4944.8215   -4662.4924   -4944.8215            0    10291.558    19.386996    19.760126     20.41531    7820.8905    12441.397    8307.4832    10125.795    115.06952   -319.39866    236.13311   -3488.6408 
34317000    130.45522   -4941.9934   -4690.3995   -4941.9934            0    9038.3033    19.486823    19.872116    20.214786    7828.0629    9217.7631    8576.4034    9320.7435   -30.043398   -407.39306   -93.036476   -3658.5482 
34318000    133.46218   -4946.5139   -4689.1209   -4946.5139            0    9026.7336    19.554359    19.776336    20.274367    7840.3726    7589.0748    11238.572    8252.5536    134.14662   -1002.1036    178.24809   -3656.9699 
34319000    136.80119   -4970.3001   -4706.4675   -4970.3001            0    9893.3764    19.521379    19.834961    20.210517    7825.6293    9642.4025    9039.9882    10997.738   -51.987749    697.53591   -684.10784   -3577.3486 
34320000    140.73323   -4953.9617   -4682.5458   -4953.9617            0    10754.675    19.551405    19.653856    20.407012    7841.6087    9355.4015    11900.308    11008.316     190.8241    78.357081    487.01892   -3452.6216 
34321000    137.15617   -4941.0141   -4676.4969   -4941.0141            0    11411.576    19.593559    19.516149    20.391087    7797.3645    10351.786    12764.684    11118.259   -228.71163   -933.84694   -434.83841   -3378.8116 
34322000    144.59156   -4940.5028   -4661.6458   -4940.5028            0    9422.0418    19.594496    19.781736    20.357963    7891.0139    9396.4727    9597.1744    9272.4783  -0.23863174    112.20346     565.7178   -3577.3352 
34323000    130.00006   -4954.9145   -4704.1984   -4954.9145            0    10682.987    19.304314     19.56027    20.631321    7790.3372    11841.358    10164.121    10043.483   -696.78739    1466.1519    212.96699   -3490.4606 
34324000    130.17166   -4950.3906   -4699.3436   -4950.3906            0     9499.478    19.430884    19.658382    20.489471    7826.5628    10594.231    8897.6178    9006.5853    -537.6793     778.6523    542.60219   -3615.0504 
34325000    136.77498   -4962.0237   -4698.2417   -4962.0237            0    9407.4478    19.497493    19.650993    20.577215    7884.0588    10607.327    8838.4264    8776.5898    395.27881   -96.198276   -525.80059   -3616.5648 
34326000    141.98451   -4962.5213   -4688.6923   -4962.5213            0    9652.6206    19.517466     19.65052    20.453217    7844.3884     10600.51    10125.482    8231.8701    -484.6948   -1153.7057   -742.44635   -3584.4097 
34327000    136.05791   -4981.4509   -4719.0518   -4981.4509            0    8613.5973    19.615004     19.65754    20.530653    7916.2652    9125.5941    8092.7658    8622.4319   -126.19691    48.354955   -229.62709   -3724.6067 
34328000    143.20741   -4951.5036    -4675.316   -4951.5036            0    10076.681     19.59302    19.667626    20.456641      7882.93    9724.9151    10512.903    9992.2235   -548.96106    1325.4532    678.77605    -3516.856 
34329000    135.74011   -4953.8418   -4692.0555   -4953.8418            0    12098.883    19.505506    19.622921    20.401752    7808.8727    13452.799     11271.18     11572.67   -198.26929   -976.83785    202.65114   -3314.1815 
34330000     141.0443   -4948.4117   -4676.3959   -4948.4117            0    10355.522    19.512567    19.696455    20.404156    7841.8962    11343.354    9506.2913     10216.92   -306.57291    1178.8253    248.42443   -3492.0761 
34331000    136.33483   -4939.8651   -4676.9319   -4939.8651            0    10961.529    19.481696    19.697635    20.369618    7816.7053    11810.227    9743.1754    11331.185    244.12474    1069.8963    70.931546   -3427.3326 
34332000    130.75698   -4947.8489   -4695.6731   -4947.8489            0     11069.02    19.425706     19.70932    20.389534    7806.4891     11922.69    10844.697    10439.674    -1.466948    1891.7351   -138.35664   -3435.4692 
34333000     137.3658   -4942.9109   -4677.9894   -4942.9109            0    10694.897    19.531959    19.657672    20.416976    7839.1564    9468.0377    11502.243    11114.411    584.78608    258.46595    563.81009   -3455.2839 
34334000    140.60225    -4939.371   -4668.2077    -4939.371            0    11318.785    19.530051    19.790714    20.332819    7858.9123    9472.3898     12933.14    11550.824   -236.74361   -418.85812   -264.89206   -3370.9146 
34335000    134.60391   -4961.5995   -4702.0045   -4961.5995            0    9725.4106    19.560383    19.733795    20.355841    7857.3664    9823.3157    9401.0599    9951.8561    189.09243    659.17068    556.36711   -3587.5539 
34336000    135.14487   -4958.8894   -4698.2512   -4958.8894            0    10299.496    19.531426    19.847368    20.247486    7848.8853    10317.583    9880.4733     10700.43    209.11069   -147.00404    308.25313   -3519.2891 
34337000    137.37749   -4953.6358   -4688.6918   -4953.6358            0    10349.827    19.585253    19.722485    20.197339    7801.6232     10293.92    9485.5795    11269.982    10.128143   -385.32917    512.09798   -3511.1022 
34338000    141.75045   -4950.0307    -4676.653   -4950.0307            0    12065.504    19.517844    19.633454    20.304046    7780.5653    12170.915    11759.151    12266.445    238.45919   -200.20687   -740.72262   -3307.5615 
34339000    129.79946   -4969.1102   -4718.7811   -4969.1102            0    9975.6956    19.574925    19.801403    20.305305    7870.5591    8976.3583    11235.647    9715.0818   -255.11979   -444.73656    402.49517   -3573.7305 
34340000     136.2525     -4958.87   -4696.0956     -4958.87            0    9385.6376    19.518201    19.739962    20.359515    7844.2877    8912.3816    9315.5642    9928.9669    111.48295    1546.1258   -461.44438   -3622.3703 
34341000    136.36216    -4955.253   -4692.2671    -4955.253            0    10278.757     19.51672    19.573237    20.476219    7822.0261    9673.2752     11647.62    9515.3743    -682.7419   -361.24192    169.28346   -3519.7053 
34342000    135.86082    -4952.564   -4690.5449    -4952.564            0     12305.85    19.438571       19.725    20.388699    7817.5537     14243.71    11086.879     11586.96   -175.25907   -776.97967    198.21417   -3287.5427 
34343000    141.20178   -4946.9492   -4674.6296   -4946.9492            0    11078.154    19.610911    19.711089    20.229007    7819.5714    11337.406    10911.799    10985.255    355.66285   -617.45955    -363.0309   -3411.2723 
34344000    139.89084   -4964.8531   -4695.0618   -4964.8531            0     9353.148    19.546428    19.658593    20.511891    7881.8022    9920.5109    8564.7398    9574.1933   -276.77611   -460.56585    763.94444   -3619.9362 
34345000    131.01807   -4958.5399   -4705.8605   -4958.5399            0    10844.706    19.561279    19.551625    20.442611    7818.3745    11345.082    11568.273    9620.7637   -345.43892    650.90122    99.367812   -3469.3149 
34346000    136.04854   -4930.9959   -4668.6148   -4930.9959            0    12173.235    19.466642    19.616441    20.320751    7759.8086    13941.586    10254.311    12323.809   -208.51512    196.04574   -636.30461   -3290.9838 
34347000    136.45982   -4954.0665   -4690.8923   -4954.0665            0    10637.108    19.701195    19.684388    20.243673    7850.6175    10257.919     11209.06    10444.346    54.918364    -315.2714    116.62052   -3473.0157 
34348000    142.63144   -4964.0072   -4688.9305   -4964.0072            0    10496.821    19.552038    19.777438    20.247677    7829.5586    10671.914    10467.014    10351.535     35.70447   -399.03501    425.95408   -3490.3396 
34349000    142.34542   -4967.9617   -4693.4366   -4967.9617            0    10667.465    19.667995    19.611308    20.359435    7852.9413    10156.904    11471.083    10374.407   -43.300417    192.19761    390.33468   -3471.7229 
34350000    135.21798   -4950.7877   -4690.0085   -4950.7877            0    10867.509    19.492393    19.811648    20.366901     7865.217     11890.08    9069.7568    11642.691   -181.21816    602.69772    511.59492   -3443.4386 
34351000    136.08365   -4967.0654   -4704.6167   -4967.0654            0    11295.616    19.448539    19.676652    20.392269    7803.7568    11467.753    12270.088    10149.008    99.457224    726.52755   -744.76482    -3419.065 
34352000    138.48526   -4951.7306   -4684.6502   -4951.7306            0    10073.033    19.399227    19.886807    20.316519    7837.8831    12806.809    7880.4653    9531.8238    239.27811   -904.74151    134.20439   -3533.2271 
34353000     143.8294   -4953.6515   -4676.2645   -4953.6515            0      10439.1     19.42085     19.68916    20.443269    7817.1016    11983.036    10288.912    9045.3515    709.89008   -566.09328    797.04492    -3486.161 
34354000    141.62187   -4953.2824   -4680.1528   -4953.2824            0    10232.904    19.518586    19.596831    20.526287    7851.3546    10107.763    11035.494    9555.4558   -127.72504    177.94558    209.99464   -3508.4447 
34355000    144.45564   -4944.9484   -4666.3536   -4944.9484            0    10890.388     19.48964    19.715558    20.380041    7831.0128    11384.572     10477.75    10808.842   -816.53023    261.78135   -542.54219   -3422.5919 
34356000    128.85527   -4939.7532    -4691.245   -4939.7532            0    12058.896     19.50941    19.583632    20.306709    7758.4848    11204.859    13449.932    11521.897    228.75246   -948.45251    166.11944   -3326.7865 
34357000    138.80657   -4952.2535   -4684.5534   -4952.2535            0    10440.385    19.640391    19.758588    20.203281    7840.2146    10414.692    10421.166    10485.296    149.46598    25.994457    1306.9471   -3490.7843 
34358000    134.87502   -4945.7952   -4685.6774   -4945.7952            0    7838.4735    19.677844    19.639179    20.455667    7905.2296    7988.4629    8517.9175    7009.0402    261.71638    -889.4768   -107.19534   -3781.9824 
34359000     138.6023   -4948.9137   -4681.6075   -4948.9137            0    11855.048    19.480962    19.695846    20.345602     7806.486    12730.125    11334.412    11500.606   -166.40447   -120.18865    610.87859   -3331.9152 
34360000    139.66179   -4947.3431   -4677.9936   -4947.3431            0    11296.898    19.665785    19.731234    20.246401    7856.2148    10351.841    12228.355    11310.498   -112.77162   -1205.6308    1357.4941   -3383.6534 
34361000    140.35951   -4947.7224   -4677.0273   -4947.7224            0    10300.547     19.55059    19.721564    20.371694    7854.6776    11166.081    9763.8593    9971.7018    70.583917    109.98649    1604.2379   -3497.0747 
34362000    139.08438   -4948.2124   -4679.9765   -4948.2124            0    11115.825    19.509608    19.715983    20.376797     7837.957      11339.9    10292.873    11714.701    298.47462   -795.41815   -105.08048   -3409.3426 
34363000    135.27316   -4960.5843   -4699.6986   -4960.5843            0    11883.771    19.619908    19.572002    20.363219    7819.4942    11192.226    12319.491    12139.597    403.32349   -1995.6266   -67.601271   -3344.4817 
34364000    136.00839   -4944.9677   -4682.6641   -4944.9677            0    9995.5442    19.571977    19.746903    20.314765    7851.3708    8708.7722    10282.036    10995.825    2.5387411    102.35206    880.52258   -3538.1324 
34365000    132.54122   -4942.0753   -4686.4584   -4942.0753            0    10450.128    19.506893    19.658491    20.404288    7824.5566    9913.2942    10975.791      10461.3    891.57375    171.56708    446.70224   -3493.9615 
34366000    137.01235   -4964.4575   -4700.2177   -4964.4575            0    10275.264     19.59158    19.587771    20.321329    7798.4196    9681.7724    10227.937    10916.083   -4.9703316    690.82686   -60.929901   -3531.5918 
34367000    132.43537   -4953.5421   -4698.1294   -4953.5421            0    11674.471    19.379622    19.819843    20.280028    7789.5803    12788.249     11340.75    10894.413   -371.14562    169.72457   -310.19877    -3371.874 
34368000    134.08526   -4945.5019   -4686.9072   -4945.5019            0    11408.692    19.334737     19.62379    20.498617     7777.602    13299.033    10783.008    10144.034    -236.0811    411.23949    178.27722   -3392.8382 
34369000    134.46779   -4951.2859   -4691.9535   -4951.2859            0    11376.599    19.448846    19.730144    20.285645    7784.1805    10928.157    10927.275    12274.365    321.70993   -593.55311      1398.13   -3400.4331 
34370000    134.70084     -4944.03   -4684.2481     -4944.03            0    10824.757     19.50665    19.714146    20.331562    7818.6433    10640.513    10850.776    10982.981   -120.67616   -323.15464    181.18295   -3449.9347 
34371000     128.6369   -4951.7651   -4703.6781   -4951.7651            0    11134.884     19.52123    19.637138    20.371258      7809.14    10509.659    12064.647    10830.345   -281.22905     96.88539   -886.99436   -3435.5451 
34372000    138.28101   -4940.3292   -4673.6427   -4940.3292            0    10763.069    19.484648    19.734557    20.377888    7835.7238    13181.923    7970.3861    11136.897    -297.8384   -41.502998    153.42802   -3443.6823 
34373000    140.75121   -4956.1646    -4684.714   -4956.1646            0    10200.983    19.503614    19.718338    20.332492    7819.4461    10570.657    9541.4716    10490.822   -68.607075    267.24335   -673.67259   -3521.4082 
34374000    132.27502   -4939.4691   -4684.3656   -4939.4691            0    9326.6353    19.604766    19.518841    20.495599    7842.8933    8399.8388    11360.956    8219.1115   -196.65731    525.19416    664.91737   -3617.5799 
34375000    137.47116    -4938.279   -4673.1543    -4938.279            0    9987.0634     19.42895    19.569513    20.600363    7832.5688    9681.1337    9829.5854    10450.471    543.95036    619.05433   -786.75769   -3532.3323 
34376000    133.23058   -4955.7265   -4698.7801   -4955.7265            0    11122.196    19.435711    19.637418    20.400072    7786.0378    12250.441     10750.37    10365.777    304.22637    -164.7641    -39.72539   -3435.8395 
34377000    137.29013   -4959.8074   -4695.0319   -4959.8074            0    9872.3249    19.509844    19.647545    20.478031      7849.65    9676.5262    10058.929    9881.5199   -412.26035   -300.32104   -380.36724   -3564.8571 
34378000    133.38816   -4953.2565   -4696.0062   -4953.2565            0    11900.333    19.442575    19.686269    20.471268     7835.414    12079.634    10769.054     12852.31    497.19116    1217.8873    262.95969   -3336.1376 
34379000    143.05116   -4934.9573   -4659.0711   -4934.9573            0    11202.179    19.551238    19.583332     20.40356    7812.0816    10868.871    12102.782    10634.883    190.56629    88.772418    264.19983   -3382.7935 
34380000    128.83071   -4958.1121   -4709.6512   -4958.1121            0     11012.09    19.512788    19.673816    20.385678    7825.8782    10927.452    11093.807    11015.012    -377.9284    829.98955    656.97147   -3452.8149 
34381000     130.0691   -4957.7914   -4706.9422   -4957.7914            0    9667.6414    19.486732    19.768244    20.304547    7821.6866    9398.3455    9238.7896    10365.789    201.64719    782.98074    435.85259    -3604.142 
34382000    138.23033   -4932.8533   -4666.2645   -4932.8533            0    10442.142     19.49097    19.801635    20.232712    7808.8776     10960.25    9597.1021    10769.075    407.13529   -289.10278    526.17431   -3477.0666 
34383000    147.45531   -4954.6709   -4670.2909   -4954.6709            0    9812.8135     19.77296    19.558555    20.269222    7838.7269    9470.4496    10130.354    9837.6369    442.77853    917.05859    94.379764   -3548.4922 
34384000    133.89568   -4958.6475   -4700.4184   -4958.6475            0    9667.5859    19.610348    19.706142    20.299383    7844.5813    8951.0665    11200.151    8851.5402    67.617743   -235.41975    -271.4266   -3594.3966 
34385000    136.64683   -4946.7183   -4683.1834   -4946.7183            0    12012.989    19.535084    19.675407    20.217245    7770.7149    11156.102    12919.432    11963.433   -457.40754   -855.34973    402.77284   -3321.7765 
34386000    135.23403   -4934.9756   -4674.1654   -4934.9756            0    11754.781    19.531896    19.611509      20.2967    7774.6502    11533.683    11908.305    11822.356   -353.47268   -110.35378   -412.28916    -3341.346 
34387000    137.98931   -4956.4962   -4690.3722   -4956.4962            0    11010.715    19.648553    19.706003     20.18654    7816.1164    11046.832    10102.462    11882.849   -40.781453    127.44307    79.467327   -3435.2604 
34388000     134.0209   -4951.4785    -4693.008   -4951.4785            0     11098.99     19.59892    19.735065    20.170775    7801.7726    11076.935    10710.979    11509.057   -211.55053    615.79048    1051.2516   -3430.1554 
34389000    129.60181   -4960.1329   -4710.1849   -4960.1329            0    9722.4179    19.469784    19.652575    20.466344    7831.0657     9578.767    9991.7867    9596.6999   -482.30348    -89.01183   -984.05883   -3599.8064 
34390000    144.42566   -4961.6901   -4683.1531   -4961.6901            0    8776.7249    19.436348    19.678117     20.55426    7861.4027    10824.898    7197.0645    8308.2125   -130.92951   -229.17215    703.50772   -3676.8972 
34391000    136.32767   -4959.9061   -4696.9867   -4959.9061            0    9851.7986    19.638592    19.652271    20.404874    7875.1173    11018.582    9339.5717    9197.2418   -137.06309   -58.766727   -504.50372   -3565.5026 
34392000    134.80638   -4948.4664   -4688.4809   -4948.4664            0    11243.078    19.531055    19.707237    20.306256    7815.9416    12253.806    10471.177    11004.251    -51.55343    574.51395    569.34533   -3406.9107 
34393000    131.56039   -4948.1977   -4694.4724   -4948.1977            0    10634.493     19.68061    19.614371     20.33849    7851.1208    11852.231    9847.4501    10203.798   -265.99053   -1773.7544    1090.4922   -3476.8172 
34394000    138.29969   -4947.1185    -4680.396   -4947.1185            0    10250.742    19.642092    19.622584    20.200246    7785.7523    10836.344     9550.236    10365.646    409.19658    1014.5857   -102.85228   -3516.4528 
34395000    133.20333   -4953.1579    -4696.264   -4953.1579            0    9861.2006    19.585638    19.710389    20.379029    7867.1315    8146.0523    10484.367    10953.183   -704.53495    77.390388    912.45655   -3564.8486 
34396000    133.59627   -4952.5125   -4694.8608   -4952.5125            0     10544.18    19.535981    19.626227    20.384259    7815.6838    10996.947    10576.515    10059.076   -294.90482    472.96296   -971.31203   -3492.9959 
34397000    136.10609   -4956.0219   -4693.5298   -4956.0219            0    12452.875    19.339372    19.694309    20.356995    7753.4816    11899.443    12686.189    12772.993   -864.44529   -74.709027    690.11089   -3285.4013 
34398000    131.58947    -4953.676   -4699.8947    -4953.676            0    10068.575    19.605353    19.732496    20.241669    7830.7439    10173.856    8373.7531    11658.117    508.70778    2015.4936     951.3419   -3550.0295 
34399000    140.14589   -4950.1984   -4679.9152   -4950.1984            0    9185.6474    19.447382    19.706386    20.528039    7867.1166    9652.7127    9783.7732    8120.4564    739.19173    716.17944    542.68519   -3626.0107 
34400000    134.57856   -4950.6471    -4691.101   -4950.6471            0    10676.689    19.478187    19.744528    20.346607    7825.0529    10475.228    10503.446    11051.394    181.22068    68.825949    618.58195   -3472.6733 
34401000    138.49953   -4937.3158   -4670.2078   -4937.3158            0    10090.842    19.568265     19.67643    20.439239    7869.7938    12420.382    8163.3205    9688.8247   -184.63599     72.69121    1285.1238   -3512.0528 
34402000    139.43108    -4940.757   -4671.8524    -4940.757            0    12662.462    19.642046    19.484497    20.362755    7793.1395    12686.124    12729.204    12572.057    366.27367    701.72144    288.95064    -3232.701 
34403000    137.36599   -4954.8357   -4689.9139   -4954.8357            0    9731.4637    19.941935    19.398286    20.241721    7830.2942      8900.81    10538.641    9754.9398    192.32348    4.7823815   -556.06963   -3578.6118 
34404000    137.81917   -4947.3668   -4681.5709   -4947.3668            0    10546.749    19.781684    19.408376    20.317526    7800.5154    10192.898    9544.0605    11903.288    370.66881   -875.86661    118.47237   -3481.7462 
34405000    138.79487    -4952.628   -4684.9504    -4952.628            0    11516.269    19.685678    19.381521    20.407906    7786.3994     11222.69    11817.862    11508.254    97.175248    -279.4308    256.88179   -3377.2015 
34406000    132.61519   -4950.6825    -4694.923   -4950.6825            0    10475.441    19.622362    19.450204    20.465515    7810.8468    12594.532    9535.1136    9296.6784   -124.34404   -293.74894    511.64711   -3501.6321 
34407000    136.44563   -4939.0352   -4675.8883   -4939.0352            0    10978.195    19.694482    19.391051    20.429791    7802.0698    12297.187    9884.7359    10752.661    52.356923    496.23852   -705.15405   -3426.7324 
34408000     126.0334    -4942.857   -4699.7909    -4942.857            0    10024.193    19.658853    19.498445    20.307112    7784.0627    10080.507    9467.9337    10524.137   -235.70464    564.71211   -490.04885   -3561.8188 
34409000    134.35235   -4957.7194   -4698.6096   -4957.7194            0    9846.9855    19.643342    19.393423    20.556435    7831.0075    10234.893    9395.3831    9910.6801   -166.92357    466.91725    222.44464   -3574.0129 
34410000    137.32692   -4949.1006   -4684.2541   -4949.1006            0    10372.916    19.700208    19.485679    20.363225    7816.8707    10853.057    9933.2631    10332.427     55.93838    179.19188   -869.93268   -3501.7309 
34411000    132.79475   -4959.4511   -4703.3452   -4959.4511            0    9397.1066    19.690001    19.566093    20.401946      7859.98    9627.3855    9375.2414    9188.6931    199.78347   -379.24724    1046.5689   -3626.1573 
34412000    142.37394    -4951.037   -4676.4569    -4951.037            0    10914.016    19.649613    19.468715    20.355966    7787.2301    11735.214    10693.716    10313.118    419.09718   -1192.3319   -9.1486421   -3436.9656 
34413000    130.57938   -4938.1335   -4686.3002   -4938.1335            0    9358.9725    19.683318    19.592549    20.370894    7855.9612    9404.3696    8882.7365    9789.8113    215.01144    727.75199   -833.85214   -3614.0321 
34414000    140.30034   -4969.1811   -4698.6001   -4969.1811            0    9903.9363    19.679451    19.495371    20.488317    7860.5111    9547.6817    10350.053    9814.0737    141.17798   -673.43097    497.51267   -3563.2377 
34415000    132.65554   -4936.3885   -4680.5512   -4936.3885            0    11318.466    19.522379    19.579972    20.351082    7779.1528    12551.964    10397.169    11006.264   -191.68172    227.23003    304.24319   -3396.4603 
34416000    141.13936    -4949.757   -4677.5579    -4949.757            0    10097.471    19.695318    19.527575    20.339687    7822.6801    12163.117    8204.8581    9924.4389   -468.74629    1013.2521   -115.15844   -3525.5802 
34417000     139.7715    -4953.635   -4684.0739    -4953.635            0    9839.0646    19.659817    19.483976    20.405061    7816.1871    10451.713    9923.1904    9142.2903    218.25805   -697.41087    560.73098   -3562.5084 
34418000    143.88204   -4940.9359   -4663.4473   -4940.9359            0    11641.291    19.739963    19.485708    20.287772    7803.6341    10353.471    12913.256    11657.148    404.45885    212.03574    123.22261   -3338.5752 
34419000    143.60396   -4955.8571   -4678.9048   -4955.8571            0    9395.1197     19.68372    19.641061    20.418274    7893.8919    8779.7752    9036.4612    10369.122   -118.65281   -58.220107    713.24375    -3597.298 
34420000    144.37607     -4958.92   -4680.4786     -4958.92            0    10890.436    19.695566    19.481834    20.333292    7802.0011    10108.473    10809.879    11752.958   -456.01558    285.63493    683.59006   -3441.3192 
34421000    136.82069   -4938.7466   -4674.8764   -4938.7466            0    10274.087    19.711413    19.520686    20.296874    7809.8373    10058.595    9131.3418    11632.325    -131.0651    609.87539   -1021.6778   -3504.6736 
34422000    141.11453   -4959.0679   -4686.9166   -4959.0679            0     10889.94    19.770237    19.409001    20.325989    7799.4995    10226.138    11363.022    11080.662   -50.654959    485.03669   -430.17908   -3448.2109 
34423000    137.26925   -4967.8809   -4703.1456   -4967.8809            0    10283.928     19.75784    19.424726    20.460513    7852.5535    11143.061    10170.819    9537.9054    762.69388    -265.0653   -563.68581   -3525.4154 
34424000    133.98072   -4940.6579   -4682.2648   -4940.6579            0    11689.923     19.65042    19.495081    20.368594    7802.9337    11732.742    12024.502    11312.526   -614.50143    1211.1729   -83.179935   -3351.9775 
34425000    136.34664   -4945.4709    -4682.515   -4945.4709            0    10407.061    19.733987    19.513089    20.224829    7787.9961    10243.452    9932.0068    11045.726    168.28459    1038.1717   -770.60363   -3500.4816 
34426000    132.84241   -4955.1504   -4698.9526   -4955.1504            0    9243.4269    19.759746    19.456786    20.340032    7819.9522    9160.1126    9471.4368    9098.7314    89.446351    480.52374      26.4925   -3644.7769 
34427000    129.56739   -4930.5495   -4680.6679   -4930.5495            0    10168.843    19.628567    19.471914     20.44983    7816.0428    11423.122    9669.8594    9413.5489   -229.88487    623.10027    729.29727   -3521.5319 
34428000    136.67158   -4941.3765   -4677.7938   -4941.3765            0    11749.277    19.703123    19.490546    20.213203    7762.3678    11756.976    11672.837    11818.018    51.532004    910.98125   -277.24518   -3347.7031 
34429000    136.15015   -4945.1588   -4682.5818   -4945.1588            0    9507.2924    19.803751    19.554711    20.361322    7885.0567    8474.2291    10630.536    9417.1118   -492.37211   -392.16736    795.54334   -3589.2863 
34430000    146.82743   -4957.9789   -4674.8098   -4957.9789            0    10871.531    19.844474    19.603906     20.13222    7832.0216    10671.725    10237.846    11705.021    256.79322     306.8031   -290.10573   -3433.0418 
34431000    135.08298   -4953.3999    -4692.881   -4953.3999            0    11713.463    19.700661    19.579605    20.288866    7826.0477    13027.295    10165.011    11948.081    410.24235    1370.3419   -76.486241   -3355.9664 
34432000    134.12791   -4948.7889    -4690.112   -4948.7889            0    9804.4158    19.914661     19.54736    20.208563    7866.7703    9757.0164    9503.3136    10152.917    443.02734   -375.53962   -137.91876   -3565.2633 
34433000    137.20067   -4965.8992   -4701.2962   -4965.8992            0    10578.237    19.795013    19.493857    20.256853     7816.738    11144.165    10125.114    10465.431    278.97596   -374.54341   -348.31682   -3495.3867 
34434000    134.49999   -4954.9236    -4695.529   -4954.9236            0    10570.663    19.615326    19.529049    20.330828    7788.1032    10786.355    9920.2628     11005.37   -389.13836    742.93969   -648.79915   -3494.8974 
34435000    144.85531   -4948.9442   -4669.5786   -4948.9442            0    10929.694    19.646825    19.565778    20.307682    7806.3832     9274.345     11616.14    11898.597   -132.01242     242.5338   -175.88694   -3425.2538 
34436000    134.67234    -4934.514   -4674.7871    -4934.514            0    9770.2579    19.687868    19.476223    20.447862    7840.6362    9009.9326    10482.215    9818.6265   -397.37711    364.06369   -517.65575   -3557.5812 
34437000    138.49754   -4955.9298   -4688.8257   -4955.9298            0    11349.616    19.666843    19.465535    20.385966      7804.27    11766.543    11338.738    10943.567    564.76731   -55.599564    425.30464   -3397.0433 
34438000    139.20943   -4946.4545   -4677.9774   -4946.4545            0     10440.84    19.651095    19.500715     20.40047    7817.6724    11399.071     9008.765    10914.684    338.61492    421.74265    818.56586   -3487.5887 
34439000    133.04806   -4964.2282   -4707.6338   -4964.2282            0    9832.9938    19.736466    19.467054    20.446079    7855.6053    10417.149    9374.3588    9707.4734    547.01926    345.91477   -286.38227   -3581.1075 
34440000    137.55223   -4935.5327   -4670.2517   -4935.5327            0    10440.961    19.656945    19.526664    20.458573    7852.7072    11105.421    10390.083    9827.3808   -339.14053    452.85369    376.98432   -3474.5144 
34441000    136.85006   -4953.6613   -4689.7345   -4953.6613            0    9644.2242    19.787277    19.589083    20.321196    7876.7924    9307.6846    9648.6529    9976.3352   -289.19063   -429.47188   -385.15108   -3581.8549 
34442000    142.88579   -4951.2979   -4675.7307   -4951.2979            0     10973.13    19.702966    19.389147    20.433833    7806.2083    11390.976    10821.116    10707.299   -359.64009    107.71188   -1158.6839   -3426.4887 
34443000    134.01352   -4954.7211   -4696.2647   -4954.7211            0    7896.7458     19.78385    19.445168    20.554206    7907.2089    7908.6284    7096.7811     8684.828    163.11001    23.245025   -1242.0999   -3785.6236 
34444000    143.52173   -4946.7383   -4669.9446   -4946.7383            0    10447.354    19.592278    19.567636    20.378967    7812.7779    12052.434    9028.5078     10261.12     -535.362    833.32715     402.4738    -3479.559 
34445000    130.03162   -4940.8947   -4690.1177   -4940.8947            0     9484.554    19.757644    19.465813     20.44123    7861.6687    8919.2593    9812.5265    9721.8761    29.685736    1018.3038   -264.95484   -3602.6721 
34446000    136.93163   -4944.2818   -4680.1977   -4944.2818            0    12273.674    19.545176    19.445056    20.465219    7777.9505    13753.174    11218.132    11849.716   -487.86365   -357.74858   -161.44534   -3287.9527 
34447000    134.90798    -4945.995   -4685.8136    -4945.995            0    10555.357    19.661831    19.452126     20.48539    7834.9327    13059.169    8530.1723     10076.73   -465.40345    708.63895    40.858248   -3479.7114 
34448000    138.93177   -4945.1488   -4677.2072   -4945.1488            0    11539.676    19.600882    19.446897    20.431302    7787.9284    9552.3323    12800.037    12266.657   -36.494215    -120.0624   -47.314891    -3366.543 
34449000    139.07302   -4935.2405   -4667.0264   -4935.2405            0    12174.175    19.662916    19.328352    20.513757    7796.2892    11494.363    13665.782    11362.379   -193.31693    -229.3348   -105.73553    -3282.812 
34450000    133.53956     -4947.31   -4689.7677     -4947.31            0    9454.0035    19.701666    19.373506    20.510081       7828.5    9035.1956    9312.3739    10014.441    51.243285   -759.29561   -203.10231    -3610.398 
34451000    131.15658   -4928.8002   -4675.8537   -4928.8002            0    12397.452    19.613721    19.358225    20.400561    7745.8241    12299.373    12560.559    12332.423    495.41071    305.31684    2.0566825   -3275.3768 
34452000    139.59675   -4960.5144   -4691.2903   -4960.5144            0      9630.19    19.769768    19.574638    20.361405    7879.5799    8938.5456    9727.4318    10224.593    514.80398    1638.3783    97.223473   -3584.6313 
34453000    138.87545    -4959.396    -4691.563    -4959.396            0    11171.152    19.696162    19.521595    20.261101    7790.4032    11368.992    10502.506    11641.958   -443.57237   -674.83081    722.36113   -3422.3521 
34454000    132.47132   -4961.7131    -4706.231   -4961.7131            0     9119.662    19.744296    19.573037    20.376055    7874.4454    8327.1852    10119.018    8912.7832    -449.2308    1083.1208    560.42888   -3658.9225 
34455000    132.87174   -4963.0533    -4706.799   -4963.0533            0     10644.97    19.715559    19.412594    20.469764     7834.396    11176.961    9857.8127    10900.137     572.6733     362.8438    953.66046   -3490.5405 
34456000    136.03072   -4949.3701   -4687.0234   -4949.3701            0     11981.64    19.525842     19.27484     20.52984     7726.559    12564.036    12970.501    10410.382    338.21603   -751.02839    459.29427    -3336.885 
34457000    136.11504   -4949.8198   -4687.3105   -4949.8198            0    9100.5189    19.739602    19.491623    20.325311     7820.303    8565.8016    8442.1598    10293.595    184.62629    620.21824    -571.9767   -3649.3864 
34458000    133.05935   -4931.6752    -4675.059   -4931.6752            0    10817.145    19.824653    19.441747    20.222843    7794.4071     9081.554    11832.483    11537.399    310.01706   -505.24619    516.00332    -3445.437 
34459000    135.17122   -4949.8915   -4689.2025   -4949.8915            0    10881.763    19.780969    19.544116    20.262334    7833.4497    10485.474     11215.79    10944.025   -258.57389    1073.1704    371.41595   -3446.0391 
34460000    137.00035   -4930.2854   -4666.0687   -4930.2854            0    10885.957      19.7404    19.480911    20.326703    7816.8565    11946.319    10155.083    10556.471    177.55386    1062.0638   -451.33606   -3425.0604 
34461000    138.80021   -4947.7125   -4680.0246   -4947.7125            0    8859.8157    19.661496    19.389927    20.455442    7798.3296    9058.1745    8702.2261    8819.0465   -231.29907    521.63485   -24.700572   -3672.3921 
34462000    131.88351   -4939.7869   -4685.4385   -4939.7869            0    10181.605     19.67624    19.459768    20.441996    7827.1391    9898.4017    9606.3955    11040.018    537.64695    850.85213   -265.39975   -3523.2002 
34463000    145.33984   -4938.5385   -4658.2384   -4938.5385            0    12297.711     19.56086    19.549303    20.248372    7743.0014    12778.362     12132.97      11981.8   -334.07906     510.2741   -664.84774    -3269.535 
34464000    139.64828   -4947.0353   -4677.7119   -4947.0353            0    11946.274    19.647992     19.46478    20.407549    7804.7411    11805.361    11574.592    12458.868    483.44697    33.393145   -702.75428   -3317.9375 
34465000    129.52379   -4955.8281   -4706.0306   -4955.8281            0    9846.4192    19.669444    19.534574    20.285665    7794.4464    9834.1527    9663.2325    10041.872    105.74888    831.67995    140.00185   -3586.7487 
34466000    133.94918   -4948.2554   -4689.9232   -4948.2554            0    10630.043    19.623991    19.523577    20.313793    7782.8333    11135.186    9241.5813    11513.362   -34.681407   -273.22301    686.26463   -3483.3639 
34467000    126.98465   -4939.6746    -4694.774   -4939.6746            0    12945.982    19.618358    19.456377    20.314691    7754.1615    13983.483    11950.289    12904.172   -218.78532   -1020.3587    585.00006   -3230.7583 
34468000    140.08651   -4938.2437   -4668.0751   -4938.2437            0    11927.899    19.699687    19.361724    20.395314    7779.1788    10363.455    13121.802    12298.439   -219.86214   -306.59348   -563.01889   -3314.8389 
34469000    138.68417   -4945.8415   -4678.3774   -4945.8415            0    11369.845     19.78337    19.388383    20.334493    7799.6517    11606.153    10965.228    11538.152   -675.97076    1020.8793    224.99942   -3385.0585 
34470000    138.38444   -4973.0231   -4706.1371   -4973.0231            0     8868.984    19.800924     19.52682    20.343837    7865.9258    8066.1823    9149.0716    9391.6982    257.29557    716.44069    293.65006   -3688.7187 
34471000     135.6113   -4951.0258    -4689.488   -4951.0258            0     11114.31    19.808221    19.545282    20.223534    7829.6886    10052.533    11297.143    11993.256   -77.272719    1232.6931   -55.684591   -3420.3674 
34472000    130.15254   -4950.1601     -4699.15   -4950.1601            0    9889.5997     19.79581    19.491988    20.296299    7831.5236    9940.6054    9372.4244    10355.769    -81.87611    1394.4298    646.88441   -3569.6119 
34473000    130.61302   -4950.7767   -4698.8785   -4950.7767            0    9270.4592     19.78303    19.419863    20.408504    7840.6149    9667.4323    9833.6316    8310.3138   -478.18326     -192.094   -29.109528   -3638.8263 
34474000     143.2411   -4958.5153   -4682.2628   -4958.5153            0    10451.885    19.523131     19.73782    20.262532    7808.0463    10674.994    9946.0539    10734.606   -460.24437    828.34007   -432.46255   -3492.0822 
34475000    134.93681   -4953.5125   -4693.2755   -4953.5125            0    10591.619    19.629156    19.510688    20.362431    7798.3701    10505.315    10321.573    10947.969   -250.08738   -905.00208    40.815405   -3488.6776 
34476000    135.59521   -4947.2007    -4685.694   -4947.2007            0    10783.225    19.665777       19.424    20.466316    7817.8885     11967.84    9404.3701    10977.466   -587.85333   -95.250438   -185.17561    -3456.235 
34477000     155.7595   -4957.5816   -4657.1863   -4957.5816            0    10658.315    19.660098    19.651672    20.316663    7849.4201    10048.093    11042.542    10884.311    -77.38296   -193.49016    576.08258   -3437.0678 
34478000    140.61002   -4939.2693   -4668.0911   -4939.2693            0    10726.317    19.540987    19.581797    20.384056    7799.9107    10539.273     10358.24    11281.438    36.812964    307.95323    123.87263   -3447.9329 
34479000    138.22589   -4939.7361   -4673.1558   -4939.7361            0    11606.351    19.640169    19.435147    20.365699    7773.7826    11461.428    11766.646    11590.979    22.633296    838.44401    162.18171   -3357.3131 
34480000    144.91053   -4947.0681    -4667.596   -4947.0681            0    10775.359     19.72882    19.453836    20.399921     7829.515    10956.025    10351.517    11018.535   -458.61681    630.07271    427.23837   -3437.2068 
34481000    143.97567   -4955.0085   -4677.3393   -4955.0085            0    10250.935    19.734387    19.560808    20.304079     7837.792    10334.606    9084.1221    11334.078   -288.75466     161.0453   -59.878914   -3505.5943 
34482000    133.98536   -4940.9566   -4682.5545   -4940.9566            0    9768.8613    19.703236    19.402514    20.443185    7815.2727    11745.899    8047.5526     9513.132    51.122827   -738.38957    -251.6628   -3569.1218 
34483000    136.21357    -4954.852   -4692.1527    -4954.852            0     10685.17    19.690254     19.54545    20.322953    7821.3875    10407.654    10496.599    11151.257   -89.114186    -236.5769    29.836651   -3473.3283 
34484000     139.1689   -4950.9197   -4682.5207   -4950.9197            0    9334.6956    19.643299    19.466874    20.566076    7864.3362    9426.0829    9725.4615    8852.5423    190.24852    218.38761    330.49059   -3611.8939 
34485000    127.75362   -4957.2221   -4710.8385   -4957.2221            0    8374.6692    19.711121    19.472371    20.551876    7888.2674    8053.8194    8749.6128    8320.5754    8.1875466    352.82233   -169.98044   -3747.3974 
34486000    135.36563   -4952.4473   -4691.3833   -4952.4473            0    10181.035    19.598905    19.373366    20.516764    7790.1485    8923.1116    11544.256    10075.739    50.833019   -1439.2494   -313.62192   -3534.7024 
34487000    139.97507   -4951.3316   -4681.3779   -4951.3316            0    10613.745    19.664783    19.486139    20.327241    7789.2094    10237.264    10495.196    11108.776   -126.30321    178.30067   -61.521278   -3475.6816 
34488000    139.22118   -4944.0945   -4675.5947   -4944.0945            0     10319.99     19.63908    19.454195    20.446181     7811.719    10748.766    9798.2072    10412.996    134.89534   -622.36864   -125.58919   -3499.8805 
34489000    137.44088    -4949.058   -4683.9917    -4949.058            0    9878.6493    19.689667    19.511862    20.349328    7817.8471    9868.3964    8581.5717     11185.98    -819.8392   -526.78011    1012.0269   -3557.6747 
34490000    139.90856   -4944.7677   -4674.9422   -4944.7677            0    11753.029    19.584477    19.481885    20.395027    7781.5701    11699.718    11339.825    12219.544    445.25315    -514.4408   -849.57887   -3341.1355 
34491000    130.42813   -4946.6038   -4695.0622   -4946.6038            0    9885.0943    19.679563    19.507737    20.380113    7824.0015     9750.005    10064.607    9840.6709    -354.0488    1086.9654   -116.67336   -3567.1232 
34492000    133.20143   -4946.1963   -4689.3061   -4946.1963            0    10278.119    19.744504    19.556312    20.306932    7841.1091    10334.922    9226.8829    11272.551   -815.62208    315.26888   -167.11021   -3513.9566 
34493000    136.67046   -4928.8095    -4665.229   -4928.8095            0    11283.158    19.586926    19.446819    20.348892    7750.9621    10772.191    11701.143     11376.14   -125.73646   -178.52422   -148.94651   -3389.7827 
34494000    137.03294    -4930.443   -4666.1635    -4930.443            0    11501.734    19.643145    19.409171    20.362821    7763.4715    11296.826    11791.161    11417.216    1.4949895    500.68326     199.2568    -3363.911 
34495000    143.39746   -4940.9761    -4664.422   -4940.9761            0    10872.108    19.668841    19.570625    20.315827    7820.2018    10180.645    10381.653    12054.027     60.46466    234.15622   -988.13017   -3424.4622 
34496000    142.22733   -4952.0792   -4677.7818   -4952.0792            0    10331.666    19.629925     19.47316    20.465846    7823.2062    11944.866    9480.6809    9569.4508   -371.03246    1153.2151   -427.60035   -3499.0065 
34497000    134.43516   -4948.7403   -4689.4708   -4948.7403            0    8799.7711    19.765482     19.33718     20.49288    7832.5565    8010.0874    9557.1282    8832.0978   -23.650853    112.37205   -274.47833   -3684.2747 
34498000    135.26083   -4935.4578    -4674.596   -4935.4578            0    11053.359    19.740577    19.531564    20.270431    7815.5557    10385.404    10454.008    12320.665    139.03825    581.92506    1043.4407   -3414.7135 
34499000    132.91242   -4954.4471   -4698.1143   -4954.4471            0    10345.242    19.712161    19.321428    20.536114    7821.5306    10791.734    11377.342      8866.65    997.41248   -381.82487   -26.350567   -3518.0429 
34500000    139.05627   -4934.7244   -4666.5427   -4934.7244            0    10829.845    19.746121    19.531194    20.378901    7859.4352    9932.0091    12086.777    10470.749    -189.9695   -11.426697    672.81855   -3425.2064 
Loop time of 352.964 on 64 procs for 250000 steps with 972 atoms

Performance: 122.392 ns/day, 0.196 hours/ns, 708.288 timesteps/s
99.1% CPU use with 64 MPI tasks x 1 OpenMP threads

MPI task timing breakdown:
Section |  min time  |  avg time  |  max time  |%varavg| %total
---------------------------------------------------------------
Pair    | 20.581     | 29.063     | 39.003     |  83.3 |  8.23
Bond    | 0.26208    | 0.27486    | 0.28681    |   0.9 |  0.08
Kspace  | 135.78     | 145.6      | 154.57     |  37.5 | 41.25
Neigh   | 1.01       | 1.0348     | 1.0544     |   1.1 |  0.29
Comm    | 84.501     | 85.255     | 86.386     |   5.4 | 24.15
Output  | 0.58681    | 0.58746    | 0.58868    |   0.0 |  0.17
Modify  | 84.761     | 85.922     | 86.652     |   5.3 | 24.34
Other   |            | 5.223      |            |       |  1.48

Nlocal:        15.1875 ave          19 max          10 min
Histogram: 1 4 6 3 10 11 8 8 9 4
Nghost:        2360.39 ave        2391 max        2334 min
Histogram: 2 7 9 8 10 8 9 7 3 1
Neighs:        4985.14 ave        6839 max        3211 min
Histogram: 3 7 6 7 10 8 7 10 4 2

Total # of neighbors = 319049
Ave neighs/atom = 328.23971
Ave special neighs/atom = 2.0000000
Neighbor list builds = 2907
Dangerous builds = 0

unfix		3
unfix		2
unfix		1

write_data	data.final.${pid}
write_data	data.final.1
System init for write_data ...
PPPM initialization ...
  extracting TIP4P info from pair style
  using 12-bit tables for long-range coulomb (../kspace.cpp:340)
  G vector (1/distance) = 0.37276112
  grid = 24 24 24
  stencil order = 5
  estimated absolute RMS force accuracy = 0.0034392682
  estimated relative force accuracy = 1.0357254e-05
  using double precision FFTW3
  3d grid and FFT values/proc = 2197 216
Last active /omp style is kspace_style pppm/tip4p/omp
WARNING: Not all mixed pair coeffs generated from mixing. Use write_data with 'pair ij' option to store all pair coeffs. (../write_data.cpp:312)

write_restart   restart.lmp.${pid}
write_restart   restart.lmp.1
System init for write_restart ...
PPPM initialization ...
  extracting TIP4P info from pair style
  using 12-bit tables for long-range coulomb (../kspace.cpp:340)
  G vector (1/distance) = 0.37276112
  grid = 24 24 24
  stencil order = 5
  estimated absolute RMS force accuracy = 0.0034392682
  estimated relative force accuracy = 1.0357254e-05
  using double precision FFTW3
  3d grid and FFT values/proc = 2197 216
Last active /omp style is kspace_style pppm/tip4p/omp
Total wall time: 0:05:53
