LAMMPS (30 Jul 2021)
Processor partition = 1
  using 2 OpenMP thread(s) per MPI task
using multi-threaded neighbor list subroutines
variable        pid world 0 1
variable        phase world IceV IceIII

shell cd ${phase}
shell cd IceIII
include Restart.lmp
echo both
log log.lammps
#include		in.partitions
include		in.temp
variable        temperature equal 241.47
variable	tempDamp equal 100.0
include		in.pressure
variable        pressure equal 7686.6
variable        pressureDamp equal 1000.0 # This is 1 ps
include		in.seed
variable        seed equal 745823

units		real
atom_style	full

read_restart	restart.lmp.${pid}
read_restart	restart.lmp.1
Reading restart file ...
  restart file = 30 Jul 2021, LAMMPS = 30 Jul 2021
  restoring atom style full from restart
  orthogonal box = (-0.063707856 0.18589080 0.075592017) to (20.063709 19.814110 20.624406)
  4 by 2 by 4 MPI processor grid
  restoring pair style lj/cut/tip4p/long/omp from restart
  restoring bond style harmonic/omp from restart
  restoring angle style harmonic/omp from restart
  972 atoms
  648 bonds
  324 angles
Finding 1-2 1-3 1-4 neighbors ...
  special bond factors lj:    0        0        0       
  special bond factors coul:  0        0        0       
     2 = max # of 1-2 neighbors
     1 = max # of 1-3 neighbors
     1 = max # of 1-4 neighbors
     2 = max # of special neighbors
  special bonds CPU = 0.002 seconds
  read_restart CPU = 0.007 seconds
include 	in.setup
variable	out_freq equal 1000
variable	out_freq2 equal 10000
variable	out_freq3 equal 1000

timestep	2.0

neigh_modify    delay 7 every 1

include		in.tip4p
# This is TIP4P/Ice

# create groups ###
group ox type 2
324 atoms in group ox
group hy type 1
648 atoms in group hy

# set charges - beside manually ###
set group ox charge -1.1794
Setting atom values ...
  324 settings made for charge
set group hy charge 0.5897
Setting atom values ...
  648 settings made for charge

# ### TIP3P Potential Parameters ###
pair_style lj/cut/tip4p/long/omp 2 1 1 1 0.1577 8.5
pair_coeff 1 1*2 0.000 0.000
pair_coeff 2 2 0.21084 3.1668
bond_style  harmonic
bond_coeff  1 450 0.9572
angle_style harmonic
angle_coeff 1 55 104.52
kspace_style pppm/tip4p/omp 1.0e-5
pair_modify tail yes

thermo          ${out_freq}
thermo          1000
thermo_style    custom step temp pe etotal epair emol press lx ly lz vol pxx pyy pzz pxy pxz pyz enthalpy

restart 	${out_freq3} restart.lmp.${pid} restart2.lmp.${pid}
restart 	1000 restart.lmp.${pid} restart2.lmp.${pid}
restart 	1000 restart.lmp.1 restart2.lmp.${pid}
restart 	1000 restart.lmp.1 restart2.lmp.1


include         in.dump
dump            myDump all atom ${out_freq2} dump.water.${pid}
dump            myDump all atom 10000 dump.water.${pid}
dump            myDump all atom 10000 dump.water.1
dump            myDump2 all dcd ${out_freq2} dump.dcd
dump            myDump2 all dcd 10000 dump.dcd
dump_modify     myDump append yes
dump_modify     myDump2 append yes


variable natoms 	equal  "count(all)"                        # NUMBER ATOMS
variable H      	equal  "enthalpy/v_natoms"                 # ENTHALPY-per-atom
variable Vol      	equal  "vol/v_natoms"                 # volume-per-atom
fix AVG all 		ave/time ${out_freq} 1 ${out_freq} v_Vol v_H file vol_enthalpy.dat
fix AVG all 		ave/time 1000 1 ${out_freq} v_Vol v_H file vol_enthalpy.dat
fix AVG all 		ave/time 1000 1 1000 v_Vol v_H file vol_enthalpy.dat


timer           timeout 02:55:00 every 1000
New timer settings: style=normal  mode=nosync  timeout=02:55:00

fix 		1 all shake 1e-6 200 0 b 1 a 1
Finding SHAKE clusters ...
       0 = # of size 2 clusters
       0 = # of size 3 clusters
       0 = # of size 4 clusters
     324 = # of frozen angles
  find clusters CPU = 0.000 seconds
fix             2 all nph aniso ${pressure} ${pressure} ${pressureDamp}
fix             2 all nph aniso 7686.6 ${pressure} ${pressureDamp}
fix             2 all nph aniso 7686.6 7686.6 ${pressureDamp}
fix             2 all nph aniso 7686.6 7686.6 1000
fix             3 all temp/csvr ${temperature} ${temperature} ${tempDamp} ${seed}
fix             3 all temp/csvr 241.47 ${temperature} ${tempDamp} ${seed}
fix             3 all temp/csvr 241.47 241.47 ${tempDamp} ${seed}
fix             3 all temp/csvr 241.47 241.47 100 ${seed}
fix             3 all temp/csvr 241.47 241.47 100 745823


run             250000
PPPM initialization ...
  extracting TIP4P info from pair style
  using 12-bit tables for long-range coulomb (../kspace.cpp:340)
  G vector (1/distance) = 0.37186231
  grid = 24 24 24
  stencil order = 5
  estimated absolute RMS force accuracy = 0.0035519318
  estimated relative force accuracy = 1.0696537e-05
  using double precision FFTW3
  3d grid and FFT values/proc = 3211 432
Last active /omp style is kspace_style pppm/tip4p/omp
Neighbor list info ...
  update every 1 steps, delay 7 steps, check yes
  max neighbors/atom: 2000, page size: 100000
  master list distance cutoff = 10.8154
  ghost atom cutoff = 10.8154
  binsize = 5.4077, bins = 4 4 4
  1 neighbor lists, perpetual/occasional/extra = 1 0 0
  (1) pair lj/cut/tip4p/long/omp, perpetual
      attributes: half, newton on, omp
      pair build: half/bin/newton/omp
      stencil: half/bin/3d
      bin: standard
Setting up Verlet run ...
  Unit style    : real
  Current step  : 4000000
  Time step     : 2
  Walltime left : 2:54:59.93
Per MPI rank memory allocation (min/avg/max) = 10.18 | 10.18 | 10.19 Mbytes
Step Temp PotEng TotEng E_pair E_mol Press Lx Ly Lz Volume Pxx Pyy Pzz Pxy Pxz Pyz Enthalpy 
 4000000     236.6017   -4680.8088   -4224.5025   -4680.8088            0    7816.1856    20.127417    19.628219    20.548814    8118.1244    7094.9933    8161.0143    8192.5493    16.573834   -1753.4821   -1915.7372    -3299.109 
 4001000    234.66194   -4733.2828   -4280.7175   -4733.2828            0     5334.981    19.623149    20.126748    20.823339    8224.1816    6176.4099    4885.9619    4942.5713     635.5981   -315.16716   -1086.4033   -3640.8332 
 4002000    241.55187   -4737.4167   -4271.5636   -4737.4167            0     7883.337    19.895391    19.902125    20.525659    8127.3513    6717.6622    9053.0799    7879.2689    591.38418    773.55197    60.297259   -3337.1589 
 4003000    237.74502   -4733.5303    -4275.019   -4733.5303            0    7515.5532    19.875195    19.742538    20.719331    8129.9916    6161.4717    10081.918    6303.2698    245.64462    1008.3525    658.26487    -3383.918 
 4004000    233.62158   -4762.5668   -4312.0079   -4762.5668            0      7265.21    19.964246     19.76176    20.649071    8146.6496    7623.5375      7269.55    6902.5426   -634.44934   -733.04007    77.622463   -3448.8245 
 4005000    228.84964    -4700.967   -4259.6112    -4700.967            0    8785.4605     19.58281    20.149583    20.505935    8091.3439    12495.861    5728.6612    8131.8589    581.56619    1273.8587    1252.1396   -3222.8921 
 4006000    252.24034   -4735.4313   -4248.9646   -4735.4313            0    6717.5777    20.097589    19.834665    20.420579    8140.2339    6734.1516    6142.7386    7275.8427   -145.46828   -414.76355   -602.65272   -3451.4742 
 4007000    235.84634   -4716.4615    -4261.612   -4716.4615            0    8212.3779    19.749537      19.5922    20.951266    8106.8174      9648.42    9197.2994    5791.4141    228.75961    1945.4152   -1107.2823   -3290.6657 
 4008000    238.35114   -4718.2861   -4258.6059   -4718.2861            0    9190.8647    19.640074     20.04026    20.555371    8090.4336    9812.2048    8481.3159    9279.0733   -475.84751   -486.00372    681.69023   -3174.1696 
 4009000    251.49555   -4731.9376   -4246.9073   -4731.9376            0    8584.9408    20.034988    19.827239    20.540179    8159.3497    8809.6365    8589.7601    8355.4258    36.426224    651.38707   -985.26579   -3225.3359 
 4010000     250.2764   -4724.6533   -4241.9742   -4724.6533            0     8306.287    19.601776    19.975055    20.578902     8057.598    8660.8571    8873.4082    7384.5957    128.88678    728.65808    1202.9024   -3265.8874 
 4011000    247.85268   -4743.2501   -4265.2454   -4743.2501            0    9356.5826    19.879834    19.764901    20.435244    8029.4763     10372.21    8473.0613    9224.4761   -587.36927    383.28671   -736.26668   -3169.5739 
 4012000    246.27864   -4699.5862   -4224.6171   -4699.5862            0    8906.5788    19.993688    19.781949    20.557729    8130.8718    8085.8785    8549.2101    10084.648   -317.94107    1295.0695   -120.96244   -3168.4712 
 4013000    258.95898   -4733.3188   -4233.8947   -4733.3188            0    8122.7667    19.737025    19.902067    20.634427    8105.3593    9623.9662    8562.4051    6181.9286   -345.76127   -313.90801   -1621.3868   -3273.7158 
 4014000    239.29414    -4741.395   -4279.8961    -4741.395            0    8186.5105     19.93096    19.878245     20.40983    8086.2219    7075.3325    7751.0612    9733.1379    119.54007      954.518   -562.42849   -3314.4671 
 4015000    246.88349   -4752.3409   -4276.2053   -4752.3409            0    7423.6458    19.903962    19.838247     20.65808    8157.0435    7806.5117    6987.4446    7476.9811    760.71785   -700.86052   -1295.0552   -3393.0727 
 4016000    237.97145   -4728.8041   -4269.8562   -4728.8041            0    7665.4371    19.855424    19.801873    20.602783    8100.4904    7731.8468    7622.1168    7642.3476   -804.61198    1058.8969    1383.6261   -3364.2818 
 4017000    245.05228   -4746.8849    -4274.281   -4746.8849            0    7410.8469    19.955155    19.823959    20.598288    8148.4801      7581.49    8351.0644    6299.9864    -148.1618     351.0401   -2059.0866   -3393.5965 
 4018000    242.01758    -4764.152   -4297.4008    -4764.152            0    7615.9322    19.768596    19.716115    20.838249    8121.9139    6935.3531    8633.5714     7278.872   -922.72394    676.60138    1001.2471   -3395.2953 
 4019000    239.32535   -4733.3285   -4271.7695   -4733.3285            0    8049.3938    19.939244    19.742046    20.485449    8063.9225    8699.7179     7764.419    7684.0447    43.874039   -802.78412    475.43302   -3325.1283 
 4020000    242.15742   -4743.6711   -4276.6501   -4743.6711            0    6446.4677    20.038897    19.917721    20.489552     8177.978    5977.1541    7043.4741    6318.7747   -66.862045   -18.927854    429.56438   -3507.7966 
 4021000    231.40526   -4749.1344   -4302.8499   -4749.1344            0    5874.8694    19.985457    19.865391    20.613067    8183.7777    7505.6841    4957.0705    5161.8536   -329.09181    225.38446    485.72552   -3601.6725 
 4022000    243.64996   -4731.7097   -4261.8102   -4731.7097            0    6684.4893    20.123876     19.92594    20.385319     8174.251    4947.2851    8169.4324    6936.7505    606.03013    770.45407    90.217649   -3464.9318 
 4023000    247.60807   -4762.0578   -4284.5248   -4762.0578            0     8958.326     19.59505    19.897962    20.637389    8046.5502    8305.0811    10037.188    8532.7085   -480.65107   -597.09846   -1264.0847   -3233.2592 
 4024000    253.43479   -4715.1808   -4226.4105   -4715.1808            0    7206.8528    20.099425    19.508752      20.8738    8184.9235    6349.2758    8752.5898    6518.6929     473.4391    448.63429   -785.34366   -3366.1377 
 4025000    249.18568   -4737.1444   -4256.5689   -4737.1444            0    6288.6649    19.843942    20.138023     20.53077    8204.4605    7627.3586    5781.5898    5457.0462    140.99706   -198.08993    185.06851   -3504.1072 
 4026000    252.97297   -4713.8826   -4226.0029   -4713.8826            0    8472.0714    19.798853    19.847312    20.490101    8051.6674    6435.8615    9858.4465    9121.9063    90.102362   -11.361228   -297.17659   -3231.1673 
 4027000    257.10328   -4732.2146   -4236.3693   -4732.2146            0    7672.8684    19.907163    19.823855    20.699123    8168.6335    7452.6393    8007.2643    7558.7015    212.90866    290.58854    1243.7505   -3322.2917 
 4028000    246.25118   -4757.4938   -4282.5777   -4757.4938            0    7765.6259    19.770411     20.00105    20.510222    8110.3359    8430.1705    6711.8482    8154.8589    358.74924   -573.61568    49.650063   -3364.0522 
 4029000     255.5703    -4756.926   -4264.0371    -4756.926            0    6815.4875    20.085203    19.714915    20.575673    8147.5155    4910.0108    9750.1137    5786.3379     53.97355   -1061.1414    658.92564   -3454.1994 
 4030000    248.99498   -4730.4698    -4250.262   -4730.4698            0    7331.3896    19.919595    20.025548    20.458076    8160.7428    8181.4558    7248.8422    6563.8707   -125.37986    356.37901   -244.33879   -3377.7089 
 4031000    231.87444   -4684.0304    -4236.841   -4684.0304            0    8081.0131     19.99679    19.638611    20.610942    8094.1063    8641.8858    7714.6652    7886.4883   -707.94488    -573.4566    303.25444    -3282.924 
 4032000    245.64849   -4721.0908    -4247.337   -4721.0908            0    5804.4424    19.670431    19.937315    20.660808    8102.6647    5597.0395    6015.7387     5800.549    -185.6956    1266.0264    191.19581   -3561.4315 
 4033000     236.7984   -4715.1153   -4258.4297   -4715.1153            0    9670.1448    19.575184     19.97349    20.762955    8117.9989    10270.903    9247.0415    9492.4898    4.6036621     2057.443   -34.930095   -3113.5552 
 4034000    236.35847   -4742.6432    -4286.806   -4742.6432            0     8571.896    19.953207    19.753967    20.517438    8087.0506    10038.226    7555.1593    8122.3026    606.58633      1112.08    1792.0802   -3275.8251 
 4035000    227.78073   -4752.0146   -4312.7203   -4752.0146            0    6951.2786     19.69634    20.039132    20.554602    8112.8512    7075.0661    6126.0204    7652.7492    800.66106   -192.09592     1015.748   -3490.2616 
 4036000    245.81817   -4773.5624   -4299.4814   -4773.5624            0    6234.4236    20.037162    19.614447    20.701195    8135.9392    6350.1124     7162.398    5190.7604   -141.83262    111.26209    1302.9036     -3559.74 
 4037000     238.3431   -4742.5832   -4282.9185   -4742.5832            0    5706.1495    19.766987    19.924851    20.770707    8180.6318    5962.5573    5330.2471    5825.6442   -396.89951   -1500.2562    220.33865   -3602.1399 
 4038000    248.08745   -4723.9709   -4245.5134   -4723.9709            0    8707.6132     19.86358    19.934721    20.325409    8048.3525    6114.9896    10253.116    9754.7342    277.54586   -423.81661   -440.68005   -3223.4402 
 4039000    236.84536   -4743.6195   -4286.8433   -4743.6195            0     6490.544    19.860249    19.755516    20.667805    8109.0022    7271.6937    6237.1098    5962.8286   -104.09105    -710.4972    2339.6454    -3519.262 
 4040000    241.73006   -4735.6186   -4269.4218   -4735.6186            0    7808.6643    19.866671    19.798287    20.647519    8121.2069    8606.4322    7122.1726    7697.3882    268.57676   -1370.7826   -42.601724   -3344.5677 
 4041000    235.27741   -4725.4691   -4271.7169   -4725.4691            0    6536.8539    19.978131    20.030973    20.505617    8205.9664    4916.0382    7809.2006     6885.323    242.68728    -689.6847     -732.122    -3489.415 
 4042000    242.14033   -4739.1885   -4272.2005   -4739.1885            0    8549.6517    19.765908    20.024739    20.448404    8093.6246    9633.5658    7449.8288    8565.5606    341.87974     177.3114    12.594504   -3263.0234 
 4043000    238.80497   -4709.9045    -4249.349   -4709.9045            0    7073.7718    19.952209    19.768362    20.585618    8119.4307    5384.3006    8294.6783    7542.3364    616.94891    674.67091    580.73373   -3411.7185 
 4044000    246.41836   -4777.2548   -4302.0163   -4777.2548            0    7156.5234    19.692613    19.747139    20.887141    8122.4404    7025.2777    7869.8224      6574.47     665.4159    305.34955    618.84893   -3454.2727 
 4045000    236.95271   -4766.2049   -4309.2217   -4766.2049            0    6863.4996    19.823636    20.066445    20.473207    8144.0353    6477.0193    6277.7822    7835.6972    44.689757    598.77723   -2.0970146   -3494.0273 
 4046000    234.34478   -4739.0894   -4287.1358   -4739.0894            0    6630.3223    20.040328    19.564457    20.706611    8118.6094    6899.1578    7810.7839    5181.0253    454.73822    -636.5882    42.136819   -3502.0951 
 4047000    246.84087   -4747.5696   -4271.5163   -4747.5696            0    6762.7607    19.913891    19.841177    20.557537    8122.5919    6554.0009    7219.8044    6514.4768    73.812642    339.79715    552.07146   -3470.4019 
 4048000    230.25464   -4740.8652   -4296.7997   -4740.8652            0    7782.6845    20.036418    19.808352    20.354106     8078.309    6260.4662    9504.2622     7583.325    29.682287    975.85119   -612.81322   -3379.8917 
 4049000    247.91628    -4740.778   -4262.6506    -4740.778            0    6829.2023    19.668061    20.077746    20.651251    8154.9797    8502.1656    6342.0276    5643.4137   -599.01024       502.12    33.250441   -3450.4398 
 4050000    241.46277   -4761.8977   -4296.2164   -4761.8977            0    8448.0533     20.06449    19.834808    20.435969     8133.011    7049.9811    9836.9173    8457.2614    287.11053    481.65416   -243.75532   -3294.1791 
 4051000    257.23915   -4708.9416   -4212.8343   -4708.9416            0    6444.2853    19.999601    19.967927    20.528765    8198.1741    5311.7677    7989.9078    6031.1805   -525.13264   -1180.4238   -1247.8912   -3442.3429 
 4052000    242.81752   -4764.6598   -4296.3658   -4764.6598            0    7626.2839    19.620344    19.913919     20.80128    8127.4329    7922.7297    7389.3484    7566.7735    59.412511   -318.43267   -50.131623   -3392.4203 
 4053000    239.73392   -4755.0761   -4292.7291   -4755.0761            0    8487.6489    19.738455    19.742132    20.585296    8021.6611     8494.927    7819.9835    9148.0362   -128.51834    806.36297   -779.63641   -3299.7786 
 4054000    252.99837   -4738.4852   -4250.5566   -4738.4852            0    7481.9503    19.970795    19.882054    20.632069    8192.1781    7550.9384    7185.2624      7709.65   -775.05119    491.36356   -490.93102   -3356.6542 
 4055000    248.92827   -4746.7965   -4266.7174   -4746.7965            0    7417.7945    20.030724    19.903088    20.370232    8121.0666    5689.9503    8308.3965    8255.0367   -38.985386    261.97362    393.86175   -3388.1729 
 4056000    250.51815   -4715.0801   -4231.9348   -4715.0801            0    7526.1405    19.845011    19.738652    20.828219    8158.7002    8474.0423    7317.5612    6786.8181    166.46341   -799.59533    793.90928   -3336.4274 
 4057000    232.98217   -4747.5828   -4298.2571   -4747.5828            0    7888.4732     19.84639    19.929703    20.466181    8095.0431    9763.6039    6754.1376     7147.678   -737.11766   -716.42238    1724.6484   -3366.9605 
 4058000    243.81564   -4752.0255   -4281.8065   -4752.0255            0    7376.6826    19.914476    19.904679    20.618427    8172.9638    5924.1639    7682.2894    8523.5945   -138.90442   -482.08126   -478.83043   -3402.5481 
 4059000    247.02116   -4751.8467   -4275.4456   -4751.8467            0    6562.3847    19.660154      19.8958    20.882987    8168.4739    5888.6499    6960.7664    6837.7378   -905.44941    935.45111    771.11437   -3493.6765 
 4060000    237.88302   -4727.3113   -4268.5339   -4727.3113            0      7533.85    20.065785    19.779887    20.448044    8115.8074    7349.3761      8868.01    6384.1639    419.49724      276.529    437.48046    -3376.822 
 4061000    240.09566   -4725.1337    -4262.089   -4725.1337            0    6661.6152    19.900076    19.866881    20.476628    8095.4851    6062.9048    6533.4519    7388.4889    195.27661   -177.18864    894.16405   -3475.5898 
 4062000     258.3898    -4733.875   -4235.5485    -4733.875            0    5411.2896    20.299446     19.96021    20.297167    8224.0309    1659.6656    7079.4873    7494.7159    294.14209    1289.3278    202.53751   -3586.5235 
 4063000    244.24788   -4719.1047   -4248.0522   -4719.1047            0    7582.9878    19.656655     19.90371    20.750102    8118.2773    9463.3395    6071.8432    7213.7807    111.48704   -9.0536316    662.47542   -3350.2511 
 4064000    244.20753   -4738.4425   -4267.4677   -4738.4425            0    7449.8243    19.777577    19.877716    20.661837    8122.8513    8158.4896    6507.4042     7683.579    691.18125   -735.68323    155.33945   -3384.9358 
 4065000    243.41292   -4751.7778   -4282.3355   -4751.7778            0    8537.7895    19.939632    19.923165    20.381755     8096.868    8302.9345    8669.0738    8641.3601   -375.80126    811.49184    1070.5025   -3274.1548 
 4066000    250.58767   -4713.5637   -4230.2843   -4713.5637            0    8435.5067    19.840716    19.785461    20.664572    8112.0369    9072.7419    6982.7208    9251.0575    682.47179    1953.0426   -80.753088   -3232.3155 
 4067000     229.5943   -4726.7998   -4284.0078   -4726.7998            0    7854.9676    20.130452    19.789474    20.432238    8139.6123    4824.5818    10941.902    7798.4186    85.142789    813.70429    732.06301   -3351.5612 
 4068000    237.93007   -4734.0014   -4275.1333   -4734.0014            0    5671.4845    19.902333    19.970267    20.527461    8158.7403    3348.9774    8451.1141     5214.362   -198.46929    1052.6026   -616.58982   -3600.3012 
 4069000    234.68907   -4755.1378   -4302.5202   -4755.1378            0    7965.6019    19.607675    19.955817    20.608339     8063.779    9166.7154    6847.4948    7882.5956   -699.67511     781.1075    569.13257   -3365.7499 
 4070000    250.10901   -4750.3106   -4267.9543   -4750.3106            0    6998.1456    19.959089    19.857586    20.476529    8115.6537     6934.494    6172.7166    7887.2264   -364.32242    962.16179   -68.378302   -3439.6644 
 4071000    250.75284   -4742.5829   -4258.9849   -4742.5829            0    8950.8396    19.835685     19.68227    20.712978    8086.5806    8866.0951    9426.6699    8559.7538    59.915462    401.66555    488.45628   -3203.3723 
 4072000    252.66599   -4707.8008   -4220.5132   -4707.8008            0    7012.2681    19.933304    19.942612    20.636865    8203.6107    6395.1023    7812.7856    6828.9165   -399.68552    775.28036    287.59442   -3381.5567 
 4073000    222.50126   -4742.7558   -4313.6434   -4742.7558            0    6400.8405    19.904619    19.863455    20.680001    8176.3449    6120.4656    7911.6421    5170.4136    170.58566    2984.1869    596.50258   -3550.3841 
 4074000    240.09987   -4758.5391   -4295.4863   -4758.5391            0    8487.9141    20.046546    19.799847    20.423039    8106.2832    8747.4612    8836.5709    7879.7103   -1665.3915    698.16439     709.6566   -3292.0296 
 4075000    237.27043   -4734.2761   -4276.6801   -4734.2761            0    7969.9013    19.899109    19.758398    20.595937    8097.7975     9285.602    7248.1522    7375.9497    483.89912    -272.1227   -326.74553   -3335.4501 
 4076000    243.18468   -4750.4613   -4281.4592   -4750.4613            0    8356.7842    19.792977     20.02681    20.509345    8129.7033    8751.2934    8033.1459    8285.9132   -47.178767   -277.80185    54.186811   -3290.6506 
 4077000    230.39459   -4749.7581   -4305.4228   -4749.7581            0    8177.7381    19.958199    19.810355    20.400056     8065.754    6941.9055     8978.398    8612.9108   -260.16827   -83.341437    196.57984   -3343.4693 
 4078000    245.58726   -4705.1975   -4231.5618   -4705.1975            0    7737.3854    19.856474     20.11944    20.330451     8122.038    10217.685    5501.3166     7493.155    612.13799    1559.8629   -208.51358   -3315.0562 
 4079000    239.85826   -4749.3266   -4286.7398   -4749.3266            0    7319.7338    19.901336    19.783326    20.561964    8095.5459    6605.9643    8991.0632    6362.1741    69.563217   -564.10592    491.99683   -3422.5337 
 4080000     245.3859    -4717.531   -4244.2836    -4717.531            0    8193.1361     20.03705    19.772711    20.418247    8089.4397    8236.1308     8271.344    8071.9336   -93.230666   -933.27124    104.09323   -3277.6887 
 4081000    242.83864   -4722.8323   -4254.4975   -4722.8323            0     8336.111    19.748993    19.875997    20.693094    8122.6793    9531.1452    7321.9135    8155.2743    45.360997   -1782.8814    382.92739   -3266.9939 
 4082000     242.7502   -4764.5769   -4296.4127   -4764.5769            0    5834.2733    19.964785    19.726766    20.643353    8130.1913    5451.1816    6596.8476    5454.7906   -845.31834    350.68875    147.06936     -3604.64 
 4083000    239.79278   -4714.4928   -4252.0322   -4714.4928            0    8664.5538    19.769176    19.754844    20.783769    8116.8303    8532.8939    9840.1636     7620.604   -103.01227    2695.7582     713.5843   -3226.3601 
 4084000    246.24527   -4699.0204   -4224.1157   -4699.0204            0     7121.952    19.780654     19.78998    20.703257    8104.4707    5816.7564    8092.2875    7456.8122    425.55716   -245.66399    1477.0758   -3382.3337 
 4085000    242.13492   -4736.9742   -4269.9966   -4736.9742            0        11001     19.70701    19.749801    20.513298     7983.971    11388.654    10836.566     10777.78   -633.99608   -1777.8531   -530.98966   -2989.0619 
 4086000    242.50647   -4740.0881    -4272.394   -4740.0881            0    8341.1258    20.055424    19.615027    20.447988    8043.9869    8146.1734    7881.5084    8995.6954   -418.91777    2391.8196   -412.97183   -3293.8691 
 4087000    234.81977   -4742.3916   -4289.5219   -4742.3916            0    8723.7022    19.852078     19.79622    20.607633    8098.7191    9108.4242    9221.9994    7840.6831    193.71809    802.06946   -468.31328   -3259.1523 
 4088000    240.01534   -4730.9913   -4268.1015   -4730.9913            0     9347.617    19.820744    19.875243    20.563392    8100.7859    10683.602    8948.2468    8411.0025   -452.21775    106.96238   -769.36848   -3163.7586 
 4089000    235.36983    -4776.939   -4323.0085    -4776.939            0    7238.6508    20.021028    19.907609    20.460643     8155.015    7909.9111    7495.6774     6310.364      549.305    -23.37346   -8.1971304   -3462.0975 
 4090000    245.26864   -4755.4681   -4282.4469   -4755.4681            0    8566.6324    19.793683    19.963814    20.486857    8095.5335    10418.131    7581.8923    7699.8741    462.12844   -237.89479    687.84499    -3271.027 
 4091000    235.92117   -4735.7692   -4280.7754   -4735.7692            0    9353.8063    20.003041     19.58929    20.661414    8096.0792    9330.4501    9293.6082    9437.3606   -96.723282   -183.11471    499.22553   -3176.3433 
 4092000    245.17561   -4740.5891   -4267.7473   -4740.5891            0    9224.8978    19.801197    19.923889    20.343966    8026.0379    8984.9767    9382.4055    9307.3111   -36.970198   -1614.3374   -547.28098   -3187.9589 
 4093000    253.53403   -4733.2505   -4244.2888   -4733.2505            0    8987.4815    19.908953    19.498852    20.871513    8102.3574    9240.0063    10379.925    7342.5137    191.16663   -108.10395    760.71481   -3182.2868 
 4094000    228.10909   -4718.5673   -4278.6397   -4718.5673            0    7519.6478    20.023174    19.723545    20.615533    8141.6508    7215.5657    7454.2953    7889.0823   -624.59382   -697.48048    703.37755   -3385.7746 
 4095000    233.87668   -4757.7344   -4306.6836   -4757.7344            0    7498.9124    19.676101    19.793345    20.722487    8070.4937    6623.3097    9310.8972    6562.5304   -477.14053    1149.6033    296.11767   -3424.0625 
 4096000    239.32365   -4725.2116   -4263.6558   -4725.2116            0    8530.8117    20.091146    19.801491    20.335086     8090.002    8558.5101    7345.3487    9688.5762    174.08559    568.14334   -517.45192   -3257.1532 
 4097000    243.06146   -4740.1684   -4271.4039   -4740.1684            0    8135.8896    19.835725    19.877084    20.546547    8101.0178     8680.685    9128.8181    6598.1658   -346.66297    1081.8027    130.00962    -3310.189 
 4098000      241.747   -4741.6838   -4275.4544   -4741.6838            0     7828.124    19.850491    19.972781    20.471396    8116.2842     6890.367    8621.4859    7972.5191   -770.20468    -189.4139   -270.95612   -3348.8575 
 4099000     240.7566   -4748.1376   -4283.8182   -4748.1376            0    5062.6222    20.006189    19.582312    20.774742    8138.8672    4744.7976    6405.1377    4037.9312   -406.48707   -241.69757   -161.73002      -3682.9 
 4100000    242.03782   -4749.7864   -4282.9961   -4749.7864            0    6428.6694    19.789237    20.056746    20.703648    8217.4372    7506.3279    6449.5689    5330.1113   -123.46217    1926.5668   -733.04984   -3512.5657 
 4101000    220.31955    -4739.284   -4314.3792    -4739.284            0    7638.4187    19.974219    19.813395    20.484203    8106.7687    9096.7214    6525.9597    7292.5752    802.56716    276.72705   -76.108676   -3411.2973 
 4102000    238.35283   -4724.3698   -4264.6864   -4724.3698            0     7823.787    19.787087    19.574437    20.887702    8090.2477    6108.8845    10743.411    6619.0657   -250.99116    153.16018    590.14408   -3341.5737 
 4103000    241.11279   -4723.5084   -4258.5021   -4723.5084            0    7474.0703    19.858551    19.760624    20.730723    8135.0951    10818.766    4515.6989    7087.7458   -262.44943    -55.53765   -897.71062   -3371.7633 
 4104000    229.62214   -4687.5129   -4244.6673   -4687.5129            0     9930.474    20.098092     19.67386    20.414647    8072.0952    8905.8105    10194.811    10690.801   -352.80126   -905.71826     1164.944   -3075.6199 
 4105000    246.44053   -4701.0062   -4225.7249   -4701.0062            0    7536.2501      19.7356    19.941593    20.676788    8137.5424    7836.3219    8322.0264    6450.4019    140.71088   -846.79985    324.20896     -3331.34 
 4106000    240.55871   -4757.6836   -4293.7459   -4757.6836            0    7113.5981    20.158003    20.013038    20.159791    8132.9208    5311.6433    8160.3376    7868.8134    266.79445    495.42821    793.99018   -3449.9999 
 4107000    243.39737   -4733.2585   -4263.8462   -4733.2585            0     8461.903    19.871161    19.932601     20.42311    8089.2654    9534.7171    6908.7646    8942.2274   -499.98496    378.12119    -677.1272   -3265.5648 
 4108000    250.53507   -4729.7861   -4246.6082   -4729.7861            0    8410.6038    19.743233    19.812011    20.737277     8111.451    10631.759     6956.802    7643.2502    70.903023     230.4814    -210.9997   -3251.6574 
 4109000     240.7656   -4735.0704   -4270.7336   -4735.0704            0    7212.2367    19.908101    19.853669    20.531748      8115.15    7654.1838    6558.8357    7423.6905    -162.6879    374.09307   -1599.2181   -3417.1572 
 4110000    246.52351   -4723.8521   -4248.4108   -4723.8521            0    6224.5494     19.76748    19.784742    20.912607    8178.8055    5611.6466    6944.9903    6117.0112   -315.84594   -255.61299    302.55418   -3505.9497 
 4111000     247.9737   -4710.3535   -4232.1154   -4710.3535            0    8430.0553    19.685734    20.030902    20.499111    8083.2712    10175.847    6200.0063    8914.3131   -630.46735   -1280.4529   -537.01102   -3238.3281 
 4112000    231.66791   -4691.0814   -4244.2904   -4691.0814            0    7806.0602    19.821246    19.826389     20.53149    8068.5416    6074.7955    9279.9382     8063.447    495.53342   -1058.0292    -872.4731   -3325.7403 
 4113000    227.69318   -4735.6579   -4296.5325   -4735.6579            0    8541.9788    19.899536    19.827974    20.606997    8130.8511     9559.068    9518.6967    6548.1717    861.17202    1381.8474   -738.95056   -3283.6236 
 4114000    238.53188   -4722.3575   -4262.3287   -4722.3575            0    7485.8873    20.044947    19.695382    20.646379    8151.0437    8169.2192    7463.6135    6824.8291   -248.15949    500.62876   -840.43717   -3372.4468 
 4115000    236.82049   -4717.7886   -4261.0603   -4717.7886            0    7364.9645     19.80287    19.771748    20.646764    8083.9794    6662.9549    8844.0047    6587.9337   -604.81182    787.50127   -700.75905   -3392.7565 
 4116000     229.1385   -4734.2784   -4292.3655   -4734.2784            0    8668.0225    20.057385     19.57033    20.535684    8060.8647    8798.3494    9850.2552    7355.4629   -1.0560776   -1040.6523    76.734146   -3273.3576 
 4117000    232.94871   -4751.2892    -4302.028   -4751.2892            0    9005.7648    19.937025    19.630729    20.650812    8082.2802    8580.2389     9729.834    8707.2215    519.55269   -1132.4189   -992.71843   -3240.5026 
 4118000    229.56277    -4728.813   -4286.0819    -4728.813            0    8446.4922    19.724326    19.914497    20.603424    8093.0259    7749.8502    7639.2093    9950.4171   -633.53835   -391.79492    1240.1418   -3289.1553 
 4119000    236.74234   -4752.7781   -4296.2006   -4752.7781            0    7447.3325    20.076548     19.88775    20.328532    8116.7224    7073.2241    7567.8327    7700.9406   -175.96687    792.77024   -184.08215   -3414.6296 
 4120000    235.88017   -4729.7639   -4274.8492   -4729.7639            0    7258.1972    19.860991    20.006236    20.565114    8171.4179    7664.4637    7034.6673    7075.4607    106.16906    284.52416    1519.1517   -3409.8771 
 4121000    232.80788   -4752.1662   -4303.1766   -4752.1662            0     8795.656     19.84532    19.740872    20.716849     8116.114    8159.2467    8833.2704    9394.4508   -298.92352    61.894268    219.92742    -3262.077 
 4122000    246.96759   -4715.2875   -4238.9897   -4715.2875            0    8555.1773    20.057099    19.650495    20.490139     8075.818    7100.9116    9209.9023    9354.7179    67.155782   -1246.7363     810.2049   -3231.3821 
 4123000    245.78717   -4747.7325   -4273.7113   -4747.7325            0    6936.3262    19.669558    20.036187    20.684681    8151.8939    9113.8069    6500.2998    5194.8719   -477.82143   -340.41557   -577.00892   -3449.0722 
 4124000    236.70298   -4726.2255   -4269.7239   -4726.2255            0    7428.4089     20.09327    19.689715    20.575225    8140.1918    5512.5112    9222.3814     7550.334    45.747906    222.50208    444.03631   -3387.8504 
 4125000    250.19061   -4727.3617    -4244.848   -4727.3617            0    6848.6988    19.599194    19.899493    20.860328    8135.8201    5113.8012    9124.3694    6307.9259    106.91146    338.19966      937.095   -3432.2322 
 4126000    236.81069   -4762.2211   -4305.5118   -4762.2211            0     7522.732    19.829395     19.77822    20.713557    8123.6528    8459.7818    7613.2931     6495.121    -796.1481   -1493.2706    -356.4262    -3414.255 
 4127000    238.37698   -4745.7144   -4285.9844   -4745.7144            0    7312.9824    19.794724    20.018266    20.570449    8151.1643    6519.3528    7535.2087    7884.3856   -650.97102   -1626.2857    61.157508   -3416.6436 
 4128000    234.89308   -4726.7142   -4273.7031   -4726.7142            0    8610.8632    19.718413    19.867078     20.50566     8033.036    10299.039    8125.1637    7408.3869    596.72125    960.55402    -994.8413   -3264.9095 
 4129000    255.10434   -4719.4464   -4227.4563   -4719.4464            0    8477.6589    20.008915    19.841393    20.462772    8123.8176    8833.5551    8381.7063    8217.7153   -375.71688    511.25105    447.74635    -3223.044 
 4130000    223.79532   -4744.6003   -4312.9922   -4744.6003            0    6600.4622    19.877128    19.867817     20.55062    8115.7508    6593.1956    6109.6006    7098.5905   -367.47212   -958.38691    544.36362   -3531.7622 
 4131000    230.88891   -4752.0598   -4306.7711   -4752.0598            0    8121.5277      19.8295    19.714657    20.619982    8061.0064    6391.3347    10487.222    7486.0269    -121.1488    373.95051    528.08646    -3351.992 
 4132000    250.16085   -4726.1893   -4243.7331   -4726.1893            0     7754.667    20.129614    19.795352      20.4822    8161.5995    6520.3419    9052.0596    7691.5994   -464.25107    408.72819    172.55269   -3320.7063 
 4133000    242.93313   -4704.6067   -4236.0897   -4704.6067            0     7540.202    19.889688    20.120062    20.322195    8132.5717    7587.3047    6916.1003    8117.2009    397.01555   -986.91498   -1212.1788   -3341.7824 
 4134000    234.43048   -4748.6934   -4296.5745   -4748.6934            0    8312.4813    19.871191    19.793564    20.638183    8117.4447    8133.3773    9515.8498    7288.2169    66.380672    449.80849   -509.63992   -3312.5046 
 4135000    250.00996   -4761.5225   -4279.3572   -4761.5225            0    6613.4139    19.972527    19.960848    20.474506    8162.5423    5814.5201    6213.0146     7812.707   -755.95022    476.30918    1140.0684   -3492.0812 
 4136000    258.51548   -4764.7919    -4266.223   -4764.7919            0    8169.0329    19.938435     19.80032    20.543007      8110.12    7161.7501    8809.9934    8535.3552   -82.253521    1261.3202    691.01227   -3300.0079 
 4137000    239.41453   -4760.6231   -4298.8921   -4760.6231            0    6843.4403    20.142009    20.058761    20.253764    8183.0013    6330.8926    5926.1479    8273.2803   -71.881452   -851.38892   -234.67036   -3482.1913 
 4138000     242.7031   -4754.3467   -4286.2733   -4754.3467            0    5746.7342    19.862577    19.813629    20.686491    8141.1629    7069.4371    5300.1822    4870.5832     41.11584    324.86004     374.6177   -3603.9606 
 4139000     226.9455    -4754.104   -4316.4205    -4754.104            0    7574.5685    19.914365    20.072121    20.280619    8106.6408    8771.4125    5833.0018     8119.291    13.136407   -492.71953    -243.1918   -3420.9017 
 4140000    236.36881   -4723.3484   -4267.4913   -4723.3484            0    6636.2207    19.988157    19.782797    20.565387     8131.999    6786.4432    7118.0098    6004.2092   -203.67361     14.78186    990.49404   -3480.4563 
 4141000    235.62855   -4741.0383   -4286.6088   -4741.0383            0    7873.1186    20.047193    19.778469    20.595786    8166.2865    6863.1462    9642.8414    7113.3682    -668.0805   -1095.4815    65.257323   -3348.9447 
 4142000    247.16749   -4749.5778   -4272.8945   -4749.5778            0    6846.2096    19.712474    20.108593    20.440401    8102.3726     7208.791    6775.7735    6554.0642   -352.50182   -1650.8035   -420.36575   -3463.9136 
 4143000     234.7049    -4737.293   -4284.6448    -4737.293            0    6855.4537    19.930423     19.65036    20.769689    8134.2406    6026.0426    8132.1389    6408.1798    301.55686    295.85484   -1256.1849   -3471.3854 
 4144000      247.051   -4751.4947    -4275.036   -4751.4947            0     6613.057    19.904579    19.937459    20.552539    8156.2082    6966.6522    6765.9763    6106.5425    17.872415    325.00906   -5.1345508   -3488.4134 
 4145000     247.3414   -4760.1901   -4283.1714   -4760.1901            0     7492.845    19.821257    19.874618    20.618396     8122.409     7885.359    7101.3353    7491.8407   -123.31854   -65.207649    553.57327   -3395.5915 
 4146000    233.53713   -4741.5032   -4291.1072   -4741.5032            0    6488.7487    19.703951    19.769757    20.688559    8059.0692    5733.7517    7262.0201    6470.4744   -178.77414    1715.3211   -356.00143   -3528.4634 
 4147000    235.88976   -4756.1752    -4301.242   -4756.1752            0    6746.0653    19.758057    20.080578    20.479899    8125.4657    8894.6256    4169.7021    7173.8683   -227.04918    1505.0885     251.5984   -3501.8225 
 4148000    235.86086   -4744.7372   -4289.8597   -4744.7372            0    7268.4438    19.874149    19.861422    20.603118    8132.6454    6109.8216    8131.3244    7564.1854   -179.52553   -557.93043   -774.07016   -3427.7765 
 4149000    238.80763   -4720.2754   -4259.7148   -4720.2754            0    6532.6578    19.930072     19.71595    20.862153     8197.581    7150.4247     6424.578    6022.9707   -631.83195    1420.2945   -572.21992   -3478.7139 
 4150000    244.38643   -4739.8925   -4268.5727   -4739.8925            0     9719.992    19.928646     19.79391    20.384228    8040.8813    8075.4397    11465.826      9618.71   -581.66827    619.77644   -409.85004   -3128.7286 
 4151000    256.86184   -4723.1339   -4227.7542   -4723.1339            0    6836.4126    20.025922    19.844462    20.417953    8114.1691    6815.9479    5783.8481    7909.4418   -236.38444     356.7783     21.27997   -3418.7548 
 4152000    240.87067   -4725.5914    -4261.052   -4725.5914            0    7811.8185     19.71402    19.939955    20.744837    8154.7268    8130.5171     7307.225    7997.7133   -194.53871    1371.2173   -1686.7072   -3332.0055 
 4153000    241.09058   -4744.9172   -4279.9538   -4744.9172            0     7006.842    19.824119    19.885068      20.6405    8136.5669    6528.0412    6793.6065    7698.8784   -674.23492    1362.1942   -610.21757   -3448.4975 
 4154000    236.50348   -4721.8499   -4265.7331   -4721.8499            0    10248.022     19.69161    19.953747    20.487879    8050.1258    10381.412    10056.455      10306.2   -679.81657   -359.97543    818.68472   -3062.5863 
 4155000    233.97703   -4729.5384   -4278.2941   -4729.5384            0    7936.2741    19.854359    19.845498    20.546115    8095.5725    8424.9436    6912.9649    8470.9138    16.216513    628.52681    968.57907   -3341.2929 
 4156000    232.56778   -4740.3487   -4291.8222   -4740.3487            0    7278.5025    19.830797    19.921486     20.64537    8156.1381    6321.7648    8665.4845    6848.2583    418.13079    1126.7347   -69.981834   -3426.0522 
 4157000    250.07313   -4746.7106   -4264.4235   -4746.7106            0    8696.6909    19.983411    19.936001    20.282741     8080.427    8892.9317     7956.134     9241.007    73.718726    1283.2706   -175.71696   -3239.5642 
 4158000    233.42389   -4740.6955   -4290.5179   -4740.6955            0    7950.8503    19.709328    19.798281    20.738966    8092.5687    8992.2435    8642.1332    6218.1742    -190.7848   -479.00105   -315.94831   -3352.1441 
 4159000    236.63705   -4747.9044     -4291.53   -4747.9044            0    6425.2578    20.038972    19.852819     20.44945    8135.4065    5895.6509    6395.9993    6984.1231    -490.8244    6.9401149    1548.2695   -3529.1952 
 4160000    248.59425   -4743.6477   -4264.2128   -4743.6477            0    9591.8369    19.821634    19.877776    20.543935    8094.5159    8941.3933    10475.522    9358.5949    141.30997    2091.5275   -518.37827   -3131.8944 
 4161000    237.40206   -4756.9104   -4299.0605   -4756.9104            0    6362.3927    19.947644    19.810043    20.777963    8210.6965    4777.5842    7863.0793    6446.5148    140.01182    1383.0797   -209.62407   -3537.1984 
 4162000    254.94941   -4773.9095   -4282.2182   -4773.9095            0     5319.557    19.936939    20.006758    20.555727    8199.1346    4382.3705    6282.1173    5294.1832   -614.50163    769.68206   -216.27996    -3646.127 
 4163000    251.34834   -4751.7751   -4267.0287   -4751.7751            0    6214.8136    19.924673    19.706275    20.707944    8130.7893    7694.3507    5312.2693    5637.8209    308.49378   -318.60841   -355.80442   -3530.0809 
 4164000    245.10819    -4763.248   -4290.5362    -4763.248            0    5942.9892    19.876213    19.919865    20.519861    8124.4588    6209.6874    4964.9888    6654.2915   -344.66422    1481.8642   -131.71789   -3586.3698 
 4165000    250.38698   -4749.5816   -4266.6893   -4749.5816            0    8314.5461    19.919688    19.798952    20.482985    8078.2632    9685.7844    7303.7817    7954.0722      208.529    1745.0631    423.72657   -3287.1261 
 4166000    234.75852   -4702.8377   -4250.0861   -4702.8377            0    8302.4154    20.008698    19.868851    20.388817    8105.5707    7283.5398    8657.9149    8965.7913    785.92143    394.61643    471.56109   -3268.6457 
 4167000    251.74488   -4753.7717   -4268.2605   -4753.7717            0    7088.6667    19.926404    19.806933    20.566435    8117.1799    6815.7492    8288.3599    6161.8911    185.33843   -295.75462   -57.664945   -3429.0989 
 4168000    250.92576   -4720.6911   -4236.7596   -4720.6911            0    8067.2407    20.052592    19.855933    20.364481    8108.3812    8855.6063    6025.3413    9320.7745    711.06494      631.881   -1221.6068   -3282.7889 
 4169000    253.63028   -4724.1764   -4235.0291   -4724.1764            0    8176.8583    19.797099    19.846122    20.596931     8092.444    10793.555    6370.6916    7366.3285    511.08188   -1478.3255   -447.85674   -3269.9963 
 4170000    245.47456   -4740.7885   -4267.3702   -4740.7885            0    7255.6205    20.122957    19.876106    20.402591    8160.3432    5827.2807    7612.3719    8327.2089    13.799263   -164.83998    1266.6931    -3403.877 
 4171000    251.74725   -4727.2212   -4241.7055   -4727.2212            0    9659.8354    19.812299    19.734048     20.53909    8030.3088    10660.786     8298.488    10020.232    237.00154    76.927276   -635.07414   -3110.4053 
 4172000    255.07837    -4758.166   -4266.2259    -4758.166            0    9642.1987    19.768602    20.035222     20.19287    7997.7563    9306.7873    8773.0338    10846.775   -99.856026       509.88   -131.41847   -3141.5688 
 4173000    231.02564    -4745.003   -4299.4506    -4745.003            0    7929.0376    19.954059    19.803543    20.645053    8158.1209    7133.2353    9016.6295    7637.2479    251.63771   -24.609589   -935.64461   -3356.0709 
 4174000     242.6996   -4737.1236    -4269.057   -4737.1236            0    7375.2141    20.052581     20.01227    20.308878    8149.9055    6759.0296    6608.4377    8758.1749   -113.74448   -182.65429   -762.04319   -3392.4537 
 4175000     240.4903   -4746.6779   -4282.8721   -4746.6779            0    7241.8922    19.955993    19.968671    20.505985    8171.5252    8270.9661    6071.5716    7383.1388    196.91991    436.67186   -437.80722   -3419.8318 
 4176000    230.37387   -4734.1557   -4289.8603   -4734.1557            0    7466.5015      19.7806    19.786088    20.649765    8081.9193    8557.9512    7503.8011    6337.7522   -481.15229   -357.42967   -1514.1143   -3409.8099 
 4177000    238.82689   -4714.6474   -4254.0496   -4714.6474            0    8328.0168    19.791843    19.846389    20.534602    8065.9225    9288.8432    7358.2412     8336.966   -1183.3125   -730.76647    185.73645   -3274.3983 
 4178000    242.98268   -4738.0943   -4269.4818   -4738.0943            0    10839.306      19.8685    19.839494    20.435033    8055.1012    11692.975    10491.857    10333.085   -285.90729    473.88065   -222.02368   -2996.1301 
 4179000    246.76977   -4715.9326   -4240.0164   -4715.9326            0    5767.8499    19.847124    19.992793    20.437848    8109.7268    4299.4848    7337.7366    5666.3285    492.98956   -106.64791     403.8295    -3557.841 
 4180000    245.60295   -4728.0758   -4254.4098   -4728.0758            0    7018.1775    19.822017    19.945706    20.757496    8206.7697    5974.9015     9823.216    5256.4151    -126.8736    -319.0738   -3173.0467    -3414.423 
 4181000    239.40792   -4746.1841   -4284.4658   -4746.1841            0    7833.1003    19.923672     19.98255    20.489425    8157.3684    7596.4317    6806.1421    9096.7271    44.638521    348.17258    926.58437   -3352.5865 
 4182000    241.41069   -4735.0511   -4269.4703   -4735.0511            0    8324.6596    20.042557    19.742663    20.435294    8086.1117    6524.4829    10595.275     7854.221    670.43377    1200.0809    241.97329   -3287.7628 
 4183000    237.64514   -4759.1199   -4300.8012   -4759.1199            0    8308.9828    19.786087     19.84457    20.606828     8091.197      9807.05    7249.4501    7870.4482     298.5503   -30.839103    881.34175   -3320.3262 
 4184000    238.92447   -4756.0759     -4295.29   -4756.0759            0    7151.3538    19.956305     19.72879    20.639015    8125.8642    7702.9228     7833.997    5917.1414    287.88716    1280.4862    755.87742   -3447.8017 
 4185000    246.67069   -4727.1611   -4251.4359   -4727.1611            0    7874.8281    19.751668    19.996216    20.668167    8163.0705    9033.1285    7309.4282    7281.9275    74.102558   -188.29372   -1387.6902   -3313.9375 
 4186000    241.67155   -4706.1273   -4240.0434   -4706.1273            0    7262.6809    19.935968     19.97949    20.558941    8188.8415    5995.0041    8244.4025    7548.6362   -1227.3076    219.77585     2437.464   -3372.6915 
 4187000    232.53706   -4740.8288   -4292.3616   -4740.8288            0     6704.193    19.935691    19.918208    20.549331    8159.7946    6073.6422    7213.4098     6825.527    551.87658   -725.83203    1699.0857   -3494.5476 
 4188000    254.30387   -4749.8165   -4259.3701   -4749.8165            0    8058.1267    19.939526    19.869197    20.594288    8159.0939    8997.5356    6567.8271    8609.0175    177.21789   -825.86807   -22.038688   -3300.5174 
 4189000    230.32579   -4749.0062   -4304.8036   -4749.0062            0    6517.4971    19.844751    19.991294    20.552495    8153.6324    8925.4625    4246.0978    6380.9309   -71.574524   -70.975605    811.96262   -3529.7926 
 4190000    253.73329   -4728.7255   -4239.3795   -4728.7255            0    7786.6569    19.943943      19.9653    20.430571    8135.1839     7847.921    7442.3571    8069.6926    491.54714    171.12231    1258.8393   -3315.5447 
 4191000    238.58973   -4731.9328   -4271.7924   -4731.9328            0     7513.642    19.911044    19.811276    20.648099    8144.9149    9805.7898    5358.0534    7377.0828   -1033.4778     146.6758   -1692.6773   -3379.2827 
 4192000    251.42896   -4750.7264   -4265.8245   -4750.7264            0    8136.2601     19.94514     19.68881    20.668403    8116.4012    8327.8858     8209.304    7871.5907    235.51512   -1338.3464   -184.68345   -3302.7404 
 4193000    239.98815    -4732.532   -4269.6947    -4732.532            0    7092.9904     19.88005    19.775591    20.607017     8101.437    7371.5031    6595.1459    7312.3224   -827.84658    89.481589     524.4693   -3431.6497 
 4194000    248.89618   -4722.2087   -4242.1914   -4722.2087            0    8937.0325    19.999159    19.888352    20.226071    8044.9263    8294.1962    8080.8115     10436.09   -545.11388   -1233.1642    689.05988   -3193.6362 
 4195000    242.22005   -4741.0987    -4273.957   -4741.0987            0    7225.5261    19.885953    19.973995    20.423469    8112.2412    7205.1594     6283.024     8188.395    16.248844   -27.687889    57.588091   -3419.1142 
 4196000    231.99657   -4729.1025   -4281.6776   -4729.1025            0    6509.3938    19.919457    19.867085    20.697885    8191.0132    5494.0927     8696.991    5337.0976     434.3447    612.88441    254.53431   -3504.0815 
 4197000    239.22449   -4738.2818   -4276.9172   -4738.2818            0    7361.5045    19.893858    19.838294    20.520022    8098.4357    6805.2132    7957.2086    7322.0917    197.71071    439.99972    1370.2168   -3407.4692 
 4198000    244.61703   -4741.3149   -4269.5504   -4741.3149            0    6697.5038    19.719935    20.093342    20.578748    8154.1107    7119.3759    5719.3601    7253.7753   -585.06961    156.23902   -185.38063   -3473.0876 
 4199000    243.34744   -4717.2598   -4247.9438   -4717.2598            0    8000.1257    19.926787    19.794585    20.518986    8093.5599    8424.9497    8390.1458    7185.2816    547.42535   -1256.0817   -773.29599   -3303.6388 
 4200000    226.76266   -4727.0487   -4289.7179   -4727.0487            0    7597.7709    19.909764    19.700413    20.740979    8135.2466    6070.3243    9825.1851    6897.8034    184.23513    378.99014    371.74526   -3388.2862 
 4201000     245.3401    -4761.728    -4288.569    -4761.728            0     6190.893    20.060391    19.792077    20.626983    8189.6713    5238.1974    6616.6576    6717.8239   -490.35748    571.49714   -195.24036   -3549.1414 
 4202000    241.73041   -4736.1555    -4269.958   -4736.1555            0    7867.9406    19.796454    20.116619    20.351473    8104.7242    8475.3873    7406.7736    7721.6608   -913.87917   -643.84227    561.55498   -3339.9746 
 4203000    231.35299   -4740.3986    -4294.215   -4740.3986            0    8516.7678    19.596348    19.881693    20.658139     8048.588    8723.8642    9125.3666    7701.0725    455.08965    1720.8051    325.66478   -3294.5133 
 4204000    240.72367   -4754.5566   -4290.3008   -4754.5566            0    7715.2024    19.954016    19.789207    20.390187    8051.5581    6218.8562    8146.0448    8780.7062    141.76416    136.50457    431.16354    -3384.353 
 4205000    236.38304   -4765.1996   -4309.3151   -4765.1996            0     7650.684    19.761401    20.011281    20.563553    8131.8766    7781.5769    8487.9868    6682.4884    193.25658    -865.1955    600.27066   -3401.9816 
 4206000       250.98   -4771.1257   -4287.0897   -4771.1257            0    7822.4107    19.800453    19.818733    20.483467    8038.1198    8724.5818    8089.5989    6653.0514   -307.34655   -441.52058    669.96748   -3370.0862 
 4207000    243.15034   -4749.7966   -4280.8607   -4749.7966            0    6328.7215    19.691517    19.870447    20.945463     8195.525    5860.3155    7737.8569     5387.992   -54.152401    2531.3552     55.22656   -3524.4309 
 4208000     240.1703   -4721.6505   -4258.4619   -4721.6505            0     7746.861    19.766944    19.940777    20.473027    8069.8165    6813.5443    7218.9178    9208.1209    -121.2453    265.35563    612.98005   -3346.7339 
 4209000    246.39173   -4747.8329   -4272.6457   -4747.8329            0    7128.9912    19.771305    19.727431    20.797665      8111.86    6406.0637    7498.9161    7481.9938   -37.950918   -928.11553   -35.317544   -3429.2635 
 4210000    248.46066   -4721.4634   -4242.2861   -4721.4634            0    7278.2939    19.915814    19.782406    20.559749     8100.186    8132.7646     5793.644    7908.4732     327.2403   -183.21524   -1198.8282   -3382.4801 
 4211000    241.71713   -4739.9641   -4273.7923   -4739.9641            0    7131.5595    19.865151    19.788649    20.703501    8138.6395    6442.8043    7357.8963    7593.9779   -460.23656    37.604526   -499.27491    -3427.321 
 4212000    240.40354   -4731.4194    -4267.781   -4731.4194            0    7037.6923    20.025676     19.72793    20.536525     8113.265    6683.2708    6934.0383    7495.7676   -253.32631    551.09251    211.74578   -3435.0556 
 4213000    253.79196    -4736.068   -4246.6088    -4736.068            0    6939.1207    19.782091    20.044564    20.519421    8136.4304    8758.7632    4616.1948    7442.4041   -461.09341   -1161.3828    908.96633   -3423.2024 
 4214000    247.75458   -4742.4994   -4264.6839   -4742.4994            0    8271.0378    19.962644    19.807146     20.57114    8133.8906     7562.907    9478.5914     7771.615    272.49267    326.49484   -957.63311   -3283.5366 
 4215000    236.18504   -4767.0475   -4311.5447   -4767.0475            0    7912.0524    19.738712    19.881007    20.523283     8053.859    8064.6911    7904.0922    7767.3741    101.39853   -667.32086    1102.1519   -3382.2166 
 4216000    232.63302   -4732.7342   -4284.0819   -4732.7342            0    9159.1904    19.836173    19.993683    20.466463    8116.9614    6949.1675     10217.96    10310.444    1060.0204   -33.277716   -2081.7017   -3199.8393 
 4217000    222.89061   -4729.9104   -4300.0471   -4729.9104            0    8070.9697    19.723224    19.661192    20.630889    8000.2894     7230.677    9330.1194    7652.1127    751.60957    763.73775    444.41356   -3358.3585 
 4218000    237.63092   -4706.5441   -4248.2529   -4706.5441            0    8922.9414    19.656959    19.997175    20.526513    8068.6365     9527.823    8359.9754    8881.0258   -628.08818   -1009.0489    2037.3206   -3198.2655 
 4219000    246.94496   -4736.1464   -4259.8922   -4736.1464            0    7678.1722    19.998233     19.84842    20.391191    8093.9433    4971.4656    9053.7286    9009.3225   -180.30038    350.58361    423.52753   -3353.5465 
 4220000    239.29495   -4756.1309   -4294.6305   -4756.1309            0    8079.6775    19.823571    19.811189    20.647257    8108.7663    9864.3272    6940.9477    7433.7577    531.24106   -1557.4118   -992.79928   -3339.1437 
 4221000    236.01287   -4733.0722   -4277.9015   -4733.0722            0    7748.5644    19.688812     19.98041    20.648837    8123.0574    9188.0961    6179.2306    7878.3665    -959.8319    -1375.722    750.15673   -3359.9565 
 4222000    232.56284    -4742.292    -4293.775    -4742.292            0    8331.3008    19.794005    19.642333     20.82297    8095.9799    7919.6282    9317.5901    7756.6841   -1086.8516    178.53785    376.18985   -3310.0853 
 4223000    234.63391   -4750.1472    -4297.636   -4750.1472            0    6764.3404    19.912097    20.033442    20.433902    8151.2442    8498.8338    4467.8284     7326.359   -290.25971    617.82197   -567.38588   -3493.5078 
 4224000    229.30301   -4721.8538   -4279.6236   -4721.8538            0    5988.3153    19.929247    19.911505    20.712207     8219.045    5756.1444    6730.7796    5478.0219    248.04482    924.53985   -638.85699   -3561.8262 
 4225000     232.0023   -4742.1908   -4294.7549   -4742.1908            0    8297.6622    19.698664    19.891193    20.728119    8121.8973    7970.6954    8610.8702    8311.4209   -599.15054    1651.6666    383.15323   -3311.9006 
 4226000    228.50361   -4717.3296   -4276.6412   -4717.3296            0    7106.4638    20.069212    19.779224    20.504342    8139.2693    6677.6211    7413.0847    7228.6855   -661.10277   -46.880856   -835.83872   -3433.0834 
 4227000    251.85191   -4701.7015   -4215.9839   -4701.7015            0    8697.4512    19.815952    19.876257    20.593514    8111.1048    6742.1441     10417.29    8932.9191     344.4945    630.22566   -145.16857   -3187.1437 
 4228000    242.66078   -4720.4215   -4252.4298   -4720.4215            0    6619.4063    20.069213    19.795169    20.485474    8138.3354    5165.2306    8466.5518    6226.4364    885.61562   -337.02225    1102.2274   -3466.7773 
 4229000    255.29315   -4745.4133    -4253.059   -4745.4133            0    6231.3658    19.755039    19.824077     20.82957    8157.3891    7807.9755    5507.8017    5378.3202   -362.01091   -403.76851    173.97376   -3511.7311 
 4230000     241.6897   -4704.2887   -4238.1698   -4704.2887            0    8500.6899    20.090171    19.636938    20.585786    8121.2867    7600.6745    9358.9516    8542.4437    -786.7586   -638.52031   -107.99704   -3231.3427 
 4231000    251.41046   -4748.4709   -4263.6047   -4748.4709            0    7289.3933    19.874732    19.932689     20.58341     8154.259      7559.43    6566.1113    7742.6386    339.08421    351.37532   -531.94361   -3396.7391 
 4232000    251.11427   -4750.3533   -4266.0584   -4750.3533            0    6816.5718    19.927022    19.679257    20.679145    8109.3056    6524.7488    6644.7644    7280.2023    1041.4742    13.171845    1162.0036   -3459.8903 
 4233000    232.52533   -4735.5805   -4287.1358   -4735.5805            0    8382.9095    19.891834    19.885936    20.538951    8124.5465    7786.3332    8615.3609    8747.0344    703.69049    769.79087    1086.1815   -3293.8601 
 4234000     245.9006   -4734.8577   -4260.6177   -4734.8577            0    8499.3007    19.909709    20.103349    20.441687    8181.8229    7703.5269    8391.6421    9402.7331    402.80275    119.54671    850.33734   -3246.4514 
 4235000     238.5934   -4744.6503   -4284.5029   -4744.6503            0    9985.7484    19.837507    19.577195    20.506644    7964.0165    7692.2125    13231.027    9034.0055   -557.78753    28.714618   -453.41882    -3124.688 
 4236000    236.21763   -4753.1106    -4297.545   -4753.1106            0    6417.8844    19.818937    20.007721    20.542591    8145.7898    8177.9663     5272.109    5803.5779    545.99237    -184.3475   -738.75289   -3535.1133 
 4237000    236.12427    -4726.002   -4270.6165    -4726.002            0    8747.2905    20.089729    19.706724    20.449257    8095.9168    8086.3054    7364.1805    10791.386   -463.12045       285.16   -127.92313   -3237.8183 
 4238000    250.04424   -4734.2998   -4252.0684   -4734.2998            0    9248.5019    19.803496    19.918365    20.525138    8096.2078    8417.6747    10420.014    8907.8167    265.60865    803.52584    547.63884   -3160.0526 
 4239000    232.97869   -4721.3866   -4272.0676   -4721.3866            0    7384.8243    19.788661    19.750684    20.625862    8061.4032     8166.333     7662.627    6325.5127    472.80177   -633.13474   -435.29006   -3403.8538 
 4240000    245.64517   -4736.5617   -4262.8143   -4736.5617            0    7162.2704    19.760345    19.903832     20.76584    8167.3415    7350.2064    6601.1304    7535.4742    160.81876    950.35745   -341.97342   -3409.6998 
 4241000    230.61705   -4744.0361   -4299.2717   -4744.0361            0    7004.4794    20.161953    19.986847    20.314486     8186.207    4470.1662    8210.4531    8332.8189   -161.09266   -473.32653    579.36534   -3463.0249 
 4242000    235.07462   -4727.1434   -4273.7822   -4727.1434            0    7468.5694    19.770159      19.8797    20.715828    8141.8347    8006.8886    7381.5621    7017.2577    1183.6468    434.27955   -2335.8514    -3386.962 
 4243000    242.75477    -4727.507    -4259.334    -4727.507            0    8241.2725    19.876865    19.950435    20.524836    8139.1669    9043.2242      8367.69    7312.9033   -484.84921   -698.84069    706.93221   -3281.0834 
 4244000    246.14922    -4736.583   -4261.8636    -4736.583            0     9395.862    19.908606    19.989608    20.408717    8121.9598    8349.6602     8887.117    10950.809   -189.60136    638.45925   -441.73909   -3148.9195 
 4245000    254.39353   -4726.2652   -4235.6458   -4726.2652            0    6905.7625    19.722086    20.001452    20.609476    8129.8274    7682.4982    6307.8316    6726.9576    995.29573   -797.38702   -623.66589   -3416.8628 
 4246000    245.04631   -4730.1749   -4257.5825   -4730.1749            0    7243.2212    19.812596    19.837825    20.776855    8166.1103     5983.153     9082.417    6664.0937     68.26431     1317.816    1599.6315   -3394.9558 
 4247000    237.51171     -4725.32   -4267.2587     -4725.32            0    8567.2648    19.850036    19.840388    20.533325    8086.6887    7650.6134    8468.1394    9583.0417   -627.89828    224.13436   -189.13668   -3256.8692 
 4248000    250.71964   -4725.2257   -4241.6918   -4725.2257            0    8375.4618     19.80856    19.900379     20.48251    8074.1616     8177.352    7922.5431    9026.4904   -452.83937    1925.4261    48.842318    -3255.453 
 4249000    239.19912   -4763.1515   -4301.8359   -4763.1515            0    6708.0088    19.974385    20.026706    20.436084    8174.8651    6076.7483    6223.9298    7823.3484    709.66385    406.79818    140.55085   -3502.0935 
 4250000    256.59005    -4722.804   -4227.9485    -4722.804            0    10094.564     19.94533    19.747073    20.481032    8066.6982    8827.9908    10886.955    10568.747   -268.59865    -680.8593   -806.85545   -3040.3783 
Loop time of 395.06 on 64 procs for 250000 steps with 972 atoms

Performance: 109.350 ns/day, 0.219 hours/ns, 632.815 timesteps/s
194.2% CPU use with 32 MPI tasks x 2 OpenMP threads

MPI task timing breakdown:
Section |  min time  |  avg time  |  max time  |%varavg| %total
---------------------------------------------------------------
Pair    | 27.943     | 36.766     | 45.266     |  76.1 |  9.31
Bond    | 1.0621     | 1.2441     | 1.6705     |  10.9 |  0.31
Kspace  | 171.95     | 180.66     | 192.87     |  36.4 | 45.73
Neigh   | 2.2626     | 2.367      | 2.7216     |   9.1 |  0.60
Comm    | 71.056     | 77.822     | 80.945     |  27.4 | 19.70
Output  | 0.6678     | 0.66939    | 0.6716     |   0.1 |  0.17
Modify  | 78.796     | 79.886     | 82.718     |   8.1 | 20.22
Other   |            | 15.65      |            |       |  3.96

Nlocal:        30.3750 ave          38 max          23 min
Histogram: 1 1 4 1 9 4 8 3 0 1
Nghost:        2690.34 ave        2716 max        2668 min
Histogram: 1 4 2 5 5 5 6 2 1 1
Neighs:        9732.00 ave       11830 max        7230 min
Histogram: 2 1 3 5 4 5 1 3 5 3

Total # of neighbors = 311424
Ave neighs/atom = 320.39506
Ave special neighs/atom = 2.0000000
Neighbor list builds = 6831
Dangerous builds = 0

unfix		3
unfix		2
unfix		1

write_data	data.final.${pid}
write_data	data.final.1
System init for write_data ...
PPPM initialization ...
  extracting TIP4P info from pair style
  using 12-bit tables for long-range coulomb (../kspace.cpp:340)
  G vector (1/distance) = 0.37206782
  grid = 24 24 24
  stencil order = 5
  estimated absolute RMS force accuracy = 0.0035240407
  estimated relative force accuracy = 1.0612544e-05
  using double precision FFTW3
  3d grid and FFT values/proc = 3211 432
Last active /omp style is kspace_style pppm/tip4p/omp
WARNING: Not all mixed pair coeffs generated from mixing. Use write_data with 'pair ij' option to store all pair coeffs. (../write_data.cpp:312)

write_restart   restart.lmp.${pid}
write_restart   restart.lmp.1
System init for write_restart ...
PPPM initialization ...
  extracting TIP4P info from pair style
  using 12-bit tables for long-range coulomb (../kspace.cpp:340)
  G vector (1/distance) = 0.37206782
  grid = 24 24 24
  stencil order = 5
  estimated absolute RMS force accuracy = 0.0035240407
  estimated relative force accuracy = 1.0612544e-05
  using double precision FFTW3
  3d grid and FFT values/proc = 3211 432
Last active /omp style is kspace_style pppm/tip4p/omp
Total wall time: 0:06:35
