LAMMPS (30 Jul 2021)
Processor partition = 0
  using 2 OpenMP thread(s) per MPI task
using multi-threaded neighbor list subroutines
variable        pid world 0 1
variable        phase world IceVI IceV

shell cd ${phase}
shell cd IceVI
include Restart.lmp
echo both
log log.lammps
#include		in.partitions
include		in.temp
variable        temperature equal 243.27
variable	tempDamp equal 100.0
include		in.pressure
variable        pressure equal 8384.4
variable        pressureDamp equal 1000.0 # This is 1 ps
include		in.seed
variable        seed equal 745823

units		real
atom_style	full
read_restart	restart.lmp.${pid}
read_restart	restart.lmp.0
Reading restart file ...
  restart file = 30 Jul 2021, LAMMPS = 30 Jul 2021
  restoring atom style full from restart
  orthogonal box = (-0.095207563 -0.14143955 -0.053588924) to (24.825209 24.871441 22.863589)
  4 by 4 by 2 MPI processor grid
  restoring pair style lj/cut/tip4p/long/omp from restart
  restoring bond style harmonic/omp from restart
  restoring angle style harmonic/omp from restart
  1920 atoms
  1280 bonds
  640 angles
Finding 1-2 1-3 1-4 neighbors ...
  special bond factors lj:    0        0        0       
  special bond factors coul:  0        0        0       
     2 = max # of 1-2 neighbors
     1 = max # of 1-3 neighbors
     1 = max # of 1-4 neighbors
     2 = max # of special neighbors
  special bonds CPU = 0.002 seconds
  read_restart CPU = 0.008 seconds
include 	in.setup
variable	out_freq equal 1000
variable	out_freq2 equal 10000
variable	out_freq3 equal 1000

timestep	2.0

neigh_modify    delay 7 every 1

include		in.tip4p
# This is TIP4P/Ice

# create groups ###
group ox type 2
640 atoms in group ox
group hy type 1
1280 atoms in group hy

# set charges - beside manually ###
set group ox charge -1.1794
Setting atom values ...
  640 settings made for charge
set group hy charge 0.5897
Setting atom values ...
  1280 settings made for charge

# ### TIP3P Potential Parameters ###
pair_style lj/cut/tip4p/long/omp 2 1 1 1 0.1577 8.5
pair_coeff 1 1*2 0.000 0.000
pair_coeff 2 2 0.21084 3.1668
bond_style  harmonic
bond_coeff  1 450 0.9572
angle_style harmonic
angle_coeff 1 55 104.52
kspace_style pppm/tip4p/omp 1.0e-5
pair_modify tail yes

thermo          ${out_freq}
thermo          1000
thermo_style    custom step temp pe etotal epair emol press lx ly lz vol pxx pyy pzz pxy pxz pyz enthalpy

restart 	${out_freq3} restart.lmp.${pid} restart2.lmp.${pid}
restart 	1000 restart.lmp.${pid} restart2.lmp.${pid}
restart 	1000 restart.lmp.0 restart2.lmp.${pid}
restart 	1000 restart.lmp.0 restart2.lmp.0


include         in.dump
dump            myDump all atom ${out_freq2} dump.water.${pid}
dump            myDump all atom 10000 dump.water.${pid}
dump            myDump all atom 10000 dump.water.0
dump            myDump2 all dcd ${out_freq2} dump.dcd
dump            myDump2 all dcd 10000 dump.dcd
dump_modify     myDump append yes
dump_modify     myDump2 append yes


variable natoms 	equal  "count(all)"                        # NUMBER ATOMS
variable H      	equal  "enthalpy/v_natoms"                 # ENTHALPY-per-atom
variable Vol      	equal  "vol/v_natoms"                 # volume-per-atom
fix AVG all 		ave/time ${out_freq} 1 ${out_freq} v_Vol v_H file vol_enthalpy.dat
fix AVG all 		ave/time 1000 1 ${out_freq} v_Vol v_H file vol_enthalpy.dat
fix AVG all 		ave/time 1000 1 1000 v_Vol v_H file vol_enthalpy.dat




fix 		1 all shake 1e-6 200 0 b 1 a 1
Finding SHAKE clusters ...
       0 = # of size 2 clusters
       0 = # of size 3 clusters
       0 = # of size 4 clusters
     640 = # of frozen angles
  find clusters CPU = 0.001 seconds
fix             2 all nph aniso ${pressure} ${pressure} ${pressureDamp}
fix             2 all nph aniso 8384.4 ${pressure} ${pressureDamp}
fix             2 all nph aniso 8384.4 8384.4 ${pressureDamp}
fix             2 all nph aniso 8384.4 8384.4 1000
fix             3 all temp/csvr ${temperature} ${temperature} ${tempDamp} ${seed}
fix             3 all temp/csvr 243.27 ${temperature} ${tempDamp} ${seed}
fix             3 all temp/csvr 243.27 243.27 ${tempDamp} ${seed}
fix             3 all temp/csvr 243.27 243.27 100 ${seed}
fix             3 all temp/csvr 243.27 243.27 100 745823


run             250000
PPPM initialization ...
  extracting TIP4P info from pair style
  using 12-bit tables for long-range coulomb (../kspace.cpp:340)
  G vector (1/distance) = 0.37442403
  grid = 30 30 30
  stencil order = 5
  estimated absolute RMS force accuracy = 0.0032770602
  estimated relative force accuracy = 9.8687694e-06
  using double precision FFTW3
  3d grid and FFT values/proc = 5400 960
Last active /omp style is kspace_style pppm/tip4p/omp
Neighbor list info ...
  update every 1 steps, delay 7 steps, check yes
  max neighbors/atom: 2000, page size: 100000
  master list distance cutoff = 10.8154
  ghost atom cutoff = 10.8154
  binsize = 5.4077, bins = 5 5 5
  1 neighbor lists, perpetual/occasional/extra = 1 0 0
  (1) pair lj/cut/tip4p/long/omp, perpetual
      attributes: half, newton on, omp
      pair build: half/bin/newton/omp
      stencil: half/bin/3d
      bin: standard
Setting up Verlet run ...
  Unit style    : real
  Current step  : 4000000
  Time step     : 2
Per MPI rank memory allocation (min/avg/max) = 10.54 | 10.55 | 10.55 Mbytes
Step Temp PotEng TotEng E_pair E_mol Press Lx Ly Lz Volume Pxx Pyy Pzz Pxy Pxz Pyz Enthalpy 
 4000000    251.79131    -9166.279   -8206.3357    -9166.279            0    8903.3381    24.920416     25.01288    22.917178    14284.996    8370.2232    8758.3731    9581.4179     81.75382    -273.7278    938.05443   -6351.4854 
 4001000     240.3118   -9172.9163   -8256.7381   -9172.9163            0    8181.9292    24.848836    24.987625    22.979881    14268.516    8791.0826    8646.6758    7108.0291   -245.54067    -1202.857   -349.56188   -6554.1468 
 4002000    237.81949   -9162.4144   -8255.7381   -9162.4144            0     7420.314    24.879636    24.979426    23.113943    14364.831    9104.4323    7720.2687    5436.2411    295.29339    71.385083    857.91091   -6701.2095 
 4003000    247.77825   -9197.2671   -8252.6234   -9197.2671            0    8447.2151    24.918913    25.013928    22.927591    14291.224    8851.6599    7095.0495    9394.9359    22.072413   -894.47904    825.33001   -6492.0308 
 4004000    243.00354   -9214.7958   -8288.3555   -9214.7958            0    7490.9549    24.887634     24.89136    23.130193    14328.855    7506.8495    8457.5951    6508.4201    117.22862    85.177101    472.31353   -6722.9583 
 4005000    248.27903   -9187.1929   -8240.6401   -9187.1929            0    8244.9401    24.951196    24.903812    23.068842    14334.514    8985.4511    7468.7448    8280.6243     529.5348   -330.20163   -120.78081   -6517.0008 
 4006000    246.99756   -9153.0827   -8211.4154   -9153.0827            0    7518.5495    25.066903    25.120313    22.796126    14354.457    6600.0409    7001.7238    8953.8839   -113.32149    95.900554    256.48077   -6637.4443 
 4007000    244.57483   -9203.1243   -8270.6935   -9203.1243            0    8399.8509    24.920418    24.960572    22.994723    14303.359     7709.228    7753.2195    9737.1052    437.92128    544.88295    105.75355   -6518.4861 
 4008000    244.77495   -9212.6847    -8279.491   -9212.6847            0    7816.1908    24.874888    24.905926    23.156127    14345.964    8270.0569    7800.5742    7377.9415   -470.00203    85.516032   -980.20024   -6644.1784 
 4009000    245.60047   -9140.0583   -8203.7173   -9140.0583            0    8595.9643    25.074503    24.832524    22.949165      14289.6    6692.3182    10514.964    8580.6111   -112.29863   -279.44203   -453.99317   -6412.3256 
 4010000    251.04381   -9189.5491   -8232.4556   -9189.5491            0    8146.0325    24.980703    24.945828     22.94375    14297.726    8628.2176    7294.8127    8515.0673   -197.39933    1066.9532    377.06071   -6533.8638 
 4011000     243.4502   -9185.2199   -8257.0768   -9185.2199            0    7649.9652    25.022068    25.026935      22.8547      14312.2    6901.6313    7538.2452     8510.019    661.80495    313.56158    341.83928    -6660.309 
 4012000    244.94386   -9144.6541   -8210.8164   -9144.6541            0    7898.2477    24.963855    25.012136    22.937714    14322.294    8616.2927    7460.8834    7617.5669   -671.91603   -1006.5805    438.79127   -6561.0623 
 4013000    241.74619   -9152.9095   -8231.2628   -9152.9095            0    8423.2548     24.81085    24.880349    23.194035    14317.738    9407.8545     8826.207    7035.7028   -528.35935   -557.73854   -259.55667   -6472.4069 
 4014000    234.32102   -9190.1646    -8296.826   -9190.1646            0    8231.3964    24.829456    24.971668    23.029086    14278.792    10438.863     6791.325    7464.0014   -428.15707   -863.99306    478.34678   -6582.7073 
 4015000    238.16289   -9160.5902   -8252.6046   -9160.5902            0    8325.0808    24.955057    25.025596    22.907065     14305.81    8517.0769    7809.9572    8648.2082   -753.92723    46.232425   -389.44253   -6515.6967 
 4016000    250.23432   -9190.4215   -8236.4141   -9190.4215            0     7905.326    24.913797    25.100108    22.892151    14315.354    8187.3667    7285.1631    8243.4483    825.89144     249.9698    303.71666   -6585.9816 
 4017000    245.46038   -9178.0382   -8242.2313   -9178.0382            0    8196.0949    24.889994     25.07005    22.908418    14294.702    9482.5754     7334.033    7771.6762    382.30249   -32.526241    -293.2056   -6533.5622 
 4018000     237.8995   -9190.5667   -8283.5853   -9190.5667            0    8448.4998    24.792943    24.909254    23.133356    14286.553    9039.1063     8089.083      8217.31   -536.11187   -654.66275   -285.73578   -6523.3006 
 4019000    235.92916   -9157.4919   -8258.0223   -9157.4919            0    8956.5235    24.929771    24.937739    22.987115    14290.909    9253.2433    9239.8675    8376.4597   -327.34716    -221.0168    869.95793   -6391.3194 
 4020000     237.4663   -9183.3453   -8278.0155   -9183.3453            0    8082.5936    25.078119    24.947689     22.83302    14285.277    6410.1347     9157.081     8680.565    1293.0216   -206.34443   -197.34563   -6594.1194 
 4021000    240.38917   -9188.9291    -8272.456   -9188.9291            0    8443.1089     24.93774    24.903693    23.000273    14284.132      7042.33    9222.9381    9064.0585    59.653253   -68.481714   -1128.7609   -6513.5926 
 4022000    245.32089   -9158.4434   -8223.1682   -9158.4434            0     7782.188    24.838624    24.872403    23.167567    14312.837    9188.3379    7122.9159    7035.3102   -1111.1668   -762.13116   -1468.2347   -6598.7296 
 4023000    242.76385   -9225.5112   -8299.9846   -9225.5112            0    8261.5472     24.85488    25.007602    22.970185     14277.37    8857.4805    7270.4398    8656.7211     588.5968    39.129394   -423.93729   -6579.7587 
 4024000    246.13867   -9134.1108   -8195.7179   -9134.1108            0    7558.1471    24.828068    25.150728    23.014074    14370.999    7902.6658    7014.5629    7757.2127   -208.37335   -230.66676    156.37186    -6611.634 
 4025000    239.48804   -9161.3421   -8248.3045   -9161.3421            0    7484.3088    24.894405    25.034107     23.05326    14367.004    7746.7948    7012.8711    7693.2604    641.68953   -564.55967    -642.3388   -6680.1321 
 4026000    244.09925   -9157.6832   -8227.0655   -9157.6832            0    7286.8841    24.880205    24.998059     23.11225    14374.822    8953.0207    6396.3877    6511.2437    -207.0544    104.01964   -894.40637   -6699.4283 
 4027000    247.79108   -9186.8756    -8242.183   -9186.8756            0    8267.0942    24.983674    24.978334    22.908245    14295.903    7547.3471    7932.3716    9321.5639    290.44722   -950.60852   -545.86509   -6518.5676 
 4028000    242.21914   -9199.2372   -8275.7874   -9199.2372            0    7699.9056    24.997466    25.005684    22.888561    14307.153    7090.5689    7418.6151    8590.5328   -1328.0292    700.74272    1263.2142   -6669.1624 
 4029000    239.94054   -9188.1436   -8273.3808   -9188.1436            0    8392.6065    24.994777    24.863072    22.944346    14258.694    7500.6687    9998.8756    7678.2751   -82.509728   -871.34712    10.376318   -6528.1516 
 4030000    245.52324   -9156.2433   -8220.1967   -9156.2433            0    8536.1035    24.982006    24.867567     23.02095    14301.574     8459.593    9418.3182    7730.3994    113.48639    308.38921    13.080202   -6439.7892 
 4031000    243.64509   -9138.4776   -8209.5914   -9138.4776            0    8390.1575    24.897825    24.915183    23.107632    14334.446    9495.8764    8113.7808    7560.8153    -257.1591     216.7114    85.857012   -6455.6022 
 4032000    246.56316   -9170.9988   -8230.9876   -9170.9988            0    7933.9643    24.911023    24.988616    23.043612    14344.463    8143.2818    8502.4178    7156.1932   -21.375744    959.08459   -276.67028   -6571.2079 
 4033000    255.66701    -9220.503   -8245.7838    -9220.503            0    7267.9762    24.941239    24.995891    23.015542    14348.545    8351.4939    6321.9393    7130.4956    268.89557    -105.6411   -129.37661   -6724.8957 
 4034000    237.36496    -9203.737   -8298.7936    -9203.737            0    7659.8482      24.9249    24.973192     22.96034    14291.763    7841.9441    7422.0221    7715.5783   -77.698056    490.91014    257.27964    -6702.246 
 4035000    234.39736    -9203.929   -8310.2994    -9203.929            0    8075.2904    24.905112    25.023426    22.948278    14301.624    8520.0464    7485.9914    8219.8333    -191.5649   -712.90203   -281.19335   -6625.9996 
 4036000    242.46105   -9191.9897   -8267.6176   -9191.9897            0    7508.2492    24.898555    25.016592    23.011331    14333.228    6794.3259    7724.2667     8006.155    682.49755    122.46406   -212.56606   -6698.1274 
 4037000    246.42951    -9193.941   -8254.4393    -9193.941            0    8424.1571    24.851747     24.96957    23.017481    14283.209    9239.8083    8510.8687    7521.7943    -664.5012   -85.077328    13.494969   -6499.6373 
 4038000    246.52451   -9170.8141   -8230.9502   -9170.8141            0    8172.7402    24.757739    25.016691    23.076121     14292.35    9136.0799    7993.2317    7388.9088   -252.15897   -217.38743    225.84887   -6527.4303 
 4039000    237.21087   -9181.4309   -8277.0748   -9181.4309            0    7705.6382    24.882107    25.048339    22.982965    14324.258    8336.6242    7263.3732    7516.9172   -360.16807    80.345226    167.53463   -6667.3315 
 4040000    240.71942   -9185.6366   -8267.9044   -9185.6366            0    8749.0299     24.73476    25.061127      23.0176    14268.172    10222.192    8134.4173    7890.4809    93.170837    545.01432   -1158.1879    -6447.348 
 4041000    236.76327   -9207.3839   -8304.7343   -9207.3839            0    8526.9062    24.864527    25.007805    22.927923    14256.748    8237.3784      9670.09    7673.2502    343.91878   -947.70585    1460.3943   -6531.8195 
 4042000    242.17394   -9177.3581   -8254.0805   -9177.3581            0    9244.0428     24.71567    25.143074    22.899694    14230.509    11280.792    7898.8947    8552.4422   -394.81766   -325.07374    256.62983   -6335.5961 
 4043000    245.08518    -9169.999   -8235.6225    -9169.999            0    8374.1782    24.881822    25.023436    22.988632    14313.381    8755.4148    7855.8871    8511.2327    245.91531    51.693031    387.74805   -6487.5464 
 4044000    245.35925    -9195.175   -8259.7536    -9195.175            0    8673.2942    24.930463    24.968096    22.925366    14270.265    8532.8545     8625.427    8861.6012    412.55428   -353.17063    287.95792    -6454.692 
 4045000    233.83472   -9201.9829   -8310.4983   -9201.9829            0    8065.1057    24.969349    24.852962    23.016245    14283.014    7431.9687    8255.3813    8507.9672   -62.977765    608.79813    7.0693182   -6630.5118 
 4046000    247.34104   -9146.2374   -8203.2606   -9146.2374            0    9018.7661    24.973349    24.819364    23.044721    14283.639     8795.458    10535.931    7724.9089    482.16736    665.02981    677.67781   -6324.5413 
 4047000    241.22814   -9189.9269   -8270.2552   -9189.9269            0    8874.4645    25.046871    24.845961    22.882765    14240.255    7981.3283    9175.4466    9466.6187    857.26308   -709.32449    1184.8764   -6427.2107 
 4048000    238.35138   -9178.7131    -8270.009   -9178.7131            0    9229.7397    25.004859    24.897761    22.924603    14272.055    9503.1804    8918.1377    9267.9009    426.03746      897.428    95.611667   -6348.9006 
 4049000    248.63733   -9183.7391   -8235.8202   -9183.7391            0    8109.6224    24.906421    24.885408    23.134176    14338.711    9004.3794    8183.4848     7141.003   -108.87074   -635.26905    53.805945   -6539.9733 
 4050000    255.40943   -9199.4177   -8225.6805   -9199.4177            0    8262.3456    25.038673    24.968514    22.878057    14302.869    8078.0341    7615.2087    9093.7941    72.076002   -127.39867   -145.12098   -6502.2158 
 4051000    238.18173   -9153.8455   -8245.7882   -9153.8455            0    8423.3224    24.980727      24.9936    22.891641    14292.586    7840.6082    8166.9828    9262.3763   -197.48305   -653.68317    388.47388   -6490.0081 
 4052000    238.70395   -9162.2973    -8252.249   -9162.2973            0    9023.4147    24.931815    24.870716    23.029921    14280.212     8337.644    9654.6313    9077.9688    632.78444   -655.04526    309.43418   -6373.0124 
 4053000    245.05812    -9195.881   -8261.6077    -9195.881            0    9293.6142    24.812353    24.879117    23.043197    14224.783    9541.8486    10246.437    8092.5572   -1231.5127    359.17206   -393.52483   -6333.6114 
 4054000    243.80532   -9166.4146   -8236.9176   -9166.4146            0    6688.4869    24.949858    25.005497    23.035906    14371.724    6898.9195    6514.0457    6652.4957   -48.038887   -92.164988   -599.91069   -6835.0317 
 4055000    248.73532   -9172.6925      -8224.4   -9172.6925            0    8316.4685     24.89725    25.080645    22.888516    14292.484    7936.6809    7448.5162    9564.2084    437.46263   -5.9122564   -1071.0738   -6490.9052 
 4056000     245.6728   -9153.5983   -8216.9815   -9153.5983            0    8288.7515    24.922247    25.014609    22.941184    14301.999    8795.2246    6881.6395    9189.3904   -246.12617   -57.663983    274.59252   -6488.1139 
 4057000    242.77994   -9172.2838    -8246.696   -9172.2838            0    8604.0851    24.889438    24.879034    23.107259    14308.597     8285.209    9130.9409    8396.1054   -697.96053    44.301184     848.7179   -6451.2281 
 4058000    239.49579   -9187.3491   -8274.2819   -9187.3491            0    7836.0885    24.957814    25.002814    22.957341    14325.738    7286.1002    7759.7518    8462.4133   -142.02613   -414.94844    456.28565   -6637.1177 
 4059000    239.26057   -9167.5235   -8255.3531   -9167.5235            0    8057.5055    24.992369    25.068236    22.819552    14296.783    7234.4758    8291.1401    8646.9005   -291.38019   -763.06928    213.67847   -6575.3317 
 4060000     233.1949   -9183.8082   -8294.7629   -9183.8082            0    8943.3588    24.853653    24.944227    23.021001    14271.989    10124.616    8112.3819    8593.0788   -610.37362   -150.15642    523.58387   -6433.2715 
 4061000    239.42671   -9178.6862   -8265.8823   -9178.6862            0    8995.8565    24.804182    25.004648    22.982257    14254.052    10115.925    8627.9106    8243.7334    947.98446   -119.55326   -253.95283   -6395.8172 
 4062000    243.38199   -9169.2433   -8241.3602   -9169.2433            0    9691.7163    24.904545     24.92405     22.89155    14209.292     8518.309    10549.246    10007.594    267.70183    697.86573   -1013.0733   -6232.9658 
 4063000    253.13755   -9159.8838    -8194.808   -9159.8838            0    9807.4332    24.830987    24.923225    22.960087    14209.269    10674.051    10448.334    8299.9147    554.38612   -624.04609    390.34901    -6162.437 
 4064000    249.72871   -9199.7843   -8247.7045   -9199.7843            0    9383.8391    24.793859    24.919259    23.053725     14243.62    11016.304     8931.098    8204.1148    10.543602   -1050.4217    812.50632   -6298.4129 
 4065000     236.9289   -9215.5641   -8312.2831   -9215.5641            0    6243.3306     24.92368    25.125854    22.976427    14388.499    6620.0535    5589.4796    6520.4587    58.854788   -148.93537   -15.432904   -7002.1733 
 4066000    250.60395   -9140.0351   -8184.6185   -9140.0351            0    8395.2083    24.934356    25.079636    22.936018    14342.914    9249.6551    7331.7583    8604.2114    298.09941   -245.92226    267.47964   -6428.5366 
 4067000    239.71961   -9199.9875    -8286.067   -9199.9875            0    8599.7738    24.886878    25.015948    22.904305    14259.507    8668.8117    7731.5718    9398.9379   -1203.7522    281.31732      1024.83   -6497.6557 
 4068000    240.87155   -9197.6533   -8279.3411   -9197.6533            0     9827.227    24.851229    24.916307    22.940572    14204.822    9913.4738    9996.4625    9571.7448   -81.805604    47.824775   -367.46931   -6243.5057 
 4069000    234.69931   -9188.3564   -8293.5755   -9188.3564            0     10273.46     24.93053    24.829549    22.955167    14209.565    9799.0203    10538.688    10482.671   -874.84833    -58.29275   -1231.7217   -6164.5866 
 4070000    238.36113   -9182.8297   -8274.0883   -9182.8297            0    8613.0681    24.939991    24.971592    22.940257    14286.992    8393.3019    7708.8642    9737.0382   -887.39854   -256.64656    142.12216   -6479.4597 
 4071000    238.67065   -9151.7131   -8241.7917   -9151.7131            0    8269.6846    24.803388    25.021823    23.042142    14300.552    9517.7875    7521.4581     7769.808   -909.92974    633.28926    29.171826   -6517.0755 
 4072000    240.16911   -9134.9213   -8219.2872   -9134.9213            0    8761.7401    24.863805    24.917809    23.062062    14288.136    9753.0968    8728.4955    7803.6281   -785.79974    368.39386   -75.291133    -6393.535 
 4073000    234.93907   -9215.2291   -8319.5342   -9215.2291            0    9154.3917    24.906983     24.96882    22.864049    14219.105    8745.8138    9679.0397    9038.3217    297.31965    682.01889   -340.75051   -6421.1782 
 4074000    251.35823   -9190.5647   -8232.2725   -9190.5647            0    9023.2265    24.886557    24.951051    22.914158    14228.449    8441.7591    8677.5537    9950.3668    20.108695    100.04225     381.5001   -6359.8867 
 4075000    250.66196   -9174.8383   -8219.2006   -9174.8383            0    9046.8492    25.034475    24.890936    22.887333    14261.818    8151.2081    9663.6935    9325.6461   -559.54782    53.105661   -427.73715   -6337.5103 
 4076000    245.01158   -9190.5025   -8256.4066   -9190.5025            0    8487.5277    24.866331    24.901034    23.029439    14259.768    8494.1214    8893.4358    8075.0258   -185.54371    59.405574    422.65811   -6491.3056 
 4077000    236.35647   -9206.9702   -8305.8715   -9206.9702            0    6787.5831    24.992879    24.820575    23.156094    14364.596    5610.5783    8914.0986    5838.0724    788.20682   -58.035458    -12.88253   -6883.9211 
 4078000    244.93387   -9151.9396     -8218.14   -9151.9396            0    8157.5356    25.050995    24.927607    22.957405    14336.013    7411.3785    8254.0973    8807.1311   0.82659744    350.61442    548.28108   -6512.5947 
 4079000    241.34855   -9189.3194   -8269.1887   -9189.3194            0    8233.3397    25.055501    24.896315    22.896585    14282.653    7733.8411    8996.9406    7969.2373   -322.36061    909.94413     419.7497   -6554.2018 
 4080000    248.82008   -9211.5434   -8262.9278   -9211.5434            0    6524.3715    24.858111    25.057547    23.081189    14376.887    7194.9216    6212.1107    6166.0823   -86.376643    102.28908    819.49181   -6894.9488 
 4081000    248.95292   -9162.8313   -8213.7093   -9162.8313            0    8954.1272     24.83788    25.013225    23.034979    14311.067    10047.112    7542.9999    9272.2703   -474.58123   -1018.4266     118.5694   -6344.8734 
 4082000    244.36015   -9190.6385   -8259.0262   -9190.6385            0    8430.8451    24.974138    25.003997    22.874033    14283.765     7855.335    8517.2362    8919.9641    145.55581    -732.4612   -1460.3579   -6502.7627 
 4083000    241.52754   -9221.4485   -8300.6353   -9221.4485            0    7963.7144    24.907958    25.019542    22.895573    14268.194    8295.4239    7649.6507    7946.0684   -312.41199   -694.33316   -61.611209   -6643.4901 
 4084000    246.39704   -9152.3719    -8212.994   -9152.3719            0    9000.2308    24.813929    24.921367     23.09573    14282.331    9482.3042    9496.6566    8021.7316   -224.51172    745.55127    657.60466   -6338.3076 
 4085000    242.82538   -9197.2914   -8271.5303   -9197.2914            0    8737.9317     24.86021    24.907924    23.036532    14264.595    9335.3047    8263.8063    8614.6842   -585.18058   -548.17685      1853.52   -6453.7392 
 4086000    246.06733   -9190.4593   -8252.3384   -9190.4593            0    7510.6786    24.874261    25.082626    22.931236    14307.068    8352.9456    6624.1289    7554.9614    30.316433   -1026.1631   -283.18107   -6685.2059 
 4087000    250.29334   -9219.6066   -8265.3743   -9219.6066            0    8010.3556    24.951401    25.041587    22.888638     14301.34    7546.5288    7239.7863    9244.7516   -828.09821   -453.79948    134.04941   -6594.6514 
 4088000    246.43268   -9152.2831   -8212.7693   -9152.2831            0    8536.3643    24.865685    24.867029    23.128705    14301.304    8758.1875    8746.9026    8104.0029   -764.90001    356.91003    541.23096   -6432.3411 
 4089000    236.65552   -9205.7709   -8303.5321   -9205.7709            0    9660.7246    24.843052    24.941852    22.911243    14196.533    10383.764     10024.32    8574.0902   -640.53852   -582.94796   -783.68231   -6303.3576 
 4090000    248.68098   -9186.0577   -8237.9724   -9186.0577            0    9645.4734    24.825088    24.956217    22.985037    14240.157    10376.571    8902.1995    9657.6493    400.74499   -41.109396    101.83003    -6234.819 
 4091000    246.32003    -9233.518   -8294.4337    -9233.518            0    8414.8234    24.897031    25.006172    22.930464    14276.035    8024.0932    7892.7413    9327.6357   -773.58859   -60.443746    1246.0729   -6542.4563 
 4092000    244.17784   -9190.4835   -8259.5663   -9190.4835            0    6316.2179     24.94581    25.047033    23.068629    14413.707    7054.4433    5946.2983    5947.9122   -82.964567   -957.75834    358.34307   -6931.8396 
 4093000    244.57885   -9169.8122   -8237.3661   -9169.8122            0    8574.8142    24.827384    24.940886    23.087873    14296.402    9249.4838    8027.8052    8447.1536   -810.34049   -1014.6155    641.08574   -6449.5313 
 4094000    243.87969   -9190.9493   -8261.1687   -9190.9493            0    8152.5111    24.987739    24.946119    22.912792    14282.623     7249.566    7741.8362    9466.1312   -361.55647    267.54968   -1591.8801   -6563.0218 
 4095000    232.31744   -9196.4427   -8310.7427   -9196.4427            0    9040.3872    25.038057    25.028926    22.719391     14237.69    8585.1807     8028.834    10507.147    439.23062    438.73195    944.34046   -6433.5776 
 4096000    242.07792   -9175.5112   -8252.5997   -9175.5112            0    8628.6823    24.921125    24.891264     23.03553     14289.36    7464.4089    9365.7577    9055.8804   -66.188903    550.55699    -11.31466   -6454.4198 
 4097000    239.38542   -9154.9829   -8242.3365   -9154.9829            0    8019.5156    24.915355    24.929442    23.099328     14347.59     7993.925    8181.1155    7883.5064    652.64268   -1646.7804   -355.43178   -6564.2939 
 4098000    236.63117   -9217.5142   -8315.3683   -9217.5142            0    7101.1537    24.946477    24.929702    22.988502    14296.739    7328.2042    7274.0066    6701.2503   -338.16048   -29.838883    571.42751   -6834.7545 
 4099000    249.20509   -9183.5817   -8233.4982   -9183.5817            0    7339.2619    25.063448    24.944269    22.927096    14333.777    7698.1461    7094.6558    7224.9838   -743.04357    1416.2736    691.03853   -6699.2737 
 4100000    240.57808   -9209.3861   -8292.1927   -9209.3861            0    8851.8624    24.984858    24.860384    22.975935    14271.115    7908.4958    10081.633    8565.4582    892.00431    -334.6559   -551.57472   -6449.8583 
 4101000    240.28972   -9190.7517   -8274.6577   -9190.7517            0    8007.6001    25.021493     24.90269    22.956649    14304.345    8498.5133    8244.1507    7280.1362    246.32511    -256.3257    17.299377   -6604.1586 
 4102000    245.83173   -9157.2977   -8220.0751   -9157.2977            0    8832.1948    24.979799    24.871108     22.98087    14277.447    7375.2994    9528.1717    9593.1133    185.47857   -475.70553    670.14277   -6381.0186 
 4103000    248.56485     -9189.36   -8241.7175     -9189.36            0    8371.2529     24.93026    24.926184     22.99583    14289.982    9311.3925    7529.6061    8272.7602   -88.398846   -479.68508     660.9486   -6497.1088 
 4104000    241.16428   -9181.3809   -8261.9527   -9181.3809            0    8107.8233    24.973491    25.130193    22.776518    14294.285    7908.6668    7332.1035    9082.6996   -459.54333   -394.98184   -1098.6711   -6571.7352 
 4105000    242.30792    -9164.571   -8240.7827    -9164.571            0    7662.1709    24.919844    24.995702    23.015426    14336.056      6524.17    8575.2363    7887.1065    264.86869    186.65772    526.82497   -6638.8015 
 4106000    244.08574   -9211.2895   -8280.7234   -9211.2895            0    8445.6581    24.807163    24.901937    23.124043    14284.795    8060.4184    8379.3364    8897.2197   -676.51356     461.2614     867.4122   -6521.2472 
 4107000     249.4829   -9202.1507   -8251.0081   -9202.1507            0    8128.0095    24.863839    25.012388    22.942074    14267.767    8283.1158    7615.7482    8485.1645    734.32658    809.89762    1324.8447   -6559.7258 
 4108000    245.23748   -9186.9201    -8251.963   -9186.9201            0    9302.0937     24.92995    24.960959    22.894624    14246.763     8321.414     10134.59    9450.2775   -68.665587   -1008.6852    1530.3744   -6319.2259 
 4109000    235.97441   -9174.4164   -8274.7744   -9174.4164            0    7439.4666    25.017014    24.991565    22.906895    14321.719    5523.1192    7955.6178    8839.6628     24.69256   -372.97345    273.87034    -6720.911 
 4110000    239.68309   -9193.8292   -8280.0479   -9193.8292            0    8811.1572    24.863574    24.905686     23.04573    14270.938    9472.1276    8608.4924    8352.8515   -771.90144   -67.239172   -488.66767   -6446.2083 
 4111000    241.54695   -9170.0105   -8249.1234   -9170.0105            0    8130.1349    24.824653    24.989429    23.023773    14282.888    8933.4412    8182.3428    7274.6207   -208.72684    315.95253   -341.05539    -6555.606 
 4112000    244.33682    -9171.142   -8239.6186    -9171.142            0    8918.9122    24.811599    25.019525    23.016956    14288.338    10487.489    7788.3753    8480.8722    149.31748   -481.50246   -318.49019   -6381.0889 
 4113000    234.01517    -9149.111   -8256.9384    -9149.111            0    8421.1179       24.895    25.081259    22.912176    14306.316    8376.6979    7990.7317    8895.9242    1296.6389   -1004.1654   -254.73044   -6499.9316 
 4114000    250.96631   -9154.5036   -8197.7056   -9154.5036            0    8845.1172    24.876442    25.015554    22.954577    14284.587    8922.6889    9046.4919    8566.1707   -338.59206    171.01872    252.87798   -6355.0372 
 4115000    247.16022   -9148.6464    -8206.359   -9148.6464            0     9069.837    24.776885     24.90814    23.182381    14306.916     10147.15    9018.6256    8043.7353    113.98472    716.22385    418.00457   -6313.9221 
 4116000    248.46269   -9222.0374   -8274.7843   -9222.0374            0    8394.4486    24.927547    24.940735    22.974398    14283.444    8981.5563    7918.0596    8283.7297   -564.63754   -484.73656    924.33688   -6526.1419 
 4117000     233.4463   -9207.9666   -8317.9629   -9207.9666            0    7550.6266    25.065723    25.039004    22.816294    14319.979      6244.45    6313.0238    10094.406    249.14966   -694.19356   -886.41412   -6741.0733 
 4118000    247.36237   -9253.2124   -8310.1543   -9253.2124            0    7585.1195    25.031432    24.978167    22.883102    14307.415    7454.8915    6717.4184    8583.0487    151.61071    576.15036    367.76887    -6727.451 
 4119000    242.58041   -9181.8076   -8256.9805   -9181.8076            0    8371.4842    24.986197     24.87352    23.008438    14299.621    8368.1541    8247.1822    8499.1164    758.62525    1322.1397   -821.82205   -6511.1467 
 4120000    239.63859   -9184.7196    -8271.108   -9184.7196            0     8667.605    24.949781    24.821802    23.084405    14296.138    8616.7401    9014.8959    8371.1789   -623.09698   -177.93234   -273.96822   -6463.9601 
 4121000    231.09886   -9147.7302    -8266.676   -9147.7302            0    8765.7462    25.066576    24.843491    22.951281     14292.71    8747.6139    9373.7481    8175.8767    467.66225   -801.42632    809.27267   -6439.5042 
 4122000    243.53773   -9156.9769      -8228.5   -9156.9769            0    8573.6534    25.001857    24.896876     22.99751    14315.217    8075.5716    9391.4991    8253.8895    735.30047     787.6008    139.18123   -6438.5547 
 4123000     243.2609    -9216.827   -8289.4054    -9216.827            0    5944.0498    25.054676    24.950489    23.017963    14389.137    5333.7914    6710.1181    5788.2398   -774.51323   -1021.0154    285.71565   -7042.0418 
 4124000    251.46519   -9176.6083   -8217.9083   -9176.6083            0      8378.07    24.966673    24.950468    22.920834    14278.079    8849.4966    8087.6911    8197.0223   -874.08569    1020.5221    779.45956   -6473.3332 
 4125000    248.03857   -9159.4069   -8213.7707   -9159.4069            0      8430.64    24.854864    24.937793    23.082949    14307.399    7988.2972    8531.2096     8772.413   -1279.8079   -764.13504   -326.58435    -6454.644 
 4126000    239.00102    -9168.239   -8257.0581    -9168.239            0    9493.6313    24.784912    24.907516    23.098071    14259.146    9662.4479    9997.9873    8820.4587   -615.38348   -150.98691     137.5571   -6282.8098 
 4127000    241.68924   -9163.2127   -8241.7831   -9163.2127            0    8976.3786    24.905529    25.018517    22.890871    14263.288    9391.6722     8820.716    8716.7474   -816.81395   -174.91745    501.69434   -6374.5579 
 4128000    241.00805   -9203.2522   -8284.4196   -9203.2522            0    6655.6573    24.995328    25.025656      22.9416    14350.532     6400.896    6351.5755    7214.5005   -273.99372    575.60857   -150.67348   -6891.4718 
 4129000    243.39661   -9172.1296   -8244.1908   -9172.1296            0    7610.8785    24.885601     24.98024    23.040289    14322.956    8085.4281    7541.1386    7206.0688    514.29576    1180.6957     1027.972   -6654.3877 
 4130000    238.62104   -9204.2318   -8294.4996   -9204.2318            0    9443.0886     24.75215    24.943266    23.077488    14248.029    9914.5556    9302.5813     9112.129   -1079.3168   -228.55172   -75.655945   -6332.2929 
 4131000    240.81906   -9209.5248   -8291.4127   -9209.5248            0    9020.6475    24.819247    25.015494    22.909619    14223.797    9733.4718    8801.5559    8526.9149    163.35967    491.36752   -501.23412   -6420.1742 
 4132000     234.1359   -9165.1934   -8272.5605   -9165.1934            0    7132.2113    24.983045    25.057288    22.947024    14365.006    6762.0768    7572.2559    7062.3011   -101.63827   -707.83375    1653.7519   -6778.3703 
 4133000    245.65665   -9199.7817   -8263.2265   -9199.7817            0     7527.364    24.919962    24.952402    23.038774    14325.807    8060.9932    7161.6858    7359.4132   -614.49498    233.47237    677.02281   -6690.5554 
 4134000    231.31356   -9170.4092   -8288.5365   -9170.4092            0    9171.4944    25.010862    24.805708    22.974338    14253.558    8105.0924    12057.464    7351.9271    1277.7724    483.79725     1042.149   -6382.0256 
 4135000    244.15792   -9237.8953    -8307.054   -9237.8953            0    8887.9047    24.958854    24.862913    22.904939    14213.656    7995.1163     9153.237     9515.361   -185.66049    -80.46134    372.91062   -6464.6661 
 4136000    242.38638   -9175.9246   -8251.8372   -9175.9246            0    7835.9425    25.150313    24.897783    22.881031    14327.805     6449.217    8860.4651    8198.1453   -194.85719   -907.11039   -51.591477   -6614.4674 
 4137000    239.73112   -9193.4849   -8279.5205   -9193.4849            0    8076.4148    25.018598    24.860404    22.980104    14292.992    6618.1418    9202.7589    8408.3437     5.996338    32.850359    1101.6196    -6596.003 
 4138000    242.60246   -9177.4724   -8252.5612   -9177.4724            0    7870.1231    25.051623    24.848056     23.00668    14321.293    6979.4047    8461.9795    8168.9851    345.75582   -1046.0913    54.032056   -6608.7966 
 4139000    238.26332   -9204.0254    -8295.657   -9204.0254            0    8554.1775    24.955097      24.9143    22.961138    14275.829    8361.8257    8439.8732    8860.8336   -517.41475   -1029.0077    49.412313   -6514.6916 
 4140000     243.2854   -9175.7782   -8248.2633   -9175.7782            0    8782.9421    24.903541    25.019474    22.918764    14280.075    8932.1476     9182.874    8233.8045   -1019.8889   -1076.0299   -110.55352   -6419.1256 
 4141000     245.8535   -9214.8483   -8277.5426   -9214.8483            0    8456.8637    24.809862    25.021763    22.961214    14254.011     8835.461    7863.7859    8671.3441   -599.29014    766.10993    899.18203   -6519.5287 
 4142000    235.65253   -9191.2911   -8292.8762   -9191.2911            0    9683.6071    24.795546    25.004749     22.95887    14234.647    10561.433     9103.727    9385.6611      391.525    830.24014   -183.37886   -6282.5815 
 4143000    242.38007   -9183.6269   -8259.5635   -9183.6269            0    8461.4431     24.96596     25.07505    22.823497    14288.027    8019.0674    7003.8798    10361.382    47.561522    143.63034   -1012.0198      -6496.4 
 4144000    244.88368   -9197.6163    -8264.008   -9197.6163            0    8060.8186    24.763336    24.983933    23.096769    14289.637    9423.8431    7590.3855    7168.2272   -101.82903   -93.076559   -218.40768   -6584.1359 
 4145000    246.96225   -9152.1559   -8210.6232   -9152.1559            0    8340.2531    24.908224    24.991063    22.999254    14316.644    8771.4777     7546.475    8702.8066    -462.9659   -483.52285   -539.45466    -6469.232 
 4146000    242.96574    -9206.935   -8280.6388    -9206.935            0    6107.5285    24.943704    24.945736    23.147373    14403.199    6942.0781    5922.0264     5458.481   -784.01562    523.51025   -377.67845   -6997.7165 
 4147000    240.87104   -9190.0024   -8271.6921   -9190.0024            0     8699.473    24.883722    24.928052    23.004274    14269.613     9230.401    9140.2035    7727.8146   -596.61807    411.32321    238.67123   -6461.2651 
 4148000    237.97257   -9202.2596   -8294.9997   -9202.2596            0    9608.4014    24.919356    24.930313    22.862966    14203.557    9170.5741    9298.9804     10355.65    144.72535   -368.43825       165.71   -6304.6741 
 4149000    244.39167   -9185.0187   -8253.2862   -9185.0187            0    9402.5506    24.895653    24.976249    22.889146    14232.471    9556.8839    9726.4962    8924.2715    236.43773    119.86225    905.52708   -6301.6364 
 4150000    237.74966    -9200.939   -8294.5288    -9200.939            0    6905.6289    25.077929    24.953681    22.959418    14367.697    5984.4856    6956.5005    7775.9004   -1110.6153    -515.6449    135.00671   -6847.5364 
 4151000    245.67348   -9188.1675   -8251.5482   -9188.1675            0    7363.7024    24.937771     24.90066    23.081602    14332.912    6241.4108    8737.5864      7112.11    -787.7034     559.2895   -101.40775   -6712.3075 
 4152000    239.00873   -9199.4289   -8288.2186   -9199.4289            0    7327.7522    24.933806    24.979387    23.022231    14338.964    7602.5921    7679.7141    6700.9504   -164.79751    70.979027    609.85793   -6755.8459 
 4153000    245.70694   -9182.6653   -8245.9184   -9182.6653            0    6906.5696    24.964087    24.986978    23.078453     14395.81    6493.3485    6970.3451    7256.0152    637.42351   -935.94367   -112.56766   -6795.8971 
 4154000    242.82984   -9216.7982   -8291.0201   -9216.7982            0    7681.4622    24.925253    24.950012    22.992068     14298.43    7500.9705    7470.3424    8073.0736    101.20834    30.158925     835.6435   -6689.2206 
 4155000    243.03318   -9184.6187   -8258.0654   -9184.6187            0    9043.5996    24.928191    24.961098    22.922333    14263.078    8268.7738    9067.6516    9794.3732   -177.33421   -850.91601   -292.04452   -6376.8848 
 4156000    233.13033   -9239.9383   -8351.1391   -9239.9383            0    8158.8721    24.840283    24.881181    23.043043    14241.882    8689.7049    8565.9868    7220.9246    36.775054    372.53033    1082.9919    -6656.515 
 4157000    248.95157   -9218.7057   -8269.5888   -9218.7057            0    8106.4372    24.835802    24.809135    23.211622    14301.951    8563.1365    8694.4156    7061.7596    81.659136     857.0712    142.91064   -6578.7539 
 4158000    238.30022   -9164.5676   -8256.0585   -9164.5676            0    8972.0265    24.936729    24.943321    22.957634     14279.76    8948.7192    8833.4028    9133.9576     504.0396   -40.731739   -15.392938   -6387.5833 
 4159000    244.78099   -9177.9525   -8244.7358   -9177.9525            0    8017.8522    25.011145    25.038556     22.86513    14319.126    8525.2574     6562.368    8965.9312    1033.3286    627.66157    824.57937   -6570.3695 
 4160000     235.3584   -9164.4205   -8267.1269   -9164.4205            0    8955.9853    25.008352     24.90169     22.92013    14273.516    8482.5035    9220.8072    9164.6451    105.11362    163.90329    642.92424   -6402.8079 
 4161000    238.43166   -9221.1009   -8312.0906   -9221.1009            0    9409.0494    24.852681     24.85251    22.998968    14205.348    9243.2733     9427.371    9556.5039   -655.26745    252.68808   -417.82649   -6362.8139 
 4162000    231.26387   -9158.7192   -8277.0359   -9158.7192            0    8526.0543    24.896198    24.886801    23.089273    14305.807    8458.9196    9797.8589    7321.3844   -436.83028   -345.71189   -60.768198   -6498.1981 
 4163000    244.46707    -9190.381   -8258.3611    -9190.381            0    7120.6031    24.991135    24.960622     22.98904    14340.432    6406.4566     7972.076    6983.2767     328.1979    421.70892   -291.79255   -6769.1547 
 4164000    237.92834   -9190.8572   -8283.7658   -9190.8572            0    7540.3998    25.013766    24.942339    22.940312    14312.502     6120.558    8190.5858    8310.0558   -177.65616   -945.28225    493.30042   -6709.8343 
 4165000     243.2538    -9179.922   -8252.5276    -9179.922            0    9015.9501    25.014886    24.902587     22.92154    14278.638    8609.1254    9165.2305    9273.4943   -1345.2544    762.36662   -37.933215   -6375.0526 
 4166000    250.81064   -9182.3738   -8226.1693   -9182.3738            0    7715.9131    24.969958    24.806403    23.117163    14319.114    7401.0617    8970.2887    6776.3888    -788.9018    74.549496    323.80824   -6614.8583 
 4167000    241.46769   -9245.9705   -8325.3855   -9245.9705            0     6398.346    24.976081    24.923337    23.016467    14327.458    5369.7669    7266.7864    6558.4845   -183.21146    825.84664   -456.05293    -6988.443 
 4168000    247.50279   -9151.4001   -8207.8066   -9151.4001            0    8052.3727    25.019118    25.021003    22.879306    14322.524    8809.8359    6149.7383    9197.5439   -20.227715   -142.84286    322.32691   -6525.8324 
 4169000    233.77168    -9145.197   -8253.9528    -9145.197            0     8879.098    24.945941    24.942101    23.009205    14316.424    7843.4456    9828.3841    8965.4643    1001.7306    13.626205    851.40965   -6400.0828 
 4170000    251.09692   -9223.6093   -8266.3134   -9223.6093            0    9207.1721    24.723869    24.891876    23.150383    14247.289    10260.145     9238.674    8122.6975    156.34301    423.59705       274.84   -6353.2278 
 4171000    238.64324   -9184.9722   -8275.1553   -9184.9722            0    9548.0776    24.817563    24.914575    23.054291    14254.907    9659.5425     10050.43    8934.2606    139.68516    264.87933   -591.21574   -6290.1749 
 4172000    248.02488   -9223.1497   -8277.5657   -9223.1497            0    8655.6999    24.836447    24.988703    22.969675    14255.684     9619.962      7799.97    8547.1678   -237.04327    -942.1949   -940.29193   -6478.0065 
 4173000    232.80232   -9152.8638   -8265.3152   -9152.8638            0    9795.4113    24.838615    25.034009     22.88096    14227.612    9975.4702    8950.4394    10460.324   -947.34508   -427.56588   -28.630191    -6232.815 
 4174000    243.11804   -9210.7417   -8283.8649   -9210.7417            0    9140.2632    24.815139    24.940077    23.015708    14244.225    9959.4848    8872.6739    8588.6309     14.17167    -433.7889    60.963619   -6385.0902 
 4175000    233.18717   -9157.3098   -8268.2939   -9157.3098            0    8126.9157    24.909077    24.865144    23.109137    14313.055    8167.9311    8518.9182    7693.8977   -276.23624   -233.60427   -126.31789   -6571.8716 
 4176000    239.95034   -9199.1537   -8284.3536   -9199.1537            0    8451.8698    25.018091    24.873335    22.923656     14265.01    7743.3051    9330.9213     8281.383   -368.68446   -178.04796   -363.76029   -6526.0221 
 4177000    248.02547   -9205.7785   -8260.1923   -9205.7785            0     6943.316     24.97388    25.031903     22.93666    14338.709     6953.568    6869.7477    7006.6325   -752.75423   -996.70386   -1252.1586   -6808.2382 
 4178000    245.62621   -9200.5577   -8264.1185   -9200.5577            0    7965.5846     24.96133    25.029536    22.918123    14318.567    8208.2258    6973.3013    8715.2269   -785.36792   -247.54123    135.42823   -6600.7323 
 4179000     251.6939   -9227.8123   -8268.2403   -9227.8123            0    8540.9545    24.862546    24.929383     23.04078    14280.858    9076.5964     8694.585     7851.682   -14.731186    78.719118   -1051.7312   -6489.4016 
 4180000     245.9269   -9227.7398   -8290.1544   -9227.7398            0    7832.1484     24.84515    24.875654    23.123132    14291.005    7756.0052    8030.8108     7709.629   -78.976724    -1143.935    476.00543   -6657.7807 
 4181000    244.16187   -9190.1649   -8259.3085   -9190.1649            0    9114.8446    24.866791    24.950636    22.996625    14268.078    9217.5163    9028.1639    9098.8535   -428.41944   -743.12905    708.44892   -6362.6435 
 4182000    252.72565   -9189.4202   -8225.9147   -9189.4202            0    8187.8014    24.927908    25.048295    22.896109    14296.367    7997.9285     7917.396    8648.0797    422.61668   -604.83565    595.94862   -6518.7758 
 4183000    245.25184   -9196.8625   -8261.8506   -9196.8625            0    8309.9887    24.900387    24.925938    23.032692    14295.597    8097.9669    8344.8464    8487.1526   -1279.0778   -403.41716    1145.9139   -6529.3291 
 4184000    236.37181   -9132.3848   -8231.2276   -9132.3848            0    10129.674    24.885554    24.871931    22.937629    14197.286    11821.645    9134.8504    9432.5282   -224.59876   -962.77022    -472.6432   -6133.8497 
 4185000    251.72368   -9174.1988   -8214.5134   -9174.1988            0    8349.6684    24.975232    24.978329    22.930282    14304.817    8066.1314    8230.7607     8752.113    380.42798    28.848267    704.98313   -6472.5965 
 4186000    247.83558   -9171.6688   -8226.8066   -9171.6688            0    7274.2787    25.045719    24.980853     22.95217    14360.334    6244.5738    7303.0993    8275.1629   -222.66582   -580.87272     420.7671    -6703.349 
 4187000    240.23859   -9222.9594   -8307.0603   -9222.9594            0    7883.7936    24.965001    24.835314    23.074558    14306.541    7967.3458    8211.4175    7472.6174   -122.72116   -1141.3392    564.07728   -6662.1366 
 4188000    253.60384   -9189.8433   -8222.9899   -9189.8433            0    9219.4107    24.986256    24.857088    22.941324    14248.525    8971.6528    9156.7758    9529.8036   -1073.2128   -68.307868    681.90073   -6307.1952 
 4189000    235.02794   -9200.7702   -8304.7365   -9200.7702            0    9255.3807    25.041728    24.847595    22.849172    14217.365    7708.7049    9734.2638    10323.173    856.95842    13.112815   -501.70783   -6385.6733 
 4190000    249.14372   -9159.3267   -8209.4772   -9159.3267            0    9056.1477     24.99968    24.873014    22.950493    14271.016    8657.9938    8448.5602    10061.889    493.95053   -114.30158   -1288.1572   -6324.6382 
 4191000    240.38929   -9170.7638   -8254.2902   -9170.7638            0    8585.3267    24.946508    24.925578    23.011518    14308.703    8355.8251    8670.4971    8729.6578   -397.77608    913.56556    329.99973   -6462.7235 
 4192000     241.0353   -9155.2443   -8236.3078   -9155.2443            0     7475.115    25.086508    25.070839    22.835242    14361.993    8200.5527    5824.2307    8400.5614   -637.65339   -112.99792    307.92853   -6670.6081 
 4193000    248.93653    -9214.019   -8264.9594    -9214.019            0    7737.5692    24.967954    24.901511    22.987559     14292.28    7846.6641    7700.5493    7665.4941    394.38003    -55.52886   -104.36882   -6652.1541 
 4194000    244.08042   -9206.5103   -8275.9644   -9206.5103            0    7287.0486     24.86948    24.987401    23.118603    14366.447    7649.4338    7378.7908    6832.9212    -191.6914   -1178.2344    188.71918   -6749.1827 
 4195000    242.52139   -9179.8278   -8255.2257   -9179.8278            0    8408.2226    24.907155    24.988659    22.954913    14287.056    8257.4201    7379.7663    9587.4813    848.30794   -75.566396   -1119.0812   -6503.2711 
 4196000     244.2275   -9169.7493   -8238.6427   -9169.7493            0     8941.918    24.897553    25.044303      22.8352    14238.703    8622.4686    8454.1381    9749.1474    356.38097    248.88937   -52.485121   -6381.7919 
 4197000    241.44642    -9183.229   -8262.7252    -9183.229            0     7916.007    24.830854     25.00821    23.032791    14302.793    9150.4502    6488.5403    8109.0305    8.4704508     1261.036    225.42522   -6611.5129 
 4198000    244.62684    -9174.238   -8241.6089    -9174.238            0    8282.1008    24.811154     25.01266    23.020629     14286.44    9844.8029    6841.7676    8159.7318   -632.27395   -137.64531    477.57397   -6516.0077 
 4199000    245.05266   -9163.0401   -8228.7876   -9163.0401            0    8553.6982    24.893037    25.022271    22.959998    14301.331    8193.0931    8097.0936    9370.9078    26.100568   -604.57702    -630.2137   -6444.7407 
 4200000    242.11018   -9182.8157   -8259.7813   -9182.8157            0    7964.5764    24.997031    25.066429    22.850013    14317.505    7715.9432    8191.4451     7986.341    42.343911    7.8119077    335.24671    -6596.729 
 4201000    239.81154   -9134.1504   -8219.8795   -9134.1504            0    9997.9456    24.911061    24.970628    22.900183     14244.94    10131.102    9724.2605    10138.474   -77.788702    258.82947   -179.90613   -6142.8278 
 4202000    238.39048   -9181.3177   -8272.4645   -9181.3177            0     8910.292    24.912476    24.847511      23.0438    14264.413    8769.9561    9925.1471    8035.7729   -349.20885    712.28481   -1049.2973   -6418.8402 
 4203000    234.22799   -9205.4519    -8312.468   -9205.4519            0    7620.4804    25.075076    24.829182    22.938851    14281.583    6510.3943    8550.7892    7800.2578     121.1661   -845.77549    295.28523   -6725.2573 
 4204000    249.44775   -9197.5866    -8246.578   -9197.5866            0    8140.4515    24.949894    24.935558    22.970745    14291.008    7039.5172    9537.8488    7843.9884     528.5731   -1367.3402    219.20337   -6549.9476 
 4205000    235.00929   -9193.1581   -8297.1955   -9193.1581            0    6920.8664    25.049627    25.027844    22.874482    14340.885    5728.4814      7443.31    7590.8078   -153.95332    999.21903    543.04026   -6849.7164 
 4206000    227.79752   -9205.6881   -8337.2201   -9205.6881            0    8238.8631    24.919877    24.852017    23.080083    14293.707    7563.0238    9232.6682    7920.8974   -495.29366   -331.06432   -136.19063   -6619.7544 
 4207000    239.49247   -9167.0061   -8253.9516   -9167.0061            0    8728.5217    24.900675    24.828259    23.073282    14264.835    8763.3292    9590.8841    7831.3517   -787.48861   -871.32515    1014.4753   -6438.0875 
 4208000    244.59852     -9199.77   -8267.2489     -9199.77            0    7633.7344    25.039259    24.949199    22.924224     14320.98    7114.3219    7268.1616    8518.7197   -393.08476    453.35493   -874.86361   -6672.8916 
 4209000     245.2046   -9150.8293   -8215.9975   -9150.8293            0    9094.1693    25.060098    24.947122    22.850066    14285.343    8536.5443    8688.2686    10057.695   -259.45031   -1246.3713    870.98525   -6321.3449 
 4210000     243.9404   -9167.8389   -8237.8268   -9167.8389            0    9340.6302    24.990114    24.872426    22.940461    14258.982    7932.6073    10307.344     9781.939   -647.76984   -624.46768    540.11384   -6295.4182 
 4211000    245.28663    -9168.607   -8233.4625    -9168.607            0    8849.7733    24.971427    24.869787    22.980766    14271.838    8567.1804    9933.9746    8048.1648   -196.52492   -45.742362    533.00834   -6391.4696 
 4212000    241.54014   -9195.2349   -8274.3737   -9195.2349            0    8872.1005    24.854123    24.974977    22.981073    14265.068    8403.1396    9038.1524    9175.0094    -438.9238    222.91191    680.70718   -6428.6097 
 4213000    237.71692   -9187.6973    -8281.412   -9187.6973            0      7523.55    24.895927    24.991788    23.015131     14319.87    7995.0593    7893.5964    6681.9942   -891.81312   -778.55142    126.54628   -6710.1892 
 4214000     245.6196   -9173.8268   -8237.4128   -9173.8268            0    8662.7594    24.926171    24.883297      23.0247    14280.963    8030.4385    8531.3511    9426.4887   -501.09394   -494.99293   -109.18837   -6433.1923 
 4215000    244.15399   -9213.1908   -8282.3644   -9213.1908            0    8207.7815    24.946986    24.945355    22.962492    14289.821    8141.0082    6930.0327    9552.3036    260.01902   -1001.1211    220.40834   -6571.8433 
 4216000    233.71367   -9187.0631     -8296.04   -9187.0631            0    7730.4388     24.96028    24.950654    22.976724    14309.336    7889.1467    6970.2054    8331.9642   -349.91703   -199.32237   -314.91135    -6682.798 
 4217000     248.1687   -9182.6462   -8236.5139   -9182.6462            0     8767.536    24.910704    24.903572    23.011198    14275.354    8845.4488    8747.7334     8709.426     -593.795   -284.57169    649.39821   -6411.1884 
 4218000    243.52968   -9191.0203   -8262.5741   -9191.0203            0    9848.6926    24.892234    24.908957    22.997033     14259.07    9847.2765    9828.4926    9870.3088    61.198115     167.7446    339.76181   -6214.4999 
 4219000    238.61741   -9216.5921   -8306.8737   -9216.5921            0    7596.1964    24.994281    25.004178    22.895881    14309.043     7035.138    7937.2577    7816.1936    49.450669     120.9806   -656.41732   -6721.6788 
 4220000    243.38826   -9201.4443   -8273.5373   -9201.4443            0     7329.302    24.991247    24.912287    23.040788    14344.944     6865.396    8444.1385    6678.3717   -551.83196    1102.8492   -339.28072   -6740.2012 
 4221000    240.11548   -9187.6504   -8272.2207   -9187.6504            0    8711.9461    24.975683    24.912871    22.955247    14283.121    8513.1764    8594.1122    9028.5498   -57.449284   -1173.7156    1363.2897   -6457.4816 
 4222000    237.88584   -9189.4789   -8282.5496   -9189.4789            0    9449.6518    24.919017     24.81451    23.024457    14237.246    8938.3177    10050.731    9359.9072    17.313717   -111.37614   -4.3721558   -6320.4651 
 4223000    239.53368   -9180.5926   -8267.3809   -9180.5926            0    8707.5567    24.891623    25.084666    22.864898    14276.798    8715.2085    7902.6009    9504.8607    223.14463   -933.50927   -310.45769   -6454.3592 
 4224000    241.77705   -9119.3292   -8197.5648   -9119.3292            0    9088.4499    24.922195    25.015131    22.914069    14285.363    9105.9095    8635.6615    9523.7786    471.49303   -473.55695   -1010.9198   -6304.1011 
 4225000    235.16793   -9163.7708   -8267.2034   -9163.7708            0    8077.8237    24.873244    24.800219    23.164892    14289.539    8141.6437    8981.0124    7110.8149    83.292174    104.51277    726.72813   -6583.7989 
 4226000    245.84645   -9193.4234   -8256.1446   -9193.4234            0    9439.4503    24.909215    24.933759    22.924491    14237.951    9185.9645    9622.3655    9510.0209   -103.64507    1232.8306    92.820577   -6296.0813 
 4227000    244.13299   -9163.0022   -8232.2559   -9163.0022            0    7258.6237    24.943029    25.038056    22.972861    14347.125    7400.4904    6674.8217    7700.5591    130.90424    1459.0729   -741.22923   -6713.4753 
 4228000    240.68678   -9149.8908    -8232.283   -9149.8908            0    7572.7826    24.892544    24.900535    23.136319    14340.762    7953.9603    7888.8693     6875.518   -816.59943   -465.66287    68.797582   -6648.4711 
 4229000    242.38631   -9193.2885   -8269.2014   -9193.2885            0    9108.3107    24.857349     24.88274    23.044686    14253.574    9687.8976    9047.8912    8589.1433   -686.01897    1136.8896    155.00797   -6375.8226 
 4230000    243.77624    -9175.706   -8246.3198    -9175.706            0    9068.8299    24.876008    25.065696     22.91608    14288.965    9626.0316    8222.7503    9357.7077   -545.48057   -76.831751    786.08426   -6356.4672 
 4231000    243.29976   -9151.7519   -8224.1822   -9151.7519            0    7494.4083    24.850366    25.116838    23.012917    14363.802    8609.6839    6333.2953    7540.2456    151.03632   -840.68087   -1097.6953   -6654.2437 
 4232000    240.00593   -9170.3945   -8255.3825   -9170.3945            0    7675.8409    24.800595    25.027464     23.11919    14349.989    8899.9303    7488.3663     6639.226    86.955931    -114.8939    565.65428   -6648.9835 
 4233000    248.56013   -9176.8211   -8229.1966   -9176.8211            0    8565.8112    24.874969    25.040561    22.920577    14276.842    8416.8931    8335.6359    8944.9047    1363.9297    222.55291   -164.47181   -6445.6825 
 4234000     251.5711   -9201.6544   -8242.5507   -9201.6544            0    7457.5399    24.904687    25.003543    23.015026    14331.581    7397.1711    7248.1991    7727.2496    -58.70598   -294.70905    549.29843   -6683.8398 
 4235000    244.72638   -9227.2165   -8294.2079   -9227.2165            0    7263.0046    24.953949    24.953912     23.00498     14325.17    6704.3375    7455.6503    7629.0259   -169.16806   -475.74967     54.33771   -6776.8362 
 4236000    249.65166   -9188.6889   -8236.9029   -9188.6889            0    9331.2519     24.96178    24.968158     22.85884    14246.765    9815.7487    7929.7652    10248.242   -257.83972    -359.6615   -1326.4006   -6298.1071 
 4237000    242.25318   -9211.2409   -8287.6613   -9211.2409            0    8699.6747    24.941866    24.828277    23.060428    14280.483      8365.37    8918.9591    8814.6948   -1230.7135   -697.19396    550.74398   -6475.8131 
 4238000    246.73404   -9154.8803   -8214.2176   -9154.8803            0    7293.9348    25.029537    24.930946    23.030622    14371.339    6765.4722      7799.39    7316.9423    501.22962    61.427514    129.83987   -6685.4728 
 4239000    235.82617   -9146.6728   -8247.5959   -9146.6728            0    6778.5646    25.006221    24.912313    23.091859    14385.369    5896.1002    7584.9415    6854.6522   -150.01914    1210.5313   -516.21861   -6825.4811 
 4240000    246.78848   -9160.9298   -8220.0596   -9160.9298            0    8142.1158    24.887816    24.946745    23.045671    14308.366    8575.0394    7484.7119    8366.5962   -154.05858    -442.5488   -207.52561   -6521.0211 
 4241000    240.84282   -9155.4225   -8237.2198   -9155.4225            0    9303.7711    24.819588    25.000769    22.974243    14255.719    9787.9448    8999.1832    9124.1852   -1282.0835    47.238461   -803.74575   -6302.9189 
 4242000    253.01926   -9180.9605   -8216.3357   -9180.9605            0    9178.4974    24.811363    25.045746    22.937736    14253.947    10610.837    8752.6788    8171.9767   -22.291805   -448.17961   -940.71127   -6308.3171 
 4243000    242.48207   -9189.7947   -8265.3424   -9189.7947            0    8670.1413    24.851701     25.02416    22.940562    14266.573    8399.1336    7855.4376    9755.8527    79.182623    -661.1282    18.187007   -6461.4039 
 4244000     236.0452    -9184.839    -8284.927    -9184.839            0    8300.4745    24.823852    25.135019     22.88408    14278.475    8522.6573    6898.5698    9480.1964    10.378062    1222.5935    242.01106   -6556.4618 
 4245000     243.1731   -9172.3151   -8245.2284   -9172.3151            0    9467.6907    24.836983    25.032042    22.924086    14252.371    10136.297     8548.343    9718.4322    262.64765     -603.017   -126.05062     -6277.31 
 4246000    236.87508   -9171.0125   -8267.9367   -9171.0125            0    9287.4396    24.761244    25.017602    23.020501    14260.439    10377.668     9129.866    8354.7847   -938.40033   -359.51719   -665.65241   -6336.3919 
 4247000    247.35511   -9147.5755    -8204.545   -9147.5755            0    8882.6296    24.814924    24.886413    23.126683    14281.986    8663.1868    9231.6684    8753.0335   -120.45096    895.29673   -90.126868   -6354.3989 
 4248000    242.59917   -9222.8747   -8297.9761   -9222.8747            0    8079.5428    24.923466    24.935247    22.961975    14270.243    7804.4919    8319.4347     8114.702   -869.68251     915.8015     772.1134    -6616.487 
 4249000    234.68673   -9205.5439    -8310.811   -9205.5439            0    9688.7885    25.019275    25.013744     22.71929    14218.316    8772.8819    8503.0135     11790.47   -351.13558   -813.12692    1237.3937   -6301.7481 
 4250000     252.5909    -9196.726   -8233.7343    -9196.726            0    7928.1666    24.903486    25.011765    22.939704    14288.686    8384.1438    7833.6751    7566.6808    212.31739    225.52964    1003.3588   -6581.6167 
Loop time of 542.206 on 64 procs for 250000 steps with 1920 atoms

Performance: 79.674 ns/day, 0.301 hours/ns, 461.079 timesteps/s
194.1% CPU use with 32 MPI tasks x 2 OpenMP threads

MPI task timing breakdown:
Section |  min time  |  avg time  |  max time  |%varavg| %total
---------------------------------------------------------------
Pair    | 72.726     | 75.14      | 76.793     |  11.9 | 13.86
Bond    | 0.83743    | 0.9669     | 1.0531     |   5.6 |  0.18
Kspace  | 252.33     | 255.89     | 260.3      |  10.4 | 47.20
Neigh   | 4.3263     | 4.5557     | 4.9665     |   8.7 |  0.84
Comm    | 83.2       | 88.503     | 92.186     |  24.9 | 16.32
Output  | 0.64702    | 0.64743    | 0.64888    |   0.0 |  0.12
Modify  | 91.061     | 96.065     | 100.55     |  26.9 | 17.72
Other   |            | 20.43      |            |       |  3.77

Nlocal:        60.0000 ave          64 max          57 min
Histogram: 1 5 8 0 5 7 0 5 0 1
Nghost:        3367.59 ave        3396 max        3333 min
Histogram: 1 0 7 1 2 5 8 3 2 3
Neighs:        21252.0 ave       22871 max       20114 min
Histogram: 3 4 4 6 3 5 4 2 0 1

Total # of neighbors = 680064
Ave neighs/atom = 354.20000
Ave special neighs/atom = 2.0000000
Neighbor list builds = 8778
Dangerous builds = 0

unfix		3
unfix		2
unfix		1

write_data	data.final.${pid}
write_data	data.final.0
System init for write_data ...
PPPM initialization ...
  extracting TIP4P info from pair style
  using 12-bit tables for long-range coulomb (../kspace.cpp:340)
  G vector (1/distance) = 0.37442853
  grid = 30 30 30
  stencil order = 5
  estimated absolute RMS force accuracy = 0.0032758338
  estimated relative force accuracy = 9.865076e-06
  using double precision FFTW3
  3d grid and FFT values/proc = 5400 960
Last active /omp style is kspace_style pppm/tip4p/omp
WARNING: Not all mixed pair coeffs generated from mixing. Use write_data with 'pair ij' option to store all pair coeffs. (../write_data.cpp:312)

write_restart   restart.lmp.${pid}
write_restart   restart.lmp.0
System init for write_restart ...
PPPM initialization ...
  extracting TIP4P info from pair style
  using 12-bit tables for long-range coulomb (../kspace.cpp:340)
  G vector (1/distance) = 0.37442853
  grid = 30 30 30
  stencil order = 5
  estimated absolute RMS force accuracy = 0.0032758338
  estimated relative force accuracy = 9.865076e-06
  using double precision FFTW3
  3d grid and FFT values/proc = 5400 960
Last active /omp style is kspace_style pppm/tip4p/omp
Total wall time: 0:09:02
