#include		in.partitions
include		in.temp
variable        temperature equal 136.62
variable	tempDamp equal 100.0
include		in.pressure
variable        pressure equal 9168.8
variable        pressureDamp equal 1000.0 # This is 1 ps
include		in.seed
variable        seed equal 745823

units		real
atom_style	full

read_restart	restart.lmp.${pid}
read_restart	restart.lmp.1
Reading restart file ...
  restart file = 30 Jul 2021, LAMMPS = 30 Jul 2021
  restoring atom style full from restart
  orthogonal box = (0.29153718 0.17929642 0.036405826) to (19.708464 19.820705 20.663592)
  4 by 4 by 4 MPI processor grid
  restoring pair style lj/cut/tip4p/long/omp from restart
  restoring bond style harmonic/omp from restart
  restoring angle style harmonic/omp from restart
  972 atoms
  648 bonds
  324 angles
Finding 1-2 1-3 1-4 neighbors ...
  special bond factors lj:    0        0        0       
  special bond factors coul:  0        0        0       
     2 = max # of 1-2 neighbors
     1 = max # of 1-3 neighbors
     1 = max # of 1-4 neighbors
     2 = max # of special neighbors
  special bonds CPU = 0.005 seconds
  read_restart CPU = 0.015 seconds
include 	in.setup
variable	out_freq equal 1000
variable	out_freq2 equal 10000
variable	out_freq3 equal 1000

timestep	2.0

neigh_modify    delay 7 every 1

include		in.tip4p
# This is TIP4P/Ice

# create groups ###
group ox type 2
324 atoms in group ox
group hy type 1
648 atoms in group hy

# set charges - beside manually ###
set group ox charge -1.1794
Setting atom values ...
  324 settings made for charge
set group hy charge 0.5897
Setting atom values ...
  648 settings made for charge

# ### TIP3P Potential Parameters ###
pair_style lj/cut/tip4p/long/omp 2 1 1 1 0.1577 8.5
pair_coeff 1 1*2 0.000 0.000
pair_coeff 2 2 0.21084 3.1668
bond_style  harmonic
bond_coeff  1 450 0.9572
angle_style harmonic
angle_coeff 1 55 104.52
kspace_style pppm/tip4p/omp 1.0e-5
pair_modify tail yes

thermo          ${out_freq}
thermo          1000
thermo_style    custom step temp pe etotal epair emol press lx ly lz vol pxx pyy pzz pxy pxz pyz enthalpy

restart 	${out_freq3} restart.lmp.${pid} restart2.lmp.${pid}
restart 	1000 restart.lmp.${pid} restart2.lmp.${pid}
restart 	1000 restart.lmp.1 restart2.lmp.${pid}
restart 	1000 restart.lmp.1 restart2.lmp.1


include         in.dump
dump            myDump all atom ${out_freq2} dump.water.${pid}
dump            myDump all atom 10000 dump.water.${pid}
dump            myDump all atom 10000 dump.water.1
dump            myDump2 all dcd ${out_freq2} dump.dcd
dump            myDump2 all dcd 10000 dump.dcd
dump_modify     myDump append yes
dump_modify     myDump2 append yes


variable natoms 	equal  "count(all)"                        # NUMBER ATOMS
variable H      	equal  "enthalpy/v_natoms"                 # ENTHALPY-per-atom
variable Vol      	equal  "vol/v_natoms"                 # volume-per-atom
fix AVG all 		ave/time ${out_freq} 1 ${out_freq} v_Vol v_H file vol_enthalpy.dat
fix AVG all 		ave/time 1000 1 ${out_freq} v_Vol v_H file vol_enthalpy.dat
fix AVG all 		ave/time 1000 1 1000 v_Vol v_H file vol_enthalpy.dat


timer           timeout 02:55:00 every 1000
New timer settings: style=normal  mode=nosync  timeout=02:55:00

fix 		1 all shake 1e-6 200 0 b 1 a 1
       0 = # of size 2 clusters
       0 = # of size 3 clusters
       0 = # of size 4 clusters
     324 = # of frozen angles
  find clusters CPU = 0.003 seconds
fix             2 all nph aniso ${pressure} ${pressure} ${pressureDamp}
fix             2 all nph aniso 9168.8 ${pressure} ${pressureDamp}
fix             2 all nph aniso 9168.8 9168.8 ${pressureDamp}
fix             2 all nph aniso 9168.8 9168.8 1000
fix             3 all temp/csvr ${temperature} ${temperature} ${tempDamp} ${seed}
fix             3 all temp/csvr 136.62 ${temperature} ${tempDamp} ${seed}
fix             3 all temp/csvr 136.62 136.62 ${tempDamp} ${seed}
fix             3 all temp/csvr 136.62 136.62 100 ${seed}
fix             3 all temp/csvr 136.62 136.62 100 745823


run             250000
PPPM initialization ...
  extracting TIP4P info from pair style
  using 12-bit tables for long-range coulomb (../kspace.cpp:340)
  G vector (1/distance) = 0.37262814
  grid = 24 24 24
  stencil order = 5
  estimated absolute RMS force accuracy = 0.003462445
  estimated relative force accuracy = 1.042705e-05
  using double precision FFTW3
  3d grid and FFT values/proc = 2197 216
Last active /omp style is kspace_style pppm/tip4p/omp
Neighbor list info ...
  update every 1 steps, delay 7 steps, check yes
  max neighbors/atom: 2000, page size: 100000
  master list distance cutoff = 10.8154
  ghost atom cutoff = 10.8154
  binsize = 5.4077, bins = 4 4 4
  1 neighbor lists, perpetual/occasional/extra = 1 0 0
  (1) pair lj/cut/tip4p/long/omp, perpetual
      attributes: half, newton on, omp
      pair build: half/bin/newton/omp
      stencil: half/bin/3d
      bin: standard
Per MPI rank memory allocation (min/avg/max) = 9.228 | 9.230 | 9.233 Mbytes
Step Temp PotEng TotEng E_pair E_mol Press Lx Ly Lz Volume Pxx Pyy Pzz Pxy Pxz Pyz Enthalpy 
28750000    141.10488    -4939.148   -4667.0154    -4939.148            0    8932.9461    19.416927    19.641408    20.627186    7866.7093    10995.456    7843.8851    7959.4973    701.18108    321.37247    350.33157   -3642.1573 
28751000    132.32626   -4960.0683    -4704.866   -4960.0683            0    8623.1299        19.76    19.734586    20.361053     7939.903    7820.0102    8443.7867    9605.5926   -484.49098   -277.92772   -198.08217   -3706.3478 
28752000    142.52817   -4967.2973   -4692.4197   -4967.2973            0    8119.5831    19.715824    19.824307    20.234841    7908.8394    7779.9702    7104.0446    9474.7343    219.57274   -57.407641   -606.03829   -3755.8882 
28753000    135.51518   -4961.3197   -4699.9673   -4961.3197            0    9883.7078     19.87918    19.512161    20.376435    7903.7291    8772.1119    11618.032    9260.9792    523.04003    195.04099   -317.38087   -3560.6942 
28754000    134.17359   -4971.6145   -4712.8494   -4971.6145            0    9323.4993    19.670739    19.679126    20.354573    7879.3154    10110.305    8307.2155    9552.9775    563.79966    303.46814    307.41103     -3641.47 
28755000    133.31834   -4950.6189   -4693.5033   -4950.6189            0    8534.9308    19.681817    19.702114    20.330361    7883.5728    7233.1641    9074.1552    9297.4732   -460.03182    322.93941    127.43922   -3712.2097 
28756000    137.64678   -4948.9812   -4683.5178   -4948.9812            0    9189.4144    19.592131    19.675345    20.429419    7875.1721    10000.187    8716.1719    8851.8843   -342.63649   -434.81157    532.49228   -3628.1015 
28757000    135.23085   -4957.4319   -4696.6278   -4957.4319            0    8229.7856    19.722491    19.706476    20.398743    7928.1918    6534.2073     9251.077    8904.0726   -470.22591     1218.042    202.73726   -3745.0626 
28758000    133.70354   -4950.3677   -4692.5092   -4950.3677            0    10114.338    19.709308    19.693461    20.369136    7906.1679    10947.295    9060.2402    10335.479    589.37802    21.330715   -845.24303   -3526.2922 
28759000    139.85446   -4951.4594   -4681.7383   -4951.4594            0    8595.9497    19.615992    19.581801    20.585255    7907.1353    8473.8495     9359.635    7954.3644    367.89314    -345.9869   -440.21241   -3690.4752 
28760000    133.72869   -4948.9483   -4691.0412   -4948.9483            0    8977.3724    19.551919    19.782405    20.510942    7933.3041    7807.1446    9853.8168    9271.1559    404.01194    1059.2504    858.98228   -3652.3673 
28761000    133.23404   -4957.4076   -4700.4545   -4957.4076            0    8759.6377    19.690683    19.674359    20.433673    7916.0371    7178.1948    9413.8409    9686.8773    406.62434    470.79133    -1710.729   -3689.1782 
28762000    137.72262    -4942.302   -4676.6923    -4942.302            0    7985.7961    19.744464    19.772322    20.401424    7964.5917     8046.122    7299.2674     8611.999     65.68362    486.78982    869.95506    -3749.099 
28763000    141.06423   -4944.7781   -4672.7239   -4944.7781            0    9507.5386    19.649553    19.732729    20.358504    7893.7922     7939.124    11427.701     9155.791    173.97012    1321.1605    593.77175   -3578.1888 
28764000    141.19874   -4976.3999   -4704.0862   -4976.3999            0    8544.0258    19.737949    19.878266    20.172804     7914.925    8666.8234    8073.3955    8891.8586   -601.42866   -8.8080004    615.37324   -3717.8402 
28765000    131.79688   -4957.3187   -4703.1373   -4957.3187            0    8643.2128    19.858166    19.709552    20.278533    7936.9278    6698.9579    10082.107    9148.5736    -880.1282    107.44922    888.20996   -3702.6686 
28766000    133.37425   -4948.0292   -4690.8057   -4948.0292            0    9920.8847    19.733533    19.744158    20.248956    7889.4385    9817.5239    9278.5677    10666.563   -302.71377    33.636313    780.13084    -3549.315 
28767000    139.86563   -4960.2752   -4690.5325   -4960.2752            0    9056.0861    19.713266    19.686202    20.285007    7872.1924     8312.773    9050.2322    9805.2531   -616.62817   -233.74114    -133.7534   -3650.8228 
28768000    127.10582   -4949.3709   -4704.2366   -4949.3709            0    8426.7936    19.713629    19.613932    20.407235    7890.6979    7759.0256    9038.7936    8482.5616    143.39509    556.32983   -862.67434   -3734.5003 
28769000    131.74107   -4946.7242   -4692.6504   -4946.7242            0    10805.562    19.719523     19.68415    20.222915    7849.7678    9485.2337    12152.557    10778.895    481.15867   -232.97993   -610.71548    -3455.621 
28770000    139.00516   -4963.6792    -4695.596   -4963.6792            0    9088.1136    19.728508     19.72862    20.259506    7885.3287    7821.3907    9942.8501       9500.1    291.74663   -303.48977    54.252495   -3650.4681 
28771000    132.62553   -4969.1998   -4713.4203   -4969.1998            0    8945.7504     19.66281    19.804139    20.345897    7922.7942    8727.2391    8992.5679    9117.4441   -653.52901    -650.0474     883.9952   -3679.7762 
28772000    133.94616   -4952.1492   -4693.8227   -4952.1492            0    9590.2443    19.563129    19.788159    20.348743    7877.3711    10127.549    8835.8122    9807.3713   -186.29934    827.10734    606.89988   -3592.0631 
28773000    130.20524   -4962.5668   -4711.4551   -4962.5668            0    7246.9128    19.521695    19.892455    20.443774    7939.0218     7272.276    7165.7843     7302.678    452.51647   -720.48067    1429.4925   -3872.3895 
28774000    142.63961   -4950.9176   -4675.8251   -4950.9176            0    8329.9998    19.617408     19.73277    20.470753    7924.3473    8809.0967    8995.1698    7185.7329    635.83427   -364.56079    287.23432   -3713.1397 
28775000    139.99873   -4951.1844    -4681.185   -4951.1844            0     8949.939    19.672528    19.778847    20.355454    7920.3055    9301.6124    8905.5541    8642.6505   -158.46826    -579.2305   -6.8736447   -3647.3818 
28776000    143.41265   -4953.5875   -4677.0042   -4953.5875            0    9756.6931    19.608136    19.781043    20.413489    7917.7671    11477.504    7940.6667    9851.9089    673.67912     603.0094    699.00095   -3550.3743 
28777000    144.44852   -4950.4119   -4671.8308   -4950.4119            0    9456.7414    19.585192    19.691835    20.387927    7862.9785    9837.9097    8531.3351    10000.979   -389.71091   -231.72754   -334.39238   -3587.3934 
28778000     135.5374   -4963.5737   -4702.1785   -4963.5737            0    9003.7585    19.592531    19.934231    20.194539    7887.2199    8570.1954    8541.4206    9899.6595    518.38859   -1113.9158    1118.0346    -3666.503 
28779000    137.10146   -4952.2154   -4687.8037   -4952.2154            0    8894.6242    19.585629    19.659044    20.462579    7878.8035    8131.9936    9043.4251     9508.454    447.25308     1091.477     11.27409   -3665.7735 
28780000    144.47474   -4958.6397    -4680.008   -4958.6397            0    9947.8927     19.62038    19.850567    20.158431    7851.2182    10608.029    8814.8061    10420.843    286.58066    1133.4954   -395.79494   -3540.9547 
28781000    139.94568   -4959.2127   -4689.3157   -4959.2127            0    8352.1747     19.84119    19.776616    20.315928    7971.7997    8439.5119    7292.7375    9324.2747   -802.39928    261.34155    678.88327   -3718.2875 
28782000    136.01739   -4944.8286   -4682.5076   -4944.8286            0    8839.2811    19.717049    19.839709    20.180461    7894.2034    9071.3168    7610.3721    9836.1543    256.53878    899.36513    169.15523   -3664.8512 
28783000    135.36468   -4949.0805   -4688.0183   -4949.0805            0    9284.3164    19.574191    19.791389    20.353897    7885.1084    9690.8415    8665.3371    9496.7707   -245.43284   -767.02153   -107.80476    -3620.357 
28784000    134.76494   -4961.9986    -4702.093   -4961.9986            0    10025.586    19.623566    19.757647    20.311282    7874.9985    8545.7274    10692.268    10838.764   -333.52517   -565.18625   -1235.8949   -3550.6667 
28785000     129.4207   -4975.8287     -4726.23   -4975.8287            0    8481.8628    19.701453    19.771752    20.430221    7958.2298    10252.742    7247.9226    7944.9234   -121.65527    34.266366   -370.82992   -3741.8028 
28786000    139.59529   -4974.9326   -4705.7114   -4974.9326            0    10307.101    19.573443    19.828322    20.296882    7877.3929    9047.6823    11508.402    10365.219   -486.22755    1257.9227    -596.7056   -3521.5935 
28787000    134.30968   -4950.9827   -4691.9551   -4950.9827            0    9400.1247     19.44924    19.910888    20.273685    7851.0178    9195.1805    9000.2121    10004.981   -455.94145   -1017.9152    -237.7072   -3615.6499 
28788000    137.05227   -4954.7756   -4690.4587   -4954.7756            0    9537.6715    19.711045    19.787528    20.355363    7939.2602    9572.9843    9947.2823    9092.7479   -214.10792   -488.62911    885.53412   -3586.1302 
28789000    134.88175   -4966.2642   -4706.1334   -4966.2642            0    9434.7391    19.655619    19.854875    20.209912    7887.1174    9523.9247    8764.5055    10015.787   -52.060011    767.46401   -461.84093   -3620.8976 
28790000    136.27945   -4961.2906   -4698.4642   -4961.2906            0    7771.3716    19.586096    19.788456    20.412471    7911.4368    5427.4717    9308.2795    8578.3636    166.56166   -333.94953    259.06999   -3801.8018 
28791000    140.06271   -4960.1305   -4690.0078   -4960.1305            0    9323.3174    19.525504    19.823583    20.375179     7886.528    10104.019    8632.5195    9233.4135   -650.23755    316.76653   -425.92458   -3617.6685 
28792000    133.34261   -4958.3716   -4701.2092   -4958.3716            0    8303.4242    19.654093    19.717327    20.388681    7901.1474      7311.68    8381.4242    9217.1683    372.99191    86.333826   -165.76936   -3744.4045 
28793000    138.02717   -4947.7957   -4681.5987   -4947.7957            0    9277.5468    19.547883    19.618454    20.497562    7860.7996    10101.064     9564.139    8167.4375    97.761315    200.37639    544.81016    -3618.005 
28794000    133.55015   -4972.6515   -4715.0888   -4972.6515            0    9069.4499    19.599006    19.750923    20.437233    7911.2212    10597.917    7922.6691    8687.7634    292.82819   -25.456781   -886.76949   -3668.6824 
28795000    133.89845   -4980.2359   -4722.0015   -4980.2359            0    8385.0632    19.784589     19.92785    20.195566     7962.391    7930.7452    7678.1066    9546.3378   -207.17264    664.11836    172.62309   -3748.3002 
28796000    132.79039   -4965.5878   -4709.4904   -4965.5878            0    8459.8383    19.778415    19.694277    20.346431    7925.3737     9209.889    6973.0898    9196.5359   -77.123697    1400.7401    134.32986   -3731.6731 
28797000    136.24649   -4955.8014   -4693.0386   -4955.8014            0    10363.608    19.549308    19.694385    20.410412    7858.2454    9623.4933    10341.914    11125.416   -513.24601    575.46598   -898.12083   -3505.3231 
28798000    131.33303   -4968.9301   -4715.6433   -4968.9301            0    8958.8934    19.691469    19.818017    20.335395    7935.8038    9275.6375    9011.3324    8589.7102    245.83759    330.71988    635.81344   -3678.7807 
28799000    134.60123   -4949.8225   -4690.2327   -4949.8225            0    9570.1508    19.625432     19.80292    20.328592    7900.5214    9902.1068    9186.3636    9621.9819    232.01329   -289.04949    250.11975   -3587.5504 
28800000    130.57915   -4967.2035   -4715.3707   -4967.2035            0    7657.8195    19.630222    19.771274     20.40844    7920.8114    8028.3973    7569.0979    7375.9632    134.05335    475.63083    414.63016    -3830.763 
28801000    149.71109   -4943.0679   -4654.3374   -4943.0679            0     10221.16     19.62084    19.793934    20.266778    7871.0819    9703.5693    10854.591    10105.319    341.44953    167.37839    458.32823   -3481.0336 
28802000     134.0757   -4951.9323    -4693.356   -4951.9323            0     11663.89    19.497907    19.712997    20.318201    7809.5481    12354.747      11012.4    11624.522    30.431373   -743.42869   -1365.2766   -3364.9061 
28803000      132.403   -4971.9237   -4716.5734   -4971.9237            0    9872.4375    19.822547    19.696412    20.267954    7913.2791    9377.0836    10978.093    9262.1359   -470.93216   -660.86517    706.31345   -3577.2244 
28804000    141.77921   -4957.7494   -4684.3163   -4957.7494            0    8824.4179    19.747601    19.690276    20.399926    7932.2201    6729.6067    10487.385    9256.2623    807.65049   -977.31442    588.69833   -3663.4785 
28805000    139.79044   -4961.6582   -4692.0606   -4961.6582            0    8144.7397    19.620198    19.629326    20.542405    7911.5224    6830.1776     10105.12    7498.9213   -352.90821   -10.895007    1367.6047   -3752.3088 
28806000    140.11059   -4947.0864   -4676.8713   -4947.0864            0    8084.4711     19.63888    19.723278     20.53761    7955.1015      8098.12    8907.5319    7247.7613    333.07609   -1224.5077   -1464.9568   -3738.9353 
28807000    128.03865   -4954.1842   -4707.2509   -4954.1842            0     9095.408     19.58098    19.713588    20.385308    7868.9605    8809.1426    9088.8044    9388.2769    420.62741    623.10877    1086.0678   -3663.4553 
28808000    137.87633   -4959.5795   -4693.6734   -4959.5795            0    9245.6789    19.562675    19.739798    20.432077    7890.1171    10059.147    9096.6568    8581.2326   -825.52425    253.39995    557.09923   -3629.7799 
28809000    137.05164   -4961.5584   -4697.2428   -4961.5584            0    9429.9095    19.641368    19.712817    20.326218    7870.0411    9033.5507    10062.722    9193.4554   -876.61902   -256.72244    753.24276    -3614.911 
28810000    140.27616   -4967.5016   -4696.9672   -4967.5016            0    8420.7735    19.476405    19.875956    20.398057    7896.3363    9907.8876    7189.0999    8165.3328    267.71206    -468.0724    400.90643   -3727.2312 
28811000    138.65423   -4960.8436   -4693.4373   -4960.8436            0    8969.4326    19.466609    19.979263    20.366226    7921.0058    9763.5817     8060.865    9083.8513   -157.56512    855.74875    200.21957   -3657.2907 
28812000    145.97384   -4950.7811   -4669.2583   -4950.7811            0    8351.7398    19.587217    19.757815    20.376152    7885.5831    8522.1791    9212.1273    7320.9131   -319.35266   -920.94123     846.0507    -3708.782 
28813000    146.27806   -4966.1491   -4684.0395   -4966.1491            0    8219.8393    19.560573    19.752199    20.466511    7907.5295    8736.7308    8209.0197    7713.7672   -105.01146     80.24237    30.837221   -3736.1013 
28814000    139.06545   -4958.8877   -4690.6883   -4958.8877            0    8658.5016    19.677544     19.70141    20.346699     7887.914    8752.3802     9181.496    8041.6286   -269.98626   -447.85894    529.03327   -3694.6391 
28815000    138.03037   -4969.5482    -4703.345   -4969.5482            0    8754.6828    19.609645    19.727868    20.444249    7908.9902    8816.5538    8815.7769    8631.7176    34.824987    80.919457    358.24666   -3693.5404 
28816000    141.16612   -4951.5487    -4679.298   -4951.5487            0    7760.5065     19.62892    19.720365     20.54771    7953.8021    10129.612    6049.4182    7102.4888   -669.46854   -138.47277    223.86581   -3779.0944 
28817000    137.52397   -4959.1649   -4693.9384   -4959.1649            0    9981.3901    19.449962    19.710646    20.443744    7837.5452    9788.3539    10451.113    9704.7037    157.87099    57.271345    -72.40615     -3553.04 
28818000    137.51488   -4971.3999   -4706.1909   -4971.3999            0    8204.0565    19.674387    19.806182    20.479514    7980.3444    7803.3839    8710.0651    8098.7204    219.29241    221.43306    1497.4785   -3751.3607 
28819000    137.52377    -4982.732   -4717.5059    -4982.732            0    9104.7247    19.610375    19.693196    20.473827    7906.8072    8633.9659    10718.203    7962.0047    15.633765    1102.9198   -75.999076   -3667.6157 
28820000    140.91412   -4957.3595   -4685.5948   -4957.3595            0    9900.5229    19.668477     19.63635    20.453669    7899.5568    9970.3756    10924.532    8806.6607    274.98289   -428.55887   -1293.1757   -3544.9859 
28821000    140.71766   -4960.8327   -4689.4469   -4960.8327            0    9782.2314    19.585134    19.795524    20.324464    7879.7538    10615.695    8193.7392     10537.26   -406.82859    460.90195    1365.3761   -3565.2912 
28822000    143.30815   -4938.2841   -4661.9023   -4938.2841            0    9660.3156    19.720308    19.641728    20.379451    7893.7953    9806.8128    9101.7834    10072.351    132.85821   -558.59735   -597.62907   -3549.7787 
28823000    137.25991   -4977.0931   -4712.3759   -4977.0931            0    8875.8667    19.505895    19.544676    20.654577    7874.2762    8498.6993    10401.558     7727.343   -124.35686    849.79529    47.035029   -3693.0869 
28824000    131.17312   -4964.7471   -4711.7687   -4964.7471            0    8704.1416    19.598967    19.858426    20.363511    7925.5725    7913.4177    9025.9619    9173.0452   -132.04343   -917.46043    1426.8426   -3705.6888 
28825000    131.08329   -4955.8694   -4703.0643   -4955.8694            0    9308.0624    19.438047    19.795356    20.595272    7924.7119    10183.335    9461.3771    8279.4752   -237.87598   -232.96623   -521.59194   -3627.2962 
28826000     139.4375   -4966.8756   -4697.9587   -4966.8756            0    9565.8454     19.51641    19.808427    20.421696    7894.8111    9616.0435    9868.6488     9212.844   -198.85508    1380.7154   -286.52075    -3596.569 
28827000    132.51096   -4968.3911   -4712.8325   -4968.3911            0     10049.44    19.630454     19.85072    20.214766    7877.2627    9829.4325    9835.7589    10483.127   -289.88405   -551.72201     1459.614   -3558.3349 
28828000    141.80295   -4949.0237   -4675.5447   -4949.0237            0     8682.426     19.66349    19.706343    20.426965    7915.3566    9255.3268    9698.6132     7093.338    -589.0367    391.03773    419.11031   -3673.2684 
28829000    129.58638   -4958.5194   -4708.6012   -4958.5194            0    8614.5419    19.633251    19.604183    20.611508    7933.2423    8524.7096    9030.4625    8288.4537    670.10342    1122.9411   -62.968592   -3711.9141 
28830000    138.91148   -4945.2068   -4677.3043   -4945.2068            0    10985.058    19.553229    19.727035    20.397129    7867.7283     11270.87     10907.99    10776.313   -413.67742    -479.7166    175.62756   -3416.8486 
28831000    136.85406   -4958.6611   -4694.7265   -4958.6611            0    7651.5055    19.758783    19.746416    20.374727    7949.5085    6676.3204    8369.7925    7908.4037   -683.02296   -442.32741   -99.369442    -3807.646 
28832000    134.55288   -4967.1683   -4707.6718   -4967.1683            0    9153.3174    19.573593    19.691347    20.442316    7879.0903     9560.925      9217.75    8681.2772    67.821486   -67.910472   -82.607218   -3655.8783 
28833000    141.52231   -4965.1673   -4692.2296   -4965.1673            0    9327.8646    19.587114    19.723892    20.488303    7915.3301    9501.8396    9357.7145    9124.0397      17.6683   -794.26347   -711.33826   -3615.4492 
28834000    139.02504   -4941.2951   -4673.1736   -4941.2951            0    9356.9151    19.586009    19.851459    20.359852    7916.1314    7806.4595    11436.131    8828.1552    158.91866   -5.3817783    174.70497   -3592.9303 
28835000    131.04978   -4955.7724   -4703.0318   -4955.7724            0    9343.1699     19.58239    19.802267     20.28916    7867.6435    9557.8405    9862.9321    8608.7372   -66.966773   -191.62669    876.78155   -3630.9824 
28836000    135.28725   -4963.8273   -4702.9144   -4963.8273            0    9997.4718    19.737286    19.700701    20.337137    7907.8595    9183.9986    10889.194    9919.2225   -70.255822    1025.2528   -329.28287   -3549.9258 
28837000    134.85171   -4963.6987   -4703.6258   -4963.6987            0    9013.6862    19.536743    19.754228    20.460758    7896.4874    10697.793    7478.9903    8864.2752    -184.1504   -227.87535   -509.60587   -3665.5901 
28838000    132.04812   -4950.2482   -4695.5823   -4950.2482            0    9269.6314    19.528206    19.723667    20.536985    7910.1857    9562.8063    9419.7133    8826.3747    108.86182    587.78651     272.4838   -3626.2196 
28839000    130.01883   -4974.6358   -4723.8836   -4974.6358            0    8637.5557    19.556274     19.84074    20.441678    7931.5948    8734.2448    8497.2166    8681.2056   -615.94242    510.61211    475.07492   -3724.7415 
28840000    131.56898    -4958.791   -4705.0491    -4958.791            0    8722.2191    19.643577    19.895135    20.303893    7934.9971    9904.6845    7798.5443    8463.4284   -129.57168    311.08111   -463.97423   -3695.6808 
28841000    138.62829   -4971.5723    -4704.216   -4971.5723            0    9402.8738    19.540591    19.847031    20.395821    7909.9624    11284.833    8218.0944    8705.6944    158.19082   -488.37375    638.56305   -3619.5128 
28842000    140.26661   -4970.9446   -4700.4286   -4970.9446            0    9981.7115    19.493268    19.742495    20.537469    7903.7571    11181.141    9623.0342    9140.9597    13.619279   -314.27748    -3.678783   -3549.8548 
28843000     136.4712   -4943.8621   -4680.6659   -4943.8621            0    9093.4279    19.400993    19.782447    20.538642    7882.7126    9512.0815    9435.5726    8332.6295    173.21482    760.41807    515.85539   -3635.2738 
28844000    136.89724   -4959.5061   -4695.4882   -4959.5061            0    8779.6483    19.551984    19.746123     20.44918    7894.9353    9806.6906    8770.6858    7761.5686    -741.3489    899.62182    52.697613   -3684.6036 
28845000    135.66157   -4974.2284   -4712.5936   -4974.2284            0    8908.2382    19.536553    19.813305    20.352721    7878.2066    9728.2692    8555.2171    8441.2282    191.81357    90.693901   -288.39068   -3689.0766 
28846000    137.49137     -4957.52   -4692.3564     -4957.52            0    9195.0362    19.660234    19.776667    20.360749    7916.5426    9357.2795     9340.648    8887.1811   -879.57637    643.08742   -205.24568   -3630.7466 
28847000    134.38916   -4961.8002   -4702.6194   -4961.8002            0    8413.5451     19.72662     19.95998    20.185028    7947.7118    7810.1149    7260.9022    10169.618    538.02165    1001.6641    48.497914   -3727.4119 
28848000    140.41335   -4964.0137   -4693.2148   -4964.0137            0    9437.0482    19.523071    19.789561    20.416145    7887.8393    9530.1287    10161.534    8619.4824    737.80507    45.774357   -133.07099   -3607.6141 
28849000    129.29375   -4956.6778   -4707.3239   -4956.6778            0    7543.6459    19.493734    19.887252    20.484724    7941.4524    8417.7482    6752.2172    7460.9722   -19.883272     412.9502   -469.72407   -3833.6344 
28850000    133.53104    -4950.495   -4692.9692    -4950.495            0    10020.135    19.535884    19.696957    20.403923    7851.3778    10568.472    9271.6219    10220.312    60.541543     928.9466    94.172665   -3545.6207 
28851000    130.28655   -4969.5593   -4718.2908   -4969.5593            0    8921.4227    19.535182    19.837311    20.420649    7913.5215    9036.6973    8988.2113    8739.3596   -408.73715    440.50708   -52.355946   -3688.6641 
28852000    138.45666   -4949.7653     -4682.74   -4949.7653            0    10370.001    19.543446    19.879995    20.165033    7834.5915    10780.331    9690.1624     10639.51   -478.76022    752.34092   -434.69752    -3497.869 
28853000    134.39507   -4942.4485   -4683.2563   -4942.4485            0    8258.9722    19.526484    19.810083    20.430812    7903.0727    8925.1295    7164.6689    8687.1181   -909.22115     927.3603    57.875238   -3731.3419 
28854000    132.91376    -4953.066   -4696.7307    -4953.066            0    8111.5539    19.875083    19.582922    20.435796    7953.8609    6598.0849    9402.2214    8334.3553    120.66598   -1002.9891   -818.67477   -3755.7993 
28855000    145.51115   -4952.5804   -4671.9499   -4952.5804            0    8630.6173    19.785322    19.835879    20.174468    7917.6566    8560.6409     8331.127    9000.0839    204.82871    455.26719    80.667174   -3675.3648 
28856000    128.10894   -4958.2466   -4711.1777   -4958.2466            0    8284.7213    19.531487    19.883181     20.36052    7906.9693    8685.9985    7249.4758    8918.6897   -279.08094    1798.3503    799.79168   -3755.8247 
28857000    133.26158   -4957.1438   -4700.1376   -4957.1438            0    8833.2677    19.746936    19.688165    20.388114      7926.51    9795.6461    8445.8943    8258.2627    220.58624    46.662975    492.81837   -3679.0117 
28858000    137.81572   -4958.2865   -4692.4973   -4958.2865            0    8829.4179    19.739177    19.740937    20.411996    7953.9392    10910.191    7007.9737     8570.089       294.85   -1210.7599    256.75905   -3668.2844 
28859000    138.33153   -4971.1993   -4704.4153   -4971.1993            0    8632.6007    19.754597    19.809199    20.327953    7954.7903    8116.9682    8819.4954    8961.3383   -984.56176   -689.38288    637.75152   -3702.9261 
28860000    141.22434    -4946.657    -4674.294    -4946.657            0    10295.374    19.455475    19.650093    20.488256    7832.6995    10387.378    10865.945    9632.7998    476.98791   -772.65755    126.19314   -3498.2339 
28861000    142.57266   -4954.6852   -4679.7219   -4954.6852            0    9352.5294    19.548332    19.670558    20.500276    7882.9012    10226.754     8798.721    9032.1134   -258.65944   -951.87596    1203.2276   -3604.5174 
28862000    132.99014   -4941.2515   -4684.7688   -4941.2515            0    8676.3536    19.464838    19.741022    20.532274    7889.6451     9702.848    8354.8031    7971.4096    365.72187    768.88835    527.22907   -3686.4469 
28863000    136.88815     -4973.13   -4709.1297     -4973.13            0     10480.61     19.54956    19.690225    20.459217    7875.4735    10548.276    10758.126    10135.427    98.374798    676.52764    501.71326   -3505.3719 
28864000    134.79906   -4951.6733    -4691.702   -4951.6733            0    8797.2023    19.592318    19.818736    20.393952    7918.8692     9526.609    7849.4125    9015.5855      222.475     2101.581   -228.36179   -3675.7255 
28865000    133.57187   -4952.1509   -4694.5463   -4952.1509            0    9714.8339    19.676869    19.807056    20.228954    7884.0494    10451.503    9628.9135    9064.0853   -61.416612    278.93282   -401.87581   -3577.5272 
28866000    127.26796   -4959.3658   -4713.9188   -4959.3658            0      8268.36    19.544481    19.965763    20.343734    7938.5416     9771.151    5589.9474    9443.9816    -586.0963     136.7867    -531.5988   -3756.6454 
28867000    129.52145    -4959.354    -4709.561    -4959.354            0    10522.797    19.573271    19.871538    20.259612    7879.9965    10415.552    11554.965    9597.8738   -173.63714    1504.4624    780.11621   -3500.2636 
28868000    133.34852    -4957.003   -4699.8291    -4957.003            0    10451.433    19.567316    19.849797     20.25145    7865.8099    12032.726    8943.3291    10378.243    380.95902    713.11352    277.57777   -3500.8955 
28869000    130.96845   -4957.1201   -4704.5364   -4957.1201            0    10656.324    19.539071     19.82744    20.279579    7856.5072    10459.137     10273.19    11236.644   -142.71327   -227.53542    162.97529   -3483.5444 
28870000    136.27911   -4961.0644   -4698.2387   -4961.0644            0    9652.4098    19.751963    19.681391    20.398728    7929.9258    8728.9068    11183.652    9044.6701     -23.9212   -1037.7198     1120.155   -3581.9391 
28871000    135.28753   -4982.0684   -4721.1551   -4982.0684            0    8332.8686    19.608675    19.869062    20.414023    7953.4252    8656.0585    7802.3974      8540.15    -472.5879   -117.38838   -114.90184   -3754.6044 
28872000    140.67546   -4956.6197   -4685.3152   -4956.6197            0    8662.3007    19.648964    19.767912    20.393545    7921.2403    8303.5768    8166.4386    9516.8866   -138.96785    382.15154    322.18584   -3684.6188 
28873000    138.15595   -4956.9582   -4690.5128   -4956.9582            0    9730.0076    19.549696    19.588611    20.614435    7894.3268    10097.884    10256.013    8836.1255   -218.93045    1733.7766    156.90473   -3570.2906 
28874000    134.60339   -4954.7437   -4695.1498   -4954.7437            0    10057.213    19.768584    19.632015    20.331017    7890.4096    8559.6487    10520.968    11091.021    -445.6222    363.78008    1494.1971   -3537.8308 
28875000    139.64805   -4958.3833   -4689.0603   -4958.3833            0    8503.5681    19.843616    19.735691    20.367253    7976.3758    8052.2326    8957.4014    8501.0705    34.445748    867.01322    606.62556   -3699.8635 
28876000    130.66594   -4965.8353   -4713.8351   -4965.8353            0    8696.0102    19.851148    19.470077    20.440663    7900.3854    8151.1146    8988.3045    8948.6116    899.51897    1229.0631    306.28642   -3711.8893 
28877000    136.63695    -4967.261   -4703.7451    -4967.261            0    8050.6871    19.925236    19.418915     20.48633    7926.7033    7834.1439    8470.0058    7847.9116   -392.61346    45.331004    341.93072   -3773.0629 
28878000    138.52772   -4971.7847   -4704.6224   -4971.7847            0    9703.5827    19.750259    19.792591    20.244614    7913.7979    9761.1582     9458.729    9890.8608   -134.70722   -405.41738    1077.3342    -3584.687 
28879000    140.09982   -4946.4006   -4676.2063   -4946.4006            0    9128.3492    19.811958    19.689517    20.291657    7915.5299    8419.9631    9418.8791    9546.2053    798.63892    54.780191    605.85811   -3622.4308 
28880000    129.11851   -4954.5729    -4705.557   -4954.5729            0    10751.781    19.697705    19.604334    20.226149    7810.5375    8184.2594    13095.832    10975.253   -484.31007   -242.39144   -171.01474   -3480.8358 
28881000    132.05861   -4962.4192    -4707.733   -4962.4192            0    11376.125    19.596426    19.711337    20.238231    7817.4572    12017.762    10443.289    11667.325   -32.363682    144.95834   -911.18066   -3410.7456 
28882000    143.39663   -4950.4403   -4673.8879   -4950.4403            0    9596.6903    19.574323    19.611536    20.445619     7848.716    10467.178    9761.8023    8561.0901   -390.07234    315.25054    487.63225   -3575.3982 
28883000    139.56032   -4946.2902   -4677.1364   -4946.2902            0    9681.1641    19.464486    19.690079    20.569076    7883.2481    10683.336    9435.0003    8925.1561   -550.35964    320.20644    57.284999   -3564.1018 
28884000    132.96712   -4960.9522   -4704.5139   -4960.9522            0    9913.1355    19.740174    19.697296    20.316214    7899.5137    10486.023    8725.3665    10528.017   -290.38434    1293.9736    107.23019   -3562.4582 
28885000     138.1847   -4963.7629   -4697.2621   -4963.7629            0    9218.1054    19.532538    19.625817    20.540267    7873.9475    10340.795    9339.0526    7974.4688     468.3057   -988.28148   -136.72116   -3638.7153 
28886000    140.25454   -4963.7681   -4693.2754   -4963.7681            0    9510.5041    19.660653     19.74234    20.383243     7911.701    10352.347     8820.574    9358.5914   -314.76555    949.74498   -66.998239    -3595.915 
28887000    133.04051   -4954.0851   -4697.5053   -4954.0851            0    10823.539    19.547515    19.776239    20.251379    7828.7039    9704.6132    12247.964     10518.04    124.88036    2.2868307   -248.18675   -3461.7427 
28888000    139.24132   -4971.9877   -4703.4491   -4971.9877            0    9503.3061    19.584214    19.800927    20.404075    7912.4067    8962.6321     10013.64    9533.6458   -203.47358    850.17238   -26.900859   -3606.8214 
28889000    134.30244   -4982.5647   -4723.5511   -4982.5647            0    9718.6457    19.578868    19.811662    20.422446    7921.6607    9851.0379    10101.821    9203.0782   -448.07694    100.71536    326.69077   -3600.7628 
28890000    143.40031   -4961.6613   -4685.1018   -4961.6613            0    9442.9575    19.535957    19.700643    20.423245    7860.3128    10604.154     8550.235    9174.4838   -382.19627    1060.6983    1148.3801   -3602.6121 
28891000      135.172   -4961.1835   -4700.4929   -4961.1835            0    8824.6556    19.490523    19.776806    20.490055    7898.1027    9591.5781    9568.4041    7313.9846    124.69947   -1148.0848     288.7756   -3684.0185 
28892000    136.20519   -4966.7406   -4704.0574   -4966.7406            0    8171.4933    19.915601    19.706491     20.22995      7939.58    7496.8608    8130.6429    8886.9761    238.75756   -283.13246     748.1028    -3757.875 
28893000    134.82334   -4959.7874   -4699.7692   -4959.7874            0     9679.094    19.763791     19.66273    20.292448    7885.8503    8571.5532    10829.211     9636.518   -309.05117   -328.38767     973.6979   -3586.6053 
28894000    135.43935   -4957.5368   -4696.3306   -4957.5368            0    9736.1445    19.652029    19.570149    20.487588    7879.3862    10094.357    8984.3388    10129.738    -30.92014    538.74269    539.13226   -3577.5233 
28895000    133.58146   -4955.0794   -4697.4563   -4955.0794            0    8765.0938    19.546331    19.646037    20.496514    7870.8242    7851.6218    10693.295    7750.3644     130.9287   -25.605729   -1244.7385   -3691.3296 
28896000    132.02615   -4964.0887   -4709.4652   -4964.0887            0    9444.1364    19.744578    19.757127    20.290521    7915.2537    8897.3954     8880.421    10554.593    5.9573812    255.58391    -739.1001   -3619.2732 
28897000    133.10483   -4973.7748    -4717.071   -4973.7748            0    8118.0574    19.633413    19.827209    20.372054    7930.3471    8340.9592    7156.4878    8856.7252    275.24801    1352.8223   -207.74204   -3778.1691 
28898000    127.33559   -4947.8636   -4702.2862   -4947.8636            0      9792.18    19.601647    19.809054    20.291478    7878.9795    8816.7352    10282.472    10277.333   -351.30595    118.48718    671.88307   -3577.0978 
28899000       140.57   -4953.7717   -4682.6707   -4953.7717            0     10293.67    19.511975    19.797152    20.377483    7871.4454    9943.6201    9962.9976    10974.393   -259.72805    666.95271    -155.9781   -3500.9887 
28900000    130.65722   -4945.4868   -4693.5034   -4945.4868            0     9998.507    19.557346    19.603227    20.434068    7834.1579    10760.262    10213.395    9021.8638   -211.49106   -386.20623    496.62972   -3551.1424 
28901000    143.22769   -4952.5947   -4676.3681   -4952.5947            0    9181.7626    19.667886    19.846667    20.310645    7928.0976    10340.636    7626.3856    9578.2665   -50.995651    790.25994    585.24959   -3614.7436 
28902000    142.45288   -4957.5897   -4682.8574   -4957.5897            0    9705.5185    19.674835    19.677053    20.374227    7887.7351    8060.4886    11095.926    9960.1406   -33.576573   -25.300131     46.45576   -3566.3876 
28903000    135.80776   -4960.1994   -4698.2827   -4960.1994            0    9080.0234    19.640414    19.807087    20.300764    7897.3908    9307.5653    8416.5887    9515.9162   -280.40462   -11.364804    48.852881   -3652.4879 
28904000    134.16168   -4952.4681    -4693.726   -4952.4681            0    8919.5291    19.604247    19.849131    20.262011    7884.5011    9758.9493    7282.3148    9717.3231    97.758084    122.55308    292.50453   -3668.0929 
28905000    136.13921    -4965.612    -4703.056    -4965.612            0     8339.656    19.598303    19.736974    20.454616    7912.0744    8627.6019    7783.4097    8607.9566   -202.60654      884.639    484.04964   -3740.7474 
28906000     134.0508   -4966.2817   -4707.7535   -4966.2817            0     9062.878    19.469888    19.931914    20.355573    7899.4306    9367.6665    8237.3492    9583.6184    531.95211    849.89005    -83.15615   -3663.6638 
28907000    139.65443   -4959.8621   -4690.5267   -4959.8621            0    9538.5174    19.617781    19.758541    20.283408    7862.2292    9434.6676      9315.32    9865.5645   -432.53257    407.09768   -535.22319    -3596.816 
28908000    132.85057   -4974.5878   -4718.3743   -4974.5878            0    7315.9953    19.743186    19.685595    20.372401     7917.863    5945.3421    7674.2351    8328.4087   -286.33654    36.917649   -43.463866   -3873.5677 
28909000    131.91887   -4968.6792   -4714.2626   -4968.6792            0    8559.7216     19.77329    19.691446    20.389202    7938.8347    6979.3892    9651.9611    9047.8143      15.4149    289.04877   -230.34271     -3723.22 
28910000    138.37821   -4952.9513   -4686.0773   -4952.9513            0    9813.8319    19.493016    19.693233    20.452853    7851.4517    8883.4534    11557.919    9000.1233    -255.9053    521.99383   -14.355768   -3562.3408 
28911000    132.55373   -4967.8553   -4712.2143   -4967.8553            0    8421.8305    19.754709    19.757214    20.380367    7954.4166    9113.2397    7834.7453    8317.5066    183.55171    355.10839   -851.56117   -3735.2229 
28912000    130.89673   -4950.3619   -4697.9166   -4950.3619            0    7300.3284    19.569286    19.700451    20.544978    7920.5771      9348.07    5631.6089    6921.3063   -460.07595   -514.49107    -240.6399   -3854.6301 
28913000    137.02181   -4956.9389   -4692.6808   -4956.9389            0    8711.6409    19.881293     19.39913    20.495531    7904.7122    7963.1851     10442.03    7729.7075    597.09353    978.67065    1177.5517   -3688.3843 
28914000    136.14247   -4967.8079   -4705.2457   -4967.8079            0    8962.0691    19.812795    19.664159    20.314521    7914.5769    9392.8789    9475.1941    8018.1344   -96.117987    154.61422   -965.12486     -3670.79 
28915000    132.42025    -4953.095   -4697.7114    -4953.095            0    10198.702     19.67848    19.769134    20.275229    7887.6013     9694.573    9777.2411    11124.293   -276.70787    271.09268   -107.63049   -3524.5285 
28916000    140.05845   -4954.5258   -4684.4113   -4954.5258            0    10471.386    19.708869    19.576618    20.430551    7882.7805    9486.6544    12001.581    9925.9228    386.87438   -186.95035    1085.8523    -3480.597 
28917000    143.03639   -4972.0797    -4696.222   -4972.0797            0    9307.4657    19.724104     19.68091    20.379567    7911.1097    9499.9915    9888.1071    8534.2986     91.22226    1201.5153    305.56989   -3622.3692 
28918000    143.95219   -4957.7593   -4680.1354   -4957.7593            0    9151.5806     19.52749    19.736815    20.511333    7905.2823    8672.2236    10638.943    8143.5749    369.00531   -409.68908    949.96623   -3625.0457 
28919000    142.58639   -4943.9368   -4668.9469   -4943.9368            0    10535.617    19.512493    19.660083     20.38481    7819.9645    10834.846    10266.123    10505.882    -307.2057    116.88602    1212.8204   -3467.4002 
28920000    137.79443   -4954.8303   -4689.0822   -4954.8303            0    10079.261    19.605971    19.758188    20.323518    7872.8931    9236.9892    10300.643    10700.151   -384.12557    286.62163    147.79038   -3531.8009 
28921000    142.25336   -4962.0265   -4687.6789   -4962.0265            0    8391.6244    19.746467    19.643891    20.331693    7886.6122     7715.892    8452.4146    9006.5667   -645.82537    1334.5452   -1983.7646   -3722.4898 
28922000    128.52266   -4945.2362   -4697.3695   -4945.2362            0    11011.438    19.669005    19.606029    20.387156    7861.9207    11139.985    10597.791    11296.539    185.51092   -728.74517    149.66048   -3434.8194 
28923000    128.83613   -4953.0099   -4704.5385   -4953.0099            0    9809.2239    19.632772      19.6882    20.362702    7870.8755    8012.8574    11547.727    9867.0872    19.457765   -710.75301   -373.46419    -3578.551 
28924000    136.15339   -4959.1297   -4696.5464   -4959.1297            0     9860.368    19.666407    19.787179    20.321274    7907.8758    10454.475    10183.649    8942.9802    246.05308    507.06098    836.82545   -3559.3674 
28925000    137.52299   -4970.9268   -4705.7021   -4970.9268            0    7430.8489    19.571651    19.679109     20.60852    7937.4265    5853.2886    9285.1918    7154.0664    -481.6058    1391.8379    200.90369   -3845.5128 
28926000     133.5865   -4970.8961   -4713.2633   -4970.8961            0    7433.3374    19.494466    19.943085    20.413119    7936.2081    8562.1045    6008.7716    7729.1361   -183.33216   -17.400381    337.82875    -3852.918 
28927000    136.57288   -4949.5708   -4686.1785   -4949.5708            0     10261.74    19.476185    19.803153    20.306526     7832.021    10034.716    10604.123    10146.381    29.504659   -41.614833    349.19982   -3514.0622 
28928000    138.01541   -4955.9803   -4689.8059   -4955.9803            0    9382.6806    19.456233    19.889146    20.338329    7870.2793    9672.4755     8536.292    9939.2742    99.874584     108.6765    142.45584   -3612.8623 
28929000    138.41393   -4952.7215   -4685.7786   -4952.7215            0    8854.1545    19.639171    19.775049    20.457113    7944.8385    8257.0176    9095.3857    9210.0601   -572.11619   -931.70152   -738.59257   -3659.8714 
28930000    139.24285   -4961.2609   -4692.7193   -4961.2609            0    7898.2613    19.480684    19.912404    20.508395    7955.3554    8793.3314    7733.7952    7167.6572    413.96573   -210.14923   -4.1783489   -3776.3575 
28931000    139.09515   -4966.7283   -4698.4716   -4966.7283            0    9660.8657    19.484932    19.707912    20.545304     7889.547    10666.384    9108.5051    9207.7075     557.4576   -845.82206   -772.36499   -3586.8832 
28932000    132.47256    -4957.987   -4702.5025    -4957.987            0    9014.9755     19.58576    19.712304    20.484426    7908.6364     9272.883    9079.5037      8692.54   -30.570821    360.44177    -543.7991   -3662.7211 
28933000     136.4983   -4975.5688   -4712.3204   -4975.5688            0    7233.5254    19.520102    19.893981    20.324484    7892.6587    8783.1931    4441.9546    8475.4285    -503.0357    1057.1029   -516.66231   -3879.6958 
28934000    130.20711   -4966.5221   -4715.4067   -4966.5221            0     8257.805    19.496791    19.762859    20.605542    7939.5691    8500.7692    7761.2337    8511.4121    324.62419     42.72228    263.08642   -3759.2316 
28935000    136.72402   -4951.8239   -4688.1401   -4951.8239            0    7888.9441    19.667134    19.704195    20.494516    7942.1384    8236.2966    8098.0605    7332.4751   -67.072399    568.86573    427.85815     -3774.38 
28936000    141.00943   -4956.9313   -4684.9828   -4956.9313            0     9293.355    19.638783    19.776285    20.389511    7918.9228    9849.5863    9049.8846     8980.594    416.15592   -229.53702   -574.82287   -3611.6991 
28937000    131.89122   -4949.8362   -4695.4729   -4949.8362            0    10678.108    19.554994    19.771252    20.289427    7844.4343    11397.456    9962.8267    10674.042    233.38114    1005.2138    1640.9487   -3473.8649 
28938000    138.52745   -4948.4422   -4681.2804   -4948.4422            0    10423.478    19.549001    19.719675    20.358689    7848.2735    11385.169    9870.6372    10014.627   -549.86727    444.89092   -249.90661   -3488.2194 
28939000    130.90129   -4964.6993   -4712.2451   -4964.6993            0    9566.9832    19.627827    19.813251    20.337974    7909.2564    9266.0564    9987.5834    9447.3098   -45.434311     676.2735   -154.59812    -3608.709 
28940000    140.62099   -4941.8161   -4670.6167   -4941.8161            0    11100.748    19.613016    19.733869    20.271223    7845.7883    12241.576    10367.113    10693.554   -22.478836    546.93559     525.1677   -3400.4384 
28941000    133.22063    -4955.556   -4698.6289    -4955.556            0    7373.2656     19.73795    19.738216    20.424624    7957.2685    6987.7703    8230.8839    6901.1426    512.09591   -584.95822   -763.77637   -3842.9717 
28942000    134.70562   -4951.1711     -4691.38   -4951.1711            0    8878.5749    19.690338    19.626269    20.496824    7920.9538    9214.4094    9317.6615    8103.6538    101.85946    -1.990697    1070.3236    -3665.736 
28943000    135.22441   -4956.3107    -4695.519   -4956.3107            0    8033.0875    19.594671    19.736177    20.481401    7920.6471    7239.7049    8488.1154    8371.4424    773.76645   -286.83169    104.67622   -3767.5809 
28944000    135.23499   -4947.8035   -4686.9914   -4947.8035            0    8491.5273    19.767228    19.734884    20.327739    7929.9311    7731.2656    9280.1818    8463.1344    245.82754    475.76568    2219.6115   -3704.9471 
28945000    136.00255   -4958.5696   -4696.2773   -4958.5696            0    9534.5582    19.758939     19.75157    20.265191    7908.8974    7529.8858    11130.556     9943.233   -47.240031    635.20342    66.093973   -3596.5312 
28946000    137.87364   -4969.2332   -4703.3323   -4969.2332            0    8690.1453    19.799363    19.757602    20.281792    7933.9925     8392.258    9111.1833    8566.9948   -508.08747    38.789292    537.31672    -3697.803 
28947000    135.02699    -4965.461   -4705.0501    -4965.461            0    8739.0426    19.660325    19.817533     20.39907    7947.8681    10475.821    6159.3049    9582.0022   -488.35618    917.64556    507.46399   -3692.0945 
28948000    136.51545   -4964.9399   -4701.6584   -4964.9399            0    7467.0702    19.597332    19.778322    20.516803     7952.361    9925.8548    5708.3281    6767.0278    -963.5077    660.24698   -898.97318   -3835.6498 
28949000    138.48816   -4953.1917   -4686.1056   -4953.1917            0    9554.3719    19.605746    19.722004     20.50539    7928.7085    9320.5354    9831.3531    9511.2272    -184.3425    1943.2892    -22.84895   -3581.3137 
28950000    132.53035   -4963.2451   -4707.6491   -4963.2451            0    8395.3872    19.619748    19.671804    20.554149    7932.9938    8210.9383    9016.9085    7958.3147   -17.818598   -517.45456   -136.93476   -3736.3484 
28951000    134.92142   -4964.1004   -4703.8931   -4964.1004            0    7247.1119      19.5593    19.846828    20.439069    7934.2436    7439.4521    5807.2158    8494.6677   -1071.6438   -58.092635    484.02422   -3865.3095 
28952000    138.37573   -4961.8728   -4695.0036   -4961.8728            0    9219.6095    19.639216    19.772318     20.33405    7895.9723    8974.7399    9042.4491    9641.6395   -181.41925   -1017.3502   -658.49079   -3633.3227 
28953000    131.40746   -4955.5338   -4702.1035   -4955.5338            0    9731.5641    19.536938    19.824151    20.227354    7834.1195     9900.075    9396.6412    9897.9762   -57.431814   -715.43722   -247.80397    -3590.247 
28954000     134.0165   -4968.4145   -4709.9524   -4968.4145            0    8523.1411    19.758114    19.743708     20.28461    7912.9943    9555.2016    6800.3826    9213.8392   -523.69211    1072.7474    346.38329   -3726.3571 
28955000     136.0503   -4973.7082   -4711.3238   -4973.7082            0    8682.8946    19.675001    19.891994    20.156184    7888.6267    9643.6524    6228.3279    10176.704   -345.65827    326.18714   -165.70568   -3712.3782 
28956000    137.74586   -4975.9066   -4710.2522   -4975.9066            0    8577.1134    19.506796    19.809633    20.445626    7900.6492    9815.4775    7319.8604    8596.0024   -253.40958    443.22245   -259.09149   -3721.9726 
28957000    144.81765   -4980.8427   -4701.5496   -4980.8427            0    7519.3991    19.671458    19.730039    20.416755    7924.1227    7278.7095    7250.6488    8028.8389   -725.04724    857.79072    344.52191   -3832.5688 
28958000    132.93422   -4945.9772   -4689.6024   -4945.9772            0    8479.7087    19.526838    19.742062    20.418335    7871.2693    8457.7667    8606.8092    8374.5502    52.993653    647.56438    1160.3282   -3716.1794 
28959000    141.98695   -4972.3936   -4698.5598   -4972.3936            0    8396.2397    19.599438    19.903161    20.265797    7905.5003    8489.4672     7931.973    8767.2791    446.88738    577.43588    252.80607    -3730.527 
28960000    141.52769   -4955.6909   -4682.7428   -4955.6909            0    8767.2443    19.669933    19.722444    20.418369    7921.0847    7955.9516    9047.3833     9298.398    480.57376    1060.3431   -1548.4945   -3669.9429 
28961000    136.39545   -4959.1169   -4696.0668   -4959.1169            0    8741.7052     19.60479    19.662367    20.514654    7907.9185    8190.5075    9067.4813    8967.1267     173.8446    669.00619   -179.08996   -3687.8957 
28962000    135.32465    -4956.718    -4695.733    -4956.718            0    8947.6305    19.585847    19.776948    20.418337    7909.0078     10118.99    8184.3698    8539.5318    30.606969   -622.59523    932.39938   -3663.6707 
28963000    150.01116    -4965.697   -4676.3878    -4965.697            0    10163.192    19.548762    19.557929    20.546388     7855.568    11504.752    10650.999    8333.8253    258.15699   -266.70342   -877.38022   -3512.0376 
28964000    136.12569   -4949.6915   -4687.1617   -4949.6915            0      9689.91    19.444474    19.745968    20.474395    7861.1433    9419.1526    10149.986    9500.5911   -223.11634    1247.7209    1010.7604   -3576.2454 
28965000    132.67176   -4972.0245   -4716.1558   -4972.0245            0    10446.489    19.455589    19.832139    20.369685      7859.56    10741.619     10315.69    10282.158    697.90251    99.285407    217.10424   -3518.7414 
28966000    136.77497   -4967.6411   -4703.8591   -4967.6411            0    10159.692    19.579695    19.823993    20.350853    7899.1375    11343.891    9406.2321    9728.9526   -276.49563    127.65883   -168.61383   -3533.4543 
28967000    134.02185   -4980.4672   -4721.9948   -4980.4672            0    10214.823     19.57081    19.839067    20.386297    7915.3187    11069.373    8330.0224    11245.073   -290.18085   -295.21022   -1975.4213   -3542.8282 
28968000    141.66834   -4961.4548   -4688.2355   -4961.4548            0     9201.711    19.663785     19.68138    20.432403    7907.5525    9589.9005    9877.3202    8137.9122    40.028295    855.63648    124.99716   -3627.0616 
28969000    136.80625   -4952.7013   -4688.8589   -4952.7013            0    9737.3054    19.586473     19.63406     20.53739    7897.8994    8371.2021    11695.822    9144.8922   -337.82211   -312.08312   -177.97841   -3567.2892 
28970000     135.2931   -4967.4741     -4706.55   -4967.4741            0    10114.561    19.430189    19.807197    20.415416    7857.0276    12107.857    8269.6624    9966.1629   -193.00217    1358.1699    420.51537   -3547.5559 
28971000    135.62282   -4966.1958   -4704.6357   -4966.1958            0    8405.5356     19.56817    19.684746    20.605107    7936.9729    9756.4646    7682.5015    7777.6408   -593.01004    753.74877    237.34506   -3731.6731 
28972000    134.78005   -4966.1212   -4706.1866   -4966.1212            0    8848.6387    19.514511    19.818308    20.366075    7876.4692    8582.7251    8860.1533    9103.0378   -380.63772    366.86685   -108.00971   -3689.7415 
28973000    134.72369   -4968.5835   -4708.7575   -4968.5835            0     8572.856     19.60198    19.793147     20.43271    7927.5828    9210.9819    7798.5644    8709.0217    138.80809    89.727674   -232.43165   -3717.6011 
28974000    137.71408   -4966.5208   -4700.9276   -4966.5208            0    8207.2705    19.647451    19.661034    20.527348    7929.4932    7758.3515    8942.6947    7920.7655   -366.77697    393.00204    -366.3891   -3751.8099 
28975000    138.01443   -4976.9128   -4710.7404   -4976.9128            0    8459.4138    19.648791    19.767619    20.390462    7919.8557    7153.0419    8924.0776    9301.1218    518.38294   -602.20087    612.21946   -3733.6529 
28976000    142.87656   -4969.7708   -4694.2214   -4969.7708            0    8913.5072    19.718135    19.861734    20.174412    7901.0331    9061.8496    7471.1315    10207.541     521.1185    440.90578   -208.98139   -3667.1316 
28977000     142.6318   -4945.5018   -4670.4244   -4945.5018            0    7968.6848    19.742841    19.991007    20.194305     7970.274    7295.3943    7609.7242    9000.9358   -30.012696   -1121.7416    -272.4241   -3744.1582 
28978000    145.66637   -4965.6687   -4684.7389   -4965.6687            0    7787.0138    19.701817    19.866889    20.262048    7930.8454    7228.3196    7447.7305    8684.9912   -226.67469    550.16869   -476.94258   -3784.0676 
28979000    134.18741   -4941.6174   -4682.8256   -4941.6174            0    9910.9704    19.529533    19.697133    20.415643    7853.4042    10977.401    9273.2419    9482.2687    543.05227   -173.66156    1470.9971   -3547.6841 
28980000    145.12675   -4960.0807   -4680.1916   -4960.0807            0    9362.3028    19.669611    19.770767    20.387591    7928.3936    9992.3339    8512.1707    9582.4038    42.290906   -748.49041    455.49195    -3597.652 
28981000    138.77709   -4955.3583    -4687.715   -4955.3583            0    9365.1922    19.640408    19.681966    20.448156     7904.477    10620.246    8493.6341    8981.6963   -157.87519   -845.85583    861.84756    -3608.108 
28982000    139.95131   -4954.9381   -4685.0302   -4954.9381            0    10023.939    19.626455    19.610317    20.395677    7849.9084    10326.692     10678.01    9067.1161   -39.390572    474.17881    397.76968   -3537.4609 
28983000    135.19499    -4961.565   -4700.8301    -4961.565            0    8846.4996    19.354944    19.751185    20.618589    7882.1377    8803.1658    9103.9748    8632.3583   -7.9675963   -590.91422   -1079.7923   -3683.8994 
28984000    138.62438   -4952.2935   -4684.9447   -4952.2935            0    9868.5281    19.584286    19.679036    20.481834    7893.6958    9194.0801    11562.503     8849.001   -415.86205    65.490212    1645.7607   -3548.8654 
28985000    128.42162   -4957.2475   -4709.5756   -4957.2475            0    9193.0434    19.648702    19.666386    20.400998    7883.3325    9300.7058    9411.3825    8867.0418    58.565751    14.785409    1067.0663   -3652.6485 
28986000     131.0928   -4968.2366   -4715.4131   -4968.2366            0    9464.1485    19.742834    19.788989     20.39178    7966.8789    8095.5333    10475.511    9821.4015    79.859645    1390.7405    869.52847   -3615.7855 
28987000    133.83675   -4954.4096   -4696.2942   -4954.4096            0    8670.5851    19.671194    19.701825    20.384903    7900.3411    8857.7148    7774.0832    9379.9574   -235.98877   -401.00957   -603.30849   -3697.2835 
28988000    143.05867   -4961.7695   -4685.8688   -4961.7695            0    9858.9798    19.578328    19.756856    20.353539    7872.8755    9935.3707    9384.3329    10257.236   -176.38801   -28.402074    455.16339   -3553.8823 
28989000    134.18681    -4954.921   -4696.1305    -4954.921            0    9197.1663    19.448326    19.887983    20.401569    7891.0816    11401.734     7821.307    8368.4577   -586.43104   -571.03337    139.30747   -3637.6899 
28990000    137.40329   -4950.2046   -4685.2109   -4950.2046            0    9659.1423    19.509674     19.61186    20.487834    7839.0755    9251.2573    10629.677    9096.4928   -105.48461    616.12077    269.23368   -3580.9306 
28991000    134.93036   -4973.5038   -4713.2793   -4973.5038            0    8918.2321    19.719062    19.840713    20.310178     7946.159     8660.128     8440.764    9653.8044   -338.56229    2030.3213    270.00749   -3679.7759 
28992000    136.31768   -4957.4889   -4694.5888   -4957.4889            0    9574.3263    19.587436    19.683824    20.421558    7873.6466    9234.0955    9873.3875    9615.4959   -370.10332     562.5875    220.27469   -3595.1779 
28993000     136.9074   -4951.8491   -4687.8117   -4951.8491            0    8170.3655     19.59467     19.77161    20.413267    7908.4704    6898.0264    10145.542    7467.5275    27.847163   -620.67753   -321.04692   -3745.4668 
28994000    134.60508   -4948.1933    -4688.596   -4948.1933            0    8335.8385    19.572787    19.739675    20.471861    7909.5177    10464.499    6278.9708    8264.0456    128.20005    201.91498    420.94936   -3727.0387 
28995000    142.24943   -4952.1655   -4677.8255   -4952.1655            0    9387.1466    19.598113    19.794764    20.433932    7927.1399    8722.8013    10348.119    9090.5197   -608.62222   -539.88172    187.15443   -3592.5849 
28996000    141.08242   -4955.8941   -4683.8048   -4955.8941            0    9920.7824     19.54641    19.775863    20.419212    7892.9878    9604.6017     10770.38    9387.3656     215.0182   -884.33657   -47.977878   -3541.8123 
28997000     136.0819   -4958.9956   -4696.5502   -4958.9956            0    9281.5645    19.687999    19.759624     20.26837    7884.9525    8971.9002    9038.4898    9834.3035    459.24253    615.91538    555.39467   -3629.2265 
28998000    137.49959   -4948.9423   -4683.7628   -4948.9423            0    8991.2331    19.685599    19.720968    20.344758     7898.223    8870.2463    8401.6493    9701.8038   -259.47736   -306.22322    86.178156   -3648.0853 
28999000    131.88531   -4958.8312   -4704.4793   -4958.8312            0    10504.738    19.563047    19.827547    20.256827    7857.3648    10803.567    10173.141    10537.505   -408.73296    205.63665    1806.6298   -3500.7246 
29000000     143.6417   -4955.1386   -4678.1135   -4955.1386            0    8657.2303    19.441854    19.750586    20.655354    7931.4083    9788.0232    7823.5329    8360.1348    116.21593     16.30144   -230.30534    -3676.719 
Loop time of 347.315 on 64 procs for 250000 steps with 972 atoms

Performance: 124.383 ns/day, 0.193 hours/ns, 719.808 timesteps/s
99.1% CPU use with 64 MPI tasks x 1 OpenMP threads

MPI task timing breakdown:
Section |  min time  |  avg time  |  max time  |%varavg| %total
---------------------------------------------------------------
Pair    | 19.454     | 28.74      | 39.1       |  85.4 |  8.27
Bond    | 0.25778    | 0.27608    | 0.28951    |   1.0 |  0.08
Kspace  | 133.43     | 143.49     | 153.35     |  38.8 | 41.31
Neigh   | 1.024      | 1.0365     | 1.05       |   0.6 |  0.30
Comm    | 83.629     | 84.508     | 85.644     |   5.5 | 24.33
Output  | 0.52135    | 0.52268    | 0.52424    |   0.0 |  0.15
Modify  | 82.727     | 83.729     | 84.533     |   4.7 | 24.11
Other   |            | 5.011      |            |       |  1.44

Nlocal:        15.1875 ave          20 max          11 min
Histogram: 1 6 7 10 13 8 10 7 1 1
Nghost:        2351.11 ave        2383 max        2329 min
Histogram: 2 9 6 14 14 9 4 3 0 3
Neighs:        4942.34 ave        7389 max        3392 min
Histogram: 9 4 8 12 13 7 8 2 0 1

Total # of neighbors = 316310
Ave neighs/atom = 325.42181
Ave special neighs/atom = 2.0000000
Neighbor list builds = 2921
Dangerous builds = 0

unfix		3
unfix		2
unfix		1

write_data	data.final.${pid}
write_data	data.final.1
System init for write_data ...
PPPM initialization ...
  extracting TIP4P info from pair style
  using 12-bit tables for long-range coulomb (../kspace.cpp:340)
  G vector (1/distance) = 0.37371164
  grid = 24 24 25
  stencil order = 5
  estimated absolute RMS force accuracy = 0.0032518947
  estimated relative force accuracy = 9.7929844e-06
  using double precision FFTW3
  3d grid and FFT values/proc = 2366 288
Last active /omp style is kspace_style pppm/tip4p/omp
WARNING: Not all mixed pair coeffs generated from mixing. Use write_data with 'pair ij' option to store all pair coeffs. (../write_data.cpp:312)

write_restart   restart.lmp.${pid}
write_restart   restart.lmp.1
System init for write_restart ...
PPPM initialization ...
  extracting TIP4P info from pair style
  using 12-bit tables for long-range coulomb (../kspace.cpp:340)
  G vector (1/distance) = 0.37371164
  grid = 24 24 25
  stencil order = 5
  estimated absolute RMS force accuracy = 0.0032518947
  estimated relative force accuracy = 9.7929844e-06
  using double precision FFTW3
  3d grid and FFT values/proc = 2366 288
Last active /omp style is kspace_style pppm/tip4p/omp
Total wall time: 0:05:47
