#include		in.partitions
include		in.temp
variable        temperature equal 273.26
variable	tempDamp equal 100.0
include		in.pressure
variable        pressure equal -500.0
variable        pressureDamp equal 1000.0 # This is 1 ps
include		in.seed
variable        seed equal 745823

units		real
atom_style	full
#include		in.box
read_restart	restart.lmp.${pid}
read_restart	restart.lmp.0
Reading restart file ...
  restart file = 30 Jul 2021, LAMMPS = 30 Jul 2021
  restoring atom style full from restart
  orthogonal box = (0.063263360 0.060928363 -0.18583557) to (18.144309 23.568249 22.399031)
  2 by 4 by 2 MPI processor grid
  restoring pair style lj/cut/tip4p/long/omp from restart
  restoring bond style harmonic/omp from restart
  restoring angle style harmonic/omp from restart
  864 atoms
  576 bonds
  288 angles
Finding 1-2 1-3 1-4 neighbors ...
  special bond factors lj:    0        0        0       
  special bond factors coul:  0        0        0       
     2 = max # of 1-2 neighbors
     1 = max # of 1-3 neighbors
     1 = max # of 1-4 neighbors
     2 = max # of special neighbors
  special bonds CPU = 0.001 seconds
  read_restart CPU = 0.005 seconds
include 	in.setup
variable	out_freq equal 1000
variable	out_freq2 equal 10000
variable	out_freq3 equal 1000

timestep	2.0

neigh_modify    delay 7 every 1

include		in.tip4p
# This is TIP4P/Ice

# create groups ###
group ox type 2
288 atoms in group ox
group hy type 1
576 atoms in group hy

# set charges - beside manually ###
set group ox charge -1.1794
Setting atom values ...
  288 settings made for charge
set group hy charge 0.5897
Setting atom values ...
  576 settings made for charge

# ### TIP3P Potential Parameters ###
pair_style lj/cut/tip4p/long/omp 2 1 1 1 0.1577 8.5
pair_coeff 1 1*2 0.000 0.000
pair_coeff 2 2 0.21084 3.1668
bond_style  harmonic
bond_coeff  1 450 0.9572
angle_style harmonic
angle_coeff 1 55 104.52
kspace_style pppm/tip4p/omp 1.0e-5
pair_modify tail yes

thermo          ${out_freq}
thermo          1000
thermo_style    custom step temp pe etotal epair emol press lx ly lz vol pxx pyy pzz pxy pxz pyz enthalpy

restart 	${out_freq3} restart.lmp.${pid} restart2.lmp.${pid}
restart 	1000 restart.lmp.${pid} restart2.lmp.${pid}
restart 	1000 restart.lmp.0 restart2.lmp.${pid}
restart 	1000 restart.lmp.0 restart2.lmp.0


include         in.dump
dump            myDump all atom ${out_freq2} dump.water.${pid}
dump            myDump all atom 10000 dump.water.${pid}
dump            myDump all atom 10000 dump.water.0
dump            myDump2 all dcd ${out_freq2} dump.dcd
dump            myDump2 all dcd 10000 dump.dcd
dump_modify     myDump append yes
dump_modify     myDump2 append yes


variable natoms 	equal  "count(all)"                        # NUMBER ATOMS
variable H      	equal  "enthalpy/v_natoms"                 # ENTHALPY-per-atom
variable Vol      	equal  "vol/v_natoms"                 # volume-per-atom
fix AVG all 		ave/time ${out_freq} 1 ${out_freq} v_Vol v_H file vol_enthalpy.dat
fix AVG all 		ave/time 1000 1 ${out_freq} v_Vol v_H file vol_enthalpy.dat
fix AVG all 		ave/time 1000 1 1000 v_Vol v_H file vol_enthalpy.dat


timer           timeout 23:50:00 every 1000
New timer settings: style=normal  mode=nosync  timeout=23:50:00

fix 		1 all shake 1e-6 200 0 b 1 a 1
       0 = # of size 2 clusters
       0 = # of size 3 clusters
       0 = # of size 4 clusters
     288 = # of frozen angles
  find clusters CPU = 0.000 seconds
fix             2 all nph aniso ${pressure} ${pressure} ${pressureDamp}
fix             2 all nph aniso -500 ${pressure} ${pressureDamp}
fix             2 all nph aniso -500 -500 ${pressureDamp}
fix             2 all nph aniso -500 -500 1000
fix             3 all temp/csvr ${temperature} ${temperature} ${tempDamp} ${seed}
fix             3 all temp/csvr 273.26 ${temperature} ${tempDamp} ${seed}
fix             3 all temp/csvr 273.26 273.26 ${tempDamp} ${seed}
fix             3 all temp/csvr 273.26 273.26 100 ${seed}
fix             3 all temp/csvr 273.26 273.26 100 745823


run             250000
PPPM initialization ...
  extracting TIP4P info from pair style
  using 12-bit tables for long-range coulomb (../kspace.cpp:340)
  G vector (1/distance) = 0.37329793
  grid = 24 27 27
  stencil order = 5
  estimated absolute RMS force accuracy = 0.0028468103
  estimated relative force accuracy = 8.5730848e-06
  using double precision FFTW3
  3d grid and FFT values/proc = 6615 1296
Last active /omp style is kspace_style pppm/tip4p/omp
Neighbor list info ...
  update every 1 steps, delay 7 steps, check yes
  max neighbors/atom: 2000, page size: 100000
  master list distance cutoff = 10.8154
  ghost atom cutoff = 10.8154
  binsize = 5.4077, bins = 4 5 5
  1 neighbor lists, perpetual/occasional/extra = 1 0 0
  (1) pair lj/cut/tip4p/long/omp, perpetual
      attributes: half, newton on, omp
      pair build: half/bin/newton/omp
      stencil: half/bin/3d
      bin: standard
Per MPI rank memory allocation (min/avg/max) = 12.26 | 12.29 | 12.31 Mbytes
Step Temp PotEng TotEng E_pair E_mol Press Lx Ly Lz Volume Pxx Pyy Pzz Pxy Pxz Pyz Enthalpy 
 2250000    277.27106    -4158.783   -3683.5499    -4158.783            0   -529.31983    18.081046    23.507321    22.584867    9599.4029    -801.9116   -855.04744    68.999557   -80.305282   -792.82064    -837.0548   -3757.6533 
 2251000    267.06477   -4172.9087   -3715.1688   -4172.9087            0   -1140.1757    18.434294    23.813139    22.039589    9674.9037    -1997.783   -2178.6406    755.89668   -944.25542    611.29954   -417.78495   -3876.0459 
 2252000    268.03097   -4181.7711   -3722.3752   -4181.7711            0   -402.08079    18.222718    23.617599    22.226959    9565.9685     31.73292   -714.45996   -523.51532   -176.41815   -851.09654    169.34806   -3778.4694 
 2253000    284.07689   -4215.1323   -3728.2342   -4215.1323            0   -896.84223    18.172492    23.356629    22.515266    9556.5635   -2033.8242    841.76746   -1498.4699   -829.77777    471.05778    81.655368   -3853.2295 
 2254000    245.89379   -4188.7534   -3767.2998   -4188.7534            0   -16.206279    18.228502    23.794877    21.975769    9531.8789    449.70381   -601.82285    103.50021    152.37008   -182.12062    427.98322   -3769.5527 
 2255000    272.07853   -4169.1281   -3702.7948   -4169.1281            0   -1282.7063    18.122262    23.556907    22.564718    9632.9784    18.600014   -1455.9604   -2410.7586    396.88792   -525.60019    75.011076   -3882.9985 
 2256000    283.44242   -4195.2183   -3709.4077   -4195.2183            0     89.93211    18.167843    23.617293    22.182782    9518.0831    250.62337   -640.51802    659.69098   -28.749984   -742.69043   -69.471007   -3696.9241 
 2257000     265.7885   -4180.0602   -3724.5078   -4180.0602            0   -168.01958    18.226166    23.812768    21.924706    9515.6611   -2422.6194     1004.206    914.35466    18.756688    116.31309   -71.478546   -3747.8249 
 2258000    278.44947   -4179.4428     -3702.19   -4179.4428            0   -1366.3905    18.225144    23.624571    22.485871    9681.5437   -679.76126   -2818.4295   -600.98058    177.32596    744.21035    572.63118    -3895.118 
 2259000    284.49054   -4171.4029   -3683.7959   -4171.4029            0   -1194.2872    18.299417    23.814256    22.266614     9703.501    -1015.626   -2203.6372   -363.59836    640.99115   -626.81365    7.3177871   -3852.8061 
 2260000    280.38787   -4189.6014   -3709.0262   -4189.6014            0   -540.85297    18.143543    24.034665    21.945227    9569.7424   -112.90757   -2103.1609    593.50951   -1163.3275   -94.156601   -225.30519   -3784.5103 
 2261000    267.48044   -4182.0534   -3723.6011   -4182.0534            0   -788.28236    18.086131    23.671478    22.400645    9590.2867   -1406.4738     444.5838   -1402.9571    976.11708    54.083732   -783.29415   -3833.8538 
 2262000    286.29756    -4158.784   -3668.0798    -4158.784            0    161.30394    18.260931     23.52465    22.337009    9595.5773   -1112.7359   -258.68355    1855.3313    755.68028    86.238689   -70.788662   -3645.5066 
 2263000     275.2798   -4159.1976   -3687.3774   -4159.1976            0   -537.60475    18.278758     23.50192    22.135843    9509.2461   -1301.8682   -1282.8595    971.91351    236.62486    384.93919   -280.06962   -3761.9339 
 2264000    260.44701   -4193.4846   -3747.0874   -4193.4846            0   -519.28693    18.148243    23.401525     22.52698    9567.1308    972.43324    616.76162   -3147.0557   -491.84949    -197.1325   -688.93034   -3819.5418 
 2265000    278.60484     -4189.13   -3711.6108     -4189.13            0   -1148.2591    18.264371    23.817016    22.221744    9666.5213    759.91208    -1274.047   -2930.6424    636.49282    585.88066    -534.5957   -3873.4882 
 2266000    274.53602   -4194.7974    -3724.252   -4194.7974            0    503.91187    18.047152    23.525661      22.2557     9449.129     312.4539    704.14972    495.13197   -724.38713   -128.85087    -7.046013     -3654.81 
 2267000    280.29496   -4198.8181   -3718.4021   -4198.8181            0   -168.94918    18.265424    23.491584    22.098647    9482.1701   -1162.6811   -776.05972    1431.8933   -83.574313    654.19932    15.783629   -3741.7657 
 2268000    268.85233    -4217.935   -3757.1313    -4217.935            0    598.78364    18.255008     23.54815    22.160311    9526.0901    1210.6748    509.62909    76.047038   -1012.4047    219.47668    970.87361   -3673.9434 
 2269000    269.13149    -4186.817   -3725.5348    -4186.817            0    64.945689    18.120575    23.382237    22.442631    9508.9333    1591.9671   -890.03742   -507.09261    100.73168   -248.09149   -881.75241   -3716.5283 
 2270000    268.22842   -4214.1586   -3754.4243   -4214.1586            0   -187.82693    18.277595    23.921161    21.855216    9555.5656   -1163.0517   -1175.6767    1775.2476   -465.10976    480.81589    -303.8804   -3780.5995 
 2271000    263.00093   -4195.1254   -3744.3509   -4195.1254            0    -963.3268    18.125935    23.709636    22.327598    9595.4933   -2034.8169   -310.60984    -544.5537   -783.65224    144.58549   -914.37222   -3879.1592 
 2272000    282.00287   -4186.4128   -3703.0695   -4186.4128            0     586.8206    18.117433    23.530217      22.2997    9506.5211    1397.1166    876.14651   -512.80127    174.69092   -495.34127   -612.50314   -3621.7111 
 2273000    260.56727   -4198.8454    -3752.242   -4198.8454            0   -785.12182    18.339076    23.574077    22.112874    9559.9879   -637.20011   -439.97899   -1278.1863   -199.01279    433.36661    120.64147   -3861.7057 
 2274000    281.98478   -4140.8575   -3657.5452   -4140.8575            0   -828.31917    18.214316    23.435219    22.611843    9652.0115   -623.04274   -880.78194   -981.13281   -906.47339    505.23435    745.66936   -3774.1433 
 2275000    264.91936   -4161.1342   -3707.0715   -4161.1342            0   -998.18789     18.16657    23.813341    22.249761    9625.3963    7.4274663    -1834.246   -1167.7451    1044.1913   -57.978928    -106.6623   -3847.1937 
 2276000    275.71101   -4157.2185   -3684.6593   -4157.2185            0    1180.5156    18.004889    23.733215    22.114233    9449.7195    1870.0691    -271.9159    1943.3936    -34.77308   -711.29964    95.743425   -3521.9671 
 2277000    283.20521   -4191.5352   -3706.1312   -4191.5352            0    381.53587    18.173696    23.414642    22.359719    9514.7445    1168.7412    1361.9914   -1386.1249    460.45513    393.83435    299.64309   -3653.1882 
 2278000    268.85192   -4204.9731   -3744.1701   -4204.9731            0   -889.60412    18.431613    23.495927    22.192272    9610.7593   -2528.2474    339.38024    -479.9452    7.1347532    544.53271    212.09501   -3868.8597 
 2279000    266.13364   -4214.9773   -3758.8333   -4214.9773            0   -1161.8134    18.191389    23.556251    22.305369    9558.3173   -1686.5628   -819.28552   -979.59192   -1210.5001   -45.582853    869.26891   -3920.7881 
 2280000    289.71875   -4193.4946   -3696.9266   -4193.4946            0   -106.90003    18.105512    23.652206    22.192912    9503.7883   -367.76116    1043.3385   -996.27742   -1258.0212    761.07608    -735.1047   -3711.7433 
 2281000    275.84577   -4162.9704   -3690.1802   -4162.9704            0     53.56469    18.179974    23.651679    22.252236    9568.1698    -998.3192    1216.7166   -57.703338    635.88262    47.795362   -176.83688   -3682.7057 
 2282000    265.15682   -4151.6892   -3697.2195   -4151.6892            0    -1758.697    18.456044    23.685454    22.294959    9746.0135   -1831.1357   -1316.4954     -2128.46    966.17163   -145.47212    181.84373    -3947.193 
 2283000    279.16466   -4186.3801   -3707.9014   -4186.3801            0   -557.20615    18.384375    23.317125    22.294027    9556.7978   -1190.9916    202.83687   -683.46375    -449.0961    68.462605   -974.94445   -3785.5626 
 2284000    264.92354   -4206.6976   -3752.6277   -4206.6976            0     292.9737    18.198652    23.526371    22.173498    9493.5439   -299.59645    1347.4966   -168.97902   -69.795534   -204.75049    454.56066   -3712.0644 
 2285000    266.79297   -4223.7202   -3766.4462   -4223.7202            0    861.24576    18.041556    23.657352    22.229888    9488.0595    932.16103    641.39896    1010.1773   -326.40651   -186.25267    488.15773   -3647.2725 
 2286000    252.00446   -4184.7851   -3752.8581   -4184.7851            0   -653.39988    18.159336    23.687045    22.211076    9553.8945    38.622825   -450.40313   -1548.4193    353.31819   -56.272961    392.16734   -3843.8988 
 2287000    280.26684   -4197.6257    -3717.258   -4197.6257            0   -1639.8253    18.263069    23.672195    22.259927    9623.5659   -1944.6538   -1225.4676   -1749.3545    29.161203   -166.97796    487.89818   -3947.4072 
 2288000    273.92269   -4188.2316   -3718.7375   -4188.2316            0   -810.30067    18.424831     23.49275    22.134957     9581.115    -844.9268   -173.96749   -1412.0077    652.57642    134.33143   -279.94795   -3831.9614 
 2289000    277.05912   -4198.0588    -3723.189   -4198.0588            0    184.61001    18.080465    23.477534    22.372596    9496.8251    1409.1619    336.41174   -1191.7436   -164.50903   -81.531384    782.05323   -3697.6202 
 2290000    273.43049   -4203.8004   -3735.1499   -4203.8004            0   -266.68365    18.098357      23.7012    22.175934    9512.4285     704.3028   -198.23807   -1306.1157    624.83848     291.3663   -656.76277   -3772.1467 
 2291000    266.95223   -4190.4283   -3732.8813   -4190.4283            0   -410.89844    18.014084    23.760982    22.398649    9587.3458    497.22462   -360.52158   -1369.3984    938.55707   -462.81788    52.293228   -3790.3338 
 2292000    268.86198   -4194.6806   -3733.8604   -4194.6806            0   -1065.0033    18.278031    23.492042    22.425628    9629.3013   -2261.5277      534.091   -1467.5732   -94.098917   -275.89593   -483.66488   -3883.4225 
 2293000    288.22576   -4197.7231    -3703.714   -4197.7231            0    464.70279    18.424814    23.590768    21.856291    9499.9574     613.0819    620.32699    160.69948   -662.06207    47.219893     739.5853   -3639.3307 
 2294000    288.85656   -4214.3693    -3719.279   -4214.3693            0   -848.18061    18.201609    23.410398     22.43562    9559.9732   -1129.8118   -48.286868   -1366.4432   -443.03923    399.90317    184.59174   -3837.5344 
 2295000    266.25085   -4235.6769    -3779.332   -4235.6769            0    130.05783      18.1222    23.725858    22.169537    9532.1194   -278.41082   -494.48547    1163.0698    93.070299    586.86125    239.35603   -3761.2519 
 2296000    275.73871   -4180.4041   -3707.7974   -4180.4041            0    -354.9386    17.987159    23.907499    22.268104    9575.9077    1421.5958    123.55006   -2609.9616   -557.12084   -486.17661    1331.9449   -3757.3662 
 2297000    260.53902   -4187.9686   -3741.4136   -4187.9686            0    394.22406    18.226328    23.332485    22.380566    9517.6832   -338.69215    1606.7056   -85.341218   -620.53135    602.41633    382.24519   -3686.6931 
 2298000    267.44186   -4174.0492    -3715.663   -4174.0492            0   -724.96045    18.391067    23.526278    22.128779    9574.5332   -1960.2356   -1070.4267    855.78095    95.469381    1237.3694    354.18574   -3816.8927 
 2299000    277.07894   -4181.2007   -3706.2969   -4181.2007            0    1445.5269    18.170885    23.367134    22.312022    9473.7181    1779.4867    1941.2528    615.84117   -150.58109   -132.97134   -131.11824   -3506.5764 
 2300000    280.02698   -4217.4568   -3737.5001   -4217.4568            0   -182.49646    18.166935    23.591128    22.201419    9515.0508   -1061.4726    969.93781   -455.95459   -236.01341   -864.77418   -862.29636   -3762.8247 
 2301000    273.82159   -4162.0241   -3692.7033   -4162.0241            0   -2055.1368    18.213075    24.035549    22.125816     9685.825   -1127.3522   -1926.9056   -3111.1526   -1538.9523    229.93718    138.32102   -3983.0074 
 2302000    270.51126    -4194.374    -3730.727    -4194.374            0   -41.319392    18.144956     23.62295    22.305554    9560.9942    256.22734   -459.18223    78.996713   -243.35087   -706.28147   -936.58823   -3736.4884 
 2303000    271.65939   -4208.3371   -3742.7222   -4208.3371            0   -407.55432    18.247729     23.48012    22.148081    9489.5415   -1609.5355    -523.2607    910.13327    984.08081   -846.48371    442.49956   -3799.1257 
 2304000    272.59639   -4171.6023   -3704.3814   -4171.6023            0   -716.71801    18.144845    23.832754    22.158825    9582.3983    4.4541273   -1767.4582   -387.14992    1577.4507   -678.59766   -778.63299   -3804.5424 
 2305000     277.3006   -4189.2607    -3713.977   -4189.2607            0   -655.82295    18.029543    23.759962    22.276016    9542.6274   -945.05121     -133.821   -888.59664    -997.4279    -79.07881    100.76648   -3805.2475 
 2306000    285.78353   -4169.8086   -3679.9854   -4169.8086            0   -25.481545    18.087937    23.835156    22.153392    9550.9655    1511.3753   -499.72102    -1088.099    89.968339   -617.48256    761.98856   -3683.5347 
 2307000    268.66649   -4187.5794   -3727.0942   -4187.5794            0    405.29279    18.377425    23.304931    22.217177    9515.2753    469.95562   -761.62589    1507.5486    31.915686    223.28395    75.372085   -3670.8515 
 2308000    276.90758   -4197.3223   -3722.7121   -4197.3223            0    694.99066    18.372063    23.328831    22.268487    9544.2456   -286.67319    1974.3777    397.26743   -288.22806   -114.71397     325.3411   -3625.9743 
 2309000     273.1032     -4180.29   -3712.2004     -4180.29            0   -906.11064    18.147495    23.821608    22.166459    9582.6155   -288.59808   -241.39404   -2188.3398    595.51862    434.76347    178.03768   -3838.8318 
 2310000    258.48987   -4201.3668   -3758.3241   -4201.3668            0   -21.999888    18.081172     23.67246     22.23358     9516.546    1137.9742   -1240.6866    36.712727   -233.49043    633.13349      29.9816   -3761.3774 
 2311000    269.08249   -4188.3949   -3727.1967   -4188.3949            0    82.290948     18.27521    23.457741    22.176919    9507.1376    1223.0494    184.07545    -1160.252    326.29476    311.49942    265.63134   -3715.7869 
 2312000      264.235   -4156.1267   -3703.2369   -4156.1267            0   -887.25396    18.423853    23.326026    22.460619    9652.5695   -2111.8609    1318.2026   -1868.1036    727.67708   -246.76721     23.95694   -3828.1382 
 2313000    279.58401    -4159.502   -3680.3046    -4159.502            0   -353.19767    18.256903    23.616877    22.309678    9619.2873     333.0084   -866.00098   -526.60042    279.87763    335.73664   -818.31274   -3729.8538 
 2314000    284.78304   -4212.2512   -3724.1428   -4212.2512            0   -949.99007    18.275469    24.071048    21.921116    9643.3112   -1236.9607   -899.12394   -713.88559   -86.615511    -616.2275   -45.811096   -3857.7473 
 2315000    265.35879   -4216.2395   -3761.4236   -4216.2395            0   -717.75096    18.062669    23.590476    22.409562    9548.8703   -496.63401   -1440.9216   -215.69726     593.9331   -129.03614   -198.24145   -3861.3779 
 2316000    297.97676   -4195.3202   -3684.5982   -4195.3202            0    -1044.416    18.312057    23.857971    21.938124    9584.5149    -2111.502   -453.68902   -568.05693   -893.19515     664.5698   -176.81891    -3830.587 
 2317000    260.22744   -4211.2242   -3765.2033   -4211.2242            0    124.72662    18.176188    23.493498    22.238443    9496.3096   -474.75953    1569.1549   -720.21549    381.88174   -762.92527    114.44415   -3747.9294 
 2318000    268.84648   -4191.0815   -3730.2879   -4191.0815            0   -218.76179    18.299014    23.469465    22.139701    9508.2948    227.73441   -214.28741   -669.73238    654.57487    531.85728    593.23028   -3760.6233 
 2319000    269.30941   -4239.7586   -3778.1715   -4239.7586            0   -453.99236    18.348532      23.6811    21.956195    9540.2617   -2879.7914   -1027.1733    2544.9876    57.270484    99.599069   -40.312329   -3841.3377 
 2320000    263.72832   -4166.3236   -3714.3023   -4166.3236            0   -16.500518    18.044448    23.649253    22.365961    9544.3987    511.20422    484.57288   -1045.2787    -886.2797   -137.64153   -435.16852   -3716.5991 
 2321000    267.63419   -4186.7527   -3728.0368   -4186.7527            0   -947.33638    18.111043    23.813452    22.168986    9561.1836    -1979.914   -174.69849   -687.39663   -790.67555    344.73592    52.692783   -3860.1335 
 2322000     291.6146   -4156.1876   -3656.3701   -4156.1876            0   -282.78603    18.323468    23.481082    22.279499    9585.8629   -1281.3752   -586.67126    1019.6883   -93.244346   -406.38726    247.35938   -3695.9036 
 2323000    256.75619   -4201.8904   -3761.8191   -4201.8904            0   -609.59283    18.415765    23.379817    22.228811    9570.7751   -211.70805   -530.45325   -1086.6172   -468.29921    188.78741    74.199128    -3846.906 
 2324000    271.01183   -4198.6056   -3734.1005   -4198.6056            0   -1687.8182       18.255    23.632583    22.285239    9614.1375   -2602.4491   -1060.1117    -1400.894    594.39509   -39.377463   -236.68382   -3970.7535 
 2325000    265.70302   -4177.9054   -3722.4995   -4177.9054            0   -1337.4788    17.912132    24.020786    22.287523    9589.5077   -884.32993   -1680.5555    -1447.551    208.29039    383.02196    17.074605   -3909.5501 
 2326000    271.14975   -4195.9014     -3731.16   -4195.9014            0   -609.25961    18.151185    23.782558    22.109336    9544.1936    -1346.533   -1571.4403    1090.1945   -128.29837    -6.078266    189.09938   -3815.9642 
 2327000     261.6901   -4197.0046   -3748.4767   -4197.0046            0   -856.85683    18.266738    23.367038    22.405831    9563.6951   -1083.1654   -2572.3297    1084.9247    -454.5713    96.631973   -68.560358   -3867.9882 
 2328000    281.64683   -4153.2105   -3670.4775   -4153.2105            0    -1136.964    18.353462    23.473674    22.329934    9620.2534   -1369.3061    -900.4354   -1141.1505   -335.89153   -395.55991    58.027247   -3829.9953 
 2329000    270.16598   -4205.0313   -3741.9761   -4205.0313            0   -68.499852    18.106639    23.830962    22.038827    9509.7241    39.165739     -3.44428   -241.22102    646.95909   -52.424035    398.15774   -3751.4763 
 2330000    296.67253   -4183.3062   -3674.8196   -4183.3062            0   -729.97179     18.00946     23.75887    22.374202    9573.5727    -134.9554   -739.65532   -1315.3047   -1149.4393   -156.95925    76.326451   -3776.7388 
 2331000    274.94496    -4193.429   -3722.1827    -4193.429            0    463.59979    18.251358    23.650287    22.095082    9537.3391    389.83089    198.32697    802.64152    841.70745    35.557881    206.59444   -3657.6995 
 2332000    267.33935   -4211.1593   -3752.9488   -4211.1593            0   -263.99296    18.345709    23.610808    22.204262    9617.9318    146.56483   -2258.1751    1319.6314     -575.754   -182.35788    109.07327   -3789.9785 
 2333000    260.22881   -4183.7706   -3737.7474   -4183.7706            0   -646.13427    18.490536    22.985628    22.558542    9587.7542   -1386.4832    1118.9631   -1670.8827    130.25755    979.54909    193.61042   -3828.0947 
 2334000    292.92353   -4174.9197   -3672.8588   -4174.9197            0   -365.98849    18.224051    23.631938    22.221985    9570.3347   -548.07642   -1112.1506    562.26159   -195.21117   -364.16847   -95.529658   -3723.9411 
 2335000    279.03091   -4207.8024   -3729.5529   -4207.8024            0   -800.00439    17.911682    24.006361    22.201919    9546.6986   -1200.9301   -1599.2819    400.19884   -827.71707   -336.04042   -138.10284   -3840.9366 
 2336000    285.12013   -4212.4387   -3723.7526   -4212.4387            0    254.06058    18.037143     23.72872    22.200814     9501.911     902.2262   -253.14089    113.09645    204.98367    -986.5129   -225.74416    -3688.546 
 2337000    269.02182   -4208.7193   -3747.6251   -4208.7193            0   -1382.4902    18.283931    23.526323    22.389329     9630.852   -2305.0025   -1256.9442    -585.5239   -782.92499    784.91753     261.4316   -3941.8043 
 2338000    285.40165   -4179.1393   -3689.9707   -4179.1393            0    71.145963    18.342428    23.417317    22.267229    9564.4529    508.17578    64.044716    -358.7826    474.44717   -183.07631   -101.76212   -3680.0467 
 2339000    237.96387   -4170.1123   -3762.2503   -4170.1123            0   -50.567807    18.233741       23.593    22.117874    9514.8587    685.08325    289.90312   -1126.6898   -622.75992    936.77507    791.96971   -3769.2674 
 2340000    267.16532   -4180.7223     -3722.81   -4180.7223            0   -772.71856    18.074015    23.862463    22.222132    9584.1952   -801.86896   -2746.9903    1230.7036   -58.481134   -211.31072   -498.21613   -3830.8173 
 2341000     266.6529   -4214.9581   -3757.9242   -4214.9581            0   -234.34604     17.89796     23.63906    22.457883    9501.7271   -204.75056    12.867613   -511.15516   -486.33644   -546.32305    133.24262   -3790.3982 
 2342000    277.48449   -4180.9756   -3705.3766   -4180.9756            0   -648.97512    18.327294      23.6195     22.00844    9527.0471   -1153.5056   -915.83407    122.41428   -67.732787   -502.78509   -439.13736   -3795.5467 
 2343000    267.85612   -4209.5397   -3750.4435   -4209.5397            0   -956.96673    18.288842    23.436962    22.395977     9599.697    356.91238   -1256.9403   -1970.8723   -638.09826   -106.06831   -127.21442   -3884.4205 
 2344000    278.41197   -4213.5849   -3736.3963   -4213.5849            0   -428.88807    18.179955    23.471718    22.446961    9578.4503   -1272.3633   -1002.8131    988.51214   -630.76545   -63.272909    660.81966   -3796.3085 
 2345000    276.40487   -4232.6814   -3758.9329   -4232.6814            0    81.630783    18.056546    23.788326     22.16404    9520.2309    10.891329   -760.39121    994.39223    937.14317   -572.76792    40.775413   -3747.5991 
 2346000    276.23379   -4179.3336   -3705.8784   -4179.3336            0    210.64723    17.965377    23.567618    22.428271    9496.1557    608.08392    1452.1627   -1428.3049    320.80441    869.59612   -156.05288   -3676.7055 
 2347000     277.1843   -4197.2685   -3722.1841   -4197.2685            0   -200.06332    18.280006     23.52219    22.097759     9501.722   -233.18489   -294.85134   -72.153737   -449.24954   -581.71166    251.17237   -3749.9074 
 2348000    273.27014   -4232.2727   -3763.8971   -4232.2727            0   -2040.0368    18.472751    23.511003    22.197765     9640.776   -3382.0976   -414.26559   -2323.7472   -431.93305    289.02095   -347.97076   -4050.7279 
 2349000    270.33857   -4178.2979   -3714.9468   -4178.2979            0     -1427.22    18.224569    23.686731    22.394392    9667.2215   -1050.6854   -945.15272   -2285.8218   -221.81917    499.98335    394.18155   -3916.1656 
 2350000    268.03828    -4211.076   -3751.6676    -4211.076            0   -336.75826     18.14576    23.847374    21.977399    9510.2516   -192.08686   -1976.3174    1158.1295    -972.5046    436.25785    220.79826   -3798.3751 
 2351000    265.19733    -4218.463   -3763.9239    -4218.463            0    -27.71883    18.093063    23.580129     22.39225     9553.357    264.68668    300.53736   -648.38053   -361.10407    805.70212    74.168866   -3767.7858 
 2352000    277.73874   -4185.3173   -3709.2826   -4185.3173            0    -1420.837    18.405046    23.476957    22.195938    9590.7422    -3327.982    906.30821   -1840.8371    341.27572   -727.99671   -66.404901   -3908.0166 
 2353000    278.94367   -4192.3725   -3714.2725   -4192.3725            0   -1238.9887    18.313045    23.590565      22.1041    9549.3046   -1343.2249   -1727.6949    -646.0463   -587.78922    578.98122    512.29927   -3886.8225 
 2354000    263.80176   -4174.0762   -3721.9291   -4174.0762            0   -1556.6819    18.079129    23.838804    22.451124    9676.0932   -1182.0028   -1042.1919   -2445.8509   -148.84469    417.09584   -78.326262   -3941.6016 
 2355000    279.04419    -4173.972   -3695.6998    -4173.972            0   -1433.2017    18.138984    24.020733    22.079604    9620.3418   -2938.6781   -1375.4835    14.556382    176.99183    -167.5252   -406.42759    -3896.782 
 2356000    254.32781   -4197.3067   -3761.3975   -4197.3067            0   -380.37334    18.248784    23.383875    22.352227    9538.3054   -812.79244    1963.8799   -2292.2075   -193.39942    646.20378   -728.44254   -3814.3099 
 2357000    267.07008   -4208.2693   -3750.5204   -4208.2693            0   -1854.4419    18.389113    23.540032    22.197227    9608.7424   -2344.0931   -1701.2454   -1517.9871    233.21829    454.96064   -643.33235   -4010.3901 
 2358000    262.31424   -4176.3001   -3726.7024   -4176.3001            0    253.10065    18.235392    23.590064    22.184384    9543.1466    481.51816   -572.06072     849.8445   -1357.2841   -307.47614    1162.5188   -3691.4766 
 2359000    282.74659   -4218.6343   -3734.0163   -4218.6343            0     970.4684    17.857511    23.551854    22.422798    9430.5241    1718.4932    896.40473    296.50725     97.76473   -744.66561   -955.31596   -3600.5434 
 2360000    274.38858   -4209.5818   -3739.2892   -4209.5818            0   -83.895919    18.228675    23.739939    22.083401    9556.5394    235.68472    43.408238   -530.78071   -35.435427   -176.31211    147.62889   -3750.9819 
 2361000    270.55044   -4170.1104   -3706.3962   -4170.1104            0   -1297.8157    18.141834    23.718363    22.438923    9655.3472    247.04691   -297.10261   -3843.3914   -98.086362    438.43154   -273.39627    -3889.146 
 2362000    277.91268   -4201.0606   -3724.7278   -4201.0606            0   -174.73959    18.069919    23.758018    22.262779     9557.533     161.2542   -500.99605   -184.47692    515.46776   -188.71685   -232.04981   -3749.0842 
 2363000    274.86554   -4205.2197   -3734.1096   -4205.2197            0    349.80844    18.397667    23.595791    21.928915    9519.5068   -1602.2246    372.83981    2278.8101    520.72603    161.29151    836.30109   -3685.5449 
 2364000     294.2306   -4193.1638   -3688.8627   -4193.1638            0   -307.43632    18.240301     23.54935    22.374073    9610.7211    78.441948   -472.27363   -528.47728     1237.361    155.24936    546.58591   -3731.9537 
 2365000    280.98036   -4177.3854   -3695.7947   -4177.3854            0    -226.0975    18.410998    23.604636    22.131323     9617.939    -1338.768    540.06808    120.40744   -677.72712    517.96998   -331.81861   -3727.5089 
 2366000     259.3234   -4192.2441   -3747.7727   -4192.2441            0    542.55693    18.037784    23.691059    22.242237    9504.8683    1182.2697    520.18232   -74.781214   -423.40188   -338.45707     67.59851   -3672.5641 
 2367000    262.59432   -4212.6862   -3762.6085   -4212.6862            0   -512.08438    18.086776    23.751162    22.266964    9565.4854   -434.14127   -170.50723   -931.60464   -579.52079   -21.547698    523.07772   -3834.0457 
 2368000     275.1566   -4220.4289   -3748.8199   -4220.4289            0   -1514.5007    18.344916    23.870214    21.869691    9576.6735   -1998.3042   -3011.7086    466.51065    355.78422   -587.84038   -109.80723   -3960.3441 
 2369000      271.164   -4178.4609    -3713.695   -4178.4609            0   -789.65524    18.099676    23.502919    22.497658    9570.3961    119.80586    285.27866   -2774.0502   -329.10938    -126.0317   -284.93818   -3823.9107 
 2370000    269.72537   -4198.5492   -3736.2491   -4198.5492            0   -1275.4186    18.373496     23.61601    22.195949    9631.0149   -1774.7269   -870.94349   -1180.5853    348.13435   -705.07939    449.23541   -3915.3925 
 2371000    269.06304   -4201.6289   -3740.4641   -4201.6289            0   -901.28739    18.325091    23.658329    22.132578    9595.3807   -1421.7832   -1398.3754    116.29646   -342.68203   -657.29879   -236.48402   -3866.5891 
 2372000     294.1152   -4210.9101   -3706.8067   -4210.9101            0    276.87449    18.107447    23.557515    22.267351    9498.5049    1104.5589    1419.1079   -1693.0433   -379.94153     269.7282   -859.52902   -3668.4524 
 2373000    261.14223   -4210.6357   -3763.0469   -4210.6357            0    -1681.282    18.204045    23.912964    22.094749    9618.1242   -2772.7311     -3656.65    1385.5351   -127.48608   -569.19366    256.23805   -3998.8811 
 2374000    278.58382   -4179.1319   -3701.6488   -4179.1319            0   -534.02244    18.203849    23.645896    22.365418    9627.1118    -664.5993    293.78741   -1231.2554   -730.96705   -397.14581    822.39273   -3776.6264 
 2375000    285.15646   -4165.8646   -3677.1162   -4165.8646            0    628.21818    18.167951    23.587824    22.167185    9499.5796    432.89029   -506.86328    1958.6275    1091.1144   -219.27259    1120.7534   -3590.0818 
 2376000     271.7351   -4188.4242   -3722.6796   -4188.4242            0    685.93687    18.235524    23.480439    22.199215     9505.218    1806.4345    381.30222   -129.92608    752.27919   -273.75575    661.03742   -3627.5924 
 2377000    266.87594   -4173.6865   -3716.2703   -4173.6865            0   -75.426897    18.147309    23.532148    22.370259    9553.1104    -410.2044    651.49596   -467.57225    1111.1308   -257.15634   -254.32736   -3726.7789 
 2378000    265.41731   -4181.7885   -3726.8723   -4181.7885            0   -534.13082    18.290269    23.834251    22.007567    9593.8655   -518.18678   -794.03951   -290.16617    268.80398     186.7051   -308.00659   -3801.6061 
 2379000    277.31376   -4169.5986   -3694.2923   -4169.5986            0   -1425.6773    18.045181    23.706697    22.471091    9612.9444    -400.4264   -1964.1376   -1912.4678    582.70041   -191.83385   -691.50669    -3894.165 
 2380000     263.5135   -4209.3418   -3757.6887   -4209.3418            0    -1031.826    18.177042    23.728085      22.1878    9569.7402   -1322.1408    -2364.293    590.95579   -1094.5647   -441.88799    1466.7427   -3901.6953 
 2381000    272.24365   -4231.3484   -3764.7321   -4231.3484            0    415.80792    18.318961    23.394751     22.08353    9464.2836    181.15137    51.394536    1014.8779    647.68378      -978.32   -1023.2558   -3707.3394 
 2382000    280.23504   -4170.5943   -3690.2811   -4170.5943            0   -781.09761    18.286849    23.446893    22.388114    9599.3473   -256.01496   -1345.7797   -741.49819   -252.23484    145.48715   -134.97851   -3799.6321 
 2383000    262.17174   -4185.6531   -3736.2997   -4185.6531            0   -601.50723    18.113011    23.974997    22.004817     9555.798   -1127.2197   -1878.4541    1201.1521    358.03132    117.33266    274.07061   -3820.1266 
 2384000    263.38386   -4213.9666   -3762.5356   -4213.9666            0   -1091.8146    18.107152     23.76665    22.338013    9613.0819    -698.5995   -1762.1816   -814.66276    308.81165   -437.67992   -570.11566   -3915.6047 
 2385000    270.09961   -4235.2585    -3772.317   -4235.2585            0   -1992.6197    18.277333    23.759848    22.168966    9627.2426   -2782.8711   -1050.3253   -2144.6629   -19.285811    47.876581   -227.28819   -4052.0877 
 2386000    279.59998   -4199.4324   -3720.2076   -4199.4324            0   -210.63603    18.159113    23.324019    22.421583    9496.5159    27.160874   -1243.6658    584.59688     1044.278    736.13033   -496.78922     -3749.38 
 2387000    264.51772   -4209.4645   -3756.0901   -4209.4645            0    441.61054    18.163006    23.550805    22.258428    9521.1188    921.31379    1010.2024    -606.6846   -414.70214   -665.95831    188.80482     -3694.77 
 2388000    300.82701   -4243.6534   -3728.0461   -4243.6534            0   -1405.1701    18.203904    23.697239    22.237942    9593.0537   -895.85661   -1324.4651   -1995.1885   -687.55953   -430.16996    -52.58334   -3924.6363 
 2389000    251.30463   -4209.1656    -3778.438   -4209.1656            0   -2178.7957    18.128299    23.675256    22.544124      9675.76   -2078.0033   -2655.0468   -1803.3371   -571.42735   -65.272369   -296.61596   -4085.8901 
 2390000     265.2411   -4179.9421   -3725.3279   -4179.9421            0   -614.18296    18.389446    23.676154    22.112562    9627.6187   -708.22237   -410.85624   -723.47026   -163.14335   -55.417903    327.78727   -3811.5647 
 2391000    267.00422   -4210.7668   -3753.1307   -4210.7668            0   -476.34936    18.189087     23.69029    22.164871    9550.9481    126.36097   -384.34112   -1171.0679   -1310.0131   -8.2167846   -258.53916   -3819.4818 
 2392000    268.40952   -4204.8108    -3744.766   -4204.8108            0    383.75437    18.092531    23.611921    22.266286    9512.1445   -666.32108    1301.0132    516.57094    909.21241    325.08533    1174.2283   -3691.5298 
 2393000    263.26271   -4194.3071   -3743.0839   -4194.3071            0    161.58152    18.164125    23.380444     22.39097    9509.1161    265.62207    1641.1702   -1422.0477   -1051.1934    498.74925    -1183.632   -3720.6756 
 2394000    244.71617   -4155.8808   -3736.4457   -4155.8808            0    -374.8647    18.322875    23.422835    22.357245    9595.1408   -1271.0167   -344.78992    491.21255    565.18583    -352.6571    354.42675   -3788.9025 
 2395000    279.32036   -4173.8622   -3695.1167   -4173.8622            0   -1037.1097    18.256655    23.747905    22.199341    9624.6865   -2035.0805    74.692087   -1150.9408   -936.59976    283.20944    256.44578   -3840.6918 
 2396000    269.90323   -4210.5133   -3747.9084   -4210.5133            0    530.56996    17.941418    23.739138    22.382439    9532.9893    1213.7801    1070.3314   -692.40162     196.1816   -71.957461    134.31615   -3674.1439 
 2397000    251.13397   -4187.8932   -3757.4581   -4187.8932            0    310.93061    18.110418    23.750088    22.085603    9499.5482    1042.5435   -429.81617    320.06453   -411.36214     918.4944   -327.77097   -3714.3815 
 2398000    248.92441    -4197.382   -3770.7341    -4197.382            0   -62.702974    18.307929    23.650328     22.12736    9580.8931   -76.474397    644.01121   -755.64574    595.23676   -182.47578   -869.91045   -3779.4955 
 2399000    284.69915   -4172.4284   -3684.4638   -4172.4284            0   -1030.6487     18.39775    23.335582    22.427725    9628.7203     -1611.44    262.78005    -1743.286    300.28651   -239.05652   -133.80403   -3829.1926 
 2400000    278.86924   -4220.3485   -3742.3761   -4220.3485            0   -790.53841    18.176427     23.58331    22.269722    9546.1461   -593.89615   -291.14635   -1486.5727   -560.02913   -593.50082    921.49651   -3852.4355 
 2401000    280.73959   -4187.9912   -3706.8131   -4187.9912            0   -756.66319    18.084527    23.870021    22.148394    9560.9751      -839.96   -561.38156   -868.64802    186.63265    174.04726    320.94598     -3812.32 
 2402000     265.1884   -4222.4689   -3767.9451   -4222.4689            0    54.109803    18.094704    23.503727    22.292848    9480.9916    396.14589   -475.92718     242.1107   -363.06217   -1490.8895   -550.72095   -3760.4633 
 2403000    280.36665   -4201.3082   -3720.7694   -4201.3082            0   -550.53414    18.368491    23.528531    22.202006    9595.3431   -711.15363   -901.56515    -38.88365    498.56674    184.10961    838.39647   -3797.8102 
 2404000    252.20601   -4183.3989   -3751.1264   -4183.3989            0   -1920.0535    18.267032    23.456599    22.468192    9627.2261   -2135.0346   -1826.0724   -1799.0536    413.18256   -434.37611    245.22563   -4020.7081 
 2405000    279.18261   -4217.3583   -3738.8488   -4217.3583            0   -1091.2715    18.191361    23.571456    22.267775    9548.3525   -1444.7357   -17.268725     -1811.81    310.33207    288.92817   -115.97265   -3890.8116 
 2406000    256.27619   -4223.5483   -3784.2997   -4223.5483            0   -655.08377    18.077711     23.86844     22.16808    9565.2333   -152.36151   -1459.0626   -353.82725   -619.00477    180.24605   -15.926736   -3875.6833 
 2407000    260.59668   -4185.2737   -3738.6199   -4185.2737            0   -701.64624    18.098379    23.742941    22.266778    9568.2289    604.44409   -1113.6908    -1595.692   -737.86134   -71.370987    445.45179   -3836.5296 
 2408000     270.6064   -4209.7126   -3745.9025   -4209.7126            0    942.97619    18.224839    23.430561    22.120051    9445.6647   -824.28374    1229.4958    2423.7165    562.45641    341.59926    452.88117   -3616.0025 
 2409000    272.28221   -4201.4956   -3734.8133   -4201.4956            0    111.21621    18.235611    23.364717    22.376762    9534.0644     241.4805    446.97722   -354.80909   -639.57348   -110.15749   -252.04834   -3719.3492 
 2410000    292.93068   -4201.2987   -3699.2255   -4201.2987            0   -1255.6487    18.297499    23.709562     22.06333    9571.6393   -1053.9766   -1106.0137   -1606.9557    694.13773    1380.7789    458.98092   -3874.5047 
 2411000    268.30344   -4226.7356   -3766.8727   -4226.7356            0     95.26098    18.092555    23.729952    22.079689    9479.5936    66.303487   -26.366786    245.84624   -1010.9482    814.09843    354.03294   -3753.7028 
 2412000     262.9348   -4195.7938   -3745.1326   -4195.7938            0    209.85435    17.983933    23.520483    22.411397    9479.8147    1050.5052    113.32915   -534.27134    1143.0968   -298.48541   -857.49344   -3716.1195 
 2413000     271.3049   -4195.9399   -3730.9326   -4195.9399            0   -265.36591    18.265471    23.700483    21.981606    9515.8482   -1666.2468    -608.2014    1478.3504   -530.08986    255.72605   -105.95517   -3767.7598 
 2414000    277.10624   -4217.5453   -3742.5946   -4217.5453            0    -143.8526    18.055385    23.371382    22.554182    9517.3983   -139.05302   -96.587007   -195.91776   -397.48057    -547.1703    -707.0988   -3762.5616 
 2415000    270.38009   -4202.3624   -3738.9402   -4202.3624            0   -442.91676    18.292244    23.560069    22.207119    9570.5251    472.75098   -914.74791   -886.75335    664.93399 -0.083587137   -62.979165   -3800.7609 
 2416000    278.66578   -4182.0562   -3704.4326   -4182.0562            0   -1422.2519    18.338757    23.705084    22.166412    9636.2217   -1250.1727   -1434.9956   -1581.5875   -525.41515      35.9335    269.77027    -3904.308 
 2417000    264.22771    -4209.719   -3756.8418    -4209.719            0   -880.92623    18.027169     23.73834    22.448206    9606.3746   -636.25825    30.150546    -2036.671   -885.16016    334.40028   -173.84138   -3880.2588 
 2418000    289.62397   -4176.9268   -3680.5212   -4176.9268            0   -557.72062    18.230527    23.781958    22.245131    9644.5465    -989.4202   -8.8958328   -674.84582   -690.66477    146.68755    529.71255   -3758.9679 
 2419000     279.5506   -4176.7535   -3697.6133   -4176.7535            0    381.33635    18.383516    23.254179    22.186872     9484.745    -1595.822    1142.2968    1597.5342    429.00869    418.17874    316.63687   -3644.8648 
 2420000     281.6542   -4215.5984   -3732.8528   -4215.5984            0   -435.57937    18.355044    23.364353    22.271518    9551.2236   -1915.8071    1081.7363   -472.66737    606.01406     310.0281    513.48551   -3793.5267 
 2421000     261.0122   -4174.7168   -3727.3509   -4174.7168            0   -378.43773    18.167794    23.727223    22.189301    9565.1713   -838.45858   -590.91242    294.05782   -429.57501   -340.96743   -143.11647   -3780.1423 
 2422000    264.21474   -4186.1915   -3733.3365   -4186.1915            0    226.32373    18.080984     23.89214    22.153494     9570.163   -532.92543     308.6282    903.26841     128.7908    11.008295    832.89354   -3701.7482 
 2423000    273.18293   -4208.5985   -3740.3723   -4208.5985            0   -630.43379    18.113939    23.636338    22.330855    9560.8926   -507.41307   -896.59834   -487.28995    784.38932    900.73863   -228.27841   -3828.2774 
 2424000    282.08049   -4234.0942   -3750.6179   -4234.0942            0   -418.23816    18.239598    23.721243    22.067284    9547.7626   -2531.0246    728.83424    547.47589   -1045.2313    1198.4243   -692.86138   -3808.8552 
 2425000    280.52045    -4201.043   -3720.2406    -4201.043            0    -1522.188    18.313434    23.519675       22.427    9659.8921   -1594.2462   -1422.7071   -1549.6106    946.33527    41.371166   -444.12751   -3934.6858 
 2426000    272.76163   -4211.4323   -3743.9282   -4211.4323            0    -187.6642    18.177898    23.559419    22.272187     9538.303   -445.36688   -567.68513    450.05941   -183.03075    410.32151   -519.04825   -3770.0335 
 2427000    277.76543   -4172.6506   -3696.5702   -4172.6506            0   -244.65635    18.259831     23.86479    21.904768    9545.3758   -327.23128   -1545.3168     1138.579   -775.94215    1061.5822   -114.63961   -3730.6286 
 2428000    275.51299   -4180.3826   -3708.1628   -4180.3826            0   -1867.8396    18.150244    23.641894    22.412622     9617.394   -2172.7033   -1740.7616   -1690.0538    340.36376   -458.04373    472.92033   -3970.1456 
 2429000    271.12609   -4184.3764   -3719.6756   -4184.3764            0   -1168.1249    18.210089    23.863245    22.135907    9619.1988   -2776.2333   -1511.0153    782.87375     371.0885   -189.69047    100.37186   -3883.5473 
 2430000    264.58207   -4196.2443   -3742.7597   -4196.2443            0   -1774.1052    18.274654    23.690849    22.288045    9649.4328   -1959.9847   -2694.9061   -667.42481   -975.32139   -823.21276    369.70234   -3992.4243 
 2431000    271.94823   -4182.5028   -3716.3928   -4182.5028            0   -1367.5368    18.219881     23.48986    22.439441    9603.6867   -1131.0447   -2161.0615   -810.50415    454.36692    33.159511   -433.05309   -3907.9299 
 2432000    275.08504   -4157.3893   -3685.9029   -4157.3893            0    26.660823    18.475568    23.657076    21.799908    9528.2585   -1721.6188    392.49005    1409.1112   -255.78905   -496.20982   -17.998154   -3682.1981 
 2433000    257.22442   -4187.7128   -3746.8389   -4187.7128            0    671.89122     18.06581    23.565157    22.334395      9508.28    1519.2228   -147.39333    643.84417   -831.85354   -329.37705    647.24814   -3653.6688 
 2434000    268.31486   -4213.7132   -3753.8307   -4213.7132            0   -1490.6284    18.173009    23.810987     22.13844    9579.6854   -2505.6804   -757.77024   -1208.4345   -135.32003   -171.75114    301.81836   -3962.0862 
 2435000    266.50943   -4161.9556   -3705.1676   -4161.9556            0   -484.03126    18.290655    23.683437    22.137273    9589.5475   -2349.4118   -522.53164    1419.8497    621.93074    309.97556    -814.9242   -3772.8611 
 2436000    281.09874   -4188.7097   -3706.9161   -4188.7097            0   -387.58931    18.160518     23.57873    22.385241    9585.4038   -1009.8366    701.42034   -854.35169   -384.81664   -672.90202    185.04948   -3761.0985 
 2437000     262.6342   -4191.3901    -3741.244   -4191.3901            0   -492.14404     18.46737    23.550367    21.954457    9548.2864   -1587.0798    -922.7027    1033.3504    119.54951   -168.36067   -342.15841   -3809.7761 
 2438000    285.11138   -4184.1844   -3695.5133   -4184.1844            0    -586.6268    18.172695     23.49358    22.393033    9560.5185   -466.31632    1087.7027   -2381.2668   -686.03889     1.019118    493.05673   -3777.3068 
 2439000    262.58511   -4207.3837   -3757.3218   -4207.3837            0   -1149.0189    18.146072    23.776034    22.242069    9596.1543    -1988.299   -1663.3015    204.54376    486.00631   -488.05978   -170.83458   -3918.1271 
 2440000    279.61393   -4155.0631   -3675.8144   -4155.0631            0   -943.02512    18.058116    24.091853    22.023326    9581.3245   -411.66262   -1931.4776   -485.93516   -343.04295   -775.10501   -513.05032   -3807.5869 
 2441000    284.00471   -4202.4266   -3715.6522   -4202.4266            0   -874.10927    18.155392    23.496072    22.427038    9566.9349   -447.56993   -791.30672   -1383.4511   -544.79697   -319.70498   -1041.4611   -3837.6114 
 2442000    265.91398   -4168.2147   -3712.4472   -4168.2147            0   -1212.1331    18.385811    23.630784    22.025616    9569.4943   -2252.0349   -280.76772   -1103.5967   -193.62955   -293.89066   -1170.5899    -3881.614 
 2443000    272.46157   -4190.2837   -3723.2939   -4190.2837            0   -73.669883    18.217541    23.537007    22.271841     9549.862    558.03226   -789.77067    10.728762    103.54072   -306.32678   -18.273356   -3733.5543 
 2444000    283.45653   -4189.6831   -3703.8484   -4189.6831            0    867.04637    18.233496    23.410529    22.181401    9468.2599    1687.2508    172.04169    741.84662    840.34731    147.73153    605.96175   -3584.1224 
 2445000    277.24954   -4207.0236   -3731.8274   -4207.0236            0   -662.77197    18.093306    23.861182    22.163798    9568.7246     860.4743   -901.98392   -1946.8063   -173.33887   -600.27807   -284.72413   -3824.3172 
 2446000     273.0578   -4192.5761   -3724.5643   -4192.5761            0   -1237.3748    18.077791    23.851031    22.271771    9603.0076   -1692.2017   -1267.2142   -752.70843   -670.03343   -260.25199   -529.31102   -3897.8587 
 2447000    259.50314   -4166.0773   -3721.2978   -4166.0773            0   -1017.7793    18.142331    23.721075    22.334783    9611.8983    247.92298   -1480.3837    -1820.877    502.57024   -482.03105   -451.71835   -3863.9698 
 2448000    278.46449   -4189.6881   -3712.4095   -4189.6881            0   -848.52643     18.49209    23.498086    21.936657    9532.1072    -2220.608     196.8669   -521.83821     1165.334    372.85105    -656.5995   -3830.3683 
 2449000    290.94918   -4206.8647   -3708.1877   -4206.8647            0   -83.087607    18.225417    23.412639    22.286579    9509.7974   -797.39347    636.22579   -88.095135   -920.24579    181.12001    1114.1896   -3719.7112 
 2450000    282.99952   -4219.7765    -3734.725   -4219.7765            0    794.44586    18.026207    23.863455    21.919149    9428.9072    641.33119    1235.4154      506.591    1009.8173   -566.53652   -766.18247     -3625.48 
 2451000    286.13169   -4213.3812   -3722.9613   -4213.3812            0    -274.7836    18.024799    23.771353    22.249485    9533.3231   -523.26676    443.53488    -744.6189   -750.17731    136.98013   -164.18669   -3761.1655 
 2452000    276.34477   -4191.3183   -3717.6729   -4191.3183            0    334.07248    18.100782    23.547874    22.272261    9493.2156    236.19903   -784.85909    1550.8775    98.459309   -353.13977    -229.7841   -3671.4209 
 2453000    274.46629   -4224.4015   -3753.9756   -4224.4015            0   -268.94317    18.318899    23.432381    22.096337    9484.9725   -1069.2904   -772.21435    1034.6752    -729.4182     624.5464   -81.086889   -3791.1782 
 2454000    268.85328   -4213.1898   -3752.3845   -4213.1898            0    -1252.241    18.286615    23.558906    22.299311    9606.8249    -1557.127   -265.87007   -1933.7259    1105.9405     587.3096    242.41483   -3927.8306 
 2455000    259.87402   -4205.4229   -3760.0077   -4205.4229            0   -1935.7464    18.131679    23.912176    22.267088    9654.2944   -303.28949   -2206.7809   -3297.1689   -708.20408  -0.80571051   -388.60399   -4032.5569 
 2456000    255.04796   -4182.8385    -3745.695   -4182.8385            0    273.07191    18.007878    23.727777    22.219213    9493.9787    355.93282    522.55531   -59.272403    205.42888    3.7620692   -81.470499   -3707.8855 
 2457000    261.95874    -4186.535   -3737.5467    -4186.535            0   -534.24123    18.238466    23.518311    22.387373    9602.7929   -179.71536   -182.69829   -1240.3101    3.9314603   -490.27993   -154.81846   -3812.3655 
 2458000    270.47853   -4175.3849    -3711.794   -4175.3849            0   -324.47953    18.276092    23.713712    22.043947    9553.7142   -993.66412   -365.09447       385.32   -609.64861   -22.720661    643.49487   -3757.0041 
 2459000    275.19644    -4200.184   -3728.5067    -4200.184            0   -1105.1896     18.18269    23.566575    22.381429    9590.5261   -118.77311   -2248.8309   -947.96494    -718.4917   -348.55387    225.91329   -3883.0873 
 2460000    270.17089   -4155.8756   -3692.8119   -4155.8756            0    -523.2638    18.209174    23.598124    22.235466    9554.6319   -259.51408    -385.4839   -924.79343   -66.863885    73.911158    882.55896   -3765.7259 
 2461000    262.52269    -4191.997   -3742.0421    -4191.997            0   -1376.7739    18.200683    23.853865    22.164163    9622.7184    205.78287   -2756.5365   -1579.5683   -970.99833    894.42632    385.10374   -3935.2551 
 2462000    281.53051   -4204.2433   -3721.7096   -4204.2433            0   -261.87113    18.053278    23.639954    22.343336    9535.6586    794.97318    102.83125   -1683.4178    491.67173   -231.36563   -394.53646   -3758.1274 
 2463000    278.83836   -4194.4446   -3716.5252   -4194.4446            0   -636.06662    18.149679     23.55141    22.214548    9495.6203   -1073.0009    449.55138   -1284.7503    130.82319    168.62301    193.02864   -3804.6102 
 2464000    266.09851   -4194.8871   -3738.8033   -4194.8871            0   -1256.2833     18.33796    23.651481    22.098542     9584.578   -879.16773    -1848.146   -1041.5361    667.00792    476.88526    40.727323   -3914.4082 
 2465000    267.81483   -4247.3221   -3788.2967   -4247.3221            0    713.18133    18.136901    23.317266    22.403938    9474.6915    433.94456    2821.4176   -1115.8182    1208.9642   -339.09437    460.34311   -3689.7502 
 2466000    267.08948   -4205.5078   -3747.7255   -4205.5078            0   -202.07899    18.161641    23.689921    22.203985    9553.2164   -40.989973    500.86435   -1066.1113    566.15791    787.72398   -844.29669     -3775.88 
 2467000    275.33944   -4232.5219   -3760.5995   -4232.5219            0   -861.69994    18.084788    23.922803    22.010712    9522.6884     417.8463   -2768.6774   -234.26868   -1034.2417   -452.00671    88.145498   -3880.2712 
 2468000    277.11949   -4202.2447   -3727.2714   -4202.2447            0    398.51452    18.210751    23.491978    22.339033     9556.785    1299.1729    1020.1064   -1123.7357   -30.525482    49.527897   -22.101575   -3671.7281 
 2469000    283.31647   -4206.2611   -3720.6664   -4206.2611            0    -793.7586    18.321651    23.551782    22.234606    9594.3998   -506.69681   -217.17846   -1657.4005    881.88077   -382.88711   -109.38347   -3831.7327 
 2470000     259.0992    -4202.343   -3758.2558    -4202.343            0   -664.96305    18.261093    23.711338    22.138215    9585.7352    555.55619   -1421.8649   -1128.5805    319.10458   -422.93878    959.31964   -3851.2164 
 2471000     269.2058   -4184.1684   -3722.7588   -4184.1684            0   -670.99928    17.922347      23.9636    22.266715    9563.1969    312.27327   -727.75992   -1597.5112    672.67108     389.0887   -136.39189   -3816.3427 
 2472000    275.50482   -4227.3626   -3755.1567   -4227.3626            0   -762.06009    18.192731    23.636708    22.218643    9554.3779   -1009.3178   -53.005531    -1223.857    675.89485   -431.15791    302.71072   -3861.3428 
 2473000    259.11509   -4190.8965   -3746.7821   -4190.8965            0    2058.9795    18.301971    23.179854     22.08524    9369.3766    2104.9803    4017.4137    54.544671   -527.19746   -546.06064   -1155.7863   -3465.4374 
 2474000    266.99276    -4181.326   -3723.7096    -4181.326            0     390.5499    18.237126    23.585499     22.05108    9484.8688   -161.67975    1781.1539   -447.82443   -503.06534   -599.22669    257.50449   -3669.6859 
 2475000    272.38602   -4223.2398   -3756.3795   -4223.2398            0   -107.73943    17.989444    23.607906    22.357516    9495.0831    730.62877    107.17887   -1161.0259   -200.58792   -527.99821   -505.16317   -3771.2988 
 2476000    282.56851   -4211.3576   -3727.0448   -4211.3576            0   -835.95837    18.166548    23.718514    22.186496     9559.796   -367.13072   -1366.8365   -773.90791   -188.81213    342.59014    -578.1938    -3843.594 
 2477000    290.01185   -4161.1277   -3664.0573   -4161.1277            0   -516.57653    18.036894    23.821545      22.3453    9601.0311    308.91199   -1284.9317   -573.70987    1450.0651   -353.04319   -146.01505    -3736.389 
 2478000     274.6073   -4165.5492   -3694.8817   -4165.5492            0   -1548.9067    18.206442    23.542252     22.47401    9632.8248   -1821.2492   -2187.7405    -637.7303    96.647675   -618.04766    719.48659   -3912.4796 
 2479000    291.73272   -4210.0213   -3710.0014   -4210.0213            0   -822.96452    18.489018    23.535002    22.051894    9595.6409   -2351.9407   -1151.1627    1034.2099    19.038319   -425.67515   -216.92496   -3825.1691 
 2480000    285.25229   -4178.0364   -3689.1238   -4178.0364            0   -1064.7704    18.188008    23.568709    22.314999    9565.7236   -752.65039   -281.80248   -2159.8582    364.50572     190.3866   -253.12979   -3837.6659 
 2481000    272.94056   -4177.1445   -3709.3338   -4177.1445            0    953.15653    18.067366    23.728961    22.179689    9508.8723    716.28718    1265.7744      877.408    426.40204   -507.27805   -797.39124   -3577.1527 
 2482000    281.01342   -4205.8616   -3724.2142   -4205.8616            0   -699.84034    18.093455    23.783125     22.12307    9519.9755    168.02269   -1579.7039   -687.83983   -527.12554   -247.78865     218.0391   -3821.3794 
 2483000    257.12572   -4185.0599   -3744.3552   -4185.0599            0    -860.3116    18.206335    23.504715    22.394152    9583.2351   -854.66231    -145.4513   -1580.8212   -216.97648    968.85468   -209.22011   -3864.5938 
 2484000    281.58734    -4186.114   -3703.4829    -4186.114            0   -1169.2778     18.60489    23.532833    21.984415    9625.3435   -2207.6931   -730.83556   -569.30482   -889.03244    250.99721   -384.29423   -3867.6212 
 2485000    273.43183   -4219.9333   -3751.2805   -4219.9333            0   -74.133944    18.219939    23.527301    22.375519    9591.6239   -1190.7933    310.65766    657.73378    865.43933    372.15883    277.44398   -3761.6507 
 2486000    279.32014   -4210.5398   -3731.7946   -4210.5398            0   -1305.4991    18.307373    23.919328    22.042567    9652.4411   -1740.6743    -1089.864   -1085.9591   -1130.5548   -658.56943   -23.240204    -3915.571 
 2487000    271.84015    -4194.285   -3728.3603    -4194.285            0   -1157.3275    18.100099    23.879337    22.270841    9625.8665    -1926.732    -372.6643   -1172.5861    967.19061   -1001.0013    254.27583   -3890.8298 
 2488000    274.17539   -4178.8799   -3708.9527   -4178.8799            0   -641.41524    18.074889     23.58465    22.509969    9595.7732    505.33288   -429.16654   -2000.4121   -920.08848   -394.97825   -194.66557   -3798.7152 
 2489000    271.50582   -4194.7906   -3729.4389   -4194.7906            0    57.217739    18.410865    23.524521    22.060856     9554.706   -1542.4146    117.27935    1596.7884    -234.2785    550.47277    216.54465   -3721.4659 
 2490000    274.35619   -4192.4495   -3722.2123   -4192.4495            0   -841.98679    18.401929    23.338178    22.293971    9574.5359    -1416.733    231.23129   -1340.4587   -1455.2515    -374.4474    629.45801    -3839.783 
 2491000    265.46349   -4202.3417   -3747.3464   -4202.3417            0   -1894.5012    18.175739    23.607507    22.471142    9642.0051   -2053.9553   -1230.8905   -2398.6576   -48.335066   -330.94103    690.51188   -4013.7487 
 2492000    278.17321   -4195.3336   -3718.5542   -4195.3336            0    -518.5302    18.119679    23.960723    21.995228    9549.4612   -1288.6771   -1282.0076    1015.0941   -971.52415    412.42675   -590.32928   -3790.7695 
 2493000    284.96796    -4188.501   -3700.0757    -4188.501            0   -226.10751    18.105915    23.552189    22.315692    9516.1677   -92.513528    429.98077   -1015.7898    1272.4481    582.50867    292.66067   -3731.4557 
 2494000    273.75591   -4187.3409   -3718.1327   -4187.3409            0   -1085.9558    18.391916    23.484726    22.149978    9567.2206   -1992.8138    497.76793   -1762.8215    188.63246    379.46298    322.56552    -3869.654 
 2495000    284.38257   -4177.1878   -3689.7658   -4177.1878            0   -1131.9133    18.293964    23.708748    22.189464    9624.1691   -1262.0333   -982.27753   -1151.4291    911.46473    29.081296    149.78646   -3848.6396 
 2496000    272.61453   -4198.9276   -3731.6757   -4198.9276            0   -1193.8543    18.166912    23.632609    22.244594    9550.3052   -988.28316   -1282.3302   -1310.9494    -77.26388   -391.46903   -449.49315   -3897.9574 
 2497000    265.79041   -4192.0864   -3736.5307   -4192.0864            0    402.59141    18.124536    23.575039    22.154245    9466.2132    393.95421   -706.89812    1520.7181    -290.5365   -299.79278    321.56715    -3680.951 
 2498000    282.30505   -4182.3707   -3698.5095   -4182.3707            0    244.91813    18.092246     23.81403    22.045602    9498.3317    801.89555    435.60313    -502.7443   -47.395556   -61.930804    233.81206   -3664.5826 
 2499000    273.75543   -4215.3067   -3746.0992   -4215.3067            0   -580.08717     18.18604    23.441606    22.380213    9540.9082    128.81834    -472.5514   -1396.5285    419.13684    16.868014   -849.23755   -3826.8151 
 2500000    286.43379   -4167.8187    -3676.881   -4167.8187            0   -640.52754    18.359516     23.49471    22.320894    9628.1508   -1416.9031    702.68455   -1207.3641   -328.27624   -365.96466    76.568329   -3766.8217 
Loop time of 385.079 on 64 procs for 250000 steps with 864 atoms

Performance: 112.185 ns/day, 0.214 hours/ns, 649.217 timesteps/s
377.6% CPU use with 16 MPI tasks x 4 OpenMP threads

MPI task timing breakdown:
Section |  min time  |  avg time  |  max time  |%varavg| %total
---------------------------------------------------------------
Pair    | 24.868     | 27.446     | 30.984     |  33.5 |  7.13
Bond    | 1.678      | 1.8982     | 2.4146     |  14.8 |  0.49
Kspace  | 200.11     | 204.49     | 211.44     |  20.5 | 53.10
Neigh   | 1.611      | 1.753      | 1.9808     |   9.8 |  0.46
Comm    | 52.975     | 59.011     | 63.426     |  36.3 | 15.32
Output  | 1.0019     | 1.0022     | 1.0037     |   0.0 |  0.26
Modify  | 61.576     | 69.324     | 73.471     |  43.8 | 18.00
Other   |            | 20.15      |            |       |  5.23

Nlocal:        54.0000 ave          65 max          44 min
Histogram: 3 1 1 3 0 2 2 1 1 2
Nghost:        2483.94 ave        2519 max        2452 min
Histogram: 1 2 2 0 4 3 1 1 0 2
Neighs:        12658.9 ave       15043 max       10624 min
Histogram: 3 1 2 2 0 1 3 2 0 2

Total # of neighbors = 202542
Ave neighs/atom = 234.42361
Ave special neighs/atom = 2.0000000
Neighbor list builds = 7189
Dangerous builds = 0

unfix		3
unfix		2
unfix		1

write_data	data.final.${pid} nocoeff
write_data	data.final.0 nocoeff
System init for write_data ...
PPPM initialization ...
  extracting TIP4P info from pair style
  using 12-bit tables for long-range coulomb (../kspace.cpp:340)
  G vector (1/distance) = 0.37073625
  grid = 24 27 25
  stencil order = 5
  estimated absolute RMS force accuracy = 0.0032656212
  estimated relative force accuracy = 9.8343211e-06
  using double precision FFTW3
  3d grid and FFT values/proc = 6300 1296
Last active /omp style is kspace_style pppm/tip4p/omp

write_restart   restart.lmp.${pid}
write_restart   restart.lmp.0
System init for write_restart ...
PPPM initialization ...
  extracting TIP4P info from pair style
  using 12-bit tables for long-range coulomb (../kspace.cpp:340)
  G vector (1/distance) = 0.37073625
  grid = 24 27 25
  stencil order = 5
  estimated absolute RMS force accuracy = 0.0032656212
  estimated relative force accuracy = 9.8343211e-06
  using double precision FFTW3
  3d grid and FFT values/proc = 6300 1296
Last active /omp style is kspace_style pppm/tip4p/omp
Total wall time: 0:06:25
