LAMMPS (30 Jul 2021)
  using 1 OpenMP thread(s) per MPI task
package omp 0
using multi-threaded neighbor list subroutines
echo both

include		in.partitions
variable        pid world 0
include		in.temp
variable        temperature equal 241.94
variable	tempDamp equal 100.0
include		in.pressure
variable        pressure equal 4250.0
variable        pressureDamp equal 1000.0 # This is 1 ps
include		in.seed
variable        seed world 745823

units		real
atom_style	full
read_restart    restart.lmp.${pid}
read_restart    restart.lmp.0
Reading restart file ...
  restart file = 30 Jul 2021, LAMMPS = 30 Jul 2021
  restoring atom style full from restart
  triclinic box = (-3.3367305 -0.28314578 0.014913535) to (14.946730 22.863145 19.215084) with tilt (-0.23020747 -6.9690544 0.11934064)
  4 by 4 by 4 MPI processor grid
  restoring pair style lj/cut/tip4p/long/omp from restart
  restoring bond style harmonic/omp from restart
  restoring angle style harmonic/omp from restart
  1008 atoms
  672 bonds
  336 angles
Finding 1-2 1-3 1-4 neighbors ...
  special bond factors lj:    0        0        0       
  special bond factors coul:  0        0        0       
     2 = max # of 1-2 neighbors
     1 = max # of 1-3 neighbors
     1 = max # of 1-4 neighbors
     2 = max # of special neighbors
  special bonds CPU = 1.975 seconds
  read_restart CPU = 2.365 seconds

include 	in.setup
variable	out_freq equal 1000
variable	out_freq2 equal 10000
variable	out_freq3 equal 1000

timestep	2.0

neigh_modify    delay 7 every 1

include		in.tip4p
# This is TIP4P/Ice

# create groups ###
group ox type 2
336 atoms in group ox
group hy type 1
672 atoms in group hy

# set charges - beside manually ###
set group ox charge -1.1794
Setting atom values ...
  336 settings made for charge
set group hy charge 0.5897
Setting atom values ...
  672 settings made for charge

# ### TIP3P Potential Parameters ###
pair_style lj/cut/tip4p/long/omp 2 1 1 1 0.1577 8.5
pair_coeff 1 1*2 0.000 0.000
pair_coeff 2 2 0.21084 3.1668
bond_style  harmonic
bond_coeff  1 450 0.9572
angle_style harmonic
angle_coeff 1 55 104.52
kspace_style pppm/tip4p/omp 1.0e-5
pair_modify tail yes

thermo          ${out_freq}
thermo          1000
thermo_style    custom step temp pe etotal epair emol press lx ly lz vol pxx pyy pzz pxy pxz pyz enthalpy

restart 	${out_freq3} restart.lmp.${pid} restart2.lmp.${pid}
restart 	1000 restart.lmp.${pid} restart2.lmp.${pid}
restart 	1000 restart.lmp.0 restart2.lmp.${pid}
restart 	1000 restart.lmp.0 restart2.lmp.0


include         in.dump
dump            myDump all atom ${out_freq2} dump.water.${pid}
dump            myDump all atom 10000 dump.water.${pid}
dump            myDump all atom 10000 dump.water.0
dump            myDump2 all dcd ${out_freq2} dump.dcd
dump            myDump2 all dcd 10000 dump.dcd
dump_modify     myDump append yes
dump_modify     myDump2 append yes


variable natoms 	equal  "count(all)"                        # NUMBER ATOMS
variable H      	equal  "enthalpy/v_natoms"                 # ENTHALPY-per-atom
variable Vol      	equal  "vol/v_natoms"                 # volume-per-atom
fix AVG all 		ave/time ${out_freq} 1 ${out_freq} v_Vol v_H file vol_enthalpy.dat
fix AVG all 		ave/time 1000 1 ${out_freq} v_Vol v_H file vol_enthalpy.dat
fix AVG all 		ave/time 1000 1 1000 v_Vol v_H file vol_enthalpy.dat



fix 		1 all shake 1e-6 200 0 b 1 a 1
       0 = # of size 2 clusters
       0 = # of size 3 clusters
       0 = # of size 4 clusters
     336 = # of frozen angles
  find clusters CPU = 2.428 seconds
fix             2 all nph tri ${pressure} ${pressure} ${pressureDamp}
fix             2 all nph tri 4250 ${pressure} ${pressureDamp}
fix             2 all nph tri 4250 4250 ${pressureDamp}
fix             2 all nph tri 4250 4250 1000
fix             3 all temp/csvr ${temperature} ${temperature} ${tempDamp} ${seed}
fix             3 all temp/csvr 241.94 ${temperature} ${tempDamp} ${seed}
fix             3 all temp/csvr 241.94 241.94 ${tempDamp} ${seed}
fix             3 all temp/csvr 241.94 241.94 100 ${seed}
fix             3 all temp/csvr 241.94 241.94 100 745823


run             250000
PPPM initialization ...
  extracting TIP4P info from pair style
  using 12-bit tables for long-range coulomb (../kspace.cpp:340)
  G vector (1/distance) = 0.38252927
  grid = 24 30 32
  stencil order = 5
  estimated absolute RMS force accuracy = 0.0020220308
  estimated relative force accuracy = 6.0892857e-06
  using double precision FFTW3
  3d grid and FFT values/proc = 4080 384
Last active /omp style is kspace_style pppm/tip4p/omp
Neighbor list info ...
  update every 1 steps, delay 7 steps, check yes
  max neighbors/atom: 2000, page size: 100000
  master list distance cutoff = 10.8154
  ghost atom cutoff = 10.8154
  binsize = 5.4077, bins = 5 5 4
  1 neighbor lists, perpetual/occasional/extra = 1 0 0
  (1) pair lj/cut/tip4p/long/omp, perpetual
      attributes: half, newton on, omp
      pair build: half/bin/newton/tri/omp
      stencil: half/bin/3d/tri
      bin: standard
Per MPI rank memory allocation (min/avg/max) = 9.338 | 9.345 | 9.348 Mbytes
Step Temp PotEng TotEng E_pair E_mol Press Lx Ly Lz Volume Pxx Pyy Pzz Pxy Pxz Pyz Enthalpy 
11000000    249.39368    -4848.252   -4349.4339    -4848.252            0     3848.884     18.28346    23.146291    19.200171    8125.4025    2288.7117    4485.6532    4772.2873    1712.4576    1669.3157   -1371.8555   -3893.3386 
11001000    238.61512   -4860.1764   -4382.9167   -4860.1764            0    4240.2034    17.956999    23.094488    19.502736    8087.9346     4281.346     3854.512    4584.7523    1737.2763    391.24728   -276.55737   -3882.7668 
11002000    255.39099   -4883.3789   -4372.5653   -4883.3789            0    3549.5145    18.127156    23.149765    19.297711    8098.0796    3035.8892    2461.7358    5150.9185    396.09107   -865.45925    699.09062   -3953.3599 
11003000    237.22968   -4857.4471   -4382.9585   -4857.4471            0    3912.7402    18.057881    22.969338    19.490667    8084.2912    4184.2561    4753.7395     2800.225   -555.20116    1106.7625    299.22129   -3921.6421 
11004000    241.59415   -4897.4029   -4414.1848   -4897.4029            0    3459.1559    18.129444    22.929064    19.457983    8088.5119    2751.9124     3290.907    4334.6483    225.56001   -497.98162    423.46876   -4006.1336 
11005000    233.60405   -4843.5518   -4376.3148   -4843.5518            0     3450.606    18.356318    22.781391    19.398366    8112.0565    2367.4086    4011.8875    3972.5217     933.5851    739.94404    590.29455   -3968.0873 
11006000    240.73908   -4843.4835   -4361.9756   -4843.4835            0    2991.9554    18.209762     22.69811    19.682594    8135.3508     2795.695    4117.9511    2062.2199   -142.16504    1861.9605   -1206.3902   -4006.9929 
11007000    238.24739   -4853.9266   -4377.4024   -4853.9266            0    4126.5214    18.311169    22.601506    19.493326    8067.5078    3616.7822    4992.3427    3770.4394    -304.0397   -1065.9265    537.31821   -3891.8911 
11008000    242.11299   -4849.0669    -4364.811   -4849.0669            0    3889.6663    18.031101    23.020534      19.4265    8063.6597    4172.6104    4192.7347    3303.6536    1037.2788    90.725498   -171.64345   -3907.3855 
11009000    252.62169   -4855.5978   -4350.3233   -4855.5978            0    3427.8897    17.965831    23.247674    19.377826    8093.4159    3352.3722    3158.5549    3772.7422    968.57923    10.216853    6.8002719   -3945.7151 
11010000    240.00699   -4836.7441   -4356.7005   -4836.7441            0    4299.1008    18.128557     23.27564    19.189849     8097.229    2949.2123    4176.6757    5771.4144    679.40677    338.23435   -496.23365   -3849.0206 
11011000    236.72668   -4863.4373   -4389.9547   -4863.4373            0    4127.6243    17.952512    23.134734    19.503497     8100.321     5797.383    3996.0558     2589.434    389.09319     950.6815    1686.7484   -3902.3384 
11012000    250.85067   -4830.2134    -4328.481   -4830.2134            0    4651.4841    18.251848    23.027517     19.23616    8084.8566    2923.4341    5188.6678    5842.3503   -1049.5315   -410.02839   -1845.5094   -3780.0276 
11013000    242.76531   -4820.8709   -4335.3103   -4820.8709            0    4718.6641    18.084909    22.931557    19.400711     8045.768    4374.3614    5093.1062    4688.5245   -455.33204   -414.13383    883.50007   -3781.6256 
11014000    241.32165   -4867.4889   -4384.8157   -4867.4889            0    2516.2391    18.130956    23.021874    19.455591    8120.9308     2823.042    2122.3385    2603.3369   -356.62188   -323.65147   -1316.4594   -4086.8038 
11015000    253.41799   -4885.3009   -4378.4336   -4885.3009            0    4635.7582     18.20376    22.754853    19.511902    8082.2957    4342.9495    5845.0223    3719.3026    1471.1173     1049.479   -143.67536   -3832.0075 
11016000    244.84354   -4853.8845   -4364.1672   -4853.8845            0    4736.0686    18.134367    22.891872    19.456284    8076.8797     3809.056    5784.9639    4614.1859   -365.70181    663.68982   -1461.8794   -3806.2914 
11017000     247.5136   -4868.2563   -4373.1985   -4868.2563            0    3762.6031    18.025635    23.125128    19.432834    8100.4819    3680.1402    3270.8756    4336.7935    1544.6168   -199.65464    820.19896   -3928.6951 
11018000    227.96937    -4857.261   -4401.2941    -4857.261            0    4289.2922     18.13107    22.848242    19.500723    8078.4293    2836.4141    4995.2347    5036.2279   -436.91198    267.90679   -1417.3858   -3895.9486 
11019000    249.18027   -4866.5704   -4368.1791   -4866.5704            0     4477.507    18.162546    22.915302    19.347619     8052.483    2615.4711     5163.142    5653.9079    2355.0414     218.8194    505.05933   -3842.3532 
11020000    245.28515    -4877.721   -4387.1204    -4877.721            0     3366.048    18.172309    22.817758    19.618291    8134.7509    3728.4199    3674.1081    2695.6159    384.22913    1479.4445   -166.79367   -3987.7826 
11021000    239.01731    -4872.176   -4394.1118    -4872.176            0    5113.6193    18.147373    22.920306    19.343028    8045.6039    5414.0828    4522.0083    5404.7669    1215.1651     578.6766    1503.8099   -3794.0957 
11022000    244.52739   -4865.8484   -4376.7634   -4865.8484            0    3966.0879    18.129758    22.981222    19.450175    8103.7988     4489.101    4323.0698     3086.093     881.8745    1870.2448    425.63321   -3908.0289 
11023000    233.38971   -4874.2131   -4407.4049   -4874.2131            0    3233.7729    18.090988    23.095529    19.385583    8099.7025    4811.7924    2554.9705    2334.5557   -1892.7659   -601.57143    -580.2037   -4025.4127 
11024000    258.78838   -4838.9225   -4321.3137   -4838.9225            0    5847.8865    17.962634    22.918444    19.522882    8037.0944     7405.935    4985.4259    5152.2986   -1733.8866   -887.35533   -2377.0793   -3635.8667 
11025000    252.45768   -4848.4172   -4343.4706   -4848.4172            0     4717.722    18.170395    22.968808    19.328354    8066.7334    3719.5423    5326.9605    5106.6633    215.00582    270.73748    1701.0822    -3788.454 
11026000    246.99426    -4849.094    -4355.075    -4849.094            0    3865.4554     18.14518    22.899079    19.540835    8119.3715     5166.013    2771.4602     3658.893   -543.82268   -1435.3296   -762.87498    -3897.356 
11027000    259.93762   -4860.0826   -4340.1753   -4860.0826            0    6231.8857    18.092704     22.75647     19.52146    8037.4946    7700.4125    6031.7468    4963.4978    56.375098   -735.63583    450.84794   -3609.6822 
11028000    240.57015   -4869.0193   -4387.8493   -4869.0193            0    4901.6609    18.439515    22.635196    19.312301    8060.6078    4762.1579    4049.6464    5893.1784   -1106.5803    900.05412    566.83106   -3811.6311 
11029000    250.25044   -4863.9375   -4363.4057   -4863.9375            0    6838.5267    18.025053    22.714236    19.490102    7979.7412    5934.7447    8073.1189    6507.7165   -426.03792    1107.1594    80.566985    -3567.563 
11030000     250.0263   -4852.4169   -4352.3334   -4852.4169            0    2306.3224    18.276968    22.964529    19.427161    8154.0062    3264.2886    2150.3249    1504.3537    127.40835     -5.12506    1158.1247   -4078.0706 
11031000    255.16083   -4857.0187   -4346.6655   -4857.0187            0    3555.5062    18.074852    23.017472    19.401437    8071.7229    2144.9645    3934.1235    4587.4306    -1172.525    579.79395   -636.27878   -3928.1191 
11032000    247.37702   -4853.3454   -4358.5608   -4853.3454            0    5061.5086    18.095587    23.133479    19.324692    8089.5848    5921.6199    3765.5828    5497.3231    62.948559    294.21852    1174.9539   -3761.4127 
11033000    242.30453   -4851.4492   -4366.8102   -4851.4492            0    3247.3547    18.113984    23.137267    19.420485    8139.2821    3029.5883    3384.8096    3327.6661   -428.95026    774.13479   -173.25611   -3981.3392 
11034000    238.66077    -4878.081     -4400.73    -4878.081            0    3962.1125    18.188813    22.774023    19.528973    8089.5343    3399.0968    4313.5275    4173.7133    1221.6692    41.202434    1040.8538   -3933.2896 
11035000    248.08922   -4907.5252   -4411.3161   -4907.5252            0    4779.7988    18.204989    22.780371    19.397128    8044.3073    3231.0159    4590.8225    6517.5579   -185.38048   -367.72532   -1761.2955   -3850.5598 
11036000    234.51699   -4866.3872   -4397.3243   -4866.3872            0    5191.5646    18.102845    22.721658    19.543201    8038.6392    5627.3758    5426.3298    4520.9882   -182.62574   -897.76477    2128.0031   -3788.6896 
11037000    238.57629   -4846.3977   -4369.2156   -4846.3977            0    4456.6229    18.244489    22.857309     19.42336    8099.9281    3775.9597    4561.6568    5032.2522    190.01936   -302.23803    2663.9713   -3842.7586 
11038000     239.5116   -4856.9525   -4377.8998   -4856.9525            0    3294.1879     18.10397    22.980615    19.509442    8116.7154    6930.6474    2214.4931    737.42327   -137.77002   -962.71561    577.07801   -3987.9537 
11039000      241.438   -4864.4051   -4381.4993   -4864.4051            0    4728.5854     18.06571    23.145419    19.271649    8058.2172    3502.4632    4423.5192    6259.7738   -127.37645   -589.81611    281.34694    -3825.792 
11040000    243.00303   -4850.9786   -4364.9425   -4850.9786            0     5105.575    18.074091    23.039844    19.352577    8058.8819    6182.6592    3910.0537     5224.012     -591.983    143.53161   -320.98594   -3764.8816 
11041000    239.56856   -4851.7306   -4372.5639   -4851.7306            0    3505.8314    18.022908    23.148072    19.507569    8138.4714    4219.9465    3564.0379    2733.5098   -618.98765    335.93132   -1739.3509   -3956.4523 
11042000    248.29294   -4864.8374   -4368.2209   -4864.8374            0    5597.4741    18.076004    23.096989    19.208645    8019.6336    5057.9578    5439.5555     6294.909   -1558.9055   -191.58532   -1604.4628   -3713.5508 
11043000    247.25917   -4843.7992   -4349.2503   -4843.7992            0    4211.6503    18.084518    23.065091    19.412487    8097.3572    4668.9856     4550.069    3415.8963    620.44189   -991.57126    419.97378   -3851.8896 
11044000    239.14298   -4886.4516   -4408.1361   -4886.4516            0    4165.5878    18.031269    22.816392    19.601989     8064.425    6529.5483    4024.5228    1942.6923    1211.0805   -1400.8542    1064.6301   -3918.2156 
11045000    236.01107   -4884.2428   -4412.1914   -4884.2428            0    3306.0239    18.335069    22.827654    19.363929    8104.7066    3180.6258    2911.1917    3826.2542   -984.77295   -41.001812    654.10856   -4021.4233 
11046000     237.2585   -4869.4362   -4394.8899   -4869.4362            0    3826.0997     18.24456    22.756112    19.498084    8095.1218    4320.4176    3799.9123    3357.9693    980.91147    725.72854    1400.9831   -3943.1842 
11047000    246.57267    -4866.419   -4373.2432    -4866.419            0    5470.3129    18.095425    22.849209    19.487209    8057.3012    7302.9672    4796.2375     4311.734   -119.56514    259.19973     83.27208   -3730.4405 
11048000    240.17836   -4873.1337   -4392.7473   -4873.1337            0    3421.8552    18.201391     22.92521    19.401698    8095.7604    4161.5466    2814.2919    3289.7271   -75.448988    597.87864    -911.1547   -3988.7345 
11049000    242.81652    -4838.414    -4352.751    -4838.414            0    5304.2518    17.934983    22.993773    19.582995    8075.8888     5835.403    5577.8195    4499.5329    396.07745    276.89656   -267.66586   -3728.0239 
11050000    236.14142    -4863.247   -4390.9349    -4863.247            0      4967.84    18.090528    22.997895    19.362768    8055.7648    2989.6948    6343.3194    5570.5057    347.88296   -370.20517   -984.76918   -3807.2879 
11051000    253.91564   -4820.8955   -4313.0329   -4820.8955            0    2597.0672    18.115401    22.946425    19.619328    8155.4346    2907.4673    3388.6527    1495.0815    647.76308    345.77192   -601.31008   -4004.1412 
11052000    237.95531    -4875.395    -4399.455    -4875.395            0    3916.0761    18.300887    22.621537    19.523549     8082.636    2623.6458    5318.0733    3806.5093   -1175.9788     282.7999   -1048.0991   -3937.8399 
11053000    244.60918   -4898.3933   -4409.1447   -4898.3933            0    5330.7381    18.138173    22.784119    19.448069    8037.1538    4033.1064    5620.4291    6338.6789    955.50339   -26.352288    152.64516   -3784.3094 
11054000     242.6142   -4831.8383   -4346.5799   -4831.8383            0    2176.0135    18.171444    23.000279     19.51158    8154.8314    876.73235    2881.2308    2770.0773    405.64787   -635.73821    -1919.108   -4087.7869 
11055000    248.43257   -4850.4043   -4353.5084   -4850.4043            0    4354.0011    18.144654    23.178206    19.241825    8092.3522    3658.2018    4543.3111    4860.4904    517.48753    176.18889     636.0479   -3839.6551 
11056000    250.81691   -4826.8873   -4325.2225   -4826.8873            0    4766.2719     18.01657    23.034709    19.533387    8106.4816    6003.3075    4923.4453    3372.0628   -427.24337    517.03319    330.17195   -3761.7313 
11057000    241.19458   -4883.5871   -4401.1681   -4883.5871            0    4440.3519    18.132349    23.129055    19.233715    8066.3139    5564.6772    2396.9366    5359.4419   -175.09241   -73.143653    1103.1106     -3878.81 
11058000    236.18983    -4841.218   -4368.8091    -4841.218            0    4337.3328    18.142726    23.036336    19.358832    8090.8675    4075.5967    4680.1812    4256.2205    325.45826    420.76796    1869.1891   -3857.0169 
11059000    230.43937   -4841.7129   -4380.8057   -4841.7129            0    3204.5031    18.098095    22.946873    19.539036    8114.4579    2973.0146    3773.9762    2866.5186   -297.33914    1125.7341   -741.70189   -4001.5814 
11060000    248.95811   -4874.1154   -4376.1684   -4874.1154            0     5068.546    18.216195     22.80704    19.364945    8045.3113    4996.5994    4950.6082    5258.4304    160.09515   -1020.2038    -1903.118   -3781.4627 
11061000     246.5236   -4846.3267    -4353.249   -4846.3267            0    3821.2321    18.173345     22.84881     19.51534    8103.5363    2736.7611    3705.7785    5021.1566    228.77145   -1320.8107    1654.5555    -3901.649 
11062000    262.52686   -4849.6163   -4324.5302   -4849.6163            0    3658.7388    18.146819    22.807522    19.586862    8106.6883    4844.9215    3639.4917    2491.8032    1133.7866   -465.17299   -662.92177   -3891.9658 
11063000    247.47672   -4843.0847   -4348.1007   -4843.0847            0    2771.3702     18.21751    22.777856    19.658536     8157.424    4617.2501    1845.4882    1851.3722    976.81535   -1366.5326    -93.85871   -4018.3972 
11064000    242.53424   -4876.9233   -4391.8248   -4876.9233            0    2716.7496    18.265796    22.788851    19.555044    8139.9144    2239.1363    3365.8741    2545.2385   -1011.2003   -134.95188     1116.444   -4069.3132 
11065000    236.78016   -4870.5847   -4396.9952   -4870.5847            0    5251.6656    18.153196    22.814284    19.428568    8046.3834     5625.782    4926.1249    5203.0898   -617.15159   -421.41925    245.17945   -3780.7214 
11066000    252.19196   -4838.8399   -4334.4248   -4838.8399            0    4587.9256    18.160151    22.879979    19.356863    8042.8521    5196.8902      4627.82    3939.0666    1218.0245    312.37543   -124.81828   -3796.2761 
11067000    248.55951   -4882.8206   -4385.6709   -4882.8206            0    4156.7959    18.016821    23.013934    19.456146    8067.2563    3946.1834    4454.4467    4069.7577    75.660353    183.62206    540.91646   -3896.6128 
11068000    241.65226   -4853.2973    -4369.963   -4853.2973            0    4002.7428    18.011508    23.099212    19.420954    8080.1197    4677.7088    3147.8906     4182.629   -260.15934    74.409434   -111.40235   -3898.2787 
11069000    227.02281    -4868.633   -4414.5593    -4868.633            0    4022.0456    18.012534    23.165789    19.380947    8087.1759    3486.5726    2923.0007    5656.5633   -1151.1777   -609.56985   -493.66571   -3940.1865 
11070000    245.90141   -4848.9011   -4357.0679   -4848.9011            0    4293.7927    18.056653    23.148722    19.337976    8083.0502    4917.4368     4352.629    3611.3123   -1531.1832   -173.34219    601.10255   -3850.9028 
11071000     234.5675   -4844.7201   -4375.5561   -4844.7201            0    2329.8472    18.121955    22.953927      19.6415    8170.2751    4491.5108    1155.8707    1342.1599     -1230.74   -717.78646    2107.9612    -4097.943 
11072000    250.63743   -4820.2327   -4318.9269   -4820.2327            0    4175.1687    18.208983    22.754474    19.610368    8125.2781    5001.0299     3865.466    3659.0102    1208.0691   -301.42021    1833.5756   -3824.1742 
11073000    235.30178   -4878.6472   -4408.0145   -4878.6472            0     4885.983    18.265922    22.614208     19.49883    8054.3693    3913.0715    5832.6916    4912.1858    17.118778    497.62714   -1026.2028   -3834.0839 
11074000    240.30288   -4894.4108   -4413.7753   -4894.4108            0    3269.9917    18.314155    22.713718    19.525446    8122.2448    3226.5806    3311.5255    3271.8691   -1242.6807    524.82106   -603.02013   -4026.4297 
11075000    233.40824   -4856.5082   -4389.6629   -4856.5082            0    4957.2171    18.073701    22.939358    19.540847    8101.6175    5680.1967    4760.2814    4431.1732    942.81344    191.46436   -1244.6119    -3803.949 
11076000    243.25645   -4856.1143   -4369.5713   -4856.1143            0    5250.7298    18.057438    23.118264    19.309061    8060.6957    4728.9087    5454.1281    5569.1526   -463.73102   -548.16741   -800.26261   -3752.3114 
11077000     230.7386   -4880.1669   -4418.6612   -4880.1669            0    3777.4331    18.025535    23.153968    19.357771    8079.2108    4917.5428    2895.3406    3519.4159    76.478091   -504.87004   -1297.8002   -3973.5775 
11078000    254.82158   -4842.6652   -4332.9906   -4842.6652            0    4408.1532      17.9918    23.214075    19.408479    8106.2036    4182.2574    4524.9696    4517.2326    1350.7813   -6.5396679    3289.1485   -3811.8558 
11079000    245.13911   -4883.4178   -4393.1093   -4883.4178            0    5498.3024    18.124989    22.944234    19.237201    8000.0591    5757.4783    5096.1361    5641.2927   -1471.9912   -167.04167   -654.42529   -3751.6077 
11080000    260.62261   -4870.3364    -4349.059   -4870.3364            0    3451.8929    18.080235    22.922808    19.570475    8110.9787    3738.2074    3400.9076    3216.5637    662.05449   -656.58063   -888.07278   -3940.7335 
11081000     239.2601   -4845.7898   -4367.2401   -4845.7898            0    3915.0638    18.205422    22.880143    19.469675    8109.9501    3882.0835    5684.8443    2178.2636    -6.292528    937.38738    -1449.129   -3904.1847 
11082000    245.59527   -4893.5171   -4402.2962   -4893.5171            0    3972.6268    18.230061    22.730748    19.468518    8067.4217    2695.1193    4950.3952    4272.3659    1142.0798    535.99458    101.40679   -3934.8965 
11083000     247.8808   -4854.9098   -4359.1176   -4854.9098            0    3216.3712    18.085171    22.973809    19.576241    8133.6396    4585.7862    2936.2679    2127.0595    1272.7574    564.87108    1701.4972   -3977.5891 
11084000    235.91178   -4806.0004   -4334.1477   -4806.0004            0    5002.9974    18.213671      22.9165    19.389845    8093.1971    3589.0289    5135.1547    6284.8086   -114.76926   -1094.1345   -546.48688    -3743.639 
11085000    237.99234   -4866.8724   -4390.8583   -4866.8724            0    3745.3557    17.951222     23.07227    19.503095    8077.7031    3188.0732    3685.3451    4362.6488    279.72347   -779.12486   -835.88905   -3949.6367 
11086000    244.81986   -4872.1615   -4382.4915   -4872.1615            0    6456.3336    18.027158    23.130001    19.199938    8005.7633    6609.9385    6648.7567    6110.3056    989.22292    139.29471    451.11601   -3628.6768 
11087000    234.03626   -4854.3088   -4386.2073   -4854.3088            0    3026.2907    18.134838    23.096334    19.442757    8143.5653    1792.9376    4250.9407     3034.994    288.71351    1529.0758    718.13228   -4026.7883 
11088000    248.15298   -4880.2687    -4383.932   -4880.2687            0    2089.0292    18.136688    23.153534    19.398729    8146.0774    3074.6502    872.23173    2320.2057    1047.7228   -277.70109    213.99053   -4135.7508 
11089000    228.15313   -4885.5992   -4429.2647   -4885.5992            0    5353.5277    18.199922    22.727411    19.447206    8044.0861    4990.3466    6022.8069    5047.4295    241.40336    700.66648    1923.7471    -3801.217 
11090000    241.00879   -4867.9484    -4385.901   -4867.9484            0    5571.7752    18.233302    22.564849    19.514911    8029.0532    6130.7679    6529.4408     4055.117    -611.2064   -1080.4046   -1316.9235   -3733.4712 
11091000    243.29175   -4878.9897   -4392.3762   -4878.9897            0     3187.267    18.369878    22.525282    19.558154    8092.9035    4131.4037    3941.9434     1488.454     94.87923   -438.84112    1054.6869   -4016.1936 
11092000    242.42235   -4873.2752   -4388.4005   -4873.2752            0    4554.2425     18.11807    22.927441    19.400755    8059.0925    5040.8035     4344.388    4277.5359   -353.72014    10.708119    454.71238    -3853.124 
11093000    252.68252   -4855.5156   -4350.1193   -4855.5156            0    3974.2387    18.031473    23.057657    19.450307    8086.7282    4958.1963    3827.4736    3137.0461    1063.8929    211.27366   -142.97828    -3881.411 
11094000    239.07968   -4856.0605   -4377.8716   -4856.0605            0    3647.0909    18.149074    23.001756    19.388775    8094.0495    3692.8875    3821.9753    3426.4098   -587.99311    584.50629    1365.6563   -3947.3565 
11095000    228.61457   -4869.7785   -4412.5211   -4869.7785            0    5996.3911    18.053036    22.946646    19.366777    8022.8156    6763.1221     5856.653    5369.3982   -1739.2952    518.80297   -621.22076   -3710.9161 
11096000    243.85669   -4857.3985    -4369.655   -4857.3985            0    2831.4838     18.09007     23.11172    19.411245    8115.6986    2134.1959    2433.2251    3927.0304   -1132.0286   -605.37551   -1386.3644    -4034.523 
11097000    250.10799   -4877.4472   -4377.2003   -4877.4472            0    4246.8535    18.072018    22.918839    19.454982    8058.0525    3630.6593    4600.6959    4509.2053   -322.55382   -486.20458     312.9484   -3878.1167 
11098000    248.44943   -4881.8887   -4384.9591   -4881.8887            0    3628.9666    18.061684    22.995494    19.546987    8118.5939    2969.4026    4279.9385    3637.5588   -91.433006     815.4649    799.43278   -3955.2845 
11099000    238.28409   -4857.6107   -4381.0131   -4857.6107            0    5038.8314    18.022754    23.092279     19.23895    8006.9904    6108.2521    4694.2568    4313.9852    323.98123   -1227.5881   -78.976317   -3792.6099 
11100000     237.6144   -4849.0623   -4373.8042   -4849.0623            0    5513.2554    18.042184    23.104373    19.356502    8068.8225    7608.2316    3790.8605    5140.6741    180.19162    276.19315   -469.84364   -3725.0291 
11101000    234.66676   -4889.0985    -4419.736   -4889.0985            0    2900.2007    18.073319    23.099224    19.447892    8119.0991    1655.5956    4090.3115    2954.6951    444.45421    476.77808   -410.93194   -4076.3269 
11102000     243.5217   -4871.0803   -4384.0068   -4871.0803            0    4546.4582    18.124883    22.882344     19.40898    8049.6765     3684.273    4697.4228     5257.679    576.41328   -279.49257   -461.18628   -3850.2695 
11103000    238.78514   -4831.5489   -4353.9492   -4831.5489            0    6405.3713    18.151486    22.752061    19.424904    8022.1692    6467.1265    6634.5343     6114.453   -94.082231   -823.96251   -1686.0331    -3604.552 
11104000    253.88977   -4869.0479    -4361.237   -4869.0479            0    4083.3325    18.038007    22.805871    19.606295    8065.4894    4790.4521    4799.8692    2659.6764    698.65721    3.3450404     438.2015   -3880.9273 
11105000    254.95444   -4843.0848   -4333.1444   -4843.0848            0    4787.8091    18.308046    22.787622    19.324074    8061.9423     3235.274    5779.1118    5349.0414    398.24725    285.01973   -2478.6197    -3770.217 
11106000    233.18918   -4871.7707   -4405.3636   -4871.7707            0    2823.7285     18.19976    22.956766    19.429567    8117.8213    2858.2198    2598.5837    3014.3822    606.68936    40.755518     1831.677   -4071.0621 
11107000    235.61743   -4840.4217   -4369.1578   -4840.4217            0    5822.4131    17.968964    23.006188     19.42555    8030.4711    6083.3296    5685.2184    5698.6912   -365.77529    413.61207    597.12894    -3687.259 
11108000    247.73336   -4852.5221   -4357.0248   -4852.5221            0    4934.0932    18.204961    23.049957    19.293695    8096.0891    5317.2111    4336.9816    5148.0869   -571.86812    -131.2205   -577.08632   -3774.4409 
11109000    241.48033   -4871.7616   -4388.7711   -4871.7616            0    4086.8949    17.927917    23.083227    19.510204    8073.9892    5168.4881    4175.2113    2916.9853   -1624.4308    511.56037   -1098.8387   -3907.5357 
11110000    240.01232   -4841.8289   -4361.7746   -4841.8289            0    3258.8204    18.212297    23.022004     19.38485    8127.7492    3313.5158    3319.0438    3143.9015   -477.72412    474.19435    604.73622   -3975.4907 
11111000    243.28864   -4820.0057   -4333.3984   -4820.0057            0    4527.1027    18.131744    23.031988    19.392692    8098.5842    3075.9227    4609.8269    5895.5585   -613.16252    97.447075   -822.80169   -3798.7043 
11112000    233.88975   -4833.1757   -4365.3673   -4833.1757            0    4695.5692    18.082317    22.972095    19.506883    8102.9385    4573.9512    5017.0378    4495.7186    56.992302    1416.6053    2188.0995   -3810.4775 
11113000    246.35715   -4880.8067    -4388.062   -4880.8067            0    4924.4113    18.256311    22.876592    19.250954    8040.0103    3779.6838    4929.6021    6063.9479   -984.64454   -486.04194   -204.06836   -3810.6486 
11114000    250.63222   -4866.5674    -4365.272   -4866.5674            0    2298.3917    18.240899    22.873025     19.50943    8139.8132    1627.9725    3515.9213    1751.2812    413.92762   -397.54492    305.52445    -4092.428 
11115000     242.5187   -4864.4498   -4379.3824   -4864.4498            0    3169.3478    18.142406    22.817149    19.587443    8108.3781    4344.5885     4096.949     1066.506   -1272.2496    1221.6725    413.78442   -4004.5995 
11116000    229.26676   -4868.6467   -4410.0849   -4868.6467            0    2971.9201    18.213763    23.001907    19.404812    8129.6711    4696.1025    2871.7626    1347.8953   -1284.6671    351.05952   -671.54171   -4057.7253 
11117000    234.25137   -4885.5285   -4416.9968   -4885.5285            0      3208.35    18.178134    22.992617    19.416724    8115.4697    1344.1251    3734.2017    4546.7231   -65.756145    747.95489   -654.44615     -4037.27 
11118000    233.78601   -4863.8533   -4396.2525   -4863.8533            0    6926.8601    18.043441    22.820076    19.378275    7979.0574    5453.0067    7199.2014    8128.3721    563.14851    755.71093    -750.0248   -3590.1989 
11119000    239.37842   -4880.5202   -4401.7337   -4880.5202            0    2977.3765    18.206191    22.905766     19.48625    8126.2877    3720.4062    3217.4286    1994.2945   -264.55226   -531.77553    790.72621   -4048.8742 
11120000    240.78074   -4865.6526   -4384.0613   -4865.6526            0    3851.4676    18.189755    22.859676    19.433337    8080.6125     4184.537    3650.2391    3719.6267   -499.62112   -766.34922   -776.69702   -3930.1757 
11121000    239.24268   -4873.5768   -4395.0619   -4873.5768            0     5427.381    18.102152    22.775541    19.533513    8053.3997    5266.7052    5734.6009    5280.8368    454.65461   -266.06777    237.80671   -3757.6129 
11122000    250.75686    -4851.809   -4350.2643    -4851.809            0    2873.9238    18.297894    22.788137    19.510593     8135.428    3355.4303    2393.3224    2873.0188    1034.6999   -578.44198    587.61764   -4009.2822 
11123000    243.03579   -4867.5037   -4381.4021   -4867.5037            0    4399.9773    18.063807    22.974737    19.407779    8054.4462    4384.5336    3889.7146    4925.6837    -786.7997    52.260359   -519.40218   -3864.5551 
11124000    245.82696   -4855.2741   -4363.5898   -4855.2741            0    4543.4022    18.138516    23.044113    19.346358    8086.5066    3784.3587    4829.0411    5016.8069    786.83222    486.98282   -444.37849   -3827.7709 
11125000    248.25605   -4848.5256   -4351.9828   -4848.5256            0    5411.1085    17.992764    23.114978    19.399926    8068.4748    4489.6916    5062.2351    6681.3989    678.91447   -493.36703   -1091.8609   -3715.2554 
11126000    239.88494   -4871.0401   -4391.2406   -4871.0401            0    4410.3918    17.997335    23.086052    19.401606    8061.1231    4431.6077    5235.0212    3564.5463    734.24543     497.3858   -1476.3258   -3872.7408 
11127000    236.53829   -4868.5683   -4395.4625   -4868.5683            0    3270.6264    18.125662    23.271797    19.245676    8118.1481    2218.0406    2643.0223    4950.8163    1267.5537    128.64585    1437.7402   -4008.2371 
11128000    241.02468   -4879.9934   -4397.9143   -4879.9934            0    4310.9426    17.974518    23.248126    19.310964    8069.5466    3103.6686    4389.3679    5439.7911   -438.71952     835.9787   -236.96097   -3890.5765 
11129000    260.45844   -4850.7904   -4329.8413   -4850.7904            0    4114.3664     18.13417    22.950981    19.535627    8130.6691    5418.4155    4091.9328     2832.751    5.5214382    1192.9426    367.25319   -3841.9702 
11130000    234.20151   -4877.9895   -4409.5576   -4877.9895            0    4780.7651    18.240125    22.813806    19.369134    8060.0131    4232.6158    3658.9351    6450.7445   -1270.6925   -396.53156   -563.11468   -3847.5929 
11131000    231.21286   -4871.8466   -4409.3923   -4871.8466            0    4080.6105    18.105802    22.829705    19.544236    8078.6122    4393.0585    4903.5216    2945.2515    -600.8693   -1072.4462   -590.78015   -3928.6218 
11132000    244.77223   -4844.1367    -4354.562   -4844.1367            0    3031.4738    18.184871    22.902209    19.530281    8133.8486    2997.1948    3513.8409    2583.3859   -425.89703   -701.77576    86.256425   -3994.9569 
11133000    249.27349   -4853.5072   -4354.9294   -4853.5072            0    4778.6572    18.237575    22.785136    19.396124    8059.9745    4432.0818     4112.484    5791.4057   -1113.0589    493.96506   -723.27285   -3793.2152 
11134000    232.83747   -4869.5173   -4403.8136   -4869.5173            0    3810.6701    18.203679    22.657423     19.61538    8090.3332    4194.0292    4063.2066    3174.7746    -629.3097    818.65595    186.60386   -3954.1956 
11135000    236.08476   -4863.3477    -4391.149   -4863.3477            0    4501.9112    18.263853    22.759175    19.371563    8052.1817    4294.5853    4999.1159    4212.0322   -852.11452   -677.57015    1851.6804   -3862.4769 
11136000    256.17996   -4868.1995   -4355.8079   -4868.1995            0    4513.2984    18.041534    23.004668    19.487183    8087.9506     5461.385    3583.0506    4495.4596    967.50222    799.53903    842.82348   -3823.4443 
11137000     243.3358   -4877.3655   -4390.6639   -4877.3655            0    5270.8249    18.112564    23.085517    19.245791    8047.3951    4751.5087    3669.1476    7391.8183   -965.16609   -845.19137   -1114.1965    -3772.064 
11138000    244.42341   -4866.0222   -4377.1452   -4866.0222            0    5715.8685    18.019754    22.923344    19.422803    8023.0358    6842.6789     5671.401    4633.5255    841.06156   -448.38872    540.76847   -3708.3443 
11139000    239.75687   -4883.3661   -4403.8228   -4883.3661            0    4737.2173    18.199219    22.815927    19.476457    8087.2493    4457.9288    6077.1488    3676.5743    52.157002    528.13457    1166.2015   -3845.0953 
11140000    242.95439   -4854.9443   -4369.0055   -4854.9443            0    2574.1267    18.361362    22.767237    19.472663     8140.303    1737.1755    2384.3359    3600.8687   -1117.2215    759.76971    159.19129   -4063.4104 
11141000     248.1651    -4879.065   -4382.7041    -4879.065            0    4586.5897    18.229204    22.704799    19.425401    8039.9874     4325.931    5338.5156    4095.3223   -705.23216   -556.22697   -586.55565   -3844.9037 
11142000    244.67677   -4872.2659   -4382.8821   -4872.2659            0    3480.9748    18.094159      22.8957    19.561186    8103.7775    4917.4306     3371.008    2154.4857   -926.63402    541.18408    280.11451   -3971.4821 
11143000    241.84623   -4866.0667   -4382.3443   -4866.0667            0    4839.9929    18.168246    22.921007    19.376121    8068.8851    3877.1207    4244.4733    6398.3848   -707.65829   -284.91063   -104.78228   -3812.7913 
11144000    253.28518   -4877.1212   -4370.5196   -4877.1212            0    3645.9828    18.111363    22.978514    19.451839    8095.3146    3511.4049    4189.3025     3237.241   -997.21878   -307.57374    950.65814    -3940.068 
11145000    243.38725   -4870.0796    -4383.275   -4870.0796            0    4983.0318    18.093834    23.081856    19.289889    8056.2151    6610.9043    3598.9968    4739.1942    518.14035    796.27722    625.87121   -3797.8105 
11146000     248.0447   -4882.9687   -4386.8487   -4882.9687            0    5320.2043    18.028982    22.954962    19.497567    8069.1582    6197.7604    4629.8767    5132.9759    -296.9304    1539.0411   -1296.6578   -3760.7649 
11147000    230.17366    -4870.858   -4410.4823    -4870.858            0    4468.2788    18.239319    22.930368    19.309126    8075.7387    3441.1955    4297.3655    5666.2753   -773.09308    803.47561   -843.46874   -3884.2247 
11148000    241.70343    -4872.275   -4388.8382    -4872.275            0      4473.84    18.244531    22.965614    19.277782    8077.3297    3407.8584    4914.6181    5099.0437    957.57519    278.14952    777.42898   -3861.8218 
11149000    251.67513   -4859.1516   -4355.7703   -4859.1516            0    5844.9378    18.113787    22.878238    19.432219    8052.9358    5340.2589    5690.6001    6503.9543   -893.74902    275.02481   -269.30844   -3669.3185 
11150000    242.53837   -4874.7339   -4389.6271   -4874.7339            0     2873.508    18.183932    22.946514    19.414646     8100.913    2855.4831    3322.4366    2442.6041   -153.10622   -1251.9786    664.27523   -4050.1408 
11151000    257.47494   -4854.9324   -4339.9507   -4854.9324            0    3186.8158    18.117593    22.922761     19.58398    8133.3295     2276.478    3514.4151    3769.5543    81.409171   -197.89775    439.65469   -3961.9425 
11152000    236.54844   -4840.3016   -4367.1755   -4840.3016            0    6391.5963    18.139617    22.808546    19.398828    8026.0377    5521.9651    6280.2584    7372.5652    1141.2954    531.65312    1065.6579   -3619.0294 
11153000    255.75081   -4875.1126   -4363.5794   -4875.1126            0    2453.9852    18.158965    22.952722    19.478789    8118.7139    1042.9586    3703.4186    2615.5785    706.21418    544.32305   -222.85103   -4073.0199 
11154000    240.22111   -4864.7441   -4384.2722   -4864.7441            0    4152.6412     18.23596    22.890757     19.34199     8074.022    2901.8876    4948.0664    4607.9696    1304.9661   -353.58495   -446.91888   -3895.2931 
11155000    231.51436   -4855.0251   -4391.9677   -4855.0251            0    4338.9799    18.033523    22.926979    19.556566    8085.7444    5803.8944    4332.5379    2880.5075   -156.30362   -620.22354     575.0208   -3880.3053 
11156000    235.76366   -4878.7274    -4407.171   -4878.7274            0    2730.3868    18.175466    23.081844    19.340476    8113.7797    1973.8139    2800.5961    3416.7504    1262.4321   -345.50415   -152.60243   -4084.0812 
11157000    234.40297   -4854.6624   -4385.8275   -4854.6624            0    3083.8176    18.231178     22.86789    19.501754    8130.4486    1709.6515    4389.3625    3152.4388   -1330.4967    864.49174   -840.62601   -4020.1662 
11158000    239.54314   -4883.0934   -4403.9775   -4883.0934            0    5597.5016    18.176583      22.6305    19.492168    8018.0091    4795.5268     6115.582    5881.3959   -1879.7624   -451.44653   -1007.7698   -3749.4368 
11159000    228.06936   -4858.3246   -4402.1577   -4858.3246            0    4115.0473    18.173726    22.945461    19.456312    8113.3704    4763.1707    3959.5789    3622.3923    189.62259    1159.5178    769.91598    -3915.244 
11160000     240.9948    -4854.049   -4372.0296    -4854.049            0    4237.5675      18.1487     22.96869     19.42159    8095.9257    4148.6938    4197.3646     4366.644    -942.1714    369.10641   -852.96272   -3871.6967 
11161000    249.82763   -4899.5574   -4399.8713   -4899.5574            0    3070.1428    18.047461    23.065658    19.430749    8088.5651    5320.3983    1731.3693    2158.6607   -880.63786   -576.29783    1126.1215   -4037.7067 
11162000    241.53615   -4862.6309   -4379.5287   -4862.6309            0    2519.9048    18.185206    23.167102    19.302123    8131.9562    1803.9931    2315.3782     3440.343   -730.14376    -52.95077   -1323.6704   -4080.6775 
11163000    246.20847   -4875.2255   -4382.7782   -4875.2255            0    4762.8969    17.951787    22.990132    19.520632     8056.437     6989.491    3662.4225    3636.7772    1723.6603    456.79198   -330.02922   -3823.1622 
11164000    235.95783   -4861.4471   -4389.5023   -4861.4471            0    3248.8476    18.232769    22.789534     19.42916    8073.1325    3186.8807    2722.5052    3837.1568    -359.4928   -1661.2031    508.01569   -4006.9883 
11165000     237.5894   -4866.7306   -4391.5224   -4866.7306            0    3106.2892    18.344344    22.589922    19.611269    8126.8572    1564.7721    4265.5793    3488.5163   -371.70525    -179.7724    382.62943   -4023.3592 
11166000    255.02334   -4853.1406   -4343.0624   -4853.1406            0    4527.8265    18.225181    22.788447    19.497981    8097.9712    3846.4759    5289.5177    4447.4858    21.892239   -185.61104   -973.29616   -3808.3233 
11167000    234.99911   -4868.5568   -4398.5296   -4868.5568            0    4149.7356    18.157424    22.903105    19.442763    8085.4945    5050.1418    3513.5501     3885.515   -993.57663    305.87546    710.06516   -3909.1984 
11168000    247.53307   -4847.3867     -4352.29   -4847.3867            0    3852.9777    18.040577    23.128709    19.476355    8126.6117    5073.7786     3008.426    3476.7285   -183.25534    170.45509   -501.52104   -3895.6417 
11169000    262.84819   -4872.0043   -4346.2754   -4872.0043            0    3502.1729    18.142673     23.14683    19.308797    8108.6401    4234.6173    2112.1882    4159.7132   -1478.6511   -191.08351   -689.93379   -3932.1217 
11170000    247.78492   -4868.9889   -4373.3884   -4868.9889            0    4755.4211    18.081559    22.712328    19.590054    8045.1316    5366.9146    4748.1412    4151.2075   -1040.6376    29.559034    -219.5386   -3815.4349 
11171000    246.54013   -4855.5485   -4362.4377   -4855.5485            0    4492.8133    18.262556    22.626471    19.602097    8099.9235    5019.9504    4844.7425    3613.7469   -1530.7095   -99.030617   -1010.5884   -3831.7059 
11172000    229.60964   -4852.1222   -4392.8746   -4852.1222            0    4689.5212    18.206329    22.707796    19.483934    8055.1572    4739.5706    4563.6994    4765.2936    1188.3264   -1391.4154     -127.581   -3841.9674 
11173000    236.48642   -4878.0739   -4405.0719   -4878.0739            0    2657.9275    18.145227    22.868032    19.582556    8125.6961    3498.8031    2561.0033    1913.9762   -465.38686   -272.12758   -1295.8769   -4090.0943 
11174000    236.37879   -4859.8658    -4387.079   -4859.8658            0    5307.0971    17.984203     22.83651    19.538211    8024.2737    6308.7431    5473.9212    4138.6269    972.88628    631.89872    92.263101   -3766.0117 
11175000    238.92134   -4866.1226   -4388.2504   -4866.1226            0    3923.9327    18.249594    23.020379    19.295654    8106.3471    3115.2054    2543.8098    6112.7829   -64.946772   -223.00083    219.48892   -3924.3522 
11176000    239.41941    -4868.146   -4389.2776    -4868.146            0    6535.7889    17.871458     22.97732     19.50484    8009.4326    6647.8678    6646.1986    6313.3002   -129.24643   -156.30406    -629.0307   -3625.8363 
11177000    250.53425   -4863.6149   -4362.5154   -4863.6149            0    3646.0169    18.261361    23.104693    19.218803    8108.8578    2930.8532    3536.7108    4470.4866   -845.76598   -246.73294   -2353.6263   -3931.3398 
11178000    247.03975   -4864.3978   -4370.2878   -4864.3978            0    3820.5774    18.054318     22.88241    19.543334    8073.8654    3637.2691    4005.8546    3818.6086   -713.26886    178.21066   -382.98448   -3920.4185 
11179000    247.28366   -4856.0558    -4361.458   -4856.0558            0    1455.5814    18.262349     23.01639    19.508147    8199.9247    492.87963    1563.9984    2309.8661   -3.6473884   -333.40259    495.15693   -4187.3886 
11180000    245.46962   -4861.1437   -4370.1741   -4861.1437            0    4901.5571    18.191758    22.895644    19.308383    8042.1736    3945.9985    4174.0311    6584.6418    426.59218    86.066733   -1059.5461   -3795.2859 
11181000    244.78212   -4883.2983   -4393.7038   -4883.2983            0    4163.1704    17.996135    22.928891    19.559592     8070.902    5509.9889    3392.5676    3586.9547    1395.7646   -640.47789   -8.0600596   -3903.6744 
11182000    245.80508   -4861.0804   -4369.4398   -4861.0804            0    4725.1404    18.203751     22.97162    19.186419    8023.1783    3449.9471    5321.9171    5403.5569    944.64383    754.26963   -290.23257    -3816.552 
11183000    239.28805   -4882.5398   -4403.9341   -4882.5398            0    3334.5821    17.965006    23.136289    19.490812    8101.2307    3202.9876    4034.9633    2765.7953    757.40083   -249.40405   -973.66051   -4009.9594 
11184000    240.54449   -4895.7097    -4414.591   -4895.7097            0    3273.7559    18.179336     23.21627    19.196042    8101.8121    2721.9979    2682.7003    4416.5696    470.83067    368.31224   -707.24822   -4027.7751 
11185000    251.75556   -4864.7021   -4361.1599   -4864.7021            0    3431.1279    18.249013    22.744216    19.542078    8111.1249    3143.7844    4715.0985    2434.5008    -417.6259    536.25896   -1121.8057   -3955.2834 
11186000    253.44467   -4869.0061   -4362.0854   -4869.0061            0    4283.7282    18.285915    22.758688    19.435417      8088.31    3548.7331    3833.9867    5468.4649    1205.9817    178.12255    558.78431   -3856.7781 
11187000      239.068   -4869.8825    -4391.717   -4869.8825            0    3273.7437    18.203181     22.82377    19.449928    8080.7685    1171.0648     3386.033    5264.1333   -773.93169   -1723.8234   -234.48936   -4005.9072 
11188000    244.31499   -4845.6813   -4357.0211   -4845.6813            0    4170.9845    18.044299    23.036927    19.502259    8106.8005    4341.0134    5176.0916    2995.8486    536.45674    -1285.117    395.37991   -3863.8882 
11189000    232.57887   -4878.6402   -4413.4538   -4878.6402            0    3425.6073    18.101381    23.072652    19.430253    8114.9843    3303.4117    2362.8921    4610.5182   -920.31156   -428.10255   -2212.1089   -4008.0375 
11190000    245.72421   -4825.4937   -4334.0149   -4825.4937            0    5308.3217    18.214252    22.919939    19.337765    8072.9281    4093.1345    5843.2806    5988.5498    544.92688    1287.1315    1051.4783   -3709.0377 
11191000    250.20901   -4869.5525   -4369.1036   -4869.5525            0    3630.0327    18.077158    22.964741    19.530974    8108.0348    3322.0144    3991.8865    3576.1971   -908.11111   -262.06829   -683.17547   -3939.8617 
11192000    257.10885   -4870.1594     -4355.91   -4870.1594            0    5486.5975    18.198741    22.980179    19.149661    8008.5857     4062.026    5409.6936    6988.0729    1016.7857   -1104.4109    228.76156   -3715.0918 
11193000    238.92486   -4852.4696   -4374.5903   -4852.4696            0    6407.4439    18.052395    22.863187    19.485033    8042.1606     5103.467    6845.2306    7273.6341   -1603.8592   -412.68785    -872.1472   -3623.0826 
11194000    237.28102    -4845.995   -4371.4036    -4845.995            0    4536.4357    18.111157    22.915456    19.413903    8057.2628    5819.6516    4726.8734    3062.7819    1277.8992     197.1757    2168.3121   -3838.3411 
11195000    243.44287   -4856.0038    -4369.088   -4856.0038            0    6180.7929    18.212471    22.686204    19.400815    8015.8701     5556.472    7023.8001    5962.1067   -2147.5621    1128.8379   -1530.0474   -3646.5333 
11196000    237.13828   -4863.5382   -4389.2324   -4863.5382            0     2472.167    18.293319    22.784011    19.575803    8159.1003    3609.6681    2252.6306    1554.2023    839.92945    998.76508    1039.4237    -4095.064 
11197000    243.32194   -4863.0646   -4376.3906   -4863.0646            0    3670.4568    18.257099    22.889285    19.374586    8096.4836    2187.7068    3827.4942    4996.1693    601.85442   -167.26316   -21.948125   -3942.9871 
11198000    236.38332   -4843.7323   -4370.9364   -4843.7323            0    3543.5553    18.057793    22.986286    19.558727    8118.4678    2668.8843    4404.6488    3557.1329   -131.78304   -125.97527    1371.2846   -3951.3812 
11199000    245.05773   -4844.2638    -4354.118   -4844.2638            0    4104.5987    18.096409    23.190627     19.41805    8149.1162    4921.0911    3021.6598    4371.0451   -308.84699    478.62911    1481.2411   -3866.3009 
11200000    243.51732   -4875.2638   -4388.1991   -4875.2638            0    5709.2992    18.045194    22.930711    19.344818    8004.6755    5297.5867    6068.3142    5761.9966   -638.77705   -357.14795   -1646.9586   -3721.6956 
11201000    234.55338   -4841.3815   -4372.2458   -4841.3815            0    4723.7816    18.162952    22.930509    19.383818    8073.0836    3697.2962    6041.3069    4432.7415    626.45691    1170.9285   -462.98052   -3816.0789 
11202000     239.6794   -4861.9072   -4382.5188   -4861.9072            0    3152.8166    17.874658    22.952498    19.773431    8112.4066    3915.2215    3744.0279    1799.2003   -872.69215    1711.6871    -1247.636   -4009.5055 
11203000     238.7665   -4884.8879   -4407.3254   -4884.8879            0    5776.2382    18.309325    22.679016    19.267486    8000.5822    5521.9065    6632.1785    5174.6296    1050.8552    661.52604   -1403.9197   -3733.3523 
11204000     228.7011   -4866.6388   -4409.2084   -4866.6388            0     5340.152    18.077525    22.920258    19.438326     8054.106    5356.9922    5850.6237    4812.8402   -59.566092    -350.0943   -200.90204   -3781.9494 
11205000     243.0209    -4895.668   -4409.5962    -4895.668            0    3831.1431    18.035584    22.879939    19.555246    8069.5324     2350.021    4384.6526    4758.7556   -1104.0156   -283.13459   -1384.1062   -3958.7248 
11206000    228.70844    -4848.712   -4391.2669    -4848.712            0    5170.4207    18.174094    23.048017    19.264104     8069.287    4926.9187    4185.3039    6399.0396   -91.580835    322.73504   -1261.6327      -3782.8 
11207000    249.67519   -4872.7286   -4373.3474   -4872.7286            0    3205.1357    18.055372    23.032925    19.571163    8139.0209     2338.774    3465.2185    3811.4144    678.49071   -445.57324    1098.9126   -3992.9002 
11208000    249.69695   -4865.3865   -4365.9618   -4865.3865            0    4107.1386    18.032004    22.901844    19.568461    8081.1115    3666.1937     4651.737    4003.4852    260.39078    515.44182   -414.11589   -3881.9161 
11209000    239.06452   -4859.5335   -4381.3749   -4859.5335            0    4609.7723    18.153096    22.914468      19.4278    8081.3537    4698.8338    5131.1483    3999.3348    81.032493    940.95946    200.90854   -3838.0752 
11210000    242.41431    -4850.511   -4365.6525    -4850.511            0    3712.9497    18.159801    22.990489    19.458675    8124.0494    3201.7237    4220.3121    3716.8133   -909.06045    332.51724    465.80492   -3925.7388 
11211000    239.24214   -4853.8532   -4375.3394   -4853.8532            0    4864.6135    18.087008    22.864406    19.519416    8072.2293    6562.5864    4667.9609    3363.2933    -1181.736    1476.0737    898.05585   -3802.6519 
11212000     239.2451   -4849.1906   -4370.6709   -4849.1906            0    6194.9762    18.136453    22.815186    19.387546    8022.3056    6040.4686    5972.2672    6572.1928   -1782.1574   -76.287192   -1314.2474   -3645.8766 
11213000     240.2593   -4859.3424   -4378.7941   -4859.3424            0    2898.5637    18.200848    22.849025    19.595916    8149.3856    2200.9062    3317.0997    3177.6851    972.94069   -885.10365    220.15338   -4034.2986 
11214000    234.46496   -4846.9842   -4378.0253   -4846.9842            0    4583.5794    18.110879     22.77525    19.601367    8085.1679     3757.672    5575.2485    4417.8176   -82.531241    292.95843   -1155.9266   -3837.5576 
11215000    230.64243   -4892.5209   -4431.2076   -4892.5209            0    4206.2745    18.153976    22.722411    19.541624    8060.9612    2728.7438    4045.1005    5844.9793   -956.33876   -600.89823   -2027.4098   -3936.7143 
11216000    244.10677   -4871.1042   -4382.8605   -4871.1042            0     4198.086    18.286149    22.899173    19.286963    8076.1782    2932.8476    4335.2121    5326.1983    231.93231    558.30278    -219.0981   -3888.3983 
11217000    237.01509   -4886.6533   -4412.5938   -4886.6533            0     3650.694    17.989332    23.062601    19.486896    8084.7386     3690.623    3268.3747    3993.0842    406.08121   -729.38122    223.76178   -3982.1492 
11218000    233.77021    -4836.678   -4369.1087    -4836.678            0    3937.7198    18.118815    23.066138    19.392615    8104.7764    3527.5304    3749.5376    4536.0913     46.58309   -1072.4624   -1365.6603   -3903.6708 
11219000     233.4465   -4846.0919   -4379.1701   -4846.0919            0    4739.9726    18.143472    22.872421    19.389837    8046.4939       5264.6    4531.7363    4423.5815      629.285    60.232469    1693.7391    -3822.935 
11220000    235.93215   -4879.6616   -4407.7681   -4879.6616            0    4701.6968     17.97743    22.748899    19.694002    8054.1917    6185.4166    5317.3013    2602.3726    431.99723    390.53579     607.7322   -3855.4968 
11221000    236.26605   -4861.5926   -4389.0314   -4861.5926            0    5221.1592    18.260726    22.838628    19.287989    8044.0546    6523.5478    5490.2552    3649.6747    747.36968   -167.98916   -920.16454   -3776.5148 
11222000    238.09106   -4896.5897   -4420.3781   -4896.5897            0    4034.1785     18.08936    22.881096     19.48284    8064.0329    3727.4932    3024.8984    5350.1437    450.72567   -1551.4828    2236.8187   -3945.9359 
11223000    236.05125   -4881.7979   -4409.6662   -4881.7979            0    4253.3814    18.089365    22.956385    19.528043    8109.3404    4868.2106    3209.1238    4682.8099   -1428.1994   -1252.0976   -1363.7989   -3906.6341 
11224000    236.44023   -4846.6157   -4373.7061   -4846.6157            0     6013.541    18.285629    22.905158     19.16821    8028.3215    5093.5761    5558.9848     7388.062    1286.0019    341.47326   -1655.4385   -3669.6116 
11225000    237.35044   -4878.6486   -4403.9184   -4878.6486            0    4809.2787    18.021461    22.946119    19.516362    8070.4563    4132.1063    4789.2135    5506.5162   -1146.9636    365.07452    -1098.729   -3837.8695 
11226000    245.37886   -4881.1059   -4390.3179   -4881.1059            0     3630.403    18.095423    23.113052    19.298399    8071.3709      4297.62     2535.242     4058.347   -271.71118    214.87606    568.69112   -3962.9735 
11227000    236.35902   -4789.4384   -4316.6912   -4789.4384            0    5589.2376    17.960795    23.307436    19.317833    8086.8329    7143.9201    4380.0628      5243.73    630.19304    878.01203    1201.4202   -3657.5067 
11228000    251.56987   -4857.9525   -4354.7817   -4857.9525            0    4988.3698    18.107476    22.896241     19.42856    8054.9475    3121.1946    6050.9793    5792.9354    87.856766    268.53465    592.79381   -3768.7822 
11229000    245.30816   -4853.7397   -4363.0931   -4853.7397            0    4159.3701    18.306506    22.638997    19.550145    8102.3805    2163.0797    5153.3474    5161.6831   -635.47546    110.91378    1675.3628   -3871.6015 
11230000    247.22251   -4824.6244   -4330.1488   -4824.6244            0    4937.6565    18.233457     22.68814    19.560351    8091.7891    5410.5117    4722.1369     4680.321    626.46199    -937.1784    1405.3963   -3747.4538 
11231000    254.44235   -4858.0015   -4349.0853   -4858.0015            0    5337.5282    18.176945    22.750703    19.457514    8046.4269    3693.6398    6843.6806    5475.2642   -1335.8652    503.30141   -1120.0761   -3722.7324 
11232000    238.11521   -4855.6692   -4379.4094   -4855.6692            0    3080.5512    18.135568    23.074557     19.41935    8126.4191    2211.3435    2556.9611    4473.3488    592.94068    1007.7225    668.62839   -4014.3163 
11233000    237.12516   -4867.8115   -4393.5319   -4867.8115            0    5474.0037    17.916191    23.229628    19.328128     8044.105    4873.9155    5310.2839    6237.8117   -1256.4818     1432.755   -935.57438   -3751.3491 
11234000    245.05726   -4842.1227   -4351.9779   -4842.1227            0    3805.2068    17.965027    23.277142    19.377637    8103.2338    3246.4401    4467.5537    3701.6264    139.55826    1199.0885    -405.5009   -3902.2886 
11235000    235.72478   -4869.7482   -4398.2696   -4869.7482            0     4759.255    18.181065    22.788873    19.473976    8068.5743    4962.0617    5225.0649    4090.6384    340.38038   -788.38892   -47.175157   -3838.2391 
11236000    242.31863   -4878.1932    -4393.526   -4878.1932            0    2230.2489    18.244467    22.824736    19.594579    8159.6756    892.96479    3755.9039     2041.878    793.07745    49.521523   -64.823745   -4128.1253 
11237000    232.74567   -4857.9154   -4392.3953   -4857.9154            0    4210.2124    18.219883    22.746573     19.52006    8089.8919    3903.5718    3956.5057    4770.5598    440.31296    29.371609   -517.55126   -3895.6627 
11238000    236.84695   -4834.7101    -4360.987   -4834.7101            0    5835.5422    18.124078    22.850321    19.396703    8032.9696    4066.7435    6318.5241    7121.3589   -194.72967    94.775925    350.28059   -3677.3379 
11239000     240.6349   -4857.0501   -4375.7505   -4857.0501            0    3797.3263    18.156961    23.156199    19.335957    8129.7298    3097.2234    3048.3337    5246.4219   -1324.4991   -791.72247   -498.92315   -3925.5252 
11240000    245.92308   -4854.2601   -4362.3836   -4854.2601            0    4762.4938    17.972159    23.166462    19.410249    8081.4832    5834.4609    3957.1923    4495.8281      269.668    301.43808   -506.63778   -3801.0754 
11241000    258.53665   -4913.6416   -4396.5364   -4913.6416            0     4519.005    18.009937    23.074008    19.299333    8020.0581    5745.5484    3241.2562    4570.2105   -609.36507    -1104.346   -1082.2518    -3867.974 
11242000    237.22651   -4845.8249   -4371.3425   -4845.8249            0    5334.7801    17.651922    23.401171    19.447397    8033.2463    8117.3004     3716.084     4170.956    2228.5436   -1012.6786    -537.5424   -3746.3375 
11243000    243.51405   -4838.4651    -4351.407   -4838.4651            0    3544.8833    18.210202    23.088139    19.300078    8114.5183    2430.8814    3441.7045    4762.0639    1432.6879    16.341665   -1758.1588   -3931.8986 
11244000    241.83818   -4845.6391   -4361.9329   -4845.6391            0    6330.7393     17.97457    22.886576    19.501484    8022.4493    5051.7697    6783.1479    7157.3004     615.1691    1181.4871    1706.8286   -3621.2415 
11245000    246.33132   -4829.5229   -4336.8299   -4829.5229            0    4658.6936    18.346611    22.785147    19.349918    8088.8505    4054.5454    5177.6017    4743.9337    1029.4883    232.26475    558.09799    -3787.255 
11246000    242.73458   -4876.1003   -4390.6012   -4876.1003            0     2747.713    18.073102    22.940059    19.686185    8161.8531     2990.322    2663.5218    2589.2952   -11.636896   -1113.7794   -351.27091   -4063.5347 
11247000    243.91932   -4866.9702   -4379.1015   -4866.9702            0    4185.6508    18.252942    22.740897    19.445279    8071.5075     2231.089    5487.6102    4838.2531    297.16077    94.053201    728.29623    -3886.389 
11248000    241.93535   -4841.9736    -4358.073   -4841.9736            0    2584.8661    18.220108    23.070568     19.37941    8146.1004    1834.3344    3229.0564    2691.2076   -837.66018   -940.37318    -1220.374   -4050.9844 
11249000    256.98662   -4900.8118   -4386.8068   -4900.8118            0    5548.6242    17.924845     22.74318    19.688767      8026.48     6672.404    5955.5629    4017.9057    310.13078   -193.93791    885.71177   -3737.2961 
11250000    238.15447    -4821.441   -4345.1026    -4821.441            0    2683.5069    18.264832    23.204872    19.273281    8168.6541    3115.6714    2298.8512    2635.9982   -343.44252   -218.86914    253.54603   -4025.4125 
Loop time of 689.671 on 64 procs for 250000 steps with 1008 atoms

Performance: 62.639 ns/day, 0.383 hours/ns, 362.492 timesteps/s
99.1% CPU use with 64 MPI tasks x 1 OpenMP threads

MPI task timing breakdown:
Section |  min time  |  avg time  |  max time  |%varavg| %total
---------------------------------------------------------------
Pair    | 27.783     | 31.539     | 35.156     |  28.6 |  4.57
Bond    | 0.27979    | 0.29348    | 0.32077    |   1.5 |  0.04
Kspace  | 326.65     | 342.32     | 363.61     |  47.6 | 49.63
Neigh   | 4.0104     | 4.9753     | 6.5918     |  29.7 |  0.72
Comm    | 122.8      | 146.83     | 164.71     |  84.6 | 21.29
Output  | 1.5789     | 1.5799     | 1.5855     |   0.1 |  0.23
Modify  | 147.98     | 154.49     | 158.86     |  24.6 | 22.40
Other   |            | 7.645      |            |       |  1.11

Nlocal:        15.7500 ave          19 max          10 min
Histogram: 1 1 1 2 12 13 11 9 9 5
Nghost:        2451.83 ave        2465 max        2433 min
Histogram: 4 4 3 6 1 10 13 8 7 8
Neighs:        5122.62 ave        6253 max        3220 min
Histogram: 1 1 1 2 12 13 11 9 9 5

Total # of neighbors = 327848
Ave neighs/atom = 325.24603
Ave special neighs/atom = 2.0000000
Neighbor list builds = 8405
Dangerous builds = 0

unfix		3
unfix		2
unfix		1

write_data	data.final.${pid}
write_data	data.final.0
System init for write_data ...
PPPM initialization ...
  extracting TIP4P info from pair style
  using 12-bit tables for long-range coulomb (../kspace.cpp:340)
  G vector (1/distance) = 0.38225626
  grid = 24 30 32
  stencil order = 5
  estimated absolute RMS force accuracy = 0.0020473212
  estimated relative force accuracy = 6.165447e-06
  using double precision FFTW3
  3d grid and FFT values/proc = 3825 384
Last active /omp style is kspace_style pppm/tip4p/omp
WARNING: Not all mixed pair coeffs generated from mixing. Use write_data with 'pair ij' option to store all pair coeffs. (../write_data.cpp:312)

write_restart   restart.lmp.${pid}
write_restart   restart.lmp.0
System init for write_restart ...
PPPM initialization ...
  extracting TIP4P info from pair style
  using 12-bit tables for long-range coulomb (../kspace.cpp:340)
  G vector (1/distance) = 0.38225626
  grid = 24 30 32
  stencil order = 5
  estimated absolute RMS force accuracy = 0.0020473212
  estimated relative force accuracy = 6.165447e-06
  using double precision FFTW3
  3d grid and FFT values/proc = 3825 384
Last active /omp style is kspace_style pppm/tip4p/omp
Total wall time: 0:11:37
