LAMMPS (30 Jul 2021)
Processor partition = 1
  using 2 OpenMP thread(s) per MPI task
using multi-threaded neighbor list subroutines
variable        pid world 0 1
variable        phase world IceII IceVI

shell cd ${phase}
shell cd IceVI
include Restart.lmp
echo both
log log.lammps
#include		in.partitions
include		in.temp
variable        temperature equal 25.49
variable	tempDamp equal 100.0
include		in.pressure
variable        pressure equal 8980.5
variable        pressureDamp equal 1000.0 # This is 1 ps
include		in.seed
variable        seed equal 745823

units		real
atom_style	full
read_restart	restart.lmp.${pid}
read_restart	restart.lmp.1
Reading restart file ...
  restart file = 30 Jul 2021, LAMMPS = 30 Jul 2021
  restoring atom style full from restart
  orthogonal box = (0.094103990 0.052278511 0.081926115) to (24.635897 24.677722 22.728074)
  4 by 4 by 2 MPI processor grid
  restoring pair style lj/cut/tip4p/long/omp from restart
  restoring bond style harmonic/omp from restart
  restoring angle style harmonic/omp from restart
  1920 atoms
  1280 bonds
  640 angles
Finding 1-2 1-3 1-4 neighbors ...
  special bond factors lj:    0        0        0       
  special bond factors coul:  0        0        0       
     2 = max # of 1-2 neighbors
     1 = max # of 1-3 neighbors
     1 = max # of 1-4 neighbors
     2 = max # of special neighbors
  special bonds CPU = 0.002 seconds
  read_restart CPU = 0.013 seconds
include 	in.setup
variable	out_freq equal 1000
variable	out_freq2 equal 10000
variable	out_freq3 equal 1000

timestep	2.0

neigh_modify    delay 7 every 1

include		in.tip4p
# This is TIP4P/Ice

# create groups ###
group ox type 2
640 atoms in group ox
group hy type 1
1280 atoms in group hy

# set charges - beside manually ###
set group ox charge -1.1794
Setting atom values ...
  640 settings made for charge
set group hy charge 0.5897
Setting atom values ...
  1280 settings made for charge

# ### TIP3P Potential Parameters ###
pair_style lj/cut/tip4p/long/omp 2 1 1 1 0.1577 8.5
pair_coeff 1 1*2 0.000 0.000
pair_coeff 2 2 0.21084 3.1668
bond_style  harmonic
bond_coeff  1 450 0.9572
angle_style harmonic
angle_coeff 1 55 104.52
kspace_style pppm/tip4p/omp 1.0e-5
pair_modify tail yes

thermo          ${out_freq}
thermo          1000
thermo_style    custom step temp pe etotal epair emol press lx ly lz vol pxx pyy pzz pxy pxz pyz enthalpy

restart 	${out_freq3} restart.lmp.${pid} restart2.lmp.${pid}
restart 	1000 restart.lmp.${pid} restart2.lmp.${pid}
restart 	1000 restart.lmp.1 restart2.lmp.${pid}
restart 	1000 restart.lmp.1 restart2.lmp.1


include         in.dump
dump            myDump all atom ${out_freq2} dump.water.${pid}
dump            myDump all atom 10000 dump.water.${pid}
dump            myDump all atom 10000 dump.water.1
dump            myDump2 all dcd ${out_freq2} dump.dcd
dump            myDump2 all dcd 10000 dump.dcd
dump_modify     myDump append yes
dump_modify     myDump2 append yes


variable natoms 	equal  "count(all)"                        # NUMBER ATOMS
variable H      	equal  "enthalpy/v_natoms"                 # ENTHALPY-per-atom
variable Vol      	equal  "vol/v_natoms"                 # volume-per-atom
fix AVG all 		ave/time ${out_freq} 1 ${out_freq} v_Vol v_H file vol_enthalpy.dat
fix AVG all 		ave/time 1000 1 ${out_freq} v_Vol v_H file vol_enthalpy.dat
fix AVG all 		ave/time 1000 1 1000 v_Vol v_H file vol_enthalpy.dat




fix 		1 all shake 1e-6 200 0 b 1 a 1
Finding SHAKE clusters ...
       0 = # of size 2 clusters
       0 = # of size 3 clusters
       0 = # of size 4 clusters
     640 = # of frozen angles
  find clusters CPU = 0.001 seconds
fix             2 all nph aniso ${pressure} ${pressure} ${pressureDamp}
fix             2 all nph aniso 8980.5 ${pressure} ${pressureDamp}
fix             2 all nph aniso 8980.5 8980.5 ${pressureDamp}
fix             2 all nph aniso 8980.5 8980.5 1000
fix             3 all temp/csvr ${temperature} ${temperature} ${tempDamp} ${seed}
fix             3 all temp/csvr 25.49 ${temperature} ${tempDamp} ${seed}
fix             3 all temp/csvr 25.49 25.49 ${tempDamp} ${seed}
fix             3 all temp/csvr 25.49 25.49 100 ${seed}
fix             3 all temp/csvr 25.49 25.49 100 745823


run             250000
PPPM initialization ...
  extracting TIP4P info from pair style
  using 12-bit tables for long-range coulomb (../kspace.cpp:340)
  G vector (1/distance) = 0.37562569
  grid = 30 30 30
  stencil order = 5
  estimated absolute RMS force accuracy = 0.0031362129
  estimated relative force accuracy = 9.4446121e-06
  using double precision FFTW3
  3d grid and FFT values/proc = 5400 960
Last active /omp style is kspace_style pppm/tip4p/omp
Neighbor list info ...
  update every 1 steps, delay 7 steps, check yes
  max neighbors/atom: 2000, page size: 100000
  master list distance cutoff = 10.8154
  ghost atom cutoff = 10.8154
  binsize = 5.4077, bins = 5 5 5
  1 neighbor lists, perpetual/occasional/extra = 1 0 0
  (1) pair lj/cut/tip4p/long/omp, perpetual
      attributes: half, newton on, omp
      pair build: half/bin/newton/omp
      stencil: half/bin/3d
      bin: standard
Setting up Verlet run ...
  Unit style    : real
  Current step  : 11250000
  Time step     : 2
Per MPI rank memory allocation (min/avg/max) = 10.56 | 10.57 | 10.58 Mbytes
Step Temp PotEng TotEng E_pair E_mol Press Lx Ly Lz Volume Pxx Pyy Pzz Pxy Pxz Pyz Enthalpy 
11250000    25.413057   -10052.493   -9955.6064   -10052.493            0    9308.5927    24.541793    24.625444    22.646148    13686.257    9801.1336     8951.613    9173.0314    60.967804    240.81741   -88.691649   -8097.6111 
11251000    25.891018   -10060.147   -9961.4382   -10060.147            0    8802.6087    24.582765    24.596238    22.661633     13702.21    8805.3654    9130.8768    8471.5838     144.5125    70.867878    129.44259   -8202.3894 
11252000    25.373435     -10057.5   -9960.7649     -10057.5            0     8679.474    24.556394    24.591526    22.707396    13712.524     9113.208    8855.6557    8069.5582   -66.928046   -7.4460298    -22.98148   -8225.0168 
11253000    26.348564   -10059.738   -9959.2857   -10059.738            0    9150.2289    24.600118    24.635045    22.595168    13693.237    8833.1254    9132.0355    9485.5259   -125.12411   -237.02985   0.53638139   -8131.9684 
11254000    24.891324   -10057.679   -9962.7823   -10057.679            0    9170.2719    24.594509    24.580242    22.652243    13694.164    8989.2114    9669.5681    8852.0361   -201.92249    -197.2528   -119.58324   -8131.3385 
11255000    25.417337   -10053.979   -9957.0768   -10053.979            0    9141.3762    24.566268    24.628861    22.635971    13695.649    9192.7557    8770.1845    9461.1885   -65.110895   -511.79274    296.49765   -8131.2057 
11256000    26.380764   -10056.581    -9956.005   -10056.581            0    9026.9518    24.584811    24.640773    22.609529    13696.599    8866.2715    8779.6068    9434.9771   -254.49361   -114.32582   -126.39593   -8152.8638 
11257000    25.487853   -10059.456   -9962.2844   -10059.456            0    8806.6923    24.558787    24.626932     22.66595    13708.538    8742.2226     8747.134    8930.7201   -217.28941   -527.89406     280.0939   -8201.6067 
11258000    24.928189   -10059.532    -9964.494   -10059.532            0    8781.7487     24.62328    24.606654    22.623595    13707.557    8491.8742    9016.2694    8837.1027   -247.14777   -82.572844    212.53494   -8208.9288 
11259000    26.500959   -10056.168   -9955.1341   -10056.168            0    8983.9127    24.557493    24.655658    22.634204    13704.584    9405.3773    8511.2729    9035.0879   -5.5330152   -425.70202   -394.83806   -8159.5437 
11260000    26.049936   -10058.922   -9959.6075   -10058.922            0    9010.6269    24.581547    24.611192    22.646046    13700.432    8824.5144    8857.8797    9349.4867    105.19452   -131.19214     14.07313   -8159.2235 
11261000    25.122597   -10055.637   -9959.8586   -10055.637            0     9059.717    24.591204    24.619938    22.622625    13696.504    9004.5273    8972.2419    9202.3819    108.77607   -681.05374    151.76015    -8150.185 
11262000    26.297874   -10056.919   -9956.6596   -10056.919            0    8785.4517    24.640792    24.621241    22.592329    13706.469    8322.2034    8837.4374    9196.7144   -160.34556    180.82382    -212.2875   -8200.4936 
11263000    25.963244   -10057.773   -9958.7893   -10057.773            0    8747.4309    24.623016    24.599792     22.63758    13712.059    8623.5273    8822.5739    8796.1914    13.117978   -236.58846   -107.84396   -8209.5103 
11264000    25.617529   -10062.423   -9964.7575   -10062.423            0    8980.1395     24.59123    24.599817    22.649668    13701.684     9107.145    8695.7548    9137.5188     23.97553   -213.30405    151.85345    -8170.301 
11265000    25.634173   -10059.483   -9961.7538   -10059.483            0    8807.3224     24.62822    24.635615    22.589533    13705.778     8198.469    8884.1898    9339.3083   -87.253783    6.6168138      262.179   -8201.3047 
11266000    26.519453   -10060.974     -9959.87   -10060.974            0    8749.4566    24.580076    24.623055    22.643332    13704.572    8663.0695    8916.4038    8668.8966   -70.538834   -205.67517   -24.666089   -8211.1412 
11267000    25.324461   -10056.008   -9959.4596   -10056.008            0    9055.4848    24.569118    24.574192    22.696033    13703.098    9559.0911    9038.8466    8568.5166   -323.65751   -299.99543    196.23417   -8149.7605 
11268000    25.266285   -10057.204   -9960.8776   -10057.204            0    9352.3789    24.596324    24.624216    22.594888    13684.937    9470.8008    9028.7127    9557.6231   -84.318189   -54.240812   -259.84385   -8094.3227 
11269000    25.212724   -10059.837   -9963.7151   -10059.837            0    8796.6105    24.566116    24.595422     22.69719     13713.96    8797.7018    9125.7168    8466.4131    69.678003   -501.42851    202.99537   -8204.3575 
11270000    24.894692   -10057.229   -9962.3188   -10057.229            0    8737.3955    24.564752    24.632507    22.648882    13704.644    8877.3479     8475.061    8859.7777   -176.38813   -509.70591    -60.98983   -8215.9915 
11271000    25.848235    -10061.14   -9962.5949    -10061.14            0    8917.0677    24.537787    24.607502    22.697803    13705.243    9191.8752     8715.051    8844.2768   -49.612663   -446.65458   -142.40437   -8180.2789 
11272000     26.27854   -10056.958   -9956.7719   -10056.958            0    9279.8447     24.56354    24.594031    22.661772    13690.349     9489.728    9342.3269    9007.4792   -212.18526   -183.62241    86.645713   -8103.9608 
11273000    25.100773   -10058.512   -9962.8161   -10058.512            0    8956.6065    24.571795    24.625591    22.642206    13700.685      8917.85    8496.4437    9455.5258   -43.691141   -349.77281   -81.102211   -8173.1927 
11274000    25.862088   -10051.915   -9953.3174   -10051.915            0    8953.2862    24.534627    24.657822     22.64875    13701.825    9359.7844    8431.3044    9068.7696   -94.588866    -166.2043     237.2966   -8164.2086 
11275000    25.623011   -10057.151   -9959.4644   -10057.151            0    9197.5864    24.548804    24.632594    22.645196    13693.566    9374.8493    8894.4186    9323.4915   -106.76769    -548.3763    248.52829   -8122.6456 
11276000    25.177162   -10053.074   -9957.0874   -10053.074            0    8944.9978    24.605201     24.60106    22.635685    13701.698     8725.725     9034.978    9074.2903   -14.485021   -84.174852    159.77142   -8169.6514 
11277000    24.588252   -10053.157   -9959.4159   -10053.157            0    9104.7289     24.56399    24.600418    22.676809    13703.243    9304.3097      9047.36    8962.5171   -175.49212   -374.86499    682.03117   -8139.8564 
11278000     26.01159   -10060.675   -9961.5071   -10060.675            0    9044.2912    24.588719    24.564619    22.679311    13698.587    8990.4404    9527.6666    8614.7668   -117.27649    170.64377   -106.12402     -8154.64 
11279000    24.928444    -10058.61   -9963.5715    -10058.61            0    8857.3562    24.573955    24.609557    22.660116    13703.798    9017.5752    8791.9856    8762.5079    240.19086   -274.51522    271.76436   -8193.3771 
11280000    25.737497   -10056.494   -9958.3708   -10056.494            0    8823.1306    24.612597    24.601867    22.633158    13704.735    8632.4623     8909.752    8927.1773     49.12558   -351.25226    235.36152   -8194.8961 
11281000    26.530889   -10056.329   -9955.1808   -10056.329            0    9008.1135    24.561946    24.558197    22.722364    13706.065    9310.0017    9140.3971    8573.9416   -22.925873    -489.7075   -120.34281    -8154.559 
11282000    26.419516   -10057.323   -9956.5995   -10057.323            0    9044.0539    24.615665    24.558715    22.659543    13698.354     8800.671    9218.0096     9113.481   -332.66682    9.2144463    181.84448   -8149.8107 
11283000    26.303198   -10060.385   -9960.1049   -10060.385            0    8710.2217    24.591369    24.593804    22.666625    13708.668    8566.6088    9143.9871    8420.0692   -307.28917   -581.19955    237.31405   -8218.6976 
11284000    24.595627   -10057.685   -9963.9153   -10057.685            0    8911.9859    24.611235    24.658605    22.573663    13699.476    8766.5669    8488.8092    9480.5816    55.883996   -111.71444    -337.3136   -8183.3647 
11285000    25.138061   -10061.305   -9965.4676   -10061.305            0    8798.7662    24.582846    24.600181    22.661004    13704.071    8603.3971    9071.4222    8721.4794    131.10701    -218.0906    277.91746   -8206.9478 
11286000    26.100423   -10058.107   -9958.6004   -10058.107            0    9346.5842    24.593722    24.579004    22.637319    13684.014    9293.6225    9494.3971    9251.7329   -424.49295   -273.08568    126.20254   -8093.3277 
11287000    25.941507   -10059.117   -9960.2163   -10059.117            0    8959.5168    24.562264    24.628369    22.650656    13702.027    8904.5982    9233.3169    8740.6353    -448.5801    -207.4677     225.9458    -8169.836 
11288000    25.499078    -10054.68   -9957.4655    -10054.68            0    8959.5928    24.584204    24.628973    22.623845    13698.369    9136.1357    8999.0117     8743.631   -249.97152   -235.73725    154.90219    -8167.548 
11289000    25.135323   -10057.177   -9961.3501   -10057.177            0    9248.6007    24.551991    24.622355    22.647415    13690.993    9408.8879    9419.2435    8917.6707     -5.24323   -220.34903    129.82603   -8114.6905 
11290000    25.031094   -10058.724   -9963.2939   -10058.724            0    8675.0743    24.612679     24.60456    22.634864    13707.315    8530.0734     8704.366    8790.7836   -268.56821   -275.36184     196.6136   -8229.0847 
11291000    24.254109   -10057.013   -9964.5457   -10057.013            0     9076.699    24.563249    24.582006    22.685171    13697.623     9128.331    9379.5715    8722.1944    -298.0504   -300.05384   -236.98933   -8151.3319 
11292000    25.880486   -10060.644   -9961.9758   -10060.644            0    8976.1433    24.573845    24.640733    22.625468    13700.118    8934.7561    8654.4196    9339.2541     8.607757     -187.388   -114.73742   -8168.5229 
11293000    25.185584   -10055.448   -9959.4295   -10055.448            0    8721.2138    24.594023    24.624251    22.645407    13714.271    8649.8968    8741.8615     8771.883   -62.566543   -453.91647     311.5008   -8215.1119 
11294000     25.57336     -10058.2   -9960.7027     -10058.2            0    8933.1384    24.566933    24.598345    22.675645    13703.026     9200.128    9070.8209    8528.4662   -64.992854   -387.06687    217.44731   -8175.4634 
11295000    24.036609   -10058.434   -9966.7954   -10058.434            0    8859.4393    24.584162    24.605593    22.656104    13704.856    8318.3257    9063.4757    9196.5165   -342.88309   -134.94568   -44.683494    -8196.048 
11296000    26.206941   -10055.106   -9955.1934   -10055.106            0    9084.7924    24.583446    24.596375    22.656581    13699.612    9118.5604    9245.4725    8890.3442   -74.261375   -171.56355    102.77018   -8140.0993 
11297000    26.320562   -10063.563   -9963.2171   -10063.563            0    8780.5908    24.600396    24.585013    22.654725    13701.602    8323.2894    9259.4192    8759.0636   -117.82419   -126.72282     -69.3781   -8208.6461 
11298000    25.090952   -10054.796   -9959.1379   -10054.796            0    9364.5105    24.570587    24.627689    22.615917     13685.27    9691.9998    8823.9745    9577.5574   -42.930743   -627.50208    20.039731   -8090.1162 
11299000    25.998156    -10056.85   -9957.7328    -10056.85            0    8990.7992    24.576648    24.611836    22.644476     13697.11    9095.0739    8871.3505    9005.9733   -298.97072   -185.17128    278.18829    -8161.746 
11300000    25.614266    -10054.92   -9957.2669    -10054.92            0    8794.8012    24.605022    24.589027    22.666437    13713.501    8443.6437    9419.1797    8521.5803    -248.8769    -227.9419   -160.57445     -8198.33 
11301000    25.848798   -10055.178   -9956.6304   -10055.178            0    9306.7413    24.585984    24.567766    22.658724    13686.384    9334.0676    9501.2336    9084.9227   -275.61341    -323.0799    479.95516   -8098.9875 
11302000    24.982015   -10055.048   -9959.8047   -10055.048            0    9046.5813    24.570398    24.583652    22.670974    13693.951    8999.6191    9483.2764    8656.8483    -86.82648   -252.35079    359.12442   -8153.0918 
11303000    25.214744   -10055.626   -9959.4954   -10055.626            0    9356.6764    24.572276    24.596598    22.649403    13689.172    8778.8744    9776.2626    9514.8923    15.352265   -298.75409       387.17   -8091.5048 
11304000    25.608933   -10057.328   -9959.6955   -10057.328            0    8765.6252    24.552264     24.66355    22.640536    13709.886    8971.4957    8364.8094    8960.5706    -105.6948   -353.42854    607.85929   -8207.0559 
11305000    24.879661   -10048.581   -9953.7279   -10048.581            0    9457.4622    24.557484    24.657334    22.588632    13677.915    9180.2671    9524.6832    9667.4362   -292.72188   -186.57063   -75.200741   -8067.1688 
11306000    26.330037   -10056.973   -9956.5911   -10056.973            0     8904.936    24.579371     24.62419    22.642786     13704.48    9075.9037    8680.2039    8958.7004   -292.10384   -171.01391    173.88764   -8176.7991 
11307000    26.476027   -10061.073   -9960.1346   -10061.073            0    9031.1324    24.605978     24.58186    22.651757    13701.158    8639.4275    9230.0708    9223.8989   -247.83458   -301.28287     444.9502   -8155.5579 
11308000    24.661598   -10056.069   -9962.0477   -10056.069            0    8875.3535    24.576103    24.633807    22.638486    13705.407    9101.3039    8882.2564    8642.5001    12.722776   -330.77951   -199.84058   -8188.0483 
11309000    25.658308   -10055.754   -9957.9328   -10055.754            0     9472.498    24.538144    24.596865    22.669915    13682.686    9523.7605    9530.3401    9363.3934    32.347674   -481.98348    59.859187   -8067.7153 
11310000    24.914443   -10062.476   -9967.4912   -10062.476            0    8868.8213    24.541857    24.639859    22.668118     13707.59    9055.5094    8378.0833    9172.8711   -448.94728    -456.2774   -120.18764    -8194.515 
11311000    25.040697   -10057.231   -9961.7641   -10057.231            0    9021.4734    24.580603     24.59568    22.653951     13696.05    9111.3741    9163.1635    8789.8826    -182.8233   -267.72905   -32.311824   -8159.7894 
11312000    25.902091   -10060.865   -9962.1148   -10060.865            0    8784.6389     24.61992    24.601216    22.632292    13707.926    8017.4517    9298.8039    9037.6611    59.819774    -17.93594    27.228836   -8205.9246 
11313000     26.31079   -10057.321    -9957.012   -10057.321            0    8721.1564    24.613539    24.631382     22.61425    13710.239    8459.7271    8467.0107    9236.7313   -100.05084   -9.7903431   -382.57388   -8213.2187 
11314000    25.798711   -10056.158   -9957.8011   -10056.158            0    9478.2427    24.585112     24.63938    22.590355    13684.377    9264.7639    9220.0094    9949.9547    -389.1346   -123.35456    61.133799   -8066.2036 
11315000    24.848136   -10060.221   -9965.4883   -10060.221            0    8913.2565    24.633391    24.581374    22.625495    13700.248    8773.5687    9006.2139    8959.9868   -47.897681   -76.321801    75.390309   -8184.5834 
11316000    26.417974   -10052.792   -9952.0746   -10052.792            0    8919.3701    24.576171    24.591089    22.677428    13705.213    8890.7553    9422.6315    8444.7235   -171.42594   -813.69772    -142.8707   -8169.3024 
11317000    24.987789    -10058.73   -9963.4656    -10058.73            0    9273.3926    24.581723    24.614347    22.628952    13691.943    9224.2543    9119.8146    9476.1089    285.66437   -373.42466   -92.833965   -8111.7273 
11318000    24.877119   -10058.571   -9963.7277   -10058.571            0    9128.7308    24.574329    24.599887    22.657165    13696.839    9020.4344    9300.1539     9065.604    127.17601    -195.1707    34.051215    -8140.224 
11319000     24.95991   -10061.051   -9965.8921   -10061.051            0    8769.7205    24.614788    24.578502    22.654897    13706.091    8521.3284    9194.7725    8593.0606   -465.16934   -207.26862   -313.52697   -8212.9191 
11320000    24.744166   -10056.791   -9962.4548   -10056.791            0    8977.4247     24.56138    24.615835    22.658684    13699.415    9216.6292    8942.0968    8773.5481   -37.670897   -259.09697    287.98279   -8168.8379 
11321000    25.460984   -10057.755   -9960.6857   -10057.755            0    8977.6386    24.590397     24.62319     22.62442    13698.951    8809.2227    8960.1404    9163.5529     5.971216   -230.24045   -131.83883   -8167.0867 
11322000    26.003208   -10056.625   -9957.4893   -10056.625            0    8744.5149     24.56566    24.608533    22.678807    13709.902    8989.3461    8881.6246     8362.574   -117.55051   -367.62509   -285.30641   -8209.0685 
11323000    24.526929   -10057.944   -9964.4365   -10057.944            0     9535.311     24.58922    24.601944    22.603374    13673.744    9194.5127     9739.333    9672.0872    -355.8445   -221.98438    289.50556   -8062.9284 
11324000    25.721749    -10056.99    -9958.927    -10056.99            0    8577.3191    24.583816    24.629752    22.645039    13711.419    8467.4117    8669.7198    8594.8259   -345.23474   -223.38948    332.43658   -8243.7464 
11325000    25.836353   -10054.886   -9956.3857   -10054.886            0    8787.5586    24.573095    24.623086    22.650333    13704.933     9078.738     8523.488    8760.4498   -433.90997   -290.02387   -68.992978   -8199.9953 
11326000    25.405303   -10058.342    -9961.485   -10058.342            0    8864.1877    24.583482    24.600906    22.663683    13706.449    9224.5815    8794.5139    8573.4676    130.61596   -288.51597    464.69605   -8189.5826 
11327000     24.88762   -10059.483   -9964.6002   -10059.483            0     8821.195    24.583914     24.61907    22.649346    13708.133     8748.467    9055.9238    8659.1943   -143.55808   -185.19645   -278.32847   -8201.0751 
11328000    25.766559   -10056.917   -9958.6829   -10056.917            0    8629.2332    24.609173    24.618238    22.631629    13711.022     8466.161    8759.7941    8661.7444   -277.06655   -19.508053   -478.31463   -8233.1711 
11329000    26.068571   -10060.812   -9961.4265   -10060.812            0    8957.0281    24.577694    24.616149    22.639443    13697.048    9324.5597    8895.9618    8650.5627    94.688536   -184.47459    242.49203   -8172.1938 
11330000    25.510065   -10059.042   -9961.7862   -10059.042            0    8958.2191    24.602133    24.587939     22.65293    13703.114    8878.6373    9149.8716    8846.1483   -368.52429   -2.4377004    506.59761   -8171.5232 
11331000    25.505249   -10054.393   -9957.1554   -10054.393            0    8761.3456    24.570839    24.620655    22.668725    13713.448    8706.6517    8628.2341     8949.151   -101.85612   -69.844019    145.70873   -8204.9163 
11332000    25.050475   -10053.623    -9958.119   -10053.623            0    9431.4149    24.570519    24.585719    22.650506    13682.805    9178.7305     9907.953    9207.5612   -202.25496   -248.12555    401.26977   -8076.0832 
11333000    24.237929   -10058.316   -9965.9096   -10058.316            0    8852.1492    24.611279    24.637313    22.596235    13701.358    8486.8004    8777.5908    9292.0564    -323.0749   -476.62374    267.93287   -8197.0709 
11334000    25.935005   -10054.493   -9955.6166   -10054.493            0    9026.4477    24.620867    24.596114    22.627214    13702.535    8486.5083    9353.3336    9239.5012    -87.36489    68.128365    -60.13222   -8151.7945 
11335000    25.413119   -10058.773   -9961.8867   -10058.773            0    9112.3802    24.549573     24.60606    22.673883    13696.574    9616.2521    8664.7507    9056.1377     223.8931   -380.74284    138.03066   -8141.6843 
11336000    25.450369   -10056.584   -9959.5559   -10056.584            0    8936.5465    24.602042    24.629686    22.609605    13700.077    8975.8628    8853.7574    8980.0192   -207.70976   -277.50023    199.35422   -8174.0199 
11337000    25.465801   -10058.168   -9961.0809   -10058.168            0    9126.6526    24.590176    24.588551    22.655114    13698.116    8906.5683    9451.3402    9022.0494   -191.00696   -453.69955   -232.66662   -8137.8224 
11338000     26.34355   -10054.928   -9954.4946   -10054.928            0    9033.8838    24.625461    24.590625    22.624043    13700.113    8533.1492    9227.0809    9341.4213   -331.37111    102.37708   -254.93457   -8149.5056 
11339000    24.910108   -10061.923   -9966.9545   -10061.923            0    8806.6599     24.59446    24.604025    22.645573     13703.35    8667.3234    9062.2603    8690.3961    93.817479   -190.54112    12.827018   -8206.9496 
11340000    25.679292   -10056.114    -9958.213   -10056.114            0    8898.4567    24.549411    24.604872    22.686637    13703.525    9004.0185    9030.5125    8660.8392   -287.66808   -425.46919   -226.98706   -8179.8399 
11341000     25.22118   -10061.131   -9964.9768   -10061.131            0    8746.8383    24.583399    24.609665    22.649279     13702.57    8832.7355    8821.8114     8585.968    -232.4499   -361.20985   -33.331019   -8217.0268 
11342000    25.631895   -10056.239   -9958.5186   -10056.239            0    8943.7132    24.580567     24.61512    22.648505    13703.559    9084.7925    8824.7404    8921.6067     27.82274   -161.08635    347.54197   -8171.0964 
11343000    25.393478   -10054.549   -9957.7371   -10054.549            0    9256.7044    24.568877    24.566374    22.678616    13688.091    9421.6329    9732.7206    8615.7599   -269.43138    121.10472   -39.092355   -8109.8511 
11344000    25.247964   -10057.952   -9961.6957   -10057.952            0    8860.2201    24.606866    24.593417    22.643346    13703.003    8923.3716    8474.6136    9182.6751   -457.87201   -447.70419    202.96359   -8191.0316 
11345000    25.052679   -10061.855   -9966.3427   -10061.855            0    8782.1651    24.579157    24.664554    22.596855    13698.981    8704.3179    8482.1072    9160.0702   -90.672038    -10.81678    215.55632   -8211.7927 
11346000    25.611246   -10057.077   -9959.4356   -10057.077            0    9063.6702     24.60233    24.592367    22.638759    13697.118    8489.0427    9333.3012    9368.6667   -71.769128     49.62484    389.35955   -8148.8912 
11347000    26.032451   -10058.995   -9959.7477   -10058.995            0    8936.4139    24.620117    24.613884    22.609085    13701.031    8454.8295    9155.3463    9199.0659    -323.3862   -293.96249    444.11307   -8174.1138 
11348000    24.894759   -10062.374   -9967.4638   -10062.374            0    8686.5579    24.572705    24.611752    22.667785    13708.962    8991.5358     8656.464     8411.674   -235.81989   -376.32346    225.87466   -8230.7503 
11349000    26.457506   -10056.895    -9956.027   -10056.895            0    9250.0008    24.591626     24.60248     22.62371    13687.683    8988.4316    9336.0066    9425.5644   -115.66286   -424.43577   -26.290632   -8109.5343 
11350000    25.128567   -10059.816   -9964.0148   -10059.816            0    8866.5929    24.591633    24.637762     22.61384    13701.337    8847.1764     8591.559    9161.0432    350.22906   -345.40283   -147.78896   -8192.2927 
11351000    25.947994   -10060.687   -9961.7615   -10060.687            0    9064.4342    24.566048    24.628028    22.639536    13697.221    9069.5316    9266.0997    8857.6714   -144.32826    18.576731    164.10128   -8151.0509 
11352000    25.803624   -10055.732   -9957.3564   -10055.732            0    8867.9931    24.559232    24.619612    22.666801    13705.227    9208.2937    8807.6973    8587.9882   -466.71124   -151.38177     507.9278   -8184.8515 
11353000    25.736503    -10057.65   -9959.5307    -10057.65            0    9141.1355    24.602234    24.590088    22.634196    13693.034    8877.2984    9395.1329    9150.9752    28.396253   -238.50377   -63.441407   -8134.0563 
11354000    25.791008    -10060.28   -9961.9528    -10060.28            0    8742.7855    24.605488    24.598645    22.641999    13704.334    8335.7228      9202.62    8690.0136    165.26603   -334.00597    425.05986   -8214.5878 
11355000     25.83666   -10056.456   -9957.9544   -10056.456            0    9226.4369    24.559451    24.633316    22.635168     13693.84    9051.7473    9019.0956    9608.4678    -372.5935   -77.903517    537.74961   -8115.3371 
11356000    24.788018   -10057.673   -9963.1697   -10057.673            0    9032.0419    24.619201    24.577146    22.636275    13696.524    8738.2045    9267.8696    9090.0516    10.020542    -173.5965    223.78629   -8159.0215 
11357000    25.504187   -10059.383   -9962.1493   -10059.383            0    8614.4782    24.609506    24.575602    22.672869    13712.403    7980.8359    9353.6527    8508.9461   -462.30632   -459.80202    61.916484   -8239.4145 
11358000      26.1323   -10059.331   -9959.7027   -10059.331            0    9048.3961    24.590743    24.566321    22.671006    13695.648    9079.9982    9225.7764    8839.4137   -187.35952    220.34813    155.39402   -8152.4034 
11359000    25.258859   -10057.407   -9961.1085   -10057.407            0    9211.0584    24.575257    24.603075    22.642561    13690.301    9209.8414    9235.7334    9187.6004   -161.32504    58.283325     -125.268   -8122.0378 
11360000      25.3816    -10058.23   -9961.4637    -10058.23            0    9080.8301    24.556419    24.638116    22.625171    13688.769    9581.0068     8667.344    8994.1397   -336.74428   -432.49998   -133.02447   -8148.5971 
11361000    25.614848   -10058.288    -9960.633   -10058.288            0    9176.3099    24.570599    24.601025     22.65568    13694.496    8985.3775    9421.3664    9122.1857    274.42678   -254.91526     114.4082   -8127.9388 
11362000    26.126471   -10058.824   -9959.2176   -10058.824            0    9084.5091    24.562665     24.63059    22.645592    13700.423    9104.0454    8889.5839    9259.8979   -23.526572   -11.462848    440.91321   -8144.0725 
11363000    24.686046   -10054.642   -9960.5274   -10054.642            0    8757.3732    24.598465    24.607371    22.647332    13708.511    8692.2811    8603.6292    8976.2093   -163.59279   -425.85196    11.663917   -8209.7133 
11364000    25.981089   -10052.541   -9953.4891   -10052.541            0    9168.0235      24.5885    24.586583    22.654378     13695.64    8992.3374    9554.5152    8957.2178   -453.43186    -351.8101   -404.35789   -8122.2968 
11365000    26.946746   -10057.832   -9955.0989   -10057.832            0    8849.2478    24.563046    24.672796    22.611809    13703.639    8987.9462    8313.6595    9246.1377   -226.28063   -74.189914   -10.698599   -8186.5457 
11366000    25.438411   -10060.775   -9963.7925   -10060.775            0    8883.3969    24.612409    24.604948     22.62255    13699.923    8595.9201    8914.5665    9139.7041   -30.770453   -363.57625    300.08525   -8188.8957 
11367000     24.64208   -10059.571   -9965.6244   -10059.571            0    8996.5034    24.579138    24.629564    22.627893    13698.325    9293.2887    8762.1593    8934.0623   -434.87247   -203.20443    334.43255   -8168.3387 
11368000     24.34603   -10058.029   -9965.2108   -10058.029            0    8944.4031     24.58049    24.605886     22.65031    13699.467    8893.3359    9021.1099    8918.7635   -43.424879    -103.9727   -18.925533   -8178.1846 
11369000    25.584774   -10059.349   -9961.8084   -10059.349            0    8729.0508    24.553715    24.639559    22.656339     13706.92    9044.8681    8560.0117    8582.2725   -365.28333   -369.31396   -316.36176   -8216.8592 
11370000    25.033523   -10057.612    -9962.173   -10057.612            0     8924.423    24.565599    24.624282    22.657661    13705.851    8867.9601    9181.8203    8723.4885   -592.07194    73.499145      93.8049   -8178.3077 
11371000    24.920718    -10053.81   -9958.8012    -10053.81            0    9476.2505    24.553283    24.627379    22.618169    13676.822    9773.7801    9018.6548    9636.3166   -237.47035   -195.32831    629.38792   -8068.6453 
11372000     25.91948   -10058.526   -9959.7094   -10058.526            0    8963.7094    24.576647    24.638737    22.629123    13702.783    9085.6034    8576.7909     9228.734    129.53992   -363.67753    226.83344   -8168.3924 
11373000    25.091962   -10059.262   -9963.5999   -10059.262            0    8935.1522    24.522248    24.623618    22.691364    13701.646    9495.7526    8814.9112    8494.7927   -554.77783    17.437079   -59.077299    -8178.138 
11374000    26.246593   -10059.351   -9959.2873   -10059.351            0    8652.6437    24.610567    24.624634    22.629468     13714.05    8597.9872    8715.4296    8644.5143   -205.59089   -342.84136    264.57633   -8228.7122 
11375000    26.108772   -10054.025    -9954.486   -10054.025            0    9071.0804    24.559799    24.608026    22.663964    13697.379    9416.8385    8978.6728    8817.7301   -128.30061   -491.72296    502.29826   -8142.4268 
11376000    25.849429   -10058.083    -9959.533   -10058.083            0    9037.0389    24.611206    24.651792    22.565744     13690.87    8992.8006     8445.191    9673.1252   -206.21213    56.603633    223.24194   -8155.1319 
11377000    25.215855    -10056.09   -9959.9556    -10056.09            0    8737.3818    24.583352    24.659487    22.608791    13705.739     8760.788    8696.0786    8755.2787   -114.32375     249.0021   -38.600982   -8213.4915 
11378000    25.129424    -10060.33   -9964.5252    -10060.33            0    8828.2439    24.572873    24.658868    22.627648     13710.98    9269.9234     8380.135    8834.6733   -336.88626    122.99203   -49.734571   -8199.2245 
11379000    25.785732   -10056.865    -9958.558   -10056.865            0    8880.7931    24.589474    24.608001     22.64462     13702.21    8680.9906    8926.6829    9034.7059   -349.66854    -455.4524    436.30817   -8183.8854 
11380000    24.858308   -10059.779   -9965.0077   -10059.779            0    9058.7373    24.598477     24.60919    22.632744      13700.7    9096.9644    8866.2941    9212.9535    94.225507   -18.367674   -70.744627   -8154.9754 
11381000    25.133112   -10061.842   -9966.0229   -10061.842            0    8846.3052    24.606605    24.611347    22.625128    13701.816    8386.4782    9246.1479    8906.2895     -297.177   -420.40214    135.60705   -8198.2929 
11382000    25.206533   -10057.973   -9961.8744   -10057.973            0    8805.2511    24.544575    24.612837    22.692033    13708.521    9419.6904    8771.1306    8224.9324    35.176114   -301.74268     363.7923    -8201.487 
11383000     25.22194   -10056.554   -9960.3967   -10056.554            0    9089.4926     24.53036    24.646316    22.653065    13695.658    9541.9054    8936.5485    8790.0238   -116.17367   -67.739542     140.0011   -8144.8876 
11384000    25.622961   -10061.678   -9963.9915   -10061.678            0    9170.4569     24.58588    24.590474    22.648541     13692.82    9208.1333    9260.5692    9042.6683   -338.04556   -194.04954   -163.27588   -8132.6904 
11385000    25.061098   -10058.647    -9963.103   -10058.647            0    9257.9699     24.55095    24.604487    22.657664    13686.669    9271.2093    9089.0554    9413.6448   -17.104302   -62.819246    367.32814   -8115.1565 
11386000    25.460353    -10057.71   -9960.6437    -10057.71            0    9090.5626    24.574542    24.619263    22.639952    13697.332    8904.6942    8964.1878    9402.8059   -191.09707    -439.2732   -159.78306   -8144.6989 
11387000    25.972022   -10059.978   -9960.9611   -10059.978            0    9145.5081    24.550952     24.65377     22.61096    13685.815    9791.4225    8426.0754    9219.0264   -182.80745   -595.93877    131.20301   -8135.5765 
11388000    24.877013   -10054.182   -9959.3391   -10054.182            0    9207.5308    24.532715    24.626787     22.66595    13693.905    9336.3269    9095.3799    9190.8857   -142.74553   -188.60976    11.315437   -8120.4888 
11389000    25.179874   -10062.707   -9966.7101   -10062.707            0     8529.324     24.53005    24.648964    22.682346    13714.661    9442.3387    7964.8874     8180.746   -108.81024    185.11522   -51.063327   -8260.7236 
11390000    25.645703   -10057.723   -9959.9501   -10057.723            0    8955.7906    24.618733    24.589608    22.631404     13700.26    8357.3123    9202.7147    9307.3448    20.681502   -58.010898    116.01281   -8170.5452 
11391000    25.634807   -10061.826   -9964.0941   -10061.826            0    9114.9031    24.570632    24.577266    22.678283    13694.937    9337.4204    9141.9774    8865.3115   -226.27867   -34.893602     485.3903   -8143.6054 
11392000    25.220609   -10059.831   -9963.6787   -10059.831            0    8894.7646     24.58693    24.627484    22.628886    13702.112    8851.8356    8705.7939    9126.6641   -11.756241    -556.4275     121.0089   -8186.2268 
11393000    24.799347   -10055.276   -9960.7298   -10055.276            0    9037.3085    24.527603    24.653394    22.658325    13701.232    9283.3555    8681.0363    9147.5337   -214.07759   -386.26408   -260.96301   -8154.9091 
11394000    25.976271   -10062.695    -9963.662   -10062.695            0    8717.8544    24.629263    24.604679    22.623886    13709.964    8503.9673    8987.6121    8661.9839   -146.77583   -137.78565   -27.577615    -8220.564 
11395000    26.510219   -10053.457   -9952.3882   -10053.457            0    9337.9126    24.575993    24.604694    22.630341    13684.223    9422.7292    9448.3414    9142.6673   -158.16791   -515.50439   -45.838445   -8088.8176 
11396000    25.372425   -10057.199   -9960.4677   -10057.199            0    9107.8285      24.5455    24.615806    22.668875    13696.699    9066.9295    9156.3126    9100.2433   -345.98588   -182.11861   -189.83673    -8141.158 
11397000    25.303126    -10059.92   -9963.4526    -10059.92            0    8970.6885    24.572344    24.583455    22.685621    13703.774     8927.417    9290.2834    8694.3652   -302.79408   -131.07081      596.759   -8170.6113 
11398000     25.58365   -10063.124   -9965.5874   -10063.124            0    9033.3916    24.559401    24.609005     22.66099    13695.904    9183.9077    9073.0653    8843.2018   -457.89528    -333.2304    74.672424   -8161.2514 
11399000    25.740881   -10058.925   -9960.7888   -10058.925            0    8669.4256    24.567046    24.605269     22.67684    13707.669    8613.3845    8935.7217    8459.1707   -374.33291   -173.61395    88.268739   -8227.6641 
11400000    24.858843   -10057.992   -9963.2183   -10057.992            0    8956.8317    24.627243    24.610554    22.598995    13697.028    8512.6739    8848.9184    9508.9027   -240.10596    117.13062    410.20754   -8174.0276 
11401000    26.121859   -10059.272   -9959.6836   -10059.272            0    9205.2424    24.581199     24.62847    22.608814    13687.315    9077.8628     9109.759    9428.1055    232.18215   -158.62584    58.388866    -8122.175 
11402000    26.038028   -10063.488   -9964.2194   -10063.488            0    8801.4434    24.582078    24.635247    22.628221    13703.324    8942.7172    8733.3582     8728.255    48.193162   -231.81389    208.94364   -8205.2604 
11403000    25.761811   -10056.862   -9958.6467   -10056.862            0    8636.6188    24.595358    24.598568     22.66186    13710.665     8701.019    8546.8244    8662.0129   -57.193348    77.508587    316.32692    -8231.703 
11404000    24.527844   -10058.216   -9964.7044   -10058.216            0    9031.6846    24.574879    24.584248    22.673268    13698.166    9028.6647    9218.9767    8847.4124    -18.53247   -566.22557    354.37108   -8160.4113 
11405000    25.091538   -10057.907   -9962.2465   -10057.907            0    8834.7417    24.555309    24.579191    22.715114    13709.699    8872.3541     9070.347    8561.5241   -126.62917    -247.8579    185.25063   -8195.8115 
11406000    24.019471   -10061.231   -9969.6579   -10061.231            0     9092.295    24.628332    24.572762    22.625404     13692.58    8784.0993    9082.4468    9410.3389     -213.351   -138.00095    290.19975   -8153.9971 
11407000    24.803041   -10058.582   -9964.0218   -10058.582            0    8865.4264    24.553504    24.642232    22.654683    13707.287    8973.1762    8742.5522    8880.5508   -265.35107    118.40074    -4.667448   -8191.7635 
11408000    25.293937   -10056.012   -9959.5797   -10056.012            0    8948.6315     24.55973    24.663273    22.623956    13703.858    9228.9891    8328.2295    9288.6759   -118.06814    -360.3587    36.214909   -8171.1356 
11409000    25.579272   -10057.048   -9959.5285   -10057.048            0    8963.2254    24.601388    24.612988    22.626564    13700.694    8601.7872    9375.4694    8912.4197   -128.63345   -573.93969   -32.964936   -8168.5814 
11410000    24.743359   -10055.863   -9961.5305   -10055.863            0    9048.5232    24.574157    24.587734    22.669645    13697.517    9253.0613    9279.0397    8613.4684   -235.63827   -66.842121    148.05275   -8153.9591 
11411000    24.410539   -10060.223   -9967.1592   -10060.223            0    8790.2249    24.621744    24.576815    22.648647    13705.241    8510.1293    9214.1125    8646.4328    14.523888   -160.14044    327.47039   -8210.1965 
11412000    26.077046   -10059.532   -9960.1147   -10059.532            0    8991.7273     24.55398    24.640302    22.638337    13696.589    8790.3988    9095.9553    9088.8278   -76.807478   -123.55922   -155.60245   -8164.0108 
11413000    25.702532    -10055.81   -9957.8204    -10055.81            0    9321.8121    24.581704    24.610639    22.627802    13689.174    9647.9604      8893.12    9424.3557   -171.28884   -158.77201    337.48287     -8096.79 
11414000    24.513702    -10058.25   -9964.7924    -10058.25            0    8860.3911    24.587233    24.608213    22.650617    13704.707    8718.0123    9083.6731     8779.488   -65.794926    417.72539    40.668219    -8193.874 
11415000    25.474718   -10057.209   -9960.0875   -10057.209            0    8761.9802    24.567702    24.591391    22.692004    13709.464    8961.4024    9068.9237    8255.6145   -101.52037   -180.35728    107.64578   -8208.2306 
11416000    25.739761   -10055.913   -9957.7816   -10055.913            0    9096.6709    24.574317    24.631408    22.626227    13695.656    9325.4033    8834.7102    9129.8991   -277.10926     -142.922    269.19654    -8140.839 
11417000    24.636642   -10062.657   -9968.7305   -10062.657            0     8694.162    24.621345    24.603978     22.63449     13711.59     7862.064    8704.3906    9516.0315   -381.53469   -202.39368   -45.884501   -8230.1635 
11418000    25.618714   -10051.444   -9953.7735   -10051.444            0    9246.5462    24.606942    24.667152    22.556868     13691.64     9044.873    8662.8965    10031.869   -377.16439   -390.84618    162.81076   -8107.4368 
11419000    25.489301   -10058.414   -9961.2368   -10058.414            0    9195.2833    24.560296    24.639782    22.619916    13688.676    8958.5191    9099.1528     9528.178   -35.402548   -213.51291    14.997714   -8125.5336 
11420000    25.076015    -10057.47    -9961.869    -10057.47            0    8838.0248    24.583905    24.619647    22.641041    13703.424    9156.7873    8483.8316    8873.4555    29.478197    83.161593   -202.78307   -8195.5864 
11421000    25.572648   -10058.776   -9961.2814   -10058.776            0    9072.1641    24.572773    24.573365    22.671422    13689.815    8776.8533    9727.7894    8711.8497   -282.57639   -365.65978    175.34081   -8150.0066 
11422000    25.566774   -10059.703   -9962.2308   -10059.703            0    8872.7944    24.584856    24.603145    22.658078    13705.073    8865.4841    8816.2817    8936.6175   -89.403757   -93.659246    310.26775   -8188.7861 
11423000    24.415185   -10055.563   -9962.4816   -10055.563            0    8849.0686    24.585565    24.599384    22.665623    13707.937     8427.745    9500.9892    8618.4715   -179.68744   -325.65291    44.595788   -8193.4095 
11424000    25.735879   -10062.161   -9964.0442   -10062.161            0     8795.491     24.60072    24.615966    22.633673    13706.285    8836.2554    8854.6438    8695.5739   -267.46682   -301.03062    38.558389    -8205.895 
11425000    25.729005   -10058.197   -9960.1058   -10058.197            0    9110.8075    24.572755    24.615591    22.633358    13690.305    9365.1617    8665.1132    9302.1476   -291.80582   -28.097753   -234.77346   -8141.0506 
11426000    25.115415   -10058.849   -9963.0979   -10058.849            0    9139.5725    24.542568    24.645388    22.639321    13693.645    9491.9346    8623.3452    9303.4376   -23.822429   -6.5009009   -263.72432   -8137.8543 
11427000    25.350018   -10059.466   -9962.8197   -10059.466            0    8725.0435    24.565363     24.61904    22.682109    13717.587    8868.5777    8648.3715    8658.1813   -80.460079   -152.58178   -85.349088   -8217.3142 
11428000    25.453696   -10059.658   -9962.6166   -10059.658            0    8804.6582    24.589487    24.664465    22.597742    13705.227    8994.9871    8296.5813    9122.4063   -51.607693   -359.24679    135.48535   -8202.7708 
11429000    25.679372   -10059.085   -9961.1833   -10059.085            0    9110.0007    24.559151    24.606036    22.660249    13693.665    9199.1398    9144.0921    8986.7701    45.547911    312.26547   -149.10368   -8141.8428 
11430000    25.005252   -10060.463   -9965.1314   -10060.463            0    8604.7156    24.593376    24.599149    22.673498    13716.925    8444.8847    9123.5546    8245.7075    5.8144534    -325.4794    89.709879   -8243.7814 
11431000    25.384588   -10057.162   -9960.3847   -10057.162            0    9131.1849    24.585499    24.626595     22.61376    13691.662    9426.4545     8546.066    9421.0341    191.41838   -247.34232    -373.3697   -8137.0802 
11432000    26.016659    -10057.05   -9957.8623    -10057.05            0    9036.0252    24.558732    24.565329    22.714659    13703.602    9180.4235    9102.6745    8824.9775   -428.87818   -212.22535    218.00447   -8151.9858 
11433000    25.419852   -10059.504   -9962.5919   -10059.504            0     8631.857    24.566034    24.630319    22.664393    13713.528    8830.7962    8842.8719     8221.903   -36.025998   -161.61043    -27.97275   -8236.2401 
11434000    25.096563   -10056.218   -9960.5383   -10056.218            0    8857.5925    24.569015     24.62342    22.653307    13704.643    9174.4249    8515.8117     8882.541   -427.01507   -462.76419    137.61703   -8190.1875 
11435000    26.349933   -10057.144    -9956.686   -10057.144            0    8742.8746    24.587134    24.649961    22.620375    13709.573    8768.9389    8537.2624    8922.4226   -345.35049   -179.60126    192.40014   -8208.6351 
11436000    25.668855   -10053.743   -9955.8817   -10053.743            0    9075.5878    24.559937    24.592863    22.674956    13695.655     9586.894    8803.0731    8836.7962   -240.01047   -228.27014    240.61797   -8143.1503 
11437000    25.454812   -10062.537   -9965.4918   -10062.537            0    9163.6925    24.617286    24.594761    22.613145    13691.271    9009.3668    9128.7836     9352.927    84.052829   -140.88022   -5.8267978   -8135.7485 
11438000    25.431624   -10053.574   -9956.6173   -10053.574            0    9064.6884    24.555247    24.622546    22.667819    13705.251    9356.7062    8745.8947    9091.4644    313.81875   -675.63278    126.40705   -8144.7942 
11439000    24.321651   -10059.531   -9966.8057   -10059.531            0    9019.2237     24.60944    24.619074    22.614578    13701.305    8745.9062    8771.5739    9540.1911   -277.76311   -352.00562    224.12394   -8164.5891 
11440000    26.053873   -10056.443   -9957.1141   -10056.443            0    8912.0423    24.586401    24.585249    22.674689    13706.006    8844.6241    9129.4115    8762.0914    72.605677   -59.810315   -194.01732   -8175.7034 
11441000    25.573684   -10056.953   -9959.4542   -10056.953            0    9073.4292    24.545468    24.625092    22.664552    13699.235    9399.5429    8930.2234    8890.5214   -384.51371   -248.63084    265.73294   -8146.6802 
11442000    24.932291   -10053.614   -9958.5611   -10053.614            0     9154.972    24.542478    24.601378    22.689225    13699.273    9366.2431    9145.5788     8953.094    77.099806    -228.5755   -74.180722   -8129.4908 
11443000    25.095904   -10057.285   -9961.6079   -10057.285            0    8858.1673    24.567066    24.637235    22.646568    13707.165    8920.5463    8729.1733    8924.7825   -230.55128   -103.98574    198.11852   -8190.8165 
11444000    24.919929   -10055.556   -9960.5499   -10055.556            0    9057.2937    24.559029    24.623355    22.638888    13690.317    9089.5542     9277.955    8804.3718    24.103863    54.539182    164.48608   -8152.1776 
11445000    25.568418   -10058.312    -9960.834   -10058.312            0    9039.3919    24.592895    24.581466     22.67035    13704.893    8925.3218    8778.5818    9414.2721   -330.50521   -180.52065    399.63521   -8154.1143 
11446000    25.184583   -10054.185   -9958.1696   -10054.185            0    8963.9258    24.551278    24.639475    22.644968    13698.633     9797.011    8193.2773    8901.4892    15.589586    109.32354    328.33149   -8167.3519 
11447000    25.394448   -10058.934   -9962.1189   -10058.934            0    9192.9961    24.552947    24.659991    22.612137    13691.094    9086.9761    8949.4596    9542.5527   -137.94691   -373.35316    198.22745   -8126.5482 
11448000    25.614425   -10057.922   -9960.2678   -10057.922            0    8791.1826     24.55483    24.629547    22.667944     13708.99     9009.169    8445.1646    8919.2142   -145.15461    168.45941    21.742712   -8202.6329 
11449000    25.637635   -10055.955   -9958.2124   -10055.955            0    8943.1329    24.600153    24.602959    22.648182    13707.508    8605.1733    9209.5728    9014.6527   -547.29712    172.15696    -24.05376   -8170.3913 
11450000    25.175549   -10056.165    -9960.184   -10056.165            0    9094.7672    24.548852    24.605515    22.675663    13696.943    9503.3652     8726.635    9054.3015   -357.85874   -530.59992   -193.69209    -8143.451 
11451000    26.667979   -10058.599   -9956.9287   -10058.599            0    9163.8827    24.572181     24.62077    22.636457     13694.74    8939.9463     9342.348    9209.3538   -364.59338    -309.7458   -339.03661   -8126.6838 
11452000    25.272751   -10057.575   -9961.2239   -10057.575            0    9266.8485    24.591729    24.599716    22.629887     13689.94    8980.8042    9411.0389    9408.7023   -329.84948   -119.18018   -165.76685    -8111.063 
11453000    25.149499   -10060.494   -9964.6127   -10060.494            0    9061.0488    24.587204    24.623934    22.617991    13693.694    8970.2523    8912.5922     9300.302   -169.45536   -425.13008    52.632453   -8155.0444 
11454000    26.235738   -10059.114    -9959.091   -10059.114            0    8955.2102    24.598628     24.58639    22.648344    13697.525    8554.0439    9256.4364    9055.1503   -307.54241   -81.355815    41.945679   -8170.1593 
11455000    25.018286   -10061.512   -9966.1309   -10061.512            0    8575.1052    24.607784    24.634033    22.620266    13712.156    8329.8011    8597.7238    8797.7907   -268.72254   -489.99143   -159.84146   -8251.3008 
11456000    24.889656    -10063.29   -9968.3996    -10063.29            0    9053.6218    24.538453    24.640759    22.649466    13694.911    9427.1556    8541.4358    9192.2741   -188.78682   -19.351939    -22.44955   -8160.1538 
11457000     25.29245   -10056.441    -9960.015   -10056.441            0    9309.4776    24.581861     24.60051    22.627391    13683.379    9160.9191    9684.2184    9083.2954    246.62877   -577.69105    93.295393   -8102.2339 
11458000    25.297358   -10058.788   -9962.3427   -10058.788            0    8799.9426    24.594849     24.60153    22.651408    13705.708    8776.5365    8913.6634    8709.6279   -355.74578    -115.0082   -166.64239   -8203.3776 
11459000    25.847369   -10055.098   -9956.5563   -10055.098            0    8977.1919    24.559131    24.623244    22.659302    13702.658    9222.1826    9002.1058    8707.2875   -288.61038   -424.27634    131.07396   -8162.5614 
11460000    25.987914    -10060.23   -9961.1525    -10060.23            0    8879.8572    24.576229     24.62245    22.648117    13704.987    9160.8737    8655.7617    8822.9362   -175.11047   -2.1346018    210.37911   -8186.3072 
11461000    25.800526   -10056.662   -9958.2986   -10056.662            0    8727.0417    24.562819    24.607349    22.681234    13709.124    9190.7607    8853.1568    8137.2077   -221.60432   -52.400893    551.82055   -8213.4704 
11462000    24.868766   -10057.764   -9962.9527   -10057.764            0    8775.4769    24.587885    24.604771    22.651566    13703.729     8900.724    8894.0364    8531.6702   -300.85523   -353.20304    110.59433   -8209.1314 
11463000    24.425826   -10055.048    -9961.926   -10055.048            0    9023.4916    24.582068    24.631534    22.622499    13697.789    9208.2645    8855.3352    9006.8749   -320.83558   -412.91795    228.91073   -8159.3194 
11464000    25.273661    -10056.62   -9960.2654    -10056.62            0    8656.5907    24.594603    24.598555    22.672188    13716.485    8785.4247    8562.6966    8621.6508   -121.15705   -394.04717    90.980783   -8228.5935 
11465000    25.381385   -10057.608   -9960.8431   -10057.608            0    9162.7958    24.546135    24.588814    22.698322    13699.807    9250.8576    9433.4196    8804.1102   -390.77944   -21.616992    201.04049   -8130.1381 
11466000    24.243456    -10057.13   -9964.7029    -10057.13            0    8951.9007    24.599416    24.675252    22.561891    13694.995    9158.4316    8480.2672    9217.0034    115.69785   -439.87724    150.08228   -8176.7625 
11467000     25.81402   -10058.017   -9959.6022   -10058.017            0    8906.1062    24.556205    24.625123    22.668377    13707.558    9251.3307    8568.9996    8897.9882   -303.99493   -584.00021    150.05505   -8179.1766 
11468000    25.124516   -10057.894   -9962.1077   -10057.894            0    8784.4949    24.602331    24.627703    22.625815    13708.957    8489.0812    8758.6306    9105.7727   -267.69002    -399.6893   -290.90059   -8205.8142 
11469000     25.23166   -10060.152   -9963.9571   -10060.152            0     9294.296    24.592685    24.563825    22.653958    13685.038    9002.6673    9407.4269    9472.7938   -268.92683   -390.85132     -8.62698   -8108.9806 
11470000    25.677876   -10059.693   -9961.7973   -10059.693            0    8821.7199    24.566382    24.580047    22.702079    13708.487    8707.7107    9234.8244    8522.6245   -164.91661   -54.610208    137.45455   -8198.1218 
11471000    24.981238   -10057.872   -9962.6317   -10057.872            0     8784.428    24.590597    24.637797    22.624439      13707.2    8500.5138    8841.9423    9010.8279     57.87746    288.14904   -83.626247   -8206.5766 
11472000    25.145511    -10059.94   -9964.0734    -10059.94            0     8825.719    24.590039    24.598029    22.658181    13705.174    8934.6464    8949.7524    8592.7581   -289.60848    267.64895    264.92115   -8200.0248 
11473000    25.610581   -10057.499   -9959.8599   -10057.499            0    9273.4803     24.59559    24.625362    22.602189    13689.588    9190.3149    9236.9643    9393.1618    78.755815    89.380736    593.88457   -8108.4226 
11474000    26.198433   -10052.414   -9952.5334   -10052.414            0     9103.964    24.557511    24.613585    22.653482     13692.86     9328.397     9136.348     8847.147    55.546433   -215.58174    257.27825   -8134.5053 
11475000    25.184858   -10059.023   -9963.0069   -10059.023            0    8955.4576    24.626052    24.617948    22.594703    13697.878    8763.2304    8664.1652     9438.977   -475.55976    284.51884    566.38311   -8173.9797 
11476000       24.715   -10054.058    -9959.833   -10054.058            0    8833.3939    24.615628    24.610905    22.625679    13706.928    8327.4615     8764.559    9408.1612    183.67178    21.125542    89.320716   -8194.0244 
11477000    26.346484   -10058.434   -9957.9891   -10058.434            0    9287.8883    24.587208    24.591806    22.639809    13689.021    9130.7603    9162.8332    9570.0713   -231.83186   -467.95674     218.4021    -8103.752 
11478000    25.517397   -10058.171   -9960.8868   -10058.171            0    8756.2732    24.565977    24.588878    22.696277    13709.682    8708.8388    9217.9789    8342.0018   -55.695126    388.26946    104.96406   -8210.1432 
11479000     25.09434   -10058.449   -9962.7778   -10058.449            0    9085.0434    24.595209    24.634457    22.610817    13699.659    9038.2276    8856.2653    9360.6373   -242.64106   -416.31125    170.68784   -8147.6272 
11480000    25.144211   -10057.878    -9962.017   -10057.878            0    8773.7556    24.570821    24.652948    22.633624    13710.164     9037.012    8457.3959     8826.859    1.2053531   -272.88275    260.14923   -8207.7162 
11481000    27.145104   -10059.723   -9956.2335   -10059.723            0    9064.5741    24.580924    24.615255    22.636599     13696.63    9076.7919    9177.3536     8939.577   -7.4810439   -278.27434    394.87498    -8145.573 
11482000    25.828492   -10058.433   -9959.9626   -10058.433            0    8637.1087    24.609936    24.605308    22.638181    13708.212    8527.5897    8453.7152    8930.0212   -171.24608   -146.39789    267.65548     -8233.23 
11483000    26.745846   -10060.673   -9958.7058   -10060.673            0    8796.2749    24.556773    24.632812    22.657725    13705.712    9230.4229    8508.7776    8649.6242   -73.670724   -278.89174    113.87373   -8200.4735 
11484000    25.915933   -10057.645   -9958.8421   -10057.645            0    9139.8119    24.622645    24.559196    22.646289    13694.491      8695.89    9808.6831    8914.8625   -157.06585    165.19942   -304.41376   -8133.4379 
11485000     24.48645     -10057.8    -9964.446     -10057.8            0    8839.2091    24.632746    24.579122    22.643874    13709.762    8307.7385    9522.3867    8687.5022   -54.915232   -354.69696     282.1948   -8197.1096 
11486000    25.163587   -10053.511   -9957.5762   -10053.511            0    9151.4883    24.547147    24.623852    22.652195    13692.013    9661.8174     8996.715    8795.9326    5.6134063   -299.27081    377.06781   -8130.1707 
11487000    25.298753   -10056.795   -9960.3448   -10056.795            0      9354.45    24.604895    24.605639    22.600893    13683.014     8868.483    9674.8021    9520.0648   -190.08706   -465.93447   -74.718304   -8093.6389 
11488000    26.465212   -10056.827   -9955.9297   -10056.827            0    8903.6099     24.57035    24.618426    22.661735    13707.706    9014.1191     8407.875    9288.8356   -316.45178    29.975857    366.17857   -8175.9838 
11489000    25.215715   -10052.577   -9956.4434   -10052.577            0    9487.5916    24.569968    24.587414    22.649306    13682.717    9190.3671    9766.4061    9506.0016    122.45758   -151.75077   -104.70498   -8063.2097 
11490000    26.045865   -10060.477   -9961.1787   -10060.477            0    8543.4724     24.59153    24.628413    22.649427    13717.634    8588.7257     8534.089    8507.6025   -521.13818   -235.37974    195.15465    -8251.992 
11491000    26.022482   -10058.776   -9959.5666   -10058.776            0    8806.8288    24.560317    24.642197    22.646709    13706.245    8926.9237    8674.1279    8819.4348    192.75668   -312.13099    446.31057   -8199.1561 
11492000    25.970542   -10057.562   -9958.5508   -10057.562            0    8947.7055    24.592938    24.635567    22.616171    13702.256    8917.1247    8598.2248     9327.767    -211.7836   -164.95341    59.592513   -8170.5009 
11493000    24.900203    -10056.85   -9961.9193    -10056.85            0    8965.2778     24.63361      24.6132    22.594807    13699.502    8144.6389    9254.1281    9497.0664   -10.021939     36.93365   -104.00476   -8170.7179 
11494000    25.007717   -10061.494   -9966.1532   -10061.494            0     8533.369    24.600723    24.615064    22.656673    13719.712     8425.048    8562.3527    8612.7063   -210.12373   -324.71955    360.42619   -8258.7292 
11495000    26.199414   -10060.478   -9960.5936   -10060.478            0    8579.3751    24.612518    24.620262    22.629863    13712.943    8835.4593    8554.4143    8348.2516   -11.119355   -169.96902    455.28171   -8244.8112 
11496000    25.719543    -10060.35   -9962.2951    -10060.35            0    9311.0899    24.571908    24.587183    22.652072    13685.339    9362.8933     9493.274    9077.1025   -194.81102    41.703323   -92.499646   -8103.9259 
11497000    26.377666   -10056.135    -9955.571   -10056.135            0    8881.8054    24.588175    24.622051    22.638462    13705.581    9011.9858    8859.6912    8773.7391   -242.26693   -265.57806    244.63742   -8180.2595 
11498000    24.916926   -10060.865   -9965.8707   -10060.865            0    8975.9316    24.610825    24.550468    22.683446    13705.503    8690.2433    9607.2852    8630.2665   -300.72472    74.204847   -22.792703   -8171.7551 
11499000    24.405057   -10056.369   -9963.3262   -10056.369            0    9508.1171    24.592169    24.591214    22.618449    13678.536    9423.8066    9392.5615    9707.9832   -66.615127    -324.5271    353.11909   -8066.5765 
11500000    25.779736   -10055.308   -9957.0237   -10055.308            0    9516.9757    24.575726     24.58922    22.638832      13680.6    9278.1604    9419.3024    9853.4643   -84.795853    -180.0296    200.77072   -8058.2204 
Loop time of 584.948 on 64 procs for 250000 steps with 1920 atoms

Performance: 73.853 ns/day, 0.325 hours/ns, 427.388 timesteps/s
195.5% CPU use with 32 MPI tasks x 2 OpenMP threads

MPI task timing breakdown:
Section |  min time  |  avg time  |  max time  |%varavg| %total
---------------------------------------------------------------
Pair    | 73.152     | 75.394     | 83.65      |  22.9 | 12.89
Bond    | 0.89876    | 1.1123     | 2.0649     |  19.3 |  0.19
Kspace  | 271.5      | 281.18     | 292.35     |  23.6 | 48.07
Neigh   | 0.15214    | 0.1596     | 0.1858     |   1.9 |  0.03
Comm    | 84.74      | 94.348     | 100.14     |  32.8 | 16.13
Output  | 0.61969    | 0.61999    | 0.62172    |   0.0 |  0.11
Modify  | 100.78     | 105.81     | 114.08     |  28.8 | 18.09
Other   |            | 26.33      |            |       |  4.50

Nlocal:        60.0000 ave          62 max          59 min
Histogram: 4 0 0 25 0 0 2 0 0 1
Nghost:        3692.69 ave        3707 max        3677 min
Histogram: 1 2 2 3 3 9 6 2 1 3
Neighs:        22233.3 ave       23086 max       21821 min
Histogram: 4 5 5 7 7 2 0 1 0 1

Total # of neighbors = 711465
Ave neighs/atom = 370.55469
Ave special neighs/atom = 2.0000000
Neighbor list builds = 250
Dangerous builds = 0

unfix		3
unfix		2
unfix		1

write_data	data.final.${pid}
write_data	data.final.1
System init for write_data ...
PPPM initialization ...
  extracting TIP4P info from pair style
  using 12-bit tables for long-range coulomb (../kspace.cpp:340)
  G vector (1/distance) = 0.37563523
  grid = 30 30 30
  stencil order = 5
  estimated absolute RMS force accuracy = 0.0031352328
  estimated relative force accuracy = 9.4416605e-06
  using double precision FFTW3
  3d grid and FFT values/proc = 5400 960
Last active /omp style is kspace_style pppm/tip4p/omp
WARNING: Not all mixed pair coeffs generated from mixing. Use write_data with 'pair ij' option to store all pair coeffs. (../write_data.cpp:312)

write_restart   restart.lmp.${pid}
write_restart   restart.lmp.1
System init for write_restart ...
PPPM initialization ...
  extracting TIP4P info from pair style
  using 12-bit tables for long-range coulomb (../kspace.cpp:340)
  G vector (1/distance) = 0.37563523
  grid = 30 30 30
  stencil order = 5
  estimated absolute RMS force accuracy = 0.0031352328
  estimated relative force accuracy = 9.4416605e-06
  using double precision FFTW3
  3d grid and FFT values/proc = 5400 960
Last active /omp style is kspace_style pppm/tip4p/omp
Total wall time: 0:09:45
