LAMMPS (30 Jul 2021)
  using 1 OpenMP thread(s) per MPI task
package omp 0
using multi-threaded neighbor list subroutines
echo both

include		in.partitions
variable        pid world 0
include		in.temp
variable        temperature equal 257.57
variable	tempDamp equal 100.0
include		in.pressure
variable        pressure equal 9375.0
variable        pressureDamp equal 1000.0 # This is 1 ps
include		in.seed
variable        seed world 745823

units		real
atom_style	full
read_restart	restart.lmp.${pid}
read_restart	restart.lmp.0
Reading restart file ...
  restart file = 30 Jul 2021, LAMMPS = 30 Jul 2021
  restoring atom style full from restart
  orthogonal box = (0.60073422 1.7991168 0.73289435) to (17.606838 21.830061 21.480301)
  4 by 4 by 4 MPI processor grid
  restoring pair style lj/cut/tip4p/long/omp from restart
  restoring bond style harmonic/omp from restart
  restoring angle style harmonic/omp from restart
  864 atoms
  576 bonds
  288 angles
Finding 1-2 1-3 1-4 neighbors ...
  special bond factors lj:    0        0        0       
  special bond factors coul:  0        0        0       
     2 = max # of 1-2 neighbors
     1 = max # of 1-3 neighbors
     1 = max # of 1-4 neighbors
     2 = max # of special neighbors
  special bonds CPU = 1.160 seconds
  read_restart CPU = 1.378 seconds
include 	in.setup
variable	out_freq equal 1000
variable	out_freq2 equal 10000
variable	out_freq3 equal 1000

timestep	2.0

neigh_modify    delay 7 every 1

include		in.tip4p
# This is TIP4P/Ice

# create groups ###
group ox type 2
288 atoms in group ox
group hy type 1
576 atoms in group hy

# set charges - beside manually ###
set group ox charge -1.1794
Setting atom values ...
  288 settings made for charge
set group hy charge 0.5897
Setting atom values ...
  576 settings made for charge

# ### TIP3P Potential Parameters ###
pair_style lj/cut/tip4p/long/omp 2 1 1 1 0.1577 8.5
pair_coeff 1 1*2 0.000 0.000
pair_coeff 2 2 0.21084 3.1668
bond_style  harmonic
bond_coeff  1 450 0.9572
angle_style harmonic
angle_coeff 1 55 104.52
kspace_style pppm/tip4p/omp 1.0e-5
pair_modify tail yes

thermo          ${out_freq}
thermo          1000
thermo_style    custom step temp pe etotal epair emol press lx ly lz vol pxx pyy pzz pxy pxz pyz enthalpy

restart 	${out_freq3} restart.lmp.${pid} restart2.lmp.${pid}
restart 	1000 restart.lmp.${pid} restart2.lmp.${pid}
restart 	1000 restart.lmp.0 restart2.lmp.${pid}
restart 	1000 restart.lmp.0 restart2.lmp.0


include         in.dump
dump            myDump all atom ${out_freq2} dump.water.${pid}
dump            myDump all atom 10000 dump.water.${pid}
dump            myDump all atom 10000 dump.water.0
dump            myDump2 all dcd ${out_freq2} dump.dcd
dump            myDump2 all dcd 10000 dump.dcd
dump_modify     myDump append yes
dump_modify     myDump2 append yes


variable natoms 	equal  "count(all)"                        # NUMBER ATOMS
variable H      	equal  "enthalpy/v_natoms"                 # ENTHALPY-per-atom
variable Vol      	equal  "vol/v_natoms"                 # volume-per-atom
fix AVG all 		ave/time ${out_freq} 1 ${out_freq} v_Vol v_H file vol_enthalpy.dat
fix AVG all 		ave/time 1000 1 ${out_freq} v_Vol v_H file vol_enthalpy.dat
fix AVG all 		ave/time 1000 1 1000 v_Vol v_H file vol_enthalpy.dat


timer           timeout 23:50:00 every 1000
New timer settings: style=normal  mode=nosync  timeout=23:50:00

fix 		1 all shake 1e-6 200 0 b 1 a 1
       0 = # of size 2 clusters
       0 = # of size 3 clusters
       0 = # of size 4 clusters
     288 = # of frozen angles
  find clusters CPU = 0.023 seconds
fix             2 all nph iso ${pressure} ${pressure} ${pressureDamp}
fix             2 all nph iso 9375 ${pressure} ${pressureDamp}
fix             2 all nph iso 9375 9375 ${pressureDamp}
fix             2 all nph iso 9375 9375 1000
fix             3 all temp/csvr ${temperature} ${temperature} ${tempDamp} ${seed}
fix             3 all temp/csvr 257.57 ${temperature} ${tempDamp} ${seed}
fix             3 all temp/csvr 257.57 257.57 ${tempDamp} ${seed}
fix             3 all temp/csvr 257.57 257.57 100 ${seed}
fix             3 all temp/csvr 257.57 257.57 100 745823

run             250000
PPPM initialization ...
  extracting TIP4P info from pair style
  using 12-bit tables for long-range coulomb (../kspace.cpp:340)
  G vector (1/distance) = 0.37411048
  grid = 24 24 24
  stencil order = 5
  estimated absolute RMS force accuracy = 0.0031782878
  estimated relative force accuracy = 9.5713194e-06
  using double precision FFTW3
  3d grid and FFT values/proc = 2535 216
Last active /omp style is kspace_style pppm/tip4p/omp
Neighbor list info ...
  update every 1 steps, delay 7 steps, check yes
  max neighbors/atom: 2000, page size: 100000
  master list distance cutoff = 10.8154
  ghost atom cutoff = 10.8154
  binsize = 5.4077, bins = 4 4 4
  1 neighbor lists, perpetual/occasional/extra = 1 0 0
  (1) pair lj/cut/tip4p/long/omp, perpetual
      attributes: half, newton on, omp
      pair build: half/bin/newton/omp
      stencil: half/bin/3d
      bin: standard
Per MPI rank memory allocation (min/avg/max) = 9.236 | 9.239 | 9.241 Mbytes
Step Temp PotEng TotEng E_pair E_mol Press Lx Ly Lz Volume Pxx Pyy Pzz Pxy Pxz Pyz Enthalpy 
21500000    256.86492   -3841.5454   -3401.2877   -3841.5454            0    7823.9068    17.006104    20.030944    20.747407    7067.5693    6352.4598    6969.5608      10149.7   -1457.8939    294.13846    880.68942   -2594.8522 
21501000    260.08694   -3858.0031    -3412.223   -3858.0031            0    7946.9727     16.93203    19.943695    20.657037    6975.6175    7519.7366    7960.5249    8360.6564   -487.81833    -525.3336    -537.8162   -2603.7598 
21502000    253.83535   -3852.1317   -3417.0666   -3852.1317            0    9684.6871    16.902295    19.908671    20.620761    6938.9323    11232.473    9865.1768    7956.4112   -223.48561    -189.7045    1587.3538   -2437.0033 
21503000    253.28373   -3883.9064   -3449.7868   -3883.9064            0    8646.5589    16.877623    19.879611    20.590661    6908.5902    7054.3728    10278.545    8606.7588    724.74424    39.267956    1238.8106   -2578.6053 
21504000    252.52975   -3917.6836   -3484.8563   -3917.6836            0    9805.7274    16.800384    19.788633    20.496429     6814.174     8895.807    11923.521    8597.8545   -1334.1222   -1039.0075    1739.0756   -2510.3853 
21505000    250.41096   -3877.3264   -3448.1305   -3877.3264            0      9353.73    16.888769    19.892739    20.604259    6922.2868    10511.095    8525.2293    9024.8662    249.27807    641.21919   -355.53658   -2503.8298 
21506000    251.71728   -3877.5095   -3446.0747   -3877.5095            0    8074.0632    16.869983    19.870611    20.581339    6899.2121    8267.6272    7301.0759    8653.4864    1296.6197      508.763    -533.8687   -2633.6792 
21507000    266.39768   -3894.6962   -3438.0997   -3894.6962            0    8875.2217    16.834818    19.829191    20.538438    6856.1583    10902.558    8110.1562    7612.9505    -227.2485    184.83449    426.21394    -2550.666 
21508000    263.52905   -3878.8717    -3427.192   -3878.8717            0    9192.2351    16.921041    19.930751    20.643631     6962.045    9647.3391    7432.0968    10497.269   -1600.4048    1258.1456    936.71861   -2493.8649 
21509000    272.65305   -3854.9884   -3387.6705   -3854.9884            0    13181.876    16.836855    19.831591    20.540924    6858.6478    13909.678    13102.686    12533.264   -2566.9974    1704.7037   -980.40507   -2069.1356 
21510000    259.25184   -3862.4321   -3418.0833   -3862.4321            0     10485.99    16.841603    19.837183    20.546716    6864.4516    9371.9699    9965.6826    12120.316    161.21265   -1636.6371    16.336427   -2368.3205 
21511000    266.73607   -3896.0444   -3438.8679   -3896.0444            0     9977.233    16.882618    19.885494    20.596754    6914.7254    10826.987    9825.4669    9279.2452     253.0659   -655.99635   -8.9401899    -2432.722 
21512000    271.59578   -3848.3025   -3382.7966   -3848.3025            0     10303.91    16.878582     19.88074    20.591831     6909.768    10989.252    8683.6616    11238.815    63.740995   -2513.7373    77.420386   -2344.4523 
21513000    266.00389   -3834.7267   -3378.8051   -3834.7267            0    10471.866    16.903781    19.910422    20.622574    6940.7625    9042.6617    11059.225    11313.711   -1197.9331    -1123.958     1040.845    -2318.802 
21514000    256.89528    -3889.663   -3449.3533    -3889.663            0    9932.9301     16.85492    19.852869    20.562963     6880.748    12217.263    9551.7079    8029.8193    604.45142    732.99677    729.34231   -2452.5972 
21515000    258.40097   -3890.8266   -3447.9362   -3890.8266            0    8404.9697    16.903203     19.90974    20.621868    6940.0501    8459.7418    9882.0657    6873.1016   -122.66544   -1417.5997    425.93816   -2597.2397 
21516000    261.62108   -3909.5588   -3461.1492   -3909.5588            0    7590.0713     16.94677    19.961056     20.67502    6993.8511    8107.8869    7516.3867    7145.9404    1675.1086    900.92355    216.41013   -2686.9761 
21517000     259.7314   -3903.5738   -3458.4031   -3903.5738            0    10364.737    16.879772    19.882142    20.593282    6911.2293    11530.059    11131.467    8432.6866   -49.231246   -218.40001    128.48841   -2413.7081 
21518000    249.03786   -3922.5242   -3495.6818   -3922.5242            0     8214.311     16.87917    19.881433    20.592549    6910.4907    9710.3727      7836.41    7096.1502    337.63812    957.25267    430.05292   -2667.8237 
21519000    254.81623   -3908.4762   -3471.7299   -3908.4762            0    10410.156    16.928687    19.939758    20.652959    6971.4874    10656.576    10098.116    10475.775   -81.032254        416.5   -1027.6151   -2413.3086 
21520000    252.66556   -3903.8657   -3470.8056   -3903.8657            0    8085.4845    16.929776     19.94104    20.654287    6972.8324    6839.9277    10708.393    6708.1333   -1252.9431    -612.8969   -460.07662   -2648.5797 
21521000    241.89901    -3869.415   -3454.8084    -3869.415            0    11558.077    16.891028      19.8954    20.607015     6925.065    12275.268      9759.08    12639.885   -831.58613  -0.27330986   -527.22017   -2287.5007 
21522000    260.26659   -3864.0697   -3417.9817   -3864.0697            0      6713.07    16.943168    19.956814    20.670626    6989.3928    6078.4473    6203.6706     7857.092   -244.54872   -2482.9012    730.06498   -2733.6975 
21523000    247.75153   -3895.3865   -3470.7488   -3895.3865            0    10217.416    16.853261    19.850916    20.560939     6878.717    11018.993    9766.0146    9867.2401    1168.7718   -881.92093    513.01396   -2445.7476 
21524000    280.61733   -3879.5859   -3398.6174   -3879.5859            0    10033.727     16.91254    19.920738    20.633259    6951.5567    10117.116    9714.6997    10269.365   -31.234209    141.07516    636.70992   -2381.3849 
21525000    255.12123   -3871.2717   -3434.0027   -3871.2717            0    10071.267    16.882367    19.885199    20.596449    6914.4181    9908.5354    10642.328    9662.9385    -651.9035    608.33584    257.18923   -2418.4192 
21526000    275.59182   -3887.0155   -3414.6605   -3887.0155            0    9284.2634    16.890427    19.894692    20.606282    6924.3256    8716.2418    10973.511     8163.037    199.17757   -1509.8816    755.26828   -2477.0967 
21527000    264.44455   -3871.1651   -3417.9162   -3871.1651            0    8514.0836    16.959432    19.975971    20.690468    7009.5402    8532.0148    6474.5003    10535.736     1084.913    9.5155604    1558.9916   -2547.5474 
21528000    269.57609    -3931.005   -3468.9608    -3931.005            0    9939.8793    16.865371     19.86518    20.575714    6893.5561    13452.347    8515.6731    7851.6174    434.20776   -880.45037    1154.9684   -2469.6506 
21529000    253.29456   -3925.8374   -3491.6992   -3925.8374            0    7210.8558    16.925406    19.935893    20.648956    6967.4342    8843.5145     7353.842    5435.2109   -927.35274    50.820816   -537.44615   -2758.9833 
21530000    260.34014   -3870.7657   -3424.5516   -3870.7657            0    9316.0245    16.879272    19.881553    20.592673    6910.6158    11293.498    7698.2921    8956.2838   -850.29584    204.79623   -206.69106   -2485.6431 
21531000    246.60873    -3839.414   -3416.7351    -3839.414            0    9253.1803    16.932326    19.944043    20.657398    6975.9836    8409.7212    8828.2686    10521.551   -691.83103    459.32892   -672.08777   -2475.3391 
21532000    263.35379   -3871.5365   -3420.1571   -3871.5365            0    9869.0501    16.831951    19.825815    20.534941    6852.6569    9597.9947    8764.8371    11244.319   -522.71703   -52.703418   -1060.2797   -2433.8544 
21533000    260.83306   -3881.2761   -3434.2171   -3881.2761            0    9682.9528    16.891977    19.896517    20.608172    6926.2315     9641.201     9525.622    9882.0352   -1629.1037   -1002.1839   -1646.3861   -2456.1229 
21534000       247.93   -3897.1047   -3472.1612   -3897.1047            0    8245.9511    16.902746    19.909202    20.621311    6939.4876    7685.5163    7610.3357    9442.0012   -645.07944   -772.45824    362.32621   -2637.6272 
21535000    246.84243   -3906.9335    -3483.854   -3906.9335            0    9250.1534    16.884896    19.888177    20.599534    6917.5256    10425.651    8696.4651    8628.3438   -136.14967   -1988.6893    -1513.487   -2550.6521 
21536000    260.68158   -3904.9447   -3458.1454   -3904.9447            0    8522.5342    16.901832    19.908126    20.620196    6938.3617    8435.9699    6026.5176    11105.115    744.42832    67.633374   -1249.3785   -2595.7597 
21537000    258.59619    -3879.964    -3436.739    -3879.964            0    9884.5191     16.91202    19.920126    20.632625     6950.916    10029.401    8240.7286    11383.428     610.8336   -1396.6326    1631.2224   -2434.7257 
21538000    254.65381   -3880.3515   -3443.8836   -3880.3515            0    9026.2949    16.960065    19.976717     20.69124    7010.3249    8446.3889    9748.1765    8884.3193    558.65032   -2055.4628    1375.3754   -2521.0496 
21539000    260.61577   -3900.4049   -3453.7184   -3900.4049            0     10201.17    16.922861    19.932895    20.645851    6964.2918      9121.87    10637.285    10844.356    881.11967   -925.75967   -214.98679   -2417.6156 
21540000    253.27049   -3883.2991   -3449.2022   -3883.2991            0    9875.4583    16.909264     19.91688    20.629263    6947.5187    9545.3505    9193.2575    10887.767   -1486.7003   -331.03289   -1276.9438   -2448.5967 
21541000    253.49669   -3892.4238   -3457.9392   -3892.4238            0     7992.228    16.889256    19.893313    20.604853    6922.8855     7934.934    9015.8219     7025.928    627.21332    485.74287   -111.75482   -2651.0184 
21542000    256.92519   -3881.1571   -3440.7961   -3881.1571            0    11082.152    16.879801    19.882176    20.593317    6911.2648    12236.671    10004.765    11005.019    -258.3763   -1393.4568    -230.7314    -2323.785 
21543000    256.15337   -3864.7596   -3425.7215   -3864.7596            0    8932.9143    16.936186     19.94859    20.662107    6980.7553    7058.7617    9821.7024    9918.2788   -672.22715    888.33169   -601.63936   -2516.2869 
21544000    256.42531   -3877.5379   -3438.0337   -3877.5379            0    9114.6876     16.89459    19.899596    20.611361    6929.4472    9213.6973     10162.27    7968.0956    2130.5896    -775.8772   -274.02551   -2516.9136 
21545000    257.65372     -3932.49   -3490.8803     -3932.49            0    8490.6094    16.861934    19.861131    20.571521    6889.3424    8532.0376    7742.1574    9197.6331    834.13387    568.72292    880.54642   -2637.7949 
21546000    276.05937   -3889.0101   -3415.8538   -3889.0101            0    9754.2146    16.920327     19.92991    20.642759    6961.1635    10776.033    9270.5194    9216.0913    520.22843   -332.58836    199.43485   -2425.5919 
21547000    259.37485   -3884.6804   -3440.1208   -3884.6804            0    8468.3353    16.875049    19.876578     20.58752    6905.4293     9257.713     6393.335     9753.958   -2075.0108    606.62796    1011.0682   -2587.2866 
21548000    268.14203   -3868.4495   -3408.8632   -3868.4495            0       9932.4      16.9084    19.915861    20.628208     6946.453    9767.3857    9659.3175    10370.497    353.30209     581.1224    1058.6954   -2402.6426 
21549000    266.32978   -3850.4329   -3393.9528   -3850.4329            0    11047.614    16.877985    19.880036    20.591102    6909.0343    9647.6505    13086.945    10408.245   -1144.4318   -474.38523   -1374.7545   -2280.7823 
21550000    260.61869   -3881.1736   -3434.4821   -3881.1736            0    8920.1642    16.877021    19.878901    20.589926     6907.851     7940.829    8999.0141    9820.6495    1756.3307    888.18846   -731.30442   -2535.8298 
21551000    271.16122     -3887.43   -3422.6689     -3887.43            0    7771.6613    16.957655    19.973878    20.688299    7007.3365     7869.555    8382.9257    7062.5033    1241.2613   -793.50144   -283.57948   -2628.4454 
21552000    258.79265   -3888.1577   -3444.5959   -3888.1577            0    11107.298    16.839404    19.834594    20.544034    6861.7639    8359.3173    14342.463    10620.114   -1723.9842    608.03741   -956.23066   -2333.0687 
21553000    260.41809   -3896.1233   -3449.7756   -3896.1233            0    8905.6424    16.924365    19.934666    20.647686    6966.1487    7834.8479    10474.592     8407.487    1182.0304   -880.05833    859.47695   -2545.0145 
21554000    253.41712   -3861.8326   -3427.4843   -3861.8326            0    9171.7366    16.956412    19.972414    20.686783    7005.7958    6844.2615    9549.3529    11121.595    1140.2174   -1310.0934   -892.27199   -2490.3865 
21555000     264.3713   -3891.8358   -3438.7124   -3891.8358            0    9113.1992    16.816918    19.808108      20.5166    6834.3119    9006.6316    9475.4116    8857.5545   -448.29577   -353.55446   -108.47581   -2530.3869 
21556000    263.32018   -3869.6864   -3418.3646   -3869.6864            0    8998.0821    16.935246    19.947483    20.660961    6979.5934    8431.6646    8832.7918    9729.7898   -528.74363    980.62696    1548.1079   -2502.4479 
21557000    254.92632   -3884.0877   -3447.1527   -3884.0877            0    8644.1693    16.930055    19.941369    20.654628    6973.1773    6863.0029    9633.5909    9435.9141    315.85935    -350.8452    70.223344   -2568.0697 
21558000    257.82949   -3882.5139    -3440.603   -3882.5139            0    10550.132    16.893362     19.89815    20.609863    6927.9364    12524.985    9131.6695    9993.7407   -1190.1329   -36.624242   -1160.8878    -2374.651 
21559000    253.07095   -3876.9788   -3443.2238   -3876.9788            0    8931.9544    16.955168    19.970949    20.685266    7004.2542    9562.5724    8376.6523    8856.6387   -120.05025    -516.3461    724.12414   -2530.8259 
21560000    258.57899   -3899.0946   -3455.8991   -3899.0946            0    7462.5016    16.916589    19.925507    20.638199    6956.5507    7824.9168    8089.9663    6472.6217   -573.47656    1136.3465   -211.35552   -2698.7973 
21561000    257.13967   -3850.0759   -3409.3473   -3850.0759            0    10197.781    16.838172    19.833143    20.542531    6860.2575    12024.049    9613.9164    8955.3786   -860.32157    51.927775    1612.4346   -2389.0611 
21562000    262.48326   -3840.5587   -3390.6713   -3840.5587            0    8758.1364    16.831845     19.82569    20.534812    6852.5274    9697.5046    8512.6421    8064.2624   -810.01334    981.72227    1312.2395   -2515.4087 
21563000    263.98427   -3838.6687   -3386.2087   -3838.6687            0    9473.2352    16.849642    19.846653    20.556524    6874.2866    9198.9388    9788.8011    9431.9658    208.48427    426.19289   -80.736017    -2436.475 
21564000    269.13812   -3880.8609   -3419.5674   -3880.8609            0    11037.993    16.864109    19.863693    20.574174    6892.0082    8724.9593    11525.013    12864.007    286.91755    134.79939   -1261.9115    -2310.107 
21565000    241.77858   -3871.4874   -3457.0872   -3871.4874            0    7919.0974    16.861024     19.86006     20.57041    6888.2271     7144.789    9412.5624    7199.9409    94.105561   -7.1527991   -303.87356   -2661.5527 
21566000    258.48491   -3833.0191   -3389.9848   -3833.0191            0    7743.0299    16.952112    19.967348    20.681537     7000.467    8168.6344    6864.4033    8196.0521   -1088.3998    444.81335   -1827.7419    -2599.463 
21567000    248.40716   -3893.5748   -3467.8134   -3893.5748            0    7723.9073    16.950932    19.965959    20.680098    6999.0056    5843.2404    8881.5008    8446.9807    1496.7377    1990.9474   -1418.4552   -2679.4086 
21568000    254.85137    -3857.632   -3420.8255    -3857.632            0    8798.7075    16.921645    19.931463    20.644368    6962.7909    8837.5455    9216.6242    8341.9526    387.41625    335.66888   -1119.2619   -2527.3593 
21569000    253.29631   -3890.4053   -3456.2641   -3890.4053            0    9881.8293     16.88161    19.884306    20.595524    6913.4871    12333.143    7772.0811    9540.2633   -217.23259   -1016.9203   -552.49256   -2459.9176 
21570000    263.95578   -3869.3759   -3416.9648   -3869.3759            0    8164.9243    16.915948    19.924752    20.637417    6955.7603    8225.7726    9690.9785    6578.0219   -1382.8891    627.10992   -77.612822   -2588.6934 
21571000    252.01706   -3850.6062   -3418.6576   -3850.6062            0    11415.092    16.845869    19.842208    20.551921    6869.6695    12890.899    10823.817     10530.56    -481.5742   -103.57357   -313.92718   -2275.0128 
21572000    274.60673   -3831.2551   -3360.5886   -3831.2551            0    9306.2344    16.858138    19.856659    20.566889    6884.6899    9748.8166    11019.545    7150.3413    994.98162   -1334.5012   -45.830843   -2426.1855 
21573000    249.94224   -3880.1306   -3451.7382   -3880.1306            0    12009.077    16.777884    19.762131     20.46898    6786.8331    10909.303    12423.004    12694.924    -1213.747    332.66655   -1938.7019   -2263.0918 
21574000    261.24247     -3880.12   -3432.3593     -3880.12            0     9622.908    16.861159    19.860218    20.570574    6888.3919     9057.821    10605.653      9205.25   -806.92312   -867.40325    345.03134   -2465.6407 
21575000    264.53484   -3882.8233   -3429.4196   -3882.8233            0    11131.739    16.883175     19.88615    20.597434    6915.4106    11320.509    10648.034    11426.673    629.50934   -1391.9131    -1758.199   -2306.7373 
21576000     253.7026   -3877.5315   -3442.6939   -3877.5315            0    10144.336    16.934502    19.946606    20.660053    6978.6731    10358.703    8870.1325    11204.172    46.553684   -98.579481   -903.57387    -2410.236 
21577000    246.35037   -3903.2366   -3481.0005   -3903.2366            0    8401.1253    16.973469    19.992504    20.707592    7026.9585    8904.7625    7198.8187    9099.7948   -181.49131    2016.3745    -355.6508    -2620.045 
21578000    260.40218   -3859.4059   -3413.0855   -3859.4059            0    10386.361    16.965054    19.982593    20.697326    7016.5129    10053.807    8359.8472    12745.429   -217.80185    387.22574    336.28562   -2350.2633 
21579000    258.01898   -3880.2874   -3438.0517   -3880.2874            0    9862.4909    16.892323    19.896925    20.608595    6926.6578    9794.1794    9746.0497    10047.244   -800.21903   -392.42995   -72.455631   -2441.7607 
21580000    269.50864   -3852.3607   -3390.4321   -3852.3607            0     10114.48     16.93652    19.948984    20.662515    6981.1689    11149.849    8100.1387    11093.453    -1636.694   -2316.6391    1105.7351   -2360.6446 
21581000    260.01553   -3904.8821   -3459.2244   -3904.8821            0    8220.6077    17.014668    20.041031    20.757855    7078.2519    7213.8335    10031.812    7416.1775   -433.67372   -764.90055   -1592.8347   -2610.6189 
21582000    249.30699   -3878.8436   -3451.5399   -3878.8436            0    9304.1287    16.871232    19.872083    20.582864    6900.7453    8060.8332    9423.7845    10427.768   -231.46303   -522.13104   -73.060226   -2515.1697 
21583000    242.00661   -3868.7281   -3453.9371   -3868.7281            0    9099.5637    16.917254    19.926291     20.63901    6957.3715    10716.756     10313.59    6268.3454    -708.1952   -541.06097   -652.03938   -2530.6396 
21584000    250.02729   -3825.4548   -3396.9166   -3825.4548            0    9830.4232    16.908655    19.916162     20.62852    6946.7681    8633.0361    10319.314    10538.919    1153.3433    2103.2781    43.222194   -2400.9818 
21585000    250.81003    -3867.573   -3437.6932    -3867.573            0    11129.135     16.80469    19.793706    20.501683    6819.4152    10502.957    11114.005    11770.443    817.00796    42.122848    983.84668   -2330.8543 
21586000       262.14   -3888.9663   -3439.6673   -3888.9663            0    9608.1995    16.868267    19.868591    20.579246    6897.1075    10237.159    8072.0112    10515.428   -590.78776     560.4893   -144.60246    -2473.205 
21587000    263.10258   -3924.9697   -3474.0209   -3924.9697            0    7651.0621    16.932795    19.944596    20.657971    6976.5636    8276.8654    8180.9942    6495.3267     611.0291   -297.44672    50.156105   -2695.5557 
21588000    267.70234   -3876.2847   -3417.4521   -3876.2847            0    12137.821    16.819523    19.811176    20.519778    6837.4882    13247.918     11281.76    11883.784   -182.57002   -551.39771   -1111.5994   -2207.0959 
21589000      242.922    -3902.258    -3485.898    -3902.258            0    9520.7895    16.851615    19.848977    20.558931    6876.7017      10053.7    8575.6216    9933.0473   -180.57897    406.94941   -244.37801   -2531.0614 
21590000    254.36711   -3899.8737   -3463.8972   -3899.8737            0    9412.2382    16.853458    19.851148     20.56118    6878.9586    11055.147    6720.0175     10461.55   -806.69655    1159.7119    -444.2489   -2519.6374 
21591000    251.03885   -3918.5233   -3488.2513   -3918.5233            0    9817.0547    16.873227    19.874432    20.585297    6903.1931    10739.399    9001.9501    9709.8153     1072.207   -335.32705    1409.6932   -2499.9096 
21592000    266.28505   -3874.4588   -3418.0553   -3874.4588            0    10889.823    16.854288    19.852125    20.562192     6879.974    9178.6076    11566.775    11924.088   -381.27441    829.52933     623.0752   -2325.3991 
21593000    245.43075   -3897.6248   -3476.9649   -3897.6248            0    8431.1851    16.961872    19.978845    20.693444    7012.5654    9051.0599    8754.6141    7487.8814    1149.7881    918.94398   -740.03531   -2614.6985 
21594000    238.24589   -3876.5808   -3468.2355   -3876.5808            0    6914.8684    16.886843    19.890471    20.601909    6919.9188    6631.0539    6192.4462    7921.1052    936.27593   -529.24482    1071.7916   -2770.3875 
21595000    251.32087   -3911.2555   -3480.5001   -3911.2555            0    8305.1984    16.895315     19.90045    20.612245    6930.3393    7062.1264    9458.0741    8395.3947   -53.808945   -173.79624   -375.19315    -2641.078 
21596000    264.61139    -3885.982   -3432.4472    -3885.982            0    8763.7969    16.923073    19.933145     20.64611    6964.5537     9073.525     8105.501    9112.3647     224.4097   -2136.6797   -606.71756   -2542.3007 
21597000    256.29687   -3876.3277   -3437.0437   -3876.3277            0    8388.4806    16.898221    19.903873    20.615791    6933.9159    8155.9665    9516.4953      7492.98   -753.54335   -1249.4092   -1388.3457   -2588.7665 
21598000    255.46019   -3909.3271   -3471.4771   -3909.3271            0    9086.9504    16.831994    19.825866    20.534994    6852.7095    7667.4123    11016.611     8576.828   -198.26074    -358.6234   -94.229957   -2563.3296 
21599000    258.25412    -3867.915   -3425.2762    -3867.915            0    8342.2665    16.916984    19.925972     20.63868    6957.0379    7450.6423    9387.4514    8188.7056    1318.8256    429.57032   -1039.1113   -2578.8594 
21600000    255.20468   -3885.4379   -3448.0258   -3885.4379            0    9475.4772    16.865346     19.86515    20.575683    6893.5251    7461.3543    9855.2726    11109.805   -655.32617   -2058.3826   -287.60786   -2495.4088 
21601000    259.13198   -3905.8811   -3461.7378   -3905.8811            0     11737.59    16.833373     19.82749    20.536676    6854.3935    12343.978    11336.624    11532.168    3.5065513   -873.90942   -1448.1374   -2288.3978 
21602000    263.40191   -3868.7881   -3417.3262   -3868.7881            0    10824.918    16.869569    19.870124    20.580835    6898.7046    9811.3702    9868.8302    12794.555   -1003.2634    2241.0037   -2222.6581   -2328.2255 
21603000    257.50248   -3868.5005   -3427.1501   -3868.5005            0    9344.7052    16.915165     19.92383    20.636462    6954.7948    9538.0625    9986.4206    8509.6324    446.55648   -1227.4691    183.62321   -2479.3302 
21604000    256.65272   -3867.1143   -3427.2204   -3867.1143            0    10306.867    16.896178    19.901466    20.613297    6931.4006    8850.3443    10317.834    11752.423   -1697.6532   -1393.7917   -695.00789   -2385.3263 
21605000    269.83122   -3885.0672   -3422.5857   -3885.0672            0    7975.5144    16.952495      19.9678    20.682004    7000.9417    7917.3842    8676.0324    7333.1267    542.71388   -151.63278    1399.5672   -2608.2733 
21606000    243.45372   -3873.9083   -3456.6369   -3873.9083            0    8750.3662    16.950483     19.96543     20.67955    6998.4496      8228.02      10259.3    7763.7789   -624.72838   -578.96989    1044.0637    -2563.529 
21607000    246.93476   -3860.4364   -3437.1987   -3860.4364            0    8451.6601    16.973751    19.992836    20.707936     7027.309    7910.4995    9091.2615    8353.2191    762.03059   -2157.1264   -23.413097   -2571.0211 
21608000    244.28632   -3847.0029   -3428.3045   -3847.0029            0    9413.9063    16.930561    19.941965    20.655245    6973.8027    9764.1577    9496.1378    8981.4236   -898.48093   -585.36007    276.98707    -2470.856 
21609000    259.36977   -3900.3044   -3455.7535   -3900.3044            0    6746.6364    16.990699      20.0128    20.728614    7048.3808    6404.8608     8306.568    5528.4806    419.75411   -140.66451    502.05544   -2762.2438 
21610000    259.04134   -3881.1316   -3437.1436   -3881.1316            0    8698.7262    16.968722    19.986913    20.701801     7021.065    8419.3784    8054.1934    9622.6067   -1154.5292   -1374.1093   -282.01524   -2546.4373 
21611000    254.98923   -3871.3984   -3434.3556   -3871.3984            0    7853.2481     16.91656    19.925473    20.638163     6956.515    7750.2308    7208.9178    8600.5956    -39.59338    2140.4206    1043.8047    -2637.615 
21612000    252.50852   -3861.0556   -3428.2647   -3861.0556            0    8238.5616    16.940687    19.953891    20.667598    6986.3223    9585.7754    7699.4234    7430.4859   -882.50116    217.02965    913.15578   -2588.8513 
21613000     264.0241   -3889.0275   -3436.4992   -3889.0275            0    10571.808    16.883493    19.886525    20.597823    6915.8017    9497.6123    9594.3172    12623.494    902.21239   -247.79037    446.86342   -2370.2281 
21614000    270.98585   -3896.0324   -3431.5719   -3896.0324            0    7960.6277     17.01983    20.047112    20.764153    7084.6963    7885.9653     9416.985    6578.9329   -307.63757   -484.13772    1341.7763   -2609.0558 
21615000    264.83927   -3881.0261   -3427.1006   -3881.0261            0    8062.0206    16.989581    20.011482    20.727249    7046.9888    9208.1637    7764.7776    7213.1207    321.07613   -1172.3877   -40.495393   -2598.5418 
21616000    242.70467   -3874.1165    -3458.129   -3874.1165            0    8907.3187    16.922409    19.932362    20.645299    6963.7332    10882.892    9920.9695    5918.0946    22.883222   -134.25509   -817.75687   -2553.5115 
21617000     254.6949   -3911.0234   -3474.4851   -3911.0234            0    8235.5927    16.978231    19.998114    20.713402    7032.8752    9881.8769    7231.1311    7593.7701    1649.7019   -278.20414    996.55632   -2629.7828 
21618000     256.0327   -3904.8033    -3465.972   -3904.8033            0     6952.661    17.023376    20.051288    20.768479    7089.1253    8797.2029     4675.713    7385.0671   -1661.6196    607.39113    952.75829   -2747.1529 
21619000    256.31013   -3870.0807   -3430.7739   -3870.0807            0    8912.2063    16.934207    19.946259    20.659693    6978.3092    7711.1562    8844.7875    10180.675   -1075.4112   -2143.7163    -663.1844   -2523.7654 
21620000    245.09158   -3858.4349   -3438.3564   -3858.4349            0     10768.18    16.918489    19.927745    20.640517    6958.8952    9040.4645    12203.999    11060.076    2466.7738   -789.10709    392.91762   -2345.5116 
21621000    262.58178   -3905.3099   -3455.2537   -3905.3099            0    9476.5573    16.963825    19.981145    20.695826    7014.9877    8720.4763    9481.4041    10227.791   -1915.5063   -861.69969   -939.70566   -2485.7412 
21622000    259.98176   -3850.0215   -3404.4217   -3850.0215            0    8015.2815    16.949558    19.964341    20.678422    6997.3042    10449.118    8682.1326    4914.5941   -322.22189   -713.44936   -170.68764   -2586.4742 
21623000    250.85028   -3895.7892   -3465.8404   -3895.7892            0    10095.563     16.88089    19.883458    20.594646    6912.6025    10588.211    9703.4176    9995.0592    473.62823    1407.1368    711.15101   -2448.0742 
21624000     256.5932   -3845.6289   -3405.8369   -3845.6289            0    10018.539    16.907074      19.9143    20.626591    6944.8192    8322.7629    10402.161    11330.692    545.08482    1023.1917    1085.7535   -2391.1286 
21625000    268.94589   -3854.5696   -3393.6056   -3854.5696            0    11904.484     16.86788    19.868134    20.578774    6896.6323    12108.958    11431.595    12172.897    163.04323   -977.39489   -909.00836   -2196.2489 
21626000     260.4434   -3900.0945   -3453.7034   -3900.0945            0    10943.366     16.84538    19.841632    20.551324    6869.0708    11083.977    9455.1271    12290.993     -881.074   -275.94134    275.39588    -2357.415 
21627000    259.72776   -3889.8197   -3444.6552   -3889.8197            0    11118.054    16.831347    19.825103    20.534204    6851.9184    10230.606    12351.824    10771.732    401.52344    164.88691   -1487.8789   -2333.6481 
21628000    259.97118   -3887.5464   -3441.9647   -3887.5464            0    10789.131    16.837334    19.832155    20.541508     6859.233    9478.2019     10495.62    12393.572   -1064.4953   -56.676225   -917.92521   -2362.6753 
21629000    260.32147   -3865.8023   -3419.6202   -3865.8023            0    9402.5028    16.885086    19.888401    20.599766    6917.7593    10101.069    9087.7396    9018.6996   -783.69773   -101.69694   -1771.4035   -2471.0166 
21630000    243.78448   -3888.7699   -3470.9317   -3888.7699            0    8227.3911    16.916578    19.925495    20.638186    6956.5378    10551.139    8380.3747    5750.6601    271.84602    276.16256    1372.9275   -2636.2302 
21631000    263.32059    -3939.784   -3488.4615    -3939.784            0    9533.3321    16.869132    19.869609    20.580302    6898.1687    9488.7261    10306.256    8805.0136   -126.47684    821.39562    1002.0138   -2529.3824 
21632000    260.04972   -3876.0851   -3430.3688   -3876.0851            0     9555.882     16.90634    19.913435    20.625695    6943.9144    6958.3147     11315.41    10393.922   -9.1056756     130.4429    78.948655   -2462.6458 
21633000    254.33994   -3898.1497   -3462.2198   -3898.1497            0    8458.7129    16.915508    19.924234     20.63688    6955.2179    7945.0971    8138.4723    9292.5692   -1185.7834   -377.48588    1297.1354   -2604.2126 
21634000    251.60054   -3907.9975   -3476.7628   -3907.9975            0    9594.3602    16.874244     19.87563    20.586538    6904.4411    10359.031      9458.11    8965.9399    247.61947   -77.767371   -801.11267   -2510.6664 
21635000    247.78725   -3936.8308   -3512.1319   -3936.8308            0    8952.6028    16.961144    19.977987    20.692556    7011.6629    9968.1558     7433.129    9456.5235    771.03612    1334.4072   -302.43497   -2596.6575 
21636000     264.1386   -3915.5012   -3462.7767   -3915.5012            0    7739.4092    16.879295     19.88158      20.5927    6910.6432    7058.1788    8024.4318     8135.617    452.93519    206.32441   -1158.7267   -2682.7631 
21637000    250.68293   -3930.6844   -3501.0225   -3930.6844            0    7923.6182    16.884335    19.887516    20.598849    6916.8355    6179.8647    9070.4489     8520.541   -453.54508    1398.0206    1124.7485   -2701.7279 
21638000    264.64117    -3931.888   -3478.3021    -3931.888            0    8478.3272    16.914488    19.923033    20.635636    6953.9597    8014.8461    9102.2268    8317.9088   -2318.1998   -536.10513    941.14831   -2618.4609 
21639000    236.25446    -3937.633    -3532.701    -3937.633            0    9190.4087    16.910445     19.91827    20.630703     6948.974    9039.9576    11440.021    7091.2473    -638.5466   -598.07197    632.11196   -2601.3113 
21640000    246.35568   -3893.5358   -3471.2906   -3893.5358            0    11598.409    16.859336    19.858071    20.568351    6886.1581    11241.982    12453.992    11099.252    2399.4124    2542.8104    335.00479   -2306.4908 
21641000    245.69952   -3935.8275    -3514.707   -3935.8275            0    9134.9941    16.910178    19.917956    20.630378    6948.6449    9651.0803    8059.4134    9694.4886    1207.4316   -92.057559    986.78709   -2588.9771 
21642000    252.02868   -3922.7123   -3490.7438   -3922.7123            0    9071.6152    16.907198    19.914446    20.626742    6944.9725    8187.3339    9584.2291    9443.2825   -1422.0919    1728.8983     888.9287   -2571.9226 
21643000    244.53258   -3914.6801   -3495.5596   -3914.6801            0    9237.9089    16.906754    19.913923      20.6262     6944.425    9380.3119    8903.2751    9430.1397    370.35266    1941.9848    222.38984    -2559.969 
21644000    244.99642   -3884.8721   -3464.9566   -3884.8721            0    10712.476    16.909294    19.916915    20.629299    6947.5552    13186.946    9848.6297    9101.8526    766.43399   -698.03809     560.4653   -2379.5368 
21645000    273.70245   -3899.5089   -3430.3922   -3899.5089            0    9433.5424    16.921607    19.931418    20.644321    6962.7435    9599.6023    11410.761    7290.2644   -482.63783    276.08807    3157.7614   -2472.4681 
21646000     265.5719   -3914.2539   -3459.0728   -3914.2539            0    10128.118    16.870406     19.87111    20.581856    6899.7313    10031.322    11256.185     9096.846   -158.94045    2370.5438    30.941187   -2439.9258 
21647000    243.00079     -3900.59   -3484.0949     -3900.59            0    10199.496    16.882712    19.885605    20.596869    6914.8415    7920.1852    14010.401    8667.9015   -597.24542    670.51936    15.462711   -2455.5179 
21648000    253.69454   -3923.3295   -3488.5057   -3923.3295            0    10088.684    16.858873    19.857525    20.567786    6885.5907    10560.497    11089.899    8615.6566    790.99147    70.944313   -762.24186   -2475.4074 
21649000    259.36511    -3856.505   -3411.9621    -3856.505            0    8037.3843    16.967176    19.985092    20.699915    7019.1464    8780.3715    7159.7379    8172.0436    36.801359   -959.46694    1134.5938   -2589.1988 
21650000    251.98047   -3896.2458   -3464.3599   -3896.2458            0    9437.6321     16.94074    19.953954    20.667663    6986.3883    10086.598    10465.361    7760.9373   -1162.2067   -597.74257    368.82118   -2502.7661 
21651000    255.22788   -3871.3733   -3433.9214   -3871.3733            0    9113.3359     16.92864    19.939702    20.652901    6971.4288    9431.2382    8707.6247    9201.1447    330.16639    1468.8943    679.24958   -2507.3582 
21652000    260.83174   -3926.7364   -3479.6798   -3926.7364            0    9254.9516    16.863193    19.862614    20.573056    6890.8856    10732.786    6871.4961    10160.572    1414.4478   -63.043566   -654.97487   -2549.5895 
21653000    251.93236   -3877.4266   -3445.6232   -3877.4266            0    8436.6066    16.903168    19.909699    20.621825    6940.0066    8490.9928    8116.4395    8702.3875    123.38008   -617.59976    1174.2335     -2591.73 
21654000    252.26729   -3911.3085    -3478.931   -3911.3085            0    8964.5178    16.874621    19.876074    20.586998    6904.9043    9986.1948    8168.8928    8738.4658    1458.6595   -105.69507    926.57522   -2576.1955 
21655000    252.96546   -3871.6124   -3438.0382   -3871.6124            0    10780.479    16.846303    19.842719     20.55245    6870.2001    10076.174    11955.401    10309.861    559.50235   -194.39915   -431.97476   -2357.8901 
21656000    242.09372   -3910.6928   -3495.7525   -3910.6928            0    9968.4091    16.891044    19.895418    20.607034    6925.0841    11387.079    9478.7137    9039.4346   -968.71732    1091.9658   -435.81434   -2488.9905 
21657000    262.21157   -3905.2504   -3455.8287   -3905.2504            0    9115.1682    16.868463    19.868822    20.579486    6897.3483    11010.289    8353.1908    7982.0246   -1514.9647   -1335.6229   -783.64383   -2538.9271 
21658000    259.71932   -3910.6067   -3465.4567   -3910.6067            0    10443.961    16.847591    19.844237    20.554022    6871.7765     9711.495    10902.239    10718.149    132.19342    363.59355    2120.8284   -2418.7857 
21659000    242.28338   -3862.4725   -3447.2071   -3862.4725            0    9528.4702    16.890738    19.895058    20.606661     6924.708    9188.3898    10542.611    8854.4099   -531.66435    1424.7129   -56.858646   -2484.9291 
21660000     257.2661   -3844.9474   -3404.0021   -3844.9474            0    9136.2256    16.952578    19.967898    20.682106    7001.0446    8049.2821    10482.629    8876.7658   -1340.3081    20.779907    2386.1946   -2471.1656 
21661000    252.84003    -3893.023   -3459.6638    -3893.023            0    10532.035    16.811256     19.80144    20.509694     6827.412    8413.9694    12044.807     11137.33   -529.99785    1383.9824   -944.50498   -2410.9807 
21662000    249.30186   -3883.0521   -3455.7572   -3883.0521            0    9307.1598    16.900306    19.906328    20.618334    6936.4824    8938.8389    10690.376    8292.2647    -1187.235   -83.385333    427.66169   -2514.2311 
21663000      259.877   -3880.3446   -3434.9243   -3880.3446            0    11061.501    16.908422    19.915888    20.628236     6946.481    9742.1597    12977.649    10464.693    833.55145    -547.4937   -72.200547   -2314.3136 
21664000    260.09402   -3913.0115   -3467.2192   -3913.0115            0    8693.9913    16.912097    19.920217    20.632719    6951.0112    9211.9272    8027.5662    8842.4803   -237.27785    59.424978     17.23873     -2585.88 
21665000    255.88572   -3878.0896   -3439.5103   -3878.0896            0    9639.5057    16.892056    19.896611    20.608269    6926.3293     7280.559    10712.838     10925.12    19.495222   -50.116249    102.67004   -2465.7909 
21666000     259.6211    -3879.746   -3434.7643    -3879.746            0    9210.1216    16.902609    19.909041    20.621144    6939.3187    7876.2786    10510.425    9243.6611    697.02867    190.87932   -88.698408   -2502.6738 
21667000    239.39097   -3878.2093   -3467.9013   -3878.2093            0    8861.9881    16.901621    19.907877    20.619938    6938.1018    9764.7377    6582.3641    10238.863    888.65507    1129.3497   -76.152429   -2571.2002 
21668000    284.38157   -3910.7116   -3423.2913   -3910.7116            0    8811.7426    16.927644    19.938528    20.651686     6970.198    8639.9573    8248.3857    9546.8847    206.75974   -249.55532   -882.93574   -2527.5496 
21669000    266.66104   -3873.2552   -3416.2073   -3873.2552            0    9233.3326    16.915423    19.924134    20.636776    6955.1125    7847.6264    10089.428    9762.9431   -262.48979   -108.09726    2001.7631    -2479.641 
21670000    258.53546   -3889.0788   -3445.9579   -3889.0788            0    7612.0576    16.941898    19.955319    20.669077    6987.8217    8658.2757    7307.7203    6870.1769    506.65464    549.08917    886.55516   -2670.2115 
21671000    257.70352    -3898.577    -3456.882    -3898.577            0    9365.9039    16.891556    19.896022    20.607659    6925.7146    9727.2118    9252.3591    9118.1407   -354.71862   -1630.7851    165.87836   -2510.8841 
21672000    259.57273   -3902.1031   -3457.2043   -3902.1031            0    9479.6699     16.86122     19.86029    20.570649    6888.4666    11118.451    8755.4893    8565.0694    406.92694   -438.56976   -135.87165   -2504.8651 
21673000    257.94134   -3909.1476    -3467.045   -3909.1476            0    8879.8635    16.854616    19.852512    20.562593    6880.3766    10436.768    8698.9617    7503.8608   -773.60707    578.88612    1249.0552   -2576.0108 
21674000    258.79907   -3930.3839   -3486.8111   -3930.3839            0    9833.9294    16.839323    19.834498    20.543934    6861.6638    11189.792    10096.719    8215.2772   -593.29996    266.38902    106.44517   -2502.7266 
21675000    273.05612   -3908.0661   -3440.0572   -3908.0661            0    9497.2756    16.922747    19.932761    20.645712    6964.1512    9568.0726    10670.616    8253.1382    492.52019   -1123.1266   -96.475576   -2475.4664 
21676000    248.92774    -3900.847   -3474.1934    -3900.847            0    9337.4903    16.872911     19.87406    20.584912    6902.8054    9211.4148    8937.7353    9863.3207   -54.304438   -220.56585   -202.44595   -2534.1851 
21677000    258.37826   -3874.1318   -3431.2803   -3874.1318            0    8549.0271    16.919963    19.929482    20.642316    6960.7149    9508.1452    6944.4641    9194.4721    516.75432   -191.31098   -55.102522   -2563.4268 
21678000    262.65881   -3887.8763   -3437.6881   -3887.8763            0    10780.652    16.889251    19.893307    20.604847    6922.8792    10194.408    11884.343    10263.207    8.6290637    1050.5565    376.78081     -2349.24 
21679000    250.77699   -3890.9048   -3461.0816   -3890.9048            0     8520.879    16.921886    19.931747    20.644662    6963.0883    5641.5483    9962.7191    9958.3695    1067.7231   -69.440409   -1430.4416   -2595.7906 
21680000    261.91148   -3903.2199   -3454.3126   -3903.2199            0    8274.7508    16.936423    19.948869    20.662397    6981.0488    7957.5243     9608.403     7258.325    154.65799    1430.0288    778.18087   -2611.8483 
21681000    261.33256    -3890.212   -3442.2969    -3890.212            0    10717.045    16.901931    19.908242    20.620317    6938.4837     12254.78    9105.8185    10790.537   -1041.7193   -529.94681   -69.374612    -2357.832 
21682000    264.47869   -3888.8443   -3435.5368   -3888.8443            0    8788.0611    16.966613    19.984429    20.699228     7018.447    7129.8603    12085.569    7148.7539   -378.09235   -1900.1106   -649.22785   -2536.0186 
21683000    263.86493   -3938.9336   -3486.6781   -3938.9336            0    10027.764    16.915852    19.924639    20.637299    6955.6415    11328.975    8825.3583    9928.9601   -260.06395    140.20954    2376.2669   -2469.4527 
21684000    250.50366   -3920.0462   -3490.6915   -3920.0462            0    8528.4082     16.96479    19.982282    20.697004    7016.1853    9828.8905    7951.5764    7804.7578    12.104093    6.1185432   -963.55805   -2618.0318 
21685000    266.77538   -3883.7277   -3426.4839   -3883.7277            0    9218.5731    16.960472    19.977196    20.691736    7010.8295    7741.7269    9299.6025     10614.39   -161.72076    2391.2489   -926.51162   -2483.9239 
21686000    257.81211   -3841.7219   -3399.8408   -3841.7219            0    8197.3619    16.978559      19.9985    20.713802    7033.2827    6970.9855    7325.4318    10295.668    718.27041    475.85422   -587.25697    -2559.011 
21687000     250.9811   -3892.7044   -3462.5313   -3892.7044            0     8375.145    16.965653    19.983298    20.698057    7017.2557       9076.7    9008.0699    7040.6651    1186.2346   -245.73697   -1483.6629   -2605.4234 
21688000    270.22249   -3867.5445   -3404.3924   -3867.5445            0    10472.197    16.882217    19.885022    20.596266    6914.2337    9661.5777    10135.691    11619.321    1082.7218   -427.24951    57.513661   -2348.4074 
21689000    256.53995    -3903.183   -3463.4823    -3903.183            0    9737.1821    16.850321    19.847453    20.557353     6875.118    8928.4117    10872.774    9410.3605   -1079.7862   -712.75362   -1180.5899   -2487.1687 
21690000    274.17598   -3861.6194   -3391.6912   -3861.6194            0    7031.5244    16.947953     19.96245    20.676463    6995.3156    6912.9136    6379.8432    7801.8165   -58.581108    5.6055911   -213.20972   -2674.3385 
21691000    254.54591   -3865.5594   -3429.2764   -3865.5594            0    9253.1785    16.916127    19.924963    20.637636    6955.9815    10578.554    8566.7092    8614.2725   -1303.4628   -123.07654   -192.63618   -2490.5798 
21692000    261.93712    -3902.356   -3453.4047    -3902.356            0    7649.9769    16.909156    19.916752    20.629131    6947.3851     8633.349    7345.6648     6970.917   -255.14658    -1541.033   -893.00261   -2678.3053 
21693000    262.15114   -3907.9999   -3458.6818   -3907.9999            0    9397.4075     16.93209    19.943766     20.65711    6975.6921    10808.478    8493.1331     8890.612    158.01573   -1188.2455   -1046.7431   -2502.6524 
21694000    258.65956   -3887.1797   -3443.8461   -3887.1797            0    9713.1759     16.91493    19.923553    20.636175    6954.5042    11146.409    8898.8231     9094.296   -801.33174   -545.34643   -27.608854   -2458.6939 
21695000    247.94327   -3876.3729   -3451.4066   -3876.3729            0    10698.031    16.870089    19.870737     20.58147    6899.3431    11193.472    9740.4642    11160.158    399.40188    178.23002   -886.85909   -2374.9724 
21696000    256.94455   -3892.5321    -3452.138   -3892.5321            0    8801.7421     16.90576    19.912752    20.624988    6943.2003    9315.7267    7603.3121    9486.1874   -558.72634    652.61703   -1249.8479   -2560.8784 
21697000    246.86363   -3850.5572   -3427.4414   -3850.5572            0    12022.151    16.818876    19.810414    20.518989    6836.6992    12219.055    10282.936    13564.461    750.12305    114.16536    10.155871   -2228.7579 
21698000    254.44719   -3885.4563   -3449.3426   -3885.4563            0    9460.7933    16.917793    19.926926    20.639668    6958.0369     10564.85    8954.9992    8862.5311   -153.89485   -558.23504   -194.39325   -2489.3007 
21699000    261.77997   -3883.1847   -3434.5028   -3883.1847            0    8748.8948     16.95687    19.972953    20.687342    7006.3637    8682.9158    8608.4224    8955.3461    -1634.315    335.87629    90.387701   -2540.5353 
21700000    255.87453   -3885.9554   -3447.3952   -3885.9554            0    7751.2835    16.923668    19.933845    20.646835    6965.2877    6056.6433     9059.064    8138.1432   -1050.3482   -928.08714    841.33283   -2660.0076 
21701000    259.61302   -3885.2304   -3440.2626   -3885.2304            0    10197.999    16.869917    19.870534     20.58126    6899.1321    11301.233    10154.999    9137.7645   -407.95327    218.19577   -50.488751   -2414.1729 
21702000    262.67694   -3875.0835   -3424.8642   -3875.0835            0     9292.875    16.904697    19.911501    20.623691    6941.8911    9101.9653    10896.324    7880.3361     538.3639    551.33601   -803.97924   -2484.0502 
21703000    258.17249   -3906.9016   -3464.4028   -3906.9016            0    8425.0945    16.876572    19.878373    20.589379       6907.3    8790.8017    7686.1924    8798.2892     1957.653     472.5137   -1278.7839   -2615.6934 
21704000    251.71107   -3873.5076   -3442.0834   -3873.5076            0    9801.4317    16.907139    19.914376     20.62667     6944.899    10198.465     8055.997    11149.833    449.03336    964.86538    -997.3846    -2449.353 
21705000    249.20937    -3874.792   -3447.6557    -3874.792            0      9566.57      16.8768    19.878641    20.589657    6907.5796    8974.4459    7975.5962    11749.668    1422.8403    124.90443    475.29093   -2483.9198 
21706000    248.97196   -3881.4002   -3454.6708   -3881.4002            0    11523.875    16.899713    19.905629     20.61761     6935.752    10821.867    13119.102    10630.657    1316.1555    390.60862   -970.83474   -2289.0212 
21707000    250.48017   -3884.1641   -3454.8497   -3884.1641            0    9141.8504    16.965248    19.982821    20.697563    7016.7537    10010.284     8360.166    9055.1013     931.5227    384.51238    1852.1944   -2519.3444 
21708000    256.21046   -3852.9924   -3413.8565   -3852.9924            0    8297.8187    16.932776    19.944573    20.657947    6976.5393    8059.3225     7243.522    9590.6115   -638.47943   -14.781603   -9.0302456   -2569.5894 
21709000    255.63298   -3869.4613   -3431.3151   -3869.4613            0    11053.686      16.8725    19.873576     20.58441    6902.3008    12416.594    9929.0793    10815.384    -674.6011   -816.23712   -1206.5445   -2318.6182 
21710000    253.64386   -3849.3245   -3414.5876   -3849.3245            0    9403.2858    16.894323    19.899281    20.611035    6929.1186    7894.3124    10758.548    9556.9966     767.0024   -136.97743   -23.979111   -2464.3471 
21711000    255.50389   -3883.0672   -3445.1423   -3883.0672            0    9296.2188     16.88069    19.883223    20.594403    6912.3576    7228.2135    10050.891    10609.552   -1107.2454    -450.8999    610.96487   -2507.9937 
21712000    269.61067   -3866.7471   -3404.6437   -3866.7471            0    9215.7576    16.844848    19.841006    20.550675    6868.4202    7935.6536    10415.676    9295.9429    664.56664   -1109.4567    1342.4309   -2481.5117 
21713000    264.45109    -3872.323   -3419.0628    -3872.323            0    9102.8842    16.837945    19.832875    20.542254    6859.9802    9780.2911    11023.157    6505.2049   -1002.0243   -594.40493   -65.957741   -2508.3577 
21714000    259.24278   -3864.3374   -3420.0042   -3864.3374            0    9233.5958    16.886544    19.890118    20.601544     6919.551    8402.8401    8759.2481    10538.699   -621.12999   -953.21447   -42.088685      -2488.2 
21715000    258.21742   -3936.2812   -3493.7054   -3936.2812            0    9553.9166    16.839101    19.834237    20.543664    6861.3936    11559.147    9845.5115    7257.0909    1004.1043   -452.11706    1033.7077   -2537.6794 
21716000    248.61842   -3874.7247   -3448.6012   -3874.7247            0    13082.486    16.808058    19.797672    20.505791    6823.5155    14183.432    11448.093    13615.934   -1871.3273    -1962.463   -825.05689    -2146.711 
21717000    248.43557   -3915.5353   -3489.7252   -3915.5353            0    9396.7326    16.852384    19.849882    20.559869    6877.6431    10096.289    9160.6725    8933.2363   -1533.0534    419.81195    164.45032   -2547.2013 
21718000    256.93001   -3893.1392     -3452.77   -3893.1392            0    9279.7238    16.924446    19.934762    20.647784    6966.2484    10877.186     9095.805    7866.1809   -493.72612    669.98032    387.52345    -2509.991 
21719000    266.51295   -3903.5406   -3446.7466   -3903.5406            0    9355.1589    16.857148    19.855494    20.565681    6883.4773    10869.555    9535.6041    7660.3175   -520.66103    960.58373    1149.4444   -2507.5966 
21720000    251.18056   -3913.8199    -3483.305   -3913.8199            0    10937.428    16.832694     19.82669    20.535847     6853.564    11756.444    9462.6508     11593.19    931.98429    1556.2286   -287.79816   -2390.0849 
21721000    256.89942   -3909.4534   -3469.1366   -3909.4534            0    7950.7697    16.941739    19.955131    20.668882    6987.6248    9766.6003    6149.0795    7936.6294    424.80863   -514.53129    997.52448   -2658.8948 
21722000    251.41157   -3907.2524   -3476.3416   -3907.2524            0    10410.927    16.855024    19.852991    20.563089    6880.8753    10062.949     11543.84    9625.9935   -292.94046   -322.56651   -795.87467   -2431.5997 
21723000    240.04004   -3873.4164    -3461.996   -3873.4164            0    10471.105    16.875225    19.876786    20.587735    6905.6462    11238.277    9861.0506    10313.988   -1359.2029    581.73556     499.1777   -2407.4325 
21724000    258.95597      -3882.7   -3438.8583      -3882.7            0     9361.202    16.913122    19.921423    20.633969    6952.2746    7786.8514     9367.527    10929.228     815.9465   -106.75844   -863.10503   -2489.7093 
21725000    261.99477   -3891.7234   -3442.6733   -3891.7234            0    8586.9871    16.907471    19.914767    20.627075    6945.3082    7049.7571    8790.4805    9920.7239   -1700.1727   -570.20713   -2.5036769   -2572.8957 
21726000    250.12689   -3866.2783   -3437.5693   -3866.2783            0    9318.5117    16.884271    19.887441    20.598771    6916.7569    9801.8372    9081.1325    9072.5654   -767.92648   -1261.2354    983.32429   -2497.5756 
21727000    270.51118   -3843.5775   -3379.9306   -3843.5775            0    11003.139    16.858356    19.856917    20.567155    6884.9578    9986.0344     11194.25    11829.132   -74.305911    336.23279    1733.6343    -2275.105 
21728000    265.89101   -3872.2098   -3416.4817   -3872.2098            0    9399.2141    16.870896    19.871687    20.582453    6900.3324    9246.8832    10572.544    8378.2148   -314.50896   -2406.7337    93.746956   -2470.5986 
21729000    266.39496    -3889.158   -3432.5661    -3889.158            0    9330.0554    16.855223    19.853226    20.563333    6881.1194    10707.884    8746.2936    8535.9883    -1557.982   -2078.8782   -201.42314   -2496.2571 
21730000    262.48317   -3853.9339   -3404.0467   -3853.9339            0    11784.053    16.871919    19.872892    20.583702    6901.5881    12237.013      11775.9    11339.247    -2842.745   -365.02073   -2354.2643   -2217.9513 
21731000    260.49318    -3859.009   -3412.5326    -3859.009            0    9322.6012    16.878135    19.880214    20.591286    6909.2195    9424.0137    9542.3653    9001.4247    -950.5918   -859.69806   -350.51742   -2473.1511 
21732000    252.08842   -3870.4741   -3438.4032   -3870.4741            0    7261.0406    16.991294      20.0135    20.729339    7049.1208    8248.4331     6718.294    6816.3947    118.37299   -1559.8207    -613.8318   -2691.9378 
21733000    247.70764   -3863.9834    -3439.421   -3863.9834            0        10435    16.840833    19.836276    20.545776      6863.51    9639.4885    10568.961     11096.55   -229.83414   -420.22792    -210.5012   -2394.9062 
21734000    247.17971   -3857.4888   -3433.8313   -3857.4888            0    9980.5072    16.883853    19.886948    20.598261    6916.2432     11023.72    10060.456     8857.346   -28.081303    1005.4281    82.822196   -2427.1343 
21735000    242.92159   -3902.9166   -3486.5573   -3902.9166            0    8045.1777    16.872256    19.873289    20.584113    6902.0022    7914.2735    6556.1191    9665.1405   -546.72064    1153.2079     1557.132   -2676.7408 
21736000    241.89735   -3866.4177   -3451.8139   -3866.4177            0    8393.1862    16.941619    19.954989    20.668736    6987.4758    10272.094    8447.2726    6460.1918   -1592.5714   -185.27734    2043.8192   -2596.5049 
21737000    264.30218   -3892.8304   -3439.8255   -3892.8304            0    11695.481    16.851291    19.848595    20.558535    6876.3046    13576.705    10822.656    10687.081    857.32079   -2415.1742   -414.33433   -2266.9576 
21738000     257.5769   -3896.2543   -3454.7763   -3896.2543            0    8717.6655     16.98131     20.00174    20.717158    7036.7018    7994.6762    8903.9533    9254.3671     1530.992   -414.73179   -1921.0898   -2560.1426 
21739000    250.73316   -3877.8812   -3448.1331   -3877.8812            0    8219.5428    16.914593    19.923157    20.635764    6954.0895    8771.7466     8061.014    7825.8676    271.75491   -487.96758   -1087.8054   -2614.5214 
21740000    248.84058   -3885.9859   -3459.4817   -3885.9859            0    8188.2397    16.972481    19.991341    20.706387    7025.7322    7989.6439    8681.2019    7893.8733   -533.02147   -152.95073    1895.9093   -2620.4893 
21741000    248.45752   -3909.1284   -3483.2807   -3909.1284            0    8093.1926    16.957053    19.973169    20.687565    7006.5907    7751.9974    7612.1393    8915.4411   -218.36589   -960.02075    884.76246   -2656.2864 
21742000    263.23483   -3902.2544   -3451.0789   -3902.2544            0    8424.1284    16.935177    19.947402    20.660877    6979.5086    8586.0677    8861.6783     7824.639    729.56864    300.62808    673.09401   -2593.5955 
21743000    261.03757   -3850.7228   -3403.3134   -3850.7228            0    9812.4601    16.894279    19.899229    20.610981    6929.0643    10205.312    7003.4893    12228.579   -668.72588    217.46368   -926.86756   -2411.7319 
21744000     263.6913   -3883.1996   -3431.2418   -3883.1996            0    11099.378    16.861357    19.860452    20.570816    6888.6351    11825.031    10400.944    11072.159    135.92158   -241.42894    718.88357   -2316.1574 
21745000    260.57925   -3849.4048   -3402.7809   -3849.4048            0    11356.762    16.922988    19.933044    20.646005    6964.4481    10870.705    11644.653    11554.928    1624.3761    263.24651   -117.20478   -2249.2822 
21746000    255.69069    -3891.828   -3453.5829    -3891.828            0    7212.8783    16.953477    19.968956    20.683202     7002.158    7178.7079    5338.2588    9121.6682   -926.10432   -183.31188   -1050.8671   -2717.0088 
21747000    246.85869   -3887.2458   -3464.1384   -3887.2458            0    9561.3988     16.92338    19.933506    20.646484     6964.932    10834.831    8412.9901    9436.3751    -439.5047    2063.6202   -469.03812   -2492.9261 
21748000    259.60315    -3851.867   -3406.9161    -3851.867            0    10272.921    16.852092    19.849539    20.559513    6877.2861    9851.8404     10192.39    10774.532   -1006.3739   -1573.1105    595.46987    -2376.561 
21749000    244.92932   -3897.1217   -3477.3212   -3897.1217            0    9438.5555    16.902177    19.908532    20.620616    6938.7864    8720.8014    9941.2335    9653.6317   -381.24097   -168.26365   -1079.6991   -2522.1858 
21750000    274.28474   -3893.9838   -3423.8692   -3893.9838            0    8219.0071    16.881065    19.883665     20.59486    6912.8181    8316.6792    8966.4788    7373.8633   -383.39948    95.517943   -667.10457   -2595.2588 
Loop time of 496.181 on 64 procs for 250000 steps with 864 atoms

Performance: 87.065 ns/day, 0.276 hours/ns, 503.848 timesteps/s
99.1% CPU use with 64 MPI tasks x 1 OpenMP threads

MPI task timing breakdown:
Section |  min time  |  avg time  |  max time  |%varavg| %total
---------------------------------------------------------------
Pair    | 21.781     | 27.157     | 32.429     |  49.0 |  5.47
Bond    | 0.26641    | 0.27944    | 0.2909     |   0.8 |  0.06
Kspace  | 202.8      | 215.55     | 228.84     |  42.3 | 43.44
Neigh   | 5.3676     | 6.3549     | 7.9519     |  28.5 |  1.28
Comm    | 105.5      | 121.08     | 133.59     |  61.6 | 24.40
Output  | 1.4155     | 1.4177     | 1.4305     |   0.2 |  0.29
Modify  | 116.07     | 119.79     | 123.01     |  15.3 | 24.14
Other   |            | 4.55       |            |       |  0.92

Nlocal:        13.5000 ave          19 max           9 min
Histogram: 2 5 7 7 13 9 6 9 3 3
Nghost:        2285.92 ave        2331 max        2231 min
Histogram: 1 4 6 5 9 10 12 7 7 3
Neighs:        4456.55 ave        6364 max        2842 min
Histogram: 3 8 7 12 10 4 5 10 3 2

Total # of neighbors = 285219
Ave neighs/atom = 330.11458
Ave special neighs/atom = 2.0000000
Neighbor list builds = 13574
Dangerous builds = 0

unfix		3
unfix		2
unfix		1

write_data	data.final.${pid}
write_data	data.final.0
System init for write_data ...
PPPM initialization ...
  extracting TIP4P info from pair style
  using 12-bit tables for long-range coulomb (../kspace.cpp:340)
  G vector (1/distance) = 0.37471867
  grid = 24 24 24
  stencil order = 5
  estimated absolute RMS force accuracy = 0.003109243
  estimated relative force accuracy = 9.3633931e-06
  using double precision FFTW3
  3d grid and FFT values/proc = 2535 216
Last active /omp style is kspace_style pppm/tip4p/omp
WARNING: Not all mixed pair coeffs generated from mixing. Use write_data with 'pair ij' option to store all pair coeffs. (../write_data.cpp:312)

write_restart   restart.lmp.${pid}
write_restart   restart.lmp.0
System init for write_restart ...
PPPM initialization ...
  extracting TIP4P info from pair style
  using 12-bit tables for long-range coulomb (../kspace.cpp:340)
  G vector (1/distance) = 0.37471867
  grid = 24 24 24
  stencil order = 5
  estimated absolute RMS force accuracy = 0.003109243
  estimated relative force accuracy = 9.3633931e-06
  using double precision FFTW3
  3d grid and FFT values/proc = 2535 216
Last active /omp style is kspace_style pppm/tip4p/omp
Total wall time: 0:08:18
