LAMMPS (30 Jul 2021)
  using 1 OpenMP thread(s) per MPI task
package omp 0
using multi-threaded neighbor list subroutines
echo both

include		in.partitions
variable        pid world 0
include		in.temp
variable        temperature equal 281.54
variable	tempDamp equal 100.0
include		in.pressure
variable        pressure equal 11125.0
variable        pressureDamp equal 1000.0 # This is 1 ps
include		in.seed
variable        seed world 745823

units		real
atom_style	full
read_restart	restart.lmp.${pid}
read_restart	restart.lmp.0
Reading restart file ...
  restart file = 30 Jul 2021, LAMMPS = 30 Jul 2021
  restoring atom style full from restart
  orthogonal box = (0.65855328 1.8672200 0.80343346) to (17.549019 21.761958 21.409762)
  4 by 4 by 4 MPI processor grid
  restoring pair style lj/cut/tip4p/long/omp from restart
  restoring bond style harmonic/omp from restart
  restoring angle style harmonic/omp from restart
  864 atoms
  576 bonds
  288 angles
Finding 1-2 1-3 1-4 neighbors ...
  special bond factors lj:    0        0        0       
  special bond factors coul:  0        0        0       
     2 = max # of 1-2 neighbors
     1 = max # of 1-3 neighbors
     1 = max # of 1-4 neighbors
     2 = max # of special neighbors
  special bonds CPU = 0.168 seconds
  read_restart CPU = 0.377 seconds
include 	in.setup
variable	out_freq equal 1000
variable	out_freq2 equal 10000
variable	out_freq3 equal 1000

timestep	2.0

neigh_modify    delay 7 every 1

include		in.tip4p
# This is TIP4P/Ice

# create groups ###
group ox type 2
288 atoms in group ox
group hy type 1
576 atoms in group hy

# set charges - beside manually ###
set group ox charge -1.1794
Setting atom values ...
  288 settings made for charge
set group hy charge 0.5897
Setting atom values ...
  576 settings made for charge

# ### TIP3P Potential Parameters ###
pair_style lj/cut/tip4p/long/omp 2 1 1 1 0.1577 8.5
pair_coeff 1 1*2 0.000 0.000
pair_coeff 2 2 0.21084 3.1668
bond_style  harmonic
bond_coeff  1 450 0.9572
angle_style harmonic
angle_coeff 1 55 104.52
kspace_style pppm/tip4p/omp 1.0e-5
pair_modify tail yes

thermo          ${out_freq}
thermo          1000
thermo_style    custom step temp pe etotal epair emol press lx ly lz vol pxx pyy pzz pxy pxz pyz enthalpy

restart 	${out_freq3} restart.lmp.${pid} restart2.lmp.${pid}
restart 	1000 restart.lmp.${pid} restart2.lmp.${pid}
restart 	1000 restart.lmp.0 restart2.lmp.${pid}
restart 	1000 restart.lmp.0 restart2.lmp.0


include         in.dump
dump            myDump all atom ${out_freq2} dump.water.${pid}
dump            myDump all atom 10000 dump.water.${pid}
dump            myDump all atom 10000 dump.water.0
dump            myDump2 all dcd ${out_freq2} dump.dcd
dump            myDump2 all dcd 10000 dump.dcd
dump_modify     myDump append yes
dump_modify     myDump2 append yes


variable natoms 	equal  "count(all)"                        # NUMBER ATOMS
variable H      	equal  "enthalpy/v_natoms"                 # ENTHALPY-per-atom
variable Vol      	equal  "vol/v_natoms"                 # volume-per-atom
fix AVG all 		ave/time ${out_freq} 1 ${out_freq} v_Vol v_H file vol_enthalpy.dat
fix AVG all 		ave/time 1000 1 ${out_freq} v_Vol v_H file vol_enthalpy.dat
fix AVG all 		ave/time 1000 1 1000 v_Vol v_H file vol_enthalpy.dat


timer           timeout 23:50:00 every 1000
New timer settings: style=normal  mode=nosync  timeout=23:50:00

fix 		1 all shake 1e-6 200 0 b 1 a 1
       0 = # of size 2 clusters
       0 = # of size 3 clusters
       0 = # of size 4 clusters
     288 = # of frozen angles
  find clusters CPU = 0.023 seconds
fix             2 all nph iso ${pressure} ${pressure} ${pressureDamp}
fix             2 all nph iso 11125 ${pressure} ${pressureDamp}
fix             2 all nph iso 11125 11125 ${pressureDamp}
fix             2 all nph iso 11125 11125 1000
fix             3 all temp/csvr ${temperature} ${temperature} ${tempDamp} ${seed}
fix             3 all temp/csvr 281.54 ${temperature} ${tempDamp} ${seed}
fix             3 all temp/csvr 281.54 281.54 ${tempDamp} ${seed}
fix             3 all temp/csvr 281.54 281.54 100 ${seed}
fix             3 all temp/csvr 281.54 281.54 100 745823

run             250000
PPPM initialization ...
  extracting TIP4P info from pair style
  using 12-bit tables for long-range coulomb (../kspace.cpp:340)
  G vector (1/distance) = 0.37467285
  grid = 24 24 24
  stencil order = 5
  estimated absolute RMS force accuracy = 0.0031143965
  estimated relative force accuracy = 9.3789126e-06
  using double precision FFTW3
  3d grid and FFT values/proc = 2535 216
Last active /omp style is kspace_style pppm/tip4p/omp
Neighbor list info ...
  update every 1 steps, delay 7 steps, check yes
  max neighbors/atom: 2000, page size: 100000
  master list distance cutoff = 10.8154
  ghost atom cutoff = 10.8154
  binsize = 5.4077, bins = 4 4 4
  1 neighbor lists, perpetual/occasional/extra = 1 0 0
  (1) pair lj/cut/tip4p/long/omp, perpetual
      attributes: half, newton on, omp
      pair build: half/bin/newton/omp
      stencil: half/bin/3d
      bin: standard
Per MPI rank memory allocation (min/avg/max) = 9.237 | 9.240 | 9.243 Mbytes
Step Temp PotEng TotEng E_pair E_mol Press Lx Ly Lz Volume Pxx Pyy Pzz Pxy Pxz Pyz Enthalpy 
 4500000    293.99318   -3790.8105   -3286.9162   -3790.8105            0    10870.685    16.890466    19.894738    20.606329    6924.3733    9785.2553    11708.171     11118.63   -1157.9617    1286.4982   -1680.8874   -2189.1413 
 4501000    285.58826   -3790.5498   -3301.0613   -3790.5498            0    10395.927    16.875747    19.877401    20.588372    6906.2864    9445.2541    11234.993    10507.535    285.67385    72.696962   -348.03173    -2253.972 
 4502000    280.69296   -3775.6668   -3294.5687   -3775.6668            0     9826.443    16.903058    19.909569    20.621691    6939.8711    8501.2195    10274.459     10703.65    1852.4284   -525.89436    1340.1401   -2300.0255 
 4503000    278.24709   -3728.4207   -3251.5147   -3728.4207            0    14175.543    16.757316    19.737905    20.443886    6761.9036    13661.921    15451.926    13412.782    704.45865     259.9912   -226.25292   -1853.5875 
 4504000    267.25095   -3782.6201   -3324.5611   -3782.6201            0    12287.215    16.793929     19.78103    20.488554    6806.3227    12461.505    12842.275    11557.863   -535.81938   -1189.5517    -1012.026   -2104.8925 
 4505000    296.55521   -3782.3049   -3274.0194   -3782.3049            0    11662.951    16.823088    19.815376    20.524129    6841.8378     11518.89    11524.512    11945.452    -582.5935    1456.0149    910.69453   -2110.2763 
 4506000     289.7426    -3776.657   -3280.0481    -3776.657            0    12448.093    16.816905    19.808093    20.516585    6834.2964    11742.747    15025.152    10576.378    1230.3324    494.92356   -1015.7928   -2039.3317 
 4507000    286.33032    -3795.533   -3304.7726    -3795.533            0    10409.411    16.823236     19.81555    20.524309     6842.018    10364.548    9562.5279    11301.156   -701.10073    837.87612    663.02512   -2266.0819 
 4508000    278.64714   -3740.8035   -3263.2118   -3740.8035            0    11424.833    16.858052    19.856559    20.566785    6884.5853    11749.232    12723.354    9801.9117    535.19971   -966.13906   -294.10653   -2116.1059 
 4509000    286.06561   -3756.5482   -3266.2415   -3756.5482            0    12978.508    16.828653    19.821931    20.530918    6848.6298    12051.732    14422.487    12461.305   -816.00012   -1053.9532   -849.97955    -1969.945 
 4510000    272.46048   -3739.2977   -3272.3097   -3739.2977            0    13160.891    16.822678    19.814892    20.523628    6841.3367    13919.504    12176.966    13386.202    -287.6139    472.58877     930.2879   -1959.1966 
 4511000    268.26104    -3764.224   -3304.4338    -3764.224            0    12819.273    16.862884    19.862249    20.572679    6890.5059    13346.987    13686.665    11424.168    816.65345    1242.4995   -857.57385   -2016.2127 
 4512000    289.20814   -3758.4782   -3262.7853   -3758.4782            0    11004.498    16.870475    19.871191     20.58194    6899.8158    11830.197    10492.045    10691.252   -577.92398   -1345.5214   -1400.4223   -2155.4386 
 4513000     301.4905    -3780.556   -3263.8116    -3780.556            0    11209.449    16.856671    19.854932    20.565099    6882.8928    9576.1004    10464.535    13587.711    339.83554    2810.9387   -1203.7591   -2138.6079 
 4514000    280.43168    -3823.174   -3342.5237    -3823.174            0    10353.608    16.867259    19.867403    20.578017    6895.8714    10757.981    10423.162    9879.6813   -168.36639   -1004.7461    825.26518   -2301.2695 
 4515000     289.8746   -3793.9154   -3297.0803   -3793.9154            0    11578.189    16.796717    19.784314    20.491956    6809.7133    10763.812     12184.11    11786.646   -409.93015    330.00101    260.55624   -2147.2193 
 4516000    273.34414   -3775.8593   -3307.3568   -3775.8593            0    10681.933    16.858804    19.857444    20.567702    6885.5063    10759.677     10472.91    10813.211     1281.006    964.55452     -555.025    -2234.698 
 4517000    275.63366   -3754.7399   -3282.3133   -3754.7399            0    15631.856    16.760267    19.741381    20.447487    6765.4764    15915.651     15699.87    15280.048    94.859181   -637.36009    852.90701   -1739.9566 
 4518000    274.28653   -3801.9715   -3331.8537   -3801.9715            0    8939.8707    16.844571     19.84068    20.550338    6868.0822    9367.1699    8169.5552     9282.887    1007.4823   -1496.3011    324.08526   -2436.4011 
 4519000    291.69967   -3806.7386   -3306.7753   -3806.7386            0    10505.243    16.859839    19.858663    20.568964    6886.7746    10086.759    11538.632    9890.3386   -1314.2288   -262.64553   -842.00987    -2251.665 
 4520000    269.65096   -3801.9896    -3339.817   -3801.9896            0    9423.3101     16.90482    19.911646    20.623841    6942.0427    8761.1527    9063.9234    10444.854   -454.16749   -1152.5368    44.779354   -2385.7769 
 4521000    269.30169   -3792.5899    -3331.016   -3792.5899            0    10676.131    16.881796    19.884526    20.595752    6913.7163    10350.619    9334.5665    12343.208    230.66355    461.98452   -147.92783   -2254.5475 
 4522000    295.91186     -3785.31   -3278.1272     -3785.31            0     11513.58    16.907643     19.91497    20.627285    6945.5202    12862.413    11626.401    10051.924   -169.94663    1165.8353    2193.0354   -2111.8788 
 4523000    278.01651   -3793.2763   -3316.7656   -3793.2763            0    10268.966    16.796814    19.784428    20.492074    6809.8306    10475.842    9950.8517    10380.204   -756.71058    1030.2715    -1348.514   -2296.9094 
 4524000    297.36616   -3758.4258   -3248.7504   -3758.4258            0    10816.654    16.852915    19.850508    20.560517    6878.2935    12469.168    9764.3328     10216.46    -443.7877   -2515.4272   -895.85937    -2163.701 
 4525000    287.14665   -3765.0779   -3272.9184   -3765.0779            0    12870.993    16.750965    19.730424    20.436138     6754.218    13137.984    11560.482    13914.512    1950.3242    593.56575    -371.5754   -2005.0826 
 4526000    291.73615     -3772.82   -3272.7942     -3772.82            0    10978.035    16.906319    19.913411     20.62567    6943.8891    12146.772    9112.2181    11675.114   -2518.5734    422.56397    739.03685   -2161.0541 
 4527000    283.84823   -3760.3105   -3273.8044   -3760.3105            0    14375.758    16.829497    19.822925    20.531948    6849.6602    14762.548     13773.05    14591.677   -604.66956   -354.25221   -960.32652   -1837.7341 
 4528000    273.27232   -3794.2625   -3325.8831   -3794.2625            0    11149.141    16.955591    19.971447    20.685782    7004.7787    12231.396    11480.684    9735.3422    1735.5534   -482.47088    837.83736   -2186.9147 
 4529000     281.0255   -3837.4941    -3355.826   -3837.4941            0    8855.9607    16.915796    19.924573    20.637232     6955.573    9655.4459    8595.7189    8316.7174   -457.11651    26.588898   -113.06739   -2457.4782 
 4530000    307.00458   -3805.8212   -3279.6258   -3805.8212            0    11313.338    16.843827    19.839803     20.54943    6867.1717    10179.145    12770.655    10990.214   -1450.1224   -517.07585    238.52934   -2146.5876 
 4531000    302.90199   -3807.3719   -3288.2083   -3807.3719            0    10461.224    16.861839     19.86102    20.571405    6889.2262    9620.3725    11373.032    10390.267   -1564.6497   -809.37675    328.70524   -2237.1451 
 4532000    273.30686   -3742.0855   -3273.6468   -3742.0855            0    12170.515    16.814799    19.805612    20.514016    6831.7291    12399.648    13614.471    10497.424   -153.20768    254.38041   -172.96077   -2061.0527 
 4533000    286.20171   -3782.9329    -3292.393   -3782.9329            0    12083.248     16.82045    19.812268    20.520909    6838.6188    13411.007    11102.683    11736.053   -1024.5771    165.29407   -117.58226   -2087.2795 
 4534000    269.77505   -3819.0804   -3356.6952   -3819.0804            0    10444.318     16.85189      19.8493    20.559266    6877.0377    11011.648    10083.032    10238.273    1609.7568    100.29187    358.59996   -2309.1871 
 4535000    274.11162   -3867.8622   -3398.0442   -3867.8622            0    10329.276    16.864325    19.863947    20.574437    6892.2726    8881.8138    11776.214    10329.799   -54.230643    109.45285   -520.16615   -2359.7793 
 4536000    282.53293   -3799.0826   -3314.8308   -3799.0826            0    11078.719     16.77878    19.763187    20.470073    6787.9204    10973.167    11286.371    10976.619    -2023.216    231.46293    74.151248   -2218.0946 
 4537000    296.34869   -3792.1553   -3284.2238   -3792.1553            0    12118.032    16.787854    19.773874    20.481143    6798.9389      13094.9    11330.084    11929.112    47.060165   -1877.6531   -1431.3959   -2082.6536 
 4538000    280.86184   -3799.9632   -3318.5756   -3799.9632            0    11695.938    16.829899    19.823398    20.532438    6850.1511    10973.609    11819.282    12294.923    2290.8786    961.97173   -1437.5879    -2150.123 
 4539000    277.15708   -3805.9922   -3330.9545   -3805.9922            0    11336.009    16.877246    19.879166    20.590201    6908.1272    12663.485     10530.69    10813.851   -2332.2374   -254.93385    632.19907   -2188.8748 
 4540000    278.65133   -3794.4399   -3316.8411   -3794.4399            0    10940.218    16.868074    19.868363    20.579011    6896.8708    10647.831    13005.186    9167.6347   -698.72799   -1248.2658   -112.35606   -2216.4326 
 4541000    275.35994    -3757.664   -3285.7065    -3757.664            0    10848.652    16.875818    19.877485    20.588459    6906.3742    11731.725    9031.9305      11782.3   -1284.7498   -613.04721    1137.5448   -2193.0044 
 4542000    267.12134   -3778.1452   -3320.3084   -3778.1452            0    11079.079    16.845175    19.841391    20.551074    6868.8203    10915.238    12626.832    9695.1667    242.45252    1384.0292   -1304.0387    -2210.465 
 4543000    277.37324   -3770.2557   -3294.8474   -3770.2557            0    10815.157    16.833324    19.827432    20.536616    6854.3333    11357.824    9808.4638    11279.183   -323.77979    2049.5555   -179.92201   -2213.7273 
 4544000    286.89134   -3790.2846   -3298.5627   -3790.2846            0    12449.675    16.815353    19.806265    20.514692    6832.4047    10507.784    13327.382    13513.859   -1840.3595    341.15395     293.7277   -2058.0321 
 4545000    265.72499   -3858.1964   -3402.7529   -3858.1964            0    11503.429    16.875699    19.877345    20.588314    6906.2284    12456.722    9989.8375    12063.727   -449.13792    1148.7397   -287.30974   -2244.1246 
 4546000    292.52744   -3785.7176   -3284.3355   -3785.7176            0    12940.238     16.79314    19.780101    20.487592    6805.3637    12049.346    13241.298    13530.069   -92.098944    712.23928    315.75432   -2000.0267 
 4547000    273.96017   -3786.0428   -3316.4845   -3786.0428            0    12146.793    16.823549    19.815919    20.524691       6842.4    10340.996    14216.136    11883.246    886.25956    125.59932    297.15267   -2104.3635 
 4548000    286.45783   -3802.5818   -3311.6029   -3802.5818            0    10263.218    16.875367    19.876953    20.587908    6905.8202     10179.03    9560.3461    11050.277   -742.50981    368.06072   -193.08847     -2277.95 
 4549000    298.92811   -3784.7779   -3272.4253   -3784.7779            0    8537.6772    16.906102    19.913156    20.625406    6943.6222    9758.0837    8718.9818    7135.9662    1407.3918    690.87017      -2829.6   -2407.8523 
 4550000    272.29426   -3794.1948   -3327.4917   -3794.1948            0    12031.992    16.846093    19.842472    20.552194    6869.9435    13201.958    11828.193    11065.825   -162.81395    125.43897   -500.75067   -2121.9934 
 4551000    281.15697   -3764.0104    -3282.117   -3764.0104            0     9719.699    16.889069    19.893093    20.604625    6922.6559    11606.224    8645.7984    8907.0748    1262.6282    16.995371   -1223.6753   -2300.8178 
 4552000    278.53136   -3794.5893   -3317.1961   -3794.5893            0    13731.763    16.812099    19.802432    20.510721    6828.4383    14511.809    14704.038    11979.442    1225.4932   -230.65478   -363.49669   -1949.7079 
 4553000    266.46957   -3768.3705   -3311.6508   -3768.3705            0    10395.912    16.811224    19.801401    20.509654    6827.3721    10353.435    9683.2536    11151.047   -1080.7703   -2037.0718    696.29296   -2276.5276 
 4554000    284.74539   -3767.1702   -3279.1264   -3767.1702            0    10277.619    16.828136    19.821322    20.530287    6847.9986    10970.211    8273.5987    11589.046    -261.9131   -856.40915    554.58626     -2252.69 
 4555000    274.75652   -3767.2039   -3296.2807   -3767.2039            0    11693.586    16.861183    19.860246    20.570604    6888.4214    9356.8101    13237.541    12486.407    1130.8886   -2133.9372     1320.044   -2121.5365 
 4556000    297.05258   -3765.6941   -3256.5562   -3765.6941            0     9807.164    16.873563    19.874829    20.585708     6903.606    10326.958    9016.4341    10078.099   -604.74223   -20.802873   -704.35113   -2269.1512 
 4557000    272.38785   -3783.0452   -3316.1817   -3783.0452            0    11047.238    16.864418    19.864056     20.57455    6892.3867    11282.082      10180.2    11679.432    579.58022   -1091.8111   -1595.2904   -2205.7312 
 4558000    277.02011   -3792.5236   -3317.7206   -3792.5236            0    11002.061    16.815594    19.806548    20.514985    6832.6977     11011.09    9923.8655    12071.226   -1332.0898     2394.249    803.13009   -2221.3885 
 4559000    296.78893   -3815.0552   -3306.3691   -3815.0552            0    10538.954    16.828383    19.821612    20.530588    6848.2998    9485.3085    8993.7999    13137.754     3.401597   -824.20811    422.49304   -2253.7866 
 4560000    271.41342   -3811.0584   -3345.8651   -3811.0584            0     13015.17    16.785981    19.771669    20.478858    6796.6639    14420.047    13616.728    11008.733    56.971421    1119.5194    957.25025   -2055.7706 
 4561000    282.36722   -3808.3706   -3324.4029   -3808.3706            0    13236.127    16.855907    19.854032    20.564167     6881.957    15053.001    10781.366    13874.013    473.92757    455.94273    251.50931    -1995.942 
 4562000     288.0253   -3791.5877   -3297.9222   -3791.5877            0    12838.923     16.81533    19.806237    20.514663    6832.3758    12737.625     12793.95    12985.196   -1563.6936    828.64363   -461.46413   -2018.6109 
 4563000    286.78162   -3755.4509    -3263.917   -3755.4509            0    12660.411    16.782462    19.767524    20.474565    6792.3903     14542.48    11834.919    11603.834    888.39934   -681.73891   -1240.9089   -2009.7761 
 4564000    284.37411   -3797.1726   -3309.7652   -3797.1726            0    8689.3602    16.901046    19.907199    20.619236    6937.3934    8301.9176    9542.7916    8223.3714    743.00989   -280.89245   -914.87968   -2430.6212 
 4565000    276.14125   -3832.2816    -3358.985   -3832.2816            0    12171.733    16.871335    19.872204    20.582989    6900.8716    11945.723    12878.801    11690.674    9.0909308   -67.270714   -425.80373   -2133.9958 
 4566000    286.82083    -3770.289   -3278.6879    -3770.289            0    13903.672     16.82186    19.813929     20.52263    6840.3388     13327.95    14932.163    13450.903     2705.462   -1596.2955    99.010487    -1891.667 
 4567000    281.99141   -3855.2926    -3371.969   -3855.2926            0    10960.978    16.862056    19.861275    20.571669    6889.4916    7525.1967    10886.076    14471.662    709.57457   -104.35789    850.39752   -2270.6519 
 4568000    269.65273   -3822.4466    -3360.271   -3822.4466            0    11337.638     16.82477    19.817356     20.52618    6843.8891    10366.306    11337.426    12309.183   -1073.7904   -426.53744   -1189.8007   -2228.6489 
 4569000    269.14696   -3847.0998   -3385.7911   -3847.0998            0    10418.193    16.875389     19.87698    20.587936    6905.8478    9095.6321    12260.192    9898.7558    366.22798   -423.62072    1054.8125   -2336.5259 
 4570000    280.48995   -3808.8608   -3328.1106   -3808.8608            0    10394.367    16.851399    19.848722    20.558667     6876.437      10408.7    9850.9146    10923.486    536.01263    720.88638   -517.57037   -2285.7034 
 4571000    278.64486   -3802.8483   -3325.2605   -3802.8483            0    10400.083    16.874922    19.876429    20.587366    6905.2741    9609.1301    11848.146    9742.9732    1152.5172    364.48122   -1370.1194   -2277.9062 
 4572000     295.9403   -3721.3576    -3214.126   -3721.3576            0    13998.298    16.822606    19.814807     20.52354    6841.2488     14973.67    11988.302    15032.921   -436.35075    876.25038    57.659497   -1817.4795 
 4573000    270.40613   -3780.7282   -3317.2613   -3780.7282            0    11280.782    16.834668    19.829016    20.538256    6855.9761    11029.247    12812.845    10000.254    584.47216   -173.89667      968.066   -2189.3255 
 4574000    285.06864   -3795.8445   -3307.2466   -3795.8445            0    12278.631    16.813668    19.804281    20.512636    6830.3511    12109.764    11283.082    13443.047   -248.52877   -800.81585    713.04221   -2084.1273 
 4575000    265.81408   -3757.5263     -3301.93   -3757.5263            0    11510.945    16.826421    19.819302    20.528195    6845.9048    11770.201     9536.109    13226.525    1453.4482   -1532.7216   -114.33485   -2152.6716 
 4576000    283.13604   -3824.7224    -3339.437   -3824.7224            0    8916.5418     16.89429    19.899242    20.610994     6929.077    6855.3114    9217.9289    10676.385   -36.798694    421.95016    406.18581   -2438.3894 
 4577000    272.29782   -3814.1709   -3347.4618   -3814.1709            0    13370.077    16.806571    19.795921    20.503978    6821.7054    13917.778    12167.192    14025.263    153.74769   -1403.7189   -1338.4305   -2017.3052 
 4578000    313.52705   -3796.1691   -3258.7944   -3796.1691            0    12095.036    16.779055     19.76351    20.470407    6788.2535    12675.155    9550.4111     14059.54   -1333.4429    499.45946    1288.8624   -2061.3894 
 4579000    303.25773   -3820.0812   -3300.3078   -3820.0812            0    11690.198    16.757898     19.73859    20.444597    6762.6082    11627.154    12096.862    11346.578   -1571.7707    17.186694   -102.67305   -2147.3538 
 4580000    293.13447   -3770.8102   -3268.3878   -3770.8102            0     13661.81    16.831328    19.825081    20.534181    6851.8959    15587.173    13364.255    12034.003    1577.3995   -987.94605    492.07595   -1903.1921 
 4581000    279.12997   -3785.1542    -3306.735   -3785.1542            0    10592.346    16.868258     19.86858    20.579235    6897.0963    12096.547    11158.482    8522.0093    992.02856   -314.81695    94.214618   -2241.2818 
 4582000     280.9583   -3810.6146   -3329.0617   -3810.6146            0     12358.36    16.842569    19.838321    20.547894    6865.6328    13647.126    11544.994    11882.959    -1889.715   -243.59817   -1319.6677   -2091.6412 
 4583000    267.77567   -3775.4621   -3316.5038   -3775.4621            0    12231.125    16.784355    19.769753    20.476874    6794.6889    13274.837    10596.336    12822.203    844.09558   -358.80403    180.54258   -2104.4779 
 4584000    297.86038   -3784.1734   -3273.6509   -3784.1734            0    11595.758    16.823087    19.815374    20.524126    6841.8354    11984.496    9317.7887    13484.989   -161.75042   -497.58527   -1529.2328   -2116.6128 
 4585000    277.76212   -3795.1987   -3319.1239   -3795.1987            0    12582.627    16.759769    19.740794    20.446878    6764.8728    13451.545    12891.091    11405.246   -569.45608    1220.5083   -728.26007   -2077.7379 
 4586000    291.57061   -3826.9046   -3327.1626   -3826.9046            0    9703.4652    16.861164    19.860224    20.570581    6888.3987    12573.976    9333.7481    7202.6714    1079.4443   -930.06247    290.56713   -2352.3502 
 4587000    274.41646   -3824.9978   -3354.6574   -3824.9978            0    11939.362    16.848759    19.845612    20.555446    6873.2052    11794.248    11739.016    12284.822    134.62168   -52.273083    982.62468   -2157.8719 
 4588000    293.28317   -3780.3154   -3277.6381   -3780.3154            0    12900.101    16.857437    19.855834    20.566033    6883.8308     12730.24     12909.03    13061.033   -623.97588    90.862552    792.18943   -1982.5504 
 4589000    280.09414   -3832.6744   -3352.6027   -3832.6744            0    12423.932      16.8514    19.848723    20.558669    6876.4384    11455.837    11608.875    14207.086    404.72052    -372.1624   -975.55597   -2106.6586 
 4590000    278.46595   -3795.8241    -3318.543   -3795.8241            0    11771.153    16.830336    19.823912     20.53297     6850.684    12642.885    12701.037    9969.5371     619.1765   -608.70432    -1474.715   -2142.4847 
 4591000    256.87472     -3784.93   -3344.6556     -3784.93            0    11189.527    16.876468     19.87825    20.589252     6907.172    11620.789    11515.586    10432.205    38.211818   -1313.6682    824.05936   -2217.4896 
 4592000    286.26424   -3776.0793   -3285.4322   -3776.0793            0    11834.729    16.831762    19.825593    20.534711     6852.426    13420.935    11931.071     10152.18    -292.2034   -1456.6334   -49.005176   -2102.7215 
 4593000    282.76333   -3792.9969   -3308.3503   -3792.9969            0    12265.129    16.785291    19.770855    20.478015    6795.8251    12176.628    13256.547    11362.213    1471.7952   -962.70326    31.526418   -2092.7516 
 4594000    272.13881    -3773.799   -3307.3624    -3773.799            0    10676.033    16.856051    19.854201    20.564343    6882.1335    11049.651     10643.64    10334.809    837.51948   -491.58894    1848.5448   -2235.8212 
 4595000    273.40981   -3773.0283   -3304.4132   -3773.0283            0    12970.821    16.770051    19.752905    20.459423    6777.3317    12248.773    13804.502    12859.188    868.04884    1531.9418    881.18046   -2022.3717 
 4596000    271.76398   -3752.0946   -3286.3004   -3752.0946            0    12121.931    16.875665    19.877305    20.588272    6906.1866    12768.313    12303.753    11293.726    631.08293    652.95943   -1087.8269   -2065.3838 
 4597000    284.74438   -3773.4468   -3285.4047   -3773.4468            0    10800.434    16.839557    19.834774     20.54422    6861.9503    11896.725    10504.513    10000.064   -985.01107   -135.20257    792.77989   -2204.5566 
 4598000    280.11195    -3804.304   -3324.2017    -3804.304            0    11617.799    16.816477    19.807588    20.516062    6833.7739    10945.174    12410.168    11498.055    1398.8091   -692.19355    746.39186   -2166.3302 
 4599000    275.71074   -3791.3478    -3318.789   -3791.3478            0    11474.594    16.834838    19.829216    20.538464    6856.1837    10847.785    12007.566    11568.431    1180.9805   -486.28156   -813.37919   -2171.4397 
 4600000    278.65324   -3832.3576   -3354.7555   -3832.3576            0     10031.32    16.889475    19.893571     20.60512    6923.1547    10877.619    10186.903    9029.4361   -507.08343     1126.388     765.9308   -2341.9221 
 4601000    275.76976   -3837.9478   -3365.2879   -3837.9478            0    11545.083    16.789815    19.776185    20.483536    6801.3223    10539.599    13149.534    10946.116    417.94964   -13.653394   -1290.6009   -2220.1275 
 4602000    282.56331   -3810.1002   -3325.7963   -3810.1002            0    10772.395    16.855125    19.853111    20.563213    6880.9992    10972.765    10457.738    10886.683    -1435.424   -624.10874    136.40638   -2244.7615 
 4603000     283.2381   -3792.9563   -3307.4959   -3792.9563            0    11027.037    16.853325    19.850991    20.561018    6878.7957    12596.218     10513.28    9971.6128   -1245.6449    394.43199    1236.6336   -2201.2615 
 4604000    281.20766   -3783.3017   -3301.3214   -3783.3017            0    12476.379      16.8198    19.811502    20.520116    6837.8262    10602.409    13756.207     13070.52    974.28431    454.99871      934.695   -2057.1435 
 4605000    284.05961   -3779.1341   -3292.2656   -3779.1341            0    10466.079    16.892454     19.89708    20.608755    6926.8192    10693.171    9745.6098    10959.457   -2450.5457   -597.21304     1272.983   -2234.9765 
 4606000     259.4077   -3820.3897   -3375.7738   -3820.3897            0    9970.5059     16.86381     19.86334    20.573808    6891.6412    9113.3626    11196.154    9602.0008    245.71947    -1386.638    1260.6088    -2373.663 
 4607000    282.96254   -3834.9188   -3349.9307   -3834.9188            0    11195.855    16.776396    19.760378    20.467164     6785.027    10643.369    11711.562    11232.634     -685.159   -410.66793    -705.8199    -2242.071 
 4608000    270.72667   -3791.2902    -3327.274   -3791.2902            0    11303.727     16.82839    19.821621    20.530597    6848.3087    11016.128    9786.6411    13108.411    1334.6288    345.67315   -963.46514   -2198.3079 
 4609000    287.76138   -3821.9581   -3328.7449   -3821.9581            0     11168.22    16.869369    19.869889    20.580591    6898.4598    9540.6549    12701.185    11262.821   -1121.3885   -1181.5671    2274.4251   -2205.1442 
 4610000    270.24562   -3805.1825   -3341.9908   -3805.1825            0    10588.781    16.890569     19.89486    20.606455    6924.5006    10397.176    9802.1003    11567.065   -1540.3194   -439.29587    -441.8892   -2272.6644 
 4611000    277.42261   -3802.2296   -3326.7367   -3802.2296            0    12049.408    16.835941    19.830515    20.539809     6857.531    14379.443    11428.548    10340.234     991.2685   -1517.7723   -312.94425   -2121.6747 
 4612000    281.07467   -3819.8772   -3338.1248   -3819.8772            0    8594.2598    16.936091    19.948478    20.661991    6980.6377    8998.6817    9665.5485    7118.5494   -466.06839    259.85461   -332.44171   -2463.1824 
 4613000    280.97204   -3804.7226   -3323.1461   -3804.7226            0    10411.295    16.885435    19.888812    20.600192    6918.1881    12135.689    9747.0655    9351.1299    1410.7655    -1239.207   -48.533471   -2272.7019 
 4614000    288.85232   -3778.2358   -3283.1528   -3778.2358            0    10880.516    16.899536    19.905421    20.617394    6935.5343     13728.71    10262.173     8650.665    251.54054    784.15218   -38.301838   -2182.6142 
 4615000    281.95271   -3788.9415   -3305.6842   -3788.9415            0    10879.718    16.901816    19.908107    20.620177    6938.3425    10478.558    9675.3648    12485.231     331.2334   -331.62832   -1833.9113   -2204.7807 
 4616000    271.24271   -3792.1809   -3327.2802   -3792.1809            0     13632.29    16.785878    19.771547    20.478732    6796.5383    12196.586    15195.715    13504.568   -730.70457    -1237.853    994.58832   -1976.0403 
 4617000    276.00891   -3841.4808    -3368.411   -3841.4808            0    9568.7086    16.902623    19.909057    20.621161     6939.336    10233.246     9384.024    9088.8558    995.61888    1419.1121     651.0049    -2400.028 
 4618000    279.40437   -3838.2446   -3359.3551   -3838.2446            0    8409.6577    16.943172    19.956818     20.67063    6989.3972    8369.8609    8640.1604    8218.9519    1046.7433   -1923.8361   -360.21835   -2502.1319 
 4619000     283.4586   -3788.3964   -3302.5581   -3788.3964            0    10890.209    16.944476    19.958355    20.672222     6991.012    11848.977    10484.668    10336.982    404.17281   -631.77277   -2416.6009   -2192.2279 
 4620000    288.48893   -3791.2937   -3296.8335   -3791.2937            0    10860.506    16.834703    19.829056    20.538298    6856.0183    9903.2618    10274.875    12403.382   -930.34841    690.83475    1083.5926   -2210.9133 
 4621000      281.855   -3805.3631   -3322.2732   -3805.3631            0     11524.65    16.823985    19.816432    20.525223    6842.9321    11611.577    13466.088    9496.2848    612.51244   -757.93887   -2972.7665    -2172.146 
 4622000    299.37219   -3817.4793   -3304.3656   -3817.4793            0    11016.296    16.898988    19.904776    20.616726    6934.8603    10002.676    12386.024    10660.188   -296.20797   -536.65897    833.92153   -2190.2014 
 4623000    269.60672    -3818.557   -3356.4603    -3818.557            0    11289.627    16.831006    19.824702    20.533789    6851.5029    12833.888    11609.482    9425.5116    862.29098   -882.72479    944.45003   -2228.3766 
 4624000    282.37287   -3786.1344   -3302.1569   -3786.1344            0    10185.394    16.917772    19.926901    20.639643    6958.0112    10900.143    9018.3091     10637.73    1150.9003    712.90816    1950.5551   -2268.5894 
 4625000    306.50333   -3789.2623   -3263.9261   -3789.2623            0    9004.1652    16.929944    19.941238    20.654493    6973.0405    9737.4343    10262.864    7012.1976   -855.37566   -716.92298   -1112.9777   -2348.2507 
 4626000     272.7803   -3785.2144   -3317.6783   -3785.2144            0     9624.056    16.905612    19.912578    20.624807    6943.0181    8039.4524    10949.814    9882.9016   -583.51743   -887.63308    82.571178   -2343.1772 
 4627000    280.58155   -3767.2818   -3286.3746   -3767.2818            0        12380    16.815439    19.806366    20.514796    6832.5092    13085.101    10587.158     13467.74    675.43258   -1041.7378   -336.47997   -2052.7678 
 4628000    275.43874    -3819.459   -3347.3664    -3819.459            0      10405.5    16.896087    19.901358    20.613186    6931.2886     10367.67     9226.064    11622.765    1367.9479   -2300.3701   -142.02799   -2295.5189 
 4629000    280.48499   -3793.9032   -3313.1615   -3793.9032            0    8733.3739    16.928716    19.939792    20.652995    6971.5233    8594.0164    8316.3453    9289.7601   -979.16322    649.21496    582.52487   -2425.2174 
 4630000    278.80595   -3834.7126   -3356.8488   -3834.7126            0    10387.233    16.832414    19.826361    20.535506    6853.2226     10316.48    8430.0259    12415.192    1132.3888   -1300.6341    401.03595   -2318.6738 
 4631000    274.65277   -3842.2542   -3371.5088   -3842.2542            0    11254.067    16.832371     19.82631    20.535454    6853.1697    10485.463    11909.366     11367.37   -578.51756    424.34439   -697.83452   -2246.7048 
 4632000    281.60147   -3772.8108   -3290.1555   -3772.8108            0    10759.185    16.886744    19.890354    20.601788    6919.7966    10201.797     11618.45    10457.309    412.78907    1064.6823    865.16356   -2204.3586 
 4633000    264.11233   -3786.4972   -3333.8177   -3786.4972            0    11401.703    16.877457    19.879414    20.590458    6908.3858    9347.6175    12399.103    12458.388    -151.5852     418.7252    864.22456   -2185.0766 
 4634000    270.40292   -3820.9769   -3357.5155   -3820.9769            0    10601.725    16.865149    19.864918    20.575443    6893.2836    10419.869    8799.8458     12585.46   -18.839333   -2544.6234   -1192.2752   -2291.7085 
 4635000    266.14659   -3832.0048   -3375.8387   -3832.0048            0    10384.917    16.872031    19.873024    20.583839    6901.7261     12201.55    8733.1653    10220.037   -248.91876    129.14068    142.22237    -2330.549 
 4636000    283.27381   -3815.2002   -3329.6786   -3815.2002            0    9971.6546    16.894081    19.898995    20.610739    6928.8199    12581.969     9335.055      7997.94   -371.35332    626.33556    173.82126   -2322.0456 
 4637000    279.51535   -3834.6002   -3355.5204   -3834.6002            0    10823.193    16.883234    19.886219    20.597506    6915.4828    8605.0287    11264.076    12600.474   -62.604514   -1630.4329   -496.33089   -2263.9449 
 4638000    282.52289   -3791.9337   -3307.6992   -3791.9337            0    10127.337    16.803246    19.792005    20.499921    6817.6574    10248.204    12549.745     7584.062   -424.23187   -909.35173     -808.339   -2300.7529 
 4639000    263.00691   -3816.0961   -3365.3112   -3816.0961            0    10567.586    16.854691      19.8526    20.562684    6880.4685    9620.7704    11129.766    10952.221    826.75386   -907.86053   -766.66684   -2304.9113 
 4640000    278.72015   -3800.7321   -3323.0153   -3800.7321            0    12178.903    16.855312    19.853331    20.563441    6881.2284    12082.118    11903.383    12551.208    202.30484   -247.33218    1216.4973   -2100.7935 
 4641000    264.89331    -3797.317    -3343.299    -3797.317            0    8751.7551    16.917371    19.926428    20.639153    6957.5155    9080.6705    9536.2052    7638.3895   -1683.8158    1598.3069    1127.9379   -2455.2739 
 4642000    279.82774   -3802.6548   -3323.0397   -3802.6548            0    10420.774    16.892845     19.89754    20.609231    6927.2998    10789.865     9491.084    10981.371    1254.0324    415.52986   -1199.7859   -2270.2543 
 4643000    270.32091   -3788.3667   -3325.0459   -3788.3667            0    12125.859    16.816307    19.807388    20.515855    6833.5672    12038.692    9893.3447    14445.539    1508.2091    -205.8481   -1476.3843   -2116.5759 
 4644000    279.66933   -3803.7359   -3324.3922   -3803.7359            0    9499.7691     16.88294    19.885873    20.597147    6915.1215    11420.159    7073.6835    10005.464    1696.1269    1785.9303   -70.402076   -2366.3409 
 4645000    295.28002   -3768.4004   -3262.3005   -3768.4004            0    11033.725    16.905113     19.91199    20.624198    6942.4025    9312.0102    13089.602    10699.563   -360.07124    935.12123    595.83615   -2145.1599 
 4646000    282.11351   -3767.3671   -3283.8342   -3767.3671            0    11243.311    16.807692    19.797241    20.505345    6823.0704    11035.822    11957.407    10736.705   -688.40663   -743.66556    910.92817   -2165.0406 
 4647000    263.52473   -3786.4942   -3334.8218   -3786.4942            0    11454.277    16.833752    19.827936    20.537138    6854.8566    10576.401    11719.333    12067.095   -832.18888   -1812.9259   -364.11417   -2189.7257 
 4648000    283.68831   -3819.8058   -3333.5738   -3819.8058            0    13082.896    16.822589    19.814788     20.52352     6841.229    12886.454     12973.31    13388.924     553.8357   -47.459683   -349.63477    -2028.263 
 4649000    296.32392   -3766.5929   -3258.7039   -3766.5929            0    11797.192    16.891784    19.896291    20.607937    6925.9949    12533.558    10872.019    11985.999    1702.1489   -896.89366    942.37062   -2067.0868 
 4650000    280.62955   -3816.7784    -3335.789   -3816.7784            0    12095.882    16.844108    19.840135    20.549773    6867.5159    13827.737     11661.18    10798.728    747.83494    1368.4181    1691.2487   -2124.3178 
 4651000     285.0371   -3796.2545   -3307.7106   -3796.2545            0    9836.6849     16.85649    19.854719    20.564879    6882.6716    11210.379    9528.0143    8771.6616   -348.86534   -351.01158    -730.4434   -2320.3366 
 4652000    276.11707   -3822.1605   -3348.9053   -3822.1605            0    11374.329     16.79836    19.786249     20.49396    6811.7111    7740.1139    12328.769    14054.103    1698.1017    -1291.652   -955.10604   -2218.9588 
 4653000    293.04469   -3834.3794   -3332.1109   -3834.3794            0    10675.924    16.849366    19.846327    20.556187     6873.948    10821.974     9240.454    11965.343    211.02628    -1199.753   -506.26609    -2261.855 
 4654000    268.76564   -3787.6232   -3326.9681   -3787.6232            0    12680.959    16.731459    19.707449    20.412341    6730.6509    10691.548     14079.99    13271.339    1328.3066      859.839    508.58437   -2082.2098 
 4655000    269.84034   -3788.8751    -3326.378   -3788.8751            0    9940.1142    16.838895    19.833994    20.543413    6861.1414    10921.055    10237.474    8661.8132    2048.5038   -526.29075   -599.44386   -2331.7433 
 4656000    273.46786   -3855.8998   -3387.1852   -3855.8998            0    9756.6378    16.901408    19.907626    20.619678    6937.8396    8263.8515    10788.201    10217.861   -99.708466   -529.66549    278.11811   -2399.9962 
 4657000    261.52185   -3803.2695     -3355.03   -3803.2695            0    11859.037    16.903644     19.91026    20.622406    6940.5936    10455.188     12981.38    12140.542    -373.1909    1051.9294    489.30987   -2154.6412 
 4658000    278.54809   -3821.8217   -3344.3998   -3821.8217            0    10483.432    16.868487     19.86885    20.579515    6897.3777    10182.227     11119.71    10148.359   -1494.7085   -1080.8511   -1288.7696    -2289.859 
 4659000    274.76052    -3782.492   -3311.5619    -3782.492            0    11184.097    16.840412    19.835781    20.545263    6862.9953    12679.697    11219.515    9653.0783    140.61154    814.26431    194.21358   -2192.1485 
 4660000    282.71135   -3794.8089   -3310.2513   -3794.8089            0    10616.294    16.894792    19.899833    20.611607    6929.6953    9924.1987    10773.264    11151.418   -72.452464    -209.9964    411.34976   -2237.3422 
 4661000    268.10593   -3829.7807   -3370.2563   -3829.7807            0    11165.543    16.830258    19.823821    20.532875    6850.5888    11898.199    12069.873    9528.5569    1330.2727   -308.39289   -756.58577   -2254.7202 
 4662000    272.67496   -3806.1276   -3338.7721   -3806.1276            0      12435.5    16.789977    19.776375    20.483733    6801.5186    15291.016    12308.592     9706.891     913.3705   -336.14786    690.10659   -2105.2554 
 4663000    278.29669    -3796.522    -3319.531    -3796.522            0    10714.755    16.842588    19.838344    20.547918    6865.6563    10336.795    10945.989    10861.481    86.824709   -1133.5937    1778.7449   -2246.6781 
 4664000    294.66823   -3812.9721   -3307.9208   -3812.9721            0    13361.692    16.761527    19.742865    20.449024    6767.0029    11442.119    12450.484    16192.472     316.1758    1090.2071   -226.49385   -1989.2582 
 4665000     278.2357   -3796.9425   -3320.0561   -3796.9425            0    12735.839    16.783508    19.768755     20.47584    6793.6597     12251.39     12761.11    13195.016   -165.40662    291.99552    828.09105   -2058.2076 
 4666000     280.7573   -3780.2815   -3299.0731   -3780.2815            0     11041.45    16.785307    19.770874    20.478035    6795.8449    12086.423    11915.294    9122.6331   -1565.3607   -759.91577    25.599243   -2204.7503 
 4667000     270.2086   -3822.1524   -3359.0241   -3822.1524            0    10192.983    16.862557    19.861865     20.57228    6890.1054    11284.837    11432.669    7861.4438    338.88276   -254.53847     1225.498   -2334.7809 
 4668000    300.38997   -3785.0622   -3270.2041   -3785.0622            0    8060.9462     16.91353    19.921904    20.634467    6952.7775     7357.568    8440.5617     8384.709   -1726.9423   -778.15971    2164.3832   -2452.8312 
 4669000    284.00252   -3786.4927   -3299.7221   -3786.4927            0    10065.778    16.979015    19.999037    20.714358     7033.849    10727.218    8410.8698    11059.247   -1639.8965    2276.0807   -103.08819   -2267.1597 
 4670000     279.5772   -3812.1589   -3332.9731   -3812.1589            0    9498.7872    16.912283    19.920435    20.632946    6951.2401    7759.5463    8843.1884    11893.627   -5.1924993    1263.5575     316.5496   -2370.0174 
 4671000    264.46165   -3760.1776   -3306.8993   -3760.1776            0    11716.573    16.891771    19.896276    20.607922    6925.9791    12696.629    10074.877    12378.215   -554.62489   -347.79203   -495.19042   -2123.4281 
 4672000    274.58692   -3784.7746    -3314.142   -3784.7746            0    11940.108    16.800765    19.789082    20.496894    6814.6379    11942.708    13296.893    10580.723    1417.5614   -1372.7555    1965.3446   -2127.4803 
 4673000    273.08492   -3758.4619   -3290.4037   -3758.4619            0    14771.824    16.782455    19.767515    20.474556    6792.3814    15577.679    13986.213    14751.579     1730.912    1888.8313   -1264.1332   -1827.1081 
 4674000    282.12226   -3812.7745   -3329.2267   -3812.7745            0    11503.513    16.822362     19.81452    20.523242    6840.9511    13393.973    9941.6271     11174.94    1000.9935    475.75355    1447.4107   -2181.5412 
 4675000    292.68063   -3779.7176    -3278.073   -3779.7176            0    9696.1875    16.884275    19.887446    20.598777    6916.7626    9066.3189    9773.3129    10248.931    1161.0597   -135.07731   -824.87976   -2299.9809 
 4676000     279.2215   -3809.0406   -3330.4645   -3809.0406            0    10763.592    16.895216    19.900332    20.612124    6930.2166     13682.99    9110.9777    9496.8093    505.36671    552.59128    837.73129   -2242.5871 
 4677000     291.9953   -3814.5929   -3314.1229   -3814.5929            0     9319.302     16.96194    19.978925    20.693527    7012.6496    11445.414    7242.6498    9269.8425   -1329.3346    671.66775    367.69379   -2361.0165 
 4678000    283.60352   -3785.2183   -3299.1316   -3785.2183            0    12211.763    16.886848    19.890476    20.601915    6919.9248     12235.02    12030.239    12370.031    570.07555    53.173537    204.80646   -2066.7204 
 4679000    278.70459   -3794.3113   -3316.6212   -3794.3113            0    12561.821     16.87435    19.875755    20.586668    6904.5717     11242.44    13026.608    13416.413    1549.6581    56.651381   -109.09723   -2051.6949 
 4680000    285.46842   -3800.5537   -3311.2706   -3800.5537            0    12013.026    16.855272    19.853284    20.563393    6881.1796     11105.68    12347.552    12585.845    1127.6882    986.98377    1396.2744   -2105.7041 
 4681000    287.87056   -3818.8148   -3325.4145   -3818.8148            0    12211.354    16.891959    19.896497    20.608151    6926.2104    10695.956     13027.98    12910.127    971.78658   -603.73706   -1145.2578   -2091.9252 
 4682000    292.44009   -3770.7567   -3269.5244   -3770.7567            0    12299.887    16.820331    19.812128    20.520764    6838.4735    11541.089    11516.019    13842.554    1980.9812     1583.107   -469.64941   -2042.8306 
 4683000    279.88091   -3840.5034   -3360.7971   -3840.5034            0    12328.794    16.829147    19.822513     20.53152    6849.2328     10725.33    13123.799    13137.253   -626.44809    65.638695    473.46494   -2129.2858 
 4684000    279.83073   -3831.2118   -3351.5915   -3831.2118            0    13319.459    16.806083    19.795345    20.503381    6821.1102     13067.55    13831.563    13059.263     555.7611      1683.13    1718.2691   -2026.5865 
 4685000    274.29371   -3768.3432   -3298.2132   -3768.3432            0    11544.545    16.858739    19.857368    20.567623    6885.4271    11296.717    11293.717    12043.202   -528.74832   -135.51932   -457.28385   -2138.9458 
 4686000    290.50158    -3807.686   -3309.7762    -3807.686            0    11160.011    16.837643    19.832519    20.541885    6859.6107    13324.988    10120.644    10034.401   -476.48527    619.63326    135.97322   -2193.3244 
 4687000    275.23399   -3813.2422   -3341.5005   -3813.2422            0    12798.889    16.785395    19.770979    20.478143    6795.9523    13266.873    13146.213    11983.582    1193.1034   -45.190632   -1337.2673   -2072.9771 
 4688000    286.05673   -3804.0183   -3313.7268   -3804.0183            0    11546.916    16.900853    19.906972    20.619001    6937.1558    12333.317    10512.644    11794.788     1211.649    290.49066    82.617308   -2145.5103 
 4689000    266.57037   -3835.2797   -3378.3872   -3835.2797            0    10866.263    16.882651    19.885533    20.596795    6914.7669    10676.023    11083.169    10839.595    -755.1914      266.925   -937.25491   -2282.5813 
 4690000    289.54637   -3759.0561   -3262.7835   -3759.0561            0     10901.97    16.878116    19.880191    20.591262    6909.1954    11023.015    11999.984      9682.91    439.80595   -151.92933   -1392.7196   -2164.2626 
 4691000    287.81899   -3778.6737   -3285.3618   -3778.6737            0    11641.771    16.825457    19.818166    20.527018     6844.728    11672.024    9505.7739    13747.515   -636.54186   -226.99963   -975.52715   -2123.2414 
 4692000    274.06227   -3759.5629   -3289.8296   -3759.5629            0    12753.711     16.78225    19.767273    20.474306    6792.1322    13148.248    12633.492    12479.392   -33.454006    84.570001   -118.70767   -2026.4944 
 4693000     293.1042   -3806.8496    -3304.479   -3806.8496            0    8942.4133    16.830077    19.823608    20.532655    6850.3681    9909.1937    7089.8514    9828.1947     123.7329   -1094.8558   -906.97665   -2411.0819 
 4694000    302.09162   -3807.1416   -3289.3669   -3807.1416            0    11639.427     16.82982    19.823305    20.532342    6850.0546    11994.412    12550.951    10372.919    366.54308    807.67932     128.9554   -2126.5762 
 4695000    290.36391   -3811.4459   -3313.7721   -3811.4459            0    10952.612    16.828912    19.822236    20.531234    6848.9458    11392.719    9467.9642    11997.152    792.47653   -1343.4821    -540.5755   -2219.7721 
 4696000    285.70852   -3808.7792   -3319.0846   -3808.7792            0    9311.4245    16.888574    19.892509    20.604021    6922.0469    8967.1682     9798.049    9169.0562   -458.02004   -2.6888706    938.93373   -2379.0874 
 4697000    282.36132   -3798.7756    -3314.818   -3798.7756            0    11412.049    16.778606    19.762982     20.46986    6787.7092    10557.339    11927.385    11751.424   -2022.2515   -232.36989   -1413.3765   -2185.1189 
 4698000    283.17683   -3813.8808   -3328.5254   -3813.8808            0    9587.8428    16.901127    19.907296    20.619336    6937.4938    8910.8021    11794.999     8057.727    906.49846    273.17216   -608.97043   -2358.4636 
 4699000    285.01299   -3767.5443   -3279.0418   -3767.5443            0    11223.101    16.866283    19.866254    20.576826    6894.6744    9720.3613    14060.751    9888.1894    531.29119   -1946.6942    461.92202   -2150.5393 
 4700000    284.16466   -3757.0254   -3269.9769   -3757.0254            0    11387.593    16.827113    19.820117    20.529039    6846.7495    12143.779    10272.083    11746.918   -359.71898    359.44011    680.14102   -2132.8936 
 4701000    276.05879   -3789.8597   -3316.7044   -3789.8597            0    10865.087    16.876075    19.877787    20.588772    6906.6893    12065.579    10333.116    10196.568    1463.8633   -14.724295   -955.42458    -2222.297 
 4702000    285.53977   -3787.0558   -3297.6504   -3787.0558            0    11155.213    16.892557    19.897201     20.60888    6926.9455    12062.128    10018.566    11384.946    1108.8241   -1809.9445    126.51195    -2170.724 
 4703000    269.64248   -3796.6543   -3334.4964   -3796.6543            0    11751.076    16.864734    19.864429    20.574936    6892.7745    12203.719    11363.955    11685.554    -182.3232    259.12751   -68.974308   -2153.2307 
 4704000    262.97729    -3791.404   -3340.6699    -3791.404            0    10531.072    16.849839    19.846885    20.556765    6874.5278    10849.086    9291.6349    11452.495    1621.8907   0.15410619    294.80687   -2284.8463 
 4705000    266.46946   -3801.1168   -3344.3973   -3801.1168            0    10812.515     16.81493    19.805766    20.514175    6831.8886    11558.464    10900.732    9978.3482   -224.54523   -1575.5584    80.404052   -2267.0806 
 4706000    277.00943   -3818.4923   -3343.7076   -3818.4923            0    7914.6963    16.908616    19.916116    20.628472    6946.7198    7297.9703    9142.1162    7304.0025    368.26311   -1146.5821    516.29735   -2541.8636 
 4707000    274.53127   -3785.7506   -3315.2134   -3785.7506            0    10415.434    16.827452    19.820516    20.529453    6847.1635    10072.339    9295.1429    11878.819    894.20939   -481.71283   -1010.5975   -2275.1401 
 4708000    280.15501   -3783.6407   -3303.4646   -3783.6407            0     10304.83    16.899417    19.905281    20.617249    6935.3876    10667.973    11616.448    8630.0685    101.77872   -684.42527    2568.5188   -2261.1773 
 4709000    286.26821   -3799.5579    -3308.904   -3799.5579            0    9502.2956    16.836968    19.831725    20.541062    6858.7862    9322.1274    9285.1108    9899.6487   -258.56415    538.32003   -1397.7195    -2358.405 
 4710000    279.43483    -3736.161   -3257.2193    -3736.161            0    11094.951     16.87722    19.879135    20.590168    6908.0949    11482.497    11346.695    10455.662   -411.36333   -1340.2209    43.783941    -2139.431 
 4711000    266.52181   -3756.7998   -3299.9905   -3756.7998            0    10240.911    16.867752    19.867983    20.578618    6896.4752    7473.0238    10494.585    12755.126   -316.30314    1630.5784    2197.3984     -2269.98 
 4712000    289.72739   -3789.7898   -3293.2069   -3789.7898            0    12785.784    16.790419    19.776895    20.484271    6802.0553      11508.1    11658.095    15191.158   -49.742668   -1296.4284    997.40319   -2024.8444 
 4713000    278.09105   -3733.5422   -3256.9037   -3733.5422            0    12158.252    16.856857     19.85515    20.565326    6883.1204    11391.148    12208.182    12875.427    -746.4207   -655.16673    1197.7868   -2036.4188 
 4714000    272.94108   -3766.2242   -3298.4125   -3766.2242            0    9201.7338    16.892824    19.897515    20.609205    6927.2734    8023.1182    9804.6122    9777.4709   -146.71226   -256.20017    856.60748   -2368.7873 
 4715000    254.47359   -3799.4507   -3363.2916   -3799.4507            0    10315.241    16.885024    19.888328    20.599689    6917.6823     8410.462    10951.756    11583.506   -802.49496    -1604.449    889.17209   -2322.6148 
 4716000    278.02903   -3794.2502   -3317.7179   -3794.2502            0    9755.5434    16.980778    20.001114     20.71651    7036.0407    9222.2938    10382.765    9661.5718   -856.38625    311.13844    1200.8129   -2316.6681 
 4717000    272.92832   -3802.4992   -3334.7094   -3802.4992            0    11737.087    16.868758    19.869168    20.579845    6897.7094    11621.854    11552.263    12037.143   -188.03802   -289.32314    1114.2065   -2154.0052 
 4718000    270.46372   -3760.9662   -3297.4006   -3760.9662            0    12631.414    16.919733    19.929211    20.642035    6960.4309    13221.539    11412.237    13260.467    1142.0637    518.99418    190.12738   -2015.1763 
 4719000     290.7868   -3796.5343   -3298.1357   -3796.5343            0    10174.784    16.886156    19.889662    20.601071    6919.0745    9938.8969    9736.3602    10849.096    -5.282256    188.86754    257.25855   -2271.4226 
 4720000    271.63851   -3797.2647   -3331.6856   -3797.2647            0    12111.022    16.783564    19.768821    20.475908    6793.7275    11676.928    14331.324    10324.814   -1584.0933   -1611.8405   -193.64589    -2131.731 
 4721000    274.25086     -3785.02   -3314.9634     -3785.02            0    9528.3953    16.894237     19.89918     20.61093    6929.0125    9998.4636    8440.7675    10145.955   -355.80828    1180.7806    1274.6091   -2352.0949 
 4722000    278.84419   -3828.3926   -3350.4633   -3828.3926            0    8364.0201    16.876839    19.878688    20.589705     6907.628    7036.4908    9031.3887    9024.1808    -22.93275    899.51193    903.72234   -2507.8663 
 4723000    262.63413   -3781.4787   -3331.3328   -3781.4787            0     10570.29    16.840294    19.835642    20.545119    6862.8516    11782.001    9108.1388    10820.731    1100.8902    2589.7361    345.70489   -2273.3773 
 4724000     279.5707   -3822.4127   -3343.2381   -3822.4127            0    10321.869    16.879205    19.881474    20.592591    6910.5333    9962.8207     10752.38    10250.406    1664.9816    552.74519    321.13918   -2302.9687 
 4725000    270.27564   -3805.5191   -3342.2759   -3805.5191            0    12219.325    16.838278    19.833267     20.54266    6860.3872    12568.204    12683.767    11406.003    354.60394    -225.9722   -40.590966   -2119.7116 
 4726000    283.69198   -3813.2897   -3327.0514   -3813.2897            0     9082.555    16.878311    19.880421      20.5915    6909.4354    7612.4057    10052.525    9582.7339     942.8581   -776.89198     630.5021   -2411.8293 
 4727000    296.77131   -3756.0836   -3247.4277   -3756.0836            0    12224.886    16.894927    19.899992    20.611771    6929.8609    12915.473    13915.692     9843.495   -742.52947   -1061.4618    384.65905   -2011.9206 
 4728000    294.83229   -3782.6992   -3277.3668   -3782.6992            0    13517.781    16.859939    19.858782    20.569087    6886.8974    13629.987    13233.638    13689.717   -748.96476    1360.8221    1319.2766   -1919.6634 
 4729000    291.46015   -3785.8076   -3286.2549   -3785.8076            0    11898.888    16.856889    19.855189    20.565365    6883.1601    11039.549     12596.66    12060.455    1349.7267   -5.5734014   -758.84286   -2091.7989 
 4730000     275.9751   -3736.4558   -3263.4439   -3736.4558            0    8116.4342    16.945555    19.959625    20.673537    6992.3466    7967.3378    9991.1244    6390.8402    -1356.147    740.41968    996.77144   -2435.7608 
 4731000    279.40343   -3760.9804   -3282.0925   -3760.9804            0    11322.807    16.923522    19.933674    20.646658    6965.1084    11912.629    11632.651    10423.139    587.38709   -1782.5112   -1378.6793   -2131.9335 
 4732000    286.22808   -3774.7409   -3284.1557   -3774.7409            0    11330.914    16.883098    19.886059     20.59734    6915.3156    14257.076    10521.831    9213.8353    2006.8682   -1018.9661    437.88158   -2141.4015 
 4733000    277.65316   -3790.7983   -3314.9103   -3790.7983            0    11894.721    16.837675    19.832557    20.541924    6859.6498     13634.18     10508.85    11541.133    707.04715    -139.8314    -415.7237    -2124.951 
 4734000    286.09933   -3786.1877   -3295.8232   -3786.1877            0    12905.031    16.861534     19.86066    20.571032    6888.8516    15143.335    13374.394    10197.363    283.60895   -692.49122    938.05889   -1999.2956 
 4735000    274.99082   -3813.4012   -3342.0763   -3813.4012            0    10469.738    16.846696    19.843182     20.55293    6870.6811    10169.891    8160.7302    13078.591    879.46325    1040.7542   -148.88681   -2292.9894 
 4736000    281.16186   -3811.6823   -3329.7805   -3811.6823            0     10188.49    16.865987    19.865905    20.576465    6894.3113    13108.645    9025.9969    8430.8298   -1517.4799    641.03198   -1022.4504   -2305.3638 
 4737000    288.46617   -3822.8945   -3328.4734   -3822.8945            0    11116.701    16.859852    19.858679     20.56898    6886.7905    12165.163    11261.947    9922.9936   -1490.5806   -497.46549    188.90119   -2211.9478 
 4738000    284.64759   -3797.1828   -3309.3066   -3797.1828            0    10882.829    16.859795    19.858611     20.56891    6886.7204    8905.8606    11697.736     12044.89    230.35407    307.08174    726.35724   -2216.2814 
 4739000    282.79041   -3797.3346   -3312.6415   -3797.3346            0     9767.961    16.839206    19.834361    20.543792    6861.5217    9324.4652     10814.97    9164.4483    29.718158     1854.828   -860.32832   -2335.1787 
 4740000    288.79115    -3819.604   -3324.6259    -3819.604            0     9537.362    16.820501    19.812328    20.520972     6838.681    9812.7641    10526.681    8272.6404   -1455.0625   -1560.4725    215.65882   -2373.4157 
 4741000    282.56289   -3820.2768   -3335.9737   -3820.2768            0    10508.676    16.801412    19.789844    20.497683    6815.4244     9962.565    11446.624    10116.838   -554.78178    654.34338      2776.17   -2291.4536 
 4742000    276.06211   -3798.4215   -3325.2605   -3798.4215            0    9582.1715    16.850702    19.847901    20.557817    6875.5837     10943.28    9605.9109    8197.3237   -78.258714   -2311.6252   -701.12223   -2364.4242 
 4743000    293.79535   -3781.6148   -3278.0596   -3781.6148            0    12000.963     16.80954    19.799418      20.5076    6825.3213    13503.907    10865.706    11633.276   -1273.8138    1058.7798    67.987689     -2083.48 
 4744000    287.22744    -3795.352    -3303.054    -3795.352            0      12776.6    16.842605    19.838364    20.547939    6865.6776    12706.008    13954.206    11669.585   -2930.7979    664.63567    441.36687   -2023.7476 
 4745000    285.29958   -3774.0461   -3285.0524   -3774.0461            0    12873.291    16.891793    19.896301    20.607948    6926.0056    13286.741    11841.448    13491.683   -316.46448   -625.14267    427.40415   -1984.7382 
 4746000    269.83717    -3776.822   -3314.3303    -3776.822            0      11689.9    16.904981    19.911834    20.624037    6942.2398    12963.689    11411.136    10694.874    885.79892    1085.1152   -227.62178   -2130.7812 
 4747000    286.75707   -3806.2721   -3314.7803   -3806.2721            0    10801.715    16.898941     19.90472    20.616668    6934.8013    8275.4294    11760.422    12369.292    1531.9635   -624.07195   -2477.4955   -2222.3276 
 4748000    296.32729   -3794.5806   -3286.6858   -3794.5806            0    11902.763    16.906233     19.91331    20.625565    6943.7833    10405.629    12091.944    13210.717   -771.42305   -1128.2512    184.25837   -2081.3173 
 4749000    277.87525   -3830.9237    -3354.655   -3830.9237            0    10590.233     16.87591    19.877593    20.588571    6906.4871    10446.407    11241.781    10082.511    146.63105    1109.4057   -304.44848    -2287.964 
 4750000    284.65718   -3780.4956   -3292.6029   -3780.4956            0    8355.9857     16.88241    19.885249    20.596501    6914.4705     7089.836    7070.9576    10907.163   -1598.8144     597.9067    -483.7105   -2449.9815 
Loop time of 470.645 on 64 procs for 250000 steps with 864 atoms

Performance: 91.789 ns/day, 0.261 hours/ns, 531.186 timesteps/s
99.1% CPU use with 64 MPI tasks x 1 OpenMP threads

MPI task timing breakdown:
Section |  min time  |  avg time  |  max time  |%varavg| %total
---------------------------------------------------------------
Pair    | 22.692     | 27.426     | 31.889     |  46.6 |  5.83
Bond    | 0.2756     | 0.2843     | 0.302      |   1.0 |  0.06
Kspace  | 195.32     | 205.8      | 219.98     |  43.3 | 43.73
Neigh   | 6.0485     | 7.3242     | 9.035      |  34.8 |  1.56
Comm    | 98.16      | 112.19     | 123.54     |  65.0 | 23.84
Output  | 1.6921     | 1.7016     | 1.7202     |   0.7 |  0.36
Modify  | 109.9      | 111.67     | 113.78     |   9.6 | 23.73
Other   |            | 4.241      |            |       |  0.90

Nlocal:        13.5000 ave          18 max           7 min
Histogram: 2 0 4 7 12 8 7 11 5 8
Nghost:        2283.31 ave        2331 max        2240 min
Histogram: 6 8 2 7 10 11 9 2 5 4
Neighs:        4454.61 ave        6687 max        2032 min
Histogram: 1 3 3 10 14 12 13 3 4 1

Total # of neighbors = 285095
Ave neighs/atom = 329.97106
Ave special neighs/atom = 2.0000000
Neighbor list builds = 15941
Dangerous builds = 0

unfix		3
unfix		2
unfix		1

write_data	data.final.${pid}
write_data	data.final.0
System init for write_data ...
PPPM initialization ...
  extracting TIP4P info from pair style
  using 12-bit tables for long-range coulomb (../kspace.cpp:340)
  G vector (1/distance) = 0.37471211
  grid = 24 24 24
  stencil order = 5
  estimated absolute RMS force accuracy = 0.00310998
  estimated relative force accuracy = 9.3656123e-06
  using double precision FFTW3
  3d grid and FFT values/proc = 2535 216
Last active /omp style is kspace_style pppm/tip4p/omp
WARNING: Not all mixed pair coeffs generated from mixing. Use write_data with 'pair ij' option to store all pair coeffs. (../write_data.cpp:312)

write_restart   restart.lmp.${pid}
write_restart   restart.lmp.0
System init for write_restart ...
PPPM initialization ...
  extracting TIP4P info from pair style
  using 12-bit tables for long-range coulomb (../kspace.cpp:340)
  G vector (1/distance) = 0.37471211
  grid = 24 24 24
  stencil order = 5
  estimated absolute RMS force accuracy = 0.00310998
  estimated relative force accuracy = 9.3656123e-06
  using double precision FFTW3
  3d grid and FFT values/proc = 2535 216
Last active /omp style is kspace_style pppm/tip4p/omp
Total wall time: 0:07:51
