LAMMPS (30 Jul 2021)
  using 1 OpenMP thread(s) per MPI task
package omp 0
using multi-threaded neighbor list subroutines
echo both

include		in.partitions
variable        pid world 0
include		in.temp
variable        temperature equal 206.32
variable	tempDamp equal 100.0
include		in.pressure
variable        pressure equal -625.0
variable        pressureDamp equal 1000.0 # This is 1 ps
include		in.seed
variable        seed world 745823

units		real
atom_style	full

read_restart	restart.lmp.${pid}
read_restart	restart.lmp.0
Reading restart file ...
  restart file = 30 Jul 2021, LAMMPS = 30 Jul 2021
  restoring atom style full from restart
  orthogonal box = (-0.13257828 -0.061431584 -0.21257799) to (20.132579 20.061433 20.912576)
  4 by 4 by 4 MPI processor grid
  restoring pair style lj/cut/tip4p/long/omp from restart
  restoring bond style harmonic/omp from restart
  restoring angle style harmonic/omp from restart
  972 atoms
  648 bonds
  324 angles
Finding 1-2 1-3 1-4 neighbors ...
  special bond factors lj:    0        0        0       
  special bond factors coul:  0        0        0       
     2 = max # of 1-2 neighbors
     1 = max # of 1-3 neighbors
     1 = max # of 1-4 neighbors
     2 = max # of special neighbors
  special bonds CPU = 0.359 seconds
  read_restart CPU = 0.593 seconds
include 	in.setup
variable	out_freq equal 1000
variable	out_freq2 equal 10000
variable	out_freq3 equal 1000

timestep	2.0

neigh_modify    delay 7 every 1

include		in.tip4p
# This is TIP4P/Ice

# create groups ###
group ox type 2
324 atoms in group ox
group hy type 1
648 atoms in group hy

# set charges - beside manually ###
set group ox charge -1.1794
Setting atom values ...
  324 settings made for charge
set group hy charge 0.5897
Setting atom values ...
  648 settings made for charge

# ### TIP3P Potential Parameters ###
pair_style lj/cut/tip4p/long/omp 2 1 1 1 0.1577 8.5
pair_coeff 1 1*2 0.000 0.000
pair_coeff 2 2 0.21084 3.1668
bond_style  harmonic
bond_coeff  1 450 0.9572
angle_style harmonic
angle_coeff 1 55 104.52
kspace_style pppm/tip4p/omp 1.0e-5
pair_modify tail yes

thermo          ${out_freq}
thermo          1000
thermo_style    custom step temp pe etotal epair emol press lx ly lz vol pxx pyy pzz pxy pxz pyz enthalpy

restart 	${out_freq3} restart.lmp.${pid} restart2.lmp.${pid}
restart 	1000 restart.lmp.${pid} restart2.lmp.${pid}
restart 	1000 restart.lmp.0 restart2.lmp.${pid}
restart 	1000 restart.lmp.0 restart2.lmp.0


include         in.dump
dump            myDump all atom ${out_freq2} dump.water.${pid}
dump            myDump all atom 10000 dump.water.${pid}
dump            myDump all atom 10000 dump.water.0
dump            myDump2 all dcd ${out_freq2} dump.dcd
dump            myDump2 all dcd 10000 dump.dcd
dump_modify     myDump append yes
dump_modify     myDump2 append yes


variable natoms 	equal  "count(all)"                        # NUMBER ATOMS
variable H      	equal  "enthalpy/v_natoms"                 # ENTHALPY-per-atom
variable Vol      	equal  "vol/v_natoms"                 # volume-per-atom
fix AVG all 		ave/time ${out_freq} 1 ${out_freq} v_Vol v_H file vol_enthalpy.dat
fix AVG all 		ave/time 1000 1 ${out_freq} v_Vol v_H file vol_enthalpy.dat
fix AVG all 		ave/time 1000 1 1000 v_Vol v_H file vol_enthalpy.dat


timer           timeout 02:55:00 every 1000
New timer settings: style=normal  mode=nosync  timeout=02:55:00

fix 		1 all shake 1e-6 200 0 b 1 a 1
       0 = # of size 2 clusters
       0 = # of size 3 clusters
       0 = # of size 4 clusters
     324 = # of frozen angles
  find clusters CPU = 0.017 seconds
fix             2 all nph aniso ${pressure} ${pressure} ${pressureDamp}
fix             2 all nph aniso -625 ${pressure} ${pressureDamp}
fix             2 all nph aniso -625 -625 ${pressureDamp}
fix             2 all nph aniso -625 -625 1000
fix             3 all temp/csvr ${temperature} ${temperature} ${tempDamp} ${seed}
fix             3 all temp/csvr 206.32 ${temperature} ${tempDamp} ${seed}
fix             3 all temp/csvr 206.32 206.32 ${tempDamp} ${seed}
fix             3 all temp/csvr 206.32 206.32 100 ${seed}
fix             3 all temp/csvr 206.32 206.32 100 745823


run             250000
PPPM initialization ...
  extracting TIP4P info from pair style
  using 12-bit tables for long-range coulomb (../kspace.cpp:340)
  G vector (1/distance) = 0.37143774
  grid = 24 24 25
  stencil order = 5
  estimated absolute RMS force accuracy = 0.0035275011
  estimated relative force accuracy = 1.0622965e-05
  using double precision FFTW3
  3d grid and FFT values/proc = 2366 288
Last active /omp style is kspace_style pppm/tip4p/omp
Neighbor list info ...
  update every 1 steps, delay 7 steps, check yes
  max neighbors/atom: 2000, page size: 100000
  master list distance cutoff = 10.8154
  ghost atom cutoff = 10.8154
  binsize = 5.4077, bins = 4 4 4
  1 neighbor lists, perpetual/occasional/extra = 1 0 0
  (1) pair lj/cut/tip4p/long/omp, perpetual
      attributes: half, newton on, omp
      pair build: half/bin/newton/omp
      stencil: half/bin/3d
      bin: standard
Per MPI rank memory allocation (min/avg/max) = 9.222 | 9.228 | 9.234 Mbytes
Step Temp PotEng TotEng E_pair E_mol Press Lx Ly Lz Volume Pxx Pyy Pzz Pxy Pxz Pyz Enthalpy 
18500000    213.84828   -4767.2428   -4354.8184   -4767.2428            0   -934.26568    20.265158    20.122864    21.125154    8614.6902   -2143.0956   -235.40847   -424.29301   -451.84817    1928.8922   -1103.4371   -4472.1962 
18501000    199.79086   -4806.1467   -4420.8332   -4806.1467            0   -952.18858    20.234895    20.267538    21.446642    8795.5149    1014.0586   -2573.7111   -1296.9132    536.12286    827.40206   -643.61411   -4542.9738 
18502000    211.92819   -4825.4157   -4416.6944   -4825.4157            0    469.39821    20.030308    20.167286    21.339549    8620.2592     1760.545   -783.21181     430.8614    288.29847     119.5332   -93.130708   -4357.6828 
18503000    204.82025   -4821.5721    -4426.559   -4821.5721            0   -1393.8678    20.350346    20.143082    21.124659    8659.3926   -1907.5075   -662.30246   -1611.7935    285.90687   -757.59933    708.76042   -4602.5883 
18504000    196.55837   -4827.9139   -4448.8346   -4827.9139            0   -850.67655    20.194452    20.263776    21.174984    8665.1393   -651.05891   -1085.3953   -815.57546    229.91316    256.43651     646.6205   -4556.3364 
18505000    212.55203   -4828.0694    -4418.145   -4828.0694            0   -2031.8148    20.251494    20.142085    21.098056    8606.0516   -1647.0881    -1882.351   -2566.0054    228.22333     1761.666    187.87931   -4673.1589 
18506000    213.47922   -4812.4542   -4400.7416   -4812.4542            0    -1732.367    20.334019    20.216116    21.240476     8731.426   -1288.7774   -2162.5175    -1745.806   -553.34561    182.81912    466.73942   -4621.3392 
18507000    198.61709    -4798.351   -4415.3013    -4798.351            0   -494.93043    20.327673    19.924913    21.414545    8673.4712   -1068.8956    677.32165   -1093.2173    525.79189    315.17419    598.94017   -4477.9069 
18508000    220.10793   -4836.2038   -4411.7071   -4836.2038            0   -986.40088    20.244185    20.219487    21.041513    8612.8599   -1184.8129    -1017.852   -756.53778   -242.13944    961.05296   -269.95237   -4535.6087 
18509000    213.73909   -4805.4916   -4393.2777   -4805.4916            0    340.97567    20.369165    20.124856    21.131018    8662.1646   -437.31002    1285.4391    174.79791    -469.4755    43.143931    159.12295   -4350.2027 
18510000    212.93861   -4811.0231   -4400.3531   -4811.0231            0   -88.669635    20.171366     20.17186    21.251078     8646.936    192.41215    67.554817   -525.97587   -193.15606    594.70629    132.99633   -4411.5349 
18511000    210.66319    -4826.499   -4420.2173    -4826.499            0   -114.73245    20.202629    20.164582    21.304113    8678.8178    559.79434     464.5304   -1368.5221    -17.36991    1012.9929    59.514803   -4434.7392 
18512000    211.80096   -4788.8573   -4380.3814   -4788.8573            0   -1426.3349    20.182364    20.384737    21.113739    8686.4493   -568.60618   -2877.1162    -833.2823    429.34777    599.15413   -251.47458   -4561.0737 
18513000    215.99679   -4802.9442   -4386.3763   -4802.9442            0    335.82736    20.123805    20.233471    21.196505    8630.6751    292.50226     523.4014    191.57842    207.46443   -109.64721   -1260.9827   -4344.1058 
18514000    202.83808   -4822.7614   -4431.5711   -4822.7614            0    -1588.312    20.148928    20.192488    21.308406    8669.4737   -2000.6078   -345.23504   -2419.0932     674.9756    30.247243    1320.1832   -4632.3899 
18515000    208.81416   -4830.4386   -4427.7229   -4830.4386            0   -542.42597    20.319017    20.121517    21.014296    8591.6834   -2275.9794    1158.4397   -509.73827    86.756637   -423.75704    554.29228   -4495.6894 
18516000    205.13791   -4807.8616   -4412.2359   -4807.8616            0   -484.02864    20.362482    20.060302    21.211368    8664.3671    586.94061   -1420.6774   -618.34911    126.99864    276.16849   -659.56355   -4473.3982 
18517000    202.84004   -4807.5182   -4416.3241   -4807.5182            0   -84.947821    20.165804    20.133215    21.362566    8673.2544    109.96005   -1076.1726     711.3691     334.3591   -361.84456    145.99232   -4427.0692 
18518000    200.31023   -4827.0133   -4440.6981   -4827.0133            0   -1176.0373    20.178566    20.362645     20.98698    8623.3186    652.22186   -4328.1982    147.86447   -167.29495    856.85447   -559.97137   -4588.5992 
18519000    204.56862   -4814.3954   -4419.8677   -4814.3954            0  -0.72927435     20.18596    20.276398    21.020862    8603.8086   -122.22754    428.47999   -308.44028    171.69823   -68.356428   -557.36394   -4419.9592 
18520000    215.86506   -4846.4766   -4430.1626   -4846.4766            0    527.64843    20.199744    20.075828    21.329183    8649.5508    716.40875    -211.7001    1078.2366    2.9580365    294.35823    147.88734   -4363.6025 
18521000    208.80949   -4838.7783   -4436.0716   -4838.7783            0   -1784.5085    20.283128    20.255438    21.122321    8677.9713   -1438.5807   -3337.0923   -577.85247   -338.56204    987.38104    337.37135   -4661.9178 
18522000    210.89896     -4820.42   -4413.6836     -4820.42            0   -862.87775    20.245674     20.19998    21.127815    8640.4781   -1290.7482   -224.22006    -1073.665     19.83176   -374.74777   -238.36822    -4522.417 
18523000    200.88001   -4827.1782   -4439.7643   -4827.1782            0     183.5842    20.298807    20.121893    21.119277    8626.1774    640.09685   -224.90993    135.56569    331.48409   -42.052049    1889.1901   -4416.6686 
18524000    212.90864   -4786.1258   -4375.5136   -4786.1258            0   -1170.5812    20.036578    20.356232    21.310641    8691.9544   -409.36815   -1928.9859   -1173.3894   -526.21465   -1280.1129    613.14152   -4523.9002 
18525000    205.55209   -4788.0281   -4391.6036   -4788.0281            0     -1630.59    20.407734    20.088562    21.133369    8663.8786   -2043.0606   -817.89734    -2030.812    62.681058   -759.04333   -315.41308   -4597.6348 
18526000    210.63436   -4794.9728   -4388.7468   -4794.9728            0    458.06618    20.175761    20.041404    21.443625    8670.7423   -868.57619    2414.3359   -171.56116    103.77526    1043.1075   -1595.8704   -4330.8225 
18527000    220.45376   -4809.7807   -4384.6171   -4809.7807            0   -358.96158    20.225003    20.203549    21.109144    8625.5521   -1472.4321    329.35588    66.191435   -118.86959    1358.4234   -567.65879   -4429.7726 
18528000     200.9641   -4820.3272    -4432.751   -4820.3272            0    450.57259    20.321008    20.079698     21.07786    8600.6037   -139.40223    437.41679    1053.7032    4.1428984    1136.4938   -206.41834   -4376.2352 
18529000     205.8717   -4805.6178   -4408.5769   -4805.6178            0   -750.69527    20.199179      20.0482    21.420709    8674.4696   -360.38068   -416.16506   -1475.5401   -87.829714   -32.969865    745.15595    -4503.546 
18530000    211.23399   -4800.9054   -4393.5229   -4800.9054            0   -265.12241     20.14293    20.169431    21.301882     8654.346    -344.1591    141.23986     -592.448    240.72442    762.90884    522.74991   -4426.9852 
18531000    211.86634   -4803.5634   -4394.9613   -4803.5634            0   -1533.8882    20.440853    20.248736    20.953247    8672.5788   -3435.7516   -137.51203    -1028.401   -459.95847    549.26171    822.18669   -4588.9685 
18532000     200.7432   -4793.7333   -4406.5831   -4793.7333            0    247.77666    20.284432    20.133549     21.16408    8643.3593    678.79112    33.429346    31.109513   -67.939365   -799.90738    813.91686   -4375.3497 
18533000    204.50375   -4802.3169   -4407.9142   -4802.3169            0   -2145.6621    20.215743    20.092653    21.450389    8712.8889   -1418.2684   -2524.2297   -2494.4883   -186.98583   -285.36109    58.003163   -4680.5604 
18534000    197.01932    -4808.823   -4428.8547    -4808.823            0   -40.758048    20.102221    20.186157    21.195769    8600.9588   -1337.8343    1437.8323   -222.27214   -779.08596    669.66355    1142.1702   -4433.9673 
18535000    198.01301   -4832.6524   -4450.7677   -4832.6524            0   -1702.7017    20.268412    20.514011     20.90615    8692.4929   -1471.1117   -2465.0058   -1171.9875   -318.05419    -277.8808   -1237.5592    -4666.621 
18536000    199.77247   -4820.2497   -4434.9717   -4820.2497            0   -363.19445    20.041675    20.245462    21.250509    8622.4575    1589.1788   -1356.4192   -1322.3429     357.0211   -247.69639    669.89009   -4480.6433 
18537000    202.02129      -4803.9   -4414.2849      -4803.9            0   -575.97474    20.233218    20.199235    21.296873    8703.9366    838.49649   -1529.8412   -1036.5795   -496.25517   -727.81909    162.44788    -4487.398 
18538000     212.3438   -4807.7148   -4398.1919   -4807.7148            0    682.08054    20.249831    20.206986    20.827871    8522.5162    -199.0261    1140.3877      1104.88   -118.76615     240.9971   -353.31618   -4313.4146 
18539000    195.85379   -4810.4617   -4432.7412   -4810.4617            0   -1452.0689    20.150526    20.229829    21.229453    8654.0099   -1136.6619   -2011.6628    -1207.882    397.79904   -375.87841    343.17617   -4616.0066 
18540000    197.80991    -4805.748    -4424.255    -4805.748            0   -710.28367    20.372193     20.11473    21.332495    8741.6543   -1398.7553    -862.3121    130.21641   -448.88037    1182.2206   -548.08676   -4514.8077 
18541000    209.98411   -4816.9862   -4412.0142   -4816.9862            0   -1325.0221    20.105272    20.423614     20.94711    8601.3506   -1255.6329   -2456.4427   -262.99074   -449.91433    260.23439    152.26119   -4578.2275 
18542000    203.13338   -4811.6237   -4419.8639   -4811.6237            0   -1674.3884    20.341216    20.181672    21.341017    8760.9092   -769.12125   -2158.4509    -2095.593   -744.43334    -68.42153   -78.992669   -4633.7986 
18543000    216.15502   -4818.5361    -4401.663   -4818.5361            0    198.28891     20.18785     20.08164    21.192445    8591.5262   -28.216753     831.7087    -208.6252    157.03481    270.54374   -167.45307   -4376.8176 
18544000    198.83237   -4824.2618   -4440.7969   -4824.2618            0    848.77937    20.214716    20.193844    21.103628    8614.7715    2266.6261   -1060.1172    1339.8293   -229.34318   -314.33118     452.7163   -4334.1582 
18545000    198.38956   -4829.8328   -4447.2219   -4829.8328            0    52.649317    20.185585    20.300692    21.095093    8644.3754    211.30563    290.83918   -344.19686    443.79449    636.26953    703.87978   -4440.5844 
18546000    204.42549   -4830.8452   -4436.5934   -4830.8452            0    86.933445    20.116603    20.093498    21.242717    8586.5808    243.38049    412.85039   -395.43054   -492.97453    1252.3595      943.562    -4425.707 
18547000    205.66892   -4817.6468    -4420.997   -4817.6468            0   -2149.3963    20.171535    20.349672    21.166934    8688.6904   -1850.7693   -2940.6925   -1656.7272    69.085967    849.98834    736.05683   -4693.3592 
18548000    199.60534   -4823.8143   -4438.8586   -4823.8143            0   -866.28182    20.239979     20.08475    21.243123    8635.6465    -1992.724    643.39394   -1249.5153    18.208512    -417.5697    910.64071   -4547.9599 
18549000     209.8371   -4816.4392   -4411.7507   -4816.4392            0   -690.92615    20.292772    20.126291    21.183666    8651.7955   -213.95842   -1287.3587   -571.46135   -430.26119    -547.2422    675.02858   -4498.9301 
18550000    208.55677   -4840.3371   -4438.1178   -4840.3371            0   -386.35693    20.157279    20.273758    21.051683    8603.0611    189.75951   -710.65569   -638.17461    322.68235    565.16118    1532.2048   -4486.5928 
18551000    222.28977   -4792.3607   -4363.6562   -4792.3607            0   -783.26576    20.231476    20.214323    21.217543     8677.245   -761.07769   -101.04824   -1487.6714   -53.499242   -533.25651    257.74754   -4462.7774 
18552000    195.78105   -4810.2454   -4432.6652   -4810.2454            0   -620.46534    20.231832    20.086277    21.545093    8755.5415    -188.9507    631.61035   -2304.0557   -297.06481   -214.83694    202.97184   -4511.8928 
18553000    194.60874   -4818.8097   -4443.4904   -4818.8097            0    -858.9085    20.309035    20.118913    21.140196    8637.7931   -1314.8806   -12.281741   -1249.5632    715.35445    381.61527    655.88289     -4551.69 
18554000    204.48777   -4791.7261   -4397.3543   -4791.7261            0   -1037.2931    20.368596    20.183149    20.897358    8590.9546   -1429.0079   -898.39905   -784.47246   -479.01985    766.73171   -794.81374    -4527.317 
18555000    210.16589   -4819.9953   -4414.6727   -4819.9953            0     23.36697    20.160587    20.133488    21.366118    8672.5699    1249.6877   -626.66284   -552.92394    -195.0874    686.03769   -833.59641   -4411.7172 
18556000    211.13834   -4786.1258   -4378.9277   -4786.1258            0    91.101685    20.166702    20.222398    21.371962    8715.8934    2593.3583   -2372.8986    52.845382     26.26144    1070.8436   -818.42337   -4367.3476 
18557000    202.10581   -4833.4934   -4443.7154   -4833.4934            0    -621.8313    20.312381    20.254734    20.891717    8595.3092   -1308.8182   -1870.5685    1313.8928   -114.03217   -399.82821    469.51229   -4521.6643 
18558000    208.60757   -4810.3177   -4408.0005   -4810.3177            0   -1178.4077    20.338123    20.225504    21.056165    8661.4281   -2125.9755    264.86326   -1674.1108   -24.373432   -351.46976   -458.46689   -4556.8546 
18559000    206.38097   -4817.0589   -4419.0359   -4817.0589            0    290.80022    19.941583    20.166176    21.640776    8702.7404    2188.1181   -1013.0013   -302.71608    -174.7051    2641.3244    588.19099   -4382.1274 
18560000    209.64236   -4823.5289   -4419.2159   -4823.5289            0   -821.93689    20.264994    20.178932    21.115427     8634.646   -81.748767   -1119.8134   -1264.2485   -122.24356    722.20201   -288.46958   -4522.7204 
18561000    205.79305   -4805.0488   -4408.1596   -4805.0488            0   -1253.1019    20.326537    20.459307    20.929985    8704.0869   -1854.8397   -1866.0637   -38.402239   -17.046315   -446.28928    960.56963   -4567.2285 
18562000    212.95289   -4793.1088   -4382.4113   -4793.1088            0     -1965.22    20.246838    20.239144    21.325454    8738.7165    -723.1654   -2073.2328   -3099.2618    84.313605   -690.31389   -124.27931   -4632.8692 
18563000    215.86796   -4817.9128   -4401.5933   -4817.9128            0    1652.3877     20.19451    19.958168    21.250415    8564.8826     913.4088    2871.9277    1171.8267   -624.43512   -737.25766   -1007.5014   -4195.1935 
18564000    209.63498   -4817.5002   -4413.2015   -4817.5002            0   -2046.3678    20.297015     20.41621    20.944621    8679.2021   -3851.6929   -1619.5342   -667.87631    522.31295    37.491819    -553.4601   -4672.2251 
18565000    210.51716   -4830.4522   -4424.4522   -4830.4522            0    785.56441    19.993989    20.207783    21.154441    8547.1172    1414.6081    448.51508    493.57002   -291.46296   -187.00942    1478.7975   -4326.5308 
18566000    205.09073   -4775.1133   -4379.5786   -4775.1133            0   -1620.0827    20.303627    20.185136    21.464531    8796.8407   -1779.6814   -1485.7843   -1594.7823     190.0326   -183.65638    1054.3253   -4587.4237 
18567000    201.13549   -4819.9636   -4432.0569   -4819.9636            0   -572.35512     20.10979      20.2699    21.197404    8640.5586    10.944993   -1220.7764   -507.23399    297.98039    374.87777   -247.73551   -4504.1815 
18568000    202.16784   -4813.7004   -4423.8027   -4813.7004            0    1.1367102    20.132904    20.307657    20.981635    8578.3856   -462.17314    297.02792    168.55535    -1171.796   -56.000826    1264.9564   -4423.6605 
18569000    199.31607   -4830.6479   -4446.2501   -4830.6479            0   -1719.5342    20.392819     20.11932      21.2345     8712.296   -2650.3269   -701.23614   -1807.0396    230.80796   -302.92904     683.7345    -4664.734 
18570000    213.87529      -4819.6   -4407.1235      -4819.6            0   -1153.5141     20.20286    20.206452    21.113812     8619.252   -1145.7711   -412.19115     -1902.58    -220.3796    38.745834   -477.30606   -4552.1236 
18571000    208.15433   -4810.1387   -4408.6956   -4810.1387            0   -1306.5914    20.216489    20.392648    21.136873    8714.0508   -1710.8258   -2534.8017    325.85328    678.90241   -1071.1959   -783.04332   -4574.7444 
18572000    222.13632   -4796.0816   -4367.6731   -4796.0816            0   -32.891921    20.310793    20.119079    21.109384    8626.0212   -1747.3998    1596.6394    52.084656    335.61327   -590.84639   -529.05881   -4371.8109 
18573000    199.14183    -4825.493   -4441.4312    -4825.493            0    -426.5835     20.44249    19.982179    21.241667    8676.9127   -2703.4464    1252.2558    171.44002   -97.678068    196.11447   -177.46154   -4495.4128 
18574000    201.42598   -4829.9578   -4441.4909   -4829.9578            0    349.59405    20.093163    20.116489    21.253804    8590.8705    783.29083    723.87685   -458.38553   -82.752597   -400.44557     -177.212   -4397.6906 
18575000      201.322   -4808.4261   -4420.1597   -4808.4261            0   -1907.6012    20.406142    20.241513    21.030111    8686.5124   -1904.5731   -3356.4952   -461.73513   -802.48559   -983.86221    3.1712973    -4661.822 
18576000    204.58788   -4816.2728   -4421.7079   -4816.2728            0     239.4163    20.274925    20.075122     21.10863    8591.6681   -1431.4636    1170.6757    979.03684   -658.62836   -538.22089    1497.6038   -4391.7089 
18577000    201.47822   -4844.2914   -4455.7237   -4844.2914            0   -801.02039    20.190334    20.065138    21.367337    8656.3745   -1580.5569    393.92417   -1216.4284   -539.83776   -687.12622    1173.4512    -4556.848 
18578000    212.57733   -4802.7157   -4392.7425   -4802.7157            0    1872.9689    20.178038    20.143541    21.012414    8540.6459     3804.038    426.97399    1387.8947   -606.64891     1022.837   -891.39731   -4159.4519 
18579000    202.73053   -4824.9688   -4433.9859   -4824.9688            0    423.67083    20.187093    20.201915    21.173285    8634.8451    2071.3588   -640.37275   -159.97358     -390.386   -214.88363   -1279.4916   -4380.6329 
18580000    206.19967   -4798.3667   -4400.6933   -4798.3667            0   -257.40631    20.307397    20.174174     21.03697      8618.53    93.390289    15.516177   -881.12539   -590.10004    -145.0068   -78.396618   -4433.0473 
18581000    208.39742   -4812.5092   -4410.5972   -4812.5092            0   -918.04402     20.21471    20.167606    21.098553    8601.5069   -1147.0544   -596.86598   -1010.2116    105.86328    178.61863   -154.69564   -4525.7605 
18582000    201.53597   -4826.6198   -4437.9407   -4826.6198            0   -2071.7156    20.270172    20.187161    21.503629    8799.2252   -1471.3051   -2152.8107    -2591.031    -60.03084   -153.23096    -148.1526   -4703.7992 
18583000     200.9538    -4792.678   -4405.1217    -4792.678            0     427.0544    20.271237    20.086583    21.158722     8615.406   -1020.2006    2314.3022   -12.938387   -168.06516    782.42479   -154.38898   -4351.4636 
18584000     215.3604   -4791.7804   -4376.4398   -4791.7804            0   -1114.7955    20.202928    20.253688    21.086658    8628.3188   -918.78825   -1875.1365   -550.46179     164.5207   -103.30424   -512.97457   -4516.7203 
18585000    195.77232   -4808.3968   -4430.8334   -4808.3968            0    -2279.447    20.292057    20.182657    21.367281    8750.9189   -3989.0841   -504.02008   -2345.2369   -5.3523651   -48.713673    1237.9224   -4721.7437 
18586000    196.91413   -4801.0773   -4421.3118   -4801.0773            0   -754.63544    20.178273    20.183618     21.23072    8646.6468   -421.03882   -415.25778   -1427.6097    534.21618    759.20854    944.34632   -4516.4732 
18587000    200.90562   -4820.7845   -4433.3211   -4820.7845            0   -817.33379    20.226871    20.308599    21.004916    8628.3867   -1076.4766   -1315.1783   -60.346478     107.3854    1177.9028    829.83294   -4536.1712 
18588000    211.63967   -4827.9259    -4419.761   -4827.9259            0   -1372.8775     20.22143    20.148148    21.288895    8673.6146   -985.55619    -1396.812   -1736.2642     -245.078    261.39413   -942.07322   -4593.4242 
18589000    187.46015   -4819.0434   -4457.5108   -4819.0434            0   -674.48737    20.060326    20.309131    21.412034    8723.4292    -99.19556   -114.64768   -1809.6189   -488.00858    391.94802    362.87563   -4543.3206 
18590000    208.87697   -4833.5803   -4430.7435   -4833.5803            0    38.562667    20.254167    20.207676    20.942439    8571.5239    883.56957   -769.07186    1.1902909    136.18196    195.04525     646.2941   -4425.9229 
18591000    201.73241   -4817.4695   -4428.4116   -4817.4695            0    484.75353    20.173991     20.07975    21.301801    8629.1188    363.61943    325.01799    765.62315    -268.7702    158.75039   -446.95571   -4367.4069 
18592000     207.7412   -4819.7158   -4419.0694   -4819.7158            0   -1649.3478    20.282896    20.161293    21.339115    8726.1918   -1942.1782   -2032.4844   -973.38088    605.71543   -366.33783   -727.78191   -4628.9696 
18593000    224.26314   -4833.1772   -4400.6668   -4833.1772            0   -460.71902    20.416763    20.078844    20.999872    8608.7924    -243.8338   -1091.6548    -46.66851    -218.2572   -1119.7519   -747.46859   -4458.5103 
18594000    211.63615   -4828.7414   -4420.5832   -4828.7414            0   -1359.7113    20.196405    20.310972    21.154457    8677.7406   -1803.9287   -1181.9698   -1093.2352   -193.72853    1667.9953     101.4543   -4592.6628 
18595000     196.0546   -4826.5266   -4448.4188   -4826.5266            0   -439.53394     20.20172      20.1746    21.371149      8710.06   -1342.4822    346.19185   -322.31144    33.898569   -612.27697   -205.71821   -4504.2516 
18596000    207.94788   -4804.3741   -4403.3291   -4804.3741            0    -1948.084    20.362773    20.203162    21.284489    8756.2772   -1733.1129   -1543.6492   -2567.4899    270.30652   -420.33715    42.850504    -4652.102 
18597000    203.10177    -4810.391   -4418.6921    -4810.391            0   -1255.5274    20.278207    20.208468    21.089255    8642.1972   -1185.4767   -1964.4344   -616.67108    102.63442    383.55147    301.55291   -4576.9358 
18598000    203.92316   -4816.3224   -4423.0395   -4816.3224            0   -1370.6123    20.078942    20.349594    21.316514    8709.8919   -2013.1613   -555.18626   -1543.4894    86.146595   -608.06866   -548.05072   -4597.1413 
18599000    206.84918   -4822.3823   -4423.4563   -4822.3823            0   -443.03966    20.176354    20.075112    21.332399    8640.5296    114.57635   -620.87554    -822.8198     150.0865    112.09288    16.541411   -4479.2852 
18600000    202.71946    -4802.825   -4411.8634    -4802.825            0    181.27034     20.21646    20.222648    21.339053    8724.0524   -242.96525    642.05426    144.72201    42.068142    669.00955   -95.553819   -4388.8002 
18601000    200.79707   -4838.1471    -4450.893   -4838.1471            0   -1088.4856    20.229596    20.210819    21.153686    8648.8263   -967.58154    -753.1594   -1544.7157    246.85305   -422.56583   -144.90448   -4588.1884 
18602000     206.5937   -4813.9095   -4415.4762   -4813.9095            0   -1344.5289    20.373767    20.134219    21.082504    8648.2513   -524.59176   -1751.8969    -1757.098    208.48814    1418.1775    1247.1688   -4585.0561 
18603000    210.50958   -4808.6808   -4402.6954   -4808.6808            0   -223.64647    20.140085    20.180111     21.10217    8576.5369    329.85473   -1400.2931    399.49899   -315.85667    995.24456    166.22715   -4430.6691 
18604000    212.58055   -4808.9155    -4398.936   -4808.9155            0   -1962.0185     20.23932    20.235136    21.228278     8693.943   -1106.9531   -2651.1114   -2127.9909   -55.414237    799.81367   -473.49607   -4647.7047 
18605000    217.84583    -4797.719    -4377.585    -4797.719            0   -1631.1208    20.263494    20.320386    21.215706    8735.8217   -1336.2484   -2352.8534   -1204.2605   -425.18932   -88.463383   -256.51946   -4585.3947 
18606000    189.24581   -4806.3152   -4441.3388   -4806.3152            0    345.19943       20.252      20.1385    21.095458    8603.6749    493.69325    395.02072    146.88431    196.89464    469.40815    189.79674   -4398.0246 
18607000    204.07815   -4806.3992   -4412.8173   -4806.3992            0   -2383.9776    20.455041    20.105588    21.266959    8746.2632   -2755.5927   -2413.2922   -1983.0478    203.62595    327.33771   -238.20376   -4716.9062 
18608000    206.92188   -4796.0637   -4396.9975   -4796.0637            0   -361.87685    20.011765    20.288147    21.509584     8732.926    1920.7087   -2276.2562   -730.08299   -588.72175     -1314.82   -828.02934   -4443.0864 
18609000    205.19343   -4818.9623   -4423.2295   -4818.9623            0    176.27358    20.257407    20.255061    20.912095    8580.5467    331.72584    -845.4609    1042.5558    -386.0202   -234.50237   -7.2183501   -4401.1709 
18610000    216.26314   -4815.0418   -4397.9601   -4815.0418            0   -69.350192    20.091407     20.26579    21.111216    8595.8166    79.762059    29.142487   -316.95512   -52.650181   -161.04232    22.701423    -4406.654 
18611000    213.47994   -4799.1052   -4387.3912   -4799.1052            0   -591.62329    20.057312    20.155349    21.650402    8752.4374    197.10446   -833.92918   -1138.0452   -469.71499     -529.171   -163.16627   -4462.9092 
18612000    207.33401   -4807.2666   -4407.4056   -4807.2666            0   -531.38389    20.202336    20.281519    21.087916    8640.4374   -849.06425    -325.1746   -419.91282    -191.9075   -977.31215   -142.49047   -4474.3663 
18613000    211.11392   -4850.8291   -4443.6782   -4850.8291            0    681.87598    20.266969    20.195152    20.868754    8541.4668   -1732.2835    2574.6026    1203.3088   -226.89856    1583.7426   -623.05278   -4358.7379 
18614000    211.42529   -4814.5984   -4406.8469   -4814.5984            0   -1684.6885    20.190602    20.200096    21.282242    8680.0071   -2062.5346   -1677.7306   -1313.8003   -322.40865    575.49171    560.10918     -4620.11 
18615000    195.77347   -4794.6254   -4417.0598   -4794.6254            0   -1247.8023    20.308651    20.090207    21.301147    8690.9744   -1860.4422   -416.89019   -1466.0744    5.7717422    129.68219    472.08477   -4575.2174 
18616000    198.02266   -4828.8122   -4446.9089   -4828.8122            0   -1527.0944    20.318869    20.172308    21.139668    8664.6952   -1546.8852   -1409.7367   -1624.6612   -573.93981    398.35376    392.93325   -4639.8812 
18617000    203.19418   -4837.5026   -4445.6256   -4837.5026            0   -1053.0682    20.319739    20.198593    20.954198    8600.2343   -2200.3873   -951.46404   -7.3531928    352.30181    604.85942   -1024.6886   -4577.7073 
18618000    203.51697   -4825.8882   -4433.3886   -4825.8882            0   -818.40145    20.055485    20.113339     21.53713    8687.7072   -379.93467   -932.15846   -1143.1112   -312.05953    157.68833     655.2953   -4537.0811 
18619000     205.5032    -4837.652   -4441.3218    -4837.652            0   -898.84741    20.309284    20.077244    21.138006    8619.1159   -846.33497   -1063.9648   -786.24247   -379.53827   -878.67223   -245.26181   -4554.3078 
18620000    209.57965   -4818.5387   -4414.3467   -4818.5387            0   -642.02374     20.15875    20.424792    21.128099    8699.2471   -279.85115   -1493.3933    -152.8268   -465.99925   -498.44805   -1165.1496      -4495.8 
18621000    205.74968   -4844.7476   -4447.9421   -4844.7476            0   -343.76285    20.026179    20.099689    21.284098    8567.2746    356.37993    422.39453    -1810.063   -634.95047    485.51501    119.39384   -4490.8935 
18622000    209.92294   -4801.3725   -4396.5185   -4801.3725            0    336.86566    20.325809    20.139482    21.180572    8670.2937    598.77347    248.50648    163.31702   -669.79006   -10.464009   -904.03227   -4353.9227 
18623000    206.50006   -4812.4675   -4414.2147   -4812.4675            0   -999.41432    20.154444    20.056075    21.460076    8674.5713    -2471.248    601.14064   -1128.1355    567.86768    280.17113   -584.06059   -4540.6504 
18624000    201.85365   -4800.0906   -4410.7989   -4800.0906            0   -547.82277    20.180574    20.231845    21.345103    8714.9971   -1383.4057    687.81184   -947.87445    172.18019   -344.49353    135.23222   -4480.4268 
18625000    205.67364   -4791.5835   -4394.9246   -4791.5835            0    1225.1017    20.157703    20.159635     21.15962    8598.6759    2926.1049   -155.87826    905.07833   -176.93498    42.250902   -387.38385   -4241.2933 
18626000    202.22362   -4834.3202   -4444.3149   -4834.3202            0   -513.25081    20.028803    20.062405    21.354655    8580.8549    525.77231   -671.79717   -1393.7276   -405.24079   -128.28082    169.41316   -4508.5447 
18627000    201.89612   -4807.4405   -4418.0669   -4807.4405            0   -1957.1273    20.330116       20.209    21.319748    8759.2465   -3168.0261   -837.27693    -1866.079   -333.87502    582.78298   -434.19474   -4668.0794 
18628000    213.73901   -4846.4753   -4434.2616   -4846.4753            0   -1658.6236    20.413418     20.05279    21.034924     8610.562   -2526.9022   -1395.1851   -1053.7835   -47.336155   -38.615181    -772.5271   -4642.5453 
18629000    211.41441    -4787.861   -4380.1305    -4787.861            0   -494.06033    20.357273    20.162533    21.198103    8700.8501    -2739.915    831.57612    426.15787   -416.18406    1275.5669    213.91247   -4442.8233 
18630000    200.59171   -4833.8755   -4447.0175   -4833.8755            0   -605.82003    19.961666    20.208187    21.481421    8665.3703    558.25226   -816.57245   -1559.1399    50.972613    549.85223    1138.8718   -4523.5783 
18631000    195.13063   -4831.5666   -4455.2408   -4831.5666            0   -1061.9288    20.189168    20.262227    21.133725    8645.3315   -1173.5446   -1618.0847   -394.15715    651.78227    797.50732    700.98518   -4589.1322 
18632000    220.43613   -4817.4048   -4392.2752   -4817.4048            0    390.10753    20.208247    20.136983    21.125599    8596.7059    968.71182   -176.82773    378.43848    700.98736   -533.34277    823.75146   -4343.3658 
18633000    211.56309   -4798.1903   -4390.1731   -4798.1903            0    615.69325    20.256527    20.122742    21.372448    8711.7704    -32.98965    1095.3468    784.72263   -695.81493    19.383321   -926.14858   -4311.9479 
18634000    204.37228   -4827.0253   -4432.8761   -4827.0253            0    29.355211    20.320897    19.885707    21.122582    8535.5386   -901.87306    1121.6309   -131.69222    292.04381   -717.89415    -535.2178   -4429.2219 
18635000    209.48611   -4829.3715     -4425.36   -4829.3715            0   -1788.8539     20.24226     20.30139    21.137144    8686.2249   -2123.8826     -1544.94   -1697.7391   -466.57791   -990.21808     1375.034   -4651.9714 
18636000    200.52503   -4803.1011   -4416.3717   -4803.1011            0    96.008049    20.077104     20.22774    21.245069     8627.929    777.89706     941.1233   -1430.9962   -289.74977    275.38988   -612.33256    -4404.291 
18637000    194.66871   -4809.3697   -4433.9348   -4809.3697            0   -1061.6346    20.152439    20.144548    21.488035     8723.321   -168.79063    -1460.144   -1555.9691   -35.260176    235.89851    115.18583   -4568.9966 
18638000    204.13382   -4822.6517   -4428.9625   -4822.6517            0    908.47593    20.364371    20.062831    20.930425    8551.4796   -491.98769    1943.4672    1273.9483    160.76846     230.9565   -638.46766   -4315.6623 
18639000    202.42535   -4843.3842   -4452.9899   -4843.3842            0   -963.90132    20.349345    20.153858    21.230614    8707.0531   -1031.1444   -1613.4949   -247.06469    385.27232    701.20043   -343.52771   -4575.3894 
18640000    204.39281   -4801.5158   -4407.3271   -4801.5158            0    -54.39895    20.322095    20.168709    21.170551    8677.1828   -912.13193    217.44371    531.49136   -410.56958    578.94179    30.422144   -4414.2112 
18641000    208.48266   -4829.3754    -4427.299   -4829.3754            0   -67.671533      20.2121    20.079601     21.11385    8569.0755   -973.71352    1463.2707   -692.57181   -398.18619    -469.7672   -576.91233    -4435.756 
18642000    203.06619   -4809.0354   -4417.4051   -4809.0354            0    -1198.022      20.2274    20.326592    21.238082    8732.1243   -271.45052   -1983.0159   -1339.5995   -121.48527   -503.12654    302.73821   -4569.9721 
18643000    207.63767    -4831.021   -4430.5743    -4831.021            0   -780.46999    20.041858    20.241025    21.226798    8611.0277   -639.27263   -925.90097   -776.23638    465.55882    585.17894    60.043324   -4528.5881 
18644000    203.79602   -4805.8182   -4412.7805   -4805.8182            0   -1157.7405    20.324724    20.251932    21.136698    8700.1804   -1889.8955   -1013.1951   -570.13088   -197.40039   -49.729308    16.011519   -4559.6783 
18645000    197.81279   -4806.0478   -4424.5492   -4806.0478            0   -154.90857    20.140335    20.209365    21.304036    8671.2412    -1664.371    1058.4674    141.17796   -112.66234   -15.795665   -406.49267   -4444.1391 
18646000    198.65394   -4817.1418   -4434.0209   -4817.1418            0   -360.49012    20.156571    20.112262     21.13891    8569.5924   -1570.5698    1090.1393   -601.03989   -363.35826   -231.25846    450.57008   -4479.0745 
18647000    204.33278   -4837.2638   -4443.1909   -4837.2638            0    -1640.279    20.327018    20.190474     21.22745    8712.0032   -2856.3853   -828.10425   -1236.3474    271.18669    175.92493    -1272.589   -4651.5976 
18648000    208.29404    -4837.249   -4435.5364    -4837.249            0   -108.52661    20.371606    20.074537    20.960365    8571.7529   -2404.2332     1852.128     226.5253   -566.39046    945.96507    178.83255   -4449.1034 
18649000    214.32028   -4815.5991   -4402.2645   -4815.5991            0   -1315.6068    20.256827    20.325433    21.146792     8706.743    -352.9784   -2508.9033   -1084.9387   -146.56167    -1401.852   -783.88015   -4569.3188 
18650000     197.6845   -4808.3619   -4427.1108   -4808.3619            0    383.16099    20.058962    20.119291    21.263188    8581.2292    1222.3994   -69.437793   -3.4786226    -361.8881   -389.43016    470.48773   -4379.1588 
18651000    216.85155   -4804.9095   -4386.6931   -4804.9095            0   -1299.7813    20.321584    20.038944    21.368256     8701.647   -866.45893   -226.78796   -2806.0969   -344.79986    651.23013    449.71554   -4551.6413 
18652000    208.39526   -4804.7702   -4402.8624   -4804.7702            0   -616.98489     20.23339    20.245067    21.125829    8653.6957    574.35684   -814.95113   -1610.3604    31.482048     481.5761   -982.73047   -4480.7292 
18653000    205.46643   -4819.5015   -4423.2422   -4819.5015            0   -1473.9914    20.162994    20.238097    21.136095    8624.8084    -1231.198   -1072.6651    -2118.111    409.22638   -256.07996    597.06064   -4608.6467 
18654000    208.32604   -4818.0546   -4416.2804   -4818.0546            0   -831.69991    20.199283    20.036774     21.54788    8721.0404   -1265.0749   -613.69627   -616.32853    366.82805    1373.0649    241.99892   -4522.0621 
18655000    206.29665   -4819.2922   -4421.4317   -4819.2922            0    14.836178    20.119341     20.15383    21.196121    8594.6408    166.20968    444.09361   -565.79476    189.62965   0.73410057    -114.8325   -4419.5721 
18656000    203.14891   -4833.9116   -4442.1219   -4833.9116            0   -748.13698    20.216499    20.179827    21.205697    8651.1918   -799.35354   -778.53959   -666.51781   -295.58616   -686.51827   -706.00742   -4536.5134 
18657000    210.82286   -4818.1045   -4411.5149   -4818.1045            0   -819.86008    20.233753    20.090304     21.36976    8686.8555   -1624.7782     -485.259   -349.54304    -303.5073   -493.08436   -478.36827   -4515.3821 
18658000    190.60013   -4810.9466   -4443.3582   -4810.9466            0   -1999.6119     20.30392    20.213663    21.202255    8701.7572   -2169.1329   -1458.7541   -2370.9486   -112.40824   -636.00223   -30.587556   -4697.1214 
18659000    199.66769   -4830.2652   -4445.1892   -4830.2652            0    402.11175    20.143225    20.146805    21.056312    8545.1067   -390.87615    1831.4838   -234.27242   -920.64512   -321.25854    -522.6114   -4395.0774 
18660000    214.38768   -4829.7499   -4416.2853   -4829.7499            0   -1287.9224    20.421478    20.062038    21.189796    8681.3845   -1805.2062   -973.65976   -1084.9012    546.65538      361.403    1528.2924   -4579.3479 
18661000    202.47117   -4830.0231   -4439.5404   -4830.0231            0   -2007.6423    20.295441    20.213422    21.318324     8745.636   -2749.1746   -1088.6183    -2185.134   -193.97609    594.41956    98.391263   -4695.6074 
18662000    204.35988   -4807.8203   -4413.6951   -4807.8203            0   -1936.1127    20.300872    20.129846     21.15048    8643.2161   -2311.7479   -1861.6805   -1634.9097    617.15945    48.847846   -418.36971   -4657.7468 
18663000    200.17758   -4801.6293     -4415.57   -4801.6293            0   -158.77712    20.383069     20.13142    20.995799    8615.4186   -363.00492    -353.7835    240.45707    280.57154    397.78933   -375.78151   -4435.5199 
18664000    207.57533   -4832.0646   -4431.7381   -4832.0646            0    -943.4986     20.19983    20.122586    21.153128    8598.1711   -625.53092   -991.97715   -1212.9877   -10.251839   -652.76033   -639.89377   -4550.0486 
18665000    204.55568   -4813.0201   -4418.5173   -4813.0201            0   -1013.3201    20.304146    20.020648    21.561255    8764.6967     390.5347    -2240.795   -1189.7001    95.858035    -619.8832   -136.44482    -4548.044 
18666000     214.3977    -4818.313    -4404.829    -4818.313            0   -917.13924    20.283882    20.196368    21.176843    8675.3212   -1042.7667   -1138.0476   -570.60349    280.20273    534.93454    876.55228   -4520.8661 
18667000    199.90522   -4802.1109   -4416.5768   -4802.1109            0    373.54434    20.336211    20.091259    20.934915     8553.589    493.68008    1033.7002   -406.74724   -405.35813   -671.90578   -147.19126   -4369.9789 
18668000    218.84454   -4810.9839   -4388.9238   -4810.9839            0   -725.05828    20.223992    20.338046    21.167236     8706.433   -2151.4721    326.95244   -350.65523    -162.8498   -126.46154   -1109.3862   -4480.9877 
18669000    212.29543   -4805.7588   -4396.3292   -4805.7588            0   -765.09973     20.22148    20.075827    21.484004    8721.7094   -1926.4521    338.02873    -706.8758    8.5471602     225.2192    528.01628   -4493.6477 
18670000    209.18288   -4809.8716   -4406.4448   -4809.8716            0   -1230.7588    20.203935    20.192451    21.246268    8667.7753   -1295.2211    -1044.583   -1352.4723    83.162133   -527.46115   -1097.1982   -4562.0257 
18671000    209.58791    -4805.315   -4401.1071    -4805.315            0   -1475.8012    20.338672    20.290534    21.070276    8695.3343   -1266.5296   -1668.3395   -1492.5343   -327.13601    504.87919   -227.22165   -4588.2572 
18672000    202.41262   -4822.2639   -4431.8941   -4822.2639            0    745.22758    20.172924    20.156193    21.196283    8618.6067    1802.4193   -452.59685    885.86031   -462.59787    703.46239   -393.73762   -4338.2238 
18673000    202.29384   -4828.3202   -4438.1796   -4828.3202            0   -2062.4272    20.301837    20.208766    21.287912    8733.8993   -1612.6457   -2823.1032   -1751.5327   -361.74621    728.57076    129.49883   -4700.8811 
18674000    214.97091   -4830.2365    -4415.647   -4830.2365            0   -88.801834    20.093852    20.293483    21.008079    8566.5536    528.87532   -1721.6694    926.38863   -568.15393     175.6061   -1134.3078   -4426.7414 
18675000    213.08981   -4836.0409   -4425.0793   -4836.0409            0    -1434.008    20.239639    20.206356    21.204631     8672.044   -2025.1933    -1373.887   -902.94392   -498.38875   -980.77773    166.94437   -4606.4424 
18676000    195.43558   -4816.3264   -4439.4125   -4816.3264            0    330.38381    20.348936    20.100655    21.146839    8649.6266    576.49425   -684.57102    1099.2282    -540.1017    533.96069    254.73057   -4397.7359 
18677000    210.63328   -4821.2227   -4414.9987   -4821.2227            0   -1382.9677    20.243593    20.290705    21.051743    8647.1461   -204.33886   -2958.4072    -986.1569    133.70021   -108.39219   -287.83534   -4589.4044 
18678000     201.2616   -4806.7808   -4418.6309   -4806.7808            0   -841.59212    20.310262    20.163821    21.166848    8668.5115   -1589.5177   -2363.5557     1428.297   -132.23092    1099.6388   -627.53448   -4525.0261 
18679000    204.88911   -4788.0597   -4392.9138   -4788.0597            0    86.545224    19.999163     20.28701    21.284992    8635.8156    1900.9472   -686.53387    -954.7777    356.38584   -292.49462    764.55149   -4382.0139 
18680000    211.70326   -4814.1215   -4405.8339   -4814.1215            0   -540.90905    20.262588    20.064848    21.097553    8577.5425   -2179.0965    1018.5336   -462.16421    130.27884     810.4521   -1270.1994   -4473.4988 
18681000    204.03857    -4818.352   -4424.8464    -4818.352            0   -607.77917    20.401747    20.012282    21.341654     8713.488   -3114.5846     1863.674   -572.42698   -785.56002   -771.45851    103.52707   -4502.0813 
18682000    205.51037   -4813.0961   -4416.7521   -4813.0961            0   -1363.8565    20.166702    20.331966     21.11538    8657.9117   -569.49853   -2059.0726   -1462.9984   -117.45886   -886.92587    78.058365   -4588.9619 
18683000    195.86581   -4817.5888   -4439.8451   -4817.5888            0   -31.820538    20.269365    20.203154    21.041244    8616.4966   -926.31247    450.17559    380.67526    88.875739    130.82607    695.77943   -4443.8437 
18684000     200.0812   -4818.1911   -4432.3177   -4818.1911            0   -647.13878    20.270433    20.180761    21.336664    8728.2484   -1880.2588      801.318   -862.47555   -194.01379   0.77694991    82.870164   -4514.6936 
18685000    218.26241   -4827.1593   -4406.2219   -4827.1593            0    136.54448    20.071055    20.172671    21.362221    8649.2814      1452.69    234.27252   -1277.3291   -177.28716   -159.64935    130.98638   -4388.9981 
18686000    213.79254     -4808.49   -4396.1731     -4808.49            0   -643.93818    20.280121    20.257691    21.135572    8683.0937   -283.62466   -1237.5396    -410.6503   -12.728615   -619.67066    40.806625   -4477.7176 
18687000    194.61159   -4806.5055   -4431.1807   -4806.5055            0   -1381.6773     20.19259    20.137586    21.162699    8605.3885   -311.77107    -1233.129   -2600.1318   -645.83227   -19.998565     1042.604   -4604.5823 
18688000    210.20676    -4816.848   -4411.4466    -4816.848            0   -176.88498    20.302901    20.125373    21.333228    8716.8306   -390.66437   -709.02712    569.03656   -464.26964    501.60058   -285.35263   -4433.9333 
18689000    197.95163   -4824.5319   -4442.7656   -4824.5319            0   -553.73663    20.099993      20.0614    21.368184    8616.3784    183.73079   -1074.1893   -770.75141   -228.91318    881.89273   -558.95944   -4512.3487 
18690000    208.44316   -4783.4455   -4381.4454   -4783.4455            0   -729.01486    20.450359     20.27262    21.157122    8771.3693   -1448.9326   -931.41738    193.30543   -202.67505    635.10436   -833.78152    -4474.702 
18691000    210.26793   -4820.1996   -4414.6802   -4820.1996            0    -697.2153    20.209204    20.080649    21.205479    8605.4788   -1312.3895    468.90056    -1248.157   -563.59288    515.28558    1418.1098   -4502.1822 
18692000    215.25048   -4824.4762   -4409.3476   -4824.4762            0   -1005.5853    20.136042    20.417838    21.178181    8707.0796   -242.06079   -3213.6193    438.92428   -685.65058   -274.66925   -988.11733   -4537.0406 
18693000    203.90599   -4816.1218   -4422.8719   -4816.1218            0      560.447    20.310214    20.070978    21.011843    8565.3909    350.81583    865.84494    464.68024    -335.8573    563.99561   -365.30785   -4352.8623 
18694000    217.00071   -4811.9235   -4393.4194   -4811.9235            0   -1288.6794    20.255855    20.128767    21.395872    8723.6401   -1115.5938   -1367.3098   -1383.1346    408.51476   -154.43966   -694.59914   -4557.3721 
18695000    206.30624   -4816.9288   -4419.0499   -4816.9288            0   -724.36251    20.363774    20.067216    21.286752    8698.7088   -1561.4137   -152.02496    -459.6489   -919.90975     769.5213    44.605517   -4510.9438 
18696000    209.54912   -4824.3874   -4420.2543   -4824.3874            0    -134.6903     20.22995    20.151534     21.02815    8572.4307   -2122.5078    1389.1461    329.29072    -14.74905    413.33353   -348.28735   -4437.0933 
18697000    206.66516   -4817.3481    -4418.777   -4817.3481            0   -1983.2313     20.20485    20.310226    21.139153    8674.7703   -2769.0823    -755.9036   -2424.7081   -561.11585    338.16518    734.34593   -4669.6808 
18698000    208.68502   -4818.2619   -4415.7953   -4818.2619            0   -471.54544    20.176807    19.972894    21.484759    8658.1264    115.25022    1060.8027   -2590.6892   -302.74994    565.21895    900.89983   -4475.3373 
18699000    206.49332   -4792.3319   -4394.0921   -4792.3319            0    779.34385    20.253611    20.309049    21.019412    8645.9478    779.91426    138.72096    1419.3963   -430.13039    455.02571   -260.75844   -4295.8229 
18700000    198.13272   -4814.1524   -4432.0368   -4814.1524            0   -1791.2682    20.193174    20.309716    21.131348    8666.3388   -2141.1385   -1837.5279    -1395.138    178.86644    772.89261    186.45758   -4658.4346 
18701000    192.37792   -4796.3575   -4425.3405   -4796.3575            0   -2309.9097     20.39028     20.03272    21.408699    8744.8709    -2961.058   -1709.7399   -2258.9311   -141.50499    253.37066    241.26482   -4719.9348 
18702000    203.18727   -4807.5227    -4415.659   -4807.5227            0   -2147.5785    20.209392    20.250849    21.419386    8766.0412   -2066.3032   -1981.2405   -2395.1919   -193.55573   -453.13861    1256.6219   -4690.2134 
18703000    204.04913   -4835.4729    -4441.947   -4835.4729            0    221.47446    20.044297    20.248525    21.159741    8588.0498    1134.8593   -90.507569   -379.92838   -628.60162    117.46674   -568.69756   -4414.2078 
18704000    197.22827   -4820.6377   -4440.2664   -4820.6377            0   -1368.6851    20.324972    20.298131     21.13326    8718.7156   -2535.7384   -2499.8249     929.5079   -48.210549    1173.2659    915.61713   -4614.2995 
18705000    205.45528   -4841.3605   -4445.1227   -4841.3605            0   -1066.8291    20.082543    20.210752     21.28206    8638.0332    260.85755   -1787.2789    -1674.066   -316.84175   -268.10965   -817.34907   -4579.5184 
18706000    198.30213   -4824.9526   -4442.5103   -4824.9526            0     -1353.71    20.211588    20.333375    21.126398    8682.3112   -1853.5685   -2384.0079    176.44646   -849.45245   -166.99191   -1528.5255   -4613.9206 
18707000     198.4286   -4797.6994   -4415.0131   -4797.6994            0   -1852.5102    20.051282    20.375263    21.317189    8709.1408   -1354.1681   -1863.6736   -2339.6888    268.07326    24.749283    1496.8101   -4650.3076 
18708000    211.69172    -4826.647   -4418.3817    -4826.647            0   -222.67144    20.285695    20.094336    21.155374    8623.5138   -161.54787    -921.4031    414.93663   -825.17894    107.24637    208.53844    -4446.386 
18709000    205.06924   -4821.7716   -4426.2784   -4821.7716            0   -722.39808    20.210445    20.193883    21.329336    8705.0858   -1295.2479   -380.11751   -491.82884   -272.13628    2227.9822    692.26205   -4517.9902 
18710000    208.44319   -4800.9986   -4398.9983   -4800.9986            0   -230.47912    19.980899    20.319566    21.188136    8602.4508    258.83994    62.410274   -1012.6876   -81.028569     195.5828   -834.11069   -4427.9138 
18711000    204.35005   -4804.7009   -4410.5946   -4804.7009            0   -1766.1284    20.350657    20.298084    21.146955    8735.3703   -912.37407   -2504.5102    -1881.501   -408.30892   -179.96659   -805.52325    -4635.593 
18712000    200.63226   -4807.8517   -4420.9155   -4807.8517            0    799.20266    20.172679    20.155693    21.178307    8610.9791    933.07945    1143.1105    321.41801   -520.57998    237.38257    -622.9094   -4320.5498 
18713000    214.03232   -4808.7202   -4395.9408   -4808.7202            0   -182.68257    20.206811    19.935075    21.426647    8631.1741   -561.25415    1053.8527   -1040.6462   -212.28468    899.08424    1204.6682   -4418.9363 
18714000    209.89447   -4816.2167   -4411.4175   -4816.2167            0    307.34017    20.312623    20.163654    21.114084    8647.8366   -605.83802    131.43312    1396.4254   -27.202171    100.60775    -228.4388   -4372.6558 
18715000    200.84187   -4846.1527   -4458.8123   -4846.1527            0    -689.5117    20.338199    20.273362    20.877512    8608.2925   -709.87092   -1006.0501   -352.61404   -75.106874    256.86015    94.661801   -4545.3757 
18716000      208.551   -4833.3268   -4431.1187   -4833.3268            0    60.261575    20.156209    20.124898    21.201745    8600.3106   -146.30902     102.2538    224.83994   -934.45135    1049.7254    376.61041   -4423.5603 
18717000    200.85908   -4836.0346    -4448.661   -4836.0346            0   -1898.6468    20.281344    20.139399    21.432822    8754.3236    -2315.317   -1839.5723    -1541.051   -256.99043     931.1178   -378.43167   -4691.0666 
18718000    212.71543   -4817.9172   -4407.6776   -4817.9172            0    -515.1758    20.213726    20.299615    20.996472    8615.5006   -1233.7896   -308.36203   -3.3757245    107.76719    467.67064    -754.4322   -4472.4085 
18719000    201.32262    -4796.985   -4408.7174    -4796.985            0   -1386.7548    20.242779    20.439232    21.040709    8705.5274   -1550.0954   -1861.2599   -748.90901    296.65576    919.95813    401.34452   -4584.7814 
18720000    191.85639   -4810.1302   -4440.1191   -4810.1302            0    182.13057    20.231336    20.047379    21.339358     8654.929    1845.4706   -491.21055   -807.86831    -239.2324    204.68123     1416.361   -4417.1299 
18721000    211.61484   -4831.0759   -4422.9589   -4831.0759            0    -1803.061    20.358172    20.136684    21.291379    8728.3171   -3141.7446   -473.74742   -1793.6909   -153.40972   -414.45682     -499.904   -4652.4769 
18722000    201.47528   -4828.1916   -4439.6295   -4828.1916            0   -338.89121    20.110171    20.239847     21.09776    8587.3538   -1070.4867    255.22836   -201.41526   -282.73778     16.18674   -268.43884   -4482.0715 
18723000    194.10344   -4807.5967   -4433.2519   -4807.5967            0   -1106.2327    20.182057    20.325485    21.123619    8665.1216   -1634.8721   -1271.9115   -411.91436   -287.78078    146.66183    1155.1116   -4573.0486 
18724000    198.69798   -4804.6916   -4421.4859   -4804.6916            0   -2392.0472    20.305903    20.193063    21.048636    8630.7485   -1756.3469   -3167.1936   -2252.6012   -50.143727    1142.5933    584.67397   -4722.5743 
18725000    204.16208    -4831.651   -4437.9073    -4831.651            0   -369.44789    20.027772    20.264245    21.342891    8661.9628     620.7174    -681.9939   -1047.0672   -263.90769   -536.69743    360.10739   -4484.5781 
18726000    208.87955   -4823.1304   -4420.2886   -4823.1304            0    887.90782    20.082947    20.187896    21.105094    8556.6901    554.33399    1294.0011    815.38836   -255.80733    306.28525   -498.27398   -4309.4861 
18727000    221.14466   -4797.2496   -4370.7535   -4797.2496            0   -2276.3747    20.370261    20.335547    21.102722    8741.6002   -3219.2756   -2414.6614   -1195.1872   -315.62266   -52.523164    118.36446   -4660.9623 
18728000    217.88865   -4815.0039   -4394.7873   -4815.0039            0   -1246.8143     20.05431    20.178824    21.307619    8622.6048   -1631.0379    215.62642   -2325.0315   -319.41419    106.55867    592.97152   -4551.5765 
18729000    203.74377   -4792.7513   -4399.8143   -4792.7513            0   -1971.7666    20.363253    20.212184    21.396989    8806.6969   -2435.8803   -1489.3637   -1990.0558   -29.707964    629.50759   -45.816713   -4653.0614 
18730000    215.23485   -4805.7354   -4390.6368   -4805.7354            0    140.54906    20.231154    20.106669    21.179268    8615.3265    265.46011    -140.6272    296.81427    517.47745    568.67588   -662.82517   -4372.9775 
18731000     206.6293   -4792.6736   -4394.1716   -4792.6736            0   -502.01051    20.292931    20.340355    21.150922    8730.3695   -2059.7101    549.14283    4.5357038   -694.92342    539.60526    32.562028   -4458.0894 
18732000    204.30004   -4808.4135   -4414.4037   -4808.4135            0    62.204517    20.327066     20.01042    21.300995     8664.246     1588.979   -1194.0591   -208.30641    12.414372   -417.02995    -290.4942   -4406.5436 
18733000    210.16484   -4837.4555   -4432.1349   -4837.4555            0   -709.85772    20.301351    20.102775    21.282314    8685.5994   -1199.4429   -1013.4769    83.346656    184.61175   -209.59215   -205.07494    -4522.053 
18734000    210.80563     -4817.63   -4411.0736     -4817.63            0    439.26627    20.163559    20.277488    21.110093    8631.2059    445.93101    656.22783    215.63996   -84.536818    132.28704   -258.37618   -4355.7799 
18735000    204.67631   -4835.6013   -4440.8658   -4835.6013            0   -1497.6868    20.117929    20.184349     21.32069    8657.6351   -1510.3993   -1058.0197   -1924.6413    559.22636    478.44678    793.00991   -4629.9678 
18736000    198.37057   -4816.7667   -4434.1923   -4816.7667            0   -647.47575     20.30644    20.209275    20.820521    8544.2927   -2503.9823    1142.1672    -580.6122   -77.355561    229.87146    326.50818   -4514.8741 
18737000    201.32988   -4811.7063   -4423.4247   -4811.7063            0   -246.81894    20.229577    20.199964    21.167865    8649.9669   -311.84901      -1183.2    754.59217   -76.690232   -643.50075   -1828.4672   -4454.5611 
18738000    211.54235   -4814.1286   -4406.1513   -4814.1286            0   -1647.0966    20.119472    20.159103    21.521025    8728.7236    -1080.248   -782.76283   -3078.2788   -183.53013   -34.329775   -1145.6504   -4615.8259 
18739000    200.87536   -4816.0853   -4428.6803   -4816.0853            0    1528.9181    20.028499    20.155148    21.107772    8520.7296    2312.3327    1182.5532    1091.8683   -202.78086   -235.72656   -551.74822   -4238.6876 
18740000    220.63545   -4834.0249   -4408.5109   -4834.0249            0   -1497.1163    20.156148     20.40632    21.126053    8689.4164   -1275.9952   -2591.3487   -624.00489    422.89243    1419.2939    196.34294   -4598.2348 
18741000     197.2264   -4817.7307    -4437.363   -4817.7307            0     -1188.72    20.362596    20.238756    21.037195    8669.7144   -881.90091   -1596.0962   -1088.1629   -73.874679   -400.62567   -1054.6766   -4587.6635 
18742000    202.34694   -4808.5572   -4418.3141   -4808.5572            0   -1534.1191    20.167459     20.17698    21.478501    8739.9979   -1251.8146   -1224.4144   -2126.1283    -56.70231   -66.971178   -421.66756    -4613.859 
18743000    209.21057     -4803.21   -4399.7298     -4803.21            0   -925.62152    20.372847    20.162096    21.154913     8689.577   -3044.4324    199.49316    68.074684    439.21895    357.89937   -105.15202   -4517.0325 
18744000    206.23357    -4804.674   -4406.9352    -4804.674            0    84.748639     20.27923     20.27301    20.993684    8630.9454   -361.11737   -276.59749    891.96077   -355.62543    42.123269    47.873708   -4396.2676 
18745000    221.08565   -4807.2104   -4380.8282   -4807.2104            0   -979.52392    20.272225    20.027992    21.316512    8654.7591   -1434.5193   -491.43261   -1012.6198   -112.88023    112.50888   -998.66518   -4504.4645 
18746000    209.05887   -4804.2642   -4401.0766   -4804.2642            0   -3973.0724    20.316607    20.126585    21.454943    8773.0101   -4989.9293   -2332.9013   -4596.3868   -174.30457    337.62547   -385.36648   -4909.4128 
18747000     207.7113   -4823.3356   -4422.7469   -4823.3356            0   -333.64881    20.503995    20.158783    20.833875     8611.382   -2177.1101    174.34622    1001.8174    -102.5846   -110.46853   -433.66812   -4464.6492 
18748000    213.20417   -4805.1623   -4393.9801   -4805.1623            0    -693.2098    20.044745    20.385461    21.190868    8659.0415    474.18637    -2995.073     441.2572   -466.60136    450.17339   -460.96594   -4481.5209 
18749000    195.08973   -4817.0092   -4440.7622   -4817.0092            0   -2178.1924    20.173752    20.342001    21.342223    8758.3037   -1473.6996    -1906.806   -3154.0717   -373.30677   -616.42152   -29.121486   -4718.9846 
18750000    217.71389   -4803.2931   -4383.4136   -4803.2931            0    19.342154    20.219924    20.193927    21.145665    8634.1912   -236.13286   -54.266123    348.42544   -88.319803    1435.0374    1115.9228    -4380.978 
Loop time of 469.231 on 64 procs for 250000 steps with 972 atoms

Performance: 92.066 ns/day, 0.261 hours/ns, 532.787 timesteps/s
99.2% CPU use with 64 MPI tasks x 1 OpenMP threads

MPI task timing breakdown:
Section |  min time  |  avg time  |  max time  |%varavg| %total
---------------------------------------------------------------
Pair    | 17.96      | 26.428     | 33.499     |  76.6 |  5.63
Bond    | 0.26597    | 0.27463    | 0.29041    |   1.0 |  0.06
Kspace  | 193.03     | 205.96     | 229.73     |  60.4 | 43.89
Neigh   | 2.0275     | 2.3776     | 3.3506     |  24.7 |  0.51
Comm    | 91.607     | 111.62     | 121.22     |  74.0 | 23.79
Output  | 1.1592     | 1.1596     | 1.1638     |   0.1 |  0.25
Modify  | 111.35     | 114.27     | 119.76     |  18.0 | 24.35
Other   |            | 7.145      |            |       |  1.52

Nlocal:        15.1875 ave          19 max          11 min
Histogram: 2 8 3 7 0 10 18 10 5 1
Nghost:        2132.92 ave        2157 max        2092 min
Histogram: 2 0 1 6 12 7 11 8 7 10
Neighs:        4569.97 ave        6202 max        2946 min
Histogram: 3 4 7 6 13 8 10 7 5 1

Total # of neighbors = 292478
Ave neighs/atom = 300.90329
Ave special neighs/atom = 2.0000000
Neighbor list builds = 5374
Dangerous builds = 0

unfix		3
unfix		2
unfix		1

write_data	data.final.${pid}
write_data	data.final.0
System init for write_data ...
PPPM initialization ...
  extracting TIP4P info from pair style
  using 12-bit tables for long-range coulomb (../kspace.cpp:340)
  G vector (1/distance) = 0.37137779
  grid = 24 24 25
  stencil order = 5
  estimated absolute RMS force accuracy = 0.0035348842
  estimated relative force accuracy = 1.0645199e-05
  using double precision FFTW3
  3d grid and FFT values/proc = 2366 288
Last active /omp style is kspace_style pppm/tip4p/omp
WARNING: Not all mixed pair coeffs generated from mixing. Use write_data with 'pair ij' option to store all pair coeffs. (../write_data.cpp:312)

write_restart   restart.lmp.${pid}
write_restart   restart.lmp.0
System init for write_restart ...
PPPM initialization ...
  extracting TIP4P info from pair style
  using 12-bit tables for long-range coulomb (../kspace.cpp:340)
  G vector (1/distance) = 0.37137779
  grid = 24 24 25
  stencil order = 5
  estimated absolute RMS force accuracy = 0.0035348842
  estimated relative force accuracy = 1.0645199e-05
  using double precision FFTW3
  3d grid and FFT values/proc = 2366 288
Last active /omp style is kspace_style pppm/tip4p/omp
Total wall time: 0:07:50
