LAMMPS (30 Jul 2021)
  using 1 OpenMP thread(s) per MPI task
package omp 0
using multi-threaded neighbor list subroutines
echo both

include		in.partitions
variable        pid world 0
include		in.temp
variable        temperature equal 265.02
variable	tempDamp equal 100.0
include		in.pressure
variable        pressure equal 9000.0
variable        pressureDamp equal 1000.0 # This is 1 ps
include		in.seed
variable        seed world 745823

units		real
atom_style	full
read_restart	restart.lmp.${pid}
read_restart	restart.lmp.0
Reading restart file ...
  restart file = 30 Jul 2021, LAMMPS = 30 Jul 2021
  restoring atom style full from restart
  orthogonal box = (0.59736131 1.7951440 0.72877941) to (17.610211 21.834034 21.484416)
  4 by 4 by 4 MPI processor grid
  restoring pair style lj/cut/tip4p/long/omp from restart
  restoring bond style harmonic/omp from restart
  restoring angle style harmonic/omp from restart
  864 atoms
  576 bonds
  288 angles
Finding 1-2 1-3 1-4 neighbors ...
  special bond factors lj:    0        0        0       
  special bond factors coul:  0        0        0       
     2 = max # of 1-2 neighbors
     1 = max # of 1-3 neighbors
     1 = max # of 1-4 neighbors
     2 = max # of special neighbors
  special bonds CPU = 1.136 seconds
  read_restart CPU = 1.477 seconds
include 	in.setup
variable	out_freq equal 1000
variable	out_freq2 equal 10000
variable	out_freq3 equal 1000

timestep	2.0

neigh_modify    delay 7 every 1

include		in.tip4p
# This is TIP4P/Ice

# create groups ###
group ox type 2
288 atoms in group ox
group hy type 1
576 atoms in group hy

# set charges - beside manually ###
set group ox charge -1.1794
Setting atom values ...
  288 settings made for charge
set group hy charge 0.5897
Setting atom values ...
  576 settings made for charge

# ### TIP3P Potential Parameters ###
pair_style lj/cut/tip4p/long/omp 2 1 1 1 0.1577 8.5
pair_coeff 1 1*2 0.000 0.000
pair_coeff 2 2 0.21084 3.1668
bond_style  harmonic
bond_coeff  1 450 0.9572
angle_style harmonic
angle_coeff 1 55 104.52
kspace_style pppm/tip4p/omp 1.0e-5
pair_modify tail yes

thermo          ${out_freq}
thermo          1000
thermo_style    custom step temp pe etotal epair emol press lx ly lz vol pxx pyy pzz pxy pxz pyz enthalpy

restart 	${out_freq3} restart.lmp.${pid} restart2.lmp.${pid}
restart 	1000 restart.lmp.${pid} restart2.lmp.${pid}
restart 	1000 restart.lmp.0 restart2.lmp.${pid}
restart 	1000 restart.lmp.0 restart2.lmp.0


include         in.dump
dump            myDump all atom ${out_freq2} dump.water.${pid}
dump            myDump all atom 10000 dump.water.${pid}
dump            myDump all atom 10000 dump.water.0
dump            myDump2 all dcd ${out_freq2} dump.dcd
dump            myDump2 all dcd 10000 dump.dcd
dump_modify     myDump append yes
dump_modify     myDump2 append yes


variable natoms 	equal  "count(all)"                        # NUMBER ATOMS
variable H      	equal  "enthalpy/v_natoms"                 # ENTHALPY-per-atom
variable Vol      	equal  "vol/v_natoms"                 # volume-per-atom
fix AVG all 		ave/time ${out_freq} 1 ${out_freq} v_Vol v_H file vol_enthalpy.dat
fix AVG all 		ave/time 1000 1 ${out_freq} v_Vol v_H file vol_enthalpy.dat
fix AVG all 		ave/time 1000 1 1000 v_Vol v_H file vol_enthalpy.dat


timer           timeout 23:50:00 every 1000
New timer settings: style=normal  mode=nosync  timeout=23:50:00

fix 		1 all shake 1e-6 200 0 b 1 a 1
       0 = # of size 2 clusters
       0 = # of size 3 clusters
       0 = # of size 4 clusters
     288 = # of frozen angles
  find clusters CPU = 0.052 seconds
fix             2 all nph iso ${pressure} ${pressure} ${pressureDamp}
fix             2 all nph iso 9000 ${pressure} ${pressureDamp}
fix             2 all nph iso 9000 9000 ${pressureDamp}
fix             2 all nph iso 9000 9000 1000
fix             3 all temp/csvr ${temperature} ${temperature} ${tempDamp} ${seed}
fix             3 all temp/csvr 265.02 ${temperature} ${tempDamp} ${seed}
fix             3 all temp/csvr 265.02 265.02 ${tempDamp} ${seed}
fix             3 all temp/csvr 265.02 265.02 100 ${seed}
fix             3 all temp/csvr 265.02 265.02 100 745823

run             250000
PPPM initialization ...
  extracting TIP4P info from pair style
  using 12-bit tables for long-range coulomb (../kspace.cpp:340)
  G vector (1/distance) = 0.37407775
  grid = 24 24 24
  stencil order = 5
  estimated absolute RMS force accuracy = 0.0031820435
  estimated relative force accuracy = 9.5826294e-06
  using double precision FFTW3
  3d grid and FFT values/proc = 2535 216
Last active /omp style is kspace_style pppm/tip4p/omp
Neighbor list info ...
  update every 1 steps, delay 7 steps, check yes
  max neighbors/atom: 2000, page size: 100000
  master list distance cutoff = 10.8154
  ghost atom cutoff = 10.8154
  binsize = 5.4077, bins = 4 4 4
  1 neighbor lists, perpetual/occasional/extra = 1 0 0
  (1) pair lj/cut/tip4p/long/omp, perpetual
      attributes: half, newton on, omp
      pair build: half/bin/newton/omp
      stencil: half/bin/3d
      bin: standard
Per MPI rank memory allocation (min/avg/max) = 9.236 | 9.239 | 9.243 Mbytes
Step Temp PotEng TotEng E_pair E_mol Press Lx Ly Lz Volume Pxx Pyy Pzz Pxy Pxz Pyz Enthalpy 
 8000000    270.15313    -3815.538   -3352.5047    -3815.538            0    7661.8549     17.01285     20.03889    20.755637    7075.9832    8072.3711    8082.0265     6831.167    306.81486   -170.54357   -1542.2562   -2561.8323 
 8001000    271.13347   -3843.5566   -3378.8431   -3843.5566            0    9906.0309    16.940236    19.953361    20.667049    6985.7653    10920.092    7351.1795    11446.821   -849.14181     605.4523   -565.28277   -2369.6145 
 8002000    264.25728   -3837.7902   -3384.8623   -3837.7902            0    8828.8574    16.945248    19.959264    20.673163    6991.9671    8561.2721    9633.1995    8292.1006    428.28313   -816.37871    525.71153   -2484.5778 
 8003000    257.35062   -3852.3934   -3411.3032   -3852.3934            0    10841.743    16.982781    20.003473    20.718953    7038.5309     10803.08    10653.148        11069    12.414074    193.92227    1974.2676    -2298.401 
 8004000    261.79174   -3892.2993   -3443.5972   -3892.2993            0    9035.9193    16.923744    19.933935    20.646928    6965.3821    9076.8057    9221.2047    8809.7475   -1422.3602    883.71085    690.38117   -2525.7018 
 8005000    272.38256   -3859.3558   -3392.5015   -3859.3558            0    9777.3146    16.975351    19.994721    20.709888    7029.2962    10062.284    9715.8756    9553.7844   -206.41617   -2845.7572    489.56015   -2390.1793 
 8006000    283.25858   -3888.5092   -3403.0137   -3888.5092            0    8527.8334    16.993263     20.01582    20.731742    7051.5722    8528.4473    9258.6883    7796.3647   -341.34739    282.40119   -1044.8958   -2526.0118 
 8007000     260.4662   -3827.7819   -3381.3517   -3827.7819            0    8464.0885    16.977761     19.99756    20.712829    7032.2909    8166.8766     8518.991    8706.3979   -30.154617   -977.47843   -947.21084   -2513.2854 
 8008000    276.72248   -3852.5607   -3378.2678   -3852.5607            0    8564.7727    16.928062    19.939021    20.652197    6970.7152    8584.9122    8090.7635    9018.6425    944.63505    272.69583   -602.96783   -2507.5668 
 8009000    263.48232    -3821.816   -3370.2163    -3821.816            0    10051.042    16.959757    19.976353    20.690863    7009.9422      9090.31    10541.284    10521.531     407.0211   -83.545989    1063.3695     -2342.67 
 8010000    258.13903   -3827.0053   -3384.5638   -3827.0053            0    8703.6695    16.918708    19.928004    20.640785    6959.1661    7872.2867     8574.451    9664.2707    301.35351    1762.2208    329.21615   -2501.2084 
 8011000    253.24576   -3836.8482   -3402.7937   -3836.8482            0    9426.6666    16.913888    19.922326    20.634904    6953.2198    10247.404    11619.802    6412.7944    -815.1183    1034.9345    -224.9253   -2446.8771 
 8012000    286.91767   -3847.9604   -3356.1934   -3847.9604            0    9590.5106    16.970851    19.989421    20.704399    7023.7084    9144.7801    10125.735    9501.0162   -1181.5028   -499.96934    1654.1248    -2373.803 
 8013000    279.12914   -3821.3889   -3342.9711   -3821.3889            0     10068.14    16.962473    19.979552    20.694177    7013.3107    9019.7537    9786.5244    11398.141     553.3629     -755.694    556.45487   -2313.1822 
 8014000    258.95371   -3807.9516   -3364.1138   -3807.9516            0    11336.514    16.865982      19.8659    20.576459    6894.3055     12627.24    9671.4859    11710.816   -620.55851   -40.529718    -1229.252   -2224.2684 
 8015000     267.6033   -3834.1219    -3375.459   -3834.1219            0    10036.602    16.941141    19.954427    20.668153    6986.8848      12393.3    10947.643    6768.8628    12.171661    276.34413   -486.88611    -2352.764 
 8016000    269.88528   -3855.0006   -3392.4264   -3855.0006            0    9943.0282    16.968298    19.986414    20.701284    7020.5391    9746.1081    7874.1219    12208.855   -853.18082    518.23914    1019.0653    -2374.386 
 8017000    264.83851   -3842.6726   -3388.7485   -3842.6726            0    6497.6014    17.010691    20.036347    20.753003    7073.2899    4908.1998    8909.9963    5674.6082    421.69877   -1445.7393   -765.37795   -2718.4775 
 8018000    268.93279   -3893.3451   -3432.4035   -3893.3451            0    8925.6429    16.884856     19.88813    20.599485    6917.4766    9406.7915    7816.1573      9553.98   -1368.7932    222.31572   -687.80389   -2531.9463 
 8019000    268.82961   -3872.5525   -3411.7878   -3872.5525            0    7895.3896    16.953096    19.968508    20.682738    7001.6869    9249.4887    5936.4908    8500.1892    621.04524   -553.45975    2275.7116   -2605.5704 
 8020000    263.04158   -3861.0974   -3410.2532   -3861.0974            0    9364.7054    16.873183    19.874381    20.585244    6903.1399    8881.1046    9642.7883    9570.2232    887.58937    880.05304    415.89606   -2467.4594 
 8021000    259.79715   -3858.0413   -3412.7579   -3858.0413            0    10670.918    16.816836    19.808011      20.5165    6834.2116    10897.662    11617.137    9497.9556    536.68194    284.99232   -1134.2176   -2349.1879 
 8022000    263.97027   -3847.1066   -3394.6706   -3847.1066            0    9218.6646    16.893634     19.89847    20.610194    6928.2708    9241.0818    8691.2428    9723.6691    1323.1247    1191.5774   -1119.3835   -2463.2009 
 8023000    258.51875   -3873.3063   -3430.2141   -3873.3063            0    9471.4111    16.831289    19.825035    20.534133    6851.8478    10681.691    6647.6655    11084.877    1165.4732    2140.9695    -32.81508   -2483.7627 
 8024000    284.76693   -3851.2609   -3363.1801   -3851.2609            0    6895.1873    16.997997    20.021395    20.737517    7057.4666    5010.2995    7777.4231    7897.8394   -61.679969    610.34487   -202.57342   -2653.4867 
 8025000    260.53301   -3848.2911   -3401.7465   -3848.2911            0    9036.7061    16.896458    19.901795    20.613639    6931.7449    9985.6904    9490.5049    7633.9231   -1018.9046     722.9163   -115.36235   -2488.2043 
 8026000    269.14866   -3834.0591   -3372.7475   -3834.0591            0    8936.3817    16.970313    19.988788    20.703743    7023.0405    8833.8633    8222.4941    9752.7877    -751.2643    1004.9055   -283.76043    -2457.449 
 8027000    257.15263   -3844.7584   -3404.0076   -3844.7584            0    11279.983    16.962845    19.979991    20.694631    7013.7724    10938.827    11936.947    10964.175    980.48662     831.8684    279.02308    -2250.193 
 8028000    256.72307   -3866.2361   -3426.2215   -3866.2361            0    8982.7507    16.979262    19.999328    20.714661     7034.157    8793.7618    9149.3861    9005.1042   -1972.3442    1920.1259    -656.3849   -2504.7174 
 8029000    259.60793   -3897.7053   -3452.7462   -3897.7053            0    9258.6015    16.986944    20.008377    20.724032    7043.7085    10385.831    7373.5579    10016.415    1256.8876    611.00627    32.286019   -2501.6539 
 8030000    279.87378   -3879.0405   -3399.3464   -3879.0405            0     8608.688    17.009851    20.035357    20.751978    7072.2419    9812.1923    6689.2607     9324.611    1198.4249   -540.51389    318.37292   -2511.4343 
 8031000    269.23033   -3836.6161   -3375.1645   -3836.6161            0    8230.3086    17.031575    20.060945    20.778481    7099.3729     9059.604    7326.5535    8304.7682    2467.7058    1363.0713    460.83163   -2523.0224 
 8032000     267.3562   -3841.4568   -3383.2175   -3841.4568            0    10035.773    16.962519    19.979606    20.694233    7013.3676    9131.6197    9857.7132    11117.987   -607.54292   -430.02766   -175.05748   -2356.7307 
 8033000    255.99728   -3805.3571   -3366.5866   -3805.3571            0    8467.0309    16.983283    20.004064    20.719565    7039.1549    7969.7671    9300.6609    8130.6647   -718.78384    477.96019   -998.50379   -2497.3709 
 8034000    261.26845   -3870.3597   -3422.5545   -3870.3597            0    8722.0673    16.946079    19.960243    20.674177    6992.9959    11195.439    7992.3364     6978.427    426.49351   -54.246985    685.98711   -2533.0286 
 8035000     253.9352   -3892.7507   -3457.5145   -3892.7507            0    5310.0065    17.029542    20.058551    20.776001     7096.831    5930.3669    5112.7001    4886.9526   -457.49965    510.36331    536.89384   -2907.9288 
 8036000    253.99815    -3864.005   -3428.6609    -3864.005            0    7575.9495    16.986556    20.007919    20.723559    7043.2258    8549.4302    7087.7198    7090.6987   -1395.8891    1405.7819   -1387.4741   -2650.4728 
 8037000     278.1332    -3859.291   -3382.5803    -3859.291            0    8141.8661    17.002314     20.02648    20.742784    7062.8455    8770.2839    8894.0718    6761.2425    637.94706    1071.2132    456.03152   -2543.9326 
 8038000    268.59644   -3851.9305   -3391.5654   -3851.9305            0    9081.8947    16.931359    19.942905    20.656218    6974.7886     10319.37    7196.3574    9729.9564    -357.3095   -1504.2766   -297.09581   -2467.7538 
 8039000    266.42648   -3837.8089    -3381.163   -3837.8089            0     10218.59    16.938309    19.951091    20.664697    6983.3811     10294.03    8831.5891    11530.151    228.46065    148.76251    961.58012   -2340.4461 
 8040000    264.85653   -3874.1679   -3420.2128   -3874.1679            0     8010.485    16.977692    19.997478    20.712744     7032.205    8053.6388    7231.3062    8746.5101   -69.462325    2137.4979    13.221053   -2598.6776 
 8041000    259.94507   -3808.7022   -3363.1652   -3808.7022            0    9318.6774    16.910624    19.918481    20.630922     6949.195    9329.1068    8236.8598    10390.066    550.93755   -63.338497    2027.9563   -2418.7463 
 8042000    261.67166   -3837.5684   -3389.0722   -3837.5684            0    9958.2596    16.860636    19.859602    20.569937    6887.7513    10198.276    10122.894    9553.6094   -111.13327   -164.13895   -288.44085   -2388.7572 
 8043000    272.76633   -3831.3827   -3363.8705   -3831.3827            0    9983.0488    16.850217     19.84733    20.557226    6874.9904    11938.202    8932.1893     9078.755   -595.50272   -125.71553    283.87808   -2362.9233 
 8044000    274.09135   -3845.8777   -3376.0945   -3845.8777            0    9109.1823    16.927357    19.938191    20.651336    6969.8439    11240.942    8456.3165    7630.2882   -795.97111    230.64574    1345.6013   -2450.1641 
 8045000    261.15643   -3890.1487   -3442.5355   -3890.1487            0    5922.5888    16.947116    19.961464    20.675442    6994.2799    5148.9164    8014.8088    4604.0411   -966.23559   -1072.6996    1604.1263   -2838.4054 
 8046000    274.73666   -3856.0691   -3385.1799   -3856.0691            0    8515.4387    16.931215    19.942735    20.656043    6974.6104    10059.185    5380.1209     10107.01   -260.96866   -661.67349    446.03193   -2519.0104 
 8047000    263.74077    -3862.243   -3410.2003    -3862.243            0    9426.6873    17.001091     20.02504    20.741291    7061.3213    11434.093    8560.4642    8285.5043   -1492.4307   -660.34194     1068.214     -2439.42 
 8048000    269.04825   -3843.3604   -3382.2209   -3843.3604            0    10400.089    16.912695    19.920921    20.633449    6951.7486    9914.6443    10509.279    10776.343   -448.95434    1190.3104     2586.723    -2327.817 
 8049000    274.35064   -3851.2075   -3380.9799   -3851.2075            0    9504.9802    16.952864    19.968235    20.682455    7001.3994    9208.3262    9797.8229    9508.7915   -1927.5735   -1052.9839   -578.32007   -2410.4432 
 8050000    274.95247   -3875.9821    -3404.723   -3875.9821            0    8844.8195    16.988136     20.00978    20.725486    7045.1908    10644.252    8377.1404    7513.0662   -2113.3907    12.463126   -774.98435   -2495.9454 
 8051000    283.81119   -3867.5146   -3381.0719   -3867.5146            0     7954.685    16.980612    20.000918    20.716307    7035.8341    7751.0311    8004.5481    8108.4756    602.12722    1147.2429   -1166.8919   -2564.8384 
 8052000    261.19897   -3849.1556   -3401.4695   -3849.1556            0    10408.142     16.89487    19.899926    20.611702    6929.7917    9822.3046    10510.934    10891.186   -162.33269   -947.11324   -1529.2972   -2349.5821 
 8053000    263.87027   -3881.0929   -3428.8283   -3881.0929            0    9391.6981    16.951352    19.966454     20.68061    6999.5263    9911.9105    9438.9706    8824.2132    1264.3441    74.438483   -367.20164   -2470.1152 
 8054000    287.38057   -3863.1806   -3370.6202   -3863.1806            0    10027.724    16.930144    19.941474    20.654737    6973.2875    8420.5133    11216.985    10445.674   -1161.4736   -1842.6158   -349.72113   -2350.8183 
 8055000    257.22291   -3842.2449   -3401.3736   -3842.2449            0    8460.0737    16.951732    19.966901    20.681073    6999.9962    7674.5038    8538.9787    9166.7387    732.53921    1793.6738   -813.96764   -2537.7036 
 8056000    265.00825   -3815.0535   -3360.8384   -3815.0535            0    9238.5824    17.015452    20.041955    20.758811    7079.2304    8966.3939    7884.1128     10865.24    859.52181   -1095.1165    1498.4558   -2407.0166 
 8057000    269.61203   -3848.6941   -3386.5883   -3848.6941            0    9050.4407    16.961973    19.978964    20.693568    7012.6913    9752.2623    9428.6329    7970.4271    1458.1187   -535.90514   -1058.8473   -2460.9734 
 8058000    256.94604   -3818.2064   -3377.8096   -3818.2064            0    10550.808    16.925894    19.936468    20.649551    6968.0372    10954.957    10310.399    10387.069    261.24927    167.47343    1001.1815   -2305.6188 
 8059000    282.71381   -3868.2663   -3383.7045   -3868.2663            0    9326.6092    16.940604    19.953794    20.667497    6986.2199    7838.5311    9317.8326    10823.464    726.84237   -158.69023   -882.14206   -2433.4457 
 8060000    257.92388   -3846.2856    -3404.213   -3846.2856            0    10133.795    16.847903    19.844604    20.554402     6872.158    8071.5249    11185.159    11144.702    726.40182    986.46513    2887.1785   -2388.5698 
 8061000    259.66553   -3846.0962   -3401.0384   -3846.0962            0    8028.6461    16.963594    19.980873    20.695546     7014.702    7605.7954    7704.4553    8775.6876    1373.7146    135.53584      721.058   -2579.6899 
 8062000    252.54593   -3793.5082   -3360.6532   -3793.5082            0    8999.9472     16.94084    19.954071    20.667785    6986.5115    8302.2885    9167.7809    9529.7722    2104.9889    897.16491    2183.5638   -2443.6386 
 8063000    271.17734    -3835.924   -3371.1354    -3835.924            0    8620.9531    16.972491    19.991353    20.706399    7025.7446    6730.6193    8187.4517    10944.788     1301.299    1900.0978    1208.8204   -2487.8042 
 8064000    265.24822    -3865.806   -3411.1796    -3865.806            0    7722.9112    17.008242    20.033462    20.750015    7070.2347    8478.2589    7743.2657     6947.209    807.62703   -1117.0965   -1090.9476   -2614.8539 
 8065000    270.79625   -3894.3122   -3430.1767   -3894.3122            0     9127.535     16.93163    19.943223    20.656549    6975.1229    9985.8743    7500.5535    9896.1773   -93.595069   -126.28394    99.545405   -2501.6781 
 8066000    281.13816   -3875.0655   -3393.2043   -3875.0655            0    7767.4167    16.977217    19.996919    20.712165     7031.615    6983.0719    8606.8629    7712.3153    263.59822    569.07988   -191.90297   -2596.6643 
 8067000    260.76551   -3882.6138   -3435.6706   -3882.6138            0    10975.741    16.938674     19.95152    20.665142    6983.8321    10220.295    10534.204    12172.723    421.68702   -1808.5081   -1230.6303   -2317.7692 
 8068000    258.25253   -3851.2895   -3408.6535   -3851.2895            0    7955.6903    17.025513    20.053805    20.771086    7091.7953    7921.5159    8288.7835    7656.7715   -1555.6279    926.51292   -1780.8237   -2585.8238 
 8069000    255.32501   -3897.2178   -3459.5995   -3897.2178            0    7144.9231    16.984505    20.005503    20.721056    7040.6745    7253.2395    7207.9591    6973.5707    877.83754   -216.98764    -411.6678   -2725.9516 
 8070000    256.65582   -3841.6313   -3401.7321   -3841.6313            0    8737.7694    16.961839    19.978806    20.693404    7012.5249    9510.4548     6841.806    9861.0474    -1247.017   -1405.7085   -196.84705   -2508.1162 
 8071000    257.34128   -3860.6786   -3419.6044   -3860.6786            0    8459.1876    16.923299    19.933411    20.646385    6964.8321    8765.1769    6905.5194    9706.8664    -576.5031    474.87362    712.51389    -2560.363 
 8072000    284.49249   -3825.7702   -3338.1598   -3825.7702            0    9992.7925    16.887237    19.890935     20.60239    6920.4029     11744.42    9470.7345    8763.2228   -2138.0348   -264.74838    477.58632   -2329.6174 
 8073000    252.62864   -3884.4929   -3451.4961   -3884.4929            0    8309.6475    16.922769    19.932787    20.645739    6964.1781     7389.712    8504.6178    9034.6127    488.48164   -778.59172    503.78954   -2607.5235 
 8074000    271.47019   -3873.9125   -3408.6219   -3873.9125            0    9324.2497      16.8769    19.878758    20.589778    6907.7018     10939.44    7844.9506    9188.3586    763.39297    1301.4054    2704.9889   -2469.2807 
 8075000    279.14982   -3878.7222    -3400.269   -3878.7222            0    7936.3559    16.931309    19.942846    20.656158    6974.7273    8503.6295    7387.0966    7918.3417   -121.21618   -459.61988    49.593526   -2592.9889 
 8076000    264.44113   -3861.2072   -3407.9641   -3861.2072            0    8013.0351    16.947795    19.962264     20.67627    6995.1201    8432.5311    8946.2891    6660.2852   -1512.8189   -1041.7747    199.10729   -2590.5011 
 8077000    249.22687   -3838.0484   -3410.8821   -3838.0484            0    9555.9809    16.947881    19.962365    20.676375    6995.2266    9622.0581     9163.844    9882.0406   -1613.9421    -716.1673    584.31916    -2435.998 
 8078000    280.55406   -3814.3556   -3333.4956   -3814.3556            0    8359.1492    16.944335    19.958188    20.672049    6990.8367    7334.6531    9853.4053     7889.389    803.12734     1604.077    645.82767   -2481.2454 
 8079000     256.5193   -3838.4948   -3398.8295   -3838.4948            0    9426.5378    16.958837     19.97527    20.689741    7008.8018    7606.8134    12242.775    8430.0248    439.83679    809.70314   -1808.5248   -2435.2848 
 8080000    279.96936   -3845.8516   -3365.9937   -3845.8516            0    9764.0401    17.005463    20.030189    20.746625    7066.7701    10310.012    9325.5261    9656.5819     235.1416   -8.7092117   -333.95893   -2359.6961 
 8081000    261.79525   -3855.1494   -3406.4413   -3855.1494            0    7668.5772    16.957473    19.973664    20.688078    7007.1115    9141.7917    8480.1923    5383.7476    1605.9906    942.69706    2453.9087   -2622.7777 
 8082000    263.37079   -3885.1647   -3433.7562   -3885.1647            0    10942.489    16.889685    19.893818    20.605377    6923.4133    10867.407    9572.4325    12387.627    1582.6824    -589.4443   -66.780367   -2328.8834 
 8083000    247.07621   -3839.2874   -3415.8073   -3839.2874            0     10012.39    16.963623    19.980907    20.695581    7014.7377    10528.852     10060.15    9448.1687   -491.58573    625.20874   -2246.9315   -2391.5121 
 8084000    266.35807   -3820.1827   -3363.6541   -3820.1827            0    8497.5032    16.962108    19.979123    20.693732    7012.8581    7647.8297    9424.9036    8419.7763    2549.1223    1152.6723    2682.7879    -2494.569 
 8085000    266.81075   -3882.6401   -3425.3356   -3882.6401            0    8398.9323    16.940271    19.953402    20.667091    6985.8083    7948.4601    8496.6222    8751.7147    183.11026   -431.87883    -326.2042   -2569.6453 
 8086000    261.19282   -3856.8484   -3409.1729   -3856.8484            0    11444.734    16.898575     19.90429    20.616222    6934.3517    10685.808    11940.657    11707.736    394.98421    397.77953   -428.10524   -2251.7623 
 8087000    262.58024   -3899.9377   -3449.8842   -3899.9377            0    8422.2024    16.985071     20.00617    20.721746     7041.378    8275.0641    7180.9666    9810.5763    1658.3757   -1359.4162    11.085573   -2584.9975 
 8088000    271.71564   -3838.9814     -3373.27   -3838.9814            0    9529.0645    16.965168    19.982727    20.697465    7016.6544    8569.3063    10117.682    9900.2053    1235.8139    1637.4269    -129.4054   -2398.1541 
 8089000     269.9691   -3886.4787   -3423.7609   -3886.4787            0    9695.4822    16.919211    19.928596    20.641398    6959.7869    8464.6932    10583.401    10038.352     1311.135    2051.5246   -1717.4611   -2439.6563 
 8090000    283.05914   -3897.6601   -3412.5064   -3897.6601            0    7308.7624    17.022678    20.050467    20.767628     7088.254    7857.1663    8982.2085    5086.9123    107.36947   -94.373519   -1159.7124   -2656.9637 
 8091000    265.13924   -3880.9763   -3426.5368   -3880.9763            0    8483.2498     16.98556    20.006746    20.722343    7041.9866    9726.5651    7150.1081    8573.0761    433.64342    218.25804    1034.4387   -2555.3057 
 8092000    279.04334   -3855.7293   -3377.4586   -3855.7293            0     10568.79    16.891819    19.896331    20.607979    6926.0374    10278.307    10093.442     11334.62   -1077.2736   -111.76241    479.67463   -2309.9141 
 8093000    260.65059    -3888.331   -3441.5849    -3888.331            0     9189.025    16.907425    19.914714    20.627019    6945.2523    7755.0036    8055.6774    11756.394    -1024.126   -1100.4448    284.48843   -2510.8342 
 8094000     257.1053   -3870.1988   -3429.5291   -3870.1988            0    10319.804    16.903142    19.909668    20.621794    6939.9749    10122.441    9706.4164    11130.556    -262.3402   -1014.4114    275.61814   -2385.0368 
 8095000    262.85288   -3877.6223   -3427.1015   -3877.6223            0    10207.015    16.924676    19.935033    20.648066    6966.5332    8589.8989    12148.452    9882.6931    313.52753    -298.3381    993.40814   -2390.0714 
 8096000    268.04338   -3841.9773   -3382.5601   -3841.9773            0    10721.828    16.927117    19.937908    20.651043    6969.5473    9821.1945    12242.827    10101.461    2092.5043    1617.5661    254.68559   -2292.7539 
 8097000     264.9272   -3856.3115   -3402.2353   -3856.3115            0    6130.1704    17.000353     20.02417    20.740391    7060.4017    4675.6279    6189.0221    7525.8614    1729.9136    146.99872   -467.30066   -2771.0195 
 8098000    262.43281    -3888.327   -3438.5261    -3888.327            0    7134.2125    16.968876    19.987095    20.701989    7021.2562    6544.2265     6921.927    7936.4839   -969.77997   -133.18514   -107.00186   -2707.9983 
 8099000    260.35848   -3858.5567   -3412.3112   -3858.5567            0    10094.124    16.931647    19.943243    20.656569     6975.144    9061.4997    9505.0089    11715.864   -2148.6253   -330.94769   -1333.4079   -2385.4832 
 8100000    254.72768   -3844.6164   -3408.0219   -3844.6164            0    7998.3851    16.975783     19.99523    20.710415    7029.8331    9259.2373    7925.1651    6810.7528    -902.2459    1286.5065    1026.7887   -2588.0042 
 8101000    258.57476   -3894.2203    -3451.032   -3894.2203            0    8614.3516    17.040317    20.071242    20.789147    7110.3108    9903.4359    7246.9895    8692.6295    600.39396    1124.5172    29.717351   -2557.7532 
 8102000     272.7013   -3876.1265   -3408.7258   -3876.1265            0    6162.7824    17.004403     20.02894    20.745331    7065.4483    6719.4634      6240.28    5528.6037    42.277216    2045.9479    133.58057   -2773.6984 
 8103000    267.73667   -3858.6646   -3399.7731   -3858.6646            0    8402.2043    16.978532    19.998468     20.71377    7033.2495    7112.2544    9447.7176    8646.6408    1904.3872   -1227.9846   -1013.6083   -2537.9361 
 8104000    265.68586   -3861.5439   -3406.1674   -3861.5439            0    8284.1892    16.946417    19.960641    20.674589    6993.4144    8755.0176    8531.9561     7565.594   -644.25663    1166.0587   -1958.3905   -2561.2483 
 8105000    265.81582   -3830.9794   -3375.3802   -3830.9794            0     8178.662    17.010532     20.03616    20.752809    7073.0916    8503.0085    8227.7669    7805.2105    316.10611   -388.13034   -17.595397   -2531.7203 
 8106000    251.35061   -3872.2232   -3441.4168   -3872.2232            0    9504.9377    16.979403    19.999495    20.714833    7034.3322    10073.614    9491.2125    8949.9867   -61.664904    919.71798    147.37521   -2466.3194 
 8107000    257.72639    -3864.972   -3423.2378    -3864.972            0    7098.8473    17.052031    20.085041    20.803439    7124.9852    6223.5753     7445.794    7627.1726   -543.31699   -312.30198    -66.14283   -2685.5923 
 8108000    265.03882    -3827.664   -3373.3965    -3827.664            0     8226.922    17.050319    20.083023    20.801349    7122.8386    8756.0205    6716.3044    9208.4412    668.40322    937.09296   -1738.9854   -2518.7897 
 8109000    265.13609   -3846.0844   -3391.6502   -3846.0844            0    8949.2014    16.934717    19.946859    20.660315    6978.9387    8906.5345    9991.8148    7949.2551   -608.71289    -1274.312    613.59433   -2480.7946 
 8110000    275.46152   -3858.8371   -3386.7055   -3858.8371            0    8771.2573    16.957155    19.973288    20.687689    7006.7163    7703.3284    10401.926    8208.5172   -561.17124   -2205.8311   -1881.6183   -2490.4078 
 8111000    270.75306   -3851.6728   -3387.6113   -3851.6728            0    9524.9817    16.934556     19.94667    20.660119    6978.7402    9479.0118     11205.67    7890.2638   -1272.1313    2274.1836    834.45251   -2418.1799 
 8112000    267.47542   -3869.9749   -3411.5312   -3869.9749            0    7657.1395    16.949173    19.963887    20.677951    6996.8268    8809.8166    8342.6518    5818.9499   -1027.8223   -1442.4437   -1189.3738   -2630.1849 
 8113000    267.08425    -3874.571   -3416.7978    -3874.571            0    9576.4984    16.955147    19.970924     20.68524    7004.2279    7712.9356    9859.7254    11156.834   -491.01972    1061.5257   -47.421789   -2438.5634 
 8114000    266.94582   -3842.5662   -3385.0301   -3842.5662            0    8814.2394    17.015484    20.041993    20.758851     7079.271    9051.1862    7935.0993    9456.4327    1405.1869   -265.80825    827.68069   -2475.0136 
 8115000    267.75825   -3843.6814    -3384.753   -3843.6814            0    9135.9916    16.953935    19.969496    20.683761    7002.7262    10446.582    7364.7009    9596.6914    -1818.912   -1283.4353   -90.926218   -2451.7163 
 8116000    259.17773   -3863.2003   -3418.9785   -3863.2003            0    10316.408    16.919708    19.929181    20.642004    6960.3992    11458.113    10677.565    8813.5445    514.21823    1722.3906   -698.68354   -2371.7571 
 8117000    260.23079   -3895.9476   -3449.9209   -3895.9476            0    8403.1672    16.952952    19.968338    20.682562    7001.5076    9348.5834     9007.365    6853.5531    242.05075     452.2753    781.41402   -2591.8751 
 8118000    258.58664    -3886.501   -3443.2923    -3886.501            0    8553.3729    17.003248     20.02758    20.743922    7064.0088    9425.0915    8588.8552     7646.172    1093.1931    1342.4047   -847.83034   -2562.1126 
 8119000    254.36537   -3831.2257   -3395.2522   -3831.2257            0    10362.444    16.970222     19.98868    20.703632    7022.9275    9847.3266    9205.3853    12034.621   -775.35447   -428.09823    608.41849   -2333.9079 
 8120000    257.39254   -3854.6902   -3413.5282   -3854.6902            0    9054.3304    16.914464    19.923004    20.635606    6953.9297    7963.0354    9639.7933    9560.1625   -317.11666    2195.2733    1622.6653   -2495.2748 
 8121000    263.64161   -3877.8543   -3425.9816   -3877.8543            0    7381.5483    16.974377    19.993574    20.708701    7028.0872    7084.4103    5802.0012    9258.2334    136.37043   -43.854772    1096.8689   -2669.3917 
 8122000    280.85176   -3884.0771   -3402.7068   -3884.0771            0    7691.8276    17.025772    20.054111    20.771402    7092.1196    8608.6248    6405.3745    8061.4835   -1359.6608    -1269.392    149.79912   -2607.1311 
 8123000    252.73116   -3887.6418   -3454.4692   -3887.6418            0    8396.5581     16.93834    19.951127    20.664735    6983.4194    8520.3991    7673.3197    8995.9555   -1110.5159    1217.5163    525.05559   -2599.3133 
 8124000    269.40469   -3838.6828   -3376.9324   -3838.6828            0    8842.5125    16.974236    19.993408    20.708528    7027.9119     8335.744     9568.108    8623.6854   -468.75715    1550.7435   -881.30908   -2470.6201 
 8125000     280.4385   -3834.8702   -3354.2082   -3834.8702            0     8293.887    16.978579    19.998523    20.713827    7033.3075    8638.9013    9246.4367     6996.323   -117.95243   -24.857942    1645.7824   -2503.4746 
 8126000    279.27197   -3868.5186    -3389.856   -3868.5186            0    9455.5347    16.966929    19.984801    20.699614    7018.8396    10076.816    10352.058    7937.7302    1869.5079    1581.8448   -1486.0094   -2421.9631 
 8127000     269.8239   -3836.1588   -3373.6898   -3836.1588            0    10670.876    16.920672    19.930317     20.64318    6961.5895    13139.893    9065.9698    9806.7658    1371.6116    1197.3953   -4.3878142   -2290.3009 
 8128000    258.29977   -3831.6547   -3388.9377   -3831.6547            0    9233.5126    16.962188    19.979217     20.69383    7012.9577    10094.541    8714.2136    8891.7829   -1057.9841   -475.80463   -402.63897   -2444.5636 
 8129000    259.56643   -3789.3282   -3344.4402   -3789.3282            0    10607.868     16.90201    19.908335    20.620412    6938.5804    11299.653    10015.677    10508.275   -495.61155    675.60176   -803.00027    -2271.008 
 8130000    259.93929   -3871.4924   -3425.9654   -3871.4924            0    8185.9188    17.003358     20.02771    20.744057    7064.1463     8077.968    9115.9278    7363.8606    -772.5123   -292.57297    455.41002   -2582.6248 
 8131000     255.7111   -3862.9528   -3424.6727   -3862.9528            0    10492.234    16.868458    19.868816     20.57948    6897.3419    10477.071    11134.958    9864.6746   -1120.3186   -822.10238    535.60792    -2369.252 
 8132000    281.56788   -3845.6365   -3363.0388   -3845.6365            0    7913.3852    17.045867     20.07778    20.795918    7117.2612    8645.3776    7804.4013    7290.3766    -764.9781    534.17468    1064.3556   -2541.6456 
 8133000    261.70345    -3827.271   -3378.7202    -3827.271            0    7579.5902    17.015836    20.042407     20.75928    7079.7096    9836.3586    7189.8185    5712.5936    319.87227     1513.922    409.61716   -2596.1252 
 8134000    264.00216   -3872.5993   -3420.1086   -3872.5993            0    9008.0949    16.986306    20.007624    20.723253    7042.9141    8334.3491    9750.2852    8939.6503   -92.860691    1005.3697    374.43155    -2494.854 
 8135000    252.19916   -3886.3509   -3454.0902   -3886.3509            0    8175.9924    17.013519    20.039678    20.756453    7076.8178    8338.4013    9609.9542    6579.6215   -930.64051    962.49302    459.32384   -2610.2613 
 8136000    275.89269    -3864.108   -3391.2373    -3864.108            0    8236.7333    16.960777    19.977555    20.692108    7011.2074    9043.0362    8098.2326    7568.9312    833.69278    110.89206    1075.4099   -2549.0209 
 8137000    267.40665      -3886.4   -3428.0742      -3886.4            0    8595.4676    16.944396     19.95826    20.672123    6990.9124    7943.5512    8311.3199    9531.5318   -199.61814    199.46753    -643.5515   -2551.7208 
 8138000     273.2414   -3846.4239   -3378.0975   -3846.4239            0    9299.4492      16.9417    19.955085    20.668835    6987.5763    9728.7864    7848.6154    10320.946    2075.5649    745.50497   -457.13842   -2430.4219 
 8139000    248.95226   -3847.9065   -3421.2108   -3847.9065            0    9643.1949    16.939451    19.952435     20.66609    6984.7932    11625.125    9019.9175    8284.5418   -1140.4506   -49.553404    55.356844   -2438.8967 
 8140000    261.81951   -3848.1053   -3399.3557   -3848.1053            0    6882.2964    16.956182    19.972143    20.686503    7005.5109    5057.3388    7214.7659    8374.7845    513.69305   -1069.1748   -385.67217   -2696.2039 
 8141000    265.53423   -3893.4087   -3438.2921   -3893.4087            0    9478.2892    16.884014    19.887138    20.598458    6916.4416    10092.114     10005.75    8337.0032    777.46234     423.1603   -755.71442   -2482.2246 
 8142000    257.31492   -3858.7383   -3417.7093   -3858.7383            0    9633.2589    16.879494    19.881815    20.592944    6910.8885    8602.7185    10208.726    10088.333    2525.4078    1025.7177   -1571.0434   -2446.7903 
 8143000    253.35692   -3874.3046   -3440.0595   -3874.3046            0    8711.0357    16.931057    19.942549     20.65585    6974.4152    10140.788    7603.8274    8388.4916   -1586.9834   -102.96982   -351.97474   -2554.0192 
 8144000    257.88597   -3846.4077      -3404.4   -3846.4077            0    9044.8566    16.957702    19.973933    20.688357     7007.395    7944.0903    10326.551    8863.9286    1762.2521   -209.51145    2347.0274   -2480.0548 
 8145000    264.88603   -3837.5629   -3383.5573   -3837.5629            0    10723.479    16.931338     19.94288    20.656193     6974.763    10015.498    10097.439      12057.5    2295.3011    1302.3305    -114.3982   -2292.7676 
 8146000    246.68341   -3844.4243   -3421.6174   -3844.4243            0    10731.254    16.924253    19.934535    20.647549    6966.0104    9537.4023    11398.103    11258.256   -1638.7491    1059.3793   -1034.8464   -2331.4066 
 8147000    248.43009   -3871.2713   -3445.4706   -3871.2713            0    9268.4136    16.979442    19.999539    20.714879    7034.3797    8395.9436    9598.8628    9810.4345   -1754.5832      1588.26     226.6227   -2494.6314 
 8148000    253.94384   -3891.9017   -3456.6506   -3891.9017            0    9007.7013    16.928654    19.939718    20.652918    6971.4458    9337.7843    8595.2307    9090.0887    749.23222    680.38871   -1131.2965   -2540.8251 
 8149000    270.88018   -3834.8178   -3370.5385   -3834.8178            0     8799.232    16.985885    20.007129     20.72274    7042.3907     9400.922    8666.9612    8329.8127    620.09653   -2528.9016     629.3244   -2466.8042 
 8150000    262.47034   -3885.3105   -3435.4453   -3885.3105            0    9346.7998    16.941522    19.954875    20.668618    6987.3561    8399.9557    9365.6749    10274.769   -1820.4307   -899.43989   -795.07091   -2482.9744 
 8151000    276.48738   -3878.7281   -3404.8382   -3878.7281            0    8465.6083    16.932412    19.944145    20.657504    6976.0905    8413.0555    6963.3113    10020.458    1381.0304    610.95825    172.20802   -2543.5546 
 8152000    249.99635   -3863.5725   -3435.0873   -3863.5725            0    8937.3593    16.919658    19.929123    20.641944    6960.3385    7549.9971    8162.9529    11099.128   -1790.4558   -1136.1796    624.29651   -2527.8614 
 8153000    266.46188   -3853.6887   -3396.9822   -3853.6887            0    8925.3123    16.947018    19.961349    20.675323    6994.1586    8360.7665    7935.3773    10479.793   -1562.1568    200.96936   -231.97604   -2486.5769 
 8154000    265.27043   -3860.1594   -3405.4949   -3860.1594            0    8410.7162     16.90326    19.909807    20.621937      6940.12    7459.0105    8679.4589    9093.6792   -496.18931    327.10822   -300.40906   -2554.2082 
 8155000    272.20003   -3865.2787   -3398.7372   -3865.2787            0    8788.0347    16.967853    19.985889    20.700741    7019.9861    6386.9136    11874.145    8103.0455    1438.3693    423.58048    32.280422   -2499.0244 
 8156000    253.81076   -3853.9754   -3418.9525   -3853.9754            0    11820.289     16.87317    19.874365    20.585228    6903.1229    10098.655    13380.121    11982.091    790.34836    1526.4851    1035.9581   -2228.9453 
 8157000    256.05385   -3852.4358   -3413.5682   -3852.4358            0    7334.5147    16.974415    19.993618    20.708746    7028.1334    7418.7781    7052.0379    7532.7281   -693.33055   -1346.4563   -832.04286   -2661.7943 
 8158000    254.36111   -3858.9733    -3423.007   -3858.9733            0    8835.5548    16.972066    19.990851     20.70588    7025.2162    9443.8927    6881.8355    10180.936   -1024.3189   -445.46298   -1036.7087   -2517.7552 
 8159000      256.832   -3864.4792   -3424.2779   -3864.4792            0     9267.928    16.938832    19.951706    20.665335    6984.0274    9174.7002    9447.6861    9181.3976   -372.63642   -982.37897    179.36721   -2480.2943 
 8160000    281.34034   -3879.3839   -3397.1761   -3879.3839            0    8050.2152     17.00738    20.032447    20.748963      7069.16    7450.9648    8561.9153    8137.7656    750.60272   -728.16062   -987.70264   -2567.2276 
 8161000    255.40478   -3905.1495   -3467.3945   -3905.1495            0    6716.8475    17.005446    20.030169    20.746605    7066.7492    5448.8459    7418.5583    7283.1384   -1891.8747    534.92292   -1917.8554   -2775.1475 
 8162000     267.6505   -3897.3305   -3438.5867   -3897.3305            0    7793.7302    17.009105    20.034479    20.751068    7071.3112    6027.9176    9602.3723    7750.9006   -700.89412    3.5850158   -427.32705   -2634.8363 
 8163000    270.64175   -3861.8408   -3397.9701   -3861.8408            0     8226.057    16.945955    19.960096    20.674025     6992.842    9026.9017    8254.8303    7396.4389   -492.46635   -318.69897   -1097.4919   -2559.0486 
 8164000    269.87395     -3889.25   -3426.6953     -3889.25            0    10661.966    17.013077    20.039157    20.755914    7076.2661    11759.741    10255.191    9970.9652    304.54408    647.39403    346.82214   -2326.3795 
 8165000    265.56114    -3869.466   -3414.3033    -3869.466            0     9558.773    16.984055    20.004973    20.720507    7040.1144    10777.672    9069.5741    8829.0733    218.71369   -314.75464    1495.5594   -2432.8769 
 8166000    271.16491   -3875.8617   -3411.0943   -3875.8617            0    6323.8568    17.058488    20.092645    20.811315    7133.0813    7475.4887    5424.0526    6072.0292    1586.2183    458.22374    746.00215   -2753.2319 
 8167000    261.79213   -3903.1537   -3454.4509   -3903.1537            0    7779.3471    16.975534    19.994936    20.710112    7029.5238    7493.9258    8296.4407     7547.675   -531.57025    1605.5087   -204.99782   -2656.9248 
 8168000     275.7403   -3854.1511   -3381.5417   -3854.1511            0    7474.2342    16.961293    19.978162    20.692737    7011.8469    11073.307    4657.9786    6691.4167   -1135.8031    3.6049598   -492.89364   -2617.2221 
 8169000    269.19369    -3844.178   -3382.7892    -3844.178            0    8801.3331     16.93695     19.94949     20.66304    6981.7005    9115.9804    8368.5413    8919.4777    585.09652   -332.55596   -192.95697   -2486.6292 
 8170000    276.87069   -3876.0564   -3401.5096   -3876.0564            0    9354.1354    16.901409    19.907628     20.61968    6937.8409    7521.0992    10818.591    9722.7159    170.78898    908.71177    1600.3807    -2455.046 
 8171000    256.59334   -3836.9908   -3397.1986   -3836.9908            0    9965.5836    16.888614    19.892556     20.60407    6922.0959    9344.6648    9909.6855    10642.401    415.76911    30.041714   -1414.5439   -2391.1563 
 8172000    265.80956   -3844.3039   -3388.7154   -3844.3039            0    11020.714    16.870492    19.871211    20.581961    6899.8372    10865.122    10867.737    11329.285   -1250.6091    401.05449   -782.51892   -2279.7334 
 8173000    256.26338    -3850.544   -3411.3173    -3850.544            0     9224.541    16.861865     19.86105    20.571436    6889.2577    10492.873    8505.7558    8674.9937   -1142.3923   -408.64384    833.99185   -2484.5023 
 8174000    249.27791   -3854.2869   -3427.0331   -3854.2869            0    10570.647    16.916507    19.925411      20.6381    6956.4506    9957.6287    10808.896    10945.416    553.05943    695.50066   -85.686505   -2354.6124 
 8175000    263.08491   -3840.2238   -3389.3053   -3840.2238            0    9290.3377    16.900713    19.906808    20.618831     6936.984    9069.8541    8322.3876    10478.771    49.121369   -20.551662    1302.8033    -2449.413 
 8176000    279.06271   -3892.0502   -3413.7463   -3892.0502            0    9632.0905    16.874199    19.875577    20.586483    6904.3863    9898.8657    8986.1423    10011.263   -347.86569   -2403.5407    1213.3817   -2443.8584 
 8177000    275.42208   -3842.2923   -3370.2283   -3842.2923            0    9452.3203      16.8809     19.88347    20.594658    6912.6148    6993.4319     12234.99    9128.5392    -1171.303    423.96189    1197.6228   -2417.3078 
 8178000    273.08065   -3858.1673   -3390.1164   -3858.1673            0    7289.7111    16.961259    19.978123    20.692697    7011.8059    5409.9876    7422.9507    9036.1951    861.11555     193.6672   -96.745505   -2644.6706 
 8179000    255.04114   -3847.8681   -3410.7363   -3847.8681            0    7367.9454    17.010984    20.036692    20.753361    7073.6555    6940.7659    8012.2722    7150.7982   -191.34078   -358.21581    1108.0651   -2650.6443 
 8180000    267.54736   -3875.2941   -3416.7271   -3875.2941            0    7827.4934    16.949484    19.964254    20.678331    6997.2125    7411.3795    9259.1505    6811.9503    -67.17047     781.6737   -514.12294   -2617.9536 
 8181000    264.96806   -3842.8375   -3388.6913   -3842.8375            0    8702.4696    16.946288    19.960489    20.674432    6993.2548    7728.5526    10118.492    8260.3645    951.62991    1654.9862    688.13794   -2501.1312 
 8182000    275.23471   -3821.5529     -3349.81   -3821.5529            0    9032.0275    16.940324    19.953464    20.667155    6985.8734    9419.0417    9810.4392    7866.6014    1842.6414   -1080.3661    1320.3155   -2429.6108 
 8183000     255.4727   -3868.5661   -3430.6946   -3868.5661            0    10931.267    16.915734    19.924501    20.637156    6955.4967    10783.784    11438.004    10572.015    312.68529    399.96091    1182.2357   -2321.8401 
 8184000    262.97426   -3883.5304   -3432.8015   -3883.5304            0    10059.279    16.906366    19.913467    20.625728    6943.9474    11603.957    9703.0708    8870.8081   -189.27964    661.74148    1003.2055   -2414.0948 
 8185000     271.5997   -3851.6788   -3386.1662   -3851.6788            0    8745.8933    16.962105    19.979119    20.693729    7012.8548    8324.0839    9937.3436    7976.2525     1015.367    951.11845   -326.20528   -2491.6773 
 8186000    270.19132   -3847.4412   -3384.3425   -3847.4412            0    9248.1108    16.959049    19.975519        20.69    7009.0643    9164.4334    9636.3687    8943.5303    656.33012   -406.05047   -146.94567   -2439.0005 
 8187000     270.4392   -3894.4006   -3430.8771   -3894.4006            0    7191.8289    16.963977    19.981324    20.696012    7015.1765    5768.2959    7779.7059    8027.4848    451.56195   -1098.5179   -249.17632   -2695.0872 
 8188000    262.66733   -3837.0433   -3386.8405   -3837.0433            0    10678.783    16.968405     19.98654    20.701415    7020.6719    12169.806    10416.249     9450.294   -160.57196    701.84913   -60.661053   -2293.4474 
 8189000    247.27648   -3855.7345   -3431.9111   -3855.7345            0    9356.2918     16.89061    19.894908    20.606505    6924.5511    8722.7353    9588.0716    9758.0685   -587.07662       426.23    691.13884   -2487.0428 
 8190000    276.82207   -3840.7209   -3366.2574   -3840.7209            0    7775.9579    16.980506    20.000793    20.716178    7035.7028     8018.631    7800.8072    7508.4356   -562.62702    354.16174    835.75637   -2568.3779 
 8191000    258.90617   -3825.5848   -3381.8285   -3825.5848            0    8744.3412    16.963326    19.980557    20.695218    7014.3687    7916.1177     9448.141     8868.765    -1004.605   -46.175882    840.67641   -2487.3054 
 8192000    257.19747   -3814.0161   -3373.1884   -3814.0161            0    9579.6188    16.980202    20.000436    20.715807    7035.3253    8798.2096    7708.3991    12232.248    218.75196   -1776.6063    1797.5065   -2390.2907 
 8193000    258.97483   -3834.8126   -3390.9386   -3834.8126            0     7394.219     16.96797    19.986027    20.700884    7020.1314    7049.7249    7453.0258    7679.9065   -1688.3702    299.61114   -9.3970409   -2633.9079 
 8194000    269.33526    -3831.391   -3369.7596    -3831.391            0    11507.827    16.897143    19.902602    20.614474     6932.588     11620.38    11244.549    11658.552    956.76099   -502.55277   -53.415541   -2206.2643 
 8195000     268.5468    -3892.599    -3432.319    -3892.599            0     8403.676       16.978    19.997842     20.71312    7032.5882    11021.065    8390.7972    5799.1662   -1001.6844    1144.5352   -1589.2994    -2570.412 
 8196000    261.89311   -3874.1142   -3425.2384   -3874.1142            0    7098.6559    16.980783    20.001119    20.716515    7036.0467    7093.5988    9407.5758    4794.7932    770.34223   -1312.8213    -817.2948   -2696.8203 
 8197000    276.26416   -3864.2495   -3390.7421   -3864.2495            0    8177.4678    16.930212    19.941554    20.654819    6973.3713    9367.7944    8502.8751    6661.7338    804.10844   -399.11967    1210.7128    -2559.098 
 8198000    270.37022    -3879.045   -3415.6397    -3879.045            0    5823.7811    16.984105    20.005033    20.720569    7040.1774    6950.6125    6196.3352    4324.3955   -136.27873    617.57481    293.15555   -2817.6901 
 8199000     271.1051   -3856.1746   -3391.5097   -3856.1746            0    7471.6088    16.970348    19.988829    20.703785    7023.0837    8719.0818    6405.3533    7290.3914    1899.7448   -545.13747   -865.86205   -2626.2341 
 8200000    269.64045   -3887.5591   -3425.4046   -3887.5591            0    9468.5507    16.930309    19.941667    20.654937    6973.4907    9695.0202    11137.918     7572.714    565.95193     835.7511   -554.96443   -2462.4415 
 8201000    257.98228    -3859.584   -3417.4112    -3859.584            0     9092.209    16.866733    19.866783    20.577375    6895.2256    10642.728     8656.462    7977.4371   -334.17831    619.50374   -450.38661   -2503.1005 
 8202000    263.96193   -3872.2545   -3419.8328   -3872.2545            0    7189.0265    16.938002    19.950729    20.664323    6983.0011    6778.3584     9141.264    5647.4573   -2038.9851    445.74753    794.35066    -2687.703 
 8203000    262.86087   -3893.8373   -3443.3028   -3893.8373            0    10381.026     16.84613    19.842516     20.55224    6869.9891    9551.5907    11192.054    10399.435    1513.3847   -15.415591    373.03477   -2403.2096 
 8204000    249.15609    -3866.056    -3439.011    -3866.056            0    8747.9184    16.929996    19.941299    20.654555    6973.1038    8121.5001    9959.4245    8162.8306    489.22595   -42.595022   -1247.8824   -2549.3865 
 8205000    250.13182   -3867.9278   -3439.2104   -3867.9278            0    7869.3112    16.897795     19.90337     20.61527    6933.3908    8064.2532    8098.5678    7445.1128   -360.13111     900.7295    123.90034    -2643.494 
 8206000    269.11977   -3919.5623   -3458.3002   -3919.5623            0    8624.8301     16.93257    19.944331    20.657696    6976.2855     8949.197    9017.4124    7907.8809   -1997.1036    156.24344   -57.059028    -2580.793 
 8207000    256.84904   -3885.9202   -3445.6898   -3885.9202            0    8917.9208    16.953553    19.969045    20.683294     7002.252    7017.8306    9998.2112    9737.7207    438.33726   -488.55273     1228.217   -2534.9858 
 8208000    254.88044   -3847.6419   -3410.7855   -3847.6419            0    8601.0915    16.948616    19.963231    20.677272    6996.1368    8005.0435     8559.676    9238.5549    990.43655   -216.22454    638.63268   -2533.2035 
 8209000    264.16414   -3887.0643    -3434.296   -3887.0643            0    8896.9657    16.918039    19.927216    20.639968    6958.3405    9147.3008    8340.9808    9202.6154    1662.3145    1728.7962     442.9292   -2531.4296 
 8210000    268.39909    -3862.725   -3402.6981    -3862.725            0    6705.6928    16.980068    20.000277    20.715643    7035.1583    7457.9841    6736.5712     5922.523   -1270.2296   -1379.2008    11.966467   -2714.6902 
 8211000    254.80512    -3859.854   -3423.1268    -3859.854            0    9355.5369    16.869259    19.869759    20.580457    6898.3245    6870.7432    10958.345    10237.522    285.03035   -465.72325   -1284.1372   -2481.9131 
 8212000    272.76997   -3862.8133    -3395.295   -3862.8133            0    9367.5822    16.892523    19.897161    20.608839    6926.9042    11720.742    7216.4437    9165.5609   -613.69067    187.92039    780.32008    -2448.965 
 8213000    272.82005   -3862.5343   -3394.9301   -3862.5343            0     7972.549    16.979337    19.999417    20.714752      7034.25    6765.9517     8668.194    8483.5011     210.9743     1125.685   -990.50001   -2577.0477 
 8214000    265.31449   -3861.2258   -3406.4859   -3861.2258            0    10277.384    16.895729    19.900937     20.61275    6930.8487    11462.927    9995.1481    9374.0773   -165.21832    669.45405    19.692141   -2367.6549 
 8215000    247.32198   -3908.5532   -3484.6518   -3908.5532            0    8657.7776     17.00556    20.030304    20.746744    7066.8916    7323.9915    9862.4383    8786.9031   -435.23544   -163.32913   -1359.5323   -2592.3521 
 8216000    260.22356   -3855.8435   -3409.8292   -3855.8435            0     9729.203    16.942213    19.955689    20.669461    6988.2112    11007.714    9771.6663    8408.2288    746.26935    893.16901    115.87712   -2418.2688 
 8217000    259.60689   -3890.7266   -3445.7693   -3890.7266            0    10366.841    16.919391    19.928808    20.641618    6960.0087    9137.2856    10262.842    11700.395   -13.015557    87.964289    687.27003   -2393.4873 
 8218000    251.44069   -3843.0053   -3412.0446   -3843.0053            0    10241.355    16.943457    19.957154    20.670977    6989.7497    11103.494    10568.268    9052.3011   -274.18056   -940.16589   -487.66615    -2368.058 
 8219000    271.56857   -3864.5868   -3399.1276   -3864.5868            0    10830.918    16.933618    19.945565    20.658974    6977.5806    10564.643    10733.513    11194.598    939.57831   -1191.9539   -132.46903   -2296.9641 
 8220000    264.16042   -3862.5732   -3409.8113   -3862.5732            0    9627.8218    16.909908    19.917638    20.630048     6948.312     9843.912    8136.4986    10903.055    -938.0276   -30.688041   -270.30044   -2434.1855 
 8221000    270.49501   -3874.0764   -3410.4572   -3874.0764            0    8001.0529     16.90497    19.911821    20.624023    6942.2263    9483.5926    6095.9469    8423.6191   -826.56049     168.0579   -820.33064   -2600.3886 
 8222000     252.0181    -3870.646   -3438.6956    -3870.646            0    9731.5785    16.981292    20.001718    20.717136    7036.6791    9570.0399    9525.9306    10098.765   -2138.4247    1696.7503   -337.29361   -2440.0142 
 8223000    261.11989   -3853.4815   -3405.9309   -3853.4815            0    10083.367    16.910587    19.918437    20.630876    6949.1488    10822.999    10697.166    8729.9351    376.31709    551.91971    432.25854     -2384.02 
 8224000    247.85545    -3849.503   -3424.6873    -3849.503            0    8273.9763    16.970297    19.988768    20.703723    7023.0204    10624.269    7799.5785    6398.0811     291.3142    897.77487    358.64452   -2577.2373 
 8225000    273.80736   -3882.8071   -3413.5106   -3882.8071            0    11065.368    16.868787    19.869203    20.579881    6897.7457    11584.623    10406.673    11204.808    88.250542    752.09461    252.51979   -2300.3728 
 8226000    281.98257   -3885.9426   -3402.6341   -3885.9426            0    8021.5578    16.946631    19.960893     20.67485    6993.6791    8847.9622    7564.8417    7651.8696    864.45718    216.83419    513.99644   -2584.4702 
 8227000    268.09955   -3776.4052   -3316.8917   -3776.4052            0    10374.423    16.971093    19.989706    20.704694    7024.0087    10225.366    10823.092    10074.812    998.01142    1130.8367    1709.2458   -2254.1569 
 8228000    265.94554   -3825.0387   -3369.2171   -3825.0387            0    8496.0438    17.000971    20.024898    20.741145    7061.1718    6118.1402    9031.6596    10338.332    411.67766   -345.28199    444.82801    -2494.295 
 8229000    265.78972   -3854.1663   -3398.6118   -3854.1663            0    7541.5465    16.984198    20.005142    20.720682    7040.2926    9024.9239    6852.6281    6747.0876    2395.2629   -1081.7778   -2027.9164   -2624.2802 
 8230000    277.64321   -3840.9114   -3365.0404   -3840.9114            0    7379.5935    17.014382    20.040695    20.757507    7077.8956    6778.1177    6249.4681    9111.1946     2221.241   -86.747325    -844.3558   -2603.2904 
 8231000    273.13071   -3828.8998   -3360.7631   -3828.8998            0    8440.9283    16.894522    19.899515    20.611277    6929.3626    7779.9151    9889.9825    7652.8873    1041.0726    929.05434    1127.3041   -2507.7428 
 8232000    263.69226   -3817.0618   -3365.1022   -3817.0618            0    9212.6283    16.895026    19.900109    20.611893    6929.9837    8813.8234    8858.3778    9965.6836     1202.172    205.23599   -1084.2413   -2434.0123 
 8233000    253.89358   -3802.5741   -3367.4091   -3802.5741            0    9939.6884    16.936626    19.949109    20.662645    6981.3002    8816.1441     10181.54    10821.381   -928.87894    1307.2424   -2220.9919   -2355.3988 
 8234000    268.88119   -3834.6681   -3373.8149   -3834.6681            0    8101.5188    16.988915    20.010698    20.726437    7046.1607    6631.1199    8613.4517    9059.9848   -447.64825    59.537801   -299.65285   -2541.2946 
 8235000    264.68164   -3886.3511   -3432.6958   -3886.3511            0    8327.7872    16.943869    19.957639     20.67148    6990.2601    7501.9563    6739.7283    10741.677    1556.6311   -464.65452   -612.85431   -2583.7131 
 8236000    255.84326   -3836.7257   -3398.2191   -3836.7257            0    7039.7407    17.033569    20.063295    20.780915    7101.8675    8564.1114    5581.9536    6973.1569    1521.7448    681.01887   -518.30716   -2669.0889 
 8237000    271.36928   -3876.1881   -3411.0704   -3876.1881            0    9977.9335    16.949273    19.964005    20.678074    6996.9508    11079.623    10775.257    8078.9204   -233.98428    711.96434   -243.09647   -2392.8886 
 8238000    273.47617   -3859.2492   -3390.5204   -3859.2492            0    9858.3132    16.950827    19.965835    20.679969    6998.8753    10045.106    8098.0251    11431.808    58.183875    451.72808    530.72196   -2384.2684 
 8239000    257.34322   -3858.9892   -3417.9117   -3858.9892            0    9195.6613    16.972489     19.99135    20.706397    7025.7416    11915.093    7396.9471    8274.9441    224.10907     450.0696    739.42094   -2475.6945 
 8240000    257.60595   -3824.5749   -3383.0471   -3824.5749            0    10584.376    16.957997     19.97428    20.688717    7007.7604    10138.155    12272.081    9342.8917    722.23021    1102.1678   -1388.9715   -2301.3133 
 8241000    265.09048   -3882.1485   -3427.7925   -3882.1485            0    9207.0554    16.899268    19.905105    20.617067    6935.2041    7927.5538     9972.243    9721.3692    18.490435   -167.66906   -466.20572   -2496.5648 
 8242000    263.25213   -3849.2966   -3398.0915   -3849.2966            0    9104.9557    16.969123    19.987385     20.70229    7021.5628    7437.2077    8521.0863    11356.573   -1837.5196   -1372.1236   -738.12021   -2465.7231 
 8243000    272.52849   -3825.7973   -3358.6928   -3825.7973            0    8860.5351    16.981042    20.001424    20.716831    7036.3685    7840.7518    8662.1846    10078.669    596.06179    217.83726   -753.45943   -2449.4405 
 8244000    271.59227   -3861.7696   -3396.2698   -3861.7696            0    7700.1381    17.001662    20.025712    20.741988    7062.0328    4999.7592    10605.209    7495.4457   -1600.9486    913.71659   -164.18382   -2603.2133 
 8245000     268.9642   -3833.8784   -3372.8829   -3833.8784            0    9986.0201    16.948856    19.963513    20.677564    6996.4338      8612.11    10503.243    10842.707   -119.10445    431.48381   -741.88566   -2353.9513 
 8246000    253.88531   -3829.6824   -3394.5316   -3829.6824            0    7549.1173    16.958153    19.974464    20.688907    7007.9536    7973.2362    7511.5712    7162.5445   -397.25722    1437.9464   -2213.0003    -2622.983 
 8247000    258.71632   -3849.6755   -3406.2446   -3849.6755            0    9221.1438     16.87704    19.878924    20.589949    6907.8744    9520.1132    8612.8523    9530.4659    447.45348   -274.26424    471.88941   -2477.2672 
 8248000    272.75733   -3827.7417   -3360.2449   -3827.7417            0    7830.5173    16.924648       19.935    20.648031     6966.498    8462.2968    8747.4386    6281.8165    401.48049   -359.00599    207.82572   -2564.6704 
 8249000    251.28686   -3869.9339   -3439.2368   -3869.9339            0    9445.7939    16.922517    19.932489    20.645431    6963.8666    11423.528    8885.1428    8028.7114   -508.46369   -231.42309    51.325797    -2479.914 
 8250000    270.45059   -3876.4436   -3412.9005   -3876.4436            0    5542.2577    17.085314    20.124243    20.844043    7166.7862    8151.4716    2170.4373    6304.8641   -516.44047   -473.50329    216.49851   -2833.6225 
Loop time of 595.425 on 64 procs for 250000 steps with 864 atoms

Performance: 72.553 ns/day, 0.331 hours/ns, 419.868 timesteps/s
99.1% CPU use with 64 MPI tasks x 1 OpenMP threads

MPI task timing breakdown:
Section |  min time  |  avg time  |  max time  |%varavg| %total
---------------------------------------------------------------
Pair    | 21.867     | 27.114     | 31.498     |  48.5 |  4.55
Bond    | 0.28788    | 0.29844    | 0.32052    |   1.5 |  0.05
Kspace  | 263.19     | 277.42     | 304.04     |  69.1 | 46.59
Neigh   | 6.1126     | 7.6221     | 11.21      |  55.7 |  1.28
Comm    | 112.62     | 140.81     | 155.49     | 106.1 | 23.65
Output  | 0.98257    | 0.98367    | 0.98946    |   0.1 |  0.17
Modify  | 134.38     | 136.31     | 138.38     |   8.3 | 22.89
Other   |            | 4.871      |            |       |  0.82

Nlocal:        13.5000 ave          18 max           9 min
Histogram: 2 5 5 6 16 7 11 8 2 2
Nghost:        2220.84 ave        2252 max        2175 min
Histogram: 2 4 3 6 3 11 10 12 10 3
Neighs:        4300.66 ave        6194 max        2647 min
Histogram: 2 6 7 9 11 13 4 9 1 2

Total # of neighbors = 275242
Ave neighs/atom = 318.56713
Ave special neighs/atom = 2.0000000
Neighbor list builds = 14376
Dangerous builds = 1

unfix		3
unfix		2
unfix		1

write_data	data.final.${pid}
write_data	data.final.0
System init for write_data ...
PPPM initialization ...
  extracting TIP4P info from pair style
  using 12-bit tables for long-range coulomb (../kspace.cpp:340)
  G vector (1/distance) = 0.3737266
  grid = 24 24 24
  stencil order = 5
  estimated absolute RMS force accuracy = 0.0032225855
  estimated relative force accuracy = 9.7047204e-06
  using double precision FFTW3
  3d grid and FFT values/proc = 2535 216
Last active /omp style is kspace_style pppm/tip4p/omp
WARNING: Not all mixed pair coeffs generated from mixing. Use write_data with 'pair ij' option to store all pair coeffs. (../write_data.cpp:312)

write_restart   restart.lmp.${pid}
write_restart   restart.lmp.0
System init for write_restart ...
PPPM initialization ...
  extracting TIP4P info from pair style
  using 12-bit tables for long-range coulomb (../kspace.cpp:340)
  G vector (1/distance) = 0.3737266
  grid = 24 24 24
  stencil order = 5
  estimated absolute RMS force accuracy = 0.0032225855
  estimated relative force accuracy = 9.7047204e-06
  using double precision FFTW3
  3d grid and FFT values/proc = 2535 216
Last active /omp style is kspace_style pppm/tip4p/omp
Total wall time: 0:09:58
