LAMMPS (30 Jul 2021)
  using 1 OpenMP thread(s) per MPI task
package omp 0
using multi-threaded neighbor list subroutines
echo both

include		in.partitions
variable        pid world 0
include		in.temp
variable        temperature equal 272.36
variable	tempDamp equal 100.0
include		in.pressure
variable        pressure equal 9625.0
variable        pressureDamp equal 1000.0 # This is 1 ps
include		in.seed
variable        seed world 745823

units		real
atom_style	full
read_restart	restart.lmp.${pid}
read_restart	restart.lmp.0
Reading restart file ...
  restart file = 30 Jul 2021, LAMMPS = 30 Jul 2021
  restoring atom style full from restart
  orthogonal box = (-0.16896124 -0.10265502 -0.017907353) to (24.898962 24.832656 22.827907)
  4 by 4 by 4 MPI processor grid
  restoring pair style lj/cut/tip4p/long/omp from restart
  restoring bond style harmonic/omp from restart
  restoring angle style harmonic/omp from restart
  1920 atoms
  1280 bonds
  640 angles
Finding 1-2 1-3 1-4 neighbors ...
  special bond factors lj:    0        0        0       
  special bond factors coul:  0        0        0       
     2 = max # of 1-2 neighbors
     1 = max # of 1-3 neighbors
     1 = max # of 1-4 neighbors
     2 = max # of special neighbors
  special bonds CPU = 1.788 seconds
  read_restart CPU = 2.230 seconds
include 	in.setup
variable	out_freq equal 1000
variable	out_freq2 equal 10000
variable	out_freq3 equal 1000

timestep	2.0

neigh_modify    delay 7 every 1

include		in.tip4p
# This is TIP4P/Ice

# create groups ###
group ox type 2
640 atoms in group ox
group hy type 1
1280 atoms in group hy

# set charges - beside manually ###
set group ox charge -1.1794
Setting atom values ...
  640 settings made for charge
set group hy charge 0.5897
Setting atom values ...
  1280 settings made for charge

# ### TIP3P Potential Parameters ###
pair_style lj/cut/tip4p/long/omp 2 1 1 1 0.1577 8.5
pair_coeff 1 1*2 0.000 0.000
pair_coeff 2 2 0.21084 3.1668
bond_style  harmonic
bond_coeff  1 450 0.9572
angle_style harmonic
angle_coeff 1 55 104.52
kspace_style pppm/tip4p/omp 1.0e-5
pair_modify tail yes

thermo          ${out_freq}
thermo          1000
thermo_style    custom step temp pe etotal epair emol press lx ly lz vol pxx pyy pzz pxy pxz pyz enthalpy

restart 	${out_freq3} restart.lmp.${pid} restart2.lmp.${pid}
restart 	1000 restart.lmp.${pid} restart2.lmp.${pid}
restart 	1000 restart.lmp.0 restart2.lmp.${pid}
restart 	1000 restart.lmp.0 restart2.lmp.0


include         in.dump
dump            myDump all atom ${out_freq2} dump.water.${pid}
dump            myDump all atom 10000 dump.water.${pid}
dump            myDump all atom 10000 dump.water.0
dump            myDump2 all dcd ${out_freq2} dump.dcd
dump            myDump2 all dcd 10000 dump.dcd
dump_modify     myDump append yes
dump_modify     myDump2 append yes


variable natoms 	equal  "count(all)"                        # NUMBER ATOMS
variable H      	equal  "enthalpy/v_natoms"                 # ENTHALPY-per-atom
variable Vol      	equal  "vol/v_natoms"                 # volume-per-atom
fix AVG all 		ave/time ${out_freq} 1 ${out_freq} v_Vol v_H file vol_enthalpy.dat
fix AVG all 		ave/time 1000 1 ${out_freq} v_Vol v_H file vol_enthalpy.dat
fix AVG all 		ave/time 1000 1 1000 v_Vol v_H file vol_enthalpy.dat




fix 		1 all shake 1e-6 200 0 b 1 a 1
       0 = # of size 2 clusters
       0 = # of size 3 clusters
       0 = # of size 4 clusters
     640 = # of frozen angles
  find clusters CPU = 0.185 seconds
fix             2 all nph aniso ${pressure} ${pressure} ${pressureDamp}
fix             2 all nph aniso 9625 ${pressure} ${pressureDamp}
fix             2 all nph aniso 9625 9625 ${pressureDamp}
fix             2 all nph aniso 9625 9625 1000
fix             3 all temp/csvr ${temperature} ${temperature} ${tempDamp} ${seed}
fix             3 all temp/csvr 272.36 ${temperature} ${tempDamp} ${seed}
fix             3 all temp/csvr 272.36 272.36 ${tempDamp} ${seed}
fix             3 all temp/csvr 272.36 272.36 100 ${seed}
fix             3 all temp/csvr 272.36 272.36 100 745823


run             250000
PPPM initialization ...
  extracting TIP4P info from pair style
  using 12-bit tables for long-range coulomb (../kspace.cpp:340)
  G vector (1/distance) = 0.37439108
  grid = 30 30 30
  stencil order = 5
  estimated absolute RMS force accuracy = 0.0032834643
  estimated relative force accuracy = 9.8880552e-06
  using double precision FFTW3
  3d grid and FFT values/proc = 3600 512
Last active /omp style is kspace_style pppm/tip4p/omp
Neighbor list info ...
  update every 1 steps, delay 7 steps, check yes
  max neighbors/atom: 2000, page size: 100000
  master list distance cutoff = 10.8154
  ghost atom cutoff = 10.8154
  binsize = 5.4077, bins = 5 5 5
  1 neighbor lists, perpetual/occasional/extra = 1 0 0
  (1) pair lj/cut/tip4p/long/omp, perpetual
      attributes: half, newton on, omp
      pair build: half/bin/newton/omp
      stencil: half/bin/3d
      bin: standard
Per MPI rank memory allocation (min/avg/max) = 9.330 | 9.338 | 9.344 Mbytes
Step Temp PotEng TotEng E_pair E_mol Press Lx Ly Lz Volume Pxx Pyy Pzz Pxy Pxz Pyz Enthalpy 
 1500000    283.72532   -9050.8215   -7969.1311   -9050.8215            0    10420.736    25.067923    24.935311    22.845815    14280.381    9951.6055    10351.796    10958.807    435.87742   -236.52145    875.58784   -5798.8595 
 1501000     275.3149   -9070.6011   -8020.9751   -9070.6011            0    9779.1947    24.958027    24.854075    23.049276    14297.666     9142.053    10507.164    9688.3677   -1359.2713   -236.66299    939.01851   -5981.8489 
 1502000    278.59515   -9064.3905   -8002.2587   -9064.3905            0    10321.189    24.960481    24.946379    22.929556     14277.63    11029.803    10259.235    9674.5296    899.27487    1380.7074   -1476.7517   -5853.1334 
 1503000    272.06142   -9043.2518   -8006.0296   -9043.2518            0     10720.16    24.943714    24.979069     22.92457    14283.629    10581.354    10200.455    11378.671     6.945285   -274.31262    611.33774   -5772.8907 
 1504000    264.79007   -9067.0727   -8057.5722   -9067.0727            0    9615.3388    24.890521    25.003995    22.985257    14305.161    9814.4332    9842.5327    9189.0506   -1104.4276   -143.09052    1232.8566   -6051.5615 
 1505000    271.53099   -9040.8986   -8005.6986   -9040.8986            0    8704.4672    24.806846    25.153871    23.086225    14405.532    10017.443    7648.8528    8447.1063    222.56508    1329.8468    122.53705   -6176.9779 
 1506000    275.49934   -9027.9467   -7977.6176   -9027.9467            0    8326.0674    24.945532    25.084014    23.011168    14398.872    7667.3662    8657.7191     8653.117   -804.92975   -701.47043   -74.660829   -6229.2036 
 1507000    261.95335   -9053.0323   -8054.3467   -9053.0323            0    8883.8742    24.954597    25.036484    22.997247    14368.113    7936.3594    9981.3592     8733.904    367.30037    645.17458    435.17012   -6192.7825 
 1508000    263.21987   -9035.3632    -8031.849   -9035.3632            0    8728.5873    24.957786    25.073581    22.929131    14348.616    8661.8752    7548.3919    9975.4947   -793.39812    116.81806   -700.57708   -6205.3062 
 1509000    275.98939   -9022.4805   -7970.2831   -9022.4805            0    8030.6142    24.977061    24.901819    23.163133    14406.872    7444.8418    9336.1308      7310.87   -1266.8197    1270.3001    205.15779   -6282.9752 
 1510000     275.4031   -9049.0577   -7999.0955   -9049.0577            0    9015.7979    25.094639    24.933796    22.953516    14362.121     8144.699    9206.7507     9695.944    200.19644   -316.19915    1705.2103   -6110.6754 
 1511000    276.68826   -9082.2929   -8027.4311   -9082.2929            0    8695.4894    25.047888     24.94513    22.936703    14331.376     7270.746    8513.0693    10302.653   -63.393397    -206.9239    718.00119   -6210.0006 
 1512000    277.81884    -9043.214   -7984.0418    -9043.214            0    8007.3909    25.083994    24.906518     23.11174    14439.174    7404.8971    8831.7816    7785.4941    -12.64443   -345.79905   -436.87933   -6297.8411 
 1513000    276.30336   -9045.9444   -7992.5499   -9045.9444            0    8866.5779    24.966888    24.969987    23.019052    14350.603    9272.2707    8889.7336    8437.7294    741.42281    356.22316   -1046.0765   -6136.8743 
 1514000    263.60019   -9065.2279   -8060.2638   -9065.2279            0    10504.096    24.884239    24.987433    22.912297    14246.712    10598.456    10130.651    10783.182    365.27959   -895.20457   -974.12846   -5877.7891 
 1515000    272.89768   -9046.6038   -8006.1934   -9046.6038            0    10896.737    24.853441    25.022892    22.929705    14260.097    10706.629    10318.048    11665.533    -983.4186    662.30595     1947.938   -5740.0111 
 1516000    272.25482   -9032.7483   -7994.7888   -9032.7483            0    10591.179     24.72136    25.020104    23.079266    14275.241     12316.92    9857.8504    9598.7659     715.6565   -960.79325   -1510.3659   -5789.8139 
 1517000    272.87268   -9037.5248   -7997.2097   -9037.5248            0    10486.636    24.810129    25.068475    22.978292    14291.397    11655.555    8795.0341     11009.32    615.18173    184.43451    -453.8762   -5811.5286 
 1518000    274.96244   -9092.4721   -8044.1899   -9092.4721            0    9026.6537    24.796383    25.112614    22.983161     14311.66    10647.489    8180.8107    8251.6614    -51.60809   -343.84437    1078.7754   -6160.1387 
 1519000    269.16029   -9049.1842   -8023.0224   -9049.1842            0    10089.731    24.784887    25.104566    22.943005    14275.454    11030.961     8586.564    10651.668    -1037.195   -104.87247      574.571   -5922.4125 
 1520000    275.49129   -9086.0861   -8035.7876   -9086.0861            0    8980.9886    24.941851    25.000907    22.978851    14328.897    8422.6458    8604.6957    9915.6244   -222.58327   -320.03415    213.79365   -6159.0101 
 1521000    272.70932   -9080.9703   -8041.2781   -9080.9703            0    8456.6748    24.922657    25.020928    23.002693    14344.203    9018.3939    8108.9144     8242.716    23.800874   -497.11412   -536.90589   -6272.1798 
 1522000    277.08504    -9050.028   -7993.6534    -9050.028            0    9001.0334    24.987449    24.974786    23.021532    14366.729    8629.3362    9322.1572    9051.6067    521.40373    127.49834    347.53621   -6107.7208 
 1523000    260.00974   -9049.3832   -8058.1076   -9049.3832            0    9978.7775    25.066674    24.858878    22.953874    14303.233    7977.6869      11561.4    10397.246    533.06444    -290.4603   -802.60861   -5976.5547 
 1524000    276.27676   -8994.6509   -7941.3579   -8994.6509            0    9413.0371    25.173254    24.900603    22.953885    14388.165     8329.637     10885.15    9024.3239   -525.51713   -687.69558   -697.30647   -5966.1579 
 1525000    267.16886    -9032.516   -8013.9465    -9032.516            0     8319.921    24.975874    24.953583     23.12558     14412.73    8255.0902    9871.0333    6833.6396    659.10169    580.78143    1028.7232   -6265.1417 
 1526000    280.60462   -9058.6802   -7988.8874   -9058.6802            0    8217.1939    25.007607    25.105925    22.934169    14398.968    8002.6492    6872.3231    9776.6093   -13.097941   -323.00455    97.833063   -6263.3246 
 1527000    271.57288    -9051.529   -8016.1694    -9051.529            0    8873.5795    24.927015    25.015941    23.058081     14378.39    8675.5499    7963.5377     9981.651     -119.686   -288.12084    313.04693   -6155.4323 
 1528000    271.45416   -9080.4161    -8045.509   -9080.4161            0    7937.8979    24.959245     25.06047    22.992035    14381.298     7640.171    8008.6121    8164.9105    -640.5612    328.31843   -74.240613   -6380.6423 
 1529000    268.86714   -9066.4025   -8041.3584   -9066.4025            0    9673.0539    24.962665    24.953491    22.941728    14290.532      9344.23    9059.3291    10615.602   -552.21927   -1062.6626    476.26864   -6025.3706 
 1530000    268.25542   -9008.8984   -7986.1864   -9008.8984            0    8383.4498    25.056119    24.972184    23.032143    14411.351    6577.1033    9661.5611     8911.685    553.38867   -771.02396    1236.5751   -6224.1968 
 1531000    281.47269   -9043.5716   -7970.4694   -9043.5716            0    8145.3451    25.087206    25.016631    22.970539     14416.25    7761.2807    7240.9909    9433.7637   -28.113494   -1443.7763     795.9972   -6257.9413 
 1532000    281.98913   -9063.6771   -7988.6059   -9063.6771            0    8586.4873    24.931144    24.991967    23.046794    14359.958    8158.6302    9486.5325    8114.2993   -761.69547    152.21568   -67.164434   -6190.3786 
 1533000    278.66347   -9055.8701   -7993.4779   -9055.8701            0    9158.0232    25.011526    24.879036    23.045621    14340.429    7868.6746     11109.39    8496.0054   -456.41543    -47.23628     126.8053   -6078.1648 
 1534000    264.92773   -9076.6735   -8066.6481   -9076.6735            0    9563.5252    25.033916    24.941001    22.946991    14327.434    9010.5715     8667.256    11012.748    -475.8197     412.7997   -54.352953   -6068.3406 
 1535000     269.8734   -9115.2557   -8086.3752   -9115.2557            0    9340.3652    24.867781    24.905037    23.081359    14295.047    10176.074    9419.4042    8425.6175    -1187.938    238.52751    431.09201   -6139.1089 
 1536000    270.02305   -9061.2049   -8031.7539   -9061.2049            0    9948.6623    24.991975    24.899245    22.971893    14294.979    9979.1003    10791.588    9075.2984    140.78882   -145.61622   -58.899716   -5957.6805 
 1537000    279.18684   -9066.8541   -8002.4666   -9066.8541            0    11642.707    25.021545    24.776074    22.891132    14191.029    10300.944    12377.656    12249.521    626.06047    -1006.537    443.64428   -5592.8733 
 1538000    280.94408   -9054.9438   -7983.8569   -9054.9438            0    10920.184    24.847041    25.066581    22.895908    14260.267    12300.688    9557.8302    10902.034    481.62826   -680.37871   -331.03127   -5712.7713 
 1539000    267.44946   -9060.1415   -8040.5022   -9060.1415            0    10085.582     24.78723    24.954925     23.09036    14282.853    10240.911    10632.475    9383.3594    558.88241    -68.36417   -17.517784   -5939.6678 
 1540000    265.55409   -9040.5793   -8028.1659   -9040.5793            0    11353.245    24.836511    24.976449    22.938574    14229.436    11554.713    10955.452    11549.569   -1368.5537   -1373.3252   -17.376372   -5672.1209 
 1541000     265.0592    -9076.562   -8066.0354    -9076.562            0    9726.3254    24.927804     25.03497    22.853259    14261.961    10327.581    8377.1242    10474.271   -198.71065   -435.94943   -389.05433   -6042.9979 
 1542000     274.0339   -9080.3483   -8035.6061   -9080.3483            0    8591.2541     24.92442    24.981276    23.038356    14344.689    8798.3171    9155.6642    7819.7808      140.347     -216.504    355.94264   -6238.2936 
 1543000    277.69913   -9056.5409   -7997.8251   -9056.5409            0    9374.7183    24.846694    25.092325    22.982426    14328.654    9564.2313    8738.3556     9821.568    1340.9637   -783.87454   -985.78582   -6038.8023 
 1544000    267.76071   -9043.5631   -8022.7371   -9043.5631            0    10358.886    24.943529    25.030874    22.895514    14295.004    9318.4478    10148.457    11609.754    1183.8859   -128.16849    332.88345   -5863.1374 
 1545000    269.65492   -9111.2043   -8083.1567   -9111.2043            0     10682.81    24.930831    24.858021    22.984763    14244.373    9634.9173    11352.481    11061.032   -118.60274    351.62608   -742.37086   -5863.9144 
 1546000    268.94835   -8982.0162   -7956.6625   -8982.0162            0    12096.785    25.069476    24.868123    22.841876    14240.329    10570.694        12811    12908.661     377.0347     533.0107    -123.8749   -5444.3949 
 1547000     277.1186   -9096.4116   -8039.9092   -9096.4116            0    9847.0777    24.966529    24.825691    23.029806    14274.135    9561.7552    11075.468    8904.0103    328.66358    402.53202    114.08696   -5990.0074 
 1548000    272.32777   -9067.1329   -8028.8952   -9067.1329            0    10207.247    25.020252    24.945858    22.870991    14274.966    9554.5169    10420.948    10646.277    78.830969   -1535.9465    415.42942   -5903.8918 
 1549000    284.93416   -9082.7885   -7996.4896   -9082.7885            0    9010.0448    24.868484    24.900777    23.153462    14337.656    9562.1251    8909.3802    8558.6291    641.31009    158.62193   -699.11367   -6112.4892 
 1550000    277.27516   -9033.6091   -7976.5098   -9033.6091            0    10345.887    24.947018    24.915327    22.953191    14266.857    9517.5697    11048.556    10471.535    478.01053   -353.55519    1461.3152   -5823.8672 
 1551000    272.52494    -9049.619   -8010.6296    -9049.619            0    8962.1018    24.981951     24.93953     22.98967    14323.441    8856.4102    9327.7532    8702.1419    -332.2209   -927.43355   -513.82326    -6138.512 
 1552000    269.56333   -9054.7613    -8027.063   -9054.7613            0    8861.0012    25.031354    24.990544    22.921541    14338.505    8117.5945    10403.767    8061.6427   -52.655127    1101.7385    -1117.083   -6174.1179 
 1553000     272.6354   -9066.8001   -8027.3896   -9066.8001            0    9466.4803    24.920677    24.961202    22.986185    14298.558    9253.9083     8877.908    10267.625   -100.16949    -375.5506   -1375.6154   -6053.3464 
 1554000    271.82273   -9025.2398   -7988.9276   -9025.2398            0    9851.7104    24.890357     25.00348    23.029286    14332.173     10275.01    10468.074    8812.0479    -721.8935   -446.42689   -1465.5375   -5929.7226 
 1555000    277.05503   -9033.4419   -7977.1818   -9033.4419            0    10712.848    24.904163    24.994174    22.907897    14259.226    10739.361    11604.609    9794.5745    447.78177    -50.52897    123.35081   -5749.3787 
 1556000    275.78186    -9026.972   -7975.5658    -9026.972            0     9601.276    24.892014    24.947323     23.04259    14309.197    9556.9077    9964.1133    9282.8071     112.9834   -556.72148    270.92186   -5971.9238 
 1557000    269.35294   -9033.0586   -8006.1624   -9033.0586            0    8599.3646    24.880823    25.137125     22.95641    14357.681    9045.3464    7926.7983    8825.9491    374.51544   -410.07002   -384.66516   -6205.5238 
 1558000    267.48327   -9053.9116   -8034.1434   -9053.9116            0    9806.9347    24.865288    25.027525    23.009605     14319.26    10375.818    9387.8497    9657.1364   -917.97631   -485.92901    1489.7213   -5986.1444 
 1559000    264.21339   -9016.9738   -8009.6718   -9016.9738            0    10062.693    24.815109    25.121701    22.906755    14280.019    10260.071    9196.1293    10731.878   -34.374171    110.83393   -226.19602   -5914.0212 
 1560000    267.21463   -9084.2984   -8065.5544   -9084.2984            0    9676.5467    24.848737    25.036068    22.987784    14301.037    10070.578    8935.6689    10023.393   -53.059155   -861.51706   -595.83142   -6047.3561 
 1561000    260.92852   -9040.8817   -8046.1031   -9040.8817            0    8507.9293    24.909717    25.014444    23.089135    14386.903     9786.282    8439.5112    7297.9948   -807.77111     638.1995    -118.4036   -6260.9846 
 1562000    273.36612   -9063.0133   -8020.8169   -9063.0133            0     9246.879    24.991963    25.097534     22.82245    14315.077    9178.6818    9096.1427    9465.8126   -680.38126   -666.48832   -329.89103   -6090.3394 
 1563000    280.09663   -9031.3681    -7963.512   -9031.3681            0      9978.87    24.854694    24.816641    23.200047    14310.021    10563.086    10891.555    8481.9688    435.33028   -729.74523    17.536235    -5880.952 
 1564000    273.55092   -9040.3148    -7997.414   -9040.3148            0     10455.07    24.989854     24.91695     22.90251    14260.728    9498.3524    11415.335    10451.522    -361.2157   -686.88656   -772.01413   -5822.9886 
 1565000    261.81512    -9063.657   -8065.4983    -9063.657            0    8738.1595    25.133512    24.929788    22.894081    14344.816    8712.1208    8532.8526    8969.5049    -678.8966   -928.13044    326.49242   -6237.4367 
 1566000    280.53422   -9015.4561   -7945.9317   -9015.4561            0    8952.7364    24.993738    24.904494    23.093434    14374.656    6860.9467    10178.639    9818.6232   -240.30457    1151.6601    830.41751   -6069.0836 
 1567000    268.54045   -9087.2522   -8063.4535   -9087.2522            0    9685.0093    24.960344    25.033037    22.832079    14266.241    9926.9235    9156.5331    9971.5714   -324.37546   -670.06302     871.1804    -6048.405 
 1568000     266.1201   -9059.7353   -8045.1641   -9059.7353            0     9923.498    24.995208     24.93205    22.958484    14307.309    10325.375    10490.211    8954.9079     72.38576     -192.341   -518.78667   -5974.5526 
 1569000    270.89869   -9089.4464    -8056.657   -9089.4464            0    9308.5393    24.888436    24.848143    23.170186    14329.171    9640.5544    10085.678    8199.3852    17.324231   -652.40599   -22.371539   -6111.3933 
 1570000    269.62579   -9073.3757   -8045.4393   -9073.3757            0    9054.2761    25.013236     25.00892    22.899596    14324.935    8427.4744    8241.7032    10493.651    657.01968    375.13551   -229.85021   -6153.8699 
 1571000    283.25468   -9098.5309   -8018.6349   -9098.5309            0    8076.4383    25.074673    24.978859    22.938846    14367.442    8910.5882     7150.115    8168.6117    603.63401    70.950926     711.1204   -6326.3432 
 1572000    282.63661   -9055.8911   -7978.3515   -9055.8911            0    9875.2918    24.922507    24.894398    23.089803    14325.626    9897.9091    10033.569    9694.3976   -55.869514   -250.42002    -359.1412   -5915.1605 
 1573000    264.39301   -9105.9542   -8097.9675   -9105.9542            0    9284.9909    25.040089    24.851662    23.029216    14330.801    8173.4931    10177.451    9504.0289    1014.6978    74.478944    664.61624   -6157.4041 
 1574000     277.9032   -9045.7931   -7986.2994   -9045.7931            0    11089.077    24.970107    24.991538     22.83591    14250.553    10852.263    10881.004    11533.966   -249.96551   -1316.6998   -1162.3195   -5681.6598 
 1575000    277.79041    -9015.839   -7956.7753    -9015.839            0    10917.941    24.854006    24.862987    23.104245    14277.148    10127.384    11937.199    10689.241    814.15316    158.45605    718.46716   -5683.4681 
 1576000    278.66281   -9069.0604   -8006.6707   -9069.0604            0    10477.919    24.929612    24.963812    22.883191    14241.083    9956.6893    9846.9581    11630.109    165.48128   -3.1720825   -1278.8621   -5830.4952 
 1577000    263.39746   -9063.7577   -8059.5665   -9063.7577            0    10497.833    24.710463    24.939552    23.161977    14273.982      11938.1    10277.555    9277.8441    168.85906   -251.85217    872.08114   -5874.2181 
 1578000    283.30604   -9061.1208    -7981.029   -9061.1208            0    8894.6987    24.918574    25.080156    22.937706    14335.189    8946.9074    8001.7646     9735.424    643.09466     881.3149    309.89582   -6121.4675 
 1579000    273.70056   -9079.4484    -8035.977   -9079.4484            0      10277.1    24.903274    24.932551    22.978933    14267.669    11054.697    9351.8117    10424.792    279.67384   -1453.6085   -467.83612   -5897.5251 
 1580000    272.35279    -9063.739   -8025.4059    -9063.739            0    7413.7605    24.983739    24.997365    23.108934    14432.168    7139.7944    7564.3391    7537.1481    3.5373361   -676.69905   -77.399644   -6464.9697 
 1581000    274.46714   -9030.2982   -7983.9043   -9030.2982            0    9168.3356    25.047686    25.008537    22.903424    14346.842    7677.2762    10465.794    9361.9363   -447.27017     273.3122   -621.16215    -6065.577 
 1582000    269.41247   -9047.3574   -8020.2342   -9047.3574            0    9041.2329     25.03159    24.902797    22.994019    14333.473    8903.6345    9750.5948    8469.4693     -233.527   -792.58033    648.41818   -6130.2638 
 1583000    266.88982   -9081.5566   -8064.0509   -9081.5566            0    10012.777    25.138362    24.861735    22.817147    14260.335     8500.762    10827.795    10709.775   -174.20452   -134.78334    272.58054   -5981.6699 
 1584000    285.68625   -9059.8833    -7970.717   -9059.8833            0    9069.2621    25.029341    24.869596    23.027965    14334.208    8201.5117    10513.921    8492.3535   -441.98412   -31.813632    47.025252   -6074.7903 
 1585000    273.64881   -9072.8813   -8029.6073   -9072.8813            0    9237.1407    25.098708    24.808786    22.984548    14311.754    7640.0239    9842.4157    10228.982   -410.60923   -254.34391   -483.60614   -6101.6105 
 1586000    278.78376   -9071.3875   -8008.5366   -9071.3875            0    9818.4963    24.940402    25.026974    22.927098    14310.701    9068.8285    10457.701    9928.9596     -612.429   -878.24154    394.50101   -5959.3488 
 1587000    268.44453   -9037.1707   -8013.7377   -9037.1707            0    11405.905    24.780074    24.947503    23.002352    14220.076    12208.099    11461.948    10547.668   -188.59893    322.44834   -702.97337   -5648.3215 
 1588000    286.04614   -9065.4472   -7974.9089   -9065.4472            0    9652.5509    24.935711     24.95606    22.984692    14303.307    8852.8164    9741.7713    10363.065    431.53959   -890.61227     814.1145   -5961.3958 
 1589000    261.31637   -9065.3337   -8069.0765   -9065.3337            0    10675.917    24.895126     24.96111    22.946658    14259.282    11083.364    9563.1122    11381.276   -292.97916   -964.66774    859.13215   -5848.9448 
 1590000    274.59859   -9049.5339   -8002.6389   -9049.5339            0    9210.7906    24.909133    24.940229    23.094203    14347.031    8345.1607     9841.002     9446.209   -140.98394     271.4232     -215.632   -6075.4032 
 1591000    267.69806   -9073.5606   -8052.9735   -9073.5606            0    10157.844    24.995813    24.898237    22.945939    14280.444    9540.0205    10727.022    10206.491    -297.8617   -892.20753   -243.46857   -5937.4437 
 1592000    267.84216   -9021.9924    -8000.856   -9021.9924            0    10890.613    25.047546     24.81711    22.952034    14267.161    10987.211    11567.022    10117.607   -367.28773   -1359.5558    840.62247   -5734.8252 
 1593000    267.66284   -9023.8713   -8003.4185   -9023.8713            0    9366.5549    25.055723     24.90078    23.002245    14351.263    8760.7691    9537.7692    9801.1264    385.39023    142.29211    679.93724    -6043.013 
 1594000    265.74637   -9041.3778   -8028.2315   -9041.3778            0    8248.6125    25.063849    24.946435    23.005337    14384.172    8067.0659    8710.5521    7968.2196    717.47642    374.68097   -234.98262   -6297.8508 
 1595000    263.19604   -9089.9265   -8086.5031   -9089.9265            0    9573.3028    25.010956    24.812949    23.008252    14278.819    8812.3916    10308.263    9599.2539   -1337.5381   -1160.8415   -785.68891   -6092.9401 
 1596000    268.30268   -9039.4495   -8016.5573   -9039.4495            0     9939.232    24.941045    24.962757    22.979359    14306.885    9671.4855    9682.8401     10463.37    49.320721    -658.7706    901.98571   -5942.7242 
 1597000    277.31337   -9060.3002   -8003.0552   -9060.3002            0    9472.7135     24.81384    25.062157    22.976795    14289.001    11019.636    7864.3854    9534.1193    223.94866     1448.244    1525.2065   -6029.0324 
 1598000     261.0061   -9085.3469   -8090.2726   -9085.3469            0    8986.7016    24.921116    24.944479    23.010477    14304.331    8445.0296    9231.5711    9283.5039   -1232.8868    318.88852   -800.19469   -6215.5209 
 1599000    277.97148   -9059.4645   -7999.7105   -9059.4645            0    9730.4312    24.940118    25.048376    22.924118    14320.913    9927.8435    9343.5553    9919.8949   -804.63152   -20.084528    31.162249   -5967.4532 
 1600000    264.36255   -9067.8958   -8060.0251   -9067.8958            0    9037.1543    24.904211    25.014044    22.957755    14301.649      10241.7    7756.1489    9113.6135   -640.43875    1094.7259    11.982126   -6175.1017 
 1601000    268.78847   -9043.3514   -8018.6072   -9043.3514            0    12006.093    24.786254    24.990765    22.926757    14201.463    13033.959     10712.52      12271.8   -482.28121    1138.7392   -195.66141     -5531.98 
 1602000    282.23686   -9052.8301   -7976.8145   -9052.8301            0    10188.536    24.834357    25.040719    22.990244    14296.947    11264.756    9393.8404    9907.0111    458.53158   -1222.8187    284.46628   -5852.4405 
 1603000    280.51625    -9072.907   -8003.4511    -9072.907            0    9373.0388    24.973596    25.055832    22.851718    14299.102    9042.8591    8260.0141    10816.243   -1086.6228   -1000.5638   -606.23633   -6048.8188 
 1604000    272.46186   -9068.3025   -8029.5536   -9068.3025            0    8514.7993    24.869776    24.855909    23.256077    14375.998    10457.574    7859.3837      7227.44   -640.15289    51.576351    1018.5075   -6244.3478 
 1605000    274.32299   -9043.3102   -7997.4659   -9043.3102            0    9953.5061    25.025022     24.99465    22.922976     14338.13    8562.7358    9911.3954    11386.387   -367.03691    58.320877   -688.83716   -5916.1188 
 1606000      267.384   -9061.1731   -8041.7834   -9061.1731            0    10519.596    25.001667    25.003528    22.778105    14239.274    10056.827    10159.899    11342.062    221.24021    316.11638    1278.0837   -5857.2294 
 1607000    277.34124   -9075.5262   -8018.1749   -9075.5262            0    9703.6562    24.898863     24.88012    23.078895    14297.068    9632.8822     10806.33    8671.7563   -1711.6872    67.974056    -1221.711   -5994.8842 
 1608000    280.84929   -9079.3506    -8008.625   -9079.3506            0    10555.049    24.990763    24.896187     22.88505      14238.5    11140.382    9687.6747     10837.09    898.69192    121.70925    1854.7957   -5816.8278 
 1609000    281.72427   -9096.0184    -8021.957   -9096.0184            0    11115.784    24.968769    24.900706    22.864929    14216.041    10994.172    10697.342     11655.84    1275.3808    -302.5923   -717.45286   -5717.3617 
 1610000    267.90111   -9063.4941   -8042.1329   -9063.4941            0    10267.159    24.892976     24.90136    23.061613    14295.178     8792.884    11272.659    10735.934   -86.839975   -714.45998    984.57159   -5901.6304 
 1611000    278.22423   -9080.4419   -8019.7242   -9080.4419            0    9557.9655    24.918247    25.120092    22.849593    14302.672    9975.4254    8210.7404    10487.731   -1083.3251   -171.99304    678.84948   -6026.0301 
 1612000    284.75473   -9082.5575   -7996.9426   -9082.5575            0    9365.4661    24.902153    25.052154    22.964076    14326.198    9626.0191    7713.9487    10756.431    92.315983    343.47619    328.31558   -6040.1886 
 1613000    269.92427    -9053.404   -8024.3296    -9053.404            0    8805.2128    24.936748    24.905314    23.112783    14354.368    8423.5136    9060.0475    8932.0775    285.67508   -415.51178    676.91993   -6181.0135 
 1614000    276.75704   -9003.1995   -7948.0755   -9003.1995            0    10568.375    24.944012    24.946891    22.990961    14306.713    9040.7196    12111.398    10553.008   -49.822095    134.84088    992.73537   -5742.9974 
 1615000    281.66585   -9024.9035   -7951.0648   -9024.9035            0    11295.065    24.898102    24.881308    22.994367    14244.949    12402.573    11068.809    10413.812   -209.58651    -1117.317    747.29303    -5604.538 
 1616000    272.98678   -9075.9122   -8035.1621   -9075.9122            0    11203.838    24.989787    24.876242    22.875401    14220.539    10030.741    12379.753    11201.022     341.1081   -131.54275    626.02842    -5711.576 
 1617000    265.37937   -9086.3612    -8074.614   -9086.3612            0     10821.68    24.860003    24.722985    23.133805    14218.349    10988.055     11288.28    10188.706   -246.98521   -590.54944   -463.56889     -5830.63 
 1618000    270.86455   -9099.8139   -8067.1547   -9099.8139            0    10057.149    24.940219    24.937958    22.929224    14261.017    8853.8603    10041.305    11276.281    749.93857    -558.9082    216.61231   -5975.4457 
 1619000    268.19328   -9044.1904   -8021.7153   -9044.1904            0    9540.9539     25.06743    24.959715    22.853912    14299.142    8328.7905     10667.59    9626.4815   -398.55091   -463.90788   -15.052442   -6032.0608 
 1620000    266.23226   -9051.3914   -8036.3926   -9051.3914            0    8686.3681    25.024882    24.887217    23.049377    14355.145    8393.4578    9590.0227    8075.6237   -294.15617   -181.92216   -1285.2529   -6217.8575 
 1621000    270.43104     -9071.95   -8040.9436     -9071.95            0    8820.1062    24.964595    24.917047    23.028365    14324.656    9159.0632    8695.0582    8606.1972   -274.31667   -1196.5156    1174.2543   -6198.3316 
 1622000    270.27897   -9032.5925   -8002.1658   -9032.5925            0     8362.416    25.037681    24.977476    23.014053    14392.484    8202.4687    7694.4622    9190.3171    325.89674   -1527.6553   -627.70487   -6246.8978 
 1623000    259.46285   -9046.1336   -8056.9429   -9046.1336            0    8154.8722    24.970525    25.057244    22.972696    14373.844    8322.8443    7994.6321    8147.1403    1356.8017    126.64837    525.41699   -6347.4552 
 1624000    283.90735    -9067.487   -7985.1027    -9067.487            0    9386.2021    24.863716    25.000891    23.046215    14325.874    11085.098    8967.1579    8106.3505    -522.5246    388.54744    870.34792   -6024.0606 
 1625000     280.0735   -9031.8528   -7964.0849   -9031.8528            0    10743.995    24.749057    25.059529    22.958281    14238.719    10796.347    10317.676    11117.961   -229.20338   -1373.7516    180.94925    -5733.018 
 1626000    271.77918   -9059.0194   -8022.8732   -9059.0194            0    10505.456    24.884352    24.930224    22.976569    14254.031     11175.84    10133.132    10207.396    684.92708   -988.23265    706.40884   -5838.9945 
 1627000     273.4753   -9025.0189   -7982.4063   -9025.0189            0    11116.771     24.93206    24.974443    22.881143    14247.271    11472.951    9681.6539    12195.707   -178.07854     -979.218    520.71737   -5672.5434 
 1628000    277.95521   -9088.5295   -8028.8375   -9088.5295            0    10393.152    24.799366    24.950077    23.015359    14240.663     11506.32    10277.928    9395.2075    341.31613   -582.17023    1786.0602   -5870.3309 
 1629000    267.19636   -9010.1455   -7991.4711   -9010.1455            0    11052.743     24.92417    24.972417    22.903475    14255.507    11903.556    10005.411    11249.262   -1084.0278    3.8126447    1707.0233   -5693.5842 
 1630000     263.1573   -9057.6821   -8054.4065   -9057.6821            0    10695.951     24.92609     24.98393     22.89946    14260.678    10215.385    9925.7298    11946.738   -327.53071    408.87867    235.93422   -5829.8909 
 1631000    278.40207   -9106.3311   -8044.9354   -9106.3311            0    10657.341    24.776687    24.855949    23.061985    14202.679    12028.183    10558.569    9385.2714   -703.33868    19.588005    37.867711   -5837.4644 
 1632000    273.83673   -9057.2194   -8013.2289   -9057.2194            0    8821.3423    24.999139    25.075929    22.868583     14335.78    8214.0929    8647.1177    9602.8165    52.189465    303.25894   -378.88106   -6168.9275 
 1633000    272.67742   -9073.9609   -8034.3902   -9073.9609            0    7858.7904    24.895031    25.057429    23.099498    14409.593    9017.9872     8248.597     6309.787   -586.82638   -985.20483   -558.29791   -6382.8722 
 1634000    269.70013    -9100.473   -8072.2531    -9100.473            0    8498.6525      24.9648    25.072878     22.93606    14356.583    8831.0925    7577.6729    9087.1919    857.62461   -890.53881   -1050.1906   -6292.8389 
 1635000    266.67219   -9111.2304   -8094.5544   -9111.2304            0    8524.2912    25.020613    25.014693     22.91749    14343.666    8000.1065    8424.6684    9148.0987    932.71102   -1443.8269    411.00582   -6311.3779 
 1636000    268.48698   -9046.3363   -8022.7414   -9046.3363            0    8545.8478    24.999785    24.916872    23.085195    14380.148    7301.5164    10010.428    8325.5992   -598.70591    267.64678   -927.95882   -6230.5087 
 1637000    269.46656   -9069.3641   -8042.0346   -9069.3641            0    9917.7673     25.05623     24.91454    22.879522    14282.872    9462.3946    9484.6522    10806.255    144.58673     34.37016   -429.82567   -5976.1534 
 1638000    279.34675   -9070.1968   -8005.1996   -9070.1968            0    9865.2039    24.974536    24.799944    23.014164    14254.216    8811.2592    10675.425    10108.928    631.22118   -475.95668   -684.16224   -5954.3902 
 1639000    268.10192    -9080.572   -8058.4452    -9080.572            0    10736.505    25.047257    24.841247    22.851022    14218.023    9152.0983    11985.853    11071.562   -1224.4481    207.75527    73.782198   -5832.1743 
 1640000    275.77201   -9064.6278   -8013.2591   -9064.6278            0    9634.9702    24.918342    24.950599    23.016226    14309.822    9149.0975    10751.356    9004.4569   -632.77364    1002.2248   -663.90905   -6002.4979 
 1641000    275.05359    -9104.041   -8055.4112    -9104.041            0    8442.4912    25.005444    24.953044     22.99692    14349.203    8805.3664    8829.6656    7692.4417   -77.449396    651.51149   -772.05113   -6288.6645 
 1642000    264.36559   -9075.5566   -8067.6744   -9075.5566            0    8828.3848    24.998303    24.981699    22.945254    14329.313     8858.531    8197.9471    9428.6763   -275.86667    772.36736   -136.27889   -6222.7333 
 1643000    278.07468    -9080.218   -8020.0705    -9080.218            0    9016.8758    24.811184    24.974922    23.133974    14335.138    9777.9476    8418.0514    8854.6284     23.68493   -401.95811   -628.25845   -6134.9728 
 1644000    270.19848   -9054.0557   -8023.9359   -9054.0557            0    9573.1602    24.845012    25.074927    22.978813    14315.498     9710.706    9022.6536    9986.1209    -716.8004   -1217.4718    417.46741   -6025.2816 
 1645000    278.99503   -9024.7464   -7961.0901   -9024.7464            0    9343.2781    24.973826    25.062398    22.943075    14360.161    9509.2368    8196.6089    10323.989   -145.32482    89.737709    548.43625   -6004.3439 
 1646000    261.92347   -9037.9912   -8039.4195   -9037.9912            0    8810.0742    24.915016    24.898562    23.138504    14353.927    8545.7423    9565.3882    8319.0922   -806.25348    38.953008   -123.12169   -6195.1424 
 1647000     270.0466   -9062.7354   -8033.1946   -9062.7354            0     9605.748    25.011724    24.908466    22.944878    14294.743     7946.307    10351.111    10519.826    65.486734   -58.922776    419.90241   -6030.6443 
 1648000    267.82222   -9074.7722   -8053.7117   -9074.7722            0    10621.956    25.010663    24.883472    22.891398     14246.51    10108.584    10882.817    10874.466   -209.59767   -254.65254   -286.83925   -5846.7802 
 1649000    278.77904   -9076.1134   -8013.2805   -9076.1134            0    9267.9002    24.893379    24.893264     23.06533    14293.065    9560.1767    9528.0857     8715.438    58.260428   -396.98318    650.91425   -6081.3896 
 1650000    268.84482   -9062.2289   -8037.2699   -9062.2289            0    9100.7074    24.949705    25.080751    22.860156    14304.911    8489.6562    9018.2347    9794.2312   -403.14129   -612.67331    245.23517    -6138.658 
 1651000    270.36419   -9027.5769   -7996.8252   -9027.5769            0    10040.288    24.914602    24.969105    22.967339    14287.874    11249.257    8448.9506    10422.657   -438.72089   -456.45652   -331.83486   -5904.6904 
 1652000    273.05102   -9095.4808   -8054.4857   -9095.4808            0    7868.1381    25.117757    24.998056    22.928532    14396.713    6939.6997     8346.743    8317.9716   -82.415016    156.94426    20.600532   -6402.4813 
 1653000     278.4897   -9060.2146   -7998.4849   -9060.2146            0    9092.8043    25.008916    24.875314    23.076427    14355.952    7571.7605    10117.671    9588.9817    913.34469   -227.68379   -622.19148   -6094.7532 
 1654000    262.58098   -9070.8557   -8069.7772   -9070.8557            0    8917.4174    24.907928    24.963202    23.071346    14345.339    8783.9357    9825.5702    8142.7463    144.29449    135.97785    541.01892    -6204.146 
 1655000    270.81722   -9062.1979   -8029.7192   -9062.1979            0    9186.8113    24.913463     25.03307    22.932187    14301.899    9226.4095    9135.0519    9198.9725   -154.87875   -1256.9582   -227.07361   -6113.5476 
 1656000    262.32256   -9117.0316   -8116.9384   -9117.0316            0    10089.688    24.888116    24.825832    23.080813      14260.9    9396.6846    11325.152    9547.2273     748.3601   -299.49374    541.56952    -6018.479 
 1657000    272.97233   -9081.3451   -8040.6501   -9081.3451            0    9275.9183    24.975222    24.904572    23.037104    14329.015    8718.8013    9769.7933    9339.1604    299.03286   -1431.0476    162.85974   -6102.2245 
 1658000    272.81375   -9061.7265   -8021.6361   -9061.7265            0    9109.5545    25.106866    25.023368    22.832546    14344.737    10558.333    8425.6041    8344.7267   -160.91921   -276.62664    140.26525   -6115.8874 
 1659000    274.61269   -9040.2024   -7993.2535   -9040.2024            0    10034.838    24.902157    24.866655    23.119823    14316.565    11118.578    9623.5011    9362.4354   -909.84498    720.66554   -449.85322   -5898.0555 
 1660000    269.94502   -9057.0253   -8027.8717   -9057.0253            0    9980.5377    24.978297    24.983162    22.900325    14290.646    9154.3598    10227.369    10559.884    556.33188    256.44084    1234.9515   -5947.7837 
 1661000     266.3449   -9081.5329   -8066.1047   -9081.5329            0    10279.021    24.795945    24.977188    22.976151    14229.888    11626.935    9192.6153    10017.512    -276.8673   -1429.9583   -381.79393   -5932.9168 
 1662000    277.88141   -9095.4205   -8036.0098   -9095.4205            0    7610.8317    24.906461    24.948583    23.164851    14394.197    7576.7764    8447.3084    6808.4103    152.22208   -655.70697    819.64532   -6438.3091 
 1663000    270.33335   -9045.1685   -8014.5345   -9045.1685            0    8946.8529    25.027361    25.033034    22.869812    14328.183    8249.6599    9040.4006    9550.4982    617.45041   -523.73759    87.518749   -6144.9835 
 1664000    263.14447   -9058.3774   -8055.1507   -9058.3774            0    9764.2823    24.951224    24.936829    22.976585    14296.132     9309.118    10008.008    9975.7212   -212.51529   -562.62692    -337.3969   -6019.3523 
 1665000    272.08167   -9059.1836   -8021.8842   -9059.1836            0     10193.58    24.784216    24.892182    23.135224    14272.887    10739.574    11558.038    8283.1289    313.38995   -440.87685   -498.60511   -5900.0352 
 1666000    267.86952   -9015.0682   -7993.8274   -9015.0682            0    10354.131    24.925257    24.990496    22.952287    14296.854    10467.954    9849.4528    10744.986    230.81481   -747.10654   -859.47746   -5834.9398 
 1667000    258.64941   -9087.3891   -8101.2996   -9087.3891            0    8268.5172    25.007653    24.958342    22.943267    14320.029    7420.6015    10232.602    7152.3483    218.01323   -254.64924   -733.24561   -6374.4781 
 1668000     268.5473   -8991.7873   -7967.9625   -8991.7873            0    11086.209    25.001126    24.824806    23.021893    14288.495    9792.8167    12531.853    10933.957    16.582856   -638.15005    873.27368   -5657.7846 
 1669000    265.87085   -9034.5707   -8020.9498   -9034.5707            0    10132.161    24.921717    25.005633    22.958958    14307.639    8285.4152    11190.232    10920.837     295.3461   -682.14504   -1680.2152   -5906.7502 
 1670000    269.64218   -9051.7056   -8023.7066   -9051.7056            0    10896.017    24.716101    24.994274    23.064657    14248.446    12264.887    10204.254     10218.91    342.52048   -1207.9171   -112.39254   -5759.5255 
 1671000    273.71896   -9077.9084   -8034.3669   -9077.9084            0    9751.7629    24.937284    24.981933    22.905236     14269.54    9722.2587    10218.027    9315.0034    355.16594   -709.41092    1094.4329   -6004.9607 
 1672000    276.31956   -9085.5265   -8032.0703   -9085.5265            0    10811.495    24.988224    24.941259     22.85973    14247.047    10373.497    10717.244    11343.743   -857.78464    312.38208   -210.45742   -5785.6735 
 1673000    272.60976   -9052.4449   -8013.1322   -9052.4449            0    11109.114    24.820508    24.865159    23.037688    14218.074    10453.396    11829.258    11044.688   -501.14895   -646.17508    322.57792   -5709.5904 
 1674000    270.79601   -9069.9901   -8037.5922   -9069.9901            0    11855.961    24.922926    24.810103    22.923999    14174.834    11493.554    12927.871    11146.458   -18.811248   -21.657027    -33.77169   -5586.6638 
 1675000    271.04996   -9056.9992   -8023.6331   -9056.9992            0    10379.275    24.949608    24.946445    22.885451    14243.997    9492.4844     11721.69    9923.6507   -478.02389    -513.6668    616.67614   -5867.5039 
 1676000    278.97069   -9105.9698   -8042.4063   -9105.9698            0    11217.024    24.889333     24.85618     22.97574    14214.028    11290.129      10324.9    12036.042   -158.55891   -628.14287   -1016.0085   -5717.1507 
 1677000    270.68625   -9040.9921   -8009.0126   -9040.9921            0    10352.757    25.071067    24.837816    22.888041    14252.624    8316.0676    11961.551    10780.654   -605.50118    688.36056   -692.28071   -5857.0894 
 1678000    267.53676   -9056.1647   -8036.1926   -9056.1647            0    8914.2365    25.038442    24.915163    22.979187    14335.264    9360.9464    8338.1567    9043.6065    841.04584    523.91212    943.74035   -6172.5366 
 1679000    268.77492   -9062.3557   -8037.6631   -9062.3557            0    8614.3023    24.983998    24.934891    23.072176    14373.349    8825.2464    8167.5869    8850.0736    250.60507   -655.46282    191.86191   -6231.9284 
 1680000    262.90745   -9064.2568   -8061.9337   -9064.2568            0    8428.9296    24.961035    25.067327    22.970402    14372.729    9250.8897    7491.8747    8544.0245   -914.44606    48.583154    442.97091   -6295.1331 
 1681000    269.56958   -9060.4378   -8032.7156   -9060.4378            0    9487.0446    24.805166    25.034274    23.030966    14301.754    10607.757     8941.025    8912.3516    -640.9206   -233.78024     961.5475   -6053.9419 
 1682000      272.785   -9019.6729   -7979.6921   -9019.6729            0    10369.588    24.911887    25.052657    22.896869    14290.141    11557.478    10086.104    9465.1823    -992.5705   -724.07242    181.94355   -5818.5969 
 1683000    266.64131    -9041.152   -8024.5937    -9041.152            0    9534.3367    24.823121    25.039798    22.995143    14292.998    10188.965      8782.77    9631.2746   -571.37255   -811.40976     33.32023   -6037.1736 
 1684000     270.2498   -9045.7729   -8015.4574   -9045.7729            0    9691.6679    24.920328    24.988547    22.998991    14321.995    9490.0003    10414.333    9170.6703    107.75488    248.31985    1151.9736   -5991.1431 
 1685000    279.15946   -9036.6962    -7972.413   -9036.6962            0    9091.0017    25.066734    25.043724    22.848461     14343.45    8705.5192    9100.5177    9466.9682   -657.46046    883.86108   -342.38172   -6070.7163 
 1686000    278.29494    -9042.594   -7981.6067    -9042.594            0    9424.4373    24.861188    24.970657    23.124488    14355.687    11744.298    8534.0404    7994.9739    245.31102   -355.54147   -584.97217   -6008.4785 
 1687000    264.36815    -9086.692   -8078.8001    -9086.692            0    10155.131    25.004881    24.995809    22.836492    14273.201     9592.125    9928.0405    10945.228    188.33916    -487.2056    205.53622   -5964.9081 
 1688000    279.46822   -9041.4781   -7976.0178   -9041.4781            0    11019.354    24.920182    24.911403     22.95637    14251.239    10679.611    10773.443    11605.009    909.37858    71.104444   -155.83318   -5685.7585 
 1689000    264.57362   -9073.7374   -8065.0621   -9073.7374            0     10557.82    24.850569    25.006174    22.950581    14261.896    11641.528    9864.0945    10167.838    288.14378   -547.72376    299.73627    -5869.087 
 1690000    273.67332   -9017.0296   -7973.6621   -9017.0296            0     8902.868    24.852343     25.11273    23.048083    14384.543    9709.6514    7619.4941    9379.4584   -221.95702    114.52017   -203.00482   -6105.9845 
 1691000    273.01587   -9056.0589   -8015.1979   -9056.0589            0    9188.9167    24.824123    25.082221    23.039038    14345.123    10130.458     8853.698    8582.5938    418.92211   -405.71063    20.029046   -6092.7947 
 1692000    273.65182   -9047.8807   -8004.5951   -9047.8807            0    8848.2261    24.835132    25.077336    23.058829    14361.015    9462.8707      7838.29    9243.5176   -950.83834   -433.55058   -90.022738   -6151.4167 
 1693000      266.135   -9034.4064   -8019.7784   -9034.4064            0    10117.872     24.94442    24.993449    22.923428    14291.544     10240.67    9114.7504    10998.196    325.28606   -64.209708    64.577752   -5910.9355 
 1694000    272.39083   -9074.3456   -8035.8675   -9074.3456            0    8573.0299     24.99429     24.93291    23.030595    14352.215    8016.1252    9696.9242    8006.0401    828.53511    625.66942   -220.38723   -6241.4266 
 1695000     270.2903   -9041.6939   -8011.2241   -9041.6939            0    9098.3118     24.93657    24.875626    23.123888    14344.043    9467.8502    9840.8335    7986.2516    41.478214    169.37836   -1019.6665   -6107.9195 
 1696000      270.623   -9032.7257   -8000.9874   -9032.7257            0    9136.2551    24.998102    24.957097     23.02177    14362.823     7054.995    11013.814    9339.9564    281.61565    394.36835     853.3739   -6087.2431 
 1697000    275.88605   -9072.4194   -8020.6159   -9072.4194            0    8729.3072    24.913595    25.132427    22.898643    14337.736    8798.8267    7973.7449    9415.3501   -778.85182   -1232.6758   -134.99379   -6195.3075 
 1698000    272.61269   -9051.5043   -8012.1804   -9051.5043            0    8668.8685    24.758628    25.089637    23.087929    14341.875    9171.8291     8901.066    7933.7103   -143.31592   -1905.2744    1002.6122   -6198.9866 
 1699000    273.31786   -9029.9445   -7987.9322   -9029.9445            0    10610.774    24.887182    25.013144    22.939879    14280.228     11045.72    10078.243     10708.36    598.98267   -795.70943   -32.460915    -5778.106 
 1700000    271.14198    -9045.019   -8011.3021    -9045.019            0    10935.662    24.964258    24.813562    22.973707    14231.113     10550.62    11785.408    10470.958    221.32502   -455.27815   -453.38661   -5741.6472 
 1701000    280.37878   -9046.5489   -7977.6171   -9046.5489            0    11060.293    24.979789    24.836432    23.002625    14271.031    11760.437    10433.388    10987.054    48.062868    122.38893    185.96725   -5675.6565 
 1702000    270.59538   -9057.0251   -8025.3921   -9057.0251            0     10727.21    24.981991    24.875997    22.956559    14266.398    10376.552    11502.533    10302.544    467.16368   -554.82192   -34.921725   -5793.4804 
 1703000    271.85771   -9102.7866    -8066.341   -9102.7866            0    10718.016    25.007657    24.939731    22.804878    14223.043    9823.3352    10193.707    12137.005   -271.51298    330.84214    535.34408   -5843.1192 
 1704000    279.48933   -9068.1246   -8002.5838   -9068.1246            0    9954.6568    24.948539     24.93119    22.993603    14301.947    9336.9842    10599.576    9927.4107     276.5371   -870.71038    922.74157   -5926.2491 
 1705000    266.51956   -9062.8922   -8046.7981   -9062.8922            0    11065.006    25.060042     24.78163    22.943635    14248.656    9113.5437    13407.112    10674.364    420.11794   -556.36339    95.637077   -5747.4673 
 1706000    262.43752   -9117.1614   -8116.6299   -9117.1614            0    9488.3952    25.006626    24.873077    22.969839     14287.05    9100.4288    9765.4511    9599.3057    46.995628    328.84406    396.99171   -6139.6092 
 1707000    267.13782   -9022.6252    -8004.174   -9022.6252            0    11361.458    24.935206    24.836449     22.98693    14235.851     11333.42    11768.781    10982.173    112.93632     814.6524     247.2332   -5645.3617 
 1708000    269.30945    -9047.553   -8020.8225    -9047.553            0    9945.4511    24.984083    24.881212    22.968713    14278.139    9536.1726    11456.977    8843.2035   -751.05169    380.01267    1292.0009   -5949.8612 
 1709000    269.03677   -9022.7615   -7997.0706   -9022.7615            0    10191.539    24.905106    25.071005    22.936902    14321.711    10705.206    9649.9273    10219.485    380.75682   -330.56418   -255.61098   -5868.3896 
 1710000    273.25614   -9048.2689   -8006.4919   -9048.2689            0    9620.6728    24.840115    25.129887     22.93813    14318.653    10039.382    8853.5128     9969.124    266.62226   -742.16953    633.50983   -5997.4754 
 1711000    282.77344   -9073.6479   -7995.5866   -9073.6479            0    9080.4338    24.809313    25.056103    23.068186    14339.754    10368.603    8608.5913    8264.1068   -64.628051    584.49692   -465.69859     -6096.59 
 1712000    273.15205   -9077.1808   -8035.8006   -9077.1808            0    8569.5098    24.911121    25.062357    22.961905    14335.838    10179.083    7851.6505    7677.7956   -608.57111   -497.99379    473.03373   -6244.1433 
 1713000    272.29329   -9073.3669   -8035.2607   -9073.3669            0    10192.436    24.853544    24.980207    23.004828    14282.471    10309.363     9960.883    10307.062   -216.88415   -492.72618   -739.63602   -5912.2253 
 1714000    273.18657   -9053.8275   -8012.3158   -9053.8275            0    10277.571    24.877544    25.058203    22.928071    14293.051    9918.8298    9849.7169    11064.167     -624.508   -397.58055    853.98822   -5869.9614 
 1715000     272.0693   -9079.1742    -8041.922   -9079.1742            0    10916.858    24.874562    24.931801    22.944894    14229.681    11695.914    10176.523    10878.135   -265.38533    594.03267   -900.18013   -5776.3979 
 1716000    264.77151    -9070.789   -8061.3592    -9070.789            0     9914.594    24.899332    24.942719    22.988066      14276.9    9140.7979    9667.7809    10935.203   -44.969362    321.82912    144.77538   -5997.0025 
 1717000    274.28602   -9040.8598   -7995.1564   -9040.8598            0    9561.1383    24.906256    25.011459    22.933798    14286.421    10309.725    9056.1161    9317.5741   -288.25172   -503.67989    350.03004   -6003.0665 
 1718000    265.91573    -9033.039    -8019.247    -9033.039            0    9141.9239    24.980686    24.930433    23.067913    14366.219    8025.7604    9627.7583     9772.253    1043.3217   -280.48621    1034.8953   -6103.8625 
 1719000    263.02992   -9073.7987   -8071.0087   -9073.7987            0    9557.8414     25.05119    24.818011    23.053724    14332.978    8439.6976    10584.646    9649.1806    285.51092   -340.64203    183.94823   -6073.1161 
 1720000    271.39663   -9072.1592   -8037.4715   -9072.1592            0    8848.0907    25.003777     24.93162    22.998307    14336.792    8392.6708     9395.414    8756.1873    -518.5486    436.77116   -3.3188826   -6187.4471 
 1721000    268.93589   -9048.5876   -8023.2814   -9048.5876            0     11548.93    25.101967    24.844425    22.803795    14221.449    10247.049    12139.033    12260.708    334.24899   -1193.9454   -1.2784711   -5627.9728 
 1722000    270.90358   -9080.5633   -8047.7553   -9080.5633            0    11127.145     24.80248    24.878465    23.063711    14231.408    11607.341    10540.667    11233.428   -607.95208  -0.40228677    282.94304   -5738.3109 
 1723000    270.78587    -9046.491   -8014.1318    -9046.491            0    10911.796    24.853234    24.987759    22.932093     14241.44    11073.875     11162.95    10498.563   -330.54291   -646.37358    435.43538   -5747.7867 
 1724000     282.9883   -9025.3917   -7946.5113   -9025.3917            0    10670.644     24.87297    24.983845    22.947349    14259.997    9751.4707     10834.31    11426.152    263.72535   -962.58241    767.34896   -5727.3647 
 1725000    261.71988   -9046.5307   -8048.7352   -9046.5307            0    8539.2277    24.957445    25.063059    22.966421    14365.724    8498.3187    8504.1644    8615.2001    704.26898   -407.46379   -880.78652   -6259.6871 
 1726000    278.03819   -9084.7054    -8024.697   -9084.7054            0    10009.807    24.819878    25.089565    22.961457    14298.557    11753.783    8698.6764     9576.963   -367.62996   -127.65562     25.95883    -5937.354 
 1727000    267.40165   -9024.2955   -8004.8385   -9024.2955            0    9358.7307    24.940756    25.006226    23.001138    14345.216    9392.4244    9340.2088    9343.5588    822.53337   -354.25648    833.62585   -6046.8959 
 1728000     273.1693   -9036.8323   -7995.3864   -9036.8323            0    9697.0355    24.944291    25.149989    22.840556    14328.992    10102.791    8355.3582    10632.957    77.746084   -709.54869   -426.07358   -5968.9615 
 1729000    273.09676   -9078.1968   -8037.0274   -9078.1968            0    9538.9498    24.796925    24.977191     23.09321    14302.953     10212.99    9427.7739    8976.0859     1163.365    996.07216    167.27831   -6047.2606 
 1730000     265.7024   -9022.7853   -8009.8066   -9022.7853            0    9068.3927     24.92674    25.027787    23.015901    14358.727    9226.7259    9185.7643    8792.6879    -644.8462    86.181823    136.11048    -6110.819 
 1731000    278.17129      -9042.4   -7981.8842      -9042.4            0      10027.8    24.828225    24.949508    23.072256    14292.155    11429.781    10015.331    8638.2885    781.86448   -674.28914     157.4355   -5891.7254 
 1732000    271.60047   -9026.3509    -7990.886   -9026.3509            0     9863.976    24.967207    24.937615    22.922152     14271.85    8830.2555    11306.442    9455.2301    9.6306076    49.019404    95.148612   -5937.7952 
 1733000    285.43555   -9071.1715   -7982.9611   -9071.1715            0    11309.245    24.884744    24.841516    22.962447    14194.805    11648.251    11773.495    10505.989   -137.68248   -495.11617   -138.68379   -5641.7588 
 1734000    278.33985   -9061.8767   -8000.7183   -9061.8767            0    10744.504    24.882836    24.947189    22.939494    14239.847    11626.415    9728.5234    10878.575   -735.78628   -606.13383    -435.7824   -5769.3687 
 1735000    267.17647   -9072.0619   -8053.4634   -9072.0619            0    10296.663    24.875854    24.883303    23.052616    14269.417    11180.281     10574.43    9135.2792    243.06033    1096.0675    189.42705   -5910.6781 
 1736000    284.92975   -9081.6492   -7995.3671   -9081.6492            0    10444.832    24.893911    24.893274    22.959016    14227.495    10226.206    10865.174    10243.116    -828.7682    566.99705    571.75145   -5828.1332 
 1737000     263.6966    -9032.643   -8027.3113    -9032.643            0    10511.487    24.944969    25.055102    22.823214     14264.48    10560.003    9557.3701    11417.088    184.03223   -908.68642   -243.38722   -5840.5771 
 1738000    279.38727   -9021.6624   -7956.5107   -9021.6624            0    9002.0419    24.889117    24.890893    23.186676    14364.432     9716.796    9831.6276     7457.702   -624.91197   -295.05642    539.79363   -6070.6684 
 1739000    278.52759   -9073.5132    -8011.639   -9073.5132            0    8859.6459    24.980372    24.959977    22.986373    14332.223    8384.2046    9309.6797    8885.0535    231.15692   -1414.8498   -478.95049   -6159.7891 
 1740000    274.78157   -9023.5767    -7975.984   -9023.5767            0    8867.9937    24.962387    25.018521    22.993719    14360.084    9233.5672    8365.0838    9005.3301    304.48767   -8.5776013    1577.4931   -6118.7859 
 1741000    272.40521   -9036.6281   -7998.0952   -9036.6281            0    9248.0378    24.966985    24.836386    23.155401    14358.425    8140.1158    10933.486    8670.5121   -520.63281   -88.601755    1544.3487   -6061.5293 
 1742000        274.4   -9032.5891   -7986.4512   -9032.5891            0    9967.8719    24.943504    25.043854    22.904201     14307.83    9315.5034    10507.849    10080.263    896.78803   -674.16429    501.51075   -5906.5049 
 1743000    273.64346   -9059.4795   -8016.2258   -9059.4795            0    10368.243    24.823148    24.862791    23.139719    14281.204    11558.814    11068.932    8476.9827    417.78583    360.53235    313.39534   -5856.7623 
 1744000    264.76243   -9048.6525   -8039.2574   -9048.6525            0    9562.2903    24.995313    25.007223    22.890143     14307.79    8858.1815    9225.7628    10602.927   -1254.5136   -479.25897    374.37635   -6043.9474 
 1745000    272.82422   -9049.7395   -8009.6092   -9049.7395            0    8490.7323    25.061548    24.841723    23.086177    14372.808    7718.1626    9120.1867    8633.8476   -480.46566    387.35023   -864.17645   -6229.8442 
 1746000    265.96029   -9052.6854   -8038.7234   -9052.6854            0     9343.982    25.031237    24.938818    22.919497    14307.484    8877.0916    10076.994    9077.8603   -1103.3001      579.078    803.92423   -6089.0084 
 1747000    285.46812   -9066.3027   -7977.9681   -9066.3027            0    9581.9217    25.030715    24.834961    23.069071    14340.584    9114.9101    10597.071    9033.7843    256.74303   -374.43193    1456.8467   -5973.9789 
 1748000    260.24225   -9068.9254   -8076.7632   -9068.9254            0     8535.042    25.105028    24.927031    22.927137     14347.66     8895.547    8877.2022    7832.3768    146.08269     953.4591   -182.66287   -6290.8406 
 1749000     264.6859   -9091.0411   -8081.9377   -9091.0411            0     9734.674    24.903582    24.955391    22.938922     14256.05    8977.4953    10062.722    10163.805    63.211743   -1068.5619    688.91488    -6058.003 
 1750000    281.20186   -9049.7949   -7977.7252   -9049.7949            0    9798.1629     24.91547    24.950852    23.013985    14306.925    8475.3196    10939.246    9979.9236    656.79666   -1621.2969    -488.1683   -5933.3206 
Loop time of 573.115 on 64 procs for 250000 steps with 1920 atoms

Performance: 75.378 ns/day, 0.318 hours/ns, 436.213 timesteps/s
99.2% CPU use with 64 MPI tasks x 1 OpenMP threads

MPI task timing breakdown:
Section |  min time  |  avg time  |  max time  |%varavg| %total
---------------------------------------------------------------
Pair    | 62.216     | 64.533     | 67.004     |  13.3 | 11.26
Bond    | 0.26499    | 0.27973    | 0.28882    |   0.8 |  0.05
Kspace  | 238.79     | 249.58     | 264.24     |  41.2 | 43.55
Neigh   | 5.9441     | 7.1466     | 8.8283     |  27.0 |  1.25
Comm    | 104.56     | 121.08     | 137.58     |  71.6 | 21.13
Output  | 0.87256    | 0.87423    | 0.87607    |   0.1 |  0.15
Modify  | 114.66     | 122.44     | 127.99     |  31.2 | 21.36
Other   |            | 7.187      |            |       |  1.25

Nlocal:        30.0000 ave          35 max          26 min
Histogram: 1 3 9 12 16 10 9 2 1 1
Nghost:        2815.45 ave        2851 max        2779 min
Histogram: 5 4 4 4 14 14 4 6 3 6
Neighs:        10614.4 ave       12481 max        9110 min
Histogram: 3 2 9 12 13 13 7 3 1 1

Total # of neighbors = 679321
Ave neighs/atom = 353.81302
Ave special neighs/atom = 2.0000000
Neighbor list builds = 12387
Dangerous builds = 0

unfix		3
unfix		2
unfix		1

write_data	data.final.${pid}
write_data	data.final.0
System init for write_data ...
PPPM initialization ...
  extracting TIP4P info from pair style
  using 12-bit tables for long-range coulomb (../kspace.cpp:340)
  G vector (1/distance) = 0.37443069
  grid = 30 30 30
  stencil order = 5
  estimated absolute RMS force accuracy = 0.0032733506
  estimated relative force accuracy = 9.8575982e-06
  using double precision FFTW3
  3d grid and FFT values/proc = 3600 512
Last active /omp style is kspace_style pppm/tip4p/omp
WARNING: Not all mixed pair coeffs generated from mixing. Use write_data with 'pair ij' option to store all pair coeffs. (../write_data.cpp:312)

write_restart   restart.lmp.${pid}
write_restart   restart.lmp.0
System init for write_restart ...
PPPM initialization ...
  extracting TIP4P info from pair style
  using 12-bit tables for long-range coulomb (../kspace.cpp:340)
  G vector (1/distance) = 0.37443069
  grid = 30 30 30
  stencil order = 5
  estimated absolute RMS force accuracy = 0.0032733506
  estimated relative force accuracy = 9.8575982e-06
  using double precision FFTW3
  3d grid and FFT values/proc = 3600 512
Last active /omp style is kspace_style pppm/tip4p/omp
Total wall time: 0:09:37
