LAMMPS (30 Jul 2021)
  using 1 OpenMP thread(s) per MPI task
package omp 0
using multi-threaded neighbor list subroutines
echo both

include		in.partitions
variable        pid world 0
include		in.temp
variable        temperature equal 269.81
variable	tempDamp equal 100.0
include		in.pressure
variable        pressure equal 9250.0
variable        pressureDamp equal 1000.0 # This is 1 ps
include		in.seed
variable        seed world 745823

units		real
atom_style	full
read_restart	restart.lmp.${pid}
read_restart	restart.lmp.0
Reading restart file ...
  restart file = 30 Jul 2021, LAMMPS = 30 Jul 2021
  restoring atom style full from restart
  orthogonal box = (-0.080801300 -0.15730958 -0.14338288) to (24.810802 24.887311 22.953383)
  4 by 4 by 4 MPI processor grid
  restoring pair style lj/cut/tip4p/long/omp from restart
  restoring bond style harmonic/omp from restart
  restoring angle style harmonic/omp from restart
  1920 atoms
  1280 bonds
  640 angles
Finding 1-2 1-3 1-4 neighbors ...
  special bond factors lj:    0        0        0       
  special bond factors coul:  0        0        0       
     2 = max # of 1-2 neighbors
     1 = max # of 1-3 neighbors
     1 = max # of 1-4 neighbors
     2 = max # of special neighbors
  special bonds CPU = 1.655 seconds
  read_restart CPU = 2.029 seconds
include 	in.setup
variable	out_freq equal 1000
variable	out_freq2 equal 10000
variable	out_freq3 equal 1000

timestep	2.0

neigh_modify    delay 7 every 1

include		in.tip4p
# This is TIP4P/Ice

# create groups ###
group ox type 2
640 atoms in group ox
group hy type 1
1280 atoms in group hy

# set charges - beside manually ###
set group ox charge -1.1794
Setting atom values ...
  640 settings made for charge
set group hy charge 0.5897
Setting atom values ...
  1280 settings made for charge

# ### TIP3P Potential Parameters ###
pair_style lj/cut/tip4p/long/omp 2 1 1 1 0.1577 8.5
pair_coeff 1 1*2 0.000 0.000
pair_coeff 2 2 0.21084 3.1668
bond_style  harmonic
bond_coeff  1 450 0.9572
angle_style harmonic
angle_coeff 1 55 104.52
kspace_style pppm/tip4p/omp 1.0e-5
pair_modify tail yes

thermo          ${out_freq}
thermo          1000
thermo_style    custom step temp pe etotal epair emol press lx ly lz vol pxx pyy pzz pxy pxz pyz enthalpy

restart 	${out_freq3} restart.lmp.${pid} restart2.lmp.${pid}
restart 	1000 restart.lmp.${pid} restart2.lmp.${pid}
restart 	1000 restart.lmp.0 restart2.lmp.${pid}
restart 	1000 restart.lmp.0 restart2.lmp.0


include         in.dump
dump            myDump all atom ${out_freq2} dump.water.${pid}
dump            myDump all atom 10000 dump.water.${pid}
dump            myDump all atom 10000 dump.water.0
dump            myDump2 all dcd ${out_freq2} dump.dcd
dump            myDump2 all dcd 10000 dump.dcd
dump_modify     myDump append yes
dump_modify     myDump2 append yes


variable natoms 	equal  "count(all)"                        # NUMBER ATOMS
variable H      	equal  "enthalpy/v_natoms"                 # ENTHALPY-per-atom
variable Vol      	equal  "vol/v_natoms"                 # volume-per-atom
fix AVG all 		ave/time ${out_freq} 1 ${out_freq} v_Vol v_H file vol_enthalpy.dat
fix AVG all 		ave/time 1000 1 ${out_freq} v_Vol v_H file vol_enthalpy.dat
fix AVG all 		ave/time 1000 1 1000 v_Vol v_H file vol_enthalpy.dat




fix 		1 all shake 1e-6 200 0 b 1 a 1
       0 = # of size 2 clusters
       0 = # of size 3 clusters
       0 = # of size 4 clusters
     640 = # of frozen angles
  find clusters CPU = 0.603 seconds
fix             2 all nph aniso ${pressure} ${pressure} ${pressureDamp}
fix             2 all nph aniso 9250 ${pressure} ${pressureDamp}
fix             2 all nph aniso 9250 9250 ${pressureDamp}
fix             2 all nph aniso 9250 9250 1000
fix             3 all temp/csvr ${temperature} ${temperature} ${tempDamp} ${seed}
fix             3 all temp/csvr 269.81 ${temperature} ${tempDamp} ${seed}
fix             3 all temp/csvr 269.81 269.81 ${tempDamp} ${seed}
fix             3 all temp/csvr 269.81 269.81 100 ${seed}
fix             3 all temp/csvr 269.81 269.81 100 745823


run             250000
PPPM initialization ...
  extracting TIP4P info from pair style
  using 12-bit tables for long-range coulomb (../kspace.cpp:340)
  G vector (1/distance) = 0.37427194
  grid = 30 30 30
  stencil order = 5
  estimated absolute RMS force accuracy = 0.0032911329
  estimated relative force accuracy = 9.9111491e-06
  using double precision FFTW3
  3d grid and FFT values/proc = 3600 512
Last active /omp style is kspace_style pppm/tip4p/omp
Neighbor list info ...
  update every 1 steps, delay 7 steps, check yes
  max neighbors/atom: 2000, page size: 100000
  master list distance cutoff = 10.8154
  ghost atom cutoff = 10.8154
  binsize = 5.4077, bins = 5 5 5
  1 neighbor lists, perpetual/occasional/extra = 1 0 0
  (1) pair lj/cut/tip4p/long/omp, perpetual
      attributes: half, newton on, omp
      pair build: half/bin/newton/omp
      stencil: half/bin/3d
      bin: standard
Per MPI rank memory allocation (min/avg/max) = 9.330 | 9.338 | 9.344 Mbytes
Step Temp PotEng TotEng E_pair E_mol Press Lx Ly Lz Volume Pxx Pyy Pzz Pxy Pxz Pyz Enthalpy 
 3000000    278.03922   -9066.4878   -8006.4755   -9066.4878            0    7592.7935    24.891604     25.04462    23.096766    14398.541    8029.2685    7974.3609    6774.7512   -198.54449   -285.07199   -328.82977   -6412.0803 
 3001000    264.85957   -9063.4906   -8053.7252   -9063.4906            0    8363.7301    24.865193     25.21944    22.890774    14354.489    9222.4446    6500.4751    9368.2706   -269.80699    405.48118    -861.8091   -6302.8159 
 3002000    277.22119   -9086.0294   -8029.1357   -9086.0294            0    9443.6573    24.885421    24.970832    22.985062     14283.14    10250.461    8900.8698     9179.641   -376.33347    118.38591    -100.8975   -6061.9752 
 3003000    270.98931   -9061.1864   -8028.0515   -9061.1864            0    9762.8762    24.891522    24.954059    23.015853    14296.171    9294.5082    10584.932    9409.1885   -330.28945    72.151039    112.70724   -5992.5408 
 3004000    264.15132   -9086.6091   -8079.5438   -9086.6091            0    8977.2792     24.97471    25.001496    22.967052    14340.745    8870.9027    9448.2293    8612.7056   -391.63217   -173.36562   -91.337591   -6201.9903 
 3005000    267.95923   -9044.8218    -8023.239   -9044.8218            0    7780.9692    24.983935    24.979972    23.050913    14386.028    7891.1482    7847.8583    7603.9011   0.40282159    -527.5942   -423.96559   -6390.7491 
 3006000    273.51606   -9057.4081   -8014.6402   -9057.4081            0    8080.2154     24.96512    25.084381    22.982062    14392.162    8152.6835    8193.6347     7894.328   -660.24765   -441.93583    589.09051    -6318.644 
 3007000    271.72234   -9096.3022   -8060.3727   -9096.3022            0     9292.002    24.902656    24.974573    23.027925    14321.831    9592.0923    8877.3596    9406.5542   -999.08088   -1382.0922    1274.9012   -6119.5595 
 3008000    268.70376    -9095.616   -8071.1947    -9095.616            0    7720.1696    24.962491    24.990142    23.092765    14405.641    7948.0544    8011.8465    7200.6079    249.29067    93.510313    388.79184   -6449.2528 
 3009000    270.44211   -9017.1262   -7986.0775   -9017.1262            0    8866.5327    24.997888     24.99399    22.990265    14364.247    8464.8788    8998.3578    9136.3615    117.17006    156.50584   -55.043017    -6128.647 
 3010000      273.912   -9069.8114   -8025.5339   -9069.8114            0    8170.4187    24.950392     25.06493    23.029861    14402.411    9485.5723    7486.2548    7539.4291   -509.22736   -220.12052   -1265.2023   -6309.3833 
 3011000    265.87403   -9067.0498   -8053.4167   -9067.0498            0    8272.6605     24.90861    24.957325    23.135164    14382.027    8450.3599    8608.4314    7759.1903   -996.16863   -385.61038     541.0989     -6318.25 
 3012000    269.48608   -9025.1836   -7997.7798   -9025.1836            0    8486.1035    24.917731    24.998404     23.10421    14391.693    9376.9921    7586.8893    8494.4289    118.02472   -415.71938   -1516.6472   -6216.6478 
 3013000    268.85459   -9034.4287   -8009.4324   -9034.4287            0    8214.3046     25.03638    25.060678    22.931409    14387.823    7607.4349    8771.4073    8264.0716    -84.27078   -193.82002   -493.64196   -6285.8113 
 3014000    257.05532   -9074.2539   -8094.2418   -9074.2539            0    7934.6533    24.924641    24.983809    23.115749    14394.465    8690.4633    7728.7109    7384.7858   -13.980344    485.97665    -5.773018   -6428.5319 
 3015000    266.45765   -9056.2798   -8040.4217   -9056.2798            0    8633.6994    24.914322    25.060774    22.995305    14357.629    8401.8675    7633.0899    9866.1407    89.837847    204.23838   -858.37197   -6232.6002 
 3016000    273.15579   -9078.4989   -8037.1045   -9078.4989            0     8081.341    24.958916    25.033987     23.01169    14378.192    8433.1725    7340.4842    8470.3662    1512.1155   -155.80383   -89.558696   -6342.5186 
 3017000    271.15195   -9056.3066   -8022.5517   -9056.3066            0     9323.064    24.929419    24.995277    22.977686    14317.804    9858.9885    10335.091    7775.1126    -424.8468    220.01914    172.53433   -6075.7982 
 3018000     275.2913   -9115.5754   -8066.0394   -9115.5754            0    9011.9152    24.827899    25.045587    23.016224    14312.162    10011.177    7457.2126    9567.3563    889.33189    175.09151    593.94455   -6184.9985 
 3019000    266.04106   -9051.6995   -8037.4297   -9051.6995            0    11080.987    24.857111    24.935066    22.969353     14236.72    10135.619    11430.596    11676.747    437.66272    380.12696      198.871   -5736.7069 
 3020000    273.39498   -9099.1842   -8056.8779   -9099.1842            0    9905.1321    24.876401    24.893445    23.039241    14267.264    10010.806    10183.543     9521.047    136.83126    -208.3264    202.72852   -5995.8833 
 3021000    268.28207    -9071.963   -8049.1494    -9071.963            0     10015.42    25.017964    25.070127    22.680414    14225.236    9013.1663    9412.0377    11621.055    377.74381     169.6689    469.29313   -5971.3457 
 3022000    279.92738   -9074.6029    -8007.392   -9074.6029            0     9853.447      24.9207    24.882714    23.080693    14312.214    8594.0855    11013.731    9952.5242    634.11727   -113.98919   -538.77595   -5950.6923 
 3023000    264.61888   -9093.9369    -8085.089   -9093.9369            0    9239.3743    24.958246    24.883072    23.011327    14290.905    7995.9742    10018.283    9703.8658    924.06874   -685.33776    246.87644   -6159.4353 
 3024000    276.30373   -9014.9029   -7961.5071   -9014.9029            0    10076.693    25.262064    24.882871    22.804276    14334.601    7998.8579    11465.992    10765.229    414.93646   -1107.3062    -339.9932   -5854.9196 
 3025000    269.20921   -9064.5233    -8038.175   -9064.5233            0    7587.7238    25.112274    24.949096     23.03059    14429.322    5626.4596    8430.2087     8706.503   -223.82204    137.14103    327.49981   -6441.4383 
 3026000    274.27164   -9045.6244   -7999.9758   -9045.6244            0    8252.5749    25.009159    24.993676    23.005523    14380.081    8944.1964    7420.2289    8393.2995   -896.29329    639.67654   -433.73629   -6269.2562 
 3027000    261.67684   -9028.1054    -8030.474   -9028.1054            0    7883.9713    24.972046    25.050288    23.072514    14433.171     7710.543    7559.5634    8381.8074    161.52046    -812.3949    86.146745   -6370.9532 
 3028000    259.74519   -9036.3076   -8046.0404   -9036.3076            0     9355.253    25.036641    25.078769    22.837729    14339.539     8655.872    8822.4753    10587.412   -469.21508     640.8755    403.24554      -6089.6 
 3029000    271.96747   -9104.3961    -8067.532   -9104.3961            0    8759.0373    24.800699    25.014593     23.11886    14342.464    10590.014    7330.8147    8356.2836   -27.416524   -133.91572    1318.8509   -6235.4031 
 3030000    272.27989   -9047.3464   -8009.2913   -9047.3464            0    8731.0747    24.947331    25.046146    23.022976     14385.55    9016.8959     8591.466    8584.8621   -441.51353    1129.2294   -1017.5391    -6177.525 
 3031000    279.10392   -9048.4554    -7984.384   -9048.4554            0    8044.7518    24.957355    25.216938    22.868426      14392.2    9888.0657    4867.0322    9379.1575    518.07329   -126.15397    1262.1633    -6295.827 
 3032000    274.61804    -9054.102   -8007.1328    -9054.102            0    8714.3473    24.877422    25.051917    23.069744    14377.691    10389.971    7857.0054     7896.065   -419.50931    279.27913    32.310896   -6179.8747 
 3033000    270.49755   -9055.5691    -8024.309   -9055.5691            0    8167.6082    24.978281    25.140059    22.919267    14392.279    8362.2762    7759.6497    8380.8987     505.0474   -517.51098    850.40985   -6309.9557 
 3034000    257.85414   -9063.8198   -8080.7622   -9063.8198            0    9086.1635    24.874064    24.909137    23.118317    14323.912    9729.0394    10257.995    7271.4561    68.445955   -881.24367    438.27133   -6182.6666 
 3035000    267.88097    -9126.652   -8105.3676    -9126.652            0    9176.5844    24.990567     24.94929    22.933229    14298.797    7710.1726    10530.271    9289.3097   -1570.9842    240.75251    1116.9363   -6191.7442 
 3036000     268.2607   -9068.9661    -8046.234   -9068.9661            0    9330.8709    24.959933    24.894121    23.036215    14313.681    8838.2531    9948.3103    9206.0495    -1082.131   -571.87029   -291.63783   -6098.4113 
 3037000    283.41102   -9113.9593   -8033.4672   -9113.9593            0    10213.244     24.98026    24.809352    23.014172    14262.896    9177.0213    11536.665    9926.0447   -38.652409   -1383.8317    134.39772   -5909.0133 
 3038000    268.83115   -9030.5416   -8005.6347   -9030.5416            0    10617.319    24.939597    24.857936    23.042061    14284.854    10019.464    10235.841     11596.65   -614.35201    73.250913    497.57875   -5793.7293 
 3039000    271.49285   -9088.8673   -8053.8128   -9088.8673            0    9274.4458    25.007767    25.112839     22.78151    14307.154    9260.6044    8221.6647    10341.068   -405.49174    323.39186    475.74736   -6118.6518 
 3040000    270.58349   -9075.1537    -8043.566   -9075.1537            0    10044.759    24.871849    24.868599    23.059023    14262.652      10156.8     9845.424    10132.054   -160.29739   -342.01269    82.433876   -5954.1943 
 3041000    260.11037   -9075.1812   -8083.5219   -9075.1812            0    10255.772    24.914982    24.965224    22.939493    14268.551    9937.3265    10021.728    10808.262    95.390995     836.4742    573.35977   -5949.3759 
 3042000    271.69338   -9074.9934   -8039.1743   -9074.9934            0    10398.179    24.915528    25.018892    22.880568    14262.806    11051.284     9683.538    10459.716   -313.30972    340.34888    938.82464   -5876.2658 
 3043000    267.48283   -9032.5795    -8012.813   -9032.5795            0    9532.9029    24.920364    24.888595    23.101149    14328.092    9033.8705     10243.45    9321.3884    528.45306   -168.65455   -188.10889   -6020.8126 
 3044000    266.51173   -9055.6516   -8039.5873   -9055.6516            0    9491.8819    24.916473    25.044126    22.941516    14315.765    10495.833    7933.5584    10046.255   -413.94979    544.39371    356.48606    -6057.865 
 3045000    266.66005   -9128.8896   -8112.2598   -9128.8896            0    7921.8698    24.843871     25.06955    23.055697    14359.657    8152.9886    6975.1619    8637.4589   -906.60814   -555.95364    613.42869    -6453.255 
 3046000    277.18903   -9047.8753   -7991.1044   -9047.8753            0    8938.1411    24.879497    25.139691    22.953893    14356.807    9311.8134    7441.3744    10061.236    -118.3437    843.74371     1009.654   -6119.6426 
 3047000     264.3173   -9053.6582   -8045.9601   -9053.6582            0     10375.48    24.760165    25.061172    22.979027    14258.917    11821.412    9361.0616    9943.9664    -994.2869   -831.34191    96.877352   -5888.3616 
 3048000    265.01104    -9043.945    -8033.602    -9043.945            0     9248.483    24.834228    25.045892    23.020765     14318.81    9105.7779    8659.0218    9980.6494    615.50758   -30.224725    1011.3069   -6102.2862 
 3049000    276.23252   -9058.3325   -8005.2082   -9058.3325            0    8986.6763    24.900407    25.072278    22.965003    14337.279    10096.247    8554.1681    8309.6133   -449.61804    1297.0771    570.64389   -6126.1435 
 3050000    274.01655   -9016.3488   -7971.6727   -9016.3488            0    12810.275    24.760823    24.902724    22.974271     14166.21    12718.415    13274.051    12438.359    284.35797   -239.53242    193.37823   -5325.0744 
 3051000    275.91584   -9067.4353   -8015.5183   -9067.4353            0     9272.514    25.012528    24.917089     23.00349    14336.681    8729.7252    8978.6931    10109.124    61.888212    766.53376    1198.2706   -6076.7674 
 3052000    263.25264   -9027.6812   -8024.0421   -9027.6812            0     8686.491     25.07419    24.870456    22.994212    14339.341    8518.2548    8931.7375    8609.4807    428.60002   0.18198516   -1185.5016   -6207.4833 
 3053000    266.74205   -9058.2617   -8041.3193   -9058.2617            0    8923.5177    24.978878    24.988251    23.031246    14375.607    7631.0283    10211.328    8928.1975     276.5926   -317.16757    594.49693   -6170.4727 
 3054000    264.89814   -9031.8319   -8021.9194   -9031.8319            0    7722.4581     24.92894    25.037377    23.147774    14447.805    9337.3911    7145.5734    6684.4098   -14.109608   -323.98403    148.84644   -6394.7479 
 3055000    279.46636    -9070.176   -8004.7228    -9070.176            0    8211.8872    25.041084    24.989171    22.990282    14386.306     6428.225    9080.3461    9127.0903   -165.27202    244.08377    94.804371   -6281.7908 
 3056000    270.09096   -9024.5003   -7994.7904   -9024.5003            0    9003.5695    25.074845    24.859254    23.048717    14367.232    8785.1363    9722.7137    8502.8585    486.01789   -187.66372   -222.94015   -6108.2605 
 3057000    264.69364   -9037.5163   -8028.3834   -9037.5163            0    10035.011    24.950364      24.8607    23.079145    14315.614    8569.5743    10635.616    10899.843    -612.2102    203.94533   -752.22849   -5933.2885 
 3058000    267.78747   -9053.4847   -8032.5568   -9053.4847            0    10001.198    24.974303     24.97451     22.89095    14277.566    10203.632    9347.6631    10452.299   -832.03046    814.39098   -676.43697   -5950.0708 
 3059000    275.21545   -9036.9195   -7987.6726   -9036.9195            0    11854.961    24.845418    24.931576    22.932366     14205.12    12053.821    12566.632    10944.429    354.16577   -1350.4085     266.1407   -5531.7147 
 3060000    272.01066   -9116.0046   -8078.9759   -9116.0046            0    9451.4869     24.80432    24.952215    23.094901    14293.959    10310.828    8763.8599    9279.7733   -218.89141    123.58897    527.73569    -6108.693 
 3061000    266.16887   -9060.9107   -8046.1536   -9060.9107            0    8662.6956    24.938214    25.168027    22.859013     14347.36    10677.405    6546.9648    8763.7171   -324.10732     666.7927    1080.3564   -6233.5579 
 3062000    275.53494    -9074.562   -8024.0972    -9074.562            0    8460.2025     24.94487    25.020031    23.033453    14375.671    8581.3323    7087.3115    9711.9638    206.02224   -818.28921    355.24777   -6250.3783 
 3063000    279.64083   -9032.8247   -7966.7063   -9032.8247            0    9998.7092    24.971226    24.889647     23.04208    14321.229    9327.8003    10652.168    10016.159   -415.66224   -671.93095   -30.410584   -5878.3716 
 3064000    273.30808   -9055.7828   -8013.8078   -9055.7828            0    8958.3173    25.087711      24.9499    22.910843    14340.719    8915.5344    9040.2202    8919.1973   -1242.8357   -63.269668   -452.79212   -6140.2234 
 3065000    260.17545   -9078.4454   -8086.5379   -9078.4454            0     7181.305    25.079029    24.825955    23.140683     14407.64    7644.0293    8632.4314    5267.4544    130.32048    991.85002    493.24387   -6577.5974 
 3066000    283.67435   -9033.8533   -7952.3573   -9033.8533            0    8250.5488    25.041103    24.985731    22.956375    14363.121    8303.7886    8392.7684    8055.0894    1205.7096    279.79237    679.69874   -6224.1033 
 3067000    267.14499   -9093.0923   -8074.6138   -9093.0923            0    8866.3824    24.989612    24.951642    22.959493    14315.975     8605.472    9130.4607    8863.2145   -2.2017091   -66.029334    939.27886   -6223.4567 
 3068000    268.73797   -9097.1746   -8072.6229   -9097.1746            0    9228.2182    24.760679    24.993317    23.108007    14300.425    10267.344    8666.4456    8750.8653    902.90693    117.31475   -1177.1275   -6148.0131 
 3069000    265.41999    -9086.933    -8075.031    -9086.933            0    9671.4471    24.924003    25.030865    22.910921    14293.422    11313.049    8778.4652    8922.8271   -686.52219    767.55014    501.81965   -6058.9705 
 3070000    266.27902   -9079.8231   -8064.6461   -9079.8231            0    9317.1221    24.997798    24.963108    22.945437    14318.474    9695.6118    8604.6213    9651.1333     673.6944   -5.6204861   -469.84341   -6119.0422 
 3071000    261.89978   -9028.4555   -8029.9741   -9028.4555            0    9090.3963    24.912955    24.956509    23.106101    14365.996    10500.504    8621.4857    8149.1987   -472.47823   -114.82187    353.77219    -6125.415 
 3072000    266.06305   -9012.3068   -7997.9531   -9012.3068            0    9536.1537    24.980677    24.860765    23.070037    14327.387     9578.978    10772.584    8256.8992   -450.26234   -364.53199    -192.6697   -6005.3715 
 3073000    255.04484   -9095.0735   -8122.7262   -9095.0735            0    8742.4105    25.013007    25.038176    22.891091    14336.234    9160.2124    7563.6984    9503.3207    -832.7565    670.20528   -53.139157   -6294.8694 
 3074000    276.35108   -9066.7373   -8013.1609   -9066.7373            0    10007.002    24.761554    24.970027    23.084997    14273.377    11529.518    10131.442    8360.0453   -252.73835    362.04899    644.58073   -5930.0778 
 3075000    271.25436   -9029.3155   -7995.1702   -9029.3155            0    9560.7747    24.906823    25.019087    23.003834    14334.747    10363.331    9698.1573    8620.8363    464.03435    62.822997    24.572427   -5996.4178 
 3076000    266.86832   -9050.9658   -8033.5421   -9050.9658            0    10617.985      25.0202    25.018282    22.766984    14251.276    10758.608    10222.669    10872.677    249.21981   -532.23209    819.87867   -5826.6976 
 3077000    270.77329    -9119.542   -8087.2307    -9119.542            0    8560.3971    24.867087    24.965458     23.07378    14324.623    8452.2985    9957.6175    7271.2752   -654.91154   -89.209319     420.4452   -6298.8787 
 3078000    275.62131   -9047.4527   -7996.6586   -9047.4527            0    9288.3918    24.926882    25.133923    22.887564    14339.295    10581.715    7654.8019    9628.6583    927.88747   -86.650647   -339.19493   -6054.2337 
 3079000     265.1633   -9064.8277   -8053.9042   -9064.8277            0    10027.229    24.924643    24.931241    22.975786    14277.206    10583.572    9736.9184    9761.1954   -225.60509    195.13808   -19.146506   -5966.0507 
 3080000    270.86064   -9081.6998   -8049.0556   -9081.6998            0    8005.6059    25.000689    24.926886    23.074518    14379.793    7279.5108    8102.0322    8635.2746   -625.73939   -1276.8543    854.94882   -6370.1636 
 3081000    270.38508   -9031.5325   -8000.7013   -9031.5325            0    9386.4517      25.0362    24.930406    22.980342    14343.471    8649.1893    10381.809    9128.3571   -548.26168   -1289.8042   -685.91318   -6037.1982 
 3082000    267.84697    -9071.954   -8050.7992    -9071.954            0    7763.3407    25.072229     24.90437    23.087398    14415.958    7873.9827    7628.3497    7787.6896   -189.81908   -919.63903   -564.62563   -6418.6193 
 3083000    269.30549   -9120.1858   -8093.4704   -9120.1858            0     9712.813    24.848546    24.961293    22.986372    14257.339     11339.59    8486.0779    9312.7714    232.46309   -1077.8624    121.17248   -6073.8981 
 3084000    279.60239   -9054.3751   -7988.4033   -9054.3751            0    9973.7819     24.88434    24.950936    22.984935     14271.06    10705.162    9374.7105     9841.473    753.39553   -358.18938   -10.201855   -5912.5723 
 3085000    268.06427   -9066.3451   -8044.3619   -9066.3451            0    10623.373    24.954773    25.028519    22.826001    14256.687    9993.6165    10376.225    11500.278   -1398.8816       203.89    331.54825   -5835.5591 
 3086000    272.19069   -9064.6074   -8026.8924   -9064.6074            0    9466.5389    24.833014    24.966738    23.079711    14309.406    10447.744    9900.5057    8051.3672    -924.2417   -1168.3979   -207.74147   -6051.3392 
 3087000    270.40775   -9069.0183   -8038.1007   -9069.0183            0    9929.0607     24.91895    24.918478    23.009001    14287.262    10037.686    9507.3559     10242.14     263.9831    118.15931   -354.98926   -5969.2312 
 3088000    276.32718   -9032.7592    -7979.274   -9032.7592            0    9885.3021    24.973999    24.951277    22.893106    14265.454    9002.2847    9961.6778    10691.944    19.366355   -193.84442   -75.157462   -5922.6664 
 3089000    262.53816   -9094.7128   -8093.7977   -9094.7128            0    10123.507    24.932119    24.881713    22.992013    14263.183    9853.3873    10989.088    9528.0454    584.80966    173.03408    1211.9531   -5987.9675 
 3090000    274.33781   -9062.4185   -8016.5176   -9062.4185            0    10338.937      25.0371    24.947448    22.836724    14264.086    8077.2021    12464.951    10474.658   -797.03932    540.26214    1158.1106   -5865.7389 
 3091000    267.97648    -9090.595   -8068.9464    -9090.595            0    9755.5953    24.955449    24.944712    22.935256    14277.345    9237.8928    10080.313    9948.5796    156.11374    406.91669    1067.9454   -6037.6322 
 3092000    271.68846    -9046.403   -8010.6027    -9046.403            0    11065.691    24.939404    24.948093    22.864429    14226.032    10063.217    11945.597    11188.261   -131.32653    245.02372   -157.38257   -5714.7807 
 3093000    272.24646   -9056.2028   -8018.2752   -9056.2028            0    9214.6827    24.890463    24.910059    23.109558    14328.456     9274.568    9411.9016    8957.5784    15.100361    545.19552    -1214.327   -6092.7214 
 3094000    268.40952   -9067.7415    -8044.442   -9067.7415            0    8556.8241    25.041212    25.034151    22.903758    14358.034    8467.9572    7998.1955    9204.3196   -121.82867   -610.41978   -532.86031    -6252.667 
 3095000    263.83557    -9115.156   -8109.2945    -9115.156            0    9054.9934     24.96664    25.030461    22.880939    14298.905    8328.8318    8812.4055    10023.743   -22.941735   -237.74785   -283.12628   -6221.0127 
 3096000    264.01983   -9052.5516   -8045.9876   -9052.5516            0    8786.3222    24.937613    24.944021    23.067164    14348.799      9484.25    8979.6322    7895.0844   -99.059626   -1047.0004   -580.02714   -6207.3397 
 3097000    271.16484   -9056.8842   -8023.0802   -9056.8842            0    9000.8432    24.979327    24.959126    22.979654    14326.945    7951.4492    9209.8289    9841.2516    552.29617   -181.12221     825.8921   -6142.4098 
 3098000    262.66221   -9103.6089   -8102.2207   -9103.6089            0    9682.2237    24.988256    24.885115    22.970188    14283.681    10049.626    10077.737     8919.308    56.076987   -389.83998    868.28549   -6085.2892 
 3099000    281.36373   -9092.5766   -8019.8898   -9092.5766            0    8703.8926    24.845183    24.930812    23.195334    14367.435    9960.3867    8411.2285    7740.0626   -280.50477   -211.14719   -401.57403   -6196.1256 
 3100000    261.31277   -9080.0468   -8083.8034   -9080.0468            0    8798.4892    25.027466    24.948704    22.933799    14319.929    8847.7049    8561.6398     8986.123   -213.08809     152.5747   -488.00802   -6246.3139 
 3101000    264.92823   -9062.2236   -8052.1964   -9062.2236            0    10701.572    25.025631    24.920677    22.883472    14271.407     9032.255    12117.634    10954.826   -161.84033    417.34855     723.2868   -5824.8373 
 3102000     275.6134   -9053.5391   -8002.7751   -9053.5391            0    9018.7234    24.881419    24.905044    23.142683    14340.892    9751.2328    9162.9834    8141.9541    1053.7412   -1297.8848   -1441.7128   -6116.5344 
 3103000    270.12846   -9059.5445   -8029.6916   -9059.5445            0    8621.9788    24.933858    24.981138    23.023764    14340.953    8185.2245    8841.0078    8839.7039   -105.97151   -351.77122    284.42428   -6226.4212 
 3104000    269.62777   -9077.5044   -8049.5604   -9077.5044            0    7765.9861    25.090354    25.155037    22.788617    14383.007    7312.1556    6447.7729    9538.0299    215.29006   -977.99638   -7.6841876   -6420.5562 
 3105000    273.33429   -9059.3906   -8017.3156   -9059.3906            0    9132.4648    24.862697    24.926912    23.122425    14330.129    9877.5586     8788.091    8731.7449   -918.82528    479.28372   -257.71703   -6108.7197 
 3106000    263.43692   -9067.3762   -8063.0346   -9067.3762            0    9573.1758    24.879334    24.989835    22.958795    14274.182    10736.735    9139.9689    8842.8238    -283.6918    1277.8135    162.61294   -6070.1453 
 3107000    270.65944   -9069.1903    -8037.313   -9069.1903            0    10064.878    24.904377    24.967105    22.979469    14288.409    9528.3543     9834.203    10832.078   -574.82835   -764.52712   -613.61023   -5939.9756 
 3108000    272.64085    -9059.844   -8020.4127    -9059.844            0    10672.341    24.793305    24.930457    23.050147     14247.49    12380.315    9556.9796    10079.728   -436.50917    79.731464   -1006.8723     -5802.86 
 3109000    270.04057   -9071.6225   -8042.1047   -9071.6225            0    10218.295    24.855555    25.115814    22.839173    14257.754     10961.44    8564.9085    11128.535   -40.639316   -409.29881    417.90724   -5917.3665 
 3110000    269.84864   -9099.9441    -8071.158   -9099.9441            0    8415.8242    24.859003    25.039452     23.01137    14323.561    9140.4692    8794.9711    7312.0323    154.13825   -277.43653   -560.60308    -6313.139 
 3111000    277.81106   -9094.8493   -8035.7069   -9094.8493            0    9385.2494    24.924663    24.995707    22.997919    14327.923    9550.7718     9297.783    9307.1933    404.58083     -850.858    1139.6196   -6074.5833 
 3112000    274.31868   -9081.3495   -8035.5216   -9081.3495            0    8028.4379    24.985307    25.152505    22.946377    14420.492    7419.7736     8042.132    8623.4081   -85.750187    961.17874    252.47563   -6347.0762 
 3113000    270.59335   -9083.1946   -8051.5694   -9083.1946            0    7384.7128    24.966727    25.083683     23.02347     14418.62    6931.2858    7723.8976    7498.9549    94.518123    553.06858   -365.88731   -6498.7062 
 3114000     277.5622   -9041.2821   -7983.0884   -9041.2821            0    8070.0375    25.047801    24.964666    23.048117    14412.218    8018.5659    9075.8492    7115.6973   -376.63665    475.29166    426.08298    -6286.868 
 3115000      282.963   -9070.8691   -7992.0851   -9070.8691            0    8563.9759    25.056306    24.877841    23.029905    14355.617    8003.5272    9651.6133    8036.7872    140.55597   -661.49375    658.45515   -6199.1144 
 3116000    265.49033   -9070.8676   -8058.6974   -9070.8676            0    9106.3485     25.20743     24.86553      22.8404    14316.273    7144.5761    10831.777    9342.6924   -654.61581   -1573.9715   -257.20355   -6157.3997 
 3117000    256.91623   -9081.7234   -8102.2416   -9081.7234            0    9450.6078    24.965608    24.944346    22.978426    14309.833    8039.1891    11241.047    9071.5878   -919.27684   -25.746907   -128.84499   -6129.9543 
 3118000    257.70349   -9084.1503   -8101.6671   -9084.1503            0    9079.8334    24.925739    25.175531    22.813717    14316.035    10087.008    6782.5931      10369.9   -204.98253   -180.64599    417.69959   -6205.9369 
 3119000    270.99128   -9073.7065   -8040.5641   -9073.7065            0     8522.683     24.87974    24.983905    23.057815    14332.578    9161.0316    8602.0863    7804.9312   -390.29645   -169.87671   -1025.5915   -6259.1023 
 3120000    264.96163   -9067.0525    -8056.898   -9067.0525            0      8851.96    24.992492    24.847659    23.100021    14345.227    8568.0752    9846.8836    8140.9213    185.90594   -14.433206   -120.43184   -6204.9757 
 3121000     268.1557   -9070.8892   -8048.5574   -9070.8892            0    9659.6574    25.023827    24.962964    22.874173    14288.784    9337.6926    9178.9801      10462.3   -706.19993   -609.23718    285.59888   -6035.6079 
 3122000    268.38768   -9038.2695   -8015.0533   -9038.2695            0    10023.891    24.949971    24.920037    23.068812    14343.131    9758.9229    10504.482    9808.2668    338.22957   -60.317114    237.88435   -5918.2574 
 3123000    262.89076   -9088.4092   -8086.1498   -9088.4092            0    7075.3134    24.988327    25.078806    23.019136    14425.573    7707.7071    6981.6346    6536.5985   -516.69776    471.86572   -1591.9203   -6597.6299 
 3124000    274.98364   -9048.2062   -7999.8431   -9048.2062            0    9039.1006     24.93658    24.966784    23.024075    14334.471    9813.3079      9413.13    7890.8639   -522.18004   -236.61303   -618.63142    -6110.187 
 3125000    265.14561   -8997.8369   -7986.9809   -8997.8369            0    10036.498    24.921413    25.052571    22.910999    14304.378    10460.267     9573.938    10075.289     -902.633   -1559.2009   -676.29533   -5893.2201 
 3126000    271.19574   -9083.6772   -8049.7554   -9083.6772            0    9108.5647    24.943403    24.877894    23.063908    14312.062     8704.143     10277.56    8343.9913    320.55192    18.677044    -429.4418   -6148.5544 
 3127000    282.10969   -9101.3522   -8025.8214   -9101.3522            0    9850.3005    24.930348    24.881166    23.050221    14297.963    9715.8151    10331.118    9503.9683   -159.75066   -214.30363    464.79672   -5971.8257 
 3128000    274.44195   -9098.5958   -8052.2979   -9098.5958            0     9413.134    25.135811    24.872977    22.871265    14299.171    9230.0018    9310.2147    9699.1856    792.42217    490.51694   -234.23876   -6089.2948 
 3129000    266.45416   -9037.6135   -8021.7687   -9037.6135            0    8886.2721    25.010564    24.908678    23.029805     14347.11    8965.4728    9447.3054    8246.0381   -197.28643   -619.44775    250.99013   -6162.4239 
 3130000    265.36433   -9101.9505   -8090.2607   -9101.9505            0     7784.207     25.05668    24.913796    23.026068    14374.185    7371.2456    7892.9602    8088.4151   -192.60208   -577.51893   -411.04991    -6458.436 
 3131000    270.28537   -9109.0351    -8078.584   -9109.0351            0     9691.385    24.973735    24.918192    22.939083    14274.999    10504.111    9166.0132    9404.0307   -605.74982   -832.04305    993.60381   -6060.9712 
 3132000    270.10735     -9073.67   -8043.8976     -9073.67            0    7305.3301    25.036334    24.915732     23.12475    14425.187    6532.4027    8349.2405     7034.347   -246.04405    657.43022   -557.25106   -6507.0275 
 3133000    268.04649   -9077.2011   -8055.2856   -9077.2011            0    7658.8122    25.029038    25.016159    22.974938    14385.307    6298.9421    8999.5094    7677.9852    573.89449    11.791489    1105.8546   -6448.5055 
 3134000    260.36342   -9082.7496   -8090.1254   -9082.7496            0    7283.6414    25.002463    24.983843    23.084947    14420.187    7292.2047    6892.9487    7665.7708   -269.13705   -1498.0385    695.28816   -6558.3491 
 3135000    264.21047    -9114.201   -8106.9102    -9114.201            0    7661.1448    25.027728    24.815101    23.083721    14336.505    6948.4182    9559.7791    6475.2372   -257.74883   -1118.2807   -423.48701   -6505.0934 
 3136000    271.47704   -9074.5825   -8039.5882   -9074.5825            0    8738.7908    25.070944    24.936498    22.984844      14369.7    8508.2322    8161.2213     9546.919    231.99343   -832.11543   -238.70896   -6208.2231 
 3137000    264.90617   -9075.0802    -8065.137   -9075.0802            0    9264.9255    24.964596     24.92992    23.033026    14334.958    9305.1066    8991.5365    9498.1334    621.83915    70.302939    420.17184   -6128.2056 
 3138000    267.50041   -9056.7033   -8036.8697   -9056.7033            0    9911.3337    25.033742    24.908288    22.919293    14291.272    8546.9377    10501.762    10685.301    475.52429    -925.9557      738.955   -5971.1144 
 3139000    262.62678    -9084.574   -8083.3209    -9084.574            0    10436.555    24.902159    24.858404    23.015123    14247.004    10000.301    10179.672    11129.694   -46.839321   -454.65552    793.63298    -5914.835 
 3140000    281.69472   -9109.8486   -8035.8999   -9109.8486            0    8118.5985    24.866377    25.007226    23.072626    14347.461    8584.4649    7656.6369    8114.6939   -916.11995   -981.88105    640.90762   -6337.1399 
 3141000    256.55998   -9057.6993   -8079.5756   -9057.6993            0    8345.0192    24.955133     25.04141     22.94359    14337.718    9441.8788    7153.2877    8439.8913    533.89852    46.870872   -935.81004   -6334.6245 
 3142000    260.65161    -9070.167   -8076.4442    -9070.167            0    8876.7977    24.806148    24.895329    23.256456    14362.192    10464.505    8542.9355     7622.953   -142.79297   -332.06804   -59.832548   -6217.1293 
 3143000    268.96067   -9063.2733   -8037.8726   -9063.2733            0    9773.3147    24.972192    24.960404     22.95154    14306.062    9667.6322    10968.305    8684.0067   -117.51407    181.49653    47.807528   -5998.7756 
 3144000    260.25889    -9041.757   -8049.5314    -9041.757            0    9285.7144    25.058807    24.978497    22.895179     14330.81     8045.686    9433.0597    10378.398    899.45079    278.09093    697.67191   -6108.8156 
 3145000    274.91154   -9024.8405   -7976.7524   -9024.8405            0    10241.301    25.023178    24.750387    23.085573    14297.665    8921.6999     12186.43    9615.7712   -370.04936     55.05159    705.85874   -5841.2693 
 3146000    271.02158    -9088.267   -8055.0091    -9088.267            0    8889.7871     25.01243    24.931484    22.955287    14314.848    9189.0925    9195.1059    8285.1629   -195.01602     175.0064    193.36321   -6199.1116 
 3147000    263.82932   -9056.3669   -8050.5292   -9056.3669            0    9154.6688     25.04954    24.825549    23.032853    14323.408    8620.8747    9970.7949    8872.3367      -1363.9   -182.43336   -1043.4252   -6138.1902 
 3148000    260.53291   -9076.9326   -8083.6624   -9076.9326            0    10943.202    24.874411    24.791052    23.089496    14238.433    10308.685    11580.058    10940.863   -647.52666   -978.31005   -363.14576   -5811.2742 
 3149000    272.48829   -9073.1585   -8034.3089   -9073.1585            0    9540.4706     24.93986    25.005234    22.934273    14302.433    8380.3572    9649.4445     10591.61   -38.220366    740.51021   -79.735909   -6044.2973 
 3150000    265.93652   -9065.1004   -8051.2291   -9065.1004            0    10151.345    24.825828    24.828287    23.155141     14272.43    10723.045    10758.369    8972.6208    45.425954   -386.00786   -422.64879   -5938.2393 
 3151000    276.72902   -9067.7499   -8012.7327   -9067.7499            0    9826.5032    24.984599    24.882137    22.923439    14250.819    9647.5069    11185.852    8646.1503    189.60683    408.99915    48.927008   -5970.4554 
 3152000    263.71053   -9075.9559    -8070.571   -9075.9559            0    9159.9802    25.096698    24.890519    22.917368    14315.789    7761.0308    9810.0205    9908.8892   -361.81533   -1001.2739    649.54674   -6158.1404 
 3153000    273.12458   -9065.4522   -8024.1768   -9065.4522            0    9599.2487    24.925603    24.880366    23.113168    14333.819    10168.503    8851.6764    9777.5666    48.329448   -268.84505   -397.90123   -6017.5109 
 3154000    259.32219   -9061.0984   -8072.4439   -9061.0984            0    9232.0222    25.061274    24.988243    22.868613    14321.176     8453.152    9828.6955    9414.2192   -477.91023   -446.19846    609.68667   -6144.2469 
 3155000    268.48448   -9058.5204   -8034.9351   -9058.5204            0    10266.004    24.935673     24.93634    23.000802        14302     9899.644    10809.497    10088.871    532.01041   -593.32841    303.59301   -5893.6519 
 3156000    258.36463     -9113.71   -8128.7062     -9113.71            0    9748.6625    24.773498     24.89921    23.142829    14275.435    9886.2529    9740.5514    9619.1831    711.57696   -548.19695   -578.03032   -6099.1071 
 3157000    266.43122   -9071.4672   -8055.7099   -9071.4672            0      8844.88    24.930012    25.041444    22.934522    14317.644    10045.258    7927.2191     8562.163    372.53527   -404.47591    729.46811   -6208.8269 
 3158000    261.02412   -9028.9732   -8033.8302   -9028.9732            0    10324.218    24.906433    25.048561    22.913774    14295.223    10707.426     9302.781    10962.449   -64.262622    417.77096    348.70381   -5881.4252 
 3159000    276.12116   -9068.3987   -8015.6989   -9068.3987            0    10048.106    24.790229    24.898026    23.137853    14281.325    11213.407    9008.2092    9922.7017   -262.85445   -701.60096     773.4586   -5922.8946 
 3160000    268.55543   -9068.3762   -8044.5204   -9068.3762            0    10714.051    24.877415    25.012466    22.890467     14243.49     11560.25    9505.2695    11076.633   -105.19807    649.39859    568.53091    -5818.926 
 3161000    262.27378   -9090.4786   -8090.5713   -9090.4786            0    9710.9385    24.883837    24.971345     22.97386    14275.563    10420.006    8977.9122    9734.8976    82.864651   -791.48128    845.04118   -6068.8078 
 3162000    272.74869    -9080.862   -8041.0196    -9080.862            0    9385.0908     24.90034    25.105619     22.89597    14313.151    10511.866    8097.1851    9546.2215   -87.413352    -1667.949    101.54166   -6081.9511 
 3163000     271.5489   -9055.4749   -8020.2067   -9055.4749            0    9664.1441     24.94863    24.986194    22.934939    14296.983    8793.7038    10259.905    9938.8235   -713.76059    288.84391 -0.031037463   -6005.1666 
 3164000    262.26741   -9067.0229     -8067.14   -9067.0229            0    9902.5457    24.884928    24.796863    23.158856    14290.593    9981.7396    10449.348    9276.5498   -59.639686    185.63794    617.88396   -6003.3144 
 3165000     269.8018   -9075.9988   -8047.3913   -9075.9988            0    9953.6672    25.044208    25.000048    22.855265    14309.828     9019.082     10402.79    10439.129    879.18133   -1128.8395    907.97229   -5970.1191 
 3166000    271.09571   -9037.1332   -8003.5927   -9037.1332            0    9903.1596    25.009733    24.919471    22.988012    14326.803    9284.3516     9509.307     10915.82   -787.02332    -115.3496    297.50198   -5934.4094 
 3167000    258.67703   -9110.6261   -8124.4313   -9110.6261            0    7798.5555    24.986544    25.030102    22.992172    14379.666    8052.7313    7799.7905    7543.1447   -584.02521    669.31687   -1270.3377   -6488.9753 
 3168000    279.79861   -9061.4364   -7994.7165   -9061.4364            0    8013.6654    25.099601    25.008579    22.918443     14386.03    7428.1617    7915.4415     8697.393   -611.94504    568.05907   -568.80734   -6313.4055 
 3169000    263.52402   -9037.5978   -8032.9241   -9037.5978            0     9719.735    25.036009     24.88236    22.984846    14318.524    7855.0323    11401.364    9902.8084    646.19391   -572.51613   -1111.6527   -6003.2394 
 3170000    263.99006   -9055.5046   -8049.0541   -9055.5046            0    9721.3399    24.958306    24.839181    23.047929    14288.423    10535.658     10722.14    7906.2217   -1119.3901     848.8067    898.82663   -6023.3019 
 3171000    265.52369   -9069.0706   -8056.7732   -9069.0706            0    9935.3853    25.081094    24.985081    22.808155    14292.802    7533.7679     10416.49    11855.898    142.29713   -375.49453   -548.66207   -5985.7832 
 3172000     263.6869   -9058.7977    -8053.503   -9058.7977            0    9652.3623    24.917773    24.851611    23.050337    14273.848    9428.3049    10671.674    8857.1083   -728.28692   -561.54485    487.44577   -6044.1763 
 3173000    269.75898   -9074.4259   -8045.9816   -9074.4259            0    10354.542     24.92292    24.921726    22.956777    14258.963    10322.452    10034.998    10706.175   -168.17479    593.47608   -1305.7501   -5892.7303 
 3174000    265.90947   -9074.4412   -8060.6731   -9074.4412            0    10212.786    24.966569    24.939819     22.92897    14276.992    9982.7696    10371.493    10284.094   -563.96746   -645.73239    -187.9573   -5934.2151 
 3175000    265.41525    -9065.395    -8053.511    -9065.395            0    9649.1672    24.877647    24.832954    23.182962    14322.097    10059.941    10593.243    8294.3177    44.590006   -776.01014    371.82511   -6038.0596 
 3176000     262.7486   -9062.8551   -8061.1376   -9062.8551            0    10629.265    24.922269    24.961062    22.893487    14241.725     10983.02    9862.8959    11041.879    545.81119    97.236968   -444.72928   -5853.4293 
 3177000    271.53909   -9057.5789    -8022.348   -9057.5789            0    11117.286    24.973344    24.928533    22.874463     14240.47    10045.144    10275.642    13031.072   -310.09839    660.59587   -546.67237   -5713.4806 
 3178000    270.27044   -9069.4659   -8039.0717   -9069.4659            0    9623.4785    24.994826    24.949318    22.907103    14284.957    9184.0286    8710.3443    10976.063    -141.0876   -68.020937    648.62862   -6034.1984 
 3179000    278.14288   -9101.8098   -8041.4023   -9101.8098            0    8487.3619    24.861041    24.874742    23.182656    14336.432    8806.3619    9316.5799    7339.1439   -449.83799   -429.56763   -1449.2841   -6266.8464 
 3180000     260.9919   -9076.8434   -8081.8233   -9076.8434            0    8737.9829    24.985212    24.965459    23.004491    14349.449     8634.429    7940.4567    9639.0629   -424.71701   -1101.4871   -143.96991   -6253.2082 
 3181000    266.47801   -9060.9398   -8045.0041   -9060.9398            0    9703.4755    24.946413    24.920257    23.046366    14327.258    9085.2306    10326.902    9698.2934    -774.4036   -67.869255    132.05714   -6017.4789 
 3182000    275.55408   -9052.4451   -8001.9073   -9052.4451            0    10086.764    25.033113    24.952025    22.904607    14306.833    9730.5033    11298.513    9231.2766    531.94284    227.23486    185.83127    -5897.299 
 3183000    269.19076    -9065.163    -8038.885    -9065.163            0    11360.617    24.859797    24.914935    22.976042    14230.907    11535.466    11022.044     11524.34   -175.64791   -614.93589   -298.30229   -5681.0665 
 3184000    270.00808   -9058.4748   -8029.0809   -9058.4748            0    10218.808    24.891485    24.995352     22.97236    14292.746    10040.024    9914.5494    10701.852    142.03991   -502.09379    167.75222    -5899.021 
 3185000    280.99379   -9053.8911   -7982.6146   -9053.8911            0    10402.712    24.791342    25.136111      22.9062     14274.18    11465.788    8079.2726    11663.075    785.88497    159.08204    174.03145   -5817.0375 
 3186000    267.16508   -9021.0072   -8002.4521   -9021.0072            0    9192.5249     24.89926    25.045755    23.057038    14378.847    11455.261    7655.3005    8467.0133   -428.14633    44.160734    415.63935   -6074.7728 
 3187000    269.74849   -9144.3329   -8115.9286   -9144.3329            0    7417.0018    24.964079    25.017036    23.078828    14413.357    5660.9085    7952.8934    8637.2036    154.93915    15.753012     5.105068    -6556.845 
 3188000    275.56568   -9066.1613   -8015.5792   -9066.1613            0    9638.8804    24.916367      25.0486    22.949246    14323.085    10335.925    8784.0255    9796.6904   -115.08652    303.97198    208.33123   -6002.1375 
 3189000     257.1817   -9082.2671   -8101.7731   -9082.2671            0    9649.7793    24.951567    24.994661    22.911411    14288.838    9735.3784    9576.1696    9637.7899   -659.69719    680.10074   -108.97005   -6090.8745 
 3190000    278.04053   -9053.6711   -7993.6538   -9053.6711            0    8989.0348     24.89026    24.899871    23.138938    14340.687    9261.4184    9851.4727    7854.2132   -222.91926   -747.89883    550.79039   -6113.6493 
 3191000     270.8789   -9071.6555   -8038.9416   -9071.6555            0    8411.7242    24.913576    25.036938    23.039339     14371.01    8423.6027    8016.3615    8795.2084   -665.40706    815.99453    328.90073   -6275.9582 
 3192000     278.4361   -9070.0025   -8008.4771   -9070.0025            0    9880.9512    24.937684     25.02092    22.906268    14292.682    9301.4864    8377.1932    11964.174    150.43322    474.89801    493.02806   -5948.8511 
 3193000    273.02676   -9091.8054   -8050.9028   -9091.8054            0    8797.3316    24.943197    24.903526    23.055716    14321.601    8102.2474    10278.162    8011.5851   -835.16432   -412.79211     -546.547   -6213.4406 
 3194000    263.39184   -9053.0424   -8048.8726   -9053.0424            0    9182.9722    25.022513    24.968762     22.93577    14329.837    8767.9258    9619.3383    9161.6526   -420.99471   -150.90189    450.38444   -6129.7602 
 3195000    269.73454   -9061.4041    -8033.053   -9061.4041            0    9196.5101    24.987429    25.039169    22.871229    14309.715    9060.7022    8966.1519    9562.6762    1012.9309     334.4709    247.88684   -6113.8102 
 3196000    275.19819   -9066.0818   -8016.9008   -9066.0818            0     9158.332    24.886187    24.905486    23.098368    14316.428    10724.932    8464.8594    8285.2049    653.81651    62.824797   -69.944186   -6104.7289 
 3197000    265.63278   -9059.5751   -8046.8618   -9059.5751            0    8955.8507     25.06794    24.961704    22.933345    14350.277     9247.481    8194.4112      9425.66   -50.224084    113.43885     379.9456   -6172.5449 
 3198000    268.65085   -9046.8202   -8022.6006   -9046.8202            0    8940.1816    25.087711    24.903751    23.011074    14376.815    7205.8352    10595.974    9018.7355   -647.09745   -504.76297   -251.43006   -6148.1028 
 3199000    281.72969   -9082.4138   -8008.3318   -9082.4138            0    10080.319    24.972947    24.770764    23.074901     14274.11    9576.4111    11332.632    9331.9144   -461.13004   -248.56136    628.68206    -5909.879 
 3200000    266.20667   -9060.9897   -8046.0884   -9060.9897            0    9837.1992    25.046539    24.867343    22.970461    14306.942     9017.607    10547.562     9946.429   -730.83718   -577.92061   -656.67868   -5993.5364 
 3201000    278.96687   -9066.7367   -8003.1878   -9066.7367            0    10372.595    24.961045     24.85281     23.04907    14298.539    10103.614    11399.651    9614.5208   -516.36216    277.39166    861.87231   -5840.1954 
 3202000    265.99484   -9065.1761   -8051.0825   -9065.1761            0    10500.795    24.940241    24.970693    22.941779    14287.569    9157.6832    10334.896    12009.805     771.0167    791.74968   -102.41312   -5863.0368 
 3203000    268.88956   -9127.5471   -8102.4174   -9127.5471            0    8642.8024    24.856728    25.037402    22.988321    14306.733    9605.5978     8079.215    8243.5945    517.72361    -76.04989   -846.02786   -6299.1051 
 3204000    272.93624   -9061.3427   -8020.7853   -9061.3427            0    8717.0302    24.842573    25.039732    23.067499    14349.169    8442.7737    9601.4184    8106.8985   -415.68892    291.62599   -1272.0913   -6196.5905 
 3205000    266.19135   -9091.4034   -8076.5606   -9091.4034            0    9275.1744     24.90529    25.059861    22.901794    14293.539    8840.8542    8801.2122    10183.457   -361.02182   -460.32447   -416.86787   -6143.0893 
 3206000    260.50321   -9132.5935   -8139.4365   -9132.5935            0    8703.4367    24.805485    24.988035    23.141813    14344.229     10273.64    8102.2615    7734.4085    607.15174    -400.3884   -1113.6196   -6318.7135 
 3207000    269.07201    -9073.154   -8047.3288    -9073.154            0     9311.452     24.83403    25.022971    23.027288    14309.645    8668.6632    9919.9251    9345.7676    88.217609    676.67727   -52.000183   -6104.1079 
 3208000    266.24625   -9058.8117   -8043.7596   -9058.8117            0    8837.1425    24.951046    25.047711    22.937106    14334.925    8813.1835    7937.5619    9760.6822    626.09634   -365.04971   -601.11185   -6196.2651 
 3209000    267.09339   -9023.1121   -8004.8303   -9023.1121            0    8830.7921    24.956967    25.090784    23.010178     14408.74    8694.0297    8717.8024    9080.5442    533.11642    778.18448    1305.5494   -6149.1569 
 3210000    273.01619   -9070.7703   -8029.9081   -9070.7703            0    8899.5677    24.930609    24.915824    23.064952     14327.18    7512.2596     10520.95    8665.4933    843.26762    849.71451   -1150.0765   -6170.3681 
 3211000    270.29547   -9053.1279   -8022.6383   -9053.1279            0    9240.9995     24.91993    25.025626     22.99304    14339.307    10560.656    8759.1641    8403.1787   -31.745011   -1000.1428   -694.19025   -6090.1227 
 3212000    265.56547   -9073.6401   -8061.1834   -9073.6401            0    8914.7562     24.96826    24.999646    22.959192    14331.074    8346.8126    8193.6484    10203.808   -344.00266    122.12123   -359.03186   -6197.9636 
 3213000    260.07555   -9057.0776    -8065.551   -9057.0776            0    10704.846    24.983242    24.752657    23.083649    14274.966    9194.3649    12102.101    10818.072    92.542209    211.16768   -244.35664   -5836.9549 
 3214000    273.18078   -9057.6705   -8016.1808   -9057.6705            0    10733.226    25.028957    24.891999    22.880589    14255.083    9796.9244    11171.312    11231.443   -704.12026   -599.00525   -1216.8181   -5784.7886 
 3215000    267.87945   -9083.7955   -8062.5169   -9083.7955            0    10403.625    24.913625    24.875137    23.007576    14258.481     9485.661    11325.287    10399.927    970.48957   -912.90841    687.92833   -5899.1318 
 3216000    269.63224   -9107.4315   -8079.4705   -9107.4315            0    9856.2521    24.988636     24.86186    22.945248    14255.056     8755.572    10136.164     10677.02   -296.86848   -957.47724    139.65875   -6030.4012 
 3217000    281.57711   -9073.6214    -8000.121   -9073.6214            0     10394.83    25.041762    24.805064    22.991732    14281.602    8630.4302    12855.981     9698.079    347.80089    -34.32446    1378.6297   -5835.0596 
 3218000    267.72778   -9050.5912   -8029.8908   -9050.5912            0    10233.343    25.114572    24.822006    22.863461    14252.945    8562.7486    11108.135    11029.147    196.30129    605.13561   -254.11436   -5902.7412 
 3219000    272.07155   -9126.3923   -8089.1314   -9126.3923            0    8830.7509    24.962483    24.869723    23.057151     14314.11    8338.6908    9650.7274    8502.8345    203.88314    14.788472    124.76705   -6245.6538 
 3220000      264.503   -9059.9962   -8051.5901   -9059.9962            0    8217.0375    25.011738    24.990054    22.997148    14374.245    7305.5062    8415.6101    8929.9964   -140.94273   -1110.9293    944.20981   -6329.0228 
 3221000    267.60118   -9070.2788   -8050.0611   -9070.2788            0    10134.083    24.946947    24.964388    22.956193    14296.779    8997.0228    10690.149    10715.076   -400.02555    -1383.566   -499.61196   -5937.0658 
 3222000    266.20267    -9077.135    -8062.249    -9077.135            0    9903.9552    24.845599    24.984373    22.955856    14249.887    10639.014    9835.3033    9237.5482    40.251967    367.92003   -1170.2401   -6004.0092 
 3223000    275.34412   -9102.7228   -8052.9854   -9102.7228            0    8779.2555    24.964019     25.07595    22.871588    14317.534    9674.0607    7274.2683    9389.4375    1087.6693   -400.11652   -326.00994   -6219.8194 
 3224000    279.35657   -9044.7542   -7979.7196   -9044.7542            0    9653.8057    24.904202    24.891263    23.128499    14337.288    9658.7888    10295.073    9007.5558    299.45269   -383.45788     440.6938   -5961.1605 
 3225000     265.0437    -9067.982   -8057.5145    -9067.982            0    9149.5325    24.946531    25.033992    22.937744     14324.88    9058.4596    8621.8466    9768.2913   -202.83717   -466.65538   -163.00339    -6146.052 
 3226000    266.94551   -9040.9473   -8023.2293   -9040.9473            0    9875.6176    24.910363    24.943431     22.96184    14267.338    10090.286     10174.38    9362.1865    1025.7212    1028.7042    -131.0193   -5968.3652 
 3227000    264.45291   -9026.3979   -8018.1828   -9026.3979            0    8273.5217    24.965469     25.04935    23.006621    14387.622    7711.6008    7096.0204    10012.944   -77.830328   -1097.4148   -403.86048   -6282.1604 
 3228000    278.74052   -9075.9206   -8013.2347   -9075.9206            0     8354.638    24.856164    25.039659    23.151518     14409.27    8830.5173    8705.2004    7528.1964   -94.961359   -355.86935   -522.79979   -6257.5541 
 3229000    260.35004   -9052.8248   -8060.2517   -9052.8248            0    9485.8954      24.9058    24.933652    23.065372    14323.424    9902.5943    9313.6615    9241.4303    574.07024   -1181.2305   -1035.2211   -6078.7198 
 3230000    267.96444    -9052.925   -8031.3224    -9052.925            0    8071.1532    25.011338    25.018945    22.969464     14373.31    8313.7336    7911.1257    7988.6005   -380.16713   -1190.5452    3.9219573   -6339.4474 
 3231000     273.8702   -9049.4644   -8005.3462   -9049.4644            0    10062.681    25.100213    24.859707    22.937646    14312.723    8974.2432    9676.9398     11536.86   -760.62663   -251.85996     1097.035   -5904.8986 
 3232000    270.60183   -9064.4162   -8032.7586   -9064.4162            0     8897.746    24.960919    24.851464    23.093071    14324.987    9589.6044    8919.0711    8184.5625    146.76818   -570.35259   -280.64314   -6173.8839 
 3233000    278.52826   -9078.0808   -8016.2041   -9078.0808            0    8995.0928    25.146712     24.89829    22.878284    14324.325      8398.65    9199.4789    9387.1496    200.17539   -750.98701   -191.32398   -6137.0789 
 3234000    275.66231   -9068.3974    -8017.447   -9068.3974            0    9930.6586     25.05671    24.889078    22.878735    14268.058    8818.1797    9716.7256     11257.07    447.94072   -1230.7259    100.20402   -5951.0259 
 3235000    261.52212   -9058.6713   -8061.6297   -9058.6713            0    10846.103    24.793405    24.848805     23.14413    14258.785    11429.628    11918.741     9189.939   -852.19026    -335.0045    1094.2663   -5806.1853 
 3236000    279.06564   -9074.8318   -8010.9063   -9074.8318            0    10429.227    24.939428    24.992663    22.907324    14278.198    9868.9715    10728.872    10689.838   -156.32927   -37.372726    326.84908   -5839.1985 
 3237000    271.66536   -9098.2807   -8062.5684   -9098.2807            0    9502.8611    24.867297    24.884189     23.11532    14303.818    9053.1759    9749.3989    9706.0085    131.21126   -957.05403   -263.59051   -6080.2097 
 3238000    275.96479   -9036.3317   -7984.2281   -9036.3317            0    9327.7224    25.000398    24.972439    22.977588    14345.389    9198.6152    9388.8591    9395.6929    350.06994    853.08912    1342.3437   -6032.7494 
 3239000    267.54361   -9048.7329   -8028.7346   -9048.7329            0    10802.077    24.939549    24.934197    22.962503    14279.178    11408.848    9843.7968    11153.585    -91.72402    236.42726    626.88608   -5779.2328 
 3240000    281.57898   -9073.4773   -7999.9698   -9073.4773            0    9009.7429    24.841858    24.886351    23.225584    14358.595    10477.336    9903.0079    6648.8849    668.59939     279.7315   -191.40864   -6113.2812 
 3241000    273.39148   -9071.7587   -8029.4657   -9071.7587            0    9170.2215    24.901706    25.084437    22.935987    14326.856    10532.324    8602.6883    8375.6522    651.37076   -1472.6781    71.621387   -6113.4166 
 3242000    276.90772   -9063.0194   -8007.3209   -9063.0194            0    9581.6914    24.950224    24.922273    23.029793      14320.3    8055.7931    10988.318    9700.9632   -622.38259    2.9776853    506.05835   -6006.2144 
 3243000    270.20344   -9090.3741   -8060.2353   -9090.3741            0    9510.4621    24.910225    25.000149     22.97349    14306.955    8405.3811    9611.5659    10514.439   -20.487146   -1639.1731    -1047.975   -6075.8558 
 3244000    273.27213   -9108.2908   -8066.4528   -9108.2908            0    9667.2407    24.981895     24.94028    22.955815    14302.746    8983.7016    10256.747    9761.2732   -422.46666    -410.1738    492.16312   -6049.9546 
 3245000    274.95343   -9072.0811   -8023.8333   -9072.0811            0    9092.4831    24.838357    24.873695    23.228987    14351.373    10531.698    8749.3881    7996.3632   -788.59942    41.250017    72.821336   -6120.7761 
 3246000    264.79255   -9066.6811   -8057.1711   -9066.6811            0    9496.5021     24.85823    25.100548    22.964104    14328.572    9533.5276     9742.791    9213.1878   -228.15468   -1429.1641   -57.005908   -6072.7106 
 3247000    281.19062   -9056.8954   -7984.8686   -9056.8954            0    9447.5598    24.905213    25.027022    22.950894    14305.369     9309.212    8726.0026    10307.465   -386.49613   -986.55749    10.078959   -6013.8324 
 3248000     265.6944   -9096.7452    -8083.797   -9096.7452            0    8553.4512    24.824865    25.113295    22.967668    14318.829    9425.3536    7755.6634    8479.3365    -964.2952   -638.46813    -1465.231   -6297.6189 
 3249000    258.58136   -9092.4667   -8106.6367   -9092.4667            0    8326.5042    24.865976    25.030011    23.052047    14347.494    8927.8368    7988.4618    8063.2141   -75.670117   -179.43177    673.70073   -6364.3699 
 3250000    268.04585   -9024.8691    -8002.956   -9024.8691            0    9346.2485    24.820675    25.107005    23.046009    14361.646    11023.759    7863.4917    9151.4954    425.84412    355.96697    314.63536   -6045.3854 
Loop time of 621.935 on 64 procs for 250000 steps with 1920 atoms

Performance: 69.461 ns/day, 0.346 hours/ns, 401.971 timesteps/s
99.1% CPU use with 64 MPI tasks x 1 OpenMP threads

MPI task timing breakdown:
Section |  min time  |  avg time  |  max time  |%varavg| %total
---------------------------------------------------------------
Pair    | 62.757     | 64.999     | 67.191     |  12.9 | 10.45
Bond    | 0.27241    | 0.28326    | 0.29616    |   0.8 |  0.05
Kspace  | 270.99     | 281.75     | 290.88     |  29.4 | 45.30
Neigh   | 6.5117     | 7.5859     | 8.5459     |  18.6 |  1.22
Comm    | 112.21     | 124.4      | 136.96     |  53.3 | 20.00
Output  | 1.0726     | 1.0736     | 1.0749     |   0.0 |  0.17
Modify  | 125.01     | 133.2      | 137.44     |  25.9 | 21.42
Other   |            | 8.64       |            |       |  1.39

Nlocal:        30.0000 ave          33 max          26 min
Histogram: 1 3 7 0 13 15 0 15 5 5
Nghost:        2799.12 ave        2831 max        2771 min
Histogram: 3 5 7 9 8 13 11 3 2 3
Neighs:        10575.2 ave       11736 max        9044 min
Histogram: 1 0 6 7 12 9 10 11 4 4

Total # of neighbors = 676811
Ave neighs/atom = 352.50573
Ave special neighs/atom = 2.0000000
Neighbor list builds = 12247
Dangerous builds = 1

unfix		3
unfix		2
unfix		1

write_data	data.final.${pid}
write_data	data.final.0
System init for write_data ...
PPPM initialization ...
  extracting TIP4P info from pair style
  using 12-bit tables for long-range coulomb (../kspace.cpp:340)
  G vector (1/distance) = 0.37432026
  grid = 30 30 30
  stencil order = 5
  estimated absolute RMS force accuracy = 0.0032867405
  estimated relative force accuracy = 9.8979214e-06
  using double precision FFTW3
  3d grid and FFT values/proc = 3600 512
Last active /omp style is kspace_style pppm/tip4p/omp
WARNING: Not all mixed pair coeffs generated from mixing. Use write_data with 'pair ij' option to store all pair coeffs. (../write_data.cpp:312)

write_restart   restart.lmp.${pid}
write_restart   restart.lmp.0
System init for write_restart ...
PPPM initialization ...
  extracting TIP4P info from pair style
  using 12-bit tables for long-range coulomb (../kspace.cpp:340)
  G vector (1/distance) = 0.37432026
  grid = 30 30 30
  stencil order = 5
  estimated absolute RMS force accuracy = 0.0032867405
  estimated relative force accuracy = 9.8979214e-06
  using double precision FFTW3
  3d grid and FFT values/proc = 3600 512
Last active /omp style is kspace_style pppm/tip4p/omp
Total wall time: 0:10:26
