LAMMPS (30 Jul 2021)
  using 1 OpenMP thread(s) per MPI task
package omp 0
using multi-threaded neighbor list subroutines
echo both

include		in.partitions
variable        pid world 0
include		in.temp
variable        temperature equal 267.51
variable	tempDamp equal 100.0
include		in.pressure
variable        pressure equal 10125.0
variable        pressureDamp equal 1000.0 # This is 1 ps
include		in.seed
variable        seed world 745823

units		real
atom_style	full
read_restart    restart.lmp.${pid}
read_restart    restart.lmp.0
Reading restart file ...
  restart file = 30 Jul 2021, LAMMPS = 30 Jul 2021
  restoring atom style full from restart
  triclinic box = (-3.2225124 -0.21028314 0.069629766) to (14.832511 22.790282 19.160368) with tilt (0.014770876 -6.7803711 0.062894529)
  4 by 4 by 4 MPI processor grid
  restoring pair style lj/cut/tip4p/long/omp from restart
  restoring bond style harmonic/omp from restart
  restoring angle style harmonic/omp from restart
  1008 atoms
  672 bonds
  336 angles
Finding 1-2 1-3 1-4 neighbors ...
  special bond factors lj:    0        0        0       
  special bond factors coul:  0        0        0       
     2 = max # of 1-2 neighbors
     1 = max # of 1-3 neighbors
     1 = max # of 1-4 neighbors
     2 = max # of special neighbors
  special bonds CPU = 1.406 seconds
  read_restart CPU = 1.697 seconds

include 	in.setup
variable	out_freq equal 1000
variable	out_freq2 equal 10000
variable	out_freq3 equal 1000

timestep	2.0

neigh_modify    delay 7 every 1

include		in.tip4p
# This is TIP4P/Ice

# create groups ###
group ox type 2
336 atoms in group ox
group hy type 1
672 atoms in group hy

# set charges - beside manually ###
set group ox charge -1.1794
Setting atom values ...
  336 settings made for charge
set group hy charge 0.5897
Setting atom values ...
  672 settings made for charge

# ### TIP3P Potential Parameters ###
pair_style lj/cut/tip4p/long/omp 2 1 1 1 0.1577 8.5
pair_coeff 1 1*2 0.000 0.000
pair_coeff 2 2 0.21084 3.1668
bond_style  harmonic
bond_coeff  1 450 0.9572
angle_style harmonic
angle_coeff 1 55 104.52
kspace_style pppm/tip4p/omp 1.0e-5
pair_modify tail yes

thermo          ${out_freq}
thermo          1000
thermo_style    custom step temp pe etotal epair emol press lx ly lz vol pxx pyy pzz pxy pxz pyz enthalpy

restart 	${out_freq3} restart.lmp.${pid} restart2.lmp.${pid}
restart 	1000 restart.lmp.${pid} restart2.lmp.${pid}
restart 	1000 restart.lmp.0 restart2.lmp.${pid}
restart 	1000 restart.lmp.0 restart2.lmp.0


include         in.dump
dump            myDump all atom ${out_freq2} dump.water.${pid}
dump            myDump all atom 10000 dump.water.${pid}
dump            myDump all atom 10000 dump.water.0
dump            myDump2 all dcd ${out_freq2} dump.dcd
dump            myDump2 all dcd 10000 dump.dcd
dump_modify     myDump append yes
dump_modify     myDump2 append yes


variable natoms 	equal  "count(all)"                        # NUMBER ATOMS
variable H      	equal  "enthalpy/v_natoms"                 # ENTHALPY-per-atom
variable Vol      	equal  "vol/v_natoms"                 # volume-per-atom
fix AVG all 		ave/time ${out_freq} 1 ${out_freq} v_Vol v_H file vol_enthalpy.dat
fix AVG all 		ave/time 1000 1 ${out_freq} v_Vol v_H file vol_enthalpy.dat
fix AVG all 		ave/time 1000 1 1000 v_Vol v_H file vol_enthalpy.dat



fix 		1 all shake 1e-6 200 0 b 1 a 1
       0 = # of size 2 clusters
       0 = # of size 3 clusters
       0 = # of size 4 clusters
     336 = # of frozen angles
  find clusters CPU = 0.013 seconds
fix             2 all nph tri ${pressure} ${pressure} ${pressureDamp}
fix             2 all nph tri 10125 ${pressure} ${pressureDamp}
fix             2 all nph tri 10125 10125 ${pressureDamp}
fix             2 all nph tri 10125 10125 1000
fix             3 all temp/csvr ${temperature} ${temperature} ${tempDamp} ${seed}
fix             3 all temp/csvr 267.51 ${temperature} ${tempDamp} ${seed}
fix             3 all temp/csvr 267.51 267.51 ${tempDamp} ${seed}
fix             3 all temp/csvr 267.51 267.51 100 ${seed}
fix             3 all temp/csvr 267.51 267.51 100 745823


run             250000
PPPM initialization ...
  extracting TIP4P info from pair style
  using 12-bit tables for long-range coulomb (../kspace.cpp:340)
  G vector (1/distance) = 0.38301092
  grid = 24 30 32
  stencil order = 5
  estimated absolute RMS force accuracy = 0.0019932579
  estimated relative force accuracy = 6.002637e-06
  using double precision FFTW3
  3d grid and FFT values/proc = 4080 384
Last active /omp style is kspace_style pppm/tip4p/omp
Neighbor list info ...
  update every 1 steps, delay 7 steps, check yes
  max neighbors/atom: 2000, page size: 100000
  master list distance cutoff = 10.8154
  ghost atom cutoff = 10.8154
  binsize = 5.4077, bins = 5 5 4
  1 neighbor lists, perpetual/occasional/extra = 1 0 0
  (1) pair lj/cut/tip4p/long/omp, perpetual
      attributes: half, newton on, omp
      pair build: half/bin/newton/tri/omp
      stencil: half/bin/3d/tri
      bin: standard
Per MPI rank memory allocation (min/avg/max) = 9.342 | 9.346 | 9.349 Mbytes
Step Temp PotEng TotEng E_pair E_mol Press Lx Ly Lz Volume Pxx Pyy Pzz Pxy Pxz Pyz Enthalpy 
12750000    280.10755   -4805.5277    -4245.278   -4805.5277            0    9055.4596    18.055024    23.000565    19.090738    7927.9208    8485.3404    9498.4853    9182.5529    266.82475    987.62094   -82.854305   -3198.2804 
12751000    272.75895   -4819.8241   -4274.2725   -4819.8241            0    9822.1471    17.689024    22.846486    19.514732    7886.5282    8330.0818    11289.633    9846.7262   -293.14083     313.1505   -1720.8599   -3144.5594 
12752000    262.71142   -4793.0082   -4267.5529   -4793.0082            0    9319.2214    18.048908    22.799663    19.221974    7910.0156    9924.6058    9150.0799    8882.9784   -1258.6336   -1646.4929   -696.40896   -3192.4926 
12753000    271.23577   -4818.4605   -4275.9555   -4818.4605            0    10202.073    17.941177    22.636496    19.404954    7880.8445    11004.448    9024.4772    10577.294   -526.27973   -1729.3464    646.62593   -3103.3901 
12754000    255.75438    -4825.311   -4313.7707    -4825.311            0    9435.6189    18.007343     22.70816    19.345144    7910.4929    9281.5566    10257.625    8767.6748    775.39931    1120.5669   -482.03161   -3225.2171 
12755000    261.32222   -4801.7484   -4279.0717   -4801.7484            0    10331.421    18.057233    22.801912    19.153766     7886.361    9730.8788         9934    11329.383    -1293.307   -119.76832    -1423.977   -3090.8087 
12756000    271.82286   -4784.0849   -4240.4055   -4784.0849            0    10094.063    17.711136    22.770487    19.498628    7863.6247    12520.034    9711.4416    8050.7122      1409.51   -2431.0199   -523.06608   -3082.7892 
12757000    269.01047    -4814.846   -4276.7919    -4814.846            0    10818.822    17.818427    22.893765    19.268459    7860.1993    12432.793    9557.9846    10465.689    388.90991   -1101.4518    -73.75943   -3036.5984 
12758000    264.71026   -4799.8362    -4270.383   -4799.8362            0    10182.169    18.056504     22.77869    19.158315    7879.8819    8191.3524    11391.093    10964.061    -174.9737    896.67631    209.91043   -3100.2482 
12759000    278.99221   -4803.5931   -4245.5742   -4803.5931            0     10167.82    17.981675    22.776087    19.309111    7908.0889    9042.8733    10418.002    11042.585    74.854423    1385.4391   -37.540089   -3072.9057 
12760000    264.60474   -4783.6029   -4254.3607   -4783.6029            0    9056.9074    18.027644    22.751045    19.378555    7948.0705    9514.2835    9197.5199    8458.9187    292.07142   -1427.1645   -2704.7287   -3204.5343 
12761000    268.35609    -4816.522   -4279.7767    -4816.522            0    9091.3546    17.772365    22.960979    19.361043    7900.6785    11427.754    8405.3275    7440.9827    4.6205854   -591.08059    980.38668   -3232.2408 
12762000    279.39718   -4782.1958   -4223.3669   -4782.1958            0    10148.387     17.88017     23.01965     19.14518    7880.0654    11498.149    9364.8101    9582.2031   -348.42414   -518.72595    302.41518   -3057.0871 
12763000    272.71218   -4767.5524   -4222.0943   -4767.5524            0    11154.804    17.914496    22.974233    19.118646    7868.6956    12405.224    9260.8769    11798.311   -179.82837    368.07283    1505.2297   -2942.0041 
12764000    266.10305   -4813.1777   -4280.9388   -4813.1777            0    8477.8456    17.863207     23.14881     19.16804    7926.2142    10983.034    7280.5479     7169.955    1796.2516      362.514    1255.0162   -3300.9362 
12765000    256.27932   -4777.2358   -4264.6455   -4777.2358            0    10118.656    17.643506    23.127912    19.338166    7891.0824    10907.834    11410.065    8038.0683   -313.38093    33.858008    172.32692   -3100.1568 
12766000    270.62365   -4795.4944   -4254.2137   -4795.4944            0    12424.586    17.873324    22.913146    19.090726    7818.3033    12511.581    12416.972    12345.205   -207.14217   -291.03706    2403.9082   -2837.5384 
12767000    270.23505   -4805.3184   -4264.8149   -4805.3184            0    12143.191    17.954238    22.928788    19.058575     7845.823      12062.6    11271.093    13095.879    1195.9195    -564.4304     141.7869   -2875.3511 
12768000     261.3003    -4812.918   -4290.2851    -4812.918            0    11215.741    17.802968    22.815498    19.367795    7866.8801    9906.1459    12551.587    11189.489   -727.84618     293.0606   -3202.0978    -3003.499 
12769000    268.13881   -4805.2703   -4268.9595   -4805.2703            0    10165.561    17.995705    23.170239    18.915514    7887.1032    8624.6471    10282.744    11589.291    1071.7849   -1098.3126    242.68439   -3099.6628 
12770000    267.26943   -4801.3109    -4266.739   -4801.3109            0    11905.548    17.550404    23.104298    19.267894    7812.9337    14106.754    10998.863    10611.025   -1194.5877    86.213566   -1364.0971   -2910.1777 
12771000    269.59605   -4826.0368   -4286.8114   -4826.0368            0     10279.43    17.779608    23.196499    19.045733    7854.9298     9688.402    9716.2003    11433.689   -795.40236   -1179.9628   -571.93128     -3109.24 
12772000    270.24241   -4820.3254   -4279.8072   -4820.3254            0    7948.7651    17.938079    23.230975    19.132135    7972.7253    10508.458    5255.8203    8082.0174    2286.1269   -830.35599    861.58318   -3355.5723 
12773000    265.19971   -4838.6722     -4308.24   -4838.6722            0     11719.12    17.748544    23.121063    19.178623    7870.2393    13867.304    10278.765    11011.291    1652.7955   -849.62478   -569.25202   -2963.1269 
12774000    282.19925   -4777.6673   -4213.2339   -4777.6673            0    11468.054    17.828544      22.9114    19.215576     7849.119     11874.64     12126.27    10403.253    1843.2586   -576.30956    -1452.054   -2900.4702 
12775000      273.304   -4782.5112   -4235.8694   -4782.5112            0    10761.686    17.845993    22.963644    19.258088    7892.1382    11645.902     9923.778    10715.376     861.5552   -1104.2131    336.19966   -2997.2129 
12776000    272.08461   -4790.9966   -4246.7938   -4790.9966            0    10778.045    17.841223    22.891845    19.273783      7871.77    13516.838    9970.9387    8846.3589   -689.46448    131.20547   -189.85061    -3009.456 
12777000    280.90279    -4794.726   -4232.8858    -4794.726            0    10032.585    17.879837    22.869136    19.169196    7838.2154    9070.2795    11240.671    9786.8026    1363.7552    940.01318    267.47448   -3086.0376 
12778000    269.36611   -4819.1622   -4280.3967   -4819.1622            0    9909.8852    17.663685    22.965547    19.411886    7874.5516    9720.6711    10113.629    9895.3559   -484.97742    260.18659    -617.5809   -3142.3231 
12779000    267.54748   -4816.0151   -4280.8871   -4816.0151            0    9586.3448    18.030008     22.94211    19.159415    7925.2239    10337.776    10048.092    8373.1669   -313.49169    812.74028    -1413.737   -3172.8852 
12780000    275.49212   -4787.7425   -4236.7243   -4787.7425            0    12432.978      17.7928     22.79459    19.393884     7865.763    12709.721    13462.813      11126.4    1114.8086    672.95034   -2404.2286   -2810.4866 
12781000    282.36712   -4812.3091   -4247.5399   -4812.3091            0    7803.0665    17.946099    22.989304    19.217465    7928.5178    9469.0014    7467.2852    6472.9128    2066.5223    -202.4724   -216.11257   -3345.2768 
12782000    264.19102    -4781.472   -4253.0573    -4781.472            0    9338.1499    17.946923    22.937578    19.148903    7882.8172    7700.4295    9853.0556    10460.965     1682.322   -387.62233   -70.475438   -3179.5174 
12783000    262.45907   -4805.5393   -4280.5888   -4805.5393            0    7843.7858    17.879793    22.980476    19.341332    7947.0853    6749.8898    9371.6495    7409.8179   -556.63637    1164.5874    -1751.852   -3371.4933 
12784000    257.61572   -4813.8946   -4298.6314   -4813.8946            0    9062.5789    17.945261    22.956692     19.16106    7893.6635    9378.7933    8189.5599    9619.3835    2311.3996    29.185865    658.40856   -3255.3384 
12785000     266.1155   -4836.5184   -4304.2545   -4836.5184            0    10221.771    17.939984    22.748748    19.237115    7850.9011     9756.224    10923.974    9985.1153   -1283.8876   -1275.1248   -1056.4875   -3133.8889 
12786000    268.18919   -4829.8872   -4293.4757   -4829.8872            0     10761.91    17.905867    22.862328    19.214823    7865.9685    9542.3569    10765.752    11977.623    1719.1468    391.54601    650.38474   -3058.9007 
12787000    275.27805   -4821.6826   -4271.0925   -4821.6826            0    9245.6315    17.859463    22.880896    19.354575    7909.0636    11294.516    9298.5428    7143.8358    -1462.687    338.59616   -1208.8185   -3204.6498 
12788000    268.55158   -4809.1197   -4271.9834   -4809.1197            0    9759.5369    17.940465       22.984    19.129833    7888.0653    7914.3598    10674.148    10690.103    82.115993    1212.5529    -1744.706   -3149.2527 
12789000    263.07942   -4801.9181   -4275.7268   -4801.9181            0    10227.195     17.73842    22.957358    19.312345    7864.5134    10465.411    10487.821    9728.3526    768.15426    803.07687    1554.6212   -3102.7099 
12790000    273.52782   -4813.6913   -4266.6019   -4813.6913            0    10680.608    17.941648    22.884417    19.143345     7859.954    10688.001    11080.834    10272.988   -1153.5787   -245.83212   -307.42692   -3042.2905 
12791000    262.94003   -4796.9534   -4271.0409   -4796.9534            0    10594.359    17.950909    22.873263    19.257526    7907.0605     12558.54    9147.6995    10076.838   -963.86827   -1441.5733   -210.83235   -3049.3379 
12792000    268.40422   -4804.9645   -4268.1229   -4804.9645            0     11327.33    17.740178    22.732729    19.429278    7835.4905    13023.312    11981.901    8976.7772   -752.44275    778.01101   -269.08399   -2973.7195 
12793000    274.98984   -4799.1652   -4249.1516   -4799.1652            0    11341.205    17.983898    22.886831    19.124465    7871.5237    11692.265    10618.777    11712.572   -815.27205    475.83505   -2534.0685   -2947.2028 
12794000     272.0083   -4848.2415   -4304.1912   -4848.2415            0    10094.563    17.857576    22.908704    19.246773    7873.7376    11081.432     10008.03    9194.2263    405.03218    1262.0358   -298.06135   -3145.0287 
12795000     261.2184   -4823.0599   -4300.5908   -4823.0599            0    9282.6578    17.769013    23.055244    19.237112    7880.8472    10161.166    8361.0655    9325.7417   -1218.4604   -854.13803   -1811.7287   -3233.6971 
12796000    261.26173   -4827.4691   -4304.9133   -4827.4691            0    7535.3183    17.959324    23.005989    19.273496    7963.2688     7339.068    6907.2183    8359.6685   -649.49989    854.61478   -72.568733   -3429.7908 
12797000      267.516    -4807.008   -4271.9429    -4807.008            0    11236.791    17.884112    22.750967    19.334843    7866.9772    11276.832    10508.811     11924.73     191.0491    317.11805   -88.454861   -2982.7258 
12798000    268.08246   -4824.9178   -4288.7198   -4824.9178            0    12150.583    17.865019     22.71737    19.282937    7825.9079    11932.948    12676.479     11842.32   -26.567178    913.36633   -210.39988   -2901.9393 
12799000    277.29444    -4797.139   -4242.5159    -4797.139            0    10590.034    17.969095    22.841153    19.206803    7883.1417    11168.376    10399.842    10201.884    1051.0583   -583.76189    1122.9273   -3025.0058 
12800000     273.1936   -4845.8022   -4299.3812   -4845.8022            0    8599.8497    17.761841    22.920348    19.461417    7922.8904    10664.111    8097.0826    7038.3551    1019.3261   -856.32972   -744.21715   -3305.6924 
12801000    282.46409   -4775.2713   -4210.3082   -4775.2713            0    10614.363    18.002931    22.870544    19.172607    7894.0681    9844.0299    10918.558    11080.501   -771.36356    1139.7192   -896.26432   -2988.3097 
12802000    258.02067   -4811.1969   -4295.1237   -4811.1969            0    10884.966    17.845812    22.997896    19.200427    7880.1648    10376.625    11727.618    10550.655    1166.4296    1499.1174    2125.0231   -3044.1785 
12803000    258.96986     -4821.51   -4303.5383     -4821.51            0    11043.502    17.835652    22.909868    19.182298    7838.1254    11287.604    11033.544    10809.358    64.555416   -273.01701   -1076.7516   -3041.1444 
12804000     271.6052   -4782.7396   -4239.4956   -4782.7396            0    9918.3344    17.891884     22.98088    19.232755    7907.9557    9726.4456    9797.2538    10231.304   -313.36253   -413.79359   -2144.0896   -3095.6198 
12805000    264.29399   -4785.9478   -4257.3271   -4785.9478            0    10305.067    17.862488    22.979242    19.226284    7891.7442    10047.797    10207.191    10660.214    627.53207    -793.2515   -350.79903   -3071.2861 
12806000    279.20226   -4773.5402   -4215.1012   -4773.5402            0      10803.7    17.861451    22.849545    19.331643    7889.7472    10641.803    11536.351    10232.945   -660.90018     418.3009   -1489.8045   -2971.9857 
12807000     261.0879   -4815.1284   -4292.9203   -4815.1284            0    12615.504     17.55292    23.297463     19.00681    7772.6162    14062.053    11335.631    12448.829    1699.6399   -890.02919   -1467.0839   -2862.8818 
12808000    261.79649   -4799.9408   -4276.3155   -4799.9408            0    8964.0933    17.631057    23.336985    19.306936    7943.9491    10926.425    7646.7485     8319.106   -236.13541   -1340.3066   -598.16181   -3237.7863 
12809000     267.2225   -4807.5247   -4273.0467   -4807.5247            0    9568.3732    17.780433    23.185776    19.133158    7887.7046     10578.37    8655.7176    9471.0323    375.68382   -571.98412   -497.10844   -3172.3577 
12810000    277.80238   -4831.1858   -4275.5467   -4831.1858            0    10349.656    17.816644    23.051124    19.230769    7897.9552    10163.842    10117.817    10767.308     554.6595   -36.877766    1299.0795   -3083.4363 
12811000    270.06232   -4785.0872   -4244.9292   -4785.0872            0    9541.8482    17.836738    22.968709     19.27964    7898.6147    10331.655    8683.3934    9610.4959    939.79619   -375.80094    1740.0022   -3145.7732 
12812000    279.48132   -4781.9422    -4222.945   -4781.9422            0    9399.6988    18.009745     22.82715    19.309188    7938.2226    11190.585    8702.7343    8305.7766   -1304.8634   -552.21561   -1775.4273    -3134.734 
12813000    270.37337   -4773.6787   -4232.8986   -4773.6787            0    12120.143    18.058382    22.527996    19.309911    7855.6417    9527.1447    13523.817    13309.468    2131.7827   -493.72942    3039.8858   -2844.3365 
12814000    254.27885   -4787.8032   -4279.2141   -4787.8032            0    10686.576    17.992549    22.730606    19.277663    7884.2084    9590.7676    10833.511     11635.45    275.71786   -360.91428    1564.8428   -3050.4385 
12815000    271.67596   -4828.9629   -4285.5774   -4828.9629            0    12171.958    17.827099    22.585094     19.38215    7803.7714    12419.068    12383.576    11713.231   -26.350789      696.264     819.5041   -2900.2868 
12816000    289.20551   -4819.8533   -4241.4065   -4819.8533            0    8317.3325    18.030133    22.787908    19.349508    7950.1131     6684.546    8933.0382    9334.4133     202.5217    43.408328    30.265685   -3277.0597 
12817000    264.73289   -4808.0459   -4278.5474   -4808.0459            0    10529.224    17.855741    22.792838    19.310011    7858.8462     10490.41    10469.506    10627.757    532.44786   -539.67577    1523.6683   -3071.7592 
12818000    285.87417   -4839.9112   -4268.1275   -4839.9112            0    9893.8843    17.958525    22.711334     19.30382    7873.2958    10456.664    9752.7477    9472.2415   -873.04978   -312.31892    688.50752   -3132.0727 
12819000    258.71289   -4828.5755   -4311.1178   -4828.5755            0    11451.655    17.960738    22.773047    19.194239    7850.8418    10026.601    12830.614    11497.749   -970.79005    1448.1928    -902.7893   -2999.9437 
12820000    269.53354   -4793.5961   -4254.4957   -4793.5961            0    11815.621    17.679306    22.864551     19.44657    7860.8748    13620.206    11210.399    10616.259   -252.47482    980.92158    1110.9785   -2899.9199 
12821000    260.16983    -4798.358   -4277.9862    -4798.358            0    9529.2227    17.932062    23.046735    19.149108     7913.857    10497.735    9230.1063    8859.8271   -1808.2757   -846.73601   -652.58546   -3178.1663 
12822000     282.2041   -4779.3428   -4214.8997   -4779.3428            0    9067.5191    17.847737    23.243948    19.129339    7935.8419    10591.092    7558.2018    9053.2637   -538.27228    425.45009    2037.3429   -3165.4603 
12823000    259.37976   -4829.5168   -4310.7252   -4829.5168            0    10456.145    17.657631    23.162155    19.210457    7856.8613    12288.653    8988.9291    10090.853   -60.067354    136.48721   -2215.2766   -3112.6155 
12824000    255.43026   -4812.0231    -4301.131   -4812.0231            0    10703.314    17.710149    23.367408    19.034454    7877.2235    11250.788     9790.953    11068.201   -1574.6498   -772.91152    1261.2886   -3071.5212 
12825000    263.11791   -4809.9146   -4283.6463   -4809.9146            0    10186.394    17.721795    23.153622    19.211228     7882.823    10943.709    8413.9552    11201.518   -1828.8703    71.736274   -2208.9942    -3112.589 
12826000    267.56055   -4800.7206   -4265.5664   -4800.7206            0    9934.5549     17.97759    22.922213    19.131041     7883.637    9013.4537     9859.696    10930.515   -1192.5458    195.36153    1818.1229   -3123.3434 
12827000    243.61761   -4808.0883    -4320.823   -4808.0883            0    10002.453    17.879733    22.698278     19.39333    7870.5723    10690.425    9994.8191    9322.1165   -1317.2919   -306.04093     2633.127   -3172.6991 
12828000    294.96297   -4810.2543   -4220.2919   -4810.2543            0    11579.295    18.066609    22.536482    19.311397    7862.7859    11300.438    12407.062    11030.384   -134.02806     973.6679   -229.71638   -2892.4865 
12829000    262.49275   -4827.8133   -4302.7954   -4827.8133            0    9380.4214    17.979052     22.67077    19.401652    7908.0932    6678.4468    11772.773    9690.0441   -1013.5415    1245.5283   -777.46718    -3220.938 
12830000    277.21295    -4791.207   -4236.7468    -4791.207            0    9919.8868    17.925941    22.706363    19.377931    7887.4559    10016.615    10569.176     9173.869   -1611.4319   -400.01564    -785.0259   -3095.6577 
12831000    271.67185   -4791.9965   -4248.6193   -4791.9965            0    12154.299    18.192902    22.756648    18.988418    7861.3851     10013.51    12989.487      13459.9     748.0652    527.47599    1749.7068    -2855.126 
12832000    263.68994   -4832.4473   -4305.0349   -4832.4473            0    9303.7275    17.676252    22.851139    19.594539    7914.6751    10858.141    8801.3035    8251.7382   -1281.1767    198.86999   -1296.6084   -3231.1296 
12833000    278.04407   -4808.8363   -4252.7138   -4808.8363            0    10508.167    17.887975    23.042615    19.061523    7856.8874     11303.89    8734.4792    11486.133   -61.056261    387.68452   -235.79593   -3048.6392 
12834000    276.87074   -4787.7978   -4234.0221   -4787.7978            0    9406.5027    17.793788    22.829998    19.454803    7903.1661    8010.6764    9947.5774    10261.254    380.65019   -287.07997     1205.619   -3149.8327 
12835000     261.9013   -4820.1135   -4296.2785   -4820.1135            0    9430.4446    18.008036    22.907415    19.146083    7898.0954    6817.5575    10379.668    11094.109   -510.41179    325.16453    2481.8334   -3210.0269 
12836000    256.73195   -4798.7856     -4285.29   -4798.7856            0    9477.3319    17.637381    22.842987    19.631463    7909.3292    9911.3951    11402.678    7117.9224    266.00756    1539.4065    132.27059   -3192.0849 
12837000    255.67741   -4795.7016   -4284.3152   -4795.7016            0    8956.7717    18.061953    23.038806    19.041819     7923.793    8089.6094    8790.6473    9990.0584   -655.28001   -1005.2587   -812.10927   -3249.2671 
12838000    265.62974   -4812.2796   -4280.9873   -4812.2796            0    8982.1721    17.929756    22.774786     19.50658     7965.441    9427.9303    8763.1787    8755.4074   -1513.0773     324.1095   -170.01906   -3237.5483 
12839000    260.60603   -4848.3972   -4327.1529   -4848.3972            0    10951.864    18.036137    22.684641    19.230908    7868.1973    10143.477    10240.777     12471.34    209.25072   -1248.9665    600.04553    -3070.431 
12840000    263.37979   -4813.7389   -4286.9468   -4813.7389            0    9123.6496    17.966533    22.496053     19.57771    7912.8423    9534.9909    10270.333    7565.6247    1546.6849   -109.46798    1428.9486   -3234.0714 
12841000    262.89265    -4822.713   -4296.8952    -4822.713            0    8552.5815    18.255768    22.467171    19.366725     7943.368    6628.2348    10686.902    8342.6077   -994.65341   -288.83472    350.41551   -3306.1139 
12842000    273.62048   -4834.3315   -4287.0567   -4834.3315            0    8321.7076    17.978823    22.607676    19.424392    7895.2266    9384.1245    9104.6178    6476.3806     1458.657    457.09854    615.85828   -3328.8638 
12843000    275.14678    -4803.693   -4253.3654    -4803.693            0    9843.1055    18.043812    22.759467    19.350762    7946.7297    10569.476    10123.235    8836.6053   -1172.3531    785.89361    1623.0349   -3112.5997 
12844000    271.76078   -4829.7178   -4286.1627   -4829.7178            0    7867.2186    17.962708    23.032939    19.192766    7940.6991     6500.476    7615.6802    9485.4996   -39.489627    1451.4864    138.45292   -3375.0841 
12845000    254.72443   -4820.1434   -4310.6631   -4820.1434            0    9846.5206    17.772523    23.130496    19.147874    7871.4472    10776.178    9291.7297    9471.6541   -439.22532    521.80346    488.94423   -3180.3122 
12846000    282.66205   -4815.1352   -4249.7762   -4815.1352            0    10762.473    17.621094    22.929599     19.43946    7854.4092     11322.92    11541.618    9422.8793     -1538.93   -883.69064    1025.5349   -3016.9511 
12847000    272.25591    -4819.261   -4274.7155    -4819.261            0    9828.9052     17.82384    22.873494    19.326533    7879.3021    10266.674     8681.468    10538.574    371.66368    -477.9784    1962.0806   -3145.2609 
12848000    265.78197   -4810.4278   -4278.8311   -4810.4278            0    10784.089    17.869684    22.959297    19.193528    7874.6321    10844.951    10451.542    11055.773    1810.2417    636.57698    1356.5478   -3040.3493 
12849000    265.08761   -4818.7947   -4288.5867   -4818.7947            0    8003.5543    17.809336    23.305226    19.095307    7925.5184    7562.9816    7130.3508    9317.3304   -54.222744   -255.80212    627.54386   -3363.4914 
12850000    266.79248   -4797.6474   -4264.0294   -4797.6474            0    11586.279    17.765321    22.956321    19.197237    7829.1404    10826.682     11883.48    12048.675    1660.7959    -272.7109   -983.23863   -2941.1083 
12851000    256.58306   -4842.2003   -4329.0024   -4842.2003            0    8948.4206    17.953259    22.999218    19.129683    7898.8549    8986.5393     8698.205    9160.5176   -145.12695    89.971852      1034.61   -3298.1739 
12852000    268.71762   -4809.2824    -4271.814   -4809.2824            0    10777.772     17.74957    23.012907     19.30891    7887.0952    12061.172    9531.1686    10740.977   -691.26339    580.61994    630.80044   -3032.0986 
12853000    272.61586   -4806.0199   -4260.7545   -4806.0199            0    10115.683    18.019031    22.961464      19.1148    7908.6213    9775.7351    11012.416    9558.8972    124.27674    1806.0449   -1084.9554   -3094.0205 
12854000    271.10764   -4797.2105   -4254.9618   -4797.2105            0    10308.925    17.853326    22.887991    19.247041    7864.8562    9327.8431    11256.932        10342   -596.22961    1007.0244   -333.11013   -3072.5192 
12855000    277.95631   -4780.1248   -4224.1778   -4780.1248            0    11078.391    17.857785    22.827897     19.30367    7869.2508    11533.666    11720.004    9981.5026    253.07971   -1250.3217    -1218.032   -2952.7669 
12856000    254.92667   -4827.6208    -4317.736   -4827.6208            0    8207.4302    18.029603    22.760431    19.391471    7957.5134    7949.5858    9121.2963    7551.4085    2505.3761    788.77873    610.10137   -3365.2459 
12857000    268.83857   -4809.1002   -4271.3898   -4809.1002            0     8935.666    17.949221    22.870778    19.254017    7904.0177    8836.3029    8833.2057    9137.4893    654.57058   -488.83588   -882.73111   -3241.3578 
12858000    267.46732    -4788.545   -4253.5773    -4788.545            0    9459.4548    17.944076    22.932975    19.190913    7897.2727    10552.754    8215.9612    9609.6487    -672.2407    78.643803   -900.06032   -3164.0977 
12859000    270.75789   -4830.8834   -4289.3341   -4830.8834            0    7588.1076    17.888123    23.134677    19.230367    7958.2176    7969.5746    7032.2265    7762.5218    308.34872    428.21399    770.22857   -3408.6398 
12860000    260.23061   -4771.2259   -4250.7326   -4771.2259            0    7497.4599    17.935541    23.063495      19.2223    7951.4248    8396.4006    7271.9777    6824.0016   -249.49581     537.6446   -753.13295   -3381.3018 
12861000    297.02229   -4820.0798   -4225.9985   -4820.0798            0    11601.676    17.674012    22.969672    19.329596    7847.1637    11846.176    11409.329    11549.524   -343.76463    423.95898    446.17104   -2898.2698 
12862000    271.48531   -4815.2556   -4272.2515   -4815.2556            0    8877.7804    18.030022    23.015654    19.088118    7921.0484    6701.7307    9191.1594    10740.451    506.88959    542.85808    245.31059    -3246.687 
12863000    271.20532   -4823.4166   -4280.9724   -4823.4166            0    11673.313    17.696524    22.967485    19.264031    7829.7624    12310.611    11835.174    10874.152   -396.28832    1414.5573   -1651.7203   -2948.0079 
12864000    267.03312    -4799.011   -4264.9117    -4799.011            0     8833.268    17.944646    22.973902    19.182758    7908.2559    8380.5772    7910.5347    10208.692     475.4226   -949.60859    356.13724   -3246.1374 
12865000    265.94995   -4813.7906   -4281.8578   -4813.7906            0    8026.5251    17.806107    23.011355    19.367459    7935.6742     8336.911    7933.8299    7808.8343    -1600.555    751.18215    1395.7286   -3352.9186 
12866000    239.87433   -4780.9329   -4301.1546   -4780.9329            0    10315.497    18.055968    22.806496    19.131594    7878.2635    10174.787    9634.7995    11136.905   -220.02579   -182.42364     1246.415   -3115.9412 
12867000    258.60127   -4819.5098   -4302.2753   -4819.5098            0    11738.646    17.785038    22.674925    19.460345    7847.8591    13913.839    10981.245    10320.854    -1551.931   -529.07903    -1948.742   -2958.7523 
12868000    255.66093   -4801.7523   -4290.3988   -4801.7523            0    10863.078    18.088797    22.702981    19.142577     7861.275    10849.223    10759.375    10980.636   -421.59648    820.01377    81.329616   -3044.9618 
12869000     270.2884    -4827.913   -4287.3028    -4827.913            0    9792.0375    17.845128    22.890075    19.272062    7872.1809    10447.562    9819.5075    9109.0429   -1718.0761      1617.04   -1294.2658   -3163.1016 
12870000    273.46191   -4830.3339   -4283.3763   -4830.3339            0     8420.758    17.918881    22.928743    19.311803    7934.3977    8945.7874    8370.9303    7945.5563   -313.47297    96.189584    632.23273   -3308.9678 
12871000    262.88432   -4831.9504   -4306.1493   -4831.9504            0     8650.993    18.011464    23.016288    19.161489    7943.5302    7142.8051    8647.0087    10163.165   -1235.0109   -1210.6794    123.13457    -3303.947 
12872000    270.47976   -4780.5994   -4239.6065   -4780.5994            0    11482.101    17.878826    22.854367    19.244773    7863.5922    10105.902    12289.754    12050.647    86.913161    44.003319     3819.637   -2922.8113 
12873000    276.38232   -4811.7848    -4258.986   -4811.7848            0    13029.228    17.764074    23.004129    19.069451    7792.6749     13291.62    12557.326    13238.739   -2350.9334    849.54182   -1186.0305   -2778.2381 
12874000    268.03492   -4790.6746   -4254.5716   -4790.6746            0    10394.476    17.809805    23.081772    19.154662    7874.1343    10153.925    9162.6151    11866.887    390.80449   -1246.5481    -177.1931   -3060.9098 
12875000    266.32599     -4769.82   -4237.1351     -4769.82            0    10816.901    17.672265    23.123697    19.226115    7856.7154    11850.329    9771.5875    10828.787   -677.56135   -134.88361    141.06776   -2997.7114 
12876000    268.91294   -4824.4349   -4286.5758   -4824.4349            0    9864.6992    17.877961    23.258602    18.973906    7889.6606    9080.7958    8187.2214     12326.08   -1784.6055   -522.46444   -1328.5766   -3151.5178 
12877000    254.35366    -4798.327   -4289.5883    -4798.327            0    10429.359    17.761466    23.224742    19.129288    7890.9357    9867.0722    11085.458    10335.545    1381.2351   -971.52939    264.53465   -3089.3652 
12878000    257.92061   -4815.2749   -4299.4018   -4815.2749            0    7511.8021    17.856356    23.214844    19.135506    7932.2895    6427.4343    8858.9146    7249.0575   -308.11955    390.75477   -772.45393   -3430.4042 
12879000    271.42708   -4767.2275   -4224.3398   -4767.2275            0    10865.422    17.633156    23.150083    19.264671    7864.0129    11509.732    10124.556    10961.977    779.73457   -273.03557   -414.24282   -2978.2002 
12880000     250.5349   -4811.8193   -4310.7186   -4811.8193            0    9929.5168     17.71143    23.370126     18.98963    7860.1562    8881.2893    8987.2325    11920.029    700.59733   -663.12922   -350.41868   -3172.4751 
12881000    265.81794   -4837.0944   -4305.4257   -4837.0944            0    11172.273     17.68794    23.090046     19.18258    7834.4598    12495.842    11056.009    9964.9675   -1230.4826    687.80269    703.44091    -3028.909 
12882000    287.00197   -4821.5395   -4247.5001   -4821.5395            0    8308.5172    17.820605    23.249257    19.126935    7924.5917    8379.6462    7691.4605    8854.4448   -71.405095   -812.70451    1215.0863   -3287.2678 
12883000    285.04504   -4814.8513    -4244.726   -4814.8513            0    11360.487    17.522779    23.129261    19.332653      7835.31    11215.401    11762.697    11103.364   -54.869982    106.36618    435.95761   -2946.5636 
12884000    261.88021   -4826.6388    -4302.846   -4826.6388            0    9043.4647    17.994391    23.094443    19.026831    7906.9887    8557.0869    9128.1983    9445.1088   -442.21403    207.61198   -81.898378    -3259.996 
12885000    265.23454   -4823.1971   -4292.6953   -4823.1971            0    9449.3267    17.627229    22.935845    19.474208    7873.3324    10734.094    9489.5967    8124.2898    812.84218   -68.270756   -1419.1563   -3207.6813 
12886000    278.10424   -4804.9562   -4248.7134   -4804.9562            0    11822.849    17.999451    22.863184    19.053002    7840.7821    10426.724    11669.859    13371.965    531.99855   -311.83975    137.12889   -2896.7734 
12887000    264.43126   -4808.5694   -4279.6742   -4808.5694            0     11045.05    17.717073    22.926085    19.353293    7860.9811     13927.76    10363.454    8843.9361    1952.5645   -74.988837    829.44596   -3013.4217 
12888000    257.60994   -4783.0109   -4267.7592   -4783.0109            0    12209.023    17.877167    22.999387    19.038097    7827.7776    11025.956    11915.359    13685.754     1413.124   -1396.2289   -1399.3173   -2873.9758 
12889000    269.22642   -4852.4575   -4313.9714   -4852.4575            0    8958.2589    17.701101    23.087475    19.353593    7909.3052    7341.7246    9139.5133    10393.539    1961.9941    -102.9523    2442.2792   -3280.6442 
12890000    273.87552    -4807.942   -4260.1571    -4807.942            0    9401.7006    18.088476    23.026555    19.051804    7935.3677    9876.3459    8831.5056    9497.2504   -1247.7827    570.86522     337.2476   -3172.1058 
12891000    266.40775   -4806.9463   -4274.0979   -4806.9463            0    11190.949    17.783329    22.925566    19.218503    7835.2472     11663.27    11063.782    10845.793    1425.9854   -400.88995    2546.0077   -2995.3189 
12892000    268.02313   -4810.8161   -4274.7367   -4810.8161            0    9571.2843    17.916834    22.786696    19.326778    7890.4556    8691.5635    11928.208    8094.0811   -161.08532     -384.915    -433.5798   -3173.3288 
12893000    264.43408    -4826.445   -4297.5442    -4826.445            0    8010.0195    17.990957    22.779872    19.373027    7939.6805    5425.7004    9909.8019    8694.5561   -447.08034     485.1872   -571.47175   -3370.0472 
12894000    285.08537   -4842.6871   -4272.4811   -4842.6871            0    9338.8104    18.173919    22.610123    19.160402    7873.2881     7445.378    10050.238    10520.815    -157.3388    243.65111   -185.67739   -3200.1631 
12895000    262.16309   -4809.4232   -4285.0646   -4809.4232            0    8954.5103    18.002386    22.702791    19.427483    7940.0982    11401.327    8668.1835      6794.02   -382.36985    38.300141   -833.33984   -3248.1486 
12896000    274.30446     -4833.51   -4284.8672     -4833.51            0     10372.82    17.864283    22.703579    19.389842    7864.1935    10890.378    10225.315    10002.766   -673.89356   -328.62393   -1266.6788   -3095.1961 
12897000    256.70066   -4820.6022   -4307.1692   -4820.6022            0    9243.6118    17.851852    22.721783    19.449199    7889.0987    8449.7908    10380.669    8900.3754        671.2   -669.92194   -973.91477   -3243.6509 
12898000     267.9859   -4818.0857   -4282.0808   -4818.0857            0    9495.5003     17.98867    22.897999    19.148117    7887.1967    9040.2994    9135.5339    10310.667   -1488.6061   -235.49008   -1174.7473    -3189.845 
12899000    269.43736   -4795.1705   -4256.2625   -4795.1705            0    9705.5028    17.984133    22.910435    19.303422    7953.4791    9918.2487    10223.336    8974.9241    774.41508    919.96025    885.31919   -3130.4889 
12900000    263.35373   -4813.2725   -4286.5325   -4813.2725            0    10739.477    17.816787    23.293568    18.883787    7837.0839    13122.783    8098.6165    10997.033   -1498.6869   -1028.2266    2122.9805    -3059.055 
12901000    271.11519   -4761.7912   -4219.5273   -4761.7912            0    10739.431    17.737358    23.038833    19.238389    7861.7296    9535.8635    12431.209    10251.221   -1250.8962    1687.1161    2354.8657    -2988.195 
12902000    266.33339   -4796.2437    -4263.544   -4796.2437            0    11272.724     17.88047    22.930219    19.167745    7858.8346    11172.499    11398.689    11246.982   -243.84376    1321.9766   -80.808877   -2971.5429 
12903000    270.85873   -4802.8173   -4261.0663   -4802.8173            0    10481.656    17.930223    23.057631     19.11728    7903.6276    11163.844    9038.2431    11242.879   -1107.1997    1299.2144    233.36886   -3052.8846 
12904000    260.11912   -4810.3155   -4290.0451   -4810.3155            0    10106.296    17.940113    22.814194    19.330327    7911.6943    9082.8033    11646.745    9589.3386    560.12922    547.51136    889.21039   -3123.9409 
12905000    268.15457   -4827.9911   -4291.6489   -4827.9911            0    10575.741    17.940684     22.73155       19.306    7873.3641    9904.4103     11411.58    10411.233   -367.47011   -1089.6941   -47.378477   -3077.2901 
12906000    256.19318   -4829.1962   -4316.7782   -4829.1962            0     8188.855    18.170982     22.63769    19.283283    7932.1603    7599.2616     7970.378    8996.9254    1078.6699   -364.35367     247.8176   -3369.4717 
12907000    265.93322   -4818.9802   -4287.0809   -4818.9802            0    8583.7835     18.14446    22.617602    19.334454     7934.554    6104.3532    9574.2403    10072.757    764.32867   -1926.2039   -1854.4352   -3293.7884 
12908000    267.85747   -4841.5974   -4305.8493   -4841.5974            0    11049.666    17.889719    22.710302    19.318003     7848.536    11817.976    10230.777    11100.246    443.69344   -684.03039    270.17034    -3041.073 
12909000    269.06954   -4827.7491   -4289.5768   -4827.7491            0    10566.151    17.752607    22.913465    19.261719    7835.1614    9426.9472      10562.3    11709.206     993.1604   -940.40393    390.17693    -3082.206 
12910000    263.32201   -4797.2271   -4270.5505   -4797.2271            0    8724.5584     17.89042    23.067459     19.22125    7932.3509    8265.3843     7880.023    10028.268   -1037.6443   -1143.5837    504.25054   -3261.2482 
12911000    262.12419   -4828.0623   -4303.7815   -4828.0623            0    10776.742    17.765059    22.930215    19.247638     7840.653    10984.151    10709.266    10636.811   -28.700459    251.73629   -1978.7629   -3071.4839 
12912000    273.43327   -4815.5586   -4268.6583   -4815.5586            0    10150.966    17.824486    23.238162    19.034746    7884.3494    9783.4424    10328.174    10341.283    325.05318   -1187.6458    -955.9623    -3101.448 
12913000    264.33112   -4810.0485   -4281.3536   -4810.0485            0    11580.821    17.751161    23.140842    19.138415    7861.6171    9845.4567    12052.392    12844.616    1166.5764    876.17638    555.17254   -2953.5705 
12914000    263.32576   -4819.2146   -4292.5306   -4819.2146            0      9937.16    17.699151    23.338146    19.110759    7893.9931    10922.168    10197.223    8692.0889   -117.52848     1289.825   -1199.9079   -3148.5072 
12915000    258.72109   -4799.5129   -4282.0387   -4799.5129            0     9624.643    17.988526    23.074072    18.995103    7884.2696    8306.5947    9457.8494    11109.485   -111.74232   -159.98806   -11.521632   -3175.3589 
12916000    289.34608   -4806.7828   -4228.0548   -4806.7828            0     9528.617     17.73151    22.939212    19.474116    7921.0356    11092.285    7986.4563    9507.1093   -28.248961   -487.73175    2283.7883   -3127.3073 
12917000    257.14253    -4803.642   -4289.3252    -4803.642            0    10264.419    18.054311    22.840438     19.08852    7871.5013    10658.817    9710.7197    10423.721   -2090.5199   -833.88401     669.6316   -3110.9927 
12918000    275.04208   -4803.6006   -4253.4824   -4803.6006            0    9695.7004     17.78207    22.834279    19.432429     7890.358    11825.389    9367.5754    7894.1366   -2313.1696    754.03791   -356.09541   -3137.7713 
12919000    286.70246   -4814.1679   -4240.7276   -4814.1679            0    9965.8063    17.890108     23.18101    19.055091    7902.3513    9430.4742     9360.644    11106.301   -1764.0441    177.51817   -751.49086   -3092.1914 
12920000    271.08224   -4800.9966   -4258.7986   -4800.9966            0    10631.443    17.803978    22.986763     19.27269    7887.4605    10629.217    10895.235    10369.877   -1565.1685   -422.54989   -686.75882   -3035.8582 
12921000    268.96346   -4797.6514   -4259.6913   -4797.6514            0    10112.498    17.835362    23.009178    19.224021    7889.0963    9870.8522    9973.4216    10493.219   -1170.5502   -678.31015   -1156.9575   -3096.2041 
12922000    270.42375    -4839.323   -4298.4421    -4839.323            0    9440.1764    17.784511    23.129363    19.170687    7885.7552    10304.727    8740.5945     9275.208   -1113.8723    -677.9917   -1327.2932   -3212.7685 
12923000    262.63924   -4817.9383   -4292.6274   -4817.9383            0    10443.807    17.789811    22.932336    19.176197    7823.1581    10673.607    9869.6657    10788.147   -359.33929   -394.45075   -1015.6906    -3101.065 
12924000     259.5696   -4803.8732   -4284.7019   -4803.8732            0    8697.4869    17.688443    23.294642    19.236422    7926.2901    9852.7867    8016.5926    8223.0813   -644.96721   -120.67568   -843.64457   -3279.3002 
12925000    263.29471   -4819.0339   -4292.4119   -4819.0339            0    8987.0688    17.947695     23.16403    19.049697    7919.7393     8133.459    9067.0182    9760.7294   -30.612998    667.30202    754.01366    -3254.394 
12926000    273.12659   -4831.6582   -4285.3713   -4831.6582            0    9136.4611    17.840982    22.963837    19.214194    7872.0053    9957.4952    10132.393    7319.4948    1947.5451    1175.1426    1173.5551   -3236.4587 
12927000    266.36239   -4784.5606   -4251.8029   -4784.5606            0     9605.246    17.981046    22.892216    19.206455    7905.8761    7613.5067     10363.32    10838.911    1272.1923    303.75624   -364.61736   -3144.3268 
12928000    270.96657   -4803.2846    -4261.318   -4803.2846            0    9506.2128    17.781606    23.122803    19.244078    7912.4063    10412.508    8790.1572    9315.9733    255.12677   -888.41705    2347.5344   -3164.3549 
12929000    274.08408    -4807.742     -4259.54    -4807.742            0     7661.579    17.774746    23.276034    19.197219    7942.3806    9635.0337     6132.697    7217.0061    1613.8156   -453.31186    1486.4015    -3372.088 
12930000    271.85805    -4818.164   -4274.4143    -4818.164            0    9175.1673    17.837245    23.125995    19.164146    7905.2878    10092.764    9909.6379    7523.1001   -1720.3832    1089.0812    336.42974   -3216.6045 
12931000    277.13937   -4835.1478   -4280.8348   -4835.1478            0    11348.059    17.756437    23.124199    19.051001    7822.4055    11438.568    11140.789    11464.821   -278.60737    682.63402   -418.98346   -2986.2282 
12932000     263.6064   -4790.7098   -4263.4644   -4790.7098            0    11715.317    17.648481    23.200696    19.206535     7864.251     12634.22    11155.471    11356.262   -211.36445    92.148174    259.03607   -2919.8108 
12933000    262.01025   -4828.5393   -4304.4865   -4828.5393            0    9808.6565    17.874107    23.057657    19.103925    7873.3968    9564.9499    8554.4077    11306.612    20.504648     332.0043    2721.1949   -3178.2034 
12934000    258.94785   -4827.5999   -4309.6722   -4827.5999            0    9736.1384    18.003779    22.932233    19.136323    7900.7533     8504.475      10409.4     10294.54   -2253.8712    -55.81143   -1760.6835   -3187.8317 
12935000    285.24413   -4814.9039   -4244.3804   -4814.9039            0    10978.121    17.769345    22.907133    19.376894     7887.263    11864.204    11469.668    9600.4917    -317.3129    334.72234     1613.343    -2981.593 
12936000    279.26437   -4815.9637   -4257.4005   -4815.9637            0    8530.7946    17.991801    22.857091    19.203366     7897.197    6356.0579    9586.4845    9649.8413   -1183.3391   -671.51139   -1199.6186   -3274.8874 
12937000    255.60721    -4804.132   -4292.8861    -4804.132            0    10101.237    17.825686    22.871397    19.327071    7879.6146    9281.8177      9383.85    11638.044    549.70176   -78.535133    -771.7528   -3132.0913 
12938000    269.35232    -4791.543   -4252.8051    -4791.543            0    11374.357    17.916261    22.965946    19.128484    7870.6802    9320.1594    12399.096    12403.816    394.88796    1619.2745   -3296.8974   -2947.1904 
12939000    255.15872   -4819.6084   -4309.2594   -4819.6084            0    10047.667     17.82223    22.836008    19.336595    7869.7732    8996.2271    10854.403    10292.371    849.78481    472.57813    460.59679   -3156.0629 
12940000    279.77335   -4781.6809   -4222.0996   -4781.6809            0    10415.248    17.998593    22.794558    19.208871    7880.8227    7696.0232    11648.815    11900.904   -345.24072    561.92942   -787.34287   -3025.0365 
12941000     261.8272   -4781.5336   -4257.8468   -4781.5336            0    11166.702    17.963906    22.603869    19.433842    7891.1847    10900.096    11510.439    11089.572    1168.1262   -266.21091   -2213.1042   -2972.7287 
12942000    289.72147   -4835.6482   -4256.1695   -4835.6482            0    11475.473    18.096852     22.80156    19.059007    7864.4413    9860.0047     11563.34    13003.073    1203.7805    136.43181   -1456.9035   -2939.9924 
12943000    272.21911   -4813.8755   -4269.4037   -4813.8755            0    10935.019    17.842668     22.53503    19.519722    7848.5886    12179.977    11310.941    9314.1391    699.84664    714.74683   -1850.0277   -3017.7419 
12944000    268.62071    -4807.105   -4269.8304    -4807.105            0    9980.8271    18.149044    22.656091    19.226822    7905.8074    9590.3173    10275.033    10077.131    886.96971   -236.49098   -740.75233   -3119.0601 
12945000    265.80574   -4799.7923    -4268.148   -4799.7923            0    10649.439    17.930449    22.740946    19.368391    7897.5655    9774.7056    10648.146    11525.466   -247.66111    692.26638    122.48454    -3041.568 
12946000    265.80334   -4823.2534   -4291.6139   -4823.2534            0    9031.1635    17.940519    23.006264    19.197244    7923.5532    6851.9142    10173.371    10068.205   -922.45061    952.47651   -316.92277   -3248.0006 
12947000    257.98563   -4809.3835   -4293.3804   -4809.3835            0    9720.8084    17.888742    22.758293    19.404692    7899.9843    10815.682    9776.6176    8570.1256   -1128.8577     1843.835   -1974.5756   -3173.4153 
12948000    274.91756    -4821.645   -4271.7759    -4821.645            0    10149.362    17.898773    22.730585    19.327586    7863.4204    10008.157    10684.132    9755.7959    576.19032   -140.30004    542.56652    -3107.848 
12949000     266.9926   -4786.4406   -4252.4225   -4786.4406            0    10609.233    18.001691    22.728844    19.320685    7905.2059     10211.59    11094.038    10522.072   -1255.1783   -756.62496   -2067.6687   -3029.2912 
12950000     266.1896   -4813.9851    -4281.573   -4813.9851            0    10579.155    17.855323    22.842259     19.32243     7880.767    8111.4779    11619.804    12006.182    957.05475   -232.62387    296.96596     -3065.68 
12951000    265.35232   -4818.1137   -4287.3762   -4818.1137            0    8442.3432    18.051645    22.768836    19.417075    7980.7079    8650.3388    8940.0869     7736.604   -71.513449    70.673355   -527.32878   -3304.7682 
12952000    275.07317   -4827.5242   -4277.3439   -4827.5242            0     10389.03    17.898603    22.828846    19.232127    7858.3328    9822.1982    11357.596    9987.2962   -767.50875    652.43429   -944.39584   -3086.7016 
12953000    269.34908   -4842.9195    -4304.188   -4842.9195            0    10742.945    17.746995     23.01706    19.148238    7821.7419    11953.564    10051.298    10223.975    317.13439    234.60297    1273.8131   -3078.7179 
12954000    261.27036   -4831.5973   -4309.0243   -4831.5973            0    10890.025    17.553636     23.07542    19.402934    7859.3042    12585.295    10965.486    9119.2934      17.9738    226.93087    1224.8737   -3060.8108 
12955000    258.32021   -4823.9318   -4307.2595   -4823.9318            0    10177.484    17.808737    23.262305    19.027739    7882.6645    9875.0365    8630.7146      12026.7   -823.24864    392.85023   -274.85498   -3137.2501 
12956000    265.65247    -4831.366   -4300.0282    -4831.366            0    9186.1208    17.709258    23.155621    19.288238    7909.5061    11518.795    8582.6614    7456.9065    557.99496    164.42328     1655.733   -3240.3905 
12957000    257.76529   -4791.8555   -4276.2931   -4791.8555            0    10234.428    17.950717    23.063679    19.041766    7883.4736    8983.3009    9878.0268    11841.958    1493.7685   -315.86234    216.02286   -3099.6165 
12958000    281.58534   -4816.2175   -4253.0121   -4816.2175            0    10732.308    17.727409    23.019056    19.198955    7834.4835    10484.179      9801.03    11911.714    269.25763   -731.18012   -1239.0792   -3026.7611 
12959000    272.31222    -4817.434    -4272.776    -4817.434            0    9573.8531    17.672646    23.247764    19.130526     7859.767    10632.474     9314.028    8775.0569   -1364.2661    86.349756   -301.51698   -3175.3574 
12960000     277.6591   -4808.0398   -4252.6873   -4808.0398            0    10357.877    17.768982    23.100735    19.179417    7872.7008    9888.7305    10053.373    11131.528   -677.45453    25.488748   -675.20648   -3063.4449 
12961000    270.64754   -4813.3952   -4272.0667   -4813.3952            0    8562.4123    17.706073    23.457738    19.148907    7953.3919    10230.125     8366.945    7090.1671   -1127.1643    64.409859    164.53448   -3278.8948 
12962000    268.27338    -4810.078   -4273.4981    -4810.078            0     10643.43    17.764652    23.199904    19.072044    7860.3187    11655.209    10168.094    10106.988    855.87536   -162.44512    1501.2578   -3053.3918 
12963000    258.63874   -4787.0418   -4269.7324   -4787.0418            0    12319.377    17.674261    23.081775    19.150419    7812.4767    12708.205    12316.681    11933.246    594.79272    12.942511    393.91338      -2866.1 
12964000     263.7355   -4812.3045   -4284.8009   -4812.3045            0    9993.7745     17.88543    23.075011    19.181706    7916.4146    9622.2321     10166.71    10192.381   -437.70887   -151.56549   -1080.0733   -3130.9918 
12965000    253.36597   -4825.5851   -4318.8219   -4825.5851            0    11838.714    17.946896    22.798389    19.161103    7839.9631      11713.3    12563.388    11239.453   -152.46866   -53.696446    1321.3596   -2965.2092 
12966000    269.29368   -4811.7383   -4273.1176   -4811.7383            0    11610.584    17.842117    22.794664     19.29571    7847.6628    9083.0136    12659.523    13089.216    54.452718    944.18804   -1626.1494    -2944.285 
12967000    258.32778   -4834.5356   -4317.8481   -4834.5356            0    9738.7514    17.932472    22.812657    19.274183    7884.8242     8585.073     10702.45    9928.7312   -228.68697    195.08839    928.26853   -3197.9689 
12968000    269.19598    -4799.056   -4260.6308    -4799.056            0    8860.0868    17.931819    22.824539    19.387785    7935.1392    9994.9196     7692.816    8892.5247   -574.20937   -425.92455    254.92667   -3235.2895 
12969000    282.63942   -4846.8871   -4281.5734   -4846.8871            0    7062.3537    18.207521    22.741269    19.251546    7971.3365    4395.5765    8026.7823    8764.7024   -1154.7492   -1024.0864    -184.4455   -3460.5481 
12970000    265.45601   -4848.8817   -4317.9369   -4848.8817            0    9220.5656    17.812885    22.761632    19.420323    7873.9759    10417.809    9384.6293    7859.2586   -17.682242    547.31214    165.84847   -3259.1037 
12971000    263.99114    -4817.598   -4289.5831    -4817.598            0    9260.8486    18.157831    22.750851    19.125863    7901.0108    8125.1541     9663.438    9993.9537    156.41198   -10.718051    496.79607   -3222.4728 
12972000    257.89439   -4839.8481   -4324.0274   -4839.8481            0    9260.1862     17.80683     22.94059    19.310209    7888.2047    11290.621    7756.4078    8733.5301    -361.6117   -740.76331    994.20438   -3258.7229 
12973000    254.63173    -4817.329   -4308.0341    -4817.329            0    9371.6731    17.875233    22.907857     19.20398    7863.7087    8383.4627     9181.011    10550.545   -265.71176   -150.92994   -898.34078    -3233.252 
12974000    271.38824   -4817.6418   -4274.8318   -4817.6418            0    10598.672    17.599157    23.095059     19.34693    7863.6288    13063.175     9458.913    9273.9286   -333.99813    386.45381    775.76375   -3059.3447 
12975000    260.12077   -4809.7016   -4289.4279   -4809.7016            0    11352.694    17.991611    22.989361    18.946156    7836.4266    7619.8719     12068.05     14370.16    1359.1085    755.24808   -1785.5931   -2991.9712 
12976000    266.90798   -4815.3629    -4281.514   -4815.3629            0    10053.477    17.767194    22.886092     19.42555    7898.8487    10860.396    9542.8717    9757.1628   -893.73795    620.67603   -903.11459   -3123.3876 
12977000    284.33666   -4769.7008   -4200.9923   -4769.7008            0    12970.672    17.887127    22.819373    19.168025    7823.8704     14028.13    12669.762    12214.124   -491.52095    696.87072   -825.82814   -2720.9981 
12978000    268.22506   -4769.8325   -4233.3492   -4769.8325            0    13153.875    17.738721    22.823026    19.306888    7816.4182    15133.522    13732.067    10596.036   -1014.4683    390.28954    33.819846   -2733.8806 
12979000    270.13957   -4807.0783   -4266.7657   -4807.0783            0    9152.6648    18.020329    22.946505    19.209836    7943.3354     6741.556    8274.9257    12441.513   -463.68676   -1414.1325   -1555.0829   -3206.4716 
12980000    279.97044   -4797.4247   -4237.4492   -4797.4247            0    8132.9352    17.729195    23.043179     19.43679    7940.6483     9541.907    8919.6971    5937.2016   -426.39344    -581.3091   -73.041552   -3295.6048 
12981000    272.17586   -4788.5473   -4244.1619   -4788.5473            0    11172.074    18.001856    22.887501    19.053166    7850.2379    11005.633    10815.088      11695.5   -187.47026   -804.57914   -1883.1213   -2965.0973 
12982000    267.88195    -4821.924    -4286.127    -4821.924            0     7527.343    17.816248    23.078429    19.391768    7973.3328    6540.2374    8044.5983    7997.1934    903.60976    232.38253   -1153.9153   -3410.8258 
12983000    260.78952   -4816.8425   -4295.2312   -4816.8425            0    9321.6943    18.043061    22.793018    19.254632    7918.5794     8510.509    10206.199     9248.375   -1222.9624    410.93767   -2086.5445   -3218.7214 
12984000    277.48147   -4804.7282   -4249.7309   -4804.7282            0      10156.8    17.909493    22.902778    19.255012    7897.9659    10455.322    10074.331    9940.7464    926.47208   -575.09542    2061.1496   -3079.8328 
12985000    263.63022   -4825.8736   -4298.5806   -4825.8736            0    10052.369    17.926646      22.6793    19.283415     7839.938    8510.3492    11126.441    10520.316    714.47293    257.88623   -1255.7484   -3149.2183 
12986000    275.85893   -4843.9419     -4292.19   -4843.9419            0    8190.8153    17.999025    22.938914    19.183851    7920.5914    7850.0515    8059.8221    8662.5722   -1177.4355   -468.28939    397.95173   -3346.0386 
12987000    259.30441   -4805.3143   -4286.6734   -4805.3143            0    10152.555    17.737905    22.962604    19.306707    7863.7858    12945.225    9667.6446    7844.7962    1915.2205   -159.05195    1665.1438   -3122.3251 
12988000    272.84982   -4794.0033   -4248.2699   -4794.0033            0    12101.824    17.820788    23.210973     18.96844    7846.0641    12056.228    10896.442    13352.803   -928.09926    1027.2438   -935.39201   -2863.4969 
12989000    275.04534   -4828.5067    -4278.382   -4828.5067            0    8501.4684    17.610047    23.537718     19.12886    7928.9187    8564.6466    7178.3625    9761.3962    220.67334    1065.4664    2002.0088   -3295.3135 
12990000    269.86525   -4803.9278   -4264.1639   -4803.9278            0    9774.5141    17.779253      23.2829     19.05787    7889.0545    9580.3365    9972.9647    9770.2412   -1502.9669    292.70114   -1498.9736   -3139.5692 
12991000    255.90257   -4804.9065   -4293.0697   -4804.9065            0    8989.1149    17.707673    23.280891    19.141806    7891.2173    10373.274    8023.9157    8570.1547    595.77745    261.95455    2064.7071   -3258.5547 
12992000    271.73607   -4828.3845   -4284.8788   -4828.3845            0      10334.2    17.689745    23.340752     18.97631    7835.1656    10994.377    8243.0005    11765.223   -602.18257   -825.92524     1182.781   -3104.0119 
12993000    270.87233   -4775.8046   -4234.0265   -4775.8046            0    11229.412    17.670428     23.26866    19.103648    7854.7934    11106.879    10982.212    11599.146   -1170.4178     254.1041   -713.83179   -2947.6512 
12994000    277.00828   -4806.7763   -4252.7255   -4806.7763            0     11343.14    17.672312    23.174815    19.105164    7824.5688    11737.647    10380.091    11911.683     329.9679     223.0886   -470.61334   -2958.3222 
12995000    273.61052   -4789.0932   -4241.8384   -4789.0932            0    9941.2298    17.835263    23.074268    19.215542    7907.8805    10238.414    10910.164    8675.1116   -1576.3888   -442.71231    364.70375    -3095.333 
12996000    255.93619   -4796.3095   -4284.4055   -4796.3095            0    8707.0572    18.189765    22.750353     19.14098    7920.9885    8291.8953    8634.2379    9195.0384    183.53774   -451.60988    2519.6527   -3278.5707 
12997000    258.95386   -4801.3331   -4283.3934   -4801.3331            0    10527.309    18.010356    22.644185    19.321061    7879.7049    11739.541    10039.799    9802.5855   -548.39602   -975.53478   -837.73022   -3073.6223 
12998000    273.16714   -4790.8268   -4244.4587   -4790.8268            0    9661.9183    18.063126    22.564682    19.397058    7906.0217    7544.2424    11306.402    10135.111   -307.79854    104.69596    319.97594   -3130.4278 
12999000    260.73632    -4795.891   -4274.3862    -4795.891            0    11588.604    17.941984     22.49237    19.426435    7839.6883    11917.157     12126.61    10722.044    313.27357   -24.954038    923.94237   -2949.4169 
13000000    270.29429   -4786.7223   -4246.1003   -4786.7223            0    7705.3906    18.134334    22.671394     19.39152    7972.4479     6842.681    9650.0511    6623.4396    110.99629    370.72021   -763.37505   -3350.1947 
Loop time of 605.997 on 64 procs for 250000 steps with 1008 atoms

Performance: 71.287 ns/day, 0.337 hours/ns, 412.543 timesteps/s
99.3% CPU use with 64 MPI tasks x 1 OpenMP threads

MPI task timing breakdown:
Section |  min time  |  avg time  |  max time  |%varavg| %total
---------------------------------------------------------------
Pair    | 28.489     | 32.201     | 35.855     |  30.7 |  5.31
Bond    | 0.28318    | 0.29164    | 0.3215     |   1.4 |  0.05
Kspace  | 280.54     | 297.24     | 311.39     |  45.3 | 49.05
Neigh   | 4.2728     | 5.484      | 6.5133     |  27.9 |  0.90
Comm    | 118.21     | 132.25     | 148.08     |  73.4 | 21.82
Output  | 1.0968     | 1.0985     | 1.1029     |   0.1 |  0.18
Modify  | 129.09     | 131.29     | 133.62     |  10.1 | 21.67
Other   |            | 6.139      |            |       |  1.01

Nlocal:        15.7500 ave          19 max          12 min
Histogram: 3 5 8 0 11 13 0 14 6 4
Nghost:        2501.58 ave        2524 max        2477 min
Histogram: 3 2 4 11 9 13 5 10 4 3
Neighs:        5247.72 ave        6380 max        3948 min
Histogram: 3 5 6 2 11 12 7 8 6 4

Total # of neighbors = 335854
Ave neighs/atom = 333.18849
Ave special neighs/atom = 2.0000000
Neighbor list builds = 9887
Dangerous builds = 1

unfix		3
unfix		2
unfix		1

write_data	data.final.${pid}
write_data	data.final.0
System init for write_data ...
PPPM initialization ...
  extracting TIP4P info from pair style
  using 12-bit tables for long-range coulomb (../kspace.cpp:340)
  G vector (1/distance) = 0.37913368
  grid = 24 27 36
  stencil order = 5
  estimated absolute RMS force accuracy = 0.0024606668
  estimated relative force accuracy = 7.4102249e-06
  using double precision FFTW3
  3d grid and FFT values/proc = 4050 480
Last active /omp style is kspace_style pppm/tip4p/omp
WARNING: Not all mixed pair coeffs generated from mixing. Use write_data with 'pair ij' option to store all pair coeffs. (../write_data.cpp:312)

write_restart   restart.lmp.${pid}
write_restart   restart.lmp.0
System init for write_restart ...
PPPM initialization ...
  extracting TIP4P info from pair style
  using 12-bit tables for long-range coulomb (../kspace.cpp:340)
  G vector (1/distance) = 0.37913368
  grid = 24 27 36
  stencil order = 5
  estimated absolute RMS force accuracy = 0.0024606668
  estimated relative force accuracy = 7.4102249e-06
  using double precision FFTW3
  3d grid and FFT values/proc = 4050 480
Last active /omp style is kspace_style pppm/tip4p/omp
Total wall time: 0:10:08
