LAMMPS (30 Jul 2021)
  using 1 OpenMP thread(s) per MPI task
package omp 0
using multi-threaded neighbor list subroutines
echo both

include		in.partitions
variable        pid world 0
include		in.temp
variable        temperature equal 270
variable	tempDamp equal 100.0
include		in.pressure
variable        pressure equal 8000
variable        pressureDamp equal 1000.0 # This is 1 ps
include		in.seed
variable        seed world 745823

units		real
atom_style	full
include		in.box
read_data       iceIII.data
Reading data file ...
  orthogonal box = (0.0071020000 0.0044740000 -0.050387000) to (46.652896 19.995527 20.750385)
  8 by 2 by 2 MPI processor grid
  reading atoms ...
  2268 atoms
  scanning bonds ...
  2 = max bonds/atom
  scanning angles ...
  1 = max angles/atom
  reading bonds ...
  1512 bonds
  reading angles ...
  756 angles
Finding 1-2 1-3 1-4 neighbors ...
  special bond factors lj:    0        0        0       
  special bond factors coul:  0        0        0       
     2 = max # of 1-2 neighbors
     1 = max # of 1-3 neighbors
     1 = max # of 1-4 neighbors
     2 = max # of special neighbors
  special bonds CPU = 0.003 seconds
  read_data CPU = 0.038 seconds
include 	in.setup
variable	out_freq equal 500
variable	out_freq2 equal 500

timestep	2.0

neigh_modify    delay 7 every 1

include		in.tip4p
# This is TIP4P/Ice

# create groups ###
group ox type 2
756 atoms in group ox
group hy type 1
1512 atoms in group hy

# set charges - beside manually ###
set group ox charge -1.1794
Setting atom values ...
  756 settings made for charge
set group hy charge 0.5897
Setting atom values ...
  1512 settings made for charge

# ### TIP3P Potential Parameters ###
pair_style lj/cut/tip4p/long 2 1 1 1 0.1577 8.5
pair_coeff 1 1*2 0.000 0.000
pair_coeff 2 2 0.21084 3.1668
bond_style  harmonic
bond_coeff  1 450 0.9572
angle_style harmonic
angle_coeff 1 55 104.52
kspace_style pppm/tip4p 1.0e-5
pair_modify tail yes

thermo          ${out_freq}
thermo          500
thermo_style 	custom step temp pe etotal epair emol press lx ly lz xy xz yz vol pxx pyy pzz pxy pxz pyz cella cellb cellc cellalpha cellbeta cellgamma

restart 	${out_freq} restart.lmp.${pid} restart2.lmp.${pid}
restart 	500 restart.lmp.${pid} restart2.lmp.${pid}
restart 	500 restart.lmp.0 restart2.lmp.${pid}
restart 	500 restart.lmp.0 restart2.lmp.0


include         in.dump
dump            myDump all atom ${out_freq2} dump.water.${pid}
dump            myDump all atom 500 dump.water.${pid}
dump            myDump all atom 500 dump.water.0
dump            myDump2 all dcd ${out_freq2} dump.dcd
dump            myDump2 all dcd 500 dump.dcd
dump_modify     myDump append yes
dump_modify     myDump2 append yes


timer           timeout 04:55:00 every 1000
New timer settings: style=normal  mode=nosync  timeout=04:55:00

fix 		1 all shake 1e-6 200 0 b 1 a 1
       0 = # of size 2 clusters
       0 = # of size 3 clusters
       0 = # of size 4 clusters
     756 = # of frozen angles
  find clusters CPU = 0.002 seconds
fix             2 all nph aniso ${pressure} ${pressure} ${pressureDamp}
fix             2 all nph aniso 8000 ${pressure} ${pressureDamp}
fix             2 all nph aniso 8000 8000 ${pressureDamp}
fix             2 all nph aniso 8000 8000 1000
fix             3 all temp/csvr ${temperature} ${temperature} ${tempDamp} ${seed}
fix             3 all temp/csvr 270 ${temperature} ${tempDamp} ${seed}
fix             3 all temp/csvr 270 270 ${tempDamp} ${seed}
fix             3 all temp/csvr 270 270 100 ${seed}
fix             3 all temp/csvr 270 270 100 745823
velocity 	all create ${temperature} ${seed} dist gaussian
velocity 	all create 270 ${seed} dist gaussian
velocity 	all create 270 745823 dist gaussian

run             500000
PPPM initialization ...
  extracting TIP4P info from pair style
  using 12-bit tables for long-range coulomb (../kspace.cpp:340)
  G vector (1/distance) = 0.3731327
  grid = 48 27 27
  stencil order = 5
  estimated absolute RMS force accuracy = 0.0032773105
  estimated relative force accuracy = 9.8695233e-06
  using double precision FFTW3
  3d grid and FFT values/proc = 6292 1344
Last active /omp style is kspace_style pppm/tip4p/omp
Neighbor list info ...
  update every 1 steps, delay 7 steps, check yes
  max neighbors/atom: 2000, page size: 100000
  master list distance cutoff = 10.8154
  ghost atom cutoff = 10.8154
  binsize = 5.4077, bins = 9 4 4
  1 neighbor lists, perpetual/occasional/extra = 1 0 0
  (1) pair lj/cut/tip4p/long/omp, perpetual
      attributes: half, newton on, omp
      pair build: half/bin/newton/omp
      stencil: half/bin/3d
      bin: standard
Per MPI rank memory allocation (min/avg/max) = 9.589 | 9.604 | 9.621 Mbytes
Step Temp PotEng TotEng E_pair E_mol Press Lx Ly Lz Xy Xz Yz Volume Pxx Pyy Pzz Pxy Pxz Pyz Cella Cellb Cellc CellAlpha CellBeta CellGamma 
       0          270   -11706.567   -10490.486   -11706.567            0    2369.3246    46.645794    19.991053    20.800772            0            0            0     19396.69    5341.8932    3334.4005     -1568.32    1651.3734   -1532.7631   -184.86939    46.645794    19.991053    20.800772           90           90           90 
     500    276.30897   -10916.022   -9671.5249   -10916.022            0    7390.7332    46.670846     19.84894    20.563964            0            0            0    19049.774    7011.4554    8201.7682    6958.9758    39.121364    81.916479    1653.4285    46.670846     19.84894    20.563964           90           90           90 
    1000    265.16821   -10895.333   -9701.0146   -10895.333            0    7013.4401    46.316588    20.004082    20.615991            0            0            0    19101.146     7629.114    7025.6566    6385.5496    92.059946    472.76509    989.03261    46.316588    20.004082    20.615991           90           90           90 
    1500    276.96173   -10875.531   -9628.0941   -10875.531            0    7956.1797    46.246528    20.001806    20.430099            0            0            0    18898.129     7578.253     7588.702    8701.5842   -511.72895    1031.0516    1167.7957    46.246528    20.001806    20.430099           90           90           90 
    2000    274.72506   -10899.629   -9662.2666   -10899.629            0    7686.2207    46.438713    19.832738    20.619345            0            0            0    18990.558    7747.6827    7771.3911    7539.5883    740.69105    738.29946    373.84571    46.438713    19.832738    20.619345           90           90           90 
    2500     281.0198   -10908.634   -9642.9198   -10908.634            0      7099.99    46.503564    19.898065    20.596647            0            0            0    19058.715    6661.7547    7799.2434     6838.972    127.19354    1000.0165    278.18734    46.503564    19.898065    20.596647           90           90           90 
    3000    266.66384   -10870.291   -9669.2363   -10870.291            0    8709.7175    46.124958    19.950748    20.520273            0            0            0    18883.318    8287.0744    8983.8792    8858.1988   -570.76014   -822.45814   -253.02062    46.124958    19.950748    20.520273           90           90           90 
    3500     264.2609   -10922.407   -9732.1746   -10922.407            0     7081.144    46.434471    19.925816    20.570895            0            0            0    19033.113    5329.7064    8127.8533    7785.8722    414.23573   -624.92703     68.77264    46.434471    19.925816    20.570895           90           90           90 
    4000    265.94112   -10932.931    -9735.131   -10932.931            0    6291.6065    46.470972     19.99093    20.574386            0            0            0    19113.562    6411.3483    5874.2214    6589.2498     533.2295   -570.92626    173.32277    46.470972     19.99093    20.574386           90           90           90 
    4500    266.39098   -10879.017   -9679.1915   -10879.017            0    7418.8633    46.084948    19.880853    20.629922            0            0            0    18901.302    7521.8948    7691.9272    7042.7678    480.09723     198.1098    23.855673    46.084948    19.880853    20.629922           90           90           90 
    5000    275.39729   -10888.446   -9648.0558   -10888.446            0    7289.0092    46.559258    19.846204    20.639831            0            0            0     19071.71    6827.7429    7566.0752    7473.2097    147.91145   -625.88552    574.79072    46.559258    19.846204    20.639831           90           90           90 
    5500    267.07023   -10932.705     -9729.82   -10932.705            0     8304.506    46.555944    19.879642    20.456915            0            0            0    18933.192    8427.1246    8155.3611    8331.0322    -117.9065    -178.3727    1038.8478    46.555944    19.879642    20.456915           90           90           90 
    6000    280.56555   -10889.347   -9625.6787   -10889.347            0    7079.8542    46.483763    19.747712    20.675211            0            0            0    18978.768    6771.6914    7750.1228    6717.7484    223.01541    145.33918   -411.36384    46.483763    19.747712    20.675211           90           90           90 
    6500     267.6152   -10892.736   -9687.3963   -10892.736            0    8116.3136    46.392536    19.892132    20.559425            0            0            0    18973.193    9038.4567    7180.3427    8130.1416    200.91078    532.13226    354.43382    46.392536    19.892132    20.559425           90           90           90 
    7000    261.75771   -10851.697   -9672.7393   -10851.697            0    8992.5704    46.550479    19.866273    20.449568            0            0            0    18911.444    8797.6539    8569.7436    9610.3138   -298.59548    519.79807    1133.9521    46.550479    19.866273    20.449568           90           90           90 
    7500    272.90719    -10888.66   -9659.4854    -10888.66            0    8556.5143    45.943347    19.885231    20.686099            0            0            0    18898.697    9053.9641    9058.7491    7556.8296   -109.75772    254.82091    1354.2208    45.943347    19.885231    20.686099           90           90           90 
    8000     264.2865   -10883.544    -9693.197   -10883.544            0    7802.1496    46.461499    19.920674    20.554228            0            0            0    19023.851    6829.1973    7997.3673    8579.8843   -199.45749    445.67442    262.70049    46.461499    19.920674    20.554228           90           90           90 
    8500    260.17443   -10878.287   -9706.4604   -10878.287            0    8651.2256    46.565898    19.882559    20.466521            0            0            0    18948.912    8387.4327    8843.5165    8722.7276    554.16144    304.92538   -629.11607    46.565898    19.882559    20.466521           90           90           90 
    9000    275.73672   -10848.084   -9606.1644   -10848.084            0    7501.6645    46.042523    19.944256    20.591889            0            0            0      18909.2    8124.8659    6641.2669    7738.8606   -70.731374    1342.1904   -103.00272    46.042523    19.944256    20.591889           90           90           90 
    9500    275.09715   -10889.231   -9650.1924   -10889.231            0    8590.5448    46.629892    19.887401     20.38355            0            0            0    18902.631    7993.3392    8923.8381     8854.457   -159.70035    635.63782    -761.6055    46.629892    19.887401     20.38355           90           90           90 
   10000    270.96339   -10850.703   -9630.2828   -10850.703            0    8013.7861    46.092963    19.825445    20.673145            0            0            0    18891.399    8634.2036    7736.6793    7670.4753   -1.4212082    564.81842    458.63082    46.092963    19.825445    20.673145           90           90           90 
   10500    279.81124   -10883.362   -9623.0911   -10883.362            0    8218.1522    46.598191     19.81934    20.547261            0            0            0    18976.327    6901.1749    9026.4204    8726.8615    -123.9474   -73.794574    292.37765    46.598191     19.81934    20.547261           90           90           90 
   11000    270.64721   -10902.636   -9683.6401   -10902.636            0    8071.4367    46.574417    19.849215    20.596166            0            0            0    19040.447     7629.349    8187.5543    8397.4069    122.17475   -492.37343    344.47572    46.574417    19.849215    20.596166           90           90           90 
   11500    267.21663     -10861.9    -9658.355     -10861.9            0    9801.3794    46.499134    19.786867    20.467759            0            0            0    18831.815    9702.9508    10021.376    9679.8116   -656.68121    833.35115    -449.9829    46.499134    19.786867    20.467759           90           90           90 
   12000    267.76893   -10842.485   -9636.4532   -10842.485            0    7835.2024    46.016295    20.051823    20.623276            0            0            0    19029.315    8407.6241    6841.9276    8256.0554   -171.39808    22.060416   -433.95775    46.016295    20.051823    20.623276           90           90           90 
   12500    272.72545   -10882.032   -9653.6753   -10882.032            0    8130.1947    46.532043    19.861677    20.587193            0            0            0    19026.775    7562.7203    8099.0802    8728.7836    -196.5882   -721.45411   -837.97686    46.532043    19.861677    20.587193           90           90           90 
   13000    275.84516   -10880.933   -9638.5258   -10880.933            0    8209.6067    46.547715    19.892303    20.464979            0            0            0    18949.368    7762.7892    8940.4712    7925.5598    48.223007    226.31841    144.58622    46.547715    19.892303    20.464979           90           90           90 
   13500    262.36001   -10903.273   -9721.6028   -10903.273            0    9483.1887    46.411861    19.718777    20.643095            0            0            0    18892.254    7794.8884    10402.727    10251.951   -77.875245    320.06689    922.96351    46.411861    19.718777    20.643095           90           90           90 
   14000    259.40893   -10899.475    -9731.096   -10899.475            0    7593.0381     46.48187     19.92452    20.431104            0            0            0    18921.837    8319.2073    5680.1981     8779.709    101.54572    397.75211   -311.95743     46.48187     19.92452    20.431104           90           90           90 
   14500    267.25348   -10931.931   -9728.2202   -10931.931            0    7774.4039    46.164916    19.947853    20.621414            0            0            0    18990.074    9147.4598    7364.6566    6811.0952   -793.60569    641.29477   -1692.7475    46.164916    19.947853    20.621414           90           90           90 
   15000    271.23826   -10882.401   -9660.7429   -10882.401            0    8099.3711    46.008183    19.856974    20.719048            0            0            0    18928.576    8501.3116    8430.5683    7366.2333   -94.550766    237.49446    95.912945    46.008183    19.856974    20.719048           90           90           90 
   15500    272.53112   -10891.837   -9664.3553   -10891.837            0    8540.6509    46.547442    19.866747     20.42169            0            0            0    18884.881    8934.9387    7830.2929    8856.7212    571.95798   -227.62952   -424.59513    46.547442    19.866747     20.42169           90           90           90 
   16000    273.16266   -10864.971   -9634.6451   -10864.971            0    9048.3115    46.288942    19.843283    20.608397            0            0            0    18929.319    8800.7879    9733.8511    8610.2956   -80.431169   -784.83791   -141.39674    46.288942    19.843283    20.608397           90           90           90 
   16500    275.85473   -10890.293   -9647.8422   -10890.293            0    7370.2626    46.528548    19.973427    20.570738            0            0            0    19117.098    6765.3498    7939.0429     7406.395    577.46738   -271.03245    545.97726    46.528548    19.973427    20.570738           90           90           90 
   17000    271.47034   -10883.938   -9661.2347   -10883.938            0    8307.3348     46.25602    20.048582    20.481855            0            0            0     18994.21    8957.7658    7327.6917     8636.547   -482.00361    -358.0912   -306.10239     46.25602    20.048582    20.481855           90           90           90 
   17500    277.10831   -10935.639   -9687.5426   -10935.639            0    8186.2558     46.55671    19.716016    20.623666            0            0            0    18930.727    9439.3123    6909.0943     8210.361   -85.595747    71.508665    308.02108     46.55671    19.716016    20.623666           90           90           90 
   18000    266.28248   -10918.685   -9719.3479   -10918.685            0    7919.5518    46.497885    19.882756    20.487579            0            0            0    18940.892    7912.7323    7435.2466    8410.6765   -136.75918   -231.13295    100.41918    46.497885    19.882756    20.487579           90           90           90 
   18500    272.40248   -10934.726   -9707.8242   -10934.726            0    7288.3056    46.426939    19.956499    20.557592            0            0            0    19047.003    8244.9615    5974.7207    7645.2346   -41.082927   -7.0685954   -214.48763    46.426939    19.956499    20.557592           90           90           90 
   19000    266.63808   -10890.538   -9689.5988   -10890.538            0    7223.6152    46.426398    19.857951    20.555014            0            0            0    18950.349    7141.8051    7368.4482    7160.5923    97.116166   -206.89758    693.19789    46.426398    19.857951    20.555014           90           90           90 
   19500    272.56958   -10900.746   -9673.0917   -10900.746            0    8473.1109    46.424649    19.921457    20.490719            0            0            0    18950.772    6742.7579    9961.1501    8715.4245    484.45778    487.75303    447.54425    46.424649    19.921457    20.490719           90           90           90 
   20000    264.76278   -10895.411   -9702.9187   -10895.411            0     7471.354    46.293825    19.963703    20.686299            0            0            0    19118.198    7474.7303    8247.8962    6691.4355   -339.50861    637.22557   -89.307525    46.293825    19.963703    20.686299           90           90           90 
   20500    265.88175   -10857.052   -9659.5197   -10857.052            0    7903.6856     46.42399    19.854196    20.542455            0            0            0    18934.207    8470.2117    6726.4103    8514.4348   -524.63326    992.05001   -59.448727     46.42399    19.854196    20.542455           90           90           90 
   21000    268.68933   -10908.275   -9698.0969   -10908.275            0    7445.4602    46.618137    19.807699    20.549561            0            0            0    18975.424    7044.7957    8058.7822    7232.8027    222.53364   -419.72493   -516.57185    46.618137    19.807699    20.549561           90           90           90 
   21500    263.61908   -10915.861     -9728.52   -10915.861            0    7441.3555    46.161708    19.889944    20.665343            0            0            0    18973.963    7123.0672     8407.268    6793.7313   -88.855462   -549.99679   -304.40013    46.161708    19.889944    20.665343           90           90           90 
   22000    273.89373   -10866.308   -9632.6898   -10866.308            0    7886.9615    46.296617    19.975926    20.485428            0            0            0    18945.289    7498.7004    7561.7071    8600.4768    121.41705   -1106.4384    122.37696    46.296617    19.975926    20.485428           90           90           90 
   22500    268.85131   -10878.903   -9667.9958   -10878.903            0    8084.6351    45.988671    20.073324    20.575164            0            0            0     18993.87      8623.81    7970.5084    7659.5868   -182.28442   -378.37093    796.38958    45.988671    20.073324    20.575164           90           90           90 
   23000    265.58647   -10923.827   -9727.6248   -10923.827            0    7896.1096    46.274556    19.858651    20.617102            0            0            0    18946.091     8471.461    7049.0864    8167.7814    283.73443    778.93727   -206.31321    46.274556    19.858651    20.617102           90           90           90 
   23500    267.59023   -10874.225   -9668.9973   -10874.225            0    8004.3479    46.843827    19.706545    20.497889            0            0            0    18922.216     7416.918    8622.2791    7973.8465    226.07673   -601.86868   -692.21168    46.843827    19.706545    20.497889           90           90           90 
   24000    277.19579   -10854.221   -9605.7296   -10854.221            0    6806.0906    46.325831    19.967768    20.611041            0            0            0    19065.696    6467.6719    6940.4278    7010.1721    462.75093    86.151648    30.012698    46.325831    19.967768    20.611041           90           90           90 
   24500    267.91134   -10902.711   -9696.0368   -10902.711            0    7660.7365     46.38135    19.976217    20.531579            0            0            0    19022.999    7409.5779    7972.4543    7600.1773    -161.3328    21.781078   -422.16972     46.38135    19.976217    20.531579           90           90           90 
   25000    278.29335   -10909.554   -9656.1198   -10909.554            0    7535.1856    46.375685    19.758612    20.632131            0            0            0    18905.617    8230.6746    7695.9383    6678.9438    23.372149   -19.589822   -38.247373    46.375685    19.758612    20.632131           90           90           90 
   25500    259.54183   -10860.985   -9692.0078   -10860.985            0    8256.4463    46.642504    19.849767     20.36158            0            0            0    18851.623    7766.0031    8817.5498    8185.7861   -259.84554    826.37401    78.832167    46.642504    19.849767     20.36158           90           90           90 
   26000    271.66876   -10849.257   -9625.6595   -10849.257            0     7226.729    46.209182    19.902654    20.699906            0            0            0    19037.401    6734.2907    7946.3708    6999.5255   -38.806855    350.36737    321.54569    46.209182    19.902654    20.699906           90           90           90 
   26500    264.52946   -10939.266   -9747.8245   -10939.266            0    8301.6458    46.664095    19.918009    20.429296            0            0            0    18988.129    7743.8862    8554.4042    8606.6469   -507.76499    37.711741    525.42597    46.664095    19.918009    20.429296           90           90           90 
   27000    262.64487   -10869.424   -9686.4709   -10869.424            0    7505.2064    46.491835    19.780051    20.654657            0            0            0    18994.246    8058.9129    7301.9957    7154.7107    21.978025    228.61366    88.174147    46.491835    19.780051    20.654657           90           90           90 
   27500    261.76088   -10839.406   -9660.4338   -10839.406            0    7436.7543    46.407321    19.870162    20.618505            0            0            0    19012.757     7224.412    7203.6089    7882.2421   -504.24826    229.22627   -404.63396    46.407321    19.870162    20.618505           90           90           90 
   28000    271.39387   -10929.793   -9707.4344   -10929.793            0    8088.4959    46.789349    19.946521    20.501469            0            0            0    19133.708    7676.7305    7687.7159    8901.0413   -302.38722    514.89618    1067.2688    46.789349    19.946521    20.501469           90           90           90 
   28500    263.31555   -10867.593   -9681.6191   -10867.593            0    8228.5984     46.64049    19.777923    20.577377            0            0            0    18981.643    7184.8606    8056.8907    9444.0438   -207.06511    97.864906   -1399.8668     46.64049    19.777923    20.577377           90           90           90 
   29000    260.03882   -10871.901   -9700.6853   -10871.901            0     9387.446    46.273386    19.953618    20.433827            0            0            0    18866.992    9653.2331    9564.6278     8944.477   -422.35997   -600.21895    541.47337    46.273386    19.953618    20.433827           90           90           90 
   29500    265.38122   -10857.711   -9662.4327   -10857.711            0    8185.8331    46.198788    19.993728     20.59376            0            0            0    19022.168    7912.2726    7964.3159    8680.9108    -777.5258    -1272.417    241.10601    46.198788    19.993728     20.59376           90           90           90 
   30000    267.65615   -10847.444   -9641.9195   -10847.444            0    7699.6255    46.695732    19.753545     20.61514            0            0            0    19015.534    8733.3082    7756.9557    6608.6124   -595.81867    602.29593    1296.7164    46.695732    19.753545     20.61514           90           90           90 
   30500    265.54524   -10920.119   -9724.1025   -10920.119            0    9305.1645    46.147591    19.815948    20.674354            0            0            0    18905.834     9166.323    9687.2048    9061.9657   -564.63868   -1292.5582    293.57646    46.147591    19.815948    20.674354           90           90           90 
   31000     267.2229   -10828.329   -9624.7557   -10828.329            0    8597.8322    46.540554     20.02357    20.410482            0            0            0    19020.692    8008.6075    8529.4293    9255.4598    193.04463    201.53258    1687.3372    46.540554     20.02357    20.410482           90           90           90 
   31500    268.95754   -10877.515   -9666.1296   -10877.515            0    9788.8684    46.298439    19.764796    20.591937            0            0            0    18843.253    9164.6213    10491.185    9710.7993   -97.055185    393.86188    25.170194    46.298439    19.764796    20.591937           90           90           90 
   32000    275.72904   -10888.622    -9646.737   -10888.622            0    7487.9982    46.361008    19.975122    20.608006            0            0            0     19084.39    7233.9382    8140.6267    7089.4298      131.666   -79.434076    716.78593    46.361008    19.975122    20.608006           90           90           90 
   32500    273.76592   -10874.263   -9641.2198   -10874.263            0    8500.9796    46.601545    19.810668    20.537735            0            0            0    18960.596     8880.899    7050.3797    9571.6601    670.38938   -324.77257   -544.62407    46.601545    19.810668    20.537735           90           90           90 
   33000    273.57089   -10884.258   -9652.0935   -10884.258            0    7899.4643    46.261081    20.070874      20.4958            0            0            0    19030.357    8143.6509    7608.4777    7946.2644   -392.53227   -873.94474   -472.63232    46.261081    20.070874      20.4958           90           90           90 
   33500    269.30494   -10926.542   -9713.5919   -10926.542            0    8697.3737    46.383151    19.757691    20.659683            0            0            0    18933.029    8172.9844     10163.76    7755.3771   -285.02213    716.21181    -367.3075    46.383151    19.757691    20.659683           90           90           90 
   34000    271.48659   -10924.138   -9701.3618   -10924.138            0    8280.5753    46.772136    19.711972    20.521527            0            0            0    18920.253    8030.0561    8302.8669     8508.803    -660.3596   -850.63679     1657.437    46.772136    19.711972    20.521527           90           90           90 
   34500    262.08318   -10907.139   -9726.7149   -10907.139            0    7971.3754    46.290669    19.971552    20.520209            0            0            0    18970.861    8665.7117    7117.0828    8131.3318    84.400968    472.25079   -589.59022    46.290669    19.971552    20.520209           90           90           90 
   35000    265.21343   -10934.183   -9739.6604   -10934.183            0    8125.7388    46.187148    19.915406    20.584842            0            0            0    18934.674    9088.4716    7519.5225    7769.2223   -443.24366   -320.95228    1139.7008    46.187148    19.915406    20.584842           90           90           90 
   35500    274.42198   -10880.354   -9644.3563   -10880.354            0    8504.8892    46.394285    19.901782    20.534225            0            0            0    18959.845    8212.8666    8984.6023    8317.1985   -680.92491    1000.2336    820.62596    46.394285    19.901782    20.534225           90           90           90 
   36000    259.90589   -10872.706    -9702.089   -10872.706            0    8552.6685    46.615131    19.833494    20.586755            0            0            0    19033.298    8699.6728    8525.9597     8432.373   -755.44484     841.5528    282.47523    46.615131    19.833494    20.586755           90           90           90 
   36500    277.78223   -10893.192     -9642.06   -10893.192            0    7856.9503    46.259598    19.949825    20.503286            0            0            0    18921.886    7181.6211    8194.7418     8194.488   -36.217905    132.83111    460.11832    46.259598    19.949825    20.503286           90           90           90 
   37000    269.51774   -10905.369   -9691.4603   -10905.369            0    8394.8246     46.55635    19.829006    20.619311            0            0            0     19035.05    8484.5433    8696.9914     8002.939   -83.522911    588.61021   -803.39078     46.55635    19.829006    20.619311           90           90           90 
   37500    272.61619    -10914.79    -9686.926    -10914.79            0    8421.4384    46.725011    19.748175     20.49232            0            0            0    18908.955    7031.9367    9449.2946    8783.0839    84.442345   -1210.6699   -316.60696    46.725011    19.748175     20.49232           90           90           90 
   38000    273.25459   -10861.756   -9631.0162   -10861.756            0    7237.5309    46.429018    19.862284    20.589956            0            0            0    18987.776    8159.6721    6971.4228    6581.4977    216.77978    77.968822    497.19548    46.429018    19.862284    20.589956           90           90           90 
   38500    274.14369   -10923.963   -9689.2187   -10923.963            0    5992.9562    46.209689      20.0171    20.657715            0            0            0    19108.056    6636.4835     5718.985    5623.4001   -744.60268   -761.92629    385.39166    46.209689      20.0171    20.657715           90           90           90 
   39000    269.88594   -10930.817   -9715.2495   -10930.817            0    8550.6991    46.493028    19.878065     20.57883            0            0            0    19018.779    8135.5308     9455.785    8060.7815   -124.74971    -378.7431    534.46829    46.493028    19.878065     20.57883           90           90           90 
   39500    277.26771   -10879.851    -9631.036   -10879.851            0     8290.903    46.386095    19.882488    20.563968            0            0            0     18965.55    9024.4058    8703.7598    7144.5435   -221.73754   -199.72105    719.30832    46.386095    19.882488    20.563968           90           90           90 
   40000    275.80184   -10930.131   -9687.9189   -10930.131            0    7702.2723     46.57781    19.916811     20.47771            0            0            0    18996.792     7595.565     7599.186    7912.0658    129.77154    119.19678    231.74692     46.57781    19.916811     20.47771           90           90           90 
   40500    266.93982   -10921.678   -9719.3801   -10921.678            0    6740.7886    46.661917    19.773542    20.642277            0            0            0    19046.038    6301.1663    6962.5535    6958.6459   -86.413251   -112.46458   -856.10528    46.661917    19.773542    20.642277           90           90           90 
   41000    261.84583   -10920.222   -9740.8673   -10920.222            0    7807.5317    46.511565    19.875819     20.58227            0            0            0    19027.392    7534.5763    8374.2623    7513.7565    -447.1964    462.36044  -0.55613894    46.511565    19.875819     20.58227           90           90           90 
   41500      278.576   -10882.276   -9627.5689   -10882.276            0      7925.58    46.244014    19.902829    20.594628            0            0            0    18955.022    8495.1934    7297.8634    7983.6834    452.89282    707.62455    369.99218    46.244014    19.902829    20.594628           90           90           90 
   42000    260.18406   -10861.139   -9689.2693   -10861.139            0    8824.1792    46.262149    19.874889    20.542038            0            0            0    18887.481    9956.1449    7760.5955    8755.7972    217.68282    250.12561    232.30802    46.262149    19.874889    20.542038           90           90           90 
   42500    274.12054   -10908.092   -9673.4519   -10908.092            0    8283.0471    46.577043    19.830954    20.443273            0            0            0    18882.781    8827.6867    7428.6701    8592.7847    122.69354   -941.22419   -121.09688    46.577043    19.830954    20.443273           90           90           90 
   43000    267.11213     -10861.7   -9658.6255     -10861.7            0    7721.5016    46.615739    19.831561    20.558005            0            0            0    19005.112    6764.5065    7746.5041    8653.4942   -167.79629    144.35065    1090.3013    46.615739    19.831561    20.558005           90           90           90 
   43500     278.5862   -10888.656   -9633.9029   -10888.656            0    8117.2465    46.289442    19.811076    20.645666            0            0            0    18932.977    8416.8937    8416.0782    7518.7675    147.32682   -441.71282   -722.38772    46.289442    19.811076    20.645666           90           90           90 
   44000    268.55937   -10917.637   -9708.0447   -10917.637            0    5906.7409    46.588228     19.87844    20.559028            0            0            0    19039.743    6434.2291    5501.3392    5784.6544   -176.46731    607.34431   -590.44064    46.588228     19.87844    20.559028           90           90           90 
   44500    266.59088   -10886.202   -9685.4758   -10886.202            0    8104.1547    46.590754    19.860788    20.514243            0            0            0    18982.426    7782.3647    7605.3137    8924.7857   -146.50909    98.666167    238.10053    46.590754    19.860788    20.514243           90           90           90 
   45000    275.83451   -10965.363   -9723.0035   -10965.363            0    9167.2809    46.455142    19.807222    20.582247            0            0            0    18938.699    8764.3733    9855.1241    8882.3453   -171.94844   -424.71639   -309.71909    46.455142    19.807222    20.582247           90           90           90 
   45500    269.17782   -10906.246   -9693.8683   -10906.246            0    8190.0915    46.627301    19.749834    20.595028            0            0            0    18965.579    7792.6349    9305.8336    7471.8058   -402.21634   -665.36831    555.95772    46.627301    19.749834    20.595028           90           90           90 
   46000    274.45411    -10884.15   -9648.0079    -10884.15            0     8844.141    46.157162    20.038486    20.448053            0            0            0    18912.806    8991.4449     8174.342    9366.6361    -598.8655    -78.06703    416.78543    46.157162    20.038486    20.448053           90           90           90 
   46500    274.11214   -10915.912   -9681.3094   -10915.912            0    7724.5684    46.135878    19.959436    20.610123            0            0            0    18978.752    9167.6152    6746.5775    7259.5123    106.58646    140.50916    405.51565    46.135878    19.959436    20.610123           90           90           90 
   47000    264.85683   -10920.091   -9727.1745   -10920.091            0    8062.6428    46.593239    19.853477    20.583926            0            0            0     19040.91    7120.7092    8475.8086    8591.4106   -639.28088    52.002063    582.89025    46.593239    19.853477    20.583926           90           90           90 
   47500    277.09911   -10892.119   -9644.0631   -10892.119            0    8777.4918    46.509833    19.831488    20.535693            0            0            0    18941.286    7732.4863    10023.848     8576.141    -163.0816    132.13708    -590.1254    46.509833    19.831488    20.535693           90           90           90 
   48000    269.84343   -10928.018   -9712.6422   -10928.018            0    7174.7559    46.324716     19.94162    20.612443            0            0            0    19041.566    7290.4356    7641.5843    6592.2477   -332.10993    133.21191   -972.06624    46.324716     19.94162    20.612443           90           90           90 
   48500    273.28915    -10882.52   -9651.6242    -10882.52            0    8341.5258    46.308278    19.797062     20.60736            0            0            0    18892.165    9311.6948    7944.7166    7768.1662    3.8148483   -521.04825   -818.26921    46.308278    19.797062     20.60736           90           90           90 
   49000    269.54345   -10865.418   -9651.3935   -10865.418            0    7888.8312    46.524919    20.001003    20.445914            0            0            0    19025.843    7472.2495    8042.4869    8151.7573   -256.67974     252.9358    203.33959    46.524919    20.001003    20.445914           90           90           90 
   49500    272.11953   -10867.037   -9641.4099   -10867.037            0      8024.13    46.428464    19.845729     20.68573            0            0            0    19059.971    8626.1282    7752.0718    7694.1901    19.380244    993.96692    583.83579    46.428464    19.845729     20.68573           90           90           90 
   50000    274.21486   -10859.874   -9624.8095   -10859.874            0    8561.6889    46.146824    19.967714    20.444075            0            0            0    18838.123    7958.9732    8794.6278    8931.4657    83.178293    1198.1868    519.89185    46.146824    19.967714    20.444075           90           90           90 
   50500     270.2284   -10914.316   -9697.2066   -10914.316            0    8403.4072    46.073602    19.885345    20.721207            0            0            0    18984.552    8272.5142    9363.4337    7574.2737    327.84106   -999.79416   -442.32271    46.073602    19.885345    20.721207           90           90           90 
   51000    269.13104    -10875.86   -9663.6928    -10875.86            0    8366.3176    46.497303    19.831594    20.574296            0            0            0     18971.88    8014.8438    9464.8315    7619.2775    107.93633    1186.8981    712.86863    46.497303    19.831594    20.574296           90           90           90 
   51500    268.00477   -10890.995   -9683.9002   -10890.995            0    8488.2332    46.536637    19.949072    20.453554            0            0            0    18988.318     8758.968    7609.5815    9096.1502    133.91634   -814.53298    550.80863    46.536637    19.949072    20.453554           90           90           90 
   52000    271.66484   -10946.934   -9723.3543   -10946.934            0    6977.4567    46.538627    19.916469    20.613479            0            0            0    19106.328    5392.6619    8031.5492     7508.159    209.18092    -187.6327   -416.55872    46.538627    19.916469    20.613479           90           90           90 
   52500     280.4155   -10864.968   -9601.9751   -10864.968            0    10042.987    46.208581    19.755358    20.609384            0            0            0    18813.628    10045.236    10561.541    9522.1856    482.30071    277.15262    166.22058    46.208581    19.755358    20.609384           90           90           90 
   53000    272.39897   -10910.482   -9683.5963   -10910.482            0    8131.9936    46.675412    19.939047    20.414431            0            0            0     18998.96    6121.5714    9279.5662    8994.8431   -181.78492    192.15421    1680.3884    46.675412    19.939047    20.414431           90           90           90 
   53500    275.63152   -10890.531   -9649.0857   -10890.531            0    8882.8516    46.601905    19.738515    20.574492            0            0            0    18925.497    8163.5111    9546.8259    8938.2177   -210.92271    959.92001    -510.6082    46.601905    19.738515    20.574492           90           90           90 
   54000    278.31098   -10871.169    -9617.655   -10871.169            0    7977.8744    46.492841    19.830597    20.570536            0            0            0    18965.638    6784.7708    8442.6453     8706.207   -360.41482   -32.108993     399.4372    46.492841    19.830597    20.570536           90           90           90 
   54500    266.84476   -10914.605   -9712.7356   -10914.605            0    7348.4857    46.393304    19.900022    20.576637            0            0            0    18996.922    7792.5302    6683.8414    7569.0854   -21.761884   -205.57462    839.39777    46.393304    19.900022    20.576637           90           90           90 
   55000    273.54428   -10884.676   -9652.6314   -10884.676            0    8538.3166    46.653454    19.761997    20.573645            0            0            0    18968.189      8845.55    8260.0446    8509.3551   -159.78841   -665.67571    90.368356    46.653454    19.761997    20.573645           90           90           90 
   55500    261.19579   -10885.211   -9708.7846   -10885.211            0    8623.0354    46.729872    19.848516     20.50537            0            0            0    19019.113    8585.1156    8983.8787    8300.1118    182.62648   -717.63963     447.6833    46.729872    19.848516     20.50537           90           90           90 
   56000     279.9973   -10867.432   -9606.3225   -10867.432            0    8090.6538     46.29756    19.828701    20.614329            0            0            0    18924.376    9070.5362    7651.8993    7549.5258    169.83188    103.81596   -236.23248     46.29756    19.828701    20.614329           90           90           90 
   56500      273.931   -10942.331   -9708.5447   -10942.331            0    8236.6056    46.144925    19.911184    20.611664            0            0            0    18937.999    8379.9164    7860.9656    8468.9347   -87.091028   -153.64902    363.92448    46.144925    19.911184    20.611664           90           90           90 
   57000    265.26165   -10903.244   -9708.5047   -10903.244            0    8522.7736     46.78209    19.914824    20.399379            0            0            0    19005.226    7304.1772    8563.3356     9700.808    685.04538    1092.2007    578.45578     46.78209    19.914824    20.399379           90           90           90 
   57500    282.08934    -10944.19    -9673.659    -10944.19            0    7333.4183    46.280391    19.755537    20.695118            0            0            0    18921.422    7955.8651    6937.4312    7106.9587    142.37988   -813.34664   -56.614659    46.280391    19.755537    20.695118           90           90           90 
   58000    268.51998    -10896.91   -9687.4947    -10896.91            0    8365.0786    46.115765    19.946364    20.569936            0            0            0    18921.088    8406.3734     7650.599    9038.2635    102.43022     3.915452    351.11775    46.115765    19.946364    20.569936           90           90           90 
   58500    275.75471   -10881.926   -9639.9259   -10881.926            0    7498.7233    46.568336    19.968634    20.479897            0            0            0     19044.38    6627.0994    7786.2533    8082.8171   -194.59469   -1166.4419    873.38857    46.568336    19.968634    20.479897           90           90           90 
   59000    268.70554   -10888.251        -9678   -10888.251            0    8056.5236    46.503783     19.69538    20.645484            0            0            0    18909.399    7340.8074    9027.0526    7801.7108    414.08998    1184.2191    159.86897    46.503783     19.69538    20.645484           90           90           90 
   59500    271.18637   -10880.856   -9659.4317   -10880.856            0    7281.0536    46.473274    19.946433    20.585744            0            0            0    19082.491    6555.7447    7836.1386    7451.2773   -442.76944   -525.24554    372.54409    46.473274    19.946433    20.585744           90           90           90 
   60000    264.96864   -10914.368   -9720.9481   -10914.368            0    8683.0076    46.425063     19.89887    20.455378            0            0            0    18896.808     8611.366    8472.0842    8965.5727    283.07545    940.02772    636.70014    46.425063     19.89887    20.455378           90           90           90 
   60500    261.18945   -10896.693   -9720.2943   -10896.693            0    9474.6764    46.225656    19.775135    20.611397            0            0            0    18841.261    10371.258    8842.1358    9210.6353   -722.15626   -237.05541    628.19175    46.225656    19.775135    20.611397           90           90           90 
   61000    271.14385   -10934.563     -9713.33   -10934.563            0    8699.1597    46.616932    19.887824    20.477472            0            0            0    18984.855    7082.8024    9800.3611    9214.3157   -78.085872   -483.93638     876.9569    46.616932    19.887824    20.477472           90           90           90 
   61500    276.51325   -10881.603   -9636.1861   -10881.603            0    7951.3224    46.401895    19.875249    20.570167            0            0            0    18970.821    8410.9975    8101.1522    7341.8176   -249.39363   -27.985869    319.34973    46.401895    19.875249    20.570167           90           90           90 
   62000    267.44209   -10859.994   -9655.4338   -10859.994            0    7555.4791     46.24559    19.942473    20.622457            0            0            0    19019.091    7499.5348    6877.3791    8289.5234   -443.34117    83.999592    511.98385     46.24559    19.942473    20.622457           90           90           90 
   62500    267.08066   -10939.958   -9737.0258   -10939.958            0    8629.4118    46.816264    19.893466    20.333102            0            0            0    18936.985    8066.5753    9264.2357    8557.4245   -169.42358      822.848   -336.55677    46.816264    19.893466    20.333102           90           90           90 
   63000    278.46847   -10855.943   -9601.7201   -10855.943            0    8573.6869     46.38056    19.815994    20.687396            0            0            0    19013.308    8231.5849    9156.9637    8332.5122   -362.15362    85.683228    19.426468     46.38056    19.815994    20.687396           90           90           90 
   63500    266.51935    -10911.05   -9710.6462    -10911.05            0     8909.869    46.286649    19.913065    20.509907            0            0            0    18904.167    9435.0804    8238.1527     9056.374   -337.43509   -116.21756   -319.96224    46.286649    19.913065    20.509907           90           90           90 
   64000    275.91274   -10877.225   -9634.5133   -10877.225            0    7410.6411    46.265009     20.02334    20.584119            0            0            0    19068.716    7548.9236    7262.4423    7420.5575   -98.181346   -480.50603    429.07798    46.265009     20.02334    20.584119           90           90           90 
   64500    266.21345   -10937.559   -9738.5323   -10937.559            0    7129.7507    46.596799    19.843988    20.632105            0            0            0    19077.812    7341.2194    6876.9937    7171.0389    252.65391   -109.51597    577.91201    46.596799    19.843988    20.632105           90           90           90 
   65000    266.43156   -10940.618    -9740.609   -10940.618            0    8028.3553    46.581789    19.860569    20.493958            0            0            0    18959.798    7584.4618    8124.6787    8375.9254   -64.336001     55.35807    1359.3971    46.581789    19.860569    20.493958           90           90           90 
   65500    264.60706   -10874.551   -9682.7597   -10874.551            0    7907.9825    46.374163     19.82977    20.611583            0            0            0    18954.185    9343.9569    6675.0226    7704.9679    200.69097    66.687569   -62.035306    46.374163     19.82977    20.611583           90           90           90 
   66000    273.96479   -10856.993   -9623.0547   -10856.993            0    7586.9259    46.571343    19.947736    20.443163            0            0            0    18991.552    7222.4549    7175.3515    8362.9712    22.677561    690.32306    398.06924    46.571343    19.947736    20.443163           90           90           90 
   66500     282.0722   -10894.862   -9624.4072   -10894.862            0    7320.5994    46.188447    20.089377    20.572437            0            0            0    19089.105    7765.7151    6230.9919    7965.0912   -273.29975    1440.2954     730.3417    46.188447    20.089377    20.572437           90           90           90 
   67000    263.52247   -10893.719   -9706.8123   -10893.719            0    9114.7812    46.128827    19.816024    20.660404            0            0            0    18885.467    8757.7614    9391.4597    9195.1225   -166.35629    551.17061   -960.15651    46.128827    19.816024    20.660404           90           90           90 
   67500    271.90034   -10896.958   -9672.3176   -10896.958            0    8509.6194     46.37453     19.92976    20.482096            0            0            0    18930.235    8375.3522    9017.6576    8135.8485    179.19104     -87.4828   -584.49729     46.37453     19.92976    20.482096           90           90           90 
   68000    262.12836   -10896.739   -9716.1119   -10896.739            0    7562.1039    46.647085    19.703327    20.692633            0            0            0    19018.656    6594.0301    7990.2332    8102.0484   -325.60518    447.07986   -635.27112    46.647085    19.703327    20.692633           90           90           90 
   68500    268.00826   -10865.809   -9658.6985   -10865.809            0     7733.179    46.253799    19.867321    20.626495            0            0            0    18954.492    8547.6808    6962.3978    7689.4582   -226.31014    1024.8222    811.25059    46.253799    19.867321    20.626495           90           90           90 
   69000    266.38931   -10889.395   -9689.5765   -10889.395            0     10130.81    46.238375    19.961478    20.346695            0            0            0    18779.721    10966.219    9892.7305    9533.4803   -9.9139439    117.72074   -178.61338    46.238375    19.961478    20.346695           90           90           90 
   69500    267.79503   -10901.851   -9695.7011   -10901.851            0    8188.7283    46.165423    19.947024    20.630223            0            0            0    18997.605    8331.8383    7380.5569    8853.7897   0.67334093    505.77961   -944.83865    46.165423    19.947024    20.630223           90           90           90 
   70000    272.56786   -10935.044   -9707.3973   -10935.044            0     7547.803    46.535323    19.834807    20.557568            0            0            0    18975.029    6452.9567    8188.6458    8001.8063    30.583778   -6.7512493   -52.777858    46.535323    19.834807    20.557568           90           90           90 
   70500    261.31228    -10871.69   -9694.7389    -10871.69            0    9116.5567    46.327291    19.784039    20.602407            0            0            0    18882.949    9291.2801      9617.49    8440.9001    -334.8654   -70.553213   -216.08108    46.327291    19.784039    20.602407           90           90           90 
   71000    265.23255    -10897.76   -9703.1512    -10897.76            0    7255.7814    46.989872    19.862747    20.446161            0            0            0    19083.382    6817.8504    6821.6291    8127.8647    10.047848    490.17754    691.66572    46.989872    19.862747    20.446161           90           90           90 
   71500    270.11843   -10894.977   -9678.3624   -10894.977            0    8418.8584    46.516683    19.788931    20.605569            0            0            0    18967.743      8135.82    8424.9181    8695.8371   -658.09629    185.03618   -592.83663    46.516683    19.788931    20.605569           90           90           90 
   72000    283.72395   -10887.887    -9609.993   -10887.887            0    7963.2416    46.084708    20.025758    20.584647            0            0            0    18997.184    7470.8408    8217.3201    8201.5638    98.530229    603.59561    75.340224    46.084708    20.025758    20.584647           90           90           90 
   72500     262.7766   -10922.622   -9739.0754   -10922.622            0    7848.2943    46.407666    19.913654    20.512351            0            0            0    18956.412    8827.3249    6619.1871    8098.3708    395.02919    168.30707    1313.7416    46.407666    19.913654    20.512351           90           90           90 
   73000    271.44169   -10937.398   -9714.8239   -10937.398            0    7391.3463    46.761838    19.665288      20.6141            0            0            0    18956.417    8286.5833     6794.032    7093.4238     43.98816    128.79688    393.35544    46.761838    19.665288      20.6141           90           90           90 
   73500    270.19835   -10837.927   -9620.9521   -10837.927            0    7027.8386    46.598404    19.928178     20.50909            0            0            0    19045.177    5629.8378     7907.935    7545.7432    72.458381   -378.02534    1319.1143    46.598404    19.928178     20.50909           90           90           90 
   74000    269.71756    -10862.24   -9647.4314    -10862.24            0     8793.855    46.069326    19.970332     20.59467            0            0            0    18947.504     9500.963    7814.0177    9066.5843   -704.53254   -443.61061    1150.4478    46.069326    19.970332     20.59467           90           90           90 
   74500    271.49982   -10863.214   -9640.3776   -10863.214            0    9084.1687    46.634178    19.829828    20.576668            0            0            0    19028.227    9037.3715    9077.1151    9138.0196   -536.96906    943.53155    261.47976    46.634178    19.829828    20.576668           90           90           90 
   75000    275.11858   -10855.988   -9616.8529   -10855.988            0    8689.7306    46.613814    19.788288    20.484488            0            0            0    18895.047    8148.4026    9078.7545    8842.0345    982.17092   -94.917389   -106.45658    46.613814    19.788288    20.484488           90           90           90 
   75500    277.34927   -10909.541   -9660.3589   -10909.541            0    8004.5584    46.423206    19.751535    20.651274            0            0            0    18935.764    7475.3932    9154.6658    7383.6162    338.97886   -155.95561    130.53697    46.423206    19.751535    20.651274           90           90           90 
   76000    266.31056   -10907.459   -9707.9952   -10907.459            0    7262.1659    46.555665    19.893535    20.569646            0            0            0    19050.717    7914.4768    7010.8891    6861.1318   -120.81882    703.16033    481.03194    46.555665    19.893535    20.569646           90           90           90 
   76500    261.03464    -10917.06   -9741.3588    -10917.06            0    8410.0944    46.591748    19.929204    20.332589            0            0            0     18879.55    8490.6852    8492.7619    8246.8362   -464.62297    875.96776   -399.10696    46.591748    19.929204    20.332589           90           90           90 
   77000    262.84195   -10904.835   -9720.9935   -10904.835            0    9034.0287    46.006771    19.789076    20.745982            0            0            0    18887.796    9856.9132     9266.665    7978.5077   -90.741162   -61.674501    242.25844    46.006771    19.789076    20.745982           90           90           90 
   77500    263.81076   -10852.666   -9664.4616   -10852.666            0    8105.7868    46.353013     19.97297     20.49121            0            0            0    18970.913    8155.8728     8018.229    8143.2587   -133.25325   -1335.8773   -50.418777    46.353013     19.97297     20.49121           90           90           90 
   78000    281.28722   -10894.303   -9627.3847   -10894.303            0    6671.3663     46.52678    19.947015    20.530404            0            0            0     19053.66    6422.9934    5959.8339    7631.2717    498.35075    822.35619    207.25137     46.52678    19.947015    20.530404           90           90           90 
   78500     265.9982   -10916.992    -9718.935   -10916.992            0    6722.6353    45.981519     19.97971      20.6943            0            0            0    19011.799     8122.955    5526.1301    6518.8209   -504.05857    635.55566    819.41819    45.981519     19.97971      20.6943           90           90           90 
   79000    267.50341   -10928.427   -9723.5904   -10928.427            0     8154.603    46.462132    19.900085    20.425485            0            0            0    18885.411    8824.2946    7481.3094     8158.205    368.18368    269.57327   -1034.5594    46.462132    19.900085    20.425485           90           90           90 
   79500    270.68056   -10903.476   -9684.3298   -10903.476            0    7382.4295    46.600564    19.805247     20.66415            0            0            0    19071.681    6823.6924    8379.7806    6943.8154   -254.44212   -425.00945     1047.871    46.600564    19.805247     20.66415           90           90           90 
   80000    265.66767   -10890.022   -9693.4537   -10890.022            0    7544.0757    46.412668    19.881313    20.581214            0            0            0    18991.208    7801.0394    6674.7687    8156.4189    -11.45225    606.50214    262.61344    46.412668    19.881313    20.581214           90           90           90 
   80500    266.06043   -10889.904   -9691.5666   -10889.904            0    8857.4493    46.432928    19.969281    20.420758            0            0            0    18934.784    8086.9482    9107.5211    9377.8786   -94.484122    1082.0329   -171.15147    46.432928    19.969281    20.420758           90           90           90 
   81000    265.33493   -10864.801   -9669.7319   -10864.801            0    8252.8883    46.231309     19.77365    20.644723            0            0            0    18872.615    9148.0522    8081.5902    7529.0225    152.78912    1180.2566    135.38965    46.231309     19.77365    20.644723           90           90           90 
   81500    273.94391   -10945.267   -9711.4228   -10945.267            0    8044.5059    46.500278    19.951484    20.519597            0            0            0    19037.047    8721.0471     7905.292    7507.1787   -105.50727   -587.70351    -693.7518    46.500278    19.951484    20.519597           90           90           90 
   82000    271.67598   -10896.782   -9673.1525   -10896.782            0    7379.4732     46.58831    19.879406    20.541919            0            0            0    19024.855    7348.3376    7248.5972    7541.4847   -315.60493   -29.616102    1021.0528     46.58831    19.879406    20.541919           90           90           90 
   82500    277.33124    -10851.03   -9601.9288    -10851.03            0    7433.5719    46.552342    19.818115    20.618949            0            0            0    19022.623    7263.2924    7513.0587    7524.3647   -492.85537    180.66708   -729.16852    46.552342    19.818115    20.618949           90           90           90 
   83000    272.26313    -10922.79   -9696.5159    -10922.79            0    9593.9784    46.346994    20.006579    20.317458            0            0            0    18839.257    9435.0744    8419.7552    10927.106   -129.91395   -461.56588    124.44881    46.346994    20.006579    20.317458           90           90           90 
   83500    274.48209   -10901.706   -9665.4376   -10901.706            0    8003.0567    46.281443    19.793093    20.691657            0            0            0    18954.652    8073.4298    7825.1318    8110.6087   -708.22145   -688.50663    1087.0495    46.281443    19.793093    20.691657           90           90           90 
   84000    277.69193   -10875.277    -9624.551   -10875.277            0    7502.9716    46.576304    19.895299    20.453543            0            0            0    18953.265    7607.2382    6440.3697    8461.3069   -135.36633   -1154.3965    698.48944    46.576304    19.895299    20.453543           90           90           90 
   84500    277.48208   -10954.492   -9704.7114   -10954.492            0    8155.5272    46.182251    19.955622    20.611632            0            0            0    18995.589    7992.0655    9067.8679    7406.6481    325.33374    677.45049   -37.232107    46.182251    19.955622    20.611632           90           90           90 
   85000    274.23517    -10938.76   -9703.6033    -10938.76            0    7980.4301    46.510166     19.85232    20.607924            0            0            0    19028.011    7172.3865    8409.3946    8359.5093   -181.80022   -23.302507    161.39986    46.510166     19.85232    20.607924           90           90           90 
   85500    273.19221   -10846.097    -9615.638   -10846.097            0    8196.8888    46.713934    19.882869    20.484637            0            0            0    19026.275    7758.8275     8363.771     8468.068    305.13856   -509.36839    570.30229    46.713934    19.882869    20.484637           90           90           90 
   86000    277.40002   -10901.708   -9652.2969   -10901.708            0     7781.193    46.472875    19.871083    20.559387            0            0            0    18985.902    8443.6388    6671.3704    8228.5697    147.17956   -544.27513    184.45508    46.472875    19.871083    20.559387           90           90           90 
   86500    262.47044   -10878.396   -9696.2283   -10878.396            0    8709.0321    46.485819    19.816823    20.528539            0            0            0    18910.916    9130.4367    8143.6223    8853.0374   -50.975047   -349.30345   -809.17113    46.485819    19.816823    20.528539           90           90           90 
   87000    277.00874   -10920.809   -9673.1605   -10920.809            0    8118.1492    46.514337    19.924806    20.444683            0            0            0     18947.91    8395.5383    7364.4939    8594.4153   -313.49439     1223.156    1122.0405    46.514337    19.924806    20.444683           90           90           90 
   87500    276.52756   -10896.676   -9651.1946   -10896.676            0    8742.7099    46.236367    19.765431    20.756685            0            0            0    18969.156    7814.8986    10479.765    7933.4661   -543.77715    748.68873   -147.20471    46.236367    19.765431    20.756685           90           90           90 
   88000      277.541   -10893.401   -9643.3549   -10893.401            0    7774.8206    46.552391    19.972494    20.401172            0            0            0    18968.343    8348.1471    6789.7603    8186.5542    350.73773    899.18861    821.95418    46.552391    19.972494    20.401172           90           90           90 
   88500    272.03573   -10917.237    -9691.987   -10917.237            0    6743.5365    46.264666    19.929078    20.673682            0            0            0    19061.386    6620.3025    6956.6578     6653.649   -328.93168    668.40552    631.34182    46.264666    19.929078    20.673682           90           90           90 
   89000    260.54281   -10928.925    -9755.439   -10928.925            0    7744.0885    46.297318    19.950697    20.481879            0            0            0    18918.369    6695.0079    8621.6625     7915.595   -406.55496    21.178368    933.30051    46.297318    19.950697    20.481879           90           90           90 
   89500    271.73183   -10929.361   -9705.4799   -10929.361            0    7852.7241    46.078418    20.006272     20.67623            0            0            0    19060.536    8035.0688     8395.737    7127.3666   -185.48944   -257.94827    562.06791    46.078418    20.006272     20.67623           90           90           90 
   90000    269.01228    -10917.61   -9705.9781    -10917.61            0    8442.0036    46.461085    19.821433    20.631286            0            0            0    18999.873    7530.6025    9180.2571    8615.1511    -447.6798    109.97848    903.93704    46.461085    19.821433    20.631286           90           90           90 
   90500    269.92025   -10862.707   -9646.9849   -10862.707            0    7347.8966    46.352795    20.030923    20.444394            0            0            0      18982.4    7481.9282    7116.6042    7445.1575    586.59753   -155.38144    312.68943    46.352795    20.030923    20.444394           90           90           90 
   91000    263.37168   -10886.147   -9699.9199   -10886.147            0    8689.1879    46.190765    19.814426    20.602788            0            0            0    18856.567    10457.023    7753.4045    7857.1361   -125.24729    153.65503    631.74496    46.190765    19.814426    20.602788           90           90           90 
   91500    277.51878   -10925.486   -9675.5401   -10925.486            0    8925.2127    46.559788    19.805792    20.502043            0            0            0     18906.03    7878.8396    9119.7142    9777.0842   -227.79605    457.78384    672.11525    46.559788    19.805792    20.502043           90           90           90 
   92000    268.82802   -10926.989   -9716.1867   -10926.989            0    7339.2711    46.882497    19.811287    20.502298            0            0            0    19042.587    7845.1523    6998.9209      7173.74   -210.46511    300.92242    244.34824    46.882497    19.811287    20.502298           90           90           90 
   92500    273.07561   -10929.908    -9699.974   -10929.908            0     8087.228    46.269525    19.822601    20.700534            0            0            0    18986.164    8734.2854    8773.1038    6754.2946   -374.59371   -813.14045    313.95999    46.269525    19.822601    20.700534           90           90           90 
   93000    257.22819   -10844.033   -9685.4766   -10844.033            0    7970.5877    46.527644    19.997033    20.461816            0            0            0    19037.977    8646.2064    7281.4116     7984.145   -269.44051     306.5839   -164.85652    46.527644    19.997033    20.461816           90           90           90 
   93500    269.34705   -10900.292   -9687.1517   -10900.292            0     7431.946    46.292797     19.92174    20.620042            0            0            0    19016.485     7343.329     7515.723    7436.7859    41.404295   -197.62011     534.9032    46.292797     19.92174    20.620042           90           90           90 
   94000    268.30835   -10920.047   -9711.5853   -10920.047            0     6921.275    46.328288    19.868907    20.716351            0            0            0    19069.245    6690.1816    7889.7106    6183.9327    22.133178    785.88373    523.83324    46.328288    19.868907    20.716351           90           90           90 
   94500    273.86432   -10889.909   -9656.4227   -10889.909            0    8579.5044    46.592189    19.978291    20.291271            0            0            0     18887.77    9095.6233    7027.6981    9615.1918   -75.680741    500.43588    803.99744    46.592189    19.978291    20.291271           90           90           90 
   95000    267.79831   -10903.779   -9697.6142   -10903.779            0    7749.8143    46.430587    19.857215    20.588373            0            0            0    18982.112    7207.1133    8368.7218    7673.6079   -662.63899    759.38833   -536.98496    46.430587    19.857215    20.588373           90           90           90 
   95500    274.39043   -10935.912   -9700.0559   -10935.912            0     7336.984    46.409421    19.965788    20.541504            0            0            0    19033.771    8086.6815    6710.3546    7213.9158   -138.51089    228.08451    390.92582    46.409421    19.965788    20.541504           90           90           90 
   96000      266.783   -10873.931   -9672.3392   -10873.931            0    7642.4351    46.161582    19.994111    20.563373            0            0            0    18979.167    8440.8092    6384.7752    8101.7211   -253.71565    323.67182   -248.89765    46.161582    19.994111    20.563373           90           90           90 
   96500    268.45891     -10894.2   -9685.0602     -10894.2            0    7593.8186    46.416806    19.755761    20.628644            0            0            0    18916.453    6550.0448    8655.9428    7575.4681    194.80878   -32.523832     87.59173    46.416806    19.755761    20.628644           90           90           90 
   97000    269.25019   -10869.275   -9656.5713   -10869.275            0    8715.7663    46.254381    19.971733    20.389047            0            0            0    18834.997    7889.0992    8709.6137     9548.586   -433.70791   -268.57458    923.61263    46.254381    19.971733    20.389047           90           90           90 
   97500    270.13876   -10903.146   -9686.4402   -10903.146            0    7539.2928    46.396361    19.823276    20.660991            0            0            0     19002.49    8155.0271     7266.906    7195.9452   -80.726545   -22.232152    158.02376    46.396361    19.823276    20.660991           90           90           90 
   98000    262.41422   -10913.811   -9731.8963   -10913.811            0    7918.4929    46.612791    19.897288    20.499844            0            0            0    19012.951    7353.6096    8334.5235    8067.3455   -449.48682    271.74611   -429.92674    46.612791    19.897288    20.499844           90           90           90 
   98500    261.43184   -10905.363   -9727.8727   -10905.363            0    9639.6086    46.120968    19.941459    20.492692            0            0            0    18847.526    10375.534    8946.5985    9596.6935     12.07681   -540.21499   -313.32097    46.120968    19.941459    20.492692           90           90           90 
   99000    277.75501   -10888.044   -9637.0347   -10888.044            0    6011.6905    46.558546    19.858321    20.635278            0            0            0    19078.853    6537.8228    5856.6442    5640.6045   -242.73485   -553.49459    1219.2438    46.558546    19.858321    20.635278           90           90           90 
   99500    280.00765   -10899.569   -9638.4131   -10899.569            0    6810.6211    46.779013    19.898734    20.530509            0            0            0    19110.683    5250.5657    8378.4342    6802.8634    872.29297    913.85841    180.20392    46.779013    19.898734    20.530509           90           90           90 
  100000    262.28026   -10910.397   -9729.0852   -10910.397            0     8522.364    46.338641    19.823274    20.615859            0            0            0     18937.39    8970.3999     8204.774     8391.918    8.3221457   -356.70702     571.3766    46.338641    19.823274    20.615859           90           90           90 
  100500    271.35949    -10924.27   -9702.0658    -10924.27            0    7118.1183    46.357853    19.919813    20.550283            0            0            0    18976.949    8579.0508    5354.2255    7421.0787     70.76465   -296.21603   -70.946954    46.357853    19.919813    20.550283           90           90           90 
  101000    272.67891   -10905.344   -9677.1972   -10905.344            0     8681.989    46.428845    19.864098    20.487248            0            0            0    18894.715    8340.9974    8766.4625     8938.507    398.10123   -96.301483    286.00933    46.428845    19.864098    20.487248           90           90           90 
  101500    274.24757   -10932.785   -9697.5729   -10932.785            0    7097.2093    46.545053    19.753134    20.707604            0            0            0    19038.793    7110.2577    8146.8027    6034.5675   -405.62025     -295.617    169.68452    46.545053    19.753134    20.707604           90           90           90 
  102000    274.92164   -10855.704   -9617.4561   -10855.704            0    7537.2829    46.597652    19.849464    20.486227            0            0            0    18948.498    7203.7489    7114.3224    8293.7774   -31.288953    547.21665    141.56914    46.597652    19.849464    20.486227           90           90           90 
  102500    264.20769   -10909.288   -9719.2958   -10909.288            0    8090.2913    46.193162    19.943023    20.583989            0            0            0    18962.615    8155.7419    8829.7564    7285.3756   -6.3665457   -929.90327   -126.11631    46.193162    19.943023    20.583989           90           90           90 
  103000    276.38004   -10946.411   -9701.5946   -10946.411            0    7302.2448    46.168239    20.061052    20.546937            0            0            0    19030.233    8206.7659    6199.6742    7500.2943    104.08436    202.56436   -217.75711    46.168239    20.061052    20.546937           90           90           90 
  103500    267.79907   -10872.919   -9666.7507   -10872.919            0    9516.7197    46.483387    19.830535    20.491754            0            0            0    18889.103    10422.954    9619.6617    8507.5438   -275.00502    1212.1846   -576.00043    46.483387    19.830535    20.491754           90           90           90 
  104000    277.34251   -10943.283   -9694.1309   -10943.283            0    6732.3049     46.18184     19.88694    20.685502            0            0            0    18997.885     7310.891    6559.9402    6326.0834    346.11333    86.700873    46.517689     46.18184     19.88694    20.685502           90           90           90 
  104500    269.90931   -10945.527   -9729.8544   -10945.527            0    8314.8671    46.450641    19.867181    20.388941            0            0            0    18815.797    6995.4884    9674.1778    8274.9352    101.16992   -212.78658   -633.91028    46.450641    19.867181    20.388941           90           90           90 
  105000    270.56669   -10860.458   -9641.8241   -10860.458            0    8927.1912     46.06481     19.75103    20.701929            0            0            0    18835.183     9795.231    9347.5821    7638.7606    630.72395    690.39838    443.95732     46.06481     19.75103    20.701929           90           90           90 
  105500    280.18611   -10867.568   -9605.6084   -10867.568            0    7315.7671    46.731394    19.782492     20.59606            0            0            0    19040.304    7008.4614    7969.8778     6968.962   -525.88352   -27.821924   -321.41319    46.731394    19.782492     20.59606           90           90           90 
  106000    267.99208   -10905.491   -9698.4534   -10905.491            0    8259.0298    46.396142    19.989715    20.450399            0            0            0    18966.634    8771.8983    8015.8752    7989.3158   -292.01326    431.29438    189.52239    46.396142    19.989715    20.450399           90           90           90 
  106500    272.67912    -10889.04   -9660.8923    -10889.04            0    8215.7386     46.18231    19.865485    20.620258            0            0            0    18917.725    8519.1769    8306.8516    7821.1875    -323.5533   -30.801095   -567.93789     46.18231    19.865485    20.620258           90           90           90 
  107000     259.2892   -10861.686   -9693.8466   -10861.686            0    7144.0744    46.591088    19.866472    20.570621            0            0            0    19040.178    7570.3521    6526.0905    7335.7807   -394.91409   -141.10937    673.88398    46.591088    19.866472    20.570621           90           90           90 
  107500    273.40593   -10861.284   -9629.8625   -10861.284            0    8769.8829    46.382311     19.83194    20.546797            0            0            0    18899.996    8032.0649     8937.587    9339.9968   -97.267408    47.579473    270.52106    46.382311     19.83194    20.546797           90           90           90 
  108000    276.04663    -10906.33   -9663.0149    -10906.33            0    8988.7501    46.474017    19.850566    20.513761            0            0            0    18924.673    9260.3878    9032.3503    8673.5121    63.725155   -540.93304   -1002.2069    46.474017    19.850566    20.513761           90           90           90 
  108500     271.0035   -10884.239   -9663.6377   -10884.239            0    7085.5063    46.317021    19.893033    20.671616            0            0            0    19046.538    8182.8959    6559.7307    6513.8922   -72.664601     200.4215   -17.487233    46.317021    19.893033    20.671616           90           90           90 
  109000    265.44375   -10925.983   -9730.4231   -10925.983            0    7605.4781    46.185468    19.939338    20.570013            0            0            0    18943.082    8252.2637    7027.8266    7536.3439   -37.215313    265.72124    275.47318    46.185468    19.939338    20.570013           90           90           90 
  109500    264.21111   -10908.283   -9718.2748   -10908.283            0    7987.8363    46.540745    19.933244    20.371297            0            0            0    18898.616    6165.2324     9106.894    8691.3823    63.432639   -552.36672   -1305.7918    46.540745    19.933244    20.371297           90           90           90 
  110000    273.34008   -10917.939   -9686.8146   -10917.939            0    7404.5958    46.090626    19.900958    20.766304            0            0            0    19047.843    6776.0915    8365.1486    7072.5472   -211.01194    1070.7249   -420.97759    46.090626    19.900958    20.766304           90           90           90 
  110500    272.98217   -10943.113   -9713.6002   -10943.113            0    7874.2665    46.375199     19.94994    20.496786            0            0            0    18963.266     7731.506    7426.4166     8464.877   -58.169564   -900.88704   -10.612436    46.375199     19.94994    20.496786           90           90           90 
  111000     256.6114   -10859.597   -9703.8185   -10859.597            0    8248.2933    46.592822    19.857311    20.472402            0            0            0    18941.233    7081.8823    8056.9196    9606.0781   -6.3778424    359.62636    67.233344    46.592822    19.857311    20.472402           90           90           90 
  111500    272.40943   -10887.076   -9660.1433   -10887.076            0    8956.3962    46.057219    19.845089    20.698406            0            0            0    18918.541    9382.5581    9497.3659    7989.2646    267.28463   -7.9066606    951.86488    46.057219    19.845089    20.698406           90           90           90 
  112000    263.96051   -10893.949   -9705.0702   -10893.949            0    7899.3078    46.236974    20.030482    20.548584            0            0            0    19031.048     8010.811    7432.9978    8254.1146    -77.57243   -527.89655   -37.459078    46.236974    20.030482    20.548584           90           90           90 
  112500    274.37866   -10918.818   -9683.0156   -10918.818            0    7349.6691    46.368386    19.980331    20.515961            0            0            0    19007.129    6623.2868    7005.5241    8420.1964   -220.99584   -471.63679    780.78786    46.368386    19.980331    20.515961           90           90           90 
  113000    273.97809   -10899.237   -9665.2389   -10899.237            0     7187.963    46.513325     19.88316     20.56863            0            0            0    19022.524    7390.0322    6745.2716    7428.5851      138.387   -932.68687    415.99197    46.513325     19.88316     20.56863           90           90           90 
  113500    268.40848   -10893.272   -9684.3586   -10893.272            0    8082.5705    46.546292    19.836401    20.502305            0            0            0    18930.002    7573.9067    8542.7966    8131.0083    66.515623   -149.76448   -374.47935    46.546292    19.836401    20.502305           90           90           90 
  114000    274.46184   -10875.314   -9639.1371   -10875.314            0    7937.1122    46.390156    19.934748    20.592331            0            0            0    19043.295    8516.0254    7254.4808    8040.8303   -145.38749   -121.10918     67.23266    46.390156    19.934748    20.592331           90           90           90 
  114500    274.62594   -10897.861   -9660.9449   -10897.861            0    8790.8418    46.304913    19.812769    20.608592            0            0            0    18906.911    9239.2432    9585.3273    7547.9549    297.77862    248.91453    92.305159    46.304913    19.812769    20.608592           90           90           90 
  115000    269.21171    -10838.65   -9626.1189    -10838.65            0    7949.8173    46.489207    19.983672    20.513116            0            0            0    19057.199    6938.3938     7806.172    9104.8863    27.954079   -1004.4223    -314.4909    46.489207    19.983672    20.513116           90           90           90 
  115500    277.98404   -10943.477   -9691.4356   -10943.477            0    8183.6911     46.39068    19.923045    20.572217            0            0            0     19013.74    9465.1637    7703.9078    7382.0017   -257.22448    -175.4068    42.066162     46.39068    19.923045    20.572217           90           90           90 
  116000    262.35487   -10895.884   -9714.2365   -10895.884            0    8171.4929    46.431514     19.72585    20.592705            0            0            0    18860.881    8214.3351    8610.2576    7689.8859   -65.415999   -905.57841   -1082.9098    46.431514     19.72585    20.592705           90           90           90 
  116500    273.21539   -10876.618   -9646.0546   -10876.618            0    8414.6197    46.610913    19.845457     20.55043            0            0            0    19009.454    9282.9308    7126.1403     8834.788    9.7577074    248.33534   -74.361758    46.610913    19.845457     20.55043           90           90           90 
  117000    272.00525   -10909.836   -9684.7237   -10909.836            0    8024.1655    46.225792    19.990709    20.531393            0            0            0    18972.779    7589.8366     8490.752    7991.9078    268.23661    84.123828     854.9082    46.225792    19.990709    20.531393           90           90           90 
  117500    268.42134   -10933.784   -9724.8135   -10933.784            0    5903.9017    46.440856    20.037162    20.534972            0            0            0    19108.673    5903.7326    5451.9073    6356.0651   -445.99683     1029.891    545.55706    46.440856    20.037162    20.534972           90           90           90 
  118000    269.68255   -10948.568    -9733.917   -10948.568            0    6621.0054    46.358033    19.875352    20.662405            0            0            0    19037.973    6999.8634    6910.0811    5953.0717   -181.81884   -420.77122     624.3455    46.358033    19.875352    20.662405           90           90           90 
  118500     271.9755    -10922.59   -9697.6114    -10922.59            0    7352.9868    46.640478    19.763775    20.590025            0            0            0    18979.718    5980.1016    9639.5977    6439.2612   -14.561658   -527.49882    704.65246    46.640478    19.763775    20.590025           90           90           90 
  119000    274.87162   -10898.992   -9660.9689   -10898.992            0     7029.909    46.814684    19.941567    20.432644            0            0            0    19075.061    6004.1078    7209.0752     7876.544    453.23883   -959.46342    498.81316    46.814684    19.941567    20.432644           90           90           90 
  119500    271.42436   -10879.507   -9657.0105   -10879.507            0    8583.3998    46.109471    19.858849    20.623811            0            0            0    18884.833    9400.8398    8212.8036    8136.5561   -290.53777    916.27427     723.9377    46.109471    19.858849    20.623811           90           90           90 
  120000     277.2503   -10914.074   -9665.3372   -10914.074            0    8176.1918    46.462731    19.912477    20.521056            0            0            0    18985.836    9258.7513    7096.6706    8173.1534    136.20035   -189.37865   -512.12207    46.462731    19.912477    20.521056           90           90           90 
  120500    276.94573   -10869.796   -9622.4312   -10869.796            0    7616.1791    46.138662    20.040436    20.527958            0            0            0    18980.949    7168.6329    8013.1374    7666.7669    -585.3599   -446.85507    1904.4194    46.138662    20.040436    20.527958           90           90           90 
  121000    265.81621   -10895.103   -9697.8659   -10895.103            0    7091.7934    46.496791      19.9123    20.637328            0            0            0    19107.237    9283.1822    4988.6352    7003.5628   -24.989004   -6.8722355    316.05219    46.496791      19.9123    20.637328           90           90           90 
  121500     270.5297   -10945.361   -9726.8946   -10945.361            0    8178.9528    46.524419    19.815726    20.572386            0            0            0    18965.995    8588.5056    8144.6932    7803.6596     132.5948   -488.44295     696.0787    46.524419    19.815726    20.572386           90           90           90 
  122000    264.74319   -10862.271   -9669.8665   -10862.271            0    8014.8753    46.617946    19.838927    20.492667            0            0            0    18952.643    7617.6303    8262.5526     8164.443    624.24821   -135.01157    1377.5434    46.617946    19.838927    20.492667           90           90           90 
  122500    275.03291   -10929.067   -9690.3178   -10929.067            0    6112.6996    46.512657    20.011084    20.597059            0            0            0    19171.097    6065.6097    5660.4605    6612.0288    604.67303   -552.61475   -101.31177    46.512657    20.011084    20.597059           90           90           90 
  123000    265.47817   -10917.808   -9722.0931   -10917.808            0    8549.9717    46.373395    19.836195    20.544798            0            0            0    18898.578    8653.4293    8877.5513    8118.9346   -9.7513851   -48.921298   -206.65815    46.373395    19.836195    20.544798           90           90           90 
  123500    267.36994   -10899.808   -9695.5724   -10899.808            0    8223.1786    46.259052    20.027649    20.538638            0            0            0    19028.228    8257.3213    8159.8507    8252.3638   -57.918551   -353.78631     490.5988    46.259052    20.027649    20.538638           90           90           90 
  124000    263.59346   -10838.623   -9651.3974   -10838.623            0    7698.4575    46.073424    19.955661    20.613492            0            0            0    18952.573     9607.367    6961.8267    6526.1787   -526.13381   -296.97309    202.41517    46.073424    19.955661    20.613492           90           90           90 
  124500    277.82389   -10918.632   -9667.3126   -10918.632            0    8537.1441    46.320558    19.903781    20.586602            0            0            0    18979.905    8785.3355    7943.8803    8882.2165   -718.53211   -94.475959    827.58927    46.320558    19.903781    20.586602           90           90           90 
  125000    278.75733   -10861.587   -9606.0629   -10861.587            0    9234.1724    46.574516    19.899221    20.466561            0            0            0    18968.339    9408.1891    9257.7939    9036.5344    73.736858    156.19928    690.58648    46.574516    19.899221    20.466561           90           90           90 
  125500    261.48672     -10879.3   -9701.5625     -10879.3            0    7138.4409    46.880406    19.821934     20.51837            0            0            0    19066.907    6496.4272    7269.4815    7649.4141   -359.49317    -345.0144    594.16825    46.880406    19.821934     20.51837           90           90           90 
  126000    271.27317   -10858.578   -9636.7628   -10858.578            0    7505.8897     46.31197    19.828223    20.709478            0            0            0    19017.183    8035.7184    6878.9931    7602.9578   -558.78914    151.96648   -5.0721342     46.31197    19.828223    20.709478           90           90           90 
  126500    263.93887   -10867.068   -9678.2863   -10867.068            0    9656.1729    46.212056     19.96896    20.457617            0            0            0    18878.426    10637.132    9255.7178    9075.6689   -354.89472   -3.9631553   -631.39255    46.212056     19.96896    20.457617           90           90           90 
  127000     267.5768   -10881.496    -9676.329   -10881.496            0    7628.1149    46.659681    19.836803    20.528133            0            0            0    19000.406    8427.9084    6802.8896    7653.5467   -122.12726   -497.68139    225.52249    46.659681    19.836803    20.528133           90           90           90 
  127500    268.35214   -10892.655   -9683.9963   -10892.655            0    8041.4855    46.356773    19.796211    20.646971            0            0            0    18947.487    6848.5846    9477.4623    7798.4095    40.109892    -6.445543    583.37651    46.356773    19.796211    20.646971           90           90           90 
  128000    273.36044   -10907.108   -9675.8916   -10907.108            0    8381.3603    46.942782    19.902104    20.276369            0            0            0    18943.403    7975.8576     7221.472    9946.7512   -72.149968    -301.1869    665.66286    46.942782    19.902104    20.276369           90           90           90 
  128500    268.74663   -10878.399   -9667.9633   -10878.399            0    8374.7506     46.02033    19.842511    20.649676            0            0            0    18856.435     8313.719    9112.8414    7697.6915    521.15609   -29.248299    76.295376     46.02033    19.842511    20.649676           90           90           90 
  129000    267.31088   -10898.791   -9694.8216   -10898.791            0     7913.406    46.268086    19.942456    20.547424            0            0            0    18959.094    8350.8559    6891.8638    8497.4982   -40.793873   -534.51807    243.38915    46.268086    19.942456    20.547424           90           90           90 
  129500    271.27134   -10907.677   -9685.8702   -10907.677            0    8336.8244    46.631626    19.846161    20.471447            0            0            0     18945.48    8406.2591     8542.951     8061.263   -44.599504   -780.09032    589.53018    46.631626    19.846161    20.471447           90           90           90 
  130000    265.48562   -10886.298   -9690.5493   -10886.298            0    7403.7192    46.072604    19.911495    20.692718            0            0            0    18982.971    9595.1998    6646.4215    5969.5363   -208.08872   -301.32434    1025.7552    46.072604    19.911495    20.692718           90           90           90 
  130500    274.17003   -10868.984   -9634.1215   -10868.984            0    7282.6449    46.699086    19.817632    20.518794            0            0            0    18989.432    6326.2229     7908.542    7613.1699    187.17638   -81.822515   -77.375574    46.699086    19.817632    20.518794           90           90           90 
  131000    263.55244   -10950.258   -9763.2163   -10950.258            0    8110.4404    46.592635    19.811181    20.512419            0            0            0    18934.093    8168.2999    7815.8742    8347.1471   -115.04767    1144.3489     47.12844    46.592635    19.811181    20.512419           90           90           90 
  131500    263.96621   -10931.922   -9743.0169   -10931.922            0    8552.0986    46.013999    19.952797    20.632823            0            0            0    18943.159    10267.957    7844.5878    7543.7505   -330.72796    95.006144    240.52135    46.013999    19.952797    20.632823           90           90           90 
  132000    275.27626    -10954.04   -9714.1947    -10954.04            0    7208.4446    46.593299     19.91439    20.491264            0            0            0    19013.375    6272.2751    7715.7762    7637.2825    47.878195   -91.159822    396.69979    46.593299     19.91439    20.491264           90           90           90 
  132500    268.18989    -10864.22   -9656.2916    -10864.22            0    7615.6224    46.813378    19.836096    20.583212            0            0            0    19113.461    6458.4516    8715.0283    7673.3872    196.92354    1205.7467   -96.036835    46.813378    19.836096    20.583212           90           90           90 
  133000    272.83441   -10919.996   -9691.1485   -10919.996            0    6978.5703    46.304141    19.895763    20.691209            0            0            0    19061.905    7855.6765    6366.3618    6713.6725    -393.6376   -613.73087    920.64397    46.304141    19.895763    20.691209           90           90           90 
  133500     263.3592    -10925.01   -9738.8396    -10925.01            0    8054.4093    46.470199    19.807578    20.531847            0            0            0    18898.787    8644.5806    8556.0361    6962.6111   -227.35161   -319.36383    260.99215    46.470199    19.807578    20.531847           90           90           90 
  134000     269.2482   -10898.121   -9685.4256   -10898.121            0     8328.612     46.37966    19.896567    20.568768            0            0            0    18980.777    8040.7252    8853.0584    8092.0523    304.24893   -288.32786   -79.185644     46.37966    19.896567    20.568768           90           90           90 
  134500    277.19879    -10849.78   -9601.2751    -10849.78            0    9591.2759    46.107821    19.881236    20.546638            0            0            0    18834.701    9463.2627    9256.6493    10053.916    200.17627   -8.1124849    151.78866    46.107821    19.881236    20.546638           90           90           90 
  135000    274.46359   -10966.055   -9729.8701   -10966.055            0    7679.1933    46.681461    19.737607     20.56455            0            0            0    18947.772    5842.4447    8854.2239    8340.9114    211.42625     282.8121    714.54022    46.681461    19.737607     20.56455           90           90           90 
  135500    274.45408    -10934.79    -9698.648    -10934.79            0    9291.2625    46.761631    19.725011    20.495226            0            0            0    18904.258    9114.3628    10020.901    8738.5239    194.62295   -510.23661    301.03735    46.761631    19.725011    20.495226           90           90           90 
  136000    278.25716    -10921.27    -9667.999    -10921.27            0    9269.9978    46.193731      19.8246    20.542472            0            0            0    18812.226    9785.2444    9130.5051    8894.2438   -678.10035    585.40096   -22.910399    46.193731      19.8246    20.542472           90           90           90 
  136500    268.68125   -10907.117    -9696.976   -10907.117            0    6919.7239    46.381452    19.931973    20.665707            0            0            0    19104.905    7872.3383    6313.3115    6573.5218  -0.72092222    617.51496    62.111344    46.381452    19.931973    20.665707           90           90           90 
  137000     271.6203   -10885.492   -9662.1132   -10885.492            0      8662.06    46.451307    19.880519    20.546502            0            0            0    18974.203    7103.2939    10065.135    8817.7516    514.60646   -655.07483    60.794777    46.451307    19.880519    20.546502           90           90           90 
  137500    283.30454   -10881.747   -9605.7422   -10881.747            0    8086.1081    46.703541    19.812836    20.561396            0            0            0    19026.069    7238.1977    9244.5889    7775.5378    197.46424   -768.78253    32.544851    46.703541    19.812836    20.561396           90           90           90 
  138000    273.44471   -10888.792    -9657.196   -10888.792            0     8234.197     46.05583    19.899446    20.687673            0            0            0    18959.952    9238.9358    7224.2299    8239.4252    -428.0514   -61.678879    647.15701     46.05583    19.899446    20.687673           90           90           90 
  138500    265.98994   -10898.229   -9700.2089   -10898.229            0    7299.3446    46.375759     20.04428    20.433186            0            0            0    18994.051    7248.6966    6941.1674    7708.1699   -62.749184     1014.345   -951.03031    46.375759     20.04428    20.433186           90           90           90 
  139000    262.84642   -10950.359   -9766.4978   -10950.359            0    6826.5734    46.524927    19.911656    20.627398            0            0            0    19108.981    6296.0325    7073.3732    7110.3145    209.19092    697.54241   -582.51376    46.524927    19.911656    20.627398           90           90           90 
  139500    273.19415   -10907.684    -9677.216   -10907.684            0    7627.4067    46.451018    19.849613    20.674957            0            0            0    19063.028    7486.2004    8135.5865    7260.4332   -292.94816    149.37585    575.81715    46.451018    19.849613    20.674957           90           90           90 
  140000    269.97749   -10877.763   -9661.7833   -10877.763            0    7893.6874    47.041296    19.794293    20.394911            0            0            0    18990.705    7437.8593    7672.3894    8570.8134   -18.613831   -671.08588    318.39801    47.041296    19.794293    20.394911           90           90           90 
  140500    275.71085   -10882.739    -9640.936   -10882.739            0    6670.0637    46.439378    19.832432    20.672864            0            0            0    19039.828    7344.3495    7548.9832    5116.8585    -570.9645    663.91445   -1060.0206    46.439378    19.832432    20.672864           90           90           90 
  141000    262.39586   -10868.023   -9686.1909   -10868.023            0     8608.195    46.394979    19.838563    20.527209            0            0            0    18893.443    9521.5231    7899.6804    8403.3817    552.08586    975.54458    329.27999    46.394979    19.838563    20.527209           90           90           90 
  141500    270.03586   -10926.664   -9710.4212   -10926.664            0     8253.138    46.836573    19.843349    20.481408            0            0            0    19035.307    7101.3615    9318.8342    8339.2183    133.17487   -465.95589   -756.33179    46.836573    19.843349    20.481408           90           90           90 
  142000    264.92025    -10858.24   -9665.0385    -10858.24            0    8189.9782    46.317222    19.746447    20.671398            0            0            0    18906.072    8349.1421    8165.1709    8055.6216   -199.60377    983.92479    289.82673    46.317222    19.746447    20.671398           90           90           90 
  142500    267.15987    -10844.87    -9641.581    -10844.87            0    7680.4422    46.441872    19.944626    20.504129            0            0            0    18992.273    8212.0014    7314.3303    7514.9949   -235.49063   -94.226169    651.02885    46.441872    19.944626    20.504129           90           90           90 
  143000    261.66767   -10891.398   -9712.8461   -10891.398            0      7927.79    46.355028    20.016238    20.512481            0            0            0    19032.573    8351.1644    6904.3599    8527.8456    81.000381   -464.18424    520.24834    46.355028    20.016238    20.512481           90           90           90 
  143500    270.46523   -10890.293   -9672.1167   -10890.293            0    7531.9453    46.235644    19.860215    20.698212            0            0            0     19006.13    8326.3633    7470.1754    6799.2971    42.479021     180.0945    259.23221    46.235644    19.860215    20.698212           90           90           90 
  144000    266.60351   -10872.441    -9671.658   -10872.441            0    7718.8326    46.456098    19.939373    20.459334            0            0            0    18951.593    7754.8125    7811.7631    7589.9223   -32.571242    58.202849   -443.17099    46.456098    19.939373    20.459334           90           90           90 
  144500    265.03551   -10881.621      -9687.9   -10881.621            0    7783.8298     46.57757    19.843162    20.582424            0            0            0    19023.229    8022.7159    6775.9495     8552.824  -0.36736194    885.83975   -752.91998     46.57757    19.843162    20.582424           90           90           90 
  145000    268.95282   -10918.012   -9706.6471   -10918.012            0    8160.2661    46.269134    19.735665    20.671859            0            0            0    18876.552    8419.7494    8163.9162    7897.1328     456.2952   -1133.2137    993.83764    46.269134    19.735665    20.671859           90           90           90 
  145500    268.10991   -10914.955   -9707.3871   -10914.955            0    7383.7968    46.749156    19.927203    20.373261            0            0            0     18979.32    7203.2215    6715.3665    8232.8025   -498.79125    115.29054   -129.10179    46.749156    19.927203    20.373261           90           90           90 
  146000    270.80749   -10915.029   -9695.3109   -10915.029            0    8696.5445    46.289946    19.846209    20.535829            0            0            0    18865.855    9461.3221    7371.3921    9256.9191   -34.307543    1294.4264    553.65796    46.289946    19.846209    20.535829           90           90           90 
  146500    272.71613   -10888.339   -9660.0241   -10888.339            0     9477.532    46.040094    19.850744    20.575536            0            0            0    18804.601    10551.196    9159.8561    8721.5442   -13.014857    264.42617    1088.0774    46.040094    19.850744    20.575536           90           90           90 
  147000    274.78421   -10918.013   -9680.3841   -10918.013            0    8860.6271    46.418765    19.791061    20.558658            0            0            0    18886.758    9590.2674    7328.6611    9662.9527   -286.31411   -472.51228    256.37647    46.418765    19.791061    20.558658           90           90           90 
  147500    276.55373   -10869.193   -9623.5938   -10869.193            0    8808.6588    46.644527    19.770344    20.466247            0            0            0     18873.53     7489.317    9849.0136    9087.6457   -345.02485    302.80324   -216.45643    46.644527    19.770344    20.466247           90           90           90 
  148000    268.65783   -10918.604   -9708.5679   -10918.604            0    7225.9654     46.33178    19.815017      20.6761            0            0            0    18982.004    6649.0539    8260.5409    6768.3013   -213.07685    1139.0335    93.631333     46.33178    19.815017      20.6761           90           90           90 
  148500    277.42616   -10894.308   -9644.7793   -10894.308            0    7344.0439    46.339697    20.012814    20.532258            0            0            0    19041.364    7518.8463    7076.5117    7436.7736   -9.0660036    136.79979    871.65708    46.339697    20.012814    20.532258           90           90           90 
  149000    278.54384    -10861.08   -9606.5176    -10861.08            0    8681.4053    46.615339    19.766707    20.556009            0            0            0    18940.959    8853.6702    7882.4794    9308.0662    -564.7165    795.15822    575.23321    46.615339    19.766707    20.556009           90           90           90 
  149500    271.96031   -10887.505    -9662.595   -10887.505            0    8574.6916    46.555923    19.875793    20.522758            0            0            0    18990.445    8602.3859    8168.2166    8953.4724    8.5373429    797.31158    15.577491    46.555923    19.875793    20.522758           90           90           90 
  150000    270.75858   -10936.866   -9717.3681   -10936.866            0    7745.3585    46.460312    19.809986     20.66166            0            0            0     19016.54    8956.0301     6838.663    7441.3826    491.39243   -446.86181    536.27441    46.460312    19.809986     20.66166           90           90           90 
  150500    273.09354   -10892.686   -9662.6714   -10892.686            0    8279.4262    46.181353    20.012101    20.460183            0            0            0    18909.013     8168.819    8448.0581    8221.4016   -218.28289   -1388.7222    452.98241    46.181353    20.012101    20.460183           90           90           90 
  151000    259.35785   -10890.475   -9722.3267   -10890.475            0    8100.3993     46.42348    19.955043    20.492205            0            0            0    18983.621    8037.4511    7604.7658    8658.9809    381.39346    542.97457   -51.369623     46.42348    19.955043    20.492205           90           90           90 
  151500    268.78437   -10883.106   -9672.5005   -10883.106            0      7888.21     45.86914    19.912117     20.75115            0            0            0    18953.098    8095.0091    8152.0747    7417.5462    719.18424   -55.192812   -152.63906     45.86914    19.912117     20.75115           90           90           90 
  152000    271.42149   -10923.218   -9700.7345   -10923.218            0    8770.5512     46.52045    19.986625    20.321937            0            0            0    18895.069    8134.8066    8459.6305    9717.2166   -50.715891   -89.086734    712.33131     46.52045    19.986625    20.321937           90           90           90 
  152500    270.54991   -10928.042   -9709.4841   -10928.042            0    7051.8407    46.182573    19.960764    20.639125            0            0            0    19025.959    7021.8663    7320.2348    6813.4209    93.907517   -746.13882    -797.2316    46.182573    19.960764    20.639125           90           90           90 
  153000    266.81379   -10889.405   -9687.6751   -10889.405            0     8332.405    46.260769    19.750642     20.71042            0            0            0    18922.695    7142.7576    10403.241    7451.2161   -300.25707   -635.87325    2.4516209    46.260769    19.750642     20.71042           90           90           90 
  153500    264.39175   -10915.233    -9724.412   -10915.233            0    7121.6448    46.732727    19.947702    20.396675            0            0            0    19013.995    7488.4836    5855.0168     8021.434   -717.97254    54.270832   -165.13948    46.732727    19.947702    20.396675           90           90           90 
  154000    283.27771   -10893.203   -9617.3188   -10893.203            0    9476.7792     46.36356    19.714977    20.610776            0            0            0    18839.413    9895.4107     9857.668    8677.2589   -7.7081122    714.75133    470.73954     46.36356    19.714977    20.610776           90           90           90 
  154500    259.85522   -10896.419   -9726.0302   -10896.419            0    8883.6634    46.209931    19.898967    20.505655            0            0            0    18855.562    9538.8463    8639.9839      8472.16    175.22624    912.96097    1119.6989    46.209931    19.898967    20.505655           90           90           90 
  155000     277.2076   -10885.643   -9637.0984   -10885.643            0    7961.1137    46.593053    19.873084    20.503278            0            0            0    18984.962    5457.2502    9901.5292    8524.5616   -423.15611    416.97693   -404.37812    46.593053    19.873084    20.503278           90           90           90 
  155500    273.03317   -10899.447   -9669.7047   -10899.447            0    7911.2052     46.17763    19.840546    20.634916            0            0            0    18905.491     7496.703    8191.3121    8045.6005   -59.319363   -488.88648    248.15496     46.17763    19.840546    20.634916           90           90           90 
  156000    262.40001   -10930.709   -9748.8579   -10930.709            0    8239.0543     46.38062    19.988145     20.46268            0            0            0    18970.184    7669.6028     7495.221     9552.339   -702.18545    -892.1947     501.5088     46.38062    19.988145     20.46268           90           90           90 
  156500    265.68937   -10940.937   -9744.2712   -10940.937            0    8657.9706    46.001552    19.907323    20.654341            0            0            0    18914.579     9663.232    8022.7857    8287.8941   -200.73578   -403.08515     -95.8791    46.001552    19.907323    20.654341           90           90           90 
  157000    263.05775   -10925.944   -9741.1312   -10925.944            0    8079.2223    46.525103    19.776741    20.556391            0            0            0    18914.241    7659.3004    8208.2815    8370.0849    296.39977    164.64372    295.80817    46.525103    19.776741    20.556391           90           90           90 
  157500    271.77616   -10951.465   -9727.3837   -10951.465            0    7921.3064    46.382724    19.958106    20.504809            0            0            0    18981.533    8026.3455    8035.0282    7702.5456    -620.0176    1086.1828   -536.29795    46.382724    19.958106    20.504809           90           90           90 
  158000    264.14853   -10912.365   -9722.6391   -10912.365            0     6430.889    46.097075    20.058494    20.674245            0            0            0    19116.191    6598.5273    6411.8093    6282.3302   -340.64244    399.98568    777.79084    46.097075    20.058494    20.674245           90           90           90 
  158500    271.65439   -10886.922   -9663.3897   -10886.922            0    8187.4651    46.836276    19.768052    20.429208            0            0            0    18914.626    6866.6679    9603.2224    8092.5049    85.529049    1260.2141     485.9632    46.836276    19.768052    20.429208           90           90           90 
  159000    277.11279   -10888.984   -9640.8669   -10888.984            0    6566.2143    46.551975    19.789246    20.683297            0            0            0    19054.042    7612.9131    6180.9675    5904.7622    324.25432    90.633251    5.2474843    46.551975    19.789246    20.683297           90           90           90 
  159500    264.04501   -10856.221    -9666.961   -10856.221            0    8205.6588    46.546746    19.855692    20.488697            0            0            0     18936.02    7648.5122     8693.159    8275.3053    -471.8634   -466.97149     906.2701    46.546746    19.855692    20.488697           90           90           90 
  160000    268.02069   -10871.944   -9664.7775   -10871.944            0    7603.6762    46.263373    20.006123    20.444888            0            0            0    18922.781    7170.4188    7203.4511    8437.1586    330.49199   -387.77214   -306.79491    46.263373    20.006123    20.444888           90           90           90 
  160500    270.11243   -10819.804   -9603.2168   -10819.804            0    7756.9466     46.53231    19.705149    20.742552            0            0            0    19019.387    6860.8387     8998.608    7411.3931    107.73098    219.96595    347.98281     46.53231    19.705149    20.742552           90           90           90 
  161000    262.72871   -10907.712   -9724.3807   -10907.712            0     8224.487    46.298923    19.811401    20.645748            0            0            0    18937.241    8913.0889    7926.3161    7834.0559   -223.82978   -180.96348    1623.0529    46.298923    19.811401    20.645748           90           90           90 
  161500    271.92872   -10862.416   -9637.6483   -10862.416            0     6528.209     46.60301    19.986254     20.37173            0            0            0    18974.628    6011.2799    6184.9246    7388.4227   -713.76474   -790.85152    517.82084     46.60301    19.986254     20.37173           90           90           90 
  162000    260.07268   -10896.867   -9725.4985   -10896.867            0    7547.8411    46.201101    19.911944    20.568733            0            0            0    18922.282    7413.0182    6907.2361    8323.2691    366.91561   -720.85403    41.600327    46.201101    19.911944    20.568733           90           90           90 
  162500    271.00229   -10920.291   -9699.6956   -10920.291            0    8951.4074    46.366776    19.862135    20.520267            0            0            0        18898    10505.062    8362.4748    7986.6852   -621.17908   -948.28155    21.090832    46.366776    19.862135    20.520267           90           90           90 
  163000    264.58989   -10911.889   -9720.1755   -10911.889            0    8530.7597    46.632694    19.935082    20.427598            0            0            0    18990.039    8396.9172    7224.9227    9970.4391   -160.62246    26.335303   -247.99421    46.632694    19.935082    20.427598           90           90           90 
  163500    270.53219   -10916.098   -9697.6197   -10916.098            0    6996.8425    46.517858    19.726206    20.671225            0            0            0    18968.346    7341.3137    7201.3367    6447.8772   -398.49456    43.605987    117.47358    46.517858    19.726206    20.671225           90           90           90 
  164000    264.81908   -10881.022   -9688.2754   -10881.022            0    8142.3073    46.267331    19.889756    20.591653            0            0            0    18949.385    8347.1346    8045.0776    8034.7096   -428.21564   -454.53618   -469.69824    46.267331    19.889756    20.591653           90           90           90 
  164500    284.59008   -10860.838    -9579.043   -10860.838            0    8295.8872    46.406674    20.027395    20.490813            0            0            0     19044.26    8846.4957    7558.0335    8483.1322    149.49082   -71.017813    754.09831    46.406674    20.027395    20.490813           90           90           90 
  165000    275.90559   -10900.328   -9657.6482   -10900.328            0    7007.5221    46.412359    19.929419    20.518299            0            0            0    18978.838    7290.9355    6906.1114    6825.5193   -220.64777    -880.7404    554.29248    46.412359    19.929419    20.518299           90           90           90 
  165500    270.60128   -10893.101   -9674.3118   -10893.101            0    7886.8485    46.647949     19.67111    20.655577            0            0            0    18953.908    7805.5712    8091.6833    7763.2911   -216.07386    642.82392    474.77341    46.647949     19.67111    20.655577           90           90           90 
  166000    265.73161   -10853.796   -9656.9393   -10853.796            0    8089.8294    46.410388      20.0077    20.429275            0            0            0    18969.912    8430.1302    6945.5436    8893.8144    136.57592       288.64    560.96031    46.410388      20.0077    20.429275           90           90           90 
  166500    261.30038    -10940.35    -9763.452    -10940.35            0    7579.2516    46.155117    19.858735    20.677868            0            0            0    18952.967    8080.4081    7552.3681    7104.9786   -56.044975    380.22789    400.92225    46.155117    19.858735    20.677868           90           90           90 
  167000    255.61922   -10900.623   -9749.3131   -10900.623            0    8079.9559    46.506477    19.911198    20.465497            0            0            0    18951.044    7692.3243    8095.7164     8451.827    14.902728   -381.94465    833.46706    46.506477    19.911198    20.465497           90           90           90 
  167500    268.47378   -10924.672   -9715.4649   -10924.672            0    7375.6667    46.508635    19.937934    20.538356            0            0            0    19044.933    6519.8474     8362.128    7245.0249   -328.89113   -330.78534   -545.07272    46.508635    19.937934    20.538356           90           90           90 
  168000    271.28995   -10840.607   -9618.7159   -10840.607            0    9049.4168    46.188432    19.803751    20.676244            0            0            0    18912.647    9823.7416    7752.7029    9571.8059     830.7683   -560.49095    47.717947    46.188432    19.803751    20.676244           90           90           90 
  168500    277.32573   -10906.793   -9657.7172   -10906.793            0    9183.4274    46.536075    19.811654    20.523689            0            0            0    18921.951    8560.6808    9951.8853    9037.7161     251.0278    -251.7908    101.61002    46.536075    19.811654    20.523689           90           90           90 
  169000    269.99193   -10919.256   -9703.2115   -10919.256            0    8150.0528    46.743193    19.904767    20.506895            0            0            0    19079.869    8025.7768    7861.8847     8562.497    141.12101   -419.52418   -312.03827    46.743193    19.904767    20.506895           90           90           90 
  169500    276.47546   -10895.705   -9650.4587   -10895.705            0    8477.9922    45.891255    19.955819    20.624339            0            0            0     18887.72    8413.3751      8930.57    8090.0316    457.00637    386.85473   -530.56923    45.891255    19.955819    20.624339           90           90           90 
  170000    266.59369   -10915.592   -9714.8531   -10915.592            0     7951.947     46.52317    19.914785    20.436085            0            0            0    18934.012    7733.0939    8191.1773    7931.5699    461.36537    517.61063   -1112.5587     46.52317    19.914785    20.436085           90           90           90 
  170500    250.07326   -10895.276   -9768.9451   -10895.276            0    7673.2563    46.279009    19.787356    20.661675            0            0            0    18920.706    8693.3698    7334.3991    6992.0001    127.36824   -494.07109   -433.88146    46.279009    19.787356    20.661675           90           90           90 
  171000    267.04653   -10904.585   -9701.8062   -10904.585            0    6178.5272    46.675222    19.828696    20.499211            0            0            0      18972.2    5759.9113    6474.2033    6301.4671   -119.24916   -81.677891    438.59217    46.675222    19.828696    20.499211           90           90           90 
  171500    268.69029   -10871.639   -9661.4566   -10871.639            0    8091.5197     46.69901    19.866524    20.453854            0            0            0    18976.001    6482.5158    8556.5614    9235.4818    96.356974   -370.09423    638.54513     46.69901    19.866524    20.453854           90           90           90 
  172000    268.34401   -10874.267   -9665.6446   -10874.267            0    8567.1601    46.123959    19.822668    20.700461            0            0            0     18926.43    7747.3171    9257.0288    8697.1346    214.93747   -103.11775    103.52951    46.123959    19.822668    20.700461           90           90           90 
  172500    274.23004    -10854.23   -9619.0967    -10854.23            0    7135.2814    46.562489    19.923111    20.459562            0            0            0    18979.714    6163.3352    7542.8584    7699.6507   -182.49847   -322.36468   -541.02796    46.562489    19.923111    20.459562           90           90           90 
  173000    275.62715   -10898.819   -9657.3929   -10898.819            0    8638.2194    46.396064    19.822726    20.534371            0            0            0    18885.388    8232.0658    8963.6472    8718.9453    272.95608   -27.907305    527.05476    46.396064    19.822726    20.534371           90           90           90 
  173500    265.54111   -10888.758   -9692.7595   -10888.758            0    7824.6293    46.651011    19.873556    20.571257            0            0            0    19072.054    7680.7541    7546.2619    8246.8719    305.75009    159.61817    712.80899    46.651011    19.873556    20.571257           90           90           90 
  174000    254.01107   -10904.782   -9760.7151   -10904.782            0    7725.9276    46.419864    19.960119    20.516204            0            0            0    19009.207    6478.5382    8634.4445       8064.8    218.68866   -209.71685   -165.66924    46.419864    19.960119    20.516204           90           90           90 
  174500    267.16699   -10868.894   -9665.5725   -10868.894            0    9480.5178    46.072203    19.850626    20.602508            0            0            0    18842.272    9702.7493    9492.1558    9246.6482   -399.60763    559.33857   -956.54865    46.072203    19.850626    20.602508           90           90           90 
  175000    262.69431   -10872.992   -9689.8155   -10872.992            0    8550.1193    46.793259    19.871646    20.368782            0            0            0    18940.097    7582.5256    9298.1214    8769.7111   -603.01246    37.711329    180.07273    46.793259    19.871646    20.368782           90           90           90 
  175500    266.88097   -10923.134   -9721.1012   -10923.134            0    8889.2066    46.437592    19.750135    20.618995            0            0            0    18910.685    9584.5128    8951.7706    8131.3363    384.64021    227.74572   -207.22636    46.437592    19.750135    20.618995           90           90           90 
  176000    267.78198   -10926.784   -9720.6927   -10926.784            0    7493.4235    46.354956    19.909548    20.562295            0            0            0     18977.07    6658.0505    8426.2898      7395.93    559.93393    98.002859   -190.60551    46.354956    19.909548    20.562295           90           90           90 
  176500    272.02192   -10873.716   -9648.5281   -10873.716            0    7629.8996    46.695289    19.917633    20.470744            0            0            0    19039.012     7201.516    7609.0976    8079.0852   -620.50513    211.66417    860.52373    46.695289    19.917633    20.470744           90           90           90 
  177000     265.4751   -10914.621   -9718.9203   -10914.621            0    8323.3888    46.151017    19.831629    20.738725            0            0            0    18981.115    9468.8097    7661.8302    7839.5265   -407.39091   -203.62124     406.1285    46.151017    19.831629    20.738725           90           90           90 
  177500    270.41364   -10924.035   -9706.0912   -10924.035            0    8438.2513    46.715522    19.864355    20.356935            0            0            0    18890.701    7802.4239    8658.3947    8853.9353   -357.77055    -540.1164    208.44238    46.715522    19.864355    20.356935           90           90           90 
  178000    271.89736   -10888.734    -9664.107   -10888.734            0    7681.7348    46.456556    19.922313    20.542383            0            0            0    19012.428       7757.1    7757.5646    7530.5398   -240.26627   -467.65036    783.98763    46.456556    19.922313    20.542383           90           90           90 
  178500    263.00211   -10932.843     -9748.28   -10932.843            0    8039.7746    46.124266    19.861045    20.639258            0            0            0    18907.131    8727.3741    8802.5515    6589.3983   -218.17789   -109.48947    113.23774    46.124266    19.861045    20.639258           90           90           90 
  179000    258.48636   -10889.441    -9725.217   -10889.441            0    8488.9529     46.79719    19.765616    20.406759            0            0            0    18875.747    6637.6188    9942.1552    8887.0846   -112.14739   -891.30581   -693.77478     46.79719    19.765616    20.406759           90           90           90 
  179500    271.98215   -10861.082   -9636.0733   -10861.082            0    7551.0679    46.492507    19.842343    20.584992            0            0            0    18990.072     8060.698    6733.6204    7858.8852   -111.25618   -224.15102    1273.1789    46.492507    19.842343    20.584992           90           90           90 
  180000    268.45234   -10941.782    -9732.672   -10941.782            0    6622.1261    46.126624    19.992926    20.739368            0            0            0    19125.973    8003.3999    5173.6388    6689.3396    -495.5024    1552.8239    221.40617    46.126624    19.992926    20.739368           90           90           90 
  180500    272.72298    -10858.76   -9630.4148    -10858.76            0    8100.0719    46.508183    19.969075     20.41806            0            0            0    18962.771    7704.1457    7764.1973    8831.8728    175.00912   -735.24144   -693.62459    46.508183    19.969075     20.41806           90           90           90 
  181000    267.33655   -10884.738   -9680.6526   -10884.738            0    9825.7995    46.398885    19.772156     20.58018            0            0            0     18880.38    10196.581    10312.086    8968.7313    372.92995    198.84652   -823.95583    46.398885    19.772156     20.58018           90           90           90 
  181500    277.02062   -10948.802   -9701.0997   -10948.802            0    7043.4101    46.473085    19.877267    20.601169            0            0            0    19030.494    5992.3156    8365.9816    6771.9331    23.387185   -252.99851    37.321667    46.473085    19.877267    20.601169           90           90           90 
  182000    264.43263    -10900.19   -9709.1841    -10900.19            0    8117.9414    46.387971    19.882367    20.523423            0            0            0    18928.807    7345.5131    8460.7761    8547.5349   -216.04225    547.38798   -544.74271    46.387971    19.882367    20.523423           90           90           90 
  182500    268.90852   -10920.475   -9709.3102   -10920.475            0     7053.552    46.647143    19.865925    20.581008            0            0            0    19072.186    6165.5555    7966.6185    7028.4821    474.18327   -424.37528     1455.425    46.647143    19.865925    20.581008           90           90           90 
  183000    277.08722   -10897.675   -9649.6733   -10897.675            0     8196.569    46.063785    19.901692    20.697546            0            0            0    18974.418    9417.3572    8101.0288    7071.3211     249.9677   -427.82164    72.266103    46.063785    19.901692    20.697546           90           90           90 
  183500    270.63032    -10845.98   -9627.0599    -10845.98            0    7180.7246    46.591289    20.003542    20.331942            0            0            0    18949.184    7465.4158    5885.3579    8191.4002   -463.46788   -263.33048   -32.934118    46.591289    20.003542    20.331942           90           90           90 
  184000    269.68336   -10861.291   -9646.6362   -10861.291            0    8070.4968    46.463078    19.761058    20.654142            0            0            0    18963.799    8134.8522    8548.4119    7528.2263    322.38762   -253.33345     144.6519    46.463078    19.761058    20.654142           90           90           90 
  184500    272.62635     -10896.7   -9668.7897     -10896.7            0    7889.0999     46.49399      19.8493    20.612151            0            0            0    19022.401    7933.0189    8280.8587    7453.4221    183.34213    835.62745    783.55873     46.49399      19.8493    20.612151           90           90           90 
  185000    271.18555   -10962.317   -9740.8961   -10962.317            0    7450.0586    46.700993    19.849948    20.501968            0            0            0    19005.576    6759.7884    7438.5322    8151.8552    241.84618   -644.72609    834.92397    46.700993    19.849948    20.501968           90           90           90 
  185500    276.34206   -10884.796   -9640.1504   -10884.796            0    8736.5231    45.855764    19.959619    20.607852            0            0            0    18861.616    9457.7448    8730.3872    8021.4372       32.221   -631.07413   -207.69349    45.855764    19.959619    20.607852           90           90           90 
  186000    272.57742   -10887.419   -9659.7293   -10887.419            0    7450.6284    46.324705    19.961372    20.589003            0            0            0    19038.747    9009.8784    6770.9151    6571.0919   -360.39071   -81.627249   -181.98052    46.324705    19.961372    20.589003           90           90           90 
  186500    269.39207   -10940.632    -9727.289   -10940.632            0    6251.2368    46.589662    19.922621    20.588739            0            0            0    19110.223    6012.7112    7034.2864    5706.7128   -305.18748   -154.92481   -180.20957    46.589662    19.922621    20.588739           90           90           90 
  187000    260.43292   -10887.177    -9714.186   -10887.177            0    7283.3552    46.450203    19.852087    20.529067            0            0            0     18930.54    6961.9941    7454.7503     7433.321   -542.70806   -251.91071    32.483321    46.450203    19.852087    20.529067           90           90           90 
  187500    277.41153   -10939.015   -9689.5519   -10939.015            0    7739.9416    46.829055    19.885319    20.510879            0            0            0    19099.951    8194.5284    7426.1555    7599.1408   -567.29687    -523.6258    350.67455    46.829055    19.885319    20.510879           90           90           90 
  188000    279.05955   -10890.532   -9633.6467   -10890.532            0    7813.5886    46.420092    19.758422    20.686356            0            0            0    18973.273    8888.4367    6879.8546    7672.4744     64.27229   -66.845412   -729.84303    46.420092    19.758422    20.686356           90           90           90 
  188500    268.30086   -10879.438   -9671.0096   -10879.438            0     7919.474    46.411653    20.025692    20.457566            0            0            0    19013.783    6819.5934    8765.7215    8173.1071    375.16217    391.55055    253.34322    46.411653    20.025692    20.457566           90           90           90 
  189000    264.71005    -10908.27   -9716.0144    -10908.27            0    6738.2722    46.217119    19.968695    20.622376            0            0            0    19032.299    6960.9739    7424.2245    5829.6183     205.2458   -201.42325    205.30385    46.217119    19.968695    20.622376           90           90           90 
  189500    263.02071   -10889.425   -9704.7785   -10889.425            0     8818.691    46.339849    19.853567    20.554901            0            0            0    18910.741    8743.2577    8189.1269    9523.6884    609.80104   -1530.5057   -97.772719    46.339849    19.853567    20.554901           90           90           90 
  190000    273.46506   -10841.768   -9610.0803   -10841.768            0    8768.4633    46.185594    19.891273    20.558079            0            0            0    18886.506    8477.2279    8641.2808    9186.8811   -53.844846   -1182.0773   -867.70485    46.185594    19.891273    20.558079           90           90           90 
  190500    268.58743   -10864.801   -9655.0823   -10864.801            0    8599.8619    46.255598    20.021833    20.479604            0            0            0    18966.609    8865.8889    8175.7031    8757.9938    217.23324    1135.5686    901.69726    46.255598    20.021833    20.479604           90           90           90 
  191000    268.35524   -10879.735   -9671.0618   -10879.735            0     8575.915    46.010558    19.914271    20.676264            0            0            0    18944.973    9165.1939    8460.1189    8102.4324     10.84936    967.23422   -622.33573    46.010558    19.914271    20.676264           90           90           90 
  191500    266.88338   -10871.361   -9669.3171   -10871.361            0    8880.8247     46.54082    19.916514    20.453317            0            0            0    18958.812    8548.9066    9163.0975    8930.4701   -495.99865     391.1778    61.389357     46.54082    19.916514    20.453317           90           90           90 
  192000    252.62814    -10901.09   -9763.2517    -10901.09            0    6273.4369    46.349986    19.943648    20.566829            0            0            0    19011.726    4515.2205    7635.4013    6669.6888    -108.6113    403.86124   -365.53158    46.349986    19.943648    20.566829           90           90           90 
  192500    271.22791    -10889.67   -9668.0585    -10889.67            0    7559.3684    46.353792    19.924726    20.562669            0            0            0    18991.405    7130.4947    6923.0916    8624.5188   -83.107001    322.27467     991.1663    46.353792    19.924726    20.562669           90           90           90 
  193000    276.67791   -10919.031    -9672.873   -10919.031            0     8830.633    46.098883    20.037894    20.497732            0            0            0    18934.258     9034.127    8718.5721       8739.2   -48.130265    270.40832   -96.578554    46.098883    20.037894    20.497732           90           90           90 
  193500    262.78377   -10908.415   -9724.8356   -10908.415            0    8301.3497    46.500961    19.730549    20.618262            0            0            0    18917.038     8911.439    8745.2126    7247.3975   -291.95345   -16.675868    439.96199    46.500961    19.730549    20.618262           90           90           90 
  194000    271.95294   -10882.694   -9657.8169   -10882.694            0    8204.6848    46.704288    19.789059    20.483881            0            0            0    18931.897    9458.4361    7421.7842    7733.8341    97.382159   -247.95418     631.5904    46.704288    19.789059    20.483881           90           90           90 
  194500    274.79477   -10865.308    -9627.631   -10865.308            0    8415.3982    46.112808    20.067153    20.457022            0            0            0    18929.961    7830.0961    8499.1347    8916.9638   -38.551337    794.93878   -693.71819    46.112808    20.067153    20.457022           90           90           90 
  195000    270.15421   -10907.874   -9691.0988   -10907.874            0    7801.7264    46.375421    19.781248    20.624802            0            0            0    18920.445    6277.2043     9628.083    7499.8918    163.87393    627.68219    475.71195    46.375421    19.781248    20.624802           90           90           90 
  195500    280.50928   -10857.651   -9594.2366   -10857.651            0    9278.9024    46.713516    19.787214    20.456235            0            0            0    18908.319    8841.3102    9020.0749    9975.3221   -663.57162   -1297.8863    687.20666    46.713516    19.787214    20.456235           90           90           90 
  196000     268.4771    -10869.42   -9660.1976    -10869.42            0     8221.581    46.611485    19.838007    20.522227            0            0            0    18976.472    9342.2971    7019.7593    8302.6866    -176.1681    1060.2835    241.42798    46.611485    19.838007    20.522227           90           90           90 
  196500    269.76046   -10891.332   -9676.3298   -10891.332            0    6502.7945    46.733194    19.832387    20.659333            0            0            0    19147.706    7060.5797     7000.271    5447.5328    541.97732   -328.31137   -323.39382    46.733194    19.832387    20.659333           90           90           90 
  197000    277.24859     -10856.7    -9607.971     -10856.7            0    8813.8022    45.883804    19.917493     20.58505            0            0            0    18812.478     8720.387    9656.0706    8064.9489   -438.90847   -611.75465     324.1921    45.883804    19.917493     20.58505           90           90           90 
  197500    260.70866   -10872.824    -9698.591   -10872.824            0    8616.4516    46.823595    19.899797    20.292389            0            0            0    18908.043    8142.0524     8432.913    9274.3894    612.30234    -164.8238    633.56711    46.823595    19.899797    20.292389           90           90           90 
  198000    261.53186   -10872.795   -9694.8545   -10872.795            0    8263.6789     46.31837     19.86225    20.716816            0            0            0    19059.202    8900.6637    7818.8579    8071.5149     162.8985    291.52567    532.58094     46.31837     19.86225    20.716816           90           90           90 
  198500     267.0363   -10886.441   -9683.7084   -10886.441            0      8281.04    46.105318    19.933049    20.577099            0            0            0    18910.756    8516.6786    8140.9877    8185.4537    337.84417    34.930782   -120.03644    46.105318    19.933049    20.577099           90           90           90 
  199000    269.85349   -10874.319   -9658.8982   -10874.319            0    7138.4053    46.395016    20.050749    20.475238            0            0            0    19047.189    7148.1388    6536.4219    7730.6553    314.27796    36.372229    -640.4736    46.395016    20.050749    20.475238           90           90           90 
  199500    276.06582   -10871.986   -9628.5848   -10871.986            0    8068.6846    46.645285    19.790796    20.506054            0            0            0    18930.109    7324.2276    8805.0337    8076.7925   -534.48033    410.85079    318.94003    46.645285    19.790796    20.506054           90           90           90 
  200000    270.86516   -10893.979   -9674.0014   -10893.979            0    8358.2304    46.156399    19.859051    20.636411            0            0            0    18915.794     9143.542    8912.1538    7018.9953   -15.928377    927.93142   -176.54148    46.156399    19.859051    20.636411           90           90           90 
  200500    263.57089   -10912.226   -9725.1017   -10912.226            0    8166.9916    46.128155    20.048115    20.381461            0            0            0     18848.42    8666.2953     6887.426    8947.2536    519.94319    -660.5127   -20.587314    46.128155    20.048115    20.381461           90           90           90 
  201000    274.35977   -10879.354   -9643.6365   -10879.354            0    8185.1875    46.346209    19.780589    20.705866            0            0            0    18982.213    8633.9218    7614.4135    8307.2272    356.78128    -617.6237   -90.969376    46.346209    19.780589    20.705866           90           90           90 
  201500    267.99808    -10876.45   -9669.3859    -10876.45            0    7475.1246    46.204526    19.961134    20.569047            0            0            0    18970.724    8166.9858    6363.1734    7895.2148    428.77495   -604.75119    13.358829    46.204526    19.961134    20.569047           90           90           90 
  202000    269.26024   -10897.205   -9684.4555   -10897.205            0    6472.4763    46.182791    20.026576    20.564355            0            0            0    19019.626    7413.0146    5525.7899    6478.6243     70.21507    243.41109    398.51747    46.182791    20.026576    20.564355           90           90           90 
  202500    265.46143   -10905.488   -9709.8485   -10905.488            0    9328.8007    46.459704    19.838635       20.505            0            0            0      18899.4     9900.207    8542.4231    9543.7719    48.464212    169.85804   -626.03977    46.459704    19.838635       20.505           90           90           90 
  203000    262.97056   -10932.114   -9747.6931   -10932.114            0    6504.2981    46.655625    19.815712    20.617972            0            0            0    19061.613    6844.9198    6481.1652    6186.8094     512.9802   -173.95114    230.91436    46.655625    19.815712    20.617972           90           90           90 
  203500    272.00258   -10903.404   -9678.3033   -10903.404            0    8708.9101    46.415461    19.808123    20.538759            0            0            0      18883.4    8496.1571    9601.1446    8029.4285    149.13266   -241.58448    166.27134    46.415461    19.808123    20.538759           90           90           90 
  204000    266.70507   -10877.915   -9676.6744   -10877.915            0    7889.2308    46.573456    19.818604    20.540895            0            0            0    18959.675    7264.3372    8466.9264    7936.4287   -111.20893    958.39478    575.75907    46.573456    19.818604    20.540895           90           90           90 
  204500    257.56407   -10861.529   -9701.4593   -10861.529            0    8133.5602     46.01798    20.075079    20.543092            0            0            0    18978.009    8739.6529    7388.4497    8272.5779   -32.927675    -1303.527    682.65408     46.01798    20.075079    20.543092           90           90           90 
  205000    272.92664   -10950.988   -9721.7252   -10950.988            0      7849.89    46.373985     19.88129    20.552316            0            0            0    18948.715    8090.3056    7515.7827    7943.5816   -270.44578   0.14193963   -149.66852    46.373985     19.88129    20.552316           90           90           90 
  205500    278.48339    -10911.92   -9657.6293    -10911.92            0    6868.5087    46.781306    19.829537    20.541263            0            0            0    19055.137    6772.2168    7094.3154     6738.994   -301.98824   -206.61721   -639.20243    46.781306    19.829537    20.541263           90           90           90 
  206000    264.60729   -10898.966   -9707.1735   -10898.966            0    8948.3036    46.451185    19.735483    20.522635            0            0            0     18813.85      8924.12    9984.4009      7936.39   -458.96199   -223.98757    182.18049    46.451185    19.735483    20.522635           90           90           90 
  206500    274.31889   -10851.808   -9616.2742   -10851.808            0    9644.0501    46.100454    19.751812    20.610468            0            0            0    18767.222     9575.226    10503.404      8853.52    6.3773878    342.72625    392.13255    46.100454    19.751812    20.610468           90           90           90 
  207000    263.30842   -10851.232   -9665.2899   -10851.232            0    7818.0247    46.592911    19.916222    20.528646            0            0            0    19049.655    9289.3659    6738.4567    7426.2515    155.92233    234.01214    246.98635    46.592911    19.916222    20.528646           90           90           90 
  207500    266.46287   -10895.734   -9695.5842   -10895.734            0    6553.3726    46.566528    19.917122    20.544756            0            0            0     19054.67    6251.1795    6924.4728    6484.4656   -105.44907   -446.72134   -304.14032    46.566528    19.917122    20.544756           90           90           90 
  208000    268.34597   -10868.113   -9659.4821   -10868.113            0     7768.286     46.13603    19.993471    20.493714            0            0            0    18903.799    7768.2415    7338.9901    8197.6264   -66.298755   -341.08106    1203.9155     46.13603    19.993471    20.493714           90           90           90 
  208500    272.44491   -10882.379   -9655.2858   -10882.379            0    8719.1699    46.282794    19.918626    20.458351            0            0            0    18860.342    9753.2012    7872.7125     8531.596    221.43596    373.03419    227.29338    46.282794    19.918626    20.458351           90           90           90 
  209000    279.92512   -10876.263   -9615.4794   -10876.263            0    8403.6862    46.489849    19.762768    20.702352            0            0            0    19020.661    7691.3566    9068.8823    8450.8197   -71.164727   -275.51657   -399.59465    46.489849    19.762768    20.702352           90           90           90 
  209500    276.80451   -10895.725   -9648.9962   -10895.725            0     7685.804    46.560952    20.038198    20.342451            0            0            0    18979.457    7841.9228    7134.8937    8080.5956   -281.96892   -405.12207   -382.89367    46.560952    20.038198    20.342451           90           90           90 
  210000    268.10918   -10892.466   -9684.9016   -10892.466            0     8986.818    46.292461    19.728164    20.660244            0            0            0    18868.284    7416.7626    10621.775    8921.9163   -719.33167   -979.30775   -279.07015    46.292461    19.728164    20.660244           90           90           90 
  210500     261.8427    -10849.21   -9669.8694    -10849.21            0    7061.9544     46.66657     19.80017    20.617964            0            0            0    19051.122    7091.1747    7195.0205     6899.668   -182.43964    312.99344   -43.900509     46.66657     19.80017    20.617964           90           90           90 
  211000    271.67017   -10890.878   -9667.2742   -10890.878            0    8237.3535    46.477605     19.85833    20.498922            0            0            0    18919.841    7934.9008    8478.6243    8298.5355   -584.08123   -94.422321    -226.3459    46.477605     19.85833    20.498922           90           90           90 
  211500    260.46538   -10916.853   -9743.7163   -10916.853            0    7219.6811    46.121623    19.982668    20.689541            0            0            0    19068.166    8228.7026    6606.9458    6823.3949   -609.80868   -117.11427    163.78476    46.121623    19.982668    20.689541           90           90           90 
  212000    266.85739   -10923.985   -9722.0583   -10923.985            0    7235.4383    46.857806    19.946938    20.400045            0            0            0    19067.305    6671.9007     6985.709    8048.7053   -173.65238   -749.46905    697.48329    46.857806    19.946938    20.400045           90           90           90 
  212500    269.84466   -10839.816   -9624.4349   -10839.816            0    7588.1366    46.623962    19.814986    20.546412            0            0            0    18981.867    6972.4125    8205.9148    7586.0824   -307.20967   -68.950729   -453.72529    46.623962    19.814986    20.546412           90           90           90 
  213000     264.2318   -10918.932    -9728.831   -10918.932            0    8056.2767    46.483842    19.746005    20.606626            0            0            0    18914.208    8631.2239    7004.0864    8533.5197    446.94126   -582.67984   -306.80811    46.483842    19.746005    20.606626           90           90           90 
  213500    262.42001   -10834.967   -9653.0261   -10834.967            0    7385.3787    46.783722    19.883109    20.530647            0            0            0    19097.728    5919.0805    8615.5834    7621.4721    218.47929   -195.45755   -527.27624    46.783722    19.883109    20.530647           90           90           90 
  214000    271.40756   -10883.094   -9660.6735   -10883.094            0    8068.3185    46.230066     19.84872    20.631618            0            0            0    18931.731    8227.2527    8560.6732    7417.0295    119.64653    615.61713     723.2068    46.230066     19.84872    20.631618           90           90           90 
  214500    266.53236   -10890.544   -9690.0813   -10890.544            0    7786.5082    46.326632    20.006966    20.514679            0            0            0     19014.14    8301.7405    7404.7204    7653.0636     192.3133    967.94308   -706.03722    46.326632    20.006966    20.514679           90           90           90 
  215000    257.77826   -10890.382    -9729.348   -10890.382            0    8585.2585    46.618658    19.707806    20.490739            0            0            0    18825.897    8406.8754     8715.181    8633.7192   -548.85284    238.00741    1260.6402    46.618658    19.707806    20.490739           90           90           90 
  215500    265.72018   -10845.363   -9648.5584   -10845.363            0    7927.1366    46.052603    19.892895    20.667225            0            0            0     18933.65    8159.4873    7642.0985    7979.8241   -206.87963    518.29711    260.10978    46.052603    19.892895    20.667225           90           90           90 
  216000    272.57983   -10932.755   -9705.0546   -10932.755            0    6545.9318    46.620042    19.929471    20.557994            0            0            0    19100.695    6291.6546    6265.0014    7081.1395    304.41173    548.93701    749.09136    46.620042    19.929471    20.557994           90           90           90 
  216500    270.56573   -10871.296   -9652.6672   -10871.296            0    9393.7964    46.483212    19.743218    20.554117            0            0            0    18863.092    8246.9241     9980.812    9953.6531   -384.27374    138.72882    484.50002    46.483212    19.743218    20.554117           90           90           90 
  217000    278.24371   -10906.127   -9652.9162   -10906.127            0    7823.9731    46.276251    19.959915     20.59641            0            0            0    19024.287    7738.1225    8079.9831    7653.8138   -716.11012    821.50694    839.40869    46.276251    19.959915     20.59641           90           90           90 
  217500    268.14496   -10923.906   -9716.1796   -10923.906            0    6230.4737    46.402515    20.060479    20.598741            0            0            0    19174.476     6637.273    6038.8173    6015.3309    275.32841    542.01832     160.5242    46.402515    20.060479    20.598741           90           90           90 
  218000    263.36607   -10863.444   -9677.2417   -10863.444            0    8028.8556     46.34082    19.809037    20.646497            0            0            0    18952.804    8608.3748     7215.283    8262.9091   -73.181975    183.51422    212.50628     46.34082    19.809037    20.646497           90           90           90 
  218500    272.17006   -10874.432   -9648.5767   -10874.432            0    7069.0735    46.603842    19.938926    20.522668            0            0            0     19070.29    5974.9042    8273.1947    6959.1216    128.82344    323.84088   -578.17914    46.603842    19.938926    20.522668           90           90           90 
  219000    266.17064   -10879.498    -9680.664   -10879.498            0    8913.2371    46.268724    19.842967    20.599851            0            0            0    18912.904    8681.2244    9332.4684    8726.0186    367.19676   -415.78556    145.63494    46.268724    19.842967    20.599851           90           90           90 
  219500    268.23604   -10952.371   -9744.2351   -10952.371            0    8163.7509    46.399101    19.825351    20.665863            0            0            0    19010.082    9354.5991    6546.9644    8589.6892    -160.2694   -866.59663    88.996754    46.399101    19.825351    20.665863           90           90           90 
  220000    272.72035    -10914.48   -9686.1463    -10914.48            0    8643.2999    46.518127    19.911373    20.469341            0            0            0    18959.518    8891.8316    8185.7205    8852.3475   -98.043106   -508.60023   -121.94845    46.518127    19.911373    20.469341           90           90           90 
  220500    270.34537   -10910.835   -9693.1982   -10910.835            0    8002.3966    46.313401    19.839708    20.560473            0            0            0    18891.875    6979.9637    8612.0626    8415.1634    402.04713    269.62327    145.90278    46.313401    19.839708    20.560473           90           90           90 
  221000    268.78778    -10906.85   -9696.2292    -10906.85            0    6924.8419    46.796838    19.892717     20.54234            0            0            0    19123.199    6533.3123     7337.526    6903.6873     498.6296    859.07451    513.53669    46.796838    19.892717     20.54234           90           90           90 
  221500    270.51331   -10907.371   -9688.9781   -10907.371            0    8156.0285    46.398743     19.87733    20.573649            0            0            0    18974.729    7895.3553    8975.3968    7597.3333   -485.85423   -120.77722    778.91749    46.398743     19.87733    20.573649           90           90           90 
  222000    276.85535   -10946.675   -9699.7178   -10946.675            0    9400.8167    46.231489    19.853505    20.491529            0            0            0    18808.296    8506.9111    10090.841    9604.6982     271.7597    353.95721    221.45041    46.231489    19.853505    20.491529           90           90           90 
  222500    263.71107   -10846.988    -9659.232   -10846.988            0     8153.757    46.700319    19.763216    20.563235            0            0            0    18978.807    7611.5146    8717.7149    8132.0415   -307.99152    320.63797   -137.96914    46.700319    19.763216    20.563235           90           90           90 
  223000    268.77307   -10841.228   -9630.6727   -10841.228            0    8272.8232    46.196709    19.874682    20.657489            0            0            0    18966.568    10157.298    6760.8218    7900.3493   -6.8802897    262.79556   -203.67475    46.196709    19.874682    20.657489           90           90           90 
  223500    272.41312   -10881.678    -9654.728   -10881.678            0    7927.3775    46.274946    20.120387    20.400311            0            0            0    18994.114    8027.4269    7562.5961    8192.1094    422.11553   -206.36561   -245.37904    46.274946    20.120387    20.400311           90           90           90 
  224000    276.19012   -10888.963   -9645.0013   -10888.963            0    8608.4885    46.144613    19.891029    20.604377            0            0            0    18912.012    9712.6933    7959.8576    8152.9147    -262.8136   -2259.1977    30.665865    46.144613    19.891029    20.604377           90           90           90 
  224500    274.10393    -10925.74   -9691.1751    -10925.74            0    7481.5026    46.866509    19.715383    20.541223            0            0            0    18979.909    6320.7995    7871.3688    8252.3397   -85.020447    -2.225185   -1368.6884    46.866509    19.715383    20.541223           90           90           90 
  225000    269.74314   -10845.043   -9630.1184   -10845.043            0    9126.9972    46.251893    19.976337    20.511602            0            0            0    18951.559     9603.295    8210.0619    9567.6347    61.481086    52.452292   -455.64772    46.251893    19.976337    20.511602           90           90           90 
  225500    270.63848    -10881.91   -9662.9529    -10881.91            0    8001.1615    46.111435    19.901011       20.633            0            0            0    18934.165    8012.2168    7666.4409    8324.8266   -236.70705   -750.41498    257.70941    46.111435    19.901011       20.633           90           90           90 
  226000    266.68789   -10927.323   -9726.1601   -10927.323            0    7840.2339    46.692626     19.81329    20.562022            0            0            0    19022.636    7990.1835     7603.987    7926.5314   -64.670617    39.263743    469.22155    46.692626     19.81329    20.562022           90           90           90 
  226500    265.36359   -10876.232   -9681.0332   -10876.232            0    8420.9487    46.266918     20.00729    20.484647            0            0            0    18962.139    9223.0783    6630.0081    9409.7596   -515.96888   -96.630892    818.36468    46.266918     20.00729    20.484647           90           90           90 
  227000    268.42528   -10904.129   -9695.1405   -10904.129            0    6735.2666    46.275408    19.945133    20.624682            0            0            0    19035.945    7029.1928    6012.3738    7164.2332    478.10433     791.1175    341.36762    46.275408    19.945133    20.624682           90           90           90 
  227500     275.9889   -10911.508    -9668.453   -10911.508            0    8244.3496    46.655531    19.632712    20.699001            0            0            0     18959.76    8200.3766    9041.5276    7491.1445    -9.534536   -41.037429   -613.76343    46.655531    19.632712    20.699001           90           90           90 
  228000    272.59904   -10865.251   -9637.4636   -10865.251            0    8184.4673    46.685519    19.850799    20.466993            0            0            0     18967.68    9527.3743     7544.145    7481.8827    585.14952    142.01544    195.39741    46.685519    19.850799    20.466993           90           90           90 
  228500    278.55907   -10896.341   -9641.7102   -10896.341            0    7686.1848    46.335742     19.94819    20.521995            0            0            0    18968.771    7749.2135    7790.3123    7519.0286   -162.38698    47.841807    1146.3797    46.335742     19.94819    20.521995           90           90           90 
  229000    278.69355   -10905.969   -9650.7322   -10905.969            0    9006.4415    46.223095    19.724269    20.666899            0            0            0    18842.358    8643.7422    9418.0769    8957.5052    106.64579    719.29473    682.65832    46.223095    19.724269    20.666899           90           90           90 
  229500    264.67108   -10874.242   -9682.1619   -10874.242            0      7934.05    46.734114    19.920208    20.441099            0            0            0    19029.708    6436.5915    9163.4349    8202.1237   -761.99131   -594.36056   -233.35613    46.734114    19.920208    20.441099           90           90           90 
  230000    260.94534   -10896.682   -9721.3834   -10896.682            0    8512.4828    46.554187    19.768556    20.581925            0            0            0    18941.731    8101.6602    8642.4256    8793.3626   -148.09949    792.71888   -469.26234    46.554187    19.768556    20.581925           90           90           90 
  230500    264.30653   -10894.871    -9704.433   -10894.871            0      7971.26    46.247678    19.843684    20.688259            0            0            0    18986.119    9774.4585    7126.6845    7012.6371    307.86949    -26.05094    470.52756    46.247678    19.843684    20.688259           90           90           90 
  231000    275.14478    -10871.41   -9632.1565    -10871.41            0    8708.1785    46.499343    19.906546    20.390497            0            0            0    18874.286    7597.9105    8895.7956    9630.8294    16.712551    205.41521    431.90766    46.499343    19.906546    20.390497           90           90           90 
  231500    268.49945   -10929.669   -9720.3465   -10929.669            0    8254.6366    46.276097    19.869273    20.541128            0            0            0        18887    8740.5637    7390.9883    8632.3579   -479.39929    1278.1414    1191.1192    46.276097    19.869273    20.541128           90           90           90 
  232000     263.2086   -10887.569   -9702.0764   -10887.569            0    7732.0704    45.967932    19.983821    20.719598            0            0            0    19033.332    9034.1151    7228.5793    6933.5169    216.37374   -375.31314    1041.6526    45.967932    19.983821    20.719598           90           90           90 
  232500    273.26045   -10909.245   -9678.4791   -10909.245            0    7588.8898    46.472341    20.016994    20.434505            0            0            0    19008.924    7165.5983    7100.7251     8500.346    40.379835   -53.938285    988.55651    46.472341    20.016994    20.434505           90           90           90 
  233000    272.79117   -10896.483     -9667.83   -10896.483            0    9224.4359    46.497839    19.747303    20.597724            0            0            0    18912.973    8792.9863    9773.4915      9106.83   -275.66457    311.84715   -401.75657    46.497839    19.747303    20.597724           90           90           90 
  233500    272.10487   -10897.969   -9672.4073   -10897.969            0    7201.0453    46.440692    19.904093    20.522266            0            0            0    18969.959      6298.23    7688.2148    7616.6909    804.83761    689.35666    945.37113    46.440692    19.904093    20.522266           90           90           90 
  234000    272.13267   -10903.464   -9677.7769   -10903.464            0    8270.5789    46.232324    20.041554    20.389102            0            0            0    18891.882     8468.404    8152.1781    8191.1547    424.94601   -639.75543    577.30593    46.232324    20.041554    20.389102           90           90           90 
  234500    261.04059    -10911.77   -9736.0423    -10911.77            0    7491.8095    46.398272    19.832938    20.719361            0            0            0    19066.247    8506.6506    6481.2002    7487.5777    744.08708    376.19567    128.46711    46.398272    19.832938    20.719361           90           90           90 
  235000    270.66514   -10909.222   -9690.1451   -10909.222            0     8712.174    46.508319    19.804609    20.430287            0            0            0    18817.909      8081.66    8798.0172    9256.8449    119.76186   -483.91585   -346.47514    46.508319    19.804609    20.430287           90           90           90 
  235500    279.83255   -10858.285   -9597.9177   -10858.285            0    6765.2712    46.537309    19.918919    20.672296            0            0            0    19162.658    6505.1794    6532.8592     7257.775   -174.38512    164.92316   -39.922882    46.537309    19.918919    20.672296           90           90           90 
  236000    262.47909   -10899.001   -9716.7942   -10899.001            0     7703.741    46.291571    19.952334    20.546867            0            0            0    18977.597      7786.97    8223.1885    7101.0646    435.82128    347.67113   -163.95421    46.291571    19.952334    20.546867           90           90           90 
  236500    270.42159   -10897.778    -9679.798   -10897.778            0    8945.4684    46.317973    19.915753    20.534476            0            0            0    18942.177    8913.1843    8698.8986    9224.3224   -560.30924   -699.99905    117.51562    46.317973    19.915753    20.534476           90           90           90 
  237000    263.60952   -10889.031   -9701.7325   -10889.031            0    8008.2188    46.221887    19.888996    20.595402            0            0            0    18933.496    8343.9188    7312.9045    8367.8331    103.21888    805.08795    -643.9197    46.221887    19.888996    20.595402           90           90           90 
  237500    257.23035   -10912.383   -9753.8169   -10912.383            0    6789.2592    46.873837    19.821256    20.504992            0            0            0    19051.153    6382.4224    6982.0669    7003.2884   -26.814492    265.29519    647.74973    46.873837    19.821256    20.504992           90           90           90 
  238000     272.8624   -10862.199   -9633.2256   -10862.199            0    7883.0463    46.426964    19.822349    20.614425            0            0            0     18971.28    7950.8181    7949.3736    7748.9473    -47.25307   -33.356018   -458.45646    46.426964    19.822349    20.614425           90           90           90 
  238500    269.04248   -10909.671   -9697.9028   -10909.671            0    7299.5725    46.177431    19.945497     20.69542            0            0            0     19061.14    6499.3276    8607.7937    6791.5962    69.877763    51.030972   -47.137688    46.177431    19.945497     20.69542           90           90           90 
  239000    274.35957   -10913.357   -9677.6409   -10913.357            0    8354.3987    46.440022     19.97865    20.418803            0            0            0    18944.748    8532.2048    8314.3495    8216.6419   -58.353594   -415.35849   -465.11368    46.440022     19.97865    20.418803           90           90           90 
  239500     280.2614   -10874.624   -9612.3251   -10874.624            0    8929.8574    46.387723    19.844627    20.597239            0            0            0    18960.728    8729.4653    10516.986    7543.1209    -248.4478    363.87134    801.41614    46.387723    19.844627    20.597239           90           90           90 
  240000    266.65012   -10885.162   -9684.1689   -10885.162            0    8267.7031    46.169325    19.944256    20.504683            0            0            0    18880.975    7080.1996    8776.2938    8946.6157    24.785991   -920.61632    905.09071    46.169325    19.944256    20.504683           90           90           90 
  240500     263.8928   -10875.193   -9686.6189   -10875.193            0    8293.9758    46.180619    20.021656    20.476355            0            0            0    18932.693    9851.6525    6757.3297    8272.9453   -54.287226   -585.77608   -1105.1387    46.180619    20.021656    20.476355           90           90           90 
  241000    263.70186   -10906.413    -9718.699   -10906.413            0    7712.6667    46.285495    19.888988    20.706659            0            0            0    19061.964    7473.4358     8092.097    7572.4673   -308.74974    301.59041   -285.47695    46.285495    19.888988    20.706659           90           90           90 
  241500    282.46143   -10881.898   -9609.6905   -10881.898            0    7386.1503      46.6234    19.901512    20.452274            0            0            0    18977.177    7648.2195    7542.0012    6968.2302   -480.29291   -592.67879   -965.49213      46.6234    19.901512    20.452274           90           90           90 
  242000    266.14005   -10866.684   -9667.9883   -10866.684            0    8212.6054     46.73393     19.84338    20.556863            0            0            0    19063.595    6824.7022    8460.5717    9352.5422    1.6690375    942.35137   -343.06096     46.73393     19.84338    20.556863           90           90           90 
  242500    269.22171   -10842.128    -9629.552   -10842.128            0    7757.7369    46.350025    19.783857    20.687504            0            0            0    18970.074    6989.4347     8618.884     7664.892    396.92163   -341.63321    409.53432    46.350025    19.783857    20.687504           90           90           90 
  243000    264.73807   -10843.381   -9651.0002   -10843.381            0    8578.6588    46.456075    19.977987    20.456479            0            0            0    18985.635    8023.4819    9531.7987    8180.6959   -871.60198   -524.86722    250.84196    46.456075    19.977987    20.456479           90           90           90 
  243500    268.67851   -10923.171   -9713.0421   -10923.171            0    8425.5722    46.286572    19.794385    20.620361            0            0            0    18892.668    8122.3155    8828.5139     8325.887   -86.006082    1181.5431   -45.294799    46.286572    19.794385    20.620361           90           90           90 
  244000    277.32187    -10917.11   -9668.0514    -10917.11            0    8134.3685    46.637182     19.80196    20.556946            0            0            0    18984.496    7237.3911    8742.9113    8422.8029     -130.631    79.437539    340.95821    46.637182     19.80196    20.556946           90           90           90 
  244500    276.02206   -10875.517   -9632.3121   -10875.517            0     9497.234    46.607565    19.856742    20.455028            0            0            0    18930.605    9583.5446    9229.6412    9678.5161    -244.7009   -422.86631    713.29602    46.607565    19.856742    20.455028           90           90           90 
  245000     271.6684    -10885.34    -9661.744    -10885.34            0    9343.0094    46.310843    19.883378    20.561413            0            0            0    18933.278    9040.8029    10523.622    8464.6033    399.58972     362.9701    -1232.369    46.310843    19.883378    20.561413           90           90           90 
  245500    272.85717   -10834.905   -9605.9547   -10834.905            0    7395.5773    46.452682    19.935082    20.594628            0            0            0    19071.409    7466.8854     7027.998    7691.8484   -511.08189    555.27623    638.53686    46.452682    19.935082    20.594628           90           90           90 
  246000    264.35528   -10886.833   -9696.1758   -10886.833            0    8841.1776    46.418469    19.942285    20.466232            0            0            0    18945.393    8942.3751    8525.6078      9055.55    99.653555    1072.5843    452.30075    46.418469    19.942285    20.466232           90           90           90 
  246500    266.25958   -10902.949   -9703.7149   -10902.949            0    7979.5029    46.258031    19.853544    20.668018            0            0            0    18981.215    8567.0886    8067.1051     7304.315   -52.578953   -549.30351    484.28701    46.258031    19.853544    20.668018           90           90           90 
  247000    277.49009   -10901.898    -9652.082   -10901.898            0    7871.2179    46.509744    20.020548    20.442662            0            0            0    19035.196    8901.2887    6428.5196    8283.8453    308.25441   -850.75789    450.50738    46.509744    20.020548    20.442662           90           90           90 
  247500    265.61019   -10939.946   -9743.6371   -10939.946            0    6793.5606    46.456518    19.921986    20.556922            0            0            0    19025.557    6844.8002    6687.9354    6847.9464    25.004615    1572.0799    1672.6706    46.456518    19.921986    20.556922           90           90           90 
  248000    260.80254     -10918.2   -9743.5445     -10918.2            0    7754.6196    46.506874     19.77795    20.703245            0            0            0    19043.065    7638.2339    8402.2342    7223.3907   -184.72007    428.76244   -87.125368    46.506874     19.77795    20.703245           90           90           90 
  248500    271.25791   -10899.128   -9677.3815   -10899.128            0    7845.9634    46.765803     19.84052    20.423241            0            0            0    18949.865    6441.5831    7623.4547    9472.8523    135.57417   -3.5275446    806.04276    46.765803     19.84052    20.423241           90           90           90 
  249000    265.79704   -10888.014   -9690.8635   -10888.014            0    9469.2597    46.029073    19.891343    20.637568            0            0            0    18895.346    10396.102    9812.9076    8198.7697    66.966129   -793.17308   -127.88471    46.029073    19.891343    20.637568           90           90           90 
  249500    270.53719   -10947.764   -9729.2636   -10947.764            0    8519.2795    46.260249    20.031131    20.416961            0            0            0    18919.278    8904.5581    7713.0049    8940.2756    4.2441939   -965.02715   -160.95368    46.260249    20.031131    20.416961           90           90           90 
  250000    265.93865   -10827.484   -9629.6957   -10827.484            0    6808.7062    46.750789     19.68186    20.738117            0            0            0    19082.022    6972.8688    7132.6088    6320.6411     340.0298   -224.83441    725.87392    46.750789     19.68186    20.738117           90           90           90 
  250500    268.99733   -10872.509   -9660.9437   -10872.509            0    8038.6553    46.568536    19.868932     20.50355            0            0            0    18971.259    8738.7758    7535.7722     7841.418   -44.941633    1419.3853    449.65015    46.568536    19.868932     20.50355           90           90           90 
  251000    275.76642   -10911.534   -9669.4808   -10911.534            0     7574.038    46.342985    19.887648    20.627186            0            0            0    19011.107    7831.6911    7749.3733    7141.0495   -439.68861    108.69618    1000.7504    46.342985    19.887648    20.627186           90           90           90 
  251500    271.89734   -10874.176   -9649.5494   -10874.176            0    7900.5764    46.213675    19.938451    20.644904            0            0            0    19022.815    8208.9094    9174.6489     6318.171    499.24388   -333.95407       529.05    46.213675    19.938451    20.644904           90           90           90 
  252000    269.76931   -10956.999   -9741.9565   -10956.999            0    7333.3661    46.592471     20.00853    20.384557            0            0            0    19003.439     7460.429    6956.3482    7583.3211   -342.16304    377.98548    651.41864    46.592471     20.00853    20.384557           90           90           90 
  252500    271.48703   -10891.903   -9669.1242   -10891.903            0    7499.6605    46.502527    19.813412    20.630613            0            0            0    19008.505    7728.7208    6622.9391    8147.3218    52.647065   -669.38203    509.65607    46.502527    19.813412    20.630613           90           90           90 
  253000    270.52348   -10916.492   -9698.0529   -10916.492            0    7737.8072     46.44224    19.783046    20.614323            0            0            0      18939.8    7677.8425    8217.9575    7317.6215   -472.98599   -507.69205   -666.02966     46.44224    19.783046    20.614323           90           90           90 
  253500    269.85752   -10863.551   -9648.1119   -10863.551            0     8296.435    46.233069     20.01799    20.452951            0            0            0    18929.066    7965.0079    8190.8986    8733.3983   -241.61437   -28.005826    321.92752    46.233069     20.01799    20.452951           90           90           90 
  254000    272.18888   -10905.829   -9679.8891   -10905.829            0    8179.1057    46.324658    19.917833    20.537853            0            0            0    18950.007    7266.5963    8509.1053    8761.6155   -535.08248    753.41251    731.48524    46.324658    19.917833    20.537853           90           90           90 
  254500    283.73874   -10925.649   -9647.6886   -10925.649            0    8031.2114    46.345858    19.812549    20.675498            0            0            0    18984.853    10144.418     6970.775    6978.4408   -99.979348   -354.00936    635.75374    46.345858    19.812549    20.675498           90           90           90 
  255000    270.28982   -10933.047   -9715.6608   -10933.047            0    6807.8206    46.933441    19.965802    20.396258            0            0            0    19112.595    7209.5685    6424.1049    6789.7886   -168.74974   -300.43104   -70.131394    46.933441    19.965802    20.396258           90           90           90 
  255500    269.60282   -10933.871   -9719.5785   -10933.871            0    8566.5761    46.167392    19.887169    20.670459            0            0            0    18978.349    7639.3958    9535.8042    8524.5283    168.39457    314.82161    601.99507    46.167392    19.887169    20.670459           90           90           90 
  256000    270.74728   -10845.397   -9625.9498   -10845.397            0    7524.8043    46.258553    19.965738    20.540368            0            0            0    18970.799    9031.6858    5214.7454    8327.9818   -378.17076   -475.41142   -507.06897    46.258553    19.965738    20.540368           90           90           90 
  256500    266.57231   -10877.839   -9677.1962   -10877.839            0      8209.39    46.270667    20.034877    20.517946            0            0            0    19020.692     8708.354     7538.605     8381.211   -377.79591    115.07143    878.34001    46.270667    20.034877    20.517946           90           90           90 
  257000    278.94322   -10921.784   -9665.4223   -10921.784            0    7526.0562     46.67386    19.784441     20.62191            0            0            0    19042.607    7207.6567    7894.2998    7476.2121   -104.92442    -376.0653    919.54482     46.67386    19.784441     20.62191           90           90           90 
  257500    269.30549   -10948.232   -9735.2795   -10948.232            0    8638.6088    46.432574    19.907072    20.452817            0            0            0    18905.287    7413.3009    9505.1387    8997.3867    75.285738    -549.5393    87.787129    46.432574    19.907072    20.452817           90           90           90 
  258000    267.87227   -10917.407   -9710.9095   -10917.407            0    7795.6397    46.253989    19.964813    20.530994            0            0            0    18959.392    8581.5734    6610.8389    8194.5067   -226.23569    505.11161     300.1255    46.253989    19.964813    20.530994           90           90           90 
  258500    265.29084   -10864.051   -9669.1798   -10864.051            0     8608.624    46.208749    19.920959    20.542425            0            0            0    18909.766    9899.3601     7649.075    8277.4369   -257.70452    -545.9235   -1939.2243    46.208749    19.920959    20.542425           90           90           90 
  259000    271.67326   -10901.044   -9677.4262   -10901.044            0    7785.1877    46.643942      19.7689    20.666315            0            0            0    19056.397    7043.4389    8543.0891     7769.035    19.683097    728.71474    492.89885    46.643942      19.7689    20.666315           90           90           90 
  259500    267.40691   -10904.888   -9700.4863   -10904.888            0     8091.733    46.595524    19.846493    20.553757            0            0            0    19007.246    7545.4547    9456.3613     7273.383    87.734188    699.62843   -47.364707    46.595524    19.846493    20.553757           90           90           90 
  260000     266.2018   -10960.941    -9761.967   -10960.941            0    7199.6451    46.235102    19.977903    20.488752            0            0            0    18925.058    8158.6898    5823.1957    7617.0499   -316.06438    -348.7901    371.58141    46.235102    19.977903    20.488752           90           90           90 
  260500    267.23513   -10880.541   -9676.9132   -10880.541            0    8978.8977    46.373588    19.823148    20.583277            0            0            0      18921.6    8371.7137    9416.9396    9148.0396    142.32145    264.93069   -382.22608    46.373588    19.823148    20.583277           90           90           90 
  261000    263.47065   -10907.917   -9721.2438   -10907.917            0    8049.5578    46.681857    19.732234    20.652655            0            0            0    19023.932    8156.0355    8726.0513    7266.5865    535.65585   -513.02865   -207.10091    46.681857    19.732234    20.652655           90           90           90 
  261500    273.12929   -10855.628   -9625.4527   -10855.628            0    8057.2897    46.485409    19.936867    20.405777            0            0            0    18911.532    8710.1897    7596.6838    7864.9957   -94.572686    73.491753   -657.48797    46.485409    19.936867    20.405777           90           90           90 
  262000    271.55607   -10856.946   -9633.8566   -10856.946            0    7172.2653    46.467366    19.811997     20.69925            0            0            0    19055.963    7848.2438    6767.1812     6901.371   -61.543961   -390.68139    43.881592    46.467366    19.811997     20.69925           90           90           90 
  262500    264.03258   -10907.324   -9718.1206   -10907.324            0    7921.1374    46.546487    20.011243    20.429793            0            0            0    19029.393     7936.479    7877.7411    7949.1922    100.24078    1209.6115   -599.12959    46.546487    20.011243    20.429793           90           90           90 
  263000    280.81177   -10882.294   -9617.5166   -10882.294            0    8241.0889     46.37149    19.959732    20.570519            0            0            0    19039.301    9854.1354    7073.6239    7795.5075   -476.11189    162.88577    200.65074     46.37149    19.959732    20.570519           90           90           90 
  263500    272.87756    -10843.63   -9614.5885    -10843.63            0    9102.3056    45.970266    19.847899    20.652534            0            0            0    18843.645    9187.5028    8980.9925    9138.4216    24.184488   -36.758791    405.94208    45.970266    19.847899    20.652534           90           90           90 
  264000    257.82487   -10849.692   -9688.4481   -10849.692            0    7821.6546    46.725957    19.863773    20.458225            0            0            0     18988.38    7562.1261    8049.4985    7853.3393   -303.59618    44.746689   -692.79032    46.725957    19.863773    20.458225           90           90           90 
  264500    274.46868   -10932.253   -9696.0448   -10932.253            0    7816.6657    46.503806    19.819224    20.553256            0            0            0    18943.306    9074.1491    6167.0148    8208.8333   -529.69489   -199.02644   -577.88983    46.503806    19.819224    20.553256           90           90           90 
  265000    264.25907    -10870.42   -9680.1957    -10870.42            0    7330.2823    46.683907     19.75511    20.629902            0            0            0    19025.839    7292.7945    7235.9998    7462.0527   -55.411777   -841.98391    931.79862    46.683907     19.75511    20.629902           90           90           90 
  265500    270.15232   -10914.732   -9697.9654   -10914.732            0    7015.2622    46.209229     20.06575    20.527576            0            0            0    19033.637    8015.5601    6178.5272    6851.6995   -361.47538    586.22097    1381.9929    46.209229     20.06575    20.527576           90           90           90 
  266000     264.1934   -10900.422   -9710.4936   -10900.422            0    8600.8476    46.094493    19.895859    20.590892            0            0            0    18883.692    9925.5552    7530.1832    8346.8045   -351.78582    330.32623    1180.6329    46.094493    19.895859    20.590892           90           90           90 
  266500    274.41518   -10901.029   -9665.0616   -10901.029            0    8396.4596    46.650283    19.785459    20.530053            0            0            0    18949.183     7182.741    9629.5567    8377.0811    329.47593    25.909888     836.1801    46.650283    19.785459    20.530053           90           90           90 
  267000    265.48337    -10833.21   -9637.4721    -10833.21            0     7883.749    46.714217    19.838472    20.570345            0            0            0    19063.335    8073.7314    8117.7331    7459.7825   -301.13806   -330.84471    880.29022    46.714217    19.838472    20.570345           90           90           90 
  267500    275.16373   -10916.249   -9676.9101   -10916.249            0    9003.3929    46.071591    19.859713    20.662456            0            0            0    18905.498    10713.111    7713.0423    8584.0254    310.28322   -989.74645    409.54787    46.071591    19.859713    20.662456           90           90           90 
  268000    266.80988   -10933.281   -9731.5682   -10933.281            0     6639.281     46.46328    19.971876    20.577307            0            0            0    19094.894    7504.0931    6153.3859     6260.364    554.26121    232.43666    512.34944     46.46328    19.971876    20.577307           90           90           90 
  268500    273.18572   -10890.164   -9659.7347   -10890.164            0    10233.934    46.314664     19.76477    20.449048            0            0            0    18719.031     10355.53     10176.47    10169.802   -978.55067   -1026.3269   -15.579063    46.314664     19.76477    20.449048           90           90           90 
  269000    263.00308   -10901.727     -9717.16   -10901.727            0     7370.953     46.72762    19.708494    20.606057            0            0            0    18976.756    6429.9892    8294.1749    7388.6949    49.420038    1264.5291    368.85949     46.72762    19.708494    20.606057           90           90           90 
  269500    275.46766    -10837.17   -9596.4629    -10837.17            0    8323.8837    46.342421    19.854133    20.605017            0            0            0    18958.441    8538.6893    8534.9548    7898.0069   -142.28118   -207.84454    246.73476    46.342421    19.854133    20.605017           90           90           90 
  270000    269.71003   -10895.008   -9680.2332   -10895.008            0    7718.1621    46.349649    19.949655    20.539362            0            0            0    18991.916    6909.3064     8360.688    7884.4918   -440.24529    253.35575   -279.37062    46.349649    19.949655    20.539362           90           90           90 
  270500    266.12217   -10917.141   -9718.5254   -10917.141            0    7385.1452    46.259654    19.984682    20.548206            0            0            0    18996.498    8645.8704    6336.8322     7172.733    5.2369148    500.26385    174.77227    46.259654    19.984682    20.548206           90           90           90 
  271000    262.91055   -10906.704   -9722.5534   -10906.704            0    8359.8298    46.307985    19.874843    20.662394            0            0            0    19016.922    8216.1956    8678.7716     8184.522   -569.95241    263.57904    739.95385    46.307985    19.874843    20.662394           90           90           90 
  271500    277.93038   -10885.233   -9633.4336   -10885.233            0    7336.9845    46.891361    19.789147    20.490295            0            0            0    19013.765    6760.3468    7324.7665    7925.8402   -105.35872   -160.60622    580.06712    46.891361    19.789147    20.490295           90           90           90 
  272000    278.53617   -10930.572   -9676.0438   -10930.572            0    7207.6545    46.412328    19.804982    20.732849            0            0            0    19057.538    6878.6514    7414.9764    7329.3355    114.77621    213.68502    245.18728    46.412328    19.804982    20.732849           90           90           90 
  272500    271.01613    -10887.04   -9666.3819    -10887.04            0    9201.9581     46.28298    20.033791    20.370392            0            0            0    18887.907    8615.2351    8890.0131    10100.626   -385.55968   -1284.5987    199.29146     46.28298    20.033791    20.370392           90           90           90 
  273000    270.49545   -10859.859   -9641.5461   -10859.859            0    8548.3669    46.572007    19.802879    20.515838            0            0            0    18920.934    7984.1481    9053.9955    8606.9571    315.54944    821.01575   -3.1818834    46.572007    19.802879    20.515838           90           90           90 
  273500    276.28559   -10906.914   -9662.5227   -10906.914            0     7371.994    46.339459    19.763962    20.748263            0            0            0    19002.324    7973.7372    6836.8829    7305.3618   -147.27207    18.183188     111.6581    46.339459    19.763962    20.748263           90           90           90 
  274000    264.03512   -10875.927    -9686.712   -10875.927            0    9026.8955    46.524295    19.829914    20.525535            0            0            0    18936.299    8349.2835    9294.3001    9437.1029    280.93482   -197.03486   -385.00648    46.524295    19.829914    20.525535           90           90           90 
  274500    263.92767   -10903.372   -9714.6403   -10903.372            0    7573.3377    46.662851    19.878052    20.509962            0            0            0    19024.355    6563.9476    7927.1005     8228.965    677.12442    1107.4749    39.853452    46.662851    19.878052    20.509962           90           90           90 
  275000    263.47215   -10876.128   -9689.4489   -10876.128            0    8538.8664    45.778206    19.911588    20.658808            0            0            0     18830.85    9984.2963     7176.666    8455.6369   -94.277195   -194.79878    639.29707    45.778206    19.911588    20.658808           90           90           90 
  275500    271.95245   -10949.886   -9725.0116   -10949.886            0    8499.5139    46.400825     19.88195    20.470649            0            0            0     18884.97    8892.7786    7477.3509    9128.4122   -19.977305   -646.26078   -568.12185    46.400825     19.88195    20.470649           90           90           90 
  276000    273.85291   -10882.392   -9648.9577   -10882.392            0    8506.3846    46.764811    19.786867    20.485056            0            0            0    18955.418    8696.6751    7711.9538    9110.5247   -115.35894    366.24383    847.86401    46.764811    19.786867    20.485056           90           90           90 
  276500      263.973   -10930.718   -9741.7822   -10930.718            0    8245.8037    46.169061    19.879186    20.723098            0            0            0    19019.729    8615.5381    8503.9599    7617.9133   -109.62632    94.963073    188.29321    46.169061    19.879186    20.723098           90           90           90 
  277000    267.46673   -10863.075    -9658.404   -10863.075            0    8694.6857    46.295263    20.069171    20.373457            0            0            0    18929.132    9468.6049    7631.9899    8983.4623   -260.37839    384.38471   -245.69983    46.295263    20.069171    20.373457           90           90           90 
  277500    266.79178   -10923.256   -9721.6245   -10923.256            0     8122.609    46.363527    19.889138    20.521203            0            0            0    18923.229    8000.1917    8675.1377    7692.4975   -529.33167    519.93049   -432.08091    46.363527    19.889138    20.521203           90           90           90 
  278000    277.65545   -10954.477   -9703.9153   -10954.477            0    7895.0766    46.068749    19.911436    20.644469            0            0            0    18937.067    7623.5889    8831.0288    7230.6122    103.49957    425.83571    -749.4973    46.068749    19.911436    20.644469           90           90           90 
  278500    261.65118   -10848.861   -9670.3835   -10848.861            0    7385.0338    46.487601    19.984416    20.473377            0            0            0    19020.331    7082.0358    7861.7379    7211.3276    143.82275    781.48763    923.63265    46.487601    19.984416    20.473377           90           90           90 
  279000     276.3331   -10894.148    -9649.543   -10894.148            0    7838.9552    46.304651    19.895392    20.563548            0            0            0    18944.152    8368.0731    7266.1508    7882.6416   -27.976268   -653.50739    -268.3887    46.304651    19.895392    20.563548           90           90           90 
  279500    270.23328   -10897.572   -9680.4402   -10897.572            0    7968.0957    46.473024    19.729431    20.738702            0            0            0    19015.032    6719.3955    9690.1799    7494.7116    115.05811   -638.55043    576.66275    46.473024    19.729431    20.738702           90           90           90 
  280000    273.90444   -10818.313   -9584.6458   -10818.313            0    8721.4925    46.395301    20.093491    20.370231            0            0            0    18990.017    7651.8939    8417.5863    10094.997   -287.35515   -283.98616   -89.806528    46.395301    20.093491    20.370231           90           90           90 
  280500     274.5631   -10823.453   -9586.8197   -10823.453            0    8868.3672    46.239974    19.858173     20.57272            0            0            0    18890.724    8301.3495    8961.5904    9342.1616    50.618244    696.12383    570.12257    46.239974    19.858173     20.57272           90           90           90 
  281000    272.78014   -10905.124   -9676.5214   -10905.124            0    8452.2256     46.79357    19.636105    20.576757            0            0            0    18906.818    7941.7874    9034.6108    8380.2787   -126.49915   -745.16763    272.47379     46.79357    19.636105    20.576757           90           90           90 
  281500    272.49619    -10916.17   -9688.8465    -10916.17            0    7807.3133    46.532295    19.817533    20.566883            0            0            0     18965.86    7220.4908    8198.7252    8002.7239   -143.00626   -117.44342    192.60382    46.532295    19.817533    20.566883           90           90           90 
  282000    277.56157   -10933.772   -9683.6339   -10933.772            0    7992.7176    46.328962    19.932271    20.586447            0            0            0    19010.378    8133.4545     7985.769    7858.9291   -366.50871   -550.63245    253.78414    46.328962    19.932271    20.586447           90           90           90 
  282500    264.06723   -10874.628   -9685.2677   -10874.628            0    7557.8434    46.240287      19.9678     20.59919            0            0            0    19019.578    9372.1568    5984.1465    7317.2268   -310.38394    35.559244    463.74468    46.240287      19.9678     20.59919           90           90           90 
  283000    269.51109   -10877.505   -9663.6259   -10877.505            0    8708.1737    46.326327    19.862506    20.540414            0            0            0    18900.405    8648.7472    9053.8768     8421.897   -365.45828    133.85629    1062.5363    46.326327    19.862506    20.540414           90           90           90 
  283500    262.42746   -10903.679   -9721.7052   -10903.679            0    6717.8157    46.852653    19.820739    20.527115            0            0            0    19062.592    6008.2653    7569.5086     6575.673   -330.56759   -590.24119   -107.73436    46.852653    19.820739    20.527115           90           90           90 
  284000    271.29134   -10850.958   -9629.0606   -10850.958            0    7327.5932    46.157994    19.903061    20.604896            0            0            0    18929.416     6386.499    8299.2537    7297.0268   -289.25853     286.6777    438.09478    46.157994    19.903061    20.604896           90           90           90 
  284500     278.8256   -10879.861   -9624.0295   -10879.861            0    9539.9458    46.019606    20.051439    20.480985            0            0            0    18899.019    9833.6225    9674.1977    9112.0172   -505.89559   -883.24101    549.19854    46.019606    20.051439    20.480985           90           90           90 
  285000    267.73845   -10898.745   -9692.8503   -10898.745            0    7409.6088    46.492067    19.815883     20.59086            0            0            0    18969.976    7873.0608    7146.2209    7209.5446    61.903198    294.60436    972.68215    46.492067    19.815883     20.59086           90           90           90 
  285500    268.42452   -10882.848   -9673.8631   -10882.848            0    8891.1151    46.498317    19.872624     20.54266            0            0            0    18982.314    9507.7421    8929.5644    8236.0387    14.178627    701.39131    126.06679    46.498317    19.872624     20.54266           90           90           90 
  286000    265.92765   -10878.649   -9680.9098   -10878.649            0    9567.9047    46.632154    19.686888    20.529434            0            0            0    18846.883    8168.1492    10941.779    9593.7856   -375.62861    947.27203   -228.48645    46.632154    19.686888    20.529434           90           90           90 
  286500    265.39896   -10860.559   -9665.2012   -10860.559            0    7432.9895     46.74191    19.924588    20.569295            0            0            0    19156.458     6813.352    7573.7855    7911.8309    98.479625    -88.41958    111.34189     46.74191    19.924588    20.569295           90           90           90 
  287000    268.88928   -10905.434   -9694.3553   -10905.434            0    8148.8427    46.273976    19.850216    20.592701            0            0            0    18915.393    9262.6185    7601.0606     7582.849    -100.7145    326.39738    -317.4891    46.273976    19.850216    20.592701           90           90           90 
  287500    275.24109    -10833.37   -9593.6827    -10833.37            0    8197.4645    46.229863    20.040676    20.573612            0            0            0    19060.992    9695.8757    7365.9627    7530.5551   -204.16133   -327.07723   -372.27185    46.229863    20.040676    20.573612           90           90           90 
  288000    260.46545   -10918.472   -9745.3348   -10918.472            0    7382.8383    46.581734    19.908494    20.499918            0            0            0    19011.054    6099.8746    8109.2971    7939.3432   -417.33362   -308.86018    656.65205    46.581734    19.908494    20.499918           90           90           90 
  288500    269.69305   -10858.842    -9644.143   -10858.842            0    6982.0425    46.578813     19.83032    20.668742            0            0            0    19091.155     6901.339    6609.3902    7435.3983   -439.82083   -581.61663    327.97157    46.578813     19.83032    20.668742           90           90           90 
  289000    275.36107   -10859.139   -9618.9119   -10859.139            0    6511.0078    46.467978    19.965558    20.598434            0            0            0    19110.385    6914.0408    6521.0419    6097.9407   -215.60439   -17.811461    1186.2495    46.467978    19.965558    20.598434           90           90           90 
  289500    271.04993   -10909.309   -9688.4989   -10909.309            0    7685.8786    46.122018     19.87909    20.701521            0            0            0    18980.474    7511.9929    8474.6853    7070.9577   -291.73704    935.38594    639.98938    46.122018     19.87909    20.701521           90           90           90 
  290000    271.93054   -10884.841   -9660.0651   -10884.841            0     7060.303    47.058473    19.930589    20.328988            0            0            0     19066.62    6058.2071    7471.9064    7650.7954   -282.94591   -421.99588    32.236719    47.058473    19.930589    20.328988           90           90           90 
  290500    275.41704   -10900.997   -9660.5171   -10900.997            0    8459.9018    46.412939    19.884207    20.560685            0            0            0    18975.137    9225.0174    7938.8032    8215.8847   -192.98737   -596.66934    419.44224    46.412939    19.884207    20.560685           90           90           90 
  291000    273.72335   -10892.163   -9659.3122   -10892.163            0    8082.3774    46.574682    19.744116    20.649925            0            0            0    18989.173    8222.2041    7979.5892     8045.339   -217.87534    -293.0278    98.387428    46.574682    19.744116    20.649925           90           90           90 
  291500    270.56827   -10877.697   -9659.0562   -10877.697            0    8147.1207     46.58642    19.976863     20.34627            0            0            0    18935.267    7474.8955    7800.6142    9165.8524   -5.1081372   -103.69927    564.50603     46.58642    19.976863     20.34627           90           90           90 
  292000    264.67974   -10931.435    -9739.316   -10931.435            0    6650.6192    46.418552    19.931795    20.583118            0            0            0    19043.604    6897.7203    6481.8575    6572.2799   -510.19956   -133.92671   -402.18821    46.418552    19.931795    20.583118           90           90           90 
  292500    264.49443   -10866.251   -9674.9669   -10866.251            0    7916.9552    46.586412    19.747716    20.593035            0            0            0    18945.082    7630.2355     9141.918    6978.7122   -506.50994   -338.82417     346.8193    46.586412    19.747716    20.593035           90           90           90 
  293000    269.43131   -10890.255   -9676.7357   -10890.255            0    9081.9197    46.316966    19.972752    20.462892            0            0            0    18929.757    9824.8272     8375.523    9045.4089   -223.58115   -292.79426    620.02878    46.316966    19.972752    20.462892           90           90           90 
  293500    264.50946   -10879.324   -9687.9727   -10879.324            0    7955.2086     46.11997    19.898364    20.655069            0            0            0    18955.403     8888.796     7201.675    7775.1548   -521.95744    554.90732     1527.613     46.11997    19.898364    20.655069           90           90           90 
  294000    277.68275   -10876.394   -9625.7097   -10876.394            0     9366.253    46.425446    19.868762    20.460069            0            0            0    18872.697    8361.8545    10363.352    9373.5522    374.80277   -596.51787    685.07589    46.425446    19.868762    20.460069           90           90           90 
  294500    276.05415   -10875.122   -9631.7726   -10875.122            0    7794.0322    46.735224    19.854224    20.591146            0            0            0    19106.351     8639.226    6532.4209    8210.4499   -437.28171   -80.634616    1227.4571    46.735224    19.854224    20.591146           90           90           90 
  295000    273.47279   -10884.319   -9652.5962   -10884.319            0    7817.8503    46.140299    19.950915    20.708507            0            0            0    19063.033    8253.3508    7235.7144    7964.4856    443.64389   -233.16436   -19.164318    46.140299    19.950915    20.708507           90           90           90 
  295500    274.39597   -10901.024   -9665.1439   -10901.024            0    7810.3673    46.455526    19.918812    20.411772            0            0            0    18887.806      7932.24    7184.7159    8314.1458    -735.9491   -1805.0134    214.11363    46.455526    19.918812    20.411772           90           90           90 
  296000    279.33226   -10883.134   -9625.0206   -10883.134            0    9137.5495     46.59145    19.723896     20.59976            0            0            0    18930.456    9158.5033    9644.5137    8609.6316    34.890905   -299.76875    246.69985     46.59145    19.723896     20.59976           90           90           90 
  296500    275.02277   -10921.026   -9682.3227   -10921.026            0    7927.3099    46.244536    19.930661    20.578373            0            0            0     18966.76    8039.4162    7332.4972    8410.0165    -96.43406   -711.14371     44.41806    46.244536    19.930661    20.578373           90           90           90 
  297000    261.35195   -10872.478   -9695.3476   -10872.478            0    7615.2505    46.443003    20.003294    20.426842            0            0            0    18976.803     7342.024    7641.1696    7862.5578    282.01963    739.44718   -259.16296    46.443003    20.003294    20.426842           90           90           90 
  297500    271.71712   -10867.315   -9643.5004   -10867.315            0    8556.3089    46.023075    19.848188    20.688028            0            0            0    18897.988     8908.047    8695.3947    8065.4851    8.7363664    -773.4926    -338.8566    46.023075    19.848188    20.688028           90           90           90 
  298000    261.28235   -10932.803   -9755.9859   -10932.803            0    7332.3869    46.452587    19.904289    20.514576            0            0            0    18967.894    9040.9309    5952.9614    7003.2684   -38.199439   -297.91035   -849.66529    46.452587    19.904289    20.514576           90           90           90 
  298500    261.15031   -10849.151   -9672.9291   -10849.151            0    8500.1274    46.398633    19.895469    20.528741            0            0            0    18950.544    8161.7917    7843.4016     9495.189    -134.4533   -3.1621242   -225.63952    46.398633    19.895469    20.528741           90           90           90 
  299000     271.5293    -10894.91   -9671.9407    -10894.91            0    8327.2864     46.06741    19.848572    20.721763            0            0            0    18947.406    9675.9617    6835.1596    8470.7379    327.08029   -221.99866    98.100368     46.06741    19.848572    20.721763           90           90           90 
  299500    265.27289   -10931.666   -9736.8757   -10931.666            0     9511.614    46.381854    19.857138    20.477429            0            0            0    18859.935    11705.399    8207.1746    8622.2679   -811.76912   -1118.7564   -231.79226    46.381854    19.857138    20.477429           90           90           90 
  300000    269.59115   -10834.036   -9619.7967   -10834.036            0    7072.4777    46.720346    19.807655    20.568888            0            0            0     19034.87    6733.3279    7802.6309    6681.4741    9.8742606    576.92535   -51.272025    46.720346    19.807655    20.568888           90           90           90 
  300500    273.33204   -10931.824   -9700.7356   -10931.824            0    7312.5399    46.433082    19.798545    20.646845            0            0            0    18980.799    7630.7558    6514.4376    7792.4264   -117.96525   -122.93391   -197.36721    46.433082    19.798545    20.646845           90           90           90 
  301000    272.68082   -10895.116   -9666.9601   -10895.116            0    7552.4176    46.563868    19.986567    20.378522            0            0            0    18965.309    7584.4781    6627.6558     8445.119    28.838476    454.60375   -356.10049    46.563868    19.986567    20.378522           90           90           90 
  301500    259.14776   -10896.033   -9728.8309   -10896.033            0    7465.7732    46.259653      20.0109    20.628121            0            0            0    19095.396    7279.1927     7844.628     7273.499   -349.02399    30.507347   -84.377414    46.259653      20.0109    20.628121           90           90           90 
  302000    269.16826   -10893.422   -9681.0873   -10893.422            0    8037.1651    45.847564    19.983768    20.607276            0            0            0    18880.532    8424.5915    7558.3349    8128.5689   -107.25709    66.942872    686.01812    45.847564    19.983768    20.607276           90           90           90 
  302500    264.82972    -10920.48   -9727.6859    -10920.48            0     8069.643    46.496016    19.873549    20.460092            0            0            0    18905.961    8557.6628    7062.5471     8588.719   -297.39386    196.57558    -363.3347    46.496016    19.873549    20.460092           90           90           90 
  303000    266.38625   -10881.522   -9681.7173   -10881.522            0    7153.7449    46.363971    19.711564    20.792594            0            0            0    19002.485     8103.836    7022.2377    6335.1611     153.0027    293.04333   -289.65483    46.363971    19.711564    20.792594           90           90           90 
  303500    275.75526   -10866.384   -9624.3816   -10866.384            0    7622.5172    46.589948    19.824825    20.571661            0            0            0    19000.759    6400.6969     8779.715    7687.1396   -151.44227    368.65768   -240.59375    46.589948    19.824825    20.571661           90           90           90 
  304000     271.3741   -10909.425   -9687.1551   -10909.425            0     8171.203    46.546243    19.906431    20.477407            0            0            0    18973.743    7659.2823    8319.9054    8534.4212    266.21193   -295.16312    1403.5298    46.546243    19.906431    20.477407           90           90           90 
  304500     269.4081   -10906.292   -9692.8769   -10906.292            0    6728.5586    46.221465    19.887055    20.663781            0            0            0     18994.33    6696.4394    7391.7372    6097.4992    93.935502   -81.395546   -48.366111    46.221465    19.887055    20.663781           90           90           90 
  305000    275.32069   -10859.269   -9619.2234   -10859.269            0    7270.5458    46.240697    19.980875    20.582139            0            0            0    19016.447    8490.5962    6169.5596    7151.4817     697.3402    717.02935   -169.50539    46.240697    19.980875    20.582139           90           90           90 
  305500    270.40032   -10871.256    -9653.372   -10871.256            0    7691.7523    46.615625    19.862979    20.561187            0            0            0    19038.122    9217.5284    6335.4055    7522.3231   -163.43552    199.81678    1223.5351    46.615625    19.862979    20.561187           90           90           90 
  306000    260.77794   -10879.139   -9704.5937   -10879.139            0    7614.9336    46.501608    19.807358    20.628739            0            0            0    19000.595    8559.3133    6833.4899    7451.9975   -200.54133    61.733747    531.09397    46.501608    19.807358    20.628739           90           90           90 
  306500     262.7912   -10920.922   -9737.3094   -10920.922            0    7077.3305    46.524556    19.872986    20.530166            0            0            0    18981.819    7552.0168     6940.313    6739.6617    316.06771    947.42253    939.67799    46.524556    19.872986    20.530166           90           90           90 
  307000    268.03972    -10857.96   -9650.7082    -10857.96            0    9596.1573    46.372234    19.815911    20.536197            0            0            0    18870.877     9931.415    9011.4962    9845.5608    327.91825    1432.0919    138.78417    46.372234    19.815911    20.536197           90           90           90 
  307500    271.51567   -10930.177   -9707.2694   -10930.177            0    7465.9295     46.41044    19.917129    20.562369            0            0            0    19007.088    7897.0512    7256.2499    7244.4875    221.30136   -285.43251    655.12288     46.41044    19.917129    20.562369           90           90           90 
  308000    266.28579   -10887.575    -9688.223   -10887.575            0    8591.5679    46.350942    19.902562    20.586016            0            0            0    18990.651    7690.4565    10035.057    8049.1898   -590.04298   -837.65623   -352.43118    46.350942    19.902562    20.586016           90           90           90 
  308500    272.10002   -10857.202   -9631.6625   -10857.202            0    7762.7506    46.255275    19.901017    20.655505            0            0            0    19013.951    8906.9901    7187.3908    7193.8709   -97.961805    567.78525    201.86184    46.255275    19.901017    20.655505           90           90           90 
  309000    269.74894    -10885.52   -9670.5695    -10885.52            0    7469.5629    46.568617     19.92778    20.496231            0            0            0    19020.689    8029.8619    6677.5044    7701.3223   -25.646292   -200.53488    782.83032    46.568617     19.92778    20.496231           90           90           90 
  309500     276.2825   -10888.215   -9643.8378   -10888.215            0    8263.6729    46.593491    19.713369    20.645638            0            0            0    18963.321     9404.459    7780.6771    7605.8827    67.878341    40.935271    99.373561    46.593491    19.713369    20.645638           90           90           90 
  310000    274.04786   -10873.335   -9639.0228   -10873.335            0    8631.0439    46.479263    19.921143    20.488353            0            0            0    18970.577    9310.3525    8404.0469    8178.7322   -588.90495    -71.01256    351.36628    46.479263    19.921143    20.488353           90           90           90 
  310500    272.46357   -10825.425   -9598.2475   -10825.425            0    7429.2705    46.106422    20.047442    20.592482            0            0            0    19033.956    7984.1495    6431.9199    7871.7423    395.21102   -783.64905    767.01664    46.106422    20.047442    20.592482           90           90           90 
  311000    270.16525   -10873.643    -9656.818   -10873.643            0    7751.4054    46.478169    19.907271    20.599597            0            0            0    19059.849     8576.679    7581.5995    7095.9379   -100.55784   -572.35562    136.45123    46.478169    19.907271    20.599597           90           90           90 
  311500    280.52748   -10923.287   -9659.7898   -10923.287            0    8587.3571    46.359332    19.819839    20.517723            0            0            0    18852.392    8360.5815    9758.4509    7643.0388    183.74821    671.04582   -572.48695    46.359332    19.819839    20.517723           90           90           90 
  312000     272.1353   -10907.443   -9681.7441   -10907.443            0    7544.6417    46.119613    19.961517    20.600604            0            0            0    18965.276     7149.728    7679.8082    7804.3888    177.03179    86.871456   -35.917631    46.119613    19.961517    20.600604           90           90           90 
  312500    275.68501   -10879.091   -9637.4042   -10879.091            0    9157.6526    46.300913    19.945785    20.374951            0            0            0    18816.431    7978.3525    9780.2871     9714.318    122.82338    643.20283    566.18074    46.300913    19.945785    20.374951           90           90           90 
  313000    266.43215   -10898.625   -9698.6138   -10898.625            0    8759.5536    46.215057    19.856857     20.63478            0            0            0    18936.244    9854.6084    8014.5625    8409.4899   -240.92778    508.60177     329.5434    46.215057    19.856857     20.63478           90           90           90 
  313500    271.10428   -10950.825   -9729.7698   -10950.825            0    5617.0796    46.596925    19.961225    20.556817            0            0            0    19120.547    5260.1918    5875.3827    5715.6643    49.882938   -1235.2822   -381.01052    46.596925    19.961225    20.556817           90           90           90 
  314000    280.59078   -10870.566   -9606.7835   -10870.566            0    8514.0144    46.726278    19.712252    20.501885            0            0            0     18883.88    9796.4569    6906.4799    8839.1063   -825.27472    289.26017    347.90142    46.726278    19.712252    20.501885           90           90           90 
  314500    274.07945   -10867.026   -9632.5707   -10867.026            0    8128.0948    46.368314    19.746246    20.721546            0            0            0     18972.65    8437.2678    8823.2528    7123.7637    368.28007    439.12983    445.93909    46.368314    19.746246    20.721546           90           90           90 
  315000    267.16145   -10889.338   -9686.0417   -10889.338            0    6978.9827    46.707753    19.958146    20.459628            0            0            0    19072.468    6242.5016    7076.5599    7617.8866   -152.93592    205.69938   -322.02619    46.707753    19.958146    20.459628           90           90           90 
  315500    275.59312   -10929.508   -9688.2355   -10929.508            0    8641.8223    46.410076    19.765728    20.615723            0            0            0    18911.399    9063.5408    9410.6591     7451.267    227.65883   -514.96457    952.45318    46.410076    19.765728    20.615723           90           90           90 
  316000    270.49875   -10860.468   -9642.1408   -10860.468            0    7422.3448    46.539499    19.833043    20.588848            0            0            0    19003.916    7260.6783    7299.6317    7706.7244    95.815809   -37.109473   -126.19144    46.539499    19.833043    20.588848           90           90           90 
  316500    271.07548   -10882.405   -9661.4803   -10882.405            0    7069.1204    46.764204    19.797328    20.504123            0            0            0    18982.846    6852.9009    7421.5974    6932.8629   -236.56538   -179.92955    127.61753    46.764204    19.797328    20.504123           90           90           90 
  317000    274.89635   -10957.757    -9719.623   -10957.757            0    9171.8259    45.966315     19.89711    20.554556            0            0            0    18799.131     9195.901    8429.9303    9889.6464    25.566893    758.10284   -1314.7474    45.966315     19.89711    20.554556           90           90           90 
  317500    261.32038   -10903.069   -9726.0813   -10903.069            0     9736.458     46.51599    19.706161     20.45777            0            0            0    18752.648    9798.9963    10368.064     9042.314    0.6761244   -540.82125    54.859276     46.51599    19.706161     20.45777           90           90           90 
  318000    275.30038   -10898.489   -9658.5352   -10898.489            0    8509.9708    46.419712    19.913636    20.481353            0            0            0     18932.66    8002.0518    8464.3115    9063.5493   -523.89244   -1028.2478    499.25538    46.419712    19.913636    20.481353           90           90           90 
  318500    266.29143   -10844.764   -9645.3861   -10844.764            0     8533.606    46.333053    19.719743    20.758065            0            0            0    18966.143    8488.0382      9046.89    8065.8897   -235.26653   -1086.5287   -298.66199    46.333053    19.719743    20.758065           90           90           90 
  319000    265.21785   -10878.074   -9683.5314   -10878.074            0    8539.6153    46.544952    19.916374     20.47589            0            0            0    18981.287    8281.8767    8492.0418    8844.9273   -126.01073    582.57752    254.18803    46.544952    19.916374     20.47589           90           90           90 
  319500    272.70084   -10903.621   -9675.3758   -10903.621            0    7245.3233    46.423686    19.920627    20.574234            0            0            0    19026.824    6997.4811    6697.0154    8041.4736    82.178723    926.89349   -578.85118    46.423686    19.920627    20.574234           90           90           90 
  320000    264.15839   -10855.972   -9666.2018   -10855.972            0    7988.9836    46.481354    19.969113    20.528847            0            0            0      19054.7    8826.9205    7085.9416    8054.0886   -263.00521    26.708352    647.54582    46.481354    19.969113    20.528847           90           90           90 
  320500    269.86721   -10901.025   -9685.5423   -10901.025            0    7539.8387    46.430758    20.002491    20.447258            0            0            0    18989.998    6992.6543     7156.321    8470.5408   -873.96363   -477.84762    566.63622    46.430758    20.002491    20.447258           90           90           90 
  321000    265.75934   -10907.584   -9710.6026   -10907.584            0    8425.8996    46.239153    19.673232    20.849758            0            0            0    18966.475    8919.5969    9036.0799     7322.022   -30.451811    -952.1671    646.75793    46.239153    19.673232    20.849758           90           90           90 
  321500    270.09502   -10937.544   -9721.0345   -10937.544            0     7325.012    46.548471    19.904508    20.519355            0            0            0    19011.684    7661.2984    7109.9371    7203.8004   -106.43088    803.24204    563.32991    46.548471    19.904508    20.519355           90           90           90 
  322000    264.63271    -10893.56   -9701.6528    -10893.56            0    7597.0789    46.348547    19.910145    20.557192            0            0            0    18970.306    8107.7107    7346.1063    7337.4198   -248.18328   -821.38769    484.14568    46.348547    19.910145    20.557192           90           90           90 
  322500     272.5175   -10897.021   -9669.6015   -10897.021            0    8418.4633    46.203208     19.90593    20.590661            0            0            0    18937.598    8554.9955    7730.4228    8969.9716   -677.58562   -550.62597    739.52167    46.203208     19.90593    20.590661           90           90           90 
  323000    271.59971   -10879.605   -9656.3185   -10879.605            0    8350.2993    46.611838    19.846655    20.433621            0            0            0    18902.919    6848.6639    8987.5217    9214.7123    456.25068   -54.678136    300.03499    46.611838    19.846655    20.433621           90           90           90 
  323500    279.89319   -10915.319   -9654.6786   -10915.319            0    8335.6879    46.184057    19.832216    20.622778            0            0            0    18889.066     7731.356    9329.9567    7945.7509    444.59941   -154.81264    144.94519    46.184057    19.832216    20.622778           90           90           90 
  324000    267.92931   -10914.601   -9707.8465   -10914.601            0     7444.076    46.358833    19.910727    20.538423            0            0            0    18957.746    6570.0185    8018.3754    7743.8342   -449.93777   -128.05986   -847.07072    46.358833    19.910727    20.538423           90           90           90 
  324500    270.59431   -10928.371   -9709.6131   -10928.371            0    8959.5392    46.544077    19.935141    20.365131            0            0            0    18896.046    10074.994    7709.1685     9094.455    306.15325    825.15452   -120.48377    46.544077    19.935141    20.365131           90           90           90 
  325000    276.39517   -10894.035   -9649.1498   -10894.035            0    8551.5835    46.384735    19.836628    20.651995            0            0            0    19002.246    8466.1168     8354.085    8834.5486    78.239279   -77.014187   -407.42178    46.384735    19.836628    20.651995           90           90           90 
  325500    274.32378   -10948.578   -9713.0229   -10948.578            0    8616.7718    46.098356    19.830717    20.662633            0            0            0    18889.024    9006.2446    8978.5165    7865.5544   -80.806054    -40.81215   -450.06087    46.098356    19.830717    20.662633           90           90           90 
  326000    271.92704   -10917.279   -9692.5184   -10917.279            0    8304.5731    46.443994    20.074311    20.306512            0            0            0    18932.393    8067.7347     7671.553    9174.4316   -462.28412    448.09081   -217.64799    46.443994    20.074311    20.306512           90           90           90 
  326500    269.51552   -10891.848   -9677.9495   -10891.848            0    7670.7736    46.277826    19.932455    20.616231            0            0            0    19017.044    8479.4425    7525.0023    7007.8759    -595.7084    133.08325   -925.48685    46.277826    19.932455    20.616231           90           90           90 
  327000    285.14911   -10919.786   -9635.4734   -10919.786            0    7090.8989     46.86211    19.761085    20.504062            0            0            0    18987.708     7055.943    6720.7676    7495.9863    375.82331   -139.19939   -281.18417     46.86211    19.761085    20.504062           90           90           90 
  327500    269.39122   -10945.869   -9732.5295   -10945.869            0    7525.2104    46.570363    19.845709    20.534613            0            0            0    18978.538    6460.4231    7709.4958    8405.7124    350.43054   -487.04887    1603.3664    46.570363    19.845709    20.534613           90           90           90 
  328000    267.24172   -10868.129   -9664.4711   -10868.129            0    7546.6641    46.397204    19.923731    20.572737            0            0            0    19017.549    7402.3716     7155.192    8082.4288   -278.38977   -657.24699    621.51457    46.397204    19.923731    20.572737           90           90           90 
  328500    271.02667   -10921.144   -9700.4391   -10921.144            0    8519.4014    46.015341     20.00666    20.569021            0            0            0    18936.114    8897.7845    7965.8265    8694.5931   -122.12311   -411.66307   -21.558544    46.015341     20.00666    20.569021           90           90           90 
  329000    268.78953   -10893.958   -9683.3294   -10893.958            0    6876.5007    46.635435    19.875443    20.620928            0            0            0    19113.537    7220.8815    6392.7551    7015.8654   -211.52317      -412.87    417.42887    46.635435    19.875443    20.620928           90           90           90 
  329500    271.44385   -10927.966   -9705.3821   -10927.966            0    7186.0155    46.801242    19.726656    20.561947            0            0            0    18983.447    8363.5354     6839.182    6355.3289    363.47868   -635.29467   -1073.1296    46.801242    19.726656    20.561947           90           90           90 
  330000    273.82611   -10826.639   -9593.3248   -10826.639            0    7182.0844    46.291688    19.928362    20.605328            0            0            0    19008.775    7303.3619    7377.5682    6865.3231    -369.4638   -147.83614   -292.63566    46.291688    19.928362    20.605328           90           90           90 
  330500    267.92113   -10906.182   -9699.4641   -10906.182            0    7399.3612    46.388135    19.839466     20.53818            0            0            0    18901.612    6780.1216    7757.2365    7660.7254   -320.08711   -120.72098    481.37368    46.388135    19.839466     20.53818           90           90           90 
  331000    263.01933   -10916.038   -9731.3975   -10916.038            0    8736.5099    46.390847    19.928087    20.464494            0            0            0    18919.032    7688.4892    9778.4541    8742.5866   -379.77679   -10.365068   -99.448289    46.390847    19.928087    20.464494           90           90           90 
  331500    267.87293   -10882.744   -9676.2434   -10882.744            0    8587.9695    46.585915    19.769545    20.622928            0            0            0    18993.353     9055.114    8645.1614    8063.6333    448.10439    -473.7453    220.56812    46.585915    19.769545    20.622928           90           90           90 
  332000    264.99771   -10880.137   -9686.5859   -10880.137            0      8029.09    46.461409    19.864343    20.534645            0            0            0    18951.945    8045.0258    7913.3855    8128.8586   -233.59423   -5.3597854   -167.30053    46.461409    19.864343    20.534645           90           90           90 
  332500    274.37142   -10884.392   -9648.6221   -10884.392            0    8420.3347    46.218268    19.938674     20.52394            0            0            0    18913.447    8683.3695     8745.904    7831.7306   -342.62303    -483.3125   -550.11299    46.218268    19.938674     20.52394           90           90           90 
  333000    270.39243   -10850.285   -9632.4362   -10850.285            0    8319.6318    46.258292    19.919502    20.632949            0            0            0    19012.069    8566.7631     8642.108    7750.0244    974.63292   -91.498357    94.118642    46.258292    19.919502    20.632949           90           90           90 
  333500    279.63762   -10879.191   -9619.7021   -10879.191            0    6028.4297    46.831032    19.984514    20.362562            0            0            0    19057.228     5280.445    5477.7648    7327.0793   -141.37674   -619.97762    113.50969    46.831032    19.984514    20.362562           90           90           90 
  334000    279.38696   -10915.089   -9656.7286   -10915.089            0    8099.1535    46.413756    19.790401    20.678861            0            0            0    18994.503    8732.1834    8258.7657    7306.5112   -218.43984    687.82866    1077.9883    46.413756    19.790401    20.678861           90           90           90 
  334500     265.9326   -10890.912   -9693.1509   -10890.912            0    7583.9406    46.198819    19.959931    20.619386            0            0            0    19013.656    8027.4635    7367.2522     7357.106   -10.396387    226.64385    85.524088    46.198819    19.959931    20.619386           90           90           90 
  335000    262.80413   -10923.978   -9740.3074   -10923.978            0    7921.9978    46.578661    19.907094    20.423278            0            0            0    18937.399     9246.432    6344.4892    8175.0723    35.238962    -178.6445    95.166441    46.578661    19.907094    20.423278           90           90           90 
  335500    281.78868   -10865.171   -9595.9936   -10865.171            0    7272.4418    46.346149    19.898321    20.682695            0            0            0      19073.8    6955.4949    7582.8101    7279.0206    14.774114    220.29738    787.01849    46.346149    19.898321    20.682695           90           90           90 
  336000    269.59655   -10895.215   -9680.9512   -10895.215            0    7975.4463    45.996626    19.994779     20.55461            0            0            0    18903.918    7739.5204    7962.4139    8224.4045   -317.37462    168.15781   -463.58504    45.996626    19.994779     20.55461           90           90           90 
  336500    275.81865   -10899.456    -9657.168   -10899.456            0    7322.0084    46.655343    19.884005    20.555136            0            0            0    19068.899    7215.2369    7574.2195    7176.5689    28.779184    950.44771   -49.940877    46.655343    19.884005    20.555136           90           90           90 
  337000    276.84835   -10895.809   -9648.8827   -10895.809            0    8034.9917    46.245316     19.88885    20.581368            0            0            0    18930.046    8140.1234    7931.1688    8033.6829   -204.46314   -222.40637    133.15307    46.245316     19.88885    20.581368           90           90           90 
  337500      278.153   -10866.487   -9613.6843   -10866.487            0    8346.9358     46.42725    19.949148    20.499318            0            0            0    18986.142    9125.1752    7798.8727    8116.7594    101.84824   -370.56747   -739.30092     46.42725    19.949148    20.499318           90           90           90 
  338000    259.65487   -10934.302   -9764.8156   -10934.302            0    6275.7099    46.368466    19.864757    20.725784            0            0            0    19090.485    6282.2793    6420.1653     6124.685    49.406615    477.77495   -193.72423    46.368466    19.864757    20.725784           90           90           90 
  338500    265.85807   -10876.559   -9679.1332   -10876.559            0      8375.89    46.588925    19.857843    20.477763            0            0            0    18945.117    7457.0141    8478.4612    9192.1947   -120.29281   -78.954868   -501.63048    46.588925    19.857843    20.477763           90           90           90 
  339000    271.51141   -10832.874   -9609.9851   -10832.874            0    8802.2496    46.741113    19.696343    20.520762            0            0            0    18892.008    8438.0834    8511.1522    9457.5133    272.38225     304.1301   -240.30991    46.741113    19.696343    20.520762           90           90           90 
  339500    274.01748   -10911.405   -9677.2296   -10911.405            0    7603.9412    46.229009     19.97612    20.605258            0            0            0    19028.467    7817.2354    7304.3942     7690.194    217.82425    530.54828   -171.12493    46.229009     19.97612    20.605258           90           90           90 
  340000    272.16446   -10896.554   -9670.7246   -10896.554            0    7568.1559    46.266853    19.980888    20.580889            0            0            0    19026.061    8148.0979    6839.2251    7717.1447   -47.612881   -316.27604    337.13883    46.266853    19.980888    20.580889           90           90           90 
  340500    273.10579   -10858.344    -9628.274   -10858.344            0    8955.2953    46.270039     20.00746    20.440671            0            0            0    18922.868    9081.2578    8716.8422    9067.7859    93.772879    1141.8963    309.51444    46.270039     20.00746    20.440671           90           90           90 
  341000    271.55153   -10912.153   -9689.0837   -10912.153            0    7982.6212    46.671627    19.757619    20.569117            0            0            0    18967.199     8127.058    8370.2148    7450.5908   -23.143732    614.73038   -524.54233    46.671627    19.757619    20.569117           90           90           90 
  341500    270.85991   -10906.831    -9686.877   -10906.831            0    8039.8906    46.115366    20.011447    20.543045            0            0            0    18957.845    8356.6896    7699.1321    8063.8502   -604.07976    16.810558   -693.91751    46.115366    20.011447    20.543045           90           90           90 
  342000    271.91943   -10915.626   -9690.8994   -10915.626            0    7883.6874    46.330528    19.984508    20.485972            0            0            0    18967.814    8071.2863    7265.2841    8314.4919    53.206741    650.19523   -1123.8397    46.330528    19.984508    20.485972           90           90           90 
  342500    273.66412   -10947.922   -9715.3377   -10947.922            0    7669.7412    46.618528    19.763832    20.681308            0            0            0    19054.945    8273.8271    7197.4736    7537.9228    974.84401    437.45163    160.10131    46.618528    19.763832    20.681308           90           90           90 
  343000    268.35448   -10905.355   -9696.6855   -10905.355            0    8632.7474    46.561574    19.864323    20.529951            0            0            0    18988.442    8373.5016    8742.7687    8781.9718    140.54475    194.33818    942.82309    46.561574    19.864323    20.529951           90           90           90 
  343500    269.31824   -10887.116   -9674.1052   -10887.116            0    8257.7015    46.376454    19.900125    20.451525            0            0            0    18874.655    9302.0426    6627.5226    8843.5394   -0.4740075    527.96996    110.34513    46.376454    19.900125    20.451525           90           90           90 
  344000    270.90596   -10922.452   -9702.2904   -10922.452            0    8940.5415    45.968348    19.903306     20.62427            0            0            0      18869.6    10174.101    7833.8359    8813.6874    70.144835    1267.2079   -817.58835    45.968348    19.903306     20.62427           90           90           90 
  344500     268.7217   -10909.198   -9698.8744   -10909.198            0    7383.1651    46.540264    19.835607    20.533937            0            0            0    18955.994    7002.9731    8346.1763    6800.3458    96.806705    385.60864    401.94648    46.540264    19.835607    20.533937           90           90           90 
  345000    282.07019   -10919.988   -9649.5432   -10919.988            0    7561.0783    46.470661    19.936036    20.482714            0            0            0    18976.021    7513.8247    6834.2983    8335.1118    659.53291    24.831716   -709.41039    46.470661    19.936036    20.482714           90           90           90 
  345500    275.33334   -10939.087   -9698.9846   -10939.087            0    8002.3274     46.22011    19.817455     20.66464            0            0            0    18928.087    9543.7403     6816.425    7646.8168   -7.1879875    577.69202    540.41545     46.22011    19.817455     20.66464           90           90           90 
  346000    265.35091   -10940.436   -9745.2945   -10940.436            0    7319.9335    46.430264    19.930112    20.498833            0            0            0    18968.807    7350.3888    7705.2791    6904.1325   -783.97341    182.80482    966.99666    46.430264    19.930112    20.498833           90           90           90 
  346500    275.37403   -10919.488   -9679.2018   -10919.488            0    7941.0716    46.560179    19.879004    20.507706            0            0            0    18981.317    7403.3517     7083.518    9336.3452   -257.60424   -227.52925   -515.70892    46.560179    19.879004    20.507706           90           90           90 
  347000    269.81284   -10891.301   -9676.0627   -10891.301            0    7968.1553    46.256883     19.89522    20.649388            0            0            0    19003.443    8339.8156    7930.2335    7634.4168    15.247496   -78.891465    1191.2705    46.256883     19.89522    20.649388           90           90           90 
  347500    270.38343   -10898.174   -9680.3663   -10898.174            0    7378.4122    46.137018    20.046644    20.612929            0            0            0    19064.741     7268.249    7148.6699    7718.3176    125.61925    509.92319    2.2439635    46.137018    20.046644    20.612929           90           90           90 
  348000    260.62869   -10931.231   -9757.3583   -10931.231            0    8776.4169    46.226215    19.997875    20.383911            0            0            0    18843.419    8269.7259    9241.5229    8818.0019    -133.3142   -264.62391    1349.3198    46.226215    19.997875    20.383911           90           90           90 
  348500    258.80805   -10927.241   -9761.5686   -10927.241            0    7054.4944    46.319805    19.850797    20.728479            0            0            0    19059.527    8185.9494     6537.676    6439.8578    60.725186   -128.16677   -224.18586    46.319805    19.850797    20.728479           90           90           90 
  349000    270.98673   -10916.471   -9695.9459   -10916.471            0    7632.4831     46.66455    19.797182    20.554157            0            0            0    18988.476    7746.3584     7771.065    7380.0257    315.96811   -374.57891   -343.75539     46.66455    19.797182    20.554157           90           90           90 
  349500    274.59308   -10877.547   -9640.7785   -10877.547            0    8913.7671    46.449324     19.89869    20.465862            0            0            0    18916.201    8531.9938    9785.3803    8423.9272   -480.82725   -1076.7767   -621.41125    46.449324     19.89869    20.465862           90           90           90 
  350000    268.07489    -10899.47   -9692.0599    -10899.47            0    7204.5426    46.283847    19.877491    20.717967            0            0            0    19060.669    6628.9601    7901.7211    7082.9467    84.325188    641.32911   -252.66264    46.283847    19.877491    20.717967           90           90           90 
  350500    272.78178   -10835.757   -9607.1465   -10835.757            0     9055.526    46.451594    19.938167    20.436048            0            0            0    18927.043    8632.8839     9371.996    9161.6981    108.64245     571.6204   -21.269674    46.451594    19.938167    20.436048           90           90           90 
  351000    268.74361   -10922.506   -9712.0836   -10922.506            0    7230.3022    46.571054    19.953708    20.566714            0            0            0    19111.931    5529.1448    7713.3672    8448.3948    297.72834    71.216586   -270.42694    46.571054    19.953708    20.566714           90           90           90 
  351500    266.59932   -10831.081   -9630.3164   -10831.081            0    8161.2643    46.380446    19.874826     20.66612            0            0            0    19050.097    9800.2885    6525.5985    8157.9058    -49.83835   -561.08949   -625.41259    46.380446    19.874826     20.66612           90           90           90 
  352000    271.00926     -10894.6   -9673.9728     -10894.6            0    9066.3403     46.55201    19.914944    20.375726            0            0            0    18889.942    9065.5794    7894.7189    10238.723    -405.9443   -535.29736   -325.18501     46.55201    19.914944    20.375726           90           90           90 
  352500    270.28833   -10914.462   -9697.0819   -10914.462            0    7000.7866    46.235338    19.805909    20.719294            0            0            0    18973.339     7662.053    6246.4038     7093.903    59.838184   -61.248492    -127.0141    46.235338    19.805909    20.719294           90           90           90 
  353000    260.38117   -10917.348   -9744.5903   -10917.348            0    7396.5538     46.38599    19.906341    20.554692            0            0            0    18979.695    8385.7482     6074.335    7729.5783    -636.5568    1045.1078    20.803399     46.38599    19.906341    20.554692           90           90           90 
  353500    264.86377   -10912.492   -9719.5447   -10912.492            0     7732.828    46.475935    19.830399    20.571066            0            0            0    18959.043    6787.2175    8324.9913    8086.2753    215.38931     429.5387   -845.91505    46.475935    19.830399    20.571066           90           90           90 
  354000    268.09219   -10825.559    -9618.071   -10825.559            0    8070.9454     46.66108    19.771977    20.537757            0            0            0    18947.761    8019.9799    8340.4331    7852.4234   -139.71353    475.11401    338.84394     46.66108    19.771977    20.537757           90           90           90 
  354500    271.03693    -10873.86   -9653.1081    -10873.86            0    8625.2133    46.459236    19.951194    20.491737            0            0            0    18994.144    8861.7706    7016.5789    9997.2904    -777.2624    160.30146   -726.34458    46.459236    19.951194    20.491737           90           90           90 
  355000     270.3323   -10892.194   -9674.6162   -10892.194            0    7443.4992     46.20389    19.811553    20.711141            0            0            0    18958.375    7185.6235    8255.4785    6889.3956   -284.16926     527.9804    947.21284     46.20389    19.811553    20.711141           90           90           90 
  355500    266.59004   -10920.382   -9719.6593   -10920.382            0    7580.4821    46.652825    19.795972    20.493109            0            0            0    18926.165    6740.6248    8907.3704    7093.4513    326.75527    129.03594   -59.683538    46.652825    19.795972    20.493109           90           90           90 
  356000    271.57592   -10905.416   -9682.2365   -10905.416            0    8207.7949    46.535703    19.795378    20.577538            0            0            0     18955.86    7955.4454    8393.5263    8274.4129   -81.805895     756.7033    466.42168    46.535703    19.795378    20.577538           90           90           90 
  356500    276.72187    -10850.92   -9604.5631    -10850.92            0    8668.1011    46.685198    19.807403    20.519087            0            0            0    18974.258    7754.6566    8567.4111    9682.2357   -546.91104    278.74019    900.52838    46.685198    19.807403    20.519087           90           90           90 
  357000    271.30362   -10886.508   -9664.5555   -10886.508            0    7923.0234    46.350111    19.906567     20.58781            0            0            0    18995.787    7838.6013    7659.3269    8271.1419    310.21892   -1926.0893   -444.70463    46.350111    19.906567     20.58781           90           90           90 
  357500     267.9812   -10860.212   -9653.2239   -10860.212            0    7836.2295    46.272058     19.94771    20.591291            0            0            0    19006.206    7774.5791    7946.0715    7788.0378    -62.17156   -153.51513    270.29878    46.272058     19.94771    20.591291           90           90           90 
  358000    256.61103   -10869.866   -9714.0889   -10869.866            0    7738.8945    46.501585    19.944651      20.4687            0            0            0    18983.857    7770.1069    7231.5704    8215.0061   -287.25477   -264.20993   -638.44812    46.501585    19.944651      20.4687           90           90           90 
  358500    270.42508    -10921.37   -9703.3743    -10921.37            0     7315.465    46.340151    19.804458    20.712065            0            0            0    19008.323    8430.9835    6673.8168    6841.5945   -62.120288    1126.5139    279.44963    46.340151    19.804458    20.712065           90           90           90 
  359000    277.81023    -10922.47    -9671.212    -10922.47            0    7354.9757    46.504841    20.031664    20.373717            0            0            0     18979.53     6705.149    7423.0743    7936.7038   -541.18022    23.543708    35.861243    46.504841    20.031664    20.373717           90           90           90 
  359500    275.40203   -10861.378   -9620.9664   -10861.378            0    8807.4041    46.288493     19.87847    20.594216            0            0            0    18949.653    9040.8195    8950.2574    8431.1354   -144.33518    603.14812   -772.84116    46.288493     19.87847    20.594216           90           90           90 
  360000    262.88763    -10888.89   -9704.8433    -10888.89            0    8450.1839    46.358652    19.796956    20.607006            0            0            0    18912.289    8994.7947    8513.3712    7842.3857   -207.07513    410.16886    135.44858    46.358652    19.796956    20.607006           90           90           90 
  360500    269.32609   -10904.383   -9691.3367   -10904.383            0    7972.3489     46.45842    19.970373    20.469161            0            0            0    18991.123    7223.5356    8644.2444    8049.2666    156.06178    151.92568     144.0023     46.45842    19.970373    20.469161           90           90           90 
  361000    269.98564    -10866.19   -9650.1731    -10866.19            0    8429.6619    46.436721    19.859817    20.579548            0            0            0     18978.97    8518.9278    9274.0376    7496.0202   -265.06352    1324.1311   -254.58888    46.436721    19.859817    20.579548           90           90           90 
  361500    269.67804   -10884.063   -9669.4325   -10884.063            0    7179.9404    46.338681    19.916239    20.590766            0            0            0    19003.058    6560.0045    7220.1225    7759.6941    61.781279    577.92573   -234.81285    46.338681    19.916239    20.590766           90           90           90 
  362000    268.51327   -10910.002    -9700.617   -10910.002            0    7472.8376    46.653984    20.010851    20.347639            0            0            0    18996.269    8445.8948    7161.7604    6810.8576    200.75865    983.77483   -536.27749    46.653984    20.010851    20.347639           90           90           90 
  362500    276.08033   -10869.855   -9626.3883   -10869.855            0    8916.6077    46.270899    19.793413    20.763335            0            0            0    19016.287    9359.1633    9325.0151    8065.6448    202.40821   -143.14824   -796.38308    46.270899    19.793413    20.763335           90           90           90 
  363000    271.93856   -10878.636   -9653.8233   -10878.636            0    7157.3665    46.579567     19.89905    20.563453            0            0            0    19060.042    5677.0093    7889.7672    7905.3232    541.21401    -337.3447   -362.11954    46.579567     19.89905    20.563453           90           90           90 
  363500    269.06121   -10845.205   -9633.3521   -10845.205            0    8834.3912    46.571387      19.8682    20.414829            0            0            0     18889.63    8006.1296    8436.5697    10060.474   -116.51145    1119.2937   -271.24735    46.571387      19.8682    20.414829           90           90           90 
  364000    263.47651   -10847.185   -9660.4858   -10847.185            0    7429.6688    46.258781    19.839299    20.701733            0            0            0    18998.845    7659.7048    7868.6684    6760.6331   -324.95907   -211.60054   -1004.1836    46.258781    19.839299    20.701733           90           90           90 
  364500    266.67033   -10908.941   -9707.8565   -10908.941            0    7552.4578    46.323962    19.914621    20.525784            0            0            0    18935.532    7909.1916    6742.2748     8005.907    320.83041   -476.51972   -729.43121    46.323962    19.914621    20.525784           90           90           90 
  365000    276.82146   -10910.372   -9663.5669   -10910.372            0    7730.6182    46.517918    19.944202    20.506953            0            0            0    19025.587    9001.5079    6062.4378    8127.9089    9.7564145    601.84311    292.67289    46.517918    19.944202    20.506953           90           90           90 
  365500    272.61163   -10899.329   -9671.4853   -10899.329            0    8042.5056    46.392134    19.679976    20.788289            0            0            0    18979.626    8020.0945      8633.62    7473.8021     187.3482   -47.345022    946.42812    46.392134    19.679976    20.788289           90           90           90 
  366000    277.77983    -10875.73   -9624.6087    -10875.73            0    8113.6499    46.590204    19.971653    20.419572            0            0            0    19000.073    8278.1329    7514.2681    8548.5489   -179.27437   -274.79868    896.47749    46.590204    19.971653    20.419572           90           90           90 
  366500    260.39046    -10868.06   -9695.2602    -10868.06            0    8045.8034    46.405651    19.941816     20.55396            0            0            0      19020.9    7980.7512      7871.71     8284.949    -670.3462   -615.25117   -235.45438    46.405651    19.941816     20.55396           90           90           90 
  367000    263.47205   -10911.389   -9724.7103   -10911.389            0    7982.5004    46.003898    19.962237    20.648956            0            0            0    18962.777    8552.9578    7807.2483    7587.2952    405.72417    212.35445    276.49584    46.003898    19.962237    20.648956           90           90           90 
  367500    273.80421   -10919.933    -9686.718   -10919.933            0    8523.7772    46.577957    19.896785    20.394506            0            0            0    18900.641    7988.7921    7738.4456     9844.094    206.78738    366.79621   -240.80093    46.577957    19.896785    20.394506           90           90           90 
  368000    274.36006   -10874.335   -9638.6163   -10874.335            0    8289.2178    46.105214    19.854847    20.683621            0            0            0    18934.034    7315.9439    9988.9305    7562.7789    93.507048    350.90878   -354.77725    46.105214    19.854847    20.683621           90           90           90 
  368500    268.18765   -10894.348   -9686.4297   -10894.348            0    7889.0799    46.354516    19.842347     20.58212            0            0            0    18931.072    7246.3328    8466.7249     7954.182    114.89752    289.63914   -33.907915    46.354516    19.842347     20.58212           90           90           90 
  369000    276.27577   -10909.713   -9665.3661   -10909.713            0    7596.9026    46.604512    19.913061    20.528362            0            0            0     19051.11    8250.9305    6983.4555     7556.322    295.96645    -828.8278    567.61653    46.604512    19.913061    20.528362           90           90           90 
  369500    271.64443   -10877.192   -9653.7041   -10877.192            0    8196.9959    46.598843    19.790923    20.654426            0            0            0    19048.216    7630.6274    8288.2511    8672.1091    568.97098   -59.206329   -723.49109    46.598843    19.790923    20.654426           90           90           90 
  370000    266.19365   -10866.119   -9667.1815   -10866.119            0    7316.1505    46.418173    19.906769    20.558564            0            0            0     18996.85     6773.833    7258.6335    7915.9849    581.71476    335.64338    585.20536    46.418173    19.906769    20.558564           90           90           90 
  370500    270.44209   -10904.051   -9685.9783   -10904.051            0    7483.1627    46.464146    19.961783    20.481848            0            0            0    18997.061    7781.1081    5983.9392    8684.4408   -15.037889   -105.94847    166.96364    46.464146    19.961783    20.481848           90           90           90 
  371000    273.68053   -10946.655   -9713.9969   -10946.655            0     7705.551    46.308883     19.81034    20.686226            0            0            0    18977.434    6569.3814    8854.6706     7692.601     231.2859    494.52116    382.61867    46.308883     19.81034    20.686226           90           90           90 
  371500    270.53492   -10911.705   -9693.2146   -10911.705            0    8358.0231     46.51171    19.796462    20.490892            0            0            0    18867.343    7757.5301    7645.7611     9670.778   -309.27671   -136.03097    482.66304     46.51171    19.796462    20.490892           90           90           90 
  372000    268.64806   -10901.088   -9691.0956   -10901.088            0    8286.9697    46.616817    19.844797    20.491814            0            0            0    18957.003    8632.1108    8285.3749    7943.4235   -119.60504    471.02176    45.411665    46.616817    19.844797    20.491814           90           90           90 
  372500    271.95329   -10907.396   -9682.5173   -10907.396            0    8632.8665     45.94529    19.890587    20.643819            0            0            0    18865.949    8971.9437    7938.3665    8988.2893    529.73322    204.20249    241.91223     45.94529    19.890587    20.643819           90           90           90 
  373000    267.13492   -10957.827   -9754.6504   -10957.827            0    6991.5181    46.343967    20.026199    20.526183            0            0            0    19050.217    7316.3078    6687.1748    6971.0719    212.49713   -360.70301   -456.03311    46.343967    20.026199    20.526183           90           90           90 
  373500    281.69898   -10922.178   -9653.4045   -10922.178            0    6328.1248    46.257855    20.029082    20.622004            0            0            0    19106.336    5675.9806    6548.6285    6759.7653   -433.63825   -222.10345    131.23362    46.257855    20.029082    20.622004           90           90           90 
  374000     274.7952   -10881.849   -9644.1701   -10881.849            0    6394.8428    46.716021    19.794009    20.715388            0            0            0    19155.464    6401.8768    6315.2072    6467.4444   -264.50477   -1211.7521   -1186.7279    46.716021    19.794009    20.715388           90           90           90 
  374500    281.91757   -10901.994   -9632.2357   -10901.994            0    7816.3366    46.358578    19.934371    20.596624            0            0            0     19033.94    7860.3031    7709.8859     7878.821    43.047754   -804.27891    733.68163    46.358578    19.934371    20.596624           90           90           90 
  375000    265.35856   -10890.778   -9695.6016   -10890.778            0    8244.7198    45.976521    20.037988    20.483707            0            0            0    18871.168     9298.102    7559.2633    7876.7942     515.4187   -1201.3219   -441.82308    45.976521    20.037988    20.483707           90           90           90 
  375500     275.4013   -10931.099   -9690.6902   -10931.099            0    6539.3967    46.395038    20.005333    20.499731            0            0            0    19026.788    7154.0492    5752.1352    6712.0056   -141.56972    787.96173    186.42787    46.395038    20.005333    20.499731           90           90           90 
  376000    275.43809   -10876.146   -9635.5719   -10876.146            0    7675.1424    46.143012    19.797902    20.719023            0            0            0    18927.549    7304.1858    8538.6274    7182.6141    57.168346    -208.4599    17.284542    46.143012    19.797902    20.719023           90           90           90 
  376500    270.38907   -10863.581   -9645.7479   -10863.581            0    8857.5115    46.547616    19.896762    20.404577            0            0            0    18897.635    8679.5802    8972.4664    8920.4878    338.33997   -889.26321     328.4834    46.547616    19.896762    20.404577           90           90           90 
  377000    260.32376   -10903.884   -9731.3849   -10903.884            0    7544.1956    46.572255    19.828387    20.515498            0            0            0    18945.092    6924.7715    7751.5388    7956.2765   -20.858112   -130.16536   -20.267354    46.572255    19.828387    20.515498           90           90           90 
  377500    267.19024   -10881.968   -9678.5419   -10881.968            0    8334.8102     46.14167    19.918352    20.599229            0            0            0    18932.052    9501.3001    7665.3313    7837.7993    -959.3298   -845.74589    941.08911     46.14167    19.918352    20.599229           90           90           90 
  378000    273.66623   -10893.617   -9661.0235   -10893.617            0    8971.7097    46.019489    19.965154    20.606394            0            0            0     18932.87    8937.0169    8969.6102     9008.502    46.829913   -69.674626     261.1014    46.019489    19.965154    20.606394           90           90           90 
  378500    260.58858   -10837.989   -9664.2973   -10837.989            0    7810.8306    46.665831    19.864306    20.470844            0            0            0    18976.151    7365.9796    8479.6551    7586.8571    330.79798   -825.34328   -129.47086    46.665831    19.864306    20.470844           90           90           90 
  379000    272.99726   -10938.836   -9709.2555   -10938.836            0    8360.2394    46.475881    19.520158    20.848226            0            0            0    18913.856    8402.5424    9282.2859    7395.8898    246.84909   -779.62922    565.55995    46.475881    19.520158    20.848226           90           90           90 
  379500    266.61226   -10940.747   -9739.9245   -10940.747            0    7928.5673    46.368775    19.929616    20.564916            0            0            0    19004.283    7687.0759    8226.5525    7872.0735   -71.131911    648.97056    1461.3838    46.368775    19.929616    20.564916           90           90           90 
  380000    256.93972   -10970.632   -9813.3741   -10970.632            0    7545.1937    46.284484    20.096096    20.401041            0            0            0    18975.772    7117.3552    7377.9829     8140.243   -467.93408   -613.26428    120.47721    46.284484    20.096096    20.401041           90           90           90 
  380500      283.282   -10888.195   -9612.2916   -10888.195            0       7707.7     46.39252    19.810936    20.702274            0            0            0     19027.03      8090.04    7295.0509    7738.0091   -35.486418    219.51196    112.70539     46.39252    19.810936    20.702274           90           90           90 
  381000    267.03235   -10851.419   -9648.7042   -10851.419            0    8771.4126    46.200983     19.92313    20.600331            0            0            0    18961.949    9243.4571    9000.8602    8069.9206    77.676638    886.71521   -935.03264    46.200983     19.92313    20.600331           90           90           90 
  381500    275.57029   -10850.174   -9609.0042   -10850.174            0    6802.3222    46.653259    19.822044    20.594396            0            0            0    19044.934    6584.1047    7166.5414    6656.3204    10.094163    386.64669    277.34321    46.653259    19.822044    20.594396           90           90           90 
  382000    262.52745   -10869.363   -9686.9386   -10869.363            0    7398.4378    46.500858    19.937208    20.525964            0            0            0    19029.566     6499.767    7730.9143    7964.6321    436.56552    1035.5425     56.47746    46.500858    19.937208    20.525964           90           90           90 
  382500    271.52189   -10897.237    -9674.301   -10897.237            0     8350.704    46.322805    19.778919    20.669618            0            0            0    18937.814    9795.4956    7993.0856    7263.5309   -220.74912   -216.49915   -76.047273    46.322805    19.778919    20.669618           90           90           90 
  383000    270.21084   -10871.163   -9654.1324   -10871.163            0    7399.0171    46.809688    19.846655    20.496577            0            0            0    19041.642    6760.3828    8037.9006    7398.7679   -116.90261   -485.64311   -167.64492    46.809688    19.846655    20.496577           90           90           90 
  383500    273.97578    -10872.48   -9638.4916    -10872.48            0    7661.0806    46.410592    19.859078    20.635987            0            0            0    19019.603     7834.333    8052.6228     7096.286   -242.28588   -531.87766    -541.6493    46.410592    19.859078    20.635987           90           90           90 
  384000    263.00077   -10934.562   -9750.0055   -10934.562            0    8058.5408    46.353632    19.915943    20.632765            0            0            0    19047.679    8216.5099    8237.5045    7721.6081   -246.91412   -286.24642   -557.20167    46.353632    19.915943    20.632765           90           90           90 
  384500    259.41043   -10881.237   -9712.8518   -10881.237            0    9350.7295    46.671703    19.855445    20.388383            0            0            0    18893.659    7689.2463    9758.0156    10604.927    398.26533    618.24906   -300.95735    46.671703    19.855445    20.388383           90           90           90 
  385000    266.37671   -10851.432     -9651.67   -10851.432            0    7896.0152    46.315055     19.91819     20.55994            0            0            0    18966.792    8222.6894    7568.6498    7896.7064   -329.15945       124.64   -400.65685    46.315055     19.91819     20.55994           90           90           90 
  385500    266.49751   -10892.607   -9692.3012   -10892.607            0    7726.7638    46.176323    19.938191    20.629567            0            0            0    18993.071    8561.8401    6497.2205    8121.2307    314.18035    838.85347   -105.15764    46.176323    19.938191    20.629567           90           90           90 
  386000    267.69805    -10868.73   -9663.0169    -10868.73            0    8058.9277    46.603828    19.755725    20.537095            0            0            0    18908.347    7295.3018    7519.2214    9362.2598   -305.47445    -880.6807   -618.68037    46.603828    19.755725    20.537095           90           90           90 
  386500    272.51573   -10893.556   -9666.1439   -10893.556            0    8864.6194    46.499877    19.786136    20.497944            0            0            0    18859.192     7613.244    9643.5823    9337.0319    130.11464    5.5593073   -21.685313    46.499877    19.786136    20.497944           90           90           90 
  387000    265.68936    -10887.55   -9690.8839    -10887.55            0    7733.3827    46.110469    19.956516    20.668648            0            0            0    19019.379     8367.399    7405.8547    7426.8943   -297.34751    900.32541   -1169.1317    46.110469    19.956516    20.668648           90           90           90 
  387500    263.71074   -10916.279   -9728.5247   -10916.279            0    7927.2976    46.432608    19.959835    20.464689            0            0            0    18966.412    7844.2239    8446.9219     7490.747   -253.35523    344.35427    -734.3602    46.432608    19.959835    20.464689           90           90           90 
  388000    268.93285   -10885.123   -9673.8481   -10885.123            0    8801.1234    46.084588    19.701765    20.735656            0            0            0    18826.892    7849.7093     9868.395    8685.2658   -136.68928   -363.39733    421.44093    46.084588    19.701765    20.735656           90           90           90 
  388500    260.73069    -10899.11   -9724.7777    -10899.11            0    7227.0807    46.594252    19.839564    20.526066            0            0            0    18974.494    5734.4782    8866.3463    7080.4176    -221.9244   -307.85463   -1327.0992    46.594252    19.839564    20.526066           90           90           90 
  389000    270.37328   -10879.005   -9661.2431   -10879.005            0    8991.5487    46.485869    19.804305     20.45702            0            0            0    18833.148    9637.8039    8460.2052    8876.6369   -139.34898     53.70275    282.13113    46.485869    19.804305     20.45702           90           90           90 
  389500    271.86842   -10939.795   -9715.2986   -10939.795            0     6593.423     46.52976    19.938461    20.638968            0            0            0    19147.427    6416.8896     6852.094    6511.2856     180.5874   -195.10769   -483.77453     46.52976    19.938461    20.638968           90           90           90 
  390000    270.13153   -10910.736   -9694.0623   -10910.736            0    8457.3223    46.345505    19.804254    20.611668            0            0            0    18918.175    8551.1493    8485.5541    8335.2637   -461.63314    540.17271    2.5683324    46.345505    19.804254    20.611668           90           90           90 
  390500    270.24435   -10860.669   -9643.4877   -10860.669            0     9054.346    46.174406    19.923998    20.519007            0            0            0    18877.051    10625.908    7557.1069    8980.0232   -624.58032    54.793461   -686.40479    46.174406    19.923998    20.519007           90           90           90 
  391000    269.49821   -10882.353   -9668.5324   -10882.353            0    8403.9867    46.322823    19.825704    20.626558            0            0            0    18943.071    9908.2004    7233.7154    8070.0442    233.71076    -733.3324   -260.48544    46.322823    19.825704    20.626558           90           90           90 
  391500    275.01474   -10866.732   -9628.0648   -10866.732            0    8459.8985     46.56777    19.754688    20.496765            0            0            0    18855.625    9411.8999    6798.3974    9169.3981    309.77713   -374.12046    5.4583636     46.56777    19.754688    20.496765           90           90           90 
  392000    262.35434   -10916.143   -9734.4976   -10916.143            0    7943.6434    46.247674    19.978536    20.533663            0            0            0    18972.299    8335.6676    7170.7812    8324.4815   -248.43866    398.08552    1752.8971    46.247674    19.978536    20.533663           90           90           90 
  392500    272.54408   -10870.369    -9642.829   -10870.369            0    9489.2829    46.048892     19.94421    20.521787            0            0            0    18847.389    9221.3997    9702.4806    9543.9686   -358.18615    296.29019   -255.87784    46.048892     19.94421    20.521787           90           90           90 
  393000    276.27521   -10858.507   -9614.1623   -10858.507            0    7906.5521    46.333299    19.866065    20.650747            0            0            0    19008.194    7718.1125    8499.9243    7501.6196     11.08043   -187.55686   -1262.2614    46.333299    19.866065    20.650747           90           90           90 
  393500    268.66437    -10923.11   -9713.0447    -10923.11            0    7312.2633    46.748136    19.851104    20.454556            0            0            0    18981.871    7170.4103    7348.1987     7418.181    151.47637   -909.81697    145.40489    46.748136    19.851104    20.454556           90           90           90 
  394000    268.48375   -10931.518   -9722.2663   -10931.518            0    7489.9734     46.31616    19.883601    20.626378            0            0            0    18995.493    7367.4172    7451.3747    7651.1284   -579.60686    -831.3634    287.36477     46.31616    19.883601    20.626378           90           90           90 
  394500    270.87522   -10897.961   -9677.9383   -10897.961            0    8078.2573    46.268854    19.986771    20.515984            0            0            0    18972.465    7904.0149    7514.8109    8815.9462   -624.62702   -1208.0532    949.65584    46.268854    19.986771    20.515984           90           90           90 
  395000    263.44716   -10875.688   -9689.1213   -10875.688            0    8785.2936    46.112421    19.840508    20.741759            0            0            0    18976.508     9266.181    9235.9765    7853.7232    349.79721    726.42173   -437.28983    46.112421    19.840508    20.741759           90           90           90 
  395500    262.20224   -10954.614   -9773.6538   -10954.614            0     8858.759    46.645586    19.800727    20.431935            0            0            0    18871.273    8158.4925    10017.753    8400.0313   -207.44532    349.59357    202.68805    46.645586    19.800727    20.431935           90           90           90 
  396000    271.00124    -10937.06   -9716.4694    -10937.06            0    7750.7636     46.27968    19.993349    20.553876            0            0            0     19018.21    8370.2635    7731.4365    7150.5907     455.5879    642.09132    662.36475     46.27968    19.993349    20.553876           90           90           90 
  396500    276.59866   -10835.093   -9589.2915   -10835.093            0    9147.1325    45.972379    19.890226    20.714488            0            0            0    18941.349    8821.7642    9141.7457    9477.8874   -217.49076   -1344.6454    1277.7234    45.972379    19.890226    20.714488           90           90           90 
  397000    260.69164   -10935.435   -9761.2791   -10935.435            0    7980.3723    46.548204    19.975703     20.37865            0            0            0    18948.743    8669.2078     6979.476    8292.4332   -201.09674   -70.274496   -457.01785    46.548204    19.975703     20.37865           90           90           90 
  397500    272.12011   -10909.738    -9684.108   -10909.738            0    6662.5547    46.483767      19.7549     20.64847            0            0            0    18961.122    7152.1708    6408.7876    6426.7056    177.27979   -497.42077    419.41813    46.483767      19.7549     20.64847           90           90           90 
  398000    274.06035   -10919.369        -9685   -10919.369            0    8538.4252    46.472414    19.814248    20.550193            0            0            0    18922.946    8002.7957    9595.9837    8016.4961   -125.64596   -149.89624   -483.33504    46.472414    19.814248    20.550193           90           90           90 
  398500    276.56112   -10850.057   -9604.4243   -10850.057            0    8438.3032    46.280422    19.994413    20.542492            0            0            0    19008.992    8883.1416    8611.6495    7820.1185    80.268683    376.66334   -640.46456    46.280422    19.994413    20.542492           90           90           90 
  399000    272.65277   -10954.597   -9726.5679   -10954.597            0    7801.4209    46.323613    19.860944    20.630632            0            0            0    18980.815    8029.4533    7321.2547    8053.5546    386.84163   -736.04078    552.22208    46.323613    19.860944    20.630632           90           90           90 
  399500    271.47538   -10915.772   -9693.0457   -10915.772            0    9033.4602    46.496851      19.9389    20.297654            0            0            0    18817.875     9828.701     7734.336    9537.3437   -586.62674    1278.6482    405.15083    46.496851      19.9389    20.297654           90           90           90 
  400000    268.78044   -10926.321   -9715.7325   -10926.321            0    8678.0193    46.552055     19.82284     20.59131            0            0            0    19001.536    8656.3911    8290.9565    9086.7104   -82.996939    894.25027    214.07888    46.552055     19.82284     20.59131           90           90           90 
  400500    260.66339   -10841.032   -9667.0032   -10841.032            0    7461.4274    46.440343    19.880383    20.626415            0            0            0    19043.375    7607.7518    7139.2793    7637.2512   -171.62051    60.022704   -561.95729    46.440343    19.880383    20.626415           90           90           90 
  401000    282.25244   -10891.722   -9620.4557   -10891.722            0    7984.0575    46.391959     20.00751    20.405718            0            0            0    18940.335    8489.1487    6932.9249    8530.0987   -83.315219    23.538655    1446.1857    46.391959     20.00751    20.405718           90           90           90 
  401500    272.11999   -10866.952   -9641.3229   -10866.952            0    7979.4417    46.341727    19.894181    20.630224            0            0            0    19019.637    8946.6228    7930.9462    7060.7561   -128.23827    208.18943    507.84628    46.341727    19.894181    20.630224           90           90           90 
  402000    269.39035   -10875.993   -9662.6583   -10875.993            0    7213.7264    46.476066    19.860866    20.541989            0            0            0    18961.384    6755.1072    8174.7033    6711.3687   -280.45317   -439.88332   -71.065307    46.476066    19.860866    20.541989           90           90           90 
  402500     263.8411   -10854.668   -9666.3268   -10854.668            0    8562.5364    46.113366    19.906716    20.665222            0            0            0    18969.964    9842.1445    7681.8977     8163.567    159.87179    338.61613   -518.27363    46.113366    19.906716    20.665222           90           90           90 
  403000    271.54254   -10902.682   -9679.6537   -10902.682            0    7837.6582     46.61509     19.82558    20.516132            0            0            0    18960.418     7017.876    8696.5709    7798.5277   -63.255567    574.50097    296.65916     46.61509     19.82558    20.516132           90           90           90 
  403500    261.31376   -10864.439   -9687.4806   -10864.439            0    7299.4687    46.606699    20.010504     20.44502            0            0            0    19067.506    6874.8071    7030.0953    7993.5037   -226.11021    747.84949    -73.64948    46.606699    20.010504     20.44502           90           90           90 
  404000    259.84864   -10892.803    -9722.444   -10892.803            0    8819.8192    45.898067     19.79045    20.750872            0            0            0    18848.917    9522.1941    8897.3821    8039.8815    -245.6051   -1058.0876    660.03326    45.898067     19.79045    20.750872           90           90           90 
  404500    272.41567   -10910.493   -9683.5313   -10910.493            0    8453.6371    46.654636    19.870407    20.424142            0            0            0    18934.131    8122.7131    9074.4665    8163.7316   -293.02821   -1372.6764   -930.94975    46.654636    19.870407    20.424142           90           90           90 
  405000    264.53517   -10911.668   -9720.2003   -10911.668            0    7529.5888    46.041573    19.967822    20.573545            0            0            0    18914.287    8267.3471    7045.9074    7275.5119    189.26035    917.06564      230.159    46.041573    19.967822    20.573545           90           90           90 
  405500    276.47328   -10884.008   -9638.7715   -10884.008            0    7354.2201    46.377231    19.794208    20.605865            0            0            0    18916.196    7118.9691    8014.0357    6929.6554   -377.87142   -629.42761   -246.70369    46.377231    19.794208    20.605865           90           90           90 
  406000    269.85781   -10871.217   -9655.7766   -10871.217            0    8109.1119    46.897199    19.706723    20.545051            0            0            0    18987.533    7774.7091    8989.7286    7562.8978    163.17477     286.1877   -343.78336    46.897199    19.706723    20.545051           90           90           90 
  406500    262.82372   -10891.467   -9707.7075   -10891.467            0    8438.3867    46.561323    19.866407    20.550693            0            0            0    19009.518    7242.0987    9799.0064     8274.055    99.555961    14.709633   -1134.7186    46.561323    19.866407    20.550693           90           90           90 
  407000    273.12777   -10911.083   -9680.9145   -10911.083            0    8806.7373    46.203237    19.976496    20.517005            0            0            0    18936.761    10635.537    7203.0849    8581.5905    246.45769     1976.109   -158.81334    46.203237    19.976496    20.517005           90           90           90 
  407500    264.32272   -10895.721   -9705.2109   -10895.721            0    7441.7283    46.311638    19.839135    20.662603            0            0            0    18984.445    8443.7709    6823.0403    7058.3737   -616.95555     798.3132   -303.32625    46.311638    19.839135    20.662603           90           90           90 
  408000    274.91771   -10914.485   -9676.2541   -10914.485            0    8589.4612    46.517357    19.915198    20.439865            0            0            0     18935.54    7825.0558    9172.0134    8771.3145    725.19893    284.70993    389.67059    46.517357    19.915198    20.439865           90           90           90 
  408500    274.96581    -10884.25   -9645.8029    -10884.25            0    7611.5888    46.323025    19.947521    20.519237            0            0            0     18960.38    6502.4056    8522.6636    7809.6972    -152.5441   -510.12983    1138.0011    46.323025    19.947521    20.519237           90           90           90 
  409000    269.87142   -10878.279   -9662.7771   -10878.279            0    7284.6781    46.425136    19.862039    20.641935            0            0            0    19033.884    6425.7596    7642.6841    7785.5905   -102.75221      477.533    112.09784    46.425136    19.862039    20.641935           90           90           90 
  409500    262.47158   -10904.846   -9722.6729   -10904.846            0     6846.464     47.10904    19.831951    20.388489            0            0            0    19048.235    7300.1986    6045.1977    7193.9959    35.806169    492.62428   -6.0177853     47.10904    19.831951    20.388489           90           90           90 
  410000    271.44692   -10924.237   -9701.6388   -10924.237            0    8227.5793    46.352306    19.822355    20.580782            0            0            0    18909.867    8971.5383    7989.7135    7721.4861    77.781135    916.04094    573.91859    46.352306    19.822355    20.580782           90           90           90 
  410500    280.23012   -10908.742   -9646.5843   -10908.742            0    8270.9312     46.18527    19.897802    20.680382            0            0            0    19004.967      9544.49    7780.0279    7488.2758   -154.18506    470.88123    583.24246     46.18527    19.897802    20.680382           90           90           90 
  411000    282.47663   -10854.254   -9581.9782   -10854.254            0    8106.7163    46.397913    19.886193     20.48109            0            0            0    18897.448    8354.1376    7217.5145    8748.4967    448.68554    278.76664    541.76021    46.397913    19.886193     20.48109           90           90           90 
  411500    264.76968   -10940.856   -9748.3323   -10940.856            0    7839.0235    46.759429    19.777393    20.541791            0            0            0    18996.629    6640.3036    8414.9675    8461.7994    167.88624   -6.3812131    6.7544529    46.759429    19.777393    20.541791           90           90           90 
  412000    268.73878    -10891.28   -9680.8793    -10891.28            0    8086.3049    46.176133     19.95971    20.584746            0            0            0    18972.183    9651.1075    7303.1705    7304.6369    518.95226   -438.22898    654.01788    46.176133     19.95971    20.584746           90           90           90 
  412500    271.05029   -10875.526    -9654.714   -10875.526            0    8861.1549    46.467438    19.869553    20.476201            0            0            0    18905.416    8856.0616    8335.8435    9391.5598   -114.92748    106.66413    85.842547    46.467438    19.869553    20.476201           90           90           90 
  413000    268.15161   -10936.035   -9728.2786   -10936.035            0    7339.5885     46.80357    19.866273    20.504532            0            0            0     19065.37    6816.7072    7375.9599    7826.0985    219.93032    350.93449    177.12114     46.80357    19.866273    20.504532           90           90           90 
  413500    273.59261   -10902.342   -9670.0796   -10902.342            0    6950.4538     46.13296    19.986778    20.619222            0            0            0    19011.937    8062.2998    6265.1195    6523.9419    -338.9693   -181.41706   -309.69649     46.13296    19.986778    20.619222           90           90           90 
  414000    262.46346   -10876.201   -9694.0645   -10876.201            0    7899.8513    46.812112    19.742437    20.594715            0            0            0    19033.331    6740.4368     9011.802    7947.3151   -276.20676    579.41041    84.830177    46.812112    19.742437    20.594715           90           90           90 
  414500    263.62439   -10906.227   -9718.8618   -10906.227            0    8825.5345    45.915295    19.973078    20.516654            0            0            0    18815.202    8506.8942    8735.1979    9234.5113   -245.87398    165.07464    1289.8543    45.915295    19.973078    20.516654           90           90           90 
  415000    267.38866   -10897.254   -9692.9343   -10897.254            0    8281.0161    46.219295    19.948124    20.541181            0            0            0    18938.727    7418.3283    8899.4905    8525.2295   -130.01394   -324.88528    304.63633    46.219295    19.948124    20.541181           90           90           90 
  415500      266.595   -10908.284   -9707.5394   -10908.284            0    7418.3658    46.625358    19.824122    20.629445            0            0            0    19067.936    7218.6749    7190.9292    7845.4933    163.50641   -308.49433   -346.49147    46.625358    19.824122    20.629445           90           90           90 
  416000    265.93241    -10898.19   -9700.4294    -10898.19            0    8326.8806    46.308871    20.050832    20.393423            0            0            0    18935.933    8458.6652     8281.365    8240.6116    146.21931    779.03124    138.02877    46.308871    20.050832    20.393423           90           90           90 
  416500    267.21549    -10899.98   -9696.4402    -10899.98            0     7711.563    46.045888    19.924613    20.622187            0            0            0    18919.753    8336.4295    7732.9656    7065.2938   -545.41916   -426.28267    416.49049    46.045888    19.924613    20.622187           90           90           90 
  417000    271.69288   -10922.943   -9699.2372   -10922.943            0    6974.3797    46.514881     19.96351    20.448792            0            0            0    18988.754    5532.3414    8008.6924    7382.1053   -253.43676    495.03036    216.23746    46.514881     19.96351    20.448792           90           90           90 
  417500     269.8523   -10907.066   -9691.6504   -10907.066            0    6515.0436    46.677983    19.790702    20.634542            0            0            0    19061.984    6400.8651    7077.1493    6067.1163   -72.775796   -207.80256    246.41376    46.677983    19.790702    20.634542           90           90           90 
  418000    263.92588   -10916.165   -9727.4414   -10916.165            0    7182.5765    46.652512    19.946488     20.54743            0            0            0    19120.489    5965.8494    7849.1122    7732.7679    786.71856    1024.1275    336.41708    46.652512    19.946488     20.54743           90           90           90 
  418500    266.48574   -10878.527   -9678.2738   -10878.527            0    7176.4842    46.169042     19.95595    20.637517            0            0            0    19014.316    6844.5574    7728.0699    6956.8253   -109.04612    153.11719   -705.34468    46.169042     19.95595    20.637517           90           90           90 
  419000     266.4992   -10855.427   -9655.1131   -10855.427            0    9713.9871    46.012036    20.007373     20.46794            0            0            0    18842.376    10179.344    8931.6278    10030.989   -234.74886    565.03937    -442.4988    46.012036    20.007373     20.46794           90           90           90 
  419500    271.01744   -10869.845   -9649.1818   -10869.845            0    8249.0904    46.572443    19.763794    20.530337            0            0            0    18897.111    8494.6191    9088.9978    7163.6544    167.02939    617.06038    505.34176    46.572443    19.763794    20.530337           90           90           90 
  420000    264.69467   -10889.904   -9697.7184   -10889.904            0    7882.7899    46.703659    19.779835    20.540807            0            0            0    18975.405    7222.9199    8514.0806    7911.3692    75.806055   -892.58673   -142.67656    46.703659    19.779835    20.540807           90           90           90 
  420500    277.08092   -10848.467   -9600.4938   -10848.467            0    7621.6833    46.469514     19.99916    20.530464            0            0            0    19080.012    7928.6429    7299.8681     7636.539    132.02471    209.72904    64.154664    46.469514     19.99916    20.530464           90           90           90 
  421000    270.74932   -10906.882   -9687.4256   -10906.882            0    7826.0471    46.227752    19.974271    20.632202            0            0            0    19051.066    8199.3009    7329.4995    7949.3409      437.113    87.355858    1045.7697    46.227752    19.974271    20.632202           90           90           90 
  421500    276.81455   -10869.909   -9623.1355   -10869.909            0    8737.5754    46.587488    19.788125    20.569085            0            0            0    18962.209    9197.2806    8680.2457    8335.2001   -685.99376    -575.4494   -168.19552    46.587488    19.788125    20.569085           90           90           90 
  422000    272.28131   -10859.374   -9633.0179   -10859.374            0    9255.9123    46.704882    19.742154    20.463139            0            0            0     18868.14    8631.4377    9681.6948    9454.6044    -272.8691    195.83399    287.94401    46.704882    19.742154    20.463139           90           90           90 
  422500    272.78335    -10902.52   -9673.9025    -10902.52            0    7182.4686    46.233334    19.938462     20.66401            0            0            0    19048.531    7459.8997    6552.0439    7535.4621    507.92582   -312.74505   -659.68182    46.233334    19.938462     20.66401           90           90           90 
  423000    272.01447   -10906.229   -9681.0747   -10906.229            0    6590.1332    46.574156    19.931187    20.490559            0            0            0     19020.94     6317.282    6742.2964    6710.8212    -241.3014    87.639011    482.04446    46.574156    19.931187    20.490559           90           90           90 
  423500    264.37763   -10894.328     -9703.57   -10894.328            0    8348.1922    46.541491    19.753158    20.634285            0            0            0    18969.953    7908.6259    8917.1248    8218.8259    188.79767    532.37445   -186.55549    46.541491    19.753158    20.634285           90           90           90 
  424000    267.87506   -10938.892   -9732.3813   -10938.892            0    8226.7646    46.383123    19.884201    20.541567            0            0            0    18945.309    8564.4588     7938.505      8177.33    434.82302    324.54595    512.40063    46.383123    19.884201    20.541567           90           90           90 
  424500    272.69355   -10862.274   -9634.0607   -10862.274            0    8270.1349    46.219868     20.05389    20.441576            0            0            0    18947.055    7334.6995    8361.7096    9113.9957   -144.44743   -56.498919   -567.54232    46.219868     20.05389    20.441576           90           90           90 
  425000     283.9835   -10927.489   -9648.4258   -10927.489            0    6657.6203      46.3847    19.935247    20.664096            0            0            0    19107.892    6941.1044    6633.3082    6398.4484   -121.77914    370.57555    1023.4354      46.3847    19.935247    20.664096           90           90           90 
  425500    279.73861   -10879.537   -9619.5928   -10879.537            0    8487.5249    46.666108    19.789827    20.508574            0            0            0    18939.959    7415.5866    8179.8452    9867.1428   -2.7535727   -696.17337     306.5303    46.666108    19.789827    20.508574           90           90           90 
  426000    272.65464   -10897.604   -9669.5662   -10897.604            0     7082.009      46.8864    19.858134    20.514047            0            0            0    19100.145    6284.8135    7635.1166    7326.0967    56.405207    520.91281    19.106556      46.8864    19.858134    20.514047           90           90           90 
  426500    274.28454   -10919.501   -9684.1223   -10919.501            0    8248.5451    46.487281    19.804984    20.619922            0            0            0    18984.347    8255.9708    7216.9871    9272.6774   -305.38063   -57.305266   -132.70496    46.487281    19.804984    20.619922           90           90           90 
  427000    268.79234   -10930.529   -9719.8869   -10930.529            0    7746.7372     46.56916    20.012675    20.477473            0            0            0    19084.462    8440.0431     7121.831    7678.3374   -114.75057    280.17809     1105.169     46.56916    20.012675    20.477473           90           90           90 
  427500    273.23776   -10860.037   -9629.3726   -10860.037            0    8363.2436    46.020489    19.873583    20.710584            0            0            0    18941.735     9489.614    8226.3337    7373.7832   -702.08839     212.0367    363.44917    46.020489    19.873583    20.710584           90           90           90 
  428000     273.7707   -10928.431   -9695.3666   -10928.431            0    7133.5564    46.678675    19.882532    20.549898            0            0            0     19072.16     7015.474     7708.998    6676.1972    150.65258   -348.78282    1028.0492    46.678675    19.882532    20.549898           90           90           90 
  428500    274.00032   -10885.041   -9650.9424   -10885.041            0    8738.1683    46.435198    19.745766     20.65724            0            0            0    18940.594    8700.7469    8882.4281      8631.33   -735.25546    55.709593    -144.2622    46.435198    19.745766     20.65724           90           90           90 
  429000    276.04195   -10875.432   -9632.1382   -10875.432            0    7419.8777    46.621787     19.86646    20.529276            0            0            0    19014.418    8616.6938    5790.5471    7852.3923    163.66603    542.50559   -636.85628    46.621787     19.86646    20.529276           90           90           90 
  429500    272.76163   -10839.231   -9610.7114   -10839.231            0    7286.5814    46.284136    20.020969    20.517959            0            0            0    19013.033    6619.4796    7342.5328    7897.7318   -77.249291    1166.8337     -339.147    46.284136    20.020969    20.517959           90           90           90 
  430000    268.60066    -10919.38   -9709.6019    -10919.38            0    6911.5762    46.101647    19.899528     20.64381            0            0            0    18938.652    7325.8743    6679.6343      6729.22     138.3909   -192.85376    797.81208    46.101647    19.899528     20.64381           90           90           90 
  430500    272.62703   -10898.656    -9670.743   -10898.656            0    7944.7757    46.795805    19.924458    20.448229            0            0            0    19065.542    7412.8422    7336.5552    9084.9296    124.48952    -563.0595    117.53009    46.795805    19.924458    20.448229           90           90           90 
  431000    264.38295   -10941.005   -9750.2231   -10941.005            0    7623.9575    46.697918    19.832962    20.574032            0            0            0    19054.805    5958.6069    8884.7958    8028.4697    147.85354   -133.89969    121.62766    46.697918    19.832962    20.574032           90           90           90 
  431500    272.63526   -10905.539   -9677.5885   -10905.539            0    7480.6389    45.965625    20.008605     20.70205            0            0            0    19039.842    8321.3763    7041.1983     7079.342   -138.29745   -78.046196    152.55624    45.965625    20.008605     20.70205           90           90           90 
  432000    266.42441   -10848.853   -9648.8768   -10848.853            0    7331.9781    46.327004    20.069425    20.401183            0            0            0    18968.129    6463.0587    7137.8848    8394.9907     130.5719    751.95926    488.87655    46.327004    20.069425    20.401183           90           90           90 
  432500    268.20028   -10888.235     -9680.26   -10888.235            0    8331.2168    46.026095    19.806417    20.693422            0            0            0    18864.372     7414.745    10077.469    7501.4362    114.18244    353.43067   -460.53951    46.026095    19.806417    20.693422           90           90           90 
  433000    271.51536   -10891.382   -9668.4754   -10891.382            0    9183.7668    46.415365    19.810828    20.515076            0            0            0    18864.163    9173.6043     9916.899    8460.7971    355.21666    197.47704    1065.6195    46.415365    19.810828    20.515076           90           90           90 
  433500    274.88532   -10911.641   -9673.5559   -10911.641            0    8681.1728    46.113838    19.888517    20.604758            0            0            0    18897.363    9899.6187    7885.3676    8258.5322    148.59372    264.18963    507.79443    46.113838    19.888517    20.604758           90           90           90 
  434000    273.05369    -10897.59   -9667.7553    -10897.59            0    7233.6422    46.293596    19.909796    20.598296            0            0            0    18985.369     7613.162    6354.7321    7733.0324   -252.51018   -900.32886   -357.88996    46.293596    19.909796    20.598296           90           90           90 
  434500    272.59887   -10863.479   -9635.6929   -10863.479            0     8055.342    46.700336    19.773191    20.538197            0            0            0    18965.272    6227.6962    9421.1398    8517.1899   -304.54959    175.73207    482.42709    46.700336    19.773191    20.538197           90           90           90 
  435000    262.22414   -10929.706   -9748.6477   -10929.706            0    7732.0016    46.150176    19.869571    20.627574            0            0            0    18915.159    8111.8746    7389.9217    7694.2085    11.362605    537.55314     154.4457    46.150176    19.869571    20.627574           90           90           90 
  435500    269.04237   -10927.708   -9715.9397   -10927.708            0    8858.4483     46.12256    20.013231    20.448968            0            0            0    18875.654    10408.987    6998.9514    9167.4064    338.87129    25.433686    216.66313     46.12256    20.013231    20.448968           90           90           90 
  436000    273.04311   -10895.869   -9666.0816   -10895.869            0    7398.7864    46.191589    19.980251    20.629429            0            0            0    19039.303    6448.1227    8339.0354    7409.2012   -81.157821   -224.84492    556.09092    46.191589    19.980251    20.629429           90           90           90 
  436500    268.57372   -10958.975   -9749.3178   -10958.975            0    7317.4197    46.445014    19.882591    20.489117            0            0            0    18920.618     7611.794    7856.3903    6484.0747    -349.8824    201.49018    -101.1155    46.445014    19.882591    20.489117           90           90           90 
  437000    264.96391   -10856.134   -9662.7356   -10856.134            0    8239.9319    46.670462    19.754113    20.569105            0            0            0    18963.349     8152.936    7735.3054    8831.5545    489.85468   -386.99377   -47.120115    46.670462    19.754113    20.569105           90           90           90 
  437500    275.78024   -10855.747   -9613.6319   -10855.747            0    7324.7605     46.20659     19.90649    20.594566            0            0            0    18943.109    7711.3873    6398.8052    7864.0889   -549.40311    362.21891   -204.48873     46.20659     19.90649    20.594566           90           90           90 
  438000    268.87252   -10889.497   -9678.4946   -10889.497            0    8824.6644    46.219159    19.979395    20.461374            0            0            0    18894.664    8298.7216    9407.1796     8768.092    836.94461    443.38064   -848.33328    46.219159    19.979395    20.461374           90           90           90 
  438500    264.11531   -10859.903   -9670.3264   -10859.903            0    7641.4421    46.286636    19.845128    20.691141            0            0            0    19006.142    7875.7139     7685.457    7363.1555   -448.18217  -0.81881113   -200.53989    46.286636    19.845128    20.691141           90           90           90 
  439000    266.96548   -10851.476   -9649.0629   -10851.476            0    6479.5562     46.86245    19.847203    20.575804            0            0            0     19137.32    4905.7101    7726.1241    6806.8344    685.60858   -722.97449    121.94417     46.86245    19.847203    20.575804           90           90           90 
  439500    271.87199   -10857.646   -9633.1337   -10857.646            0    7869.6326    46.420307    19.929242    20.511073            0            0            0    18975.236     7829.405    7304.0407    8475.4521    204.38098   -912.37291   -6.9714053    46.420307    19.929242    20.511073           90           90           90 
  440000     264.3747   -10921.693   -9730.9488   -10921.693            0    8807.0347    46.104263    19.808297    20.648385            0            0            0    18857.074    9757.0743     8939.568    7724.4618   -425.68835   -243.71448    28.460486    46.104263    19.808297    20.648385           90           90           90 
  440500     273.7502   -10916.119   -9683.1471   -10916.119            0    7223.9275    46.606819    19.763584    20.562053            0            0            0    18940.073    8200.8605    5657.3288    7813.5934   -64.746595    610.26357   -120.16328    46.606819    19.763584    20.562053           90           90           90 
  441000    258.85244   -10949.726   -9783.8532   -10949.726            0    8314.2749    46.552554    19.843714    20.501771            0            0            0    18939.036    8100.5709    8458.4211    8383.8327    162.43577    479.39461   -40.277752    46.552554    19.843714    20.501771           90           90           90 
  441500    270.34128   -10874.919   -9657.3006   -10874.919            0    7475.8748    46.225091    19.843834    20.630928            0            0            0      18924.4    8744.1433    6183.5352    7499.9458    -427.6755    317.26078    374.14362    46.225091    19.843834    20.630928           90           90           90 
  442000    270.32421   -10902.823   -9685.2815   -10902.823            0    8522.7253     46.09036    19.868501    20.579017            0            0            0     18845.16    11699.837    5702.1668    8166.1724    5.3153958    976.21437    548.32142     46.09036    19.868501    20.579017           90           90           90 
  442500    275.22447   -10881.309   -9641.6967   -10881.309            0    8069.6008    46.517813    19.852561    20.506026            0            0            0    18937.268    8133.6962    8214.9592    7860.1468    452.62731     29.29992    221.10424    46.517813    19.852561    20.506026           90           90           90 
  443000    263.86784   -10866.903   -9678.4414   -10866.903            0    8359.1608    46.215193    19.899113    20.587652            0            0            0    18933.256    9075.4997    8045.3392    7956.6434   -454.15003    1271.0758    565.96389    46.215193    19.899113    20.587652           90           90           90 
  443500    271.43446   -10902.758    -9680.216   -10902.758            0    7446.0918    46.547227    19.945119    20.421808            0            0            0    18959.402    6654.4278    7598.2445    8085.6031    297.71874   -227.02083    429.75758    46.547227    19.945119    20.421808           90           90           90 
  444000      279.941   -10929.508   -9668.6525   -10929.508            0    7968.0518    46.273964    19.725047    20.750553            0            0            0    18940.194    8639.7275    7431.4138    7833.0142   -103.18141    194.87118   -863.55513    46.273964    19.725047    20.750553           90           90           90 
  444500      267.365   -10928.986   -9724.7732   -10928.986            0    8666.8993    46.378888    19.903261    20.490138            0            0            0    18914.264     8316.966    9671.8163    8011.9156   -80.739298   -799.15586    395.04165    46.378888    19.903261    20.490138           90           90           90 
  445000    270.36767   -10881.121   -9663.3842   -10881.121            0    7754.0239    46.431723    20.010225    20.379906            0            0            0    18935.159    7229.8331    7770.9173    8261.3213   -174.73533     490.8846   -342.98967    46.431723    20.010225    20.379906           90           90           90 
  445500    276.16719   -10867.604   -9623.7462   -10867.604            0    8878.6982    46.015704     19.74645    20.759717            0            0            0     18863.25    10254.883    8580.8569    7800.3542    473.52506    497.36951    330.15224    46.015704     19.74645    20.759717           90           90           90 
  446000    273.10499   -10883.748   -9653.6816   -10883.748            0    8188.2338    46.597086    19.840797    20.499245            0            0            0    18952.031    7705.4085    8274.6865    8584.6064     297.7676   -381.16476    919.52591    46.597086    19.840797    20.499245           90           90           90 
  446500    263.84375   -10880.722   -9692.3688   -10880.722            0    7355.4037    46.481593    19.986251    20.518101            0            0            0    19061.168    6680.9019     8417.075    6968.2341    52.630942    -150.2389    290.38114    46.481593    19.986251    20.518101           90           90           90 
  447000    274.29819   -10888.066   -9652.6263   -10888.066            0    8018.4778    46.560414    19.732274     20.77589            0            0            0      19087.7    7819.0073    8254.0309    7982.3951   -240.60615   -468.85341    540.54104    46.560414    19.732274     20.77589           90           90           90 
  447500    270.38007   -10897.511   -9679.7182   -10897.511            0    9037.1936    46.404847    19.875307    20.429694            0            0            0    18842.523    7774.9453    9613.2861    9723.3494   -304.32058   -462.42658   -238.20964    46.404847    19.875307    20.429694           90           90           90 
  448000    270.52971    -10900.05   -9681.5833    -10900.05            0     8129.066     46.31127    19.937818    20.618136            0            0            0    19037.666    7584.1057    8480.2281    8322.8643    195.22209   -635.00743   -322.09369     46.31127    19.937818    20.618136           90           90           90 
  448500    262.46974   -10887.174   -9705.0092   -10887.174            0    7887.0739    46.299749    19.883639    20.595232            0            0            0    18960.125    8656.1044    6949.7854    8055.3318    247.36368    384.31481    210.76912    46.299749    19.883639    20.595232           90           90           90 
  449000    267.40562   -10925.542   -9721.1459   -10925.542            0    7095.2679    46.481659    20.076367    20.389945            0            0            0    19027.546    5989.3831    7067.3543    8229.0662   -403.01135    821.53199    320.16235    46.481659    20.076367    20.389945           90           90           90 
  449500    267.85354   -10915.907   -9709.4939   -10915.907            0     7468.817    46.364717    19.801892    20.723134            0            0            0    19026.098    7273.2784    8585.7695     6547.403    197.77123   -278.25096   -192.77416    46.364717    19.801892    20.723134           90           90           90 
  450000    276.28475   -10916.639   -9672.2518   -10916.639            0    6605.8066    46.419161    19.945515    20.578789            0            0            0    19052.956    7569.5949    6651.9265    5595.8983    -271.7736    23.986843   -991.03231    46.419161    19.945515    20.578789           90           90           90 
  450500    269.83603   -10888.999   -9673.6564   -10888.999            0    7881.7351    46.562963    19.949627    20.462976            0            0            0     19008.34    8802.2041    7646.9986    7196.0026    281.42967    656.84799    71.733871    46.562963    19.949627    20.462976           90           90           90 
  451000     261.8235    -10945.57    -9766.316    -10945.57            0    8058.8619    46.485368    19.739042    20.669231            0            0            0    18965.604    7318.0649    9052.8548     7805.666   -240.69741    278.81248    -93.74723    46.485368    19.739042    20.669231           90           90           90 
  451500    261.52465   -10878.132   -9700.2237   -10878.132            0     7336.048    46.584804    19.913567    20.482504            0            0            0    19000.996    7425.0347     7042.384    7540.7252    -492.9537    -41.94068    305.67763    46.584804    19.913567    20.482504           90           90           90 
  452000    273.75162   -10889.253   -9656.2742   -10889.253            0    8350.6011    46.235485    19.965153    20.500948            0            0            0    18924.394    8398.2233    9062.0272    7591.5529    229.39429   -178.32108   -74.898248    46.235485    19.965153    20.500948           90           90           90 
  452500    267.05941   -10912.609   -9709.7726   -10912.609            0    8885.6866    46.317861    19.752466    20.635648            0            0            0    18879.389    7322.8649    10407.203    8926.9922   -284.59409   -896.83386    393.15526    46.317861    19.752466    20.635648           90           90           90 
  453000    267.90294   -10942.649   -9736.0128   -10942.649            0    7677.9987    46.554702     19.89534    20.445263            0            0            0    18936.845    8576.2137    6626.7407    7831.0417   -406.73718    665.37021    465.67978    46.554702     19.89534    20.445263           90           90           90 
  453500    281.60505   -10876.968   -9608.6174   -10876.968            0    6796.8076    46.208932    19.976355    20.628146            0            0            0    19041.553    7998.4628    6512.3785    5879.5815    373.16888    180.16524   -873.77943    46.208932    19.976355    20.628146           90           90           90 
  454000    270.50243   -10872.383   -9654.0391   -10872.383            0    8763.7928    46.502931    19.856729    20.550312            0            0            0    18976.078    8732.2186    9171.1881    8387.9717    392.58401   -1386.5152   -672.40798    46.502931    19.856729    20.550312           90           90           90 
  454500    275.32139   -10840.435   -9600.3865   -10840.435            0    6831.5291    46.343361     19.88318    20.561049            0            0            0    18946.049    5966.1012    7502.2801     7026.206    165.09402   -63.731869   -133.28259    46.343361     19.88318    20.561049           90           90           90 
  455000    270.53069   -10879.552   -9661.0804   -10879.552            0    8497.7891    46.234929    19.909671    20.580732            0            0            0    18945.021    7853.6434    9198.3623    8441.3616    53.168124    213.55877   -688.34942    46.234929    19.909671    20.580732           90           90           90 
  455500    267.78387   -10919.614    -9713.514   -10919.614            0    7729.9539    46.366596    19.921593    20.581551            0            0            0    19011.106    7576.7905    7415.1307    8197.9405   -159.67452   -169.31699   -399.98583    46.366596    19.921593    20.581551           90           90           90 
  456000    278.54282    -10884.75   -9630.1915    -10884.75            0    8392.0487    46.583436     19.78835    20.530911            0            0            0    18925.586    9154.1464    6213.7443    9808.2554    -291.4903     25.70067    391.02051    46.583436     19.78835    20.530911           90           90           90 
  456500    264.23465   -10921.366   -9731.2524   -10921.366            0      8259.33     46.49883    20.027214    20.418701            0            0            0    19014.752    10180.493    6488.6794    8108.8178   -604.90565    1712.1437     33.19049     46.49883    20.027214    20.418701           90           90           90 
  457000    269.54324   -10921.299   -9707.2751   -10921.299            0    8325.9466    46.019452    19.900994    20.671382            0            0            0    18931.531     7578.311    8861.8341    8537.6947    134.16931    -184.3682   -160.09752    46.019452    19.900994    20.671382           90           90           90 
  457500    279.86523    -10906.31    -9645.796    -10906.31            0    7361.6097    46.606682    19.793662    20.544042            0            0            0    18952.225    7666.0838    8704.1876    5714.5578   -177.36261    69.589254    520.63861    46.606682    19.793662    20.544042           90           90           90 
  458000     262.7768   -10901.312   -9717.7646   -10901.312            0     7324.947    46.425815     19.97639    20.579505            0            0            0    19085.848    8440.6415     7979.308    5554.8915   -301.42574    68.182506    -62.70589    46.425815     19.97639    20.579505           90           90           90 
  458500    263.62186   -10878.513   -9691.1592   -10878.513            0    7934.2814    46.353685     19.86564    20.710967            0            0            0    19071.604    8647.6815     8686.095    6469.0678   -253.63005    1577.0361   -1094.5688    46.353685     19.86564    20.710967           90           90           90 
  459000    273.19101   -10937.963   -9707.5092   -10937.963            0    8579.6429    46.484246    19.866699    20.455946            0            0            0    18890.831     9544.743    7285.6235    8908.5622    189.88663   -136.36161   -214.24194    46.484246    19.866699    20.455946           90           90           90 
  459500    266.18849   -10907.264   -9708.3504   -10907.264            0    8213.0888    46.374635    19.812236    20.581918            0            0            0    18910.361    8841.4962    7890.6288    7907.1413    329.49951   -350.35733    710.34468    46.374635    19.812236    20.581918           90           90           90 
  460000    280.23072   -10870.904    -9608.744   -10870.904            0    8740.8133    46.191221    19.974381    20.544088            0            0            0    18954.819    8886.5673    8616.8172    8719.0552    516.62122    115.36051   -753.41458    46.191221    19.974381    20.544088           90           90           90 
  460500    275.21559   -10873.907   -9634.3353   -10873.907            0    8984.6214    46.221061    19.978967     20.61304            0            0            0    19035.092    8984.0723    8137.2812    9832.5107   -16.049311    893.43978    80.895639    46.221061    19.978967     20.61304           90           90           90 
  461000    279.57433   -10904.089    -9644.885   -10904.089            0    7972.6402    46.540131    19.788482    20.636618            0            0            0     19005.47    7533.9788    8671.1447    7712.7972   -402.01446    909.78611   -231.40019    46.540131    19.788482    20.636618           90           90           90 
  461500    268.99785   -10941.603   -9730.0361   -10941.603            0    8316.8314    46.869554    19.805006    20.425467            0            0            0    18959.977    7691.6882    7338.2542    9920.5518    -177.1514    675.83723   -282.03643    46.869554    19.805006    20.425467           90           90           90 
  462000    272.49521   -10882.817   -9655.4979   -10882.817            0    7878.8444    46.116563    19.972823    20.642822            0            0            0    19013.648    8486.7655    7372.1629    7777.6048   -163.07736    285.97253    573.57419    46.116563    19.972823    20.642822           90           90           90 
  462500    275.92514   -10843.374   -9600.6062   -10843.374            0    8585.8587     46.24135    19.958223    20.506702            0            0            0    18925.537    8706.6068    7826.2636    9224.7058    544.04076   -385.26896    107.51423     46.24135    19.958223    20.506702           90           90           90 
  463000    273.94919   -10852.471   -9618.6025   -10852.471            0    8915.2999     46.84299    19.696071    20.394257            0            0            0    18816.207     7230.481    10260.843     9254.576    273.60364    290.77383    514.58372     46.84299    19.696071    20.394257           90           90           90 
  463500    280.05172   -10926.384   -9665.0299   -10926.384            0    7614.0428    46.415072    19.823124    20.645345            0            0            0    18995.612    8371.9948    6955.7622    7514.3714   -280.34248   -608.03323   -110.74154    46.415072    19.823124    20.645345           90           90           90 
  464000    271.38809    -10872.12   -9649.7874    -10872.12            0    7339.3276    46.568936    19.874867    20.508355            0            0            0    18981.537     6623.111     7344.511     8050.361    -963.7422   -498.46917   -314.65481    46.568936    19.874867    20.508355           90           90           90 
  464500    262.25495   -10874.114   -9692.9163   -10874.114            0    7697.1517    46.195333    19.910292    20.601977            0            0            0    18948.928    8620.8411    7355.1513    7115.4628   -697.54293    -203.4303    496.21663    46.195333    19.910292    20.601977           90           90           90 
  465000    263.13773   -10845.938   -9660.7651   -10845.938            0    8451.4315    46.230435    19.862855    20.573613            0            0            0    18892.099    8892.6456    8422.1138    8039.5352    132.84049    527.24712   -63.921364    46.230435    19.862855    20.573613           90           90           90 
  465500    269.45201   -10892.924   -9679.3114   -10892.924            0     9002.674    46.408817    19.855946    20.492928            0            0            0    18884.047    8967.7268    9391.4254    8648.8698   -253.27671    531.46948    529.64442    46.408817    19.855946    20.492928           90           90           90 
  466000    266.03838    -10837.95   -9639.7121    -10837.95            0     8497.857    46.306337    19.896996    20.598614            0            0            0    18978.677    9537.9108    8211.9127    7743.7474    574.80401   -801.24789    836.65941    46.306337    19.896996    20.598614           90           90           90 
  466500    265.37901   -10842.202   -9646.9334   -10842.202            0     7805.433    46.292453    19.901609    20.682894            0            0            0    19055.033    9480.1296     7262.834    6673.3355   -14.583825   -722.35325    65.237181    46.292453    19.901609    20.682894           90           90           90 
  467000    274.46605   -10856.129   -9619.9332   -10856.129            0     9635.431    46.437194     19.88633    20.459401            0            0            0    18893.548     10923.65    8261.9831    9720.6597   -43.398304    1411.5867    801.48418    46.437194     19.88633    20.459401           90           90           90 
  467500    257.40352   -10903.274    -9743.928   -10903.274            0    8362.5895    46.207161    19.863913    20.585005            0            0            0    18894.049    7553.7984    9339.9545    8194.0156   -2.3944885   -201.73287    527.59044    46.207161    19.863913    20.585005           90           90           90 
  468000    268.37133   -10895.182   -9686.4364   -10895.182            0    7575.6136      46.5914    20.044596    20.404412            0            0            0    19055.798    6843.2809    7537.2376    8346.3223    152.05633   -219.97848    -23.87722      46.5914    20.044596    20.404412           90           90           90 
  468500    267.07105   -10889.203   -9686.3141   -10889.203            0    8498.2405    46.258864    19.739271    20.749292            0            0            0    18946.515    8827.3409    9290.2854     7377.095    844.20304    246.95686    133.47654    46.258864    19.739271    20.749292           90           90           90 
  469000    269.83437   -10872.845   -9657.5102   -10872.845            0    8693.1456    46.477316    19.921466    20.463045            0            0            0    18946.657    8308.9096    8733.4581     9037.069    5.7631797    248.73573    956.26209    46.477316    19.921466    20.463045           90           90           90 
  469500    271.91685   -10923.007   -9698.2925   -10923.007            0    6941.9683    46.283351     19.91688    20.697964            0            0            0    19079.797    6973.0982    7924.9123    5927.8944    342.82525   -76.886483   -633.51816    46.283351     19.91688    20.697964           90           90           90 
  470000    280.78061    -10880.65   -9616.0126    -10880.65            0    8603.7215    46.403488     19.84018    20.546011            0            0            0    18915.758    7827.4823    9447.5763    8536.1059    377.39862    320.44492   -197.38619    46.403488     19.84018    20.546011           90           90           90 
  470500    269.99445   -10899.915   -9683.8592   -10899.915            0     7648.876    46.776669    19.893446    20.423478            0            0            0     19005.05    7439.7469    6460.5289    9046.3523   -82.679463     660.7088   -445.87778    46.776669    19.893446    20.423478           90           90           90 
  471000    270.86866   -10885.721    -9665.728   -10885.721            0    8299.4316    46.267409    19.756741    20.701219            0            0            0    18922.844    9066.1013    8381.9664     7450.227    -637.3559    931.56166     406.7694    46.267409    19.756741    20.701219           90           90           90 
  471500    267.87543   -10864.141   -9657.6288   -10864.141            0    7722.4248    46.422312    19.920581    20.510365            0            0            0    18967.154    6880.1494    8337.2555    7949.8696   -248.96031    318.79468    1405.5879    46.422312    19.920581    20.510365           90           90           90 
  472000    273.65374   -10850.886    -9618.348   -10850.886            0     8037.811    46.722032    19.834585    20.563499            0            0            0    19056.443     7611.371    8139.9703    8362.0916    326.86759    797.00876   -16.945558    46.722032    19.834585    20.563499           90           90           90 
  472500    273.12461   -10895.339   -9665.1851   -10895.339            0    7289.2683    46.479379    19.839279    20.749572            0            0            0     19133.54    7041.9298    8573.7105    6252.1647   -363.61924    15.302296    1138.0043    46.479379    19.839279    20.749572           90           90           90 
  473000    276.72164   -10877.109   -9630.7536   -10877.109            0    8172.0395    46.387326    19.961539    20.565931            0            0            0    19043.279    7540.2663    8344.0134    8631.8388   -660.40776    335.90619     611.0791    46.387326    19.961539    20.565931           90           90           90 
  473500    277.55715   -10876.709   -9626.5903   -10876.709            0    8329.6664    46.471167    19.796092     20.53881            0            0            0    18894.627    7140.6684    8776.6766     9071.654   -521.66716    816.21015   -492.95152    46.471167    19.796092     20.53881           90           90           90 
  474000    266.88883   -10895.881   -9693.8127   -10895.881            0    7048.9662      46.4327    19.808767    20.614767            0            0            0    18960.938    6285.9626    9095.9378    5764.9983   -317.11914   -340.53129   -180.83515      46.4327    19.808767    20.614767           90           90           90 
  474500    274.37896   -10858.908   -9623.1044   -10858.908            0    9624.5332    46.164072    19.899698    20.472127            0            0            0    18806.741    10982.595    7900.3499    9990.6548   -94.865594    282.59021   -37.168699    46.164072    19.899698    20.472127           90           90           90 
  475000    275.74199   -10960.899   -9718.9559   -10960.899            0    7815.3805    46.506918    19.900691    20.564247            0            0            0    19032.618    7902.3239    7252.3685    8291.4492    280.44492    243.44408     657.4606    46.506918    19.900691    20.564247           90           90           90 
  475500    263.10105   -10904.775   -9719.7671   -10904.775            0    7485.2699    46.915444    19.804705    20.475927            0            0            0    19025.136    7698.6914    6922.2474    7834.8709    138.24544    280.57416    83.571554    46.915444    19.804705    20.475927           90           90           90 
  476000    282.43921   -10873.214   -9601.1071   -10873.214            0    6920.8145    46.395589    19.939849    20.618651            0            0            0    19074.748    6973.0925    6392.2334    7397.1174   -38.920739   -461.34104   -326.23132    46.395589    19.939849    20.618651           90           90           90 
  476500    272.03282   -10876.652   -9651.4154   -10876.652            0    7778.6686    46.375504    19.892746    20.585932            0            0            0    18991.267    7020.9439    8861.8404    7453.2214    43.624891    432.18872   -1218.9926    46.375504    19.892746    20.585932           90           90           90 
  477000    279.95701   -10899.277   -9638.3494   -10899.277            0    7801.4759    46.582515    19.881541    20.412449            0            0            0    18904.626    8896.8687    6783.3329    7724.2261   -212.92232   -1062.1276   -766.28964    46.582515    19.881541    20.412449           90           90           90 
  477500    280.51721   -10865.807   -9602.3565   -10865.807            0    7802.3535      46.4122    19.708097    20.794333            0            0            0    19020.496    8245.0224    8116.5717    7045.4664   -310.73101   -110.90601    1284.6492      46.4122    19.708097    20.794333           90           90           90 
  478000    270.97068   -10895.491   -9675.0378   -10895.491            0    7964.9583    46.430091    20.004873    20.526884            0            0            0    19065.946    8367.8461    7549.6874    7977.3413    284.89903    1074.5034    197.72833    46.430091    20.004873    20.526884           90           90           90 
  478500    270.58246   -10934.255   -9715.5504   -10934.255            0    6927.7788    46.301123    20.090573    20.467565            0            0            0    19039.259    7658.4237    5977.8494    7147.0633   -364.28015    641.55098    687.55407    46.301123    20.090573    20.467565           90           90           90 
  479000    263.19122   -10875.555   -9690.1406   -10875.555            0    7943.5606    46.291644    19.897089    20.581145            0            0            0    18956.653    8828.8207    6808.2525    8193.6085    7.1497999    7.7145448    438.61982    46.291644    19.897089    20.581145           90           90           90 
  479500    272.04956   -10935.769   -9710.4569   -10935.769            0    7383.7476    46.685659     19.75927    20.598987            0            0            0    19002.041    7116.2178    7629.4476    7405.5772   -164.97287    922.69152   -446.38013    46.685659     19.75927    20.598987           90           90           90 
  480000    273.70119   -10887.304   -9654.5532   -10887.304            0    8898.5962    46.280883    19.981115    20.480284            0            0            0    18939.012    8847.9981    8926.2798    8921.5107    334.42381    1662.9398   -73.542532    46.280883    19.981115    20.480284           90           90           90 
  480500    275.02926   -10871.132   -9632.3989   -10871.132            0    7514.5169    46.186123    19.977473     20.60557            0            0            0    19012.389    8467.4223    5965.2489    8110.8795    434.69211    1113.1075    1469.8782    46.186123    19.977473     20.60557           90           90           90 
  481000    259.94066   -10953.456   -9782.6822   -10953.456            0    8332.3958    46.060326    19.937159    20.526958            0            0            0    18850.153    10153.334    7601.9948    7241.8582    -188.9278   -1091.8549    342.54386    46.060326    19.937159    20.526958           90           90           90 
  481500    272.19721    -10855.21    -9629.233    -10855.21            0    8658.4321    46.585289    19.801367    20.520253            0            0            0    18928.956    6562.3846    10342.468    9070.4436    363.15407    230.10883     169.5985    46.585289    19.801367    20.520253           90           90           90 
  482000    264.69173   -10956.978   -9764.8052   -10956.978            0    7728.5996    46.430576    19.882502     20.53737            0            0            0    18959.196    6613.1407    8830.5141    7742.1441   -19.930022    370.41792    553.62096    46.430576    19.882502     20.53737           90           90           90 
  482500    271.86633   -10857.512   -9633.0254   -10857.512            0    7973.3459    46.243615    19.931195     20.59315            0            0            0    18980.511    9680.7361    6490.4246    7748.8771    87.915288   -95.348965    318.06816    46.243615    19.931195     20.59315           90           90           90 
  483000    268.76191   -10956.749   -9746.2438   -10956.749            0    7931.1485    46.202485    19.999831    20.435967            0            0            0     18883.69    9210.9794    6093.8854    8488.5806    106.39545    604.40758   -748.69609    46.202485    19.999831    20.435967           90           90           90 
  483500    275.62179    -10924.08   -9682.6788    -10924.08            0    6935.7495    46.651963     19.84459    20.635388            0            0            0    19104.017    6369.3705    7663.8833    6773.9946   -307.32885    116.39045    454.21234    46.651963     19.84459    20.635388           90           90           90 
  484000    265.21001   -10838.759   -9644.2521   -10838.759            0    9454.8671    46.365674    19.826858      20.5718            0            0            0     18911.36    9316.7747    9987.0879    9060.7387   -312.97582     127.3655    434.42931    46.365674    19.826858      20.5718           90           90           90 
  484500    266.60139   -10913.138   -9712.3641   -10913.138            0    6319.8029    46.795195    19.865923    20.551614            0            0            0    19105.391    7005.7922    5447.6999    6505.9167   -614.91306    480.96747    23.530816    46.795195    19.865923    20.551614           90           90           90 
  485000    273.10266    -10876.57   -9646.5145    -10876.57            0    8596.9704    46.233076    19.981456    20.565502            0            0            0    18998.497    7010.0085    9676.2667    9104.6359   -15.247512    271.31086    429.84163    46.233076    19.981456    20.565502           90           90           90 
  485500    261.36255   -10865.244   -9688.0658   -10865.244            0    7989.6536    45.953742    20.060038     20.63953            0            0            0    19026.217    8888.8511    6348.2222    8731.8873    117.33089    278.86703   -287.50824    45.953742    20.060038     20.63953           90           90           90 
  486000      260.339     -10960.9   -9788.3321     -10960.9            0     7450.758    46.479871    19.849913    20.582241            0            0            0    18989.616    6690.2675    9474.0858    6187.9207   -282.32625   -132.95399   -197.01933    46.479871    19.849913    20.582241           90           90           90 
  486500    268.27464   -10890.182   -9681.8719   -10890.182            0     7710.575    46.737874    19.850692    20.485891            0            0            0    19006.382    6604.1637    8397.5661    8129.9954   -285.07274   -580.47129    121.33471    46.737874    19.850692    20.485891           90           90           90 
  487000    262.34477   -10929.306   -9747.7044   -10929.306            0    7352.8948    46.218384    19.924757    20.650126            0            0            0    19016.496     8665.028    6028.9763    7364.6801    131.34109    287.74163    706.95626    46.218384    19.924757    20.650126           90           90           90 
  487500    271.92349   -10912.002   -9687.2579   -10912.002            0    9223.1902    46.374823    19.805631     20.50251            0            0            0    18831.199    10683.191    7936.8161    9049.5637    65.120499   -262.29695   -241.39244    46.374823    19.805631     20.50251           90           90           90 
  488000    273.25057     -10876.9   -9646.1784     -10876.9            0    8581.3201    46.442454    19.851889    20.454649            0            0            0    18858.582    7950.8362    8376.5331    9416.5911   -907.47751    545.85869   0.94547606    46.442454    19.851889    20.454649           90           90           90 
  488500    270.28353   -10880.953   -9663.5949   -10880.953            0    7403.8652    46.436199    19.903733     20.57885            0            0            0    19020.078    6890.7063    7729.5708    7591.3186    85.050505    130.27058   -300.24007    46.436199    19.903733     20.57885           90           90           90 
  489000    272.49279   -10933.805   -9706.4962   -10933.805            0    7258.0983    46.137874    19.985367    20.622771            0            0            0    19015.893    8374.9993    7030.0026    6369.2929   -199.18169   -341.21283   -435.31296    46.137874    19.985367    20.622771           90           90           90 
  489500    281.26862   -10946.247   -9679.4116   -10946.247            0    7466.6911     46.29691    20.144864    20.405498            0            0            0    19031.085    8081.8938    6556.8922    7761.2873   -210.20748     414.1735   -475.22922     46.29691    20.144864    20.405498           90           90           90 
  490000    270.35472   -10873.169   -9655.4904   -10873.169            0    8507.2697    46.484685    19.793399    20.642624            0            0            0    18993.071    8149.4667    9141.4755     8230.867    252.19133   -620.64898   -316.94187    46.484685    19.793399    20.642624           90           90           90 
  490500    273.22747   -10853.498   -9622.8803   -10853.498            0    8639.5504    46.810005    19.724184    20.571958            0            0            0    18993.866    8993.6665     9073.211    7851.7737    162.79571    136.87131    268.12751    46.810005    19.724184    20.571958           90           90           90 
  491000    277.15214    -10888.23   -9639.9357    -10888.23            0    8477.3179    46.478756    19.899038    20.491835            0            0            0     18952.54    9756.9742    7286.2097    8388.7697   -221.88035    551.41134    99.008018    46.478756    19.899038    20.491835           90           90           90 
  491500    274.47642    -10930.26   -9694.0174    -10930.26            0    8595.9891    46.179975    19.887886    20.607235            0            0            0    18926.139    7822.7372    9152.0302    8813.1999   -190.26383    338.79912   -208.09981    46.179975    19.887886    20.607235           90           90           90 
  492000    271.51677   -10912.865   -9689.9526   -10912.865            0    6356.3836    46.221679    20.048262    20.569902            0            0            0    19061.394    6366.2039    5766.0462    6936.9009   -154.51795   -425.76498    -210.8723    46.221679    20.048262    20.569902           90           90           90 
  492500    268.29728   -10970.243   -9761.8312   -10970.243            0    6592.1136    46.501209    19.998167    20.505586            0            0            0    19068.943    6971.2347    5866.8588    6938.2473    264.71028    264.59956   -166.95903    46.501209    19.998167    20.505586           90           90           90 
  493000    265.12675    -10922.46   -9728.3279    -10922.46            0    8132.5359    46.428879    19.781883     20.63219            0            0            0    18949.648    7920.9955     8637.917    7838.6953   -573.81561   -164.38651    323.12612    46.428879    19.781883     20.63219           90           90           90 
  493500    276.44267   -10847.618   -9602.5194   -10847.618            0    9894.0045    46.579783    19.717019    20.496158            0            0            0    18823.968    11652.258    9098.5212    8931.2337   -346.75704    63.767411    350.52374    46.579783    19.717019    20.496158           90           90           90 
  494000    280.43883   -10882.243   -9619.1452   -10882.243            0    7683.3669    46.428761    19.964847    20.588985            0            0            0    19084.818    8180.5047    6855.5622     8014.034    -522.1378   -552.83371    369.33903    46.428761    19.964847    20.588985           90           90           90 
  494500    267.54602   -10893.355    -9688.327   -10893.355            0       6847.8    46.565972    19.897995    20.616066            0            0            0    19102.218    6876.8959    6608.8159    7057.6881   -338.06683    333.44533    455.31871    46.565972    19.897995    20.616066           90           90           90 
  495000    275.35653   -10906.347   -9666.1399   -10906.347            0    6355.3315    46.591106    20.003563    20.548486            0            0            0    19150.945     6723.872    5861.6447    6480.4778    215.96152   -14.995155   -93.733539    46.591106    20.003563    20.548486           90           90           90 
  495500    277.15678   -10915.434   -9667.1186   -10915.434            0     8593.549    46.346528    19.757892    20.648312            0            0            0     18907.86    9159.6384    8260.0936    8360.9151    159.13562   -670.89361   -196.96811    46.346528    19.757892    20.648312           90           90           90 
  496000     279.2273    -10928.84   -9671.1992    -10928.84            0    7955.1036    46.512551    19.910277    20.445211            0            0            0    18933.855    5967.3982    9001.9868    8895.9259   -282.69491    159.39535   -337.58224    46.512551    19.910277    20.445211           90           90           90 
  496500    268.51818   -10880.426   -9671.0191   -10880.426            0    8630.9822    46.553377    19.710729    20.597759            0            0            0    18900.524    8085.7693    9457.9384    8349.2389    251.87356    587.81394    228.53471    46.553377    19.710729    20.597759           90           90           90 
  497000    270.24837    -10925.24   -9708.0404    -10925.24            0    7508.9062    46.607594    19.767135    20.657816            0            0            0    19032.017    4761.5679    10377.864    7387.2864   -454.81457   -134.90655    727.71463    46.607594    19.767135    20.657816           90           90           90 
  497500    264.16893   -10923.578   -9733.7596   -10923.578            0    7202.8095    46.424458    19.985701    20.500279            0            0            0    19020.678    6633.0117    7202.8449     7772.572   -809.46049    377.98283    1396.0293    46.424458    19.985701    20.500279           90           90           90 
  498000      272.144   -10906.512   -9680.7746   -10906.512            0    8369.4199     46.15551    19.942429    20.642823            0            0            0    19000.748    8878.2921    8554.5457    7675.4219   -413.48153   -241.12928   -160.10767     46.15551    19.942429    20.642823           90           90           90 
  498500    264.55196   -10907.798   -9716.2554   -10907.798            0     7945.759    46.378684     19.89585    20.535083            0            0            0    18948.611    8158.4915     8603.796    7074.9896    -557.0429   -299.49911     1538.501    46.378684     19.89585    20.535083           90           90           90 
  499000    277.68611   -10858.984   -9608.2843   -10858.984            0    7943.6016    46.892988    19.775216    20.345677            0            0            0    18866.932     7229.806    8140.2412    8460.7575    159.26307   -639.30496   -298.19461    46.892988    19.775216    20.345677           90           90           90 
  499500    265.47573   -10887.471   -9691.7673   -10887.471            0    8133.0635    46.156277    19.910849    20.609091            0            0            0    18939.974    8471.6802    7075.1208    8852.3894    -86.03395    514.82791     386.6783    46.156277    19.910849    20.609091           90           90           90 
  500000    271.41797   -10873.659   -9651.1914   -10873.659            0    6979.6719     46.25939     20.01251    20.598426            0            0            0    19069.333    7376.6287    5491.4015    8070.9857    210.69346    698.16819    593.39201     46.25939     20.01251    20.598426           90           90           90 
Loop time of 1470.87 on 32 procs for 500000 steps with 2268 atoms

Performance: 58.741 ns/day, 0.409 hours/ns, 339.934 timesteps/s
99.1% CPU use with 32 MPI tasks x 1 OpenMP threads

MPI task timing breakdown:
Section |  min time  |  avg time  |  max time  |%varavg| %total
---------------------------------------------------------------
Pair    | 249.12     | 289.84     | 339.03     | 155.0 | 19.71
Bond    | 0.5986     | 0.61612    | 0.63817    |   1.3 |  0.04
Kspace  | 647.95     | 699.11     | 743.15     | 102.1 | 47.53
Neigh   | 20.442     | 20.832     | 21.248     |   5.2 |  1.42
Comm    | 159.61     | 172.88     | 180.8      |  44.4 | 11.75
Output  | 3.961      | 3.9661     | 4.0554     |   0.8 |  0.27
Modify  | 221.93     | 248.44     | 274.86     | 100.1 | 16.89
Other   |            | 35.19      |            |       |  2.39

Nlocal:        70.8750 ave          78 max          63 min
Histogram: 2 2 1 0 8 6 7 1 4 1
Nghost:        3212.91 ave        3265 max        3160 min
Histogram: 3 2 7 1 4 1 3 5 3 3
Neighs:        22435.4 ave       25255 max       18179 min
Histogram: 1 3 0 4 6 3 2 2 5 6

Total # of neighbors = 717933
Ave neighs/atom = 316.54894
Ave special neighs/atom = 2.0000000
Neighbor list builds = 23237
Dangerous builds = 0

unfix		3
unfix		2
unfix		1

write_data	data.final.${pid}
write_data	data.final.0
System init for write_data ...
PPPM initialization ...
  extracting TIP4P info from pair style
  using 12-bit tables for long-range coulomb (../kspace.cpp:340)
  G vector (1/distance) = 0.37366292
  grid = 48 27 27
  stencil order = 5
  estimated absolute RMS force accuracy = 0.0032118088
  estimated relative force accuracy = 9.6722668e-06
  using double precision FFTW3
  3d grid and FFT values/proc = 6292 1344
Last active /omp style is kspace_style pppm/tip4p/omp
WARNING: Not all mixed pair coeffs generated from mixing. Use write_data with 'pair ij' option to store all pair coeffs. (../write_data.cpp:312)

write_restart   restart.lmp.${pid}
write_restart   restart.lmp.0
System init for write_restart ...
PPPM initialization ...
  extracting TIP4P info from pair style
  using 12-bit tables for long-range coulomb (../kspace.cpp:340)
  G vector (1/distance) = 0.37366292
  grid = 48 27 27
  stencil order = 5
  estimated absolute RMS force accuracy = 0.0032118088
  estimated relative force accuracy = 9.6722668e-06
  using double precision FFTW3
  3d grid and FFT values/proc = 6292 1344
Last active /omp style is kspace_style pppm/tip4p/omp
Total wall time: 0:24:31
