LAMMPS (30 Jul 2021)
  using 1 OpenMP thread(s) per MPI task
package omp 0
using multi-threaded neighbor list subroutines
echo both

include		in.partitions
variable        pid world 0
include		in.temp
variable        temperature equal 263.12
variable	tempDamp equal 100.0
include		in.pressure
variable        pressure equal 6750.0
variable        pressureDamp equal 1000.0 # This is 1 ps
include		in.seed
variable        seed world 745823

units		real
atom_style	full
read_restart	restart.lmp.${pid}
read_restart	restart.lmp.0
Reading restart file ...
  restart file = 30 Jul 2021, LAMMPS = 30 Jul 2021
  restoring atom style full from restart
  orthogonal box = (0.53499997 1.7216906 0.65269872) to (17.672572 21.907487 21.560497)
  4 by 4 by 4 MPI processor grid
  restoring pair style lj/cut/tip4p/long/omp from restart
  restoring bond style harmonic/omp from restart
  restoring angle style harmonic/omp from restart
  864 atoms
  576 bonds
  288 angles
Finding 1-2 1-3 1-4 neighbors ...
  special bond factors lj:    0        0        0       
  special bond factors coul:  0        0        0       
     2 = max # of 1-2 neighbors
     1 = max # of 1-3 neighbors
     1 = max # of 1-4 neighbors
     2 = max # of special neighbors
  special bonds CPU = 0.656 seconds
  read_restart CPU = 0.861 seconds
include 	in.setup
variable	out_freq equal 1000
variable	out_freq2 equal 10000
variable	out_freq3 equal 1000

timestep	2.0

neigh_modify    delay 7 every 1

include		in.tip4p
# This is TIP4P/Ice

# create groups ###
group ox type 2
288 atoms in group ox
group hy type 1
576 atoms in group hy

# set charges - beside manually ###
set group ox charge -1.1794
Setting atom values ...
  288 settings made for charge
set group hy charge 0.5897
Setting atom values ...
  576 settings made for charge

# ### TIP3P Potential Parameters ###
pair_style lj/cut/tip4p/long/omp 2 1 1 1 0.1577 8.5
pair_coeff 1 1*2 0.000 0.000
pair_coeff 2 2 0.21084 3.1668
bond_style  harmonic
bond_coeff  1 450 0.9572
angle_style harmonic
angle_coeff 1 55 104.52
kspace_style pppm/tip4p/omp 1.0e-5
pair_modify tail yes

thermo          ${out_freq}
thermo          1000
thermo_style    custom step temp pe etotal epair emol press lx ly lz vol pxx pyy pzz pxy pxz pyz enthalpy

restart 	${out_freq3} restart.lmp.${pid} restart2.lmp.${pid}
restart 	1000 restart.lmp.${pid} restart2.lmp.${pid}
restart 	1000 restart.lmp.0 restart2.lmp.${pid}
restart 	1000 restart.lmp.0 restart2.lmp.0


include         in.dump
dump            myDump all atom ${out_freq2} dump.water.${pid}
dump            myDump all atom 10000 dump.water.${pid}
dump            myDump all atom 10000 dump.water.0
dump            myDump2 all dcd ${out_freq2} dump.dcd
dump            myDump2 all dcd 10000 dump.dcd
dump_modify     myDump append yes
dump_modify     myDump2 append yes


variable natoms 	equal  "count(all)"                        # NUMBER ATOMS
variable H      	equal  "enthalpy/v_natoms"                 # ENTHALPY-per-atom
variable Vol      	equal  "vol/v_natoms"                 # volume-per-atom
fix AVG all 		ave/time ${out_freq} 1 ${out_freq} v_Vol v_H file vol_enthalpy.dat
fix AVG all 		ave/time 1000 1 ${out_freq} v_Vol v_H file vol_enthalpy.dat
fix AVG all 		ave/time 1000 1 1000 v_Vol v_H file vol_enthalpy.dat


timer           timeout 23:50:00 every 1000
New timer settings: style=normal  mode=nosync  timeout=23:50:00

fix 		1 all shake 1e-6 200 0 b 1 a 1
       0 = # of size 2 clusters
       0 = # of size 3 clusters
       0 = # of size 4 clusters
     288 = # of frozen angles
  find clusters CPU = 0.821 seconds
fix             2 all nph iso ${pressure} ${pressure} ${pressureDamp}
fix             2 all nph iso 6750 ${pressure} ${pressureDamp}
fix             2 all nph iso 6750 6750 ${pressureDamp}
fix             2 all nph iso 6750 6750 1000
fix             3 all temp/csvr ${temperature} ${temperature} ${tempDamp} ${seed}
fix             3 all temp/csvr 263.12 ${temperature} ${tempDamp} ${seed}
fix             3 all temp/csvr 263.12 263.12 ${tempDamp} ${seed}
fix             3 all temp/csvr 263.12 263.12 100 ${seed}
fix             3 all temp/csvr 263.12 263.12 100 745823

run             250000
PPPM initialization ...
  extracting TIP4P info from pair style
  using 12-bit tables for long-range coulomb (../kspace.cpp:340)
  G vector (1/distance) = 0.37347392
  grid = 24 24 24
  stencil order = 5
  estimated absolute RMS force accuracy = 0.0032520494
  estimated relative force accuracy = 9.7934501e-06
  using double precision FFTW3
  3d grid and FFT values/proc = 2535 216
Last active /omp style is kspace_style pppm/tip4p/omp
Neighbor list info ...
  update every 1 steps, delay 7 steps, check yes
  max neighbors/atom: 2000, page size: 100000
  master list distance cutoff = 10.8154
  ghost atom cutoff = 10.8154
  binsize = 5.4077, bins = 4 4 4
  1 neighbor lists, perpetual/occasional/extra = 1 0 0
  (1) pair lj/cut/tip4p/long/omp, perpetual
      attributes: half, newton on, omp
      pair build: half/bin/newton/omp
      stencil: half/bin/3d
      bin: standard
Per MPI rank memory allocation (min/avg/max) = 9.235 | 9.238 | 9.240 Mbytes
Step Temp PotEng TotEng E_pair E_mol Press Lx Ly Lz Volume Pxx Pyy Pzz Pxy Pxz Pyz Enthalpy 
11250000    279.80781   -3862.6921   -3383.1111   -3862.6921            0    7339.2635    17.137572    20.185797    20.907798    7232.7508    8337.7238    7539.0241    6141.0426    -830.0951   -1099.6211   -644.45268   -2608.9491 
11251000    275.44724    -3882.505   -3410.3979    -3882.505            0    6860.2464    17.132442    20.179753    20.901539    7226.2564    6978.2788    6036.2681    7566.1924    956.68587   -978.32654    -1012.387   -2687.4134 
11252000    261.79569   -3860.5784   -3411.8695   -3860.5784            0    8329.7608    17.094591     20.13517    20.855361    7178.4677    8485.0193    9751.5943    6752.6688   -683.14836   -459.85632    216.95615    -2539.822 
11253000    264.70296   -3880.2631   -3426.5713   -3880.2631            0    5629.6514    17.188833    20.246175    20.970336     7297.847    5678.9006    4027.6737      7182.38   -646.88631    532.88364    261.15936   -2827.3984 
11254000    247.15245   -3877.3774   -3453.7666   -3877.3774            0    10217.463    17.036349    20.066569    20.784306    7105.3455    10456.042    11269.261     8927.086   -278.27283   -847.72685    75.522761   -2394.9904 
11255000    259.55891   -3851.8298   -3406.9547   -3851.8298            0    5824.0121    17.160792    20.213146    20.936126    7262.1891     6026.764    4742.7031    6702.5693   -825.71158    203.36383    988.68435   -2790.1244 
11256000    278.75007    -3857.065   -3379.2969    -3857.065            0    8055.2792    17.118613    20.163465    20.884668    7208.7721    6686.2706    9665.6889    7813.8781    796.40242   -1988.9638   -94.456974   -2532.4249 
11257000    270.36458   -3849.1618   -3385.7662   -3849.1618            0     6792.092    17.053899    20.087241    20.805717    7127.3268    6578.0134    6667.1899    7131.0726    448.45935    1928.2055    1017.9306   -2679.7639 
11258000    265.49628   -3846.5894   -3391.5379   -3846.5894            0    6276.9164    17.120724    20.165952    20.887244    7211.4401    5910.5974    5932.4219    6987.7299    372.50476   -1754.9621    1831.9785   -2731.3854 
11259000    277.52011   -3854.5964   -3378.9365   -3854.5964            0    8485.1273    17.059689     20.09406    20.812781    7134.5882    9366.5581    8167.2692    7921.5545    925.97373   -503.79904    371.29267   -2496.0535 
11260000    257.06294   -3846.8512   -3406.2541   -3846.8512            0    6601.3859    17.053554    20.086834    20.805296    7126.8935    7325.4471    6070.3375    6408.3732    812.58999   -781.25516      344.257   -2720.1164 
11261000    276.77286   -3892.8382    -3418.459   -3892.8382            0    6359.2502     17.07301     20.10975    20.829032    7151.3138    6380.9112    6254.0358    6442.8037   -850.01862     997.8474   -476.11362   -2755.2237 
11262000    280.90773   -3879.7031   -3398.2369   -3879.7031            0    6102.3862    17.120166    20.165294    20.886563    7210.7345    7431.2364    5117.6882     5758.234   -960.78113     1324.416    235.70725   -2756.5028 
11263000    273.58591   -3871.4297   -3402.5128   -3871.4297            0    7644.0946    17.088594    20.128106    20.848045     7170.915    6078.6668    9435.6649     7417.952   -318.63336    694.40986   -575.56478     -2603.09 
11264000    258.40985   -3896.4177    -3453.512   -3896.4177            0    8225.8829     17.07302    20.109763    20.829045    7151.3273     8378.379    7530.3939    8768.8759   -1635.5779   -1070.7324    901.71933   -2595.5954 
11265000    262.35998   -3870.4129   -3420.7369   -3870.4129            0    7027.1339    17.118291    20.163086    20.884275     7208.366    6949.3491    6707.8918    7424.1607    -152.6174   -15.865291   -117.52983    -2681.998 
11266000    278.03557   -3891.4225   -3414.8791   -3891.4225            0    7295.4093    17.135169    20.182966    20.904867    7229.7086    7456.1166    7154.3596    7275.7517    71.569756    136.92454   -464.63736   -2645.6666 
11267000    271.22448   -3877.4657   -3412.5962   -3877.4657            0    8158.7347    17.118223    20.163005    20.884192    7208.2795    7246.9213    8501.2285    8728.0542    440.31402   -738.44641    1543.1012   -2554.9063 
11268000    251.66591    -3889.656   -3458.3092    -3889.656            0    4984.8327    17.148457    20.198617    20.921077    7246.5402    4407.0132    5449.5165    5097.9685    901.85258   -926.42477    575.27712   -2931.4954 
11269000    257.45578   -3870.0623   -3428.7919   -3870.0623            0    6212.3391     17.16697    20.220423    20.943663     7270.035    7695.2934    6164.9752    4776.7487    1955.9107   -1318.1198    299.52502   -2770.1224 
11270000    253.83078   -3880.0172   -3444.9599   -3880.0172            0    8320.2398    17.117678    20.162364    20.883528    7207.5916     6830.124    9415.1408    8715.4548   -517.01299   -183.86294    732.23932   -2570.3751 
11271000    256.11256   -3889.6988   -3450.7306   -3889.6988            0    6184.8577    17.134834    20.182571    20.904458    7229.2844    7502.3302    3816.0583    7236.1846    -2.928994    704.13111    1094.8324   -2798.6506 
11272000    263.99318   -3848.1768   -3395.7016   -3848.1768            0    7176.1795    17.145904     20.19561    20.917963    7243.3044    7592.3016    7327.3863    6608.8506    1737.7548   -366.95192    328.70897   -2637.6375 
11273000    267.40827   -3932.9169   -3474.5882   -3932.9169            0    6730.8834    17.162934     20.21567     20.93874    7264.9097    4915.5203    6141.3691    9135.7608    406.06579   -826.88276    1021.7365   -2761.4427 
11274000    284.04261   -3857.6156   -3370.7762   -3857.6156            0    6665.6644    17.119936    20.165023    20.886282    7210.4438    5870.8353    7839.8448     6286.313    1070.6836     395.1669   -649.42155   -2669.8355 
11275000    264.36083   -3844.7188   -3391.6134   -3844.7188            0      5593.04    17.055884    20.089579    20.808139    7129.8159    5619.5473    5581.0657    5578.5069    863.30206    1705.9754   -1230.3807   -2810.0432 
11276000    264.38512   -3828.3435   -3375.1964   -3828.3435            0    8057.9249    17.081799    20.120103    20.839755    7162.3645    9721.3761    8307.7678    6144.6308    449.37531    1559.3716   -1140.9206   -2533.4999 
11277000    266.91852   -3849.8105   -3392.3213   -3849.8105            0    7838.6061    17.062832    20.097762    20.816615    7138.5323    8088.0271    7846.6403     7581.151   -1315.0947    638.57804    -1345.574   -2576.2584 
11278000    258.18888   -3849.5831   -3407.0562   -3849.5831            0    5809.2068     17.11726    20.161871    20.883017    7207.0628    6103.0016    5855.8915    5468.7272     719.3629   -1082.7091    -272.4538   -2796.4643 
11279000    245.18983   -3832.0416   -3411.7946   -3832.0416            0    7810.7127    17.046027    20.077968    20.796113    7117.4609    5860.3217    8829.9514    8741.8651   -82.876759     823.5134    996.74275   -2601.0358 
11280000     273.7789   -3846.5998   -3377.3521   -3846.5998            0    4668.4955    17.144406    20.193846    20.916136    7241.4068    3907.4014    3982.6675    6115.4176   -102.78468    1140.0726    311.24221   -2884.3193 
11281000    258.20326    -3826.763   -3384.2115    -3826.763            0    7012.7101    17.133654    20.181181    20.903018    7227.7907    8472.9228    6628.3819    5936.8256   -1542.5395   -859.91953    1520.5799   -2645.0023 
11282000    274.09377   -3875.4881   -3405.7007   -3875.4881            0    8448.6176    17.072677    20.109358    20.828626    7150.8957    8036.7925    9113.6759    8195.3844   -388.28114   -947.92112   -840.42352   -2524.6072 
11283000    263.04233   -3859.4408   -3408.5953   -3859.4408            0     7893.952    17.114213    20.158282      20.8793    7203.2149    6401.1665    7299.0422    9981.6474    452.63092   -284.95151    618.71363   -2579.3237 
11284000    257.11018   -3892.9353   -3452.2572   -3892.9353            0    6840.8736    17.130474    20.177436    20.899139    7223.7674    5811.7609    6334.1651    8376.6949    4.6841232    197.57459    -192.7043   -2731.5627 
11285000    255.81452   -3904.0867   -3465.6293   -3904.0867            0    6505.8814    17.084997     20.12387    20.843657    7166.3885    7590.0244    7027.7226    4899.8971    631.04113    1982.0799    320.23072   -2785.6709 
11286000    265.45767   -3897.0584    -3442.073   -3897.0584            0    6527.6466    17.080609    20.118702    20.838303    7160.8679    6475.1352    6918.5808    6189.2237    288.71855    80.228409    55.518241   -2760.3653 
11287000     268.7197   -3860.1804    -3399.604   -3860.1804            0    5923.0632    17.119139    20.164084     20.88531    7209.4368    5685.3197    5350.8544    6733.0154    654.83245   -603.51867   -1180.9903   -2776.8399 
11288000    264.88381   -3866.9628    -3412.961   -3866.9628            0    5487.5432    17.150634    20.201181    20.923733    7249.3009       5674.4    5182.6866    5605.5432    -1291.299   -101.50517   -1631.9823   -2832.7981 
11289000    268.62019   -3887.2721   -3426.8663   -3887.2721            0    6252.8455    17.131912    20.179129    20.900892    7225.5861     6454.803    5369.3448    6934.3886    841.17433   -481.77873    -1143.666   -2767.9554 
11290000    242.03171   -3857.0754   -3442.2413   -3857.0754            0    5704.7986    17.106159    20.148796    20.869474    7193.0504    5159.2249    7248.8152    4706.3558   -447.69837    16.737638   -172.17242   -2843.7893 
11291000    259.13127   -3878.4304   -3434.2882   -3878.4304            0    5840.0188    17.115557    20.159866     20.88094    7204.9128    6084.6996    6134.0934    5301.2634    599.54606    746.54324   -105.57405   -2820.6409 
11292000    258.34173   -3875.7803   -3432.9914   -3875.7803            0    5135.6293    17.130398    20.177347    20.899046    7223.6715    6067.7603    4237.1233    5102.0042    491.31386    1741.9544    171.11894   -2891.9537 
11293000    281.89322   -3868.3721   -3385.2168   -3868.3721            0    7954.8941    17.069197    20.105259     20.82438    7146.5238    9593.2491    9415.4419    4855.9911    -778.8182    314.48874   -623.71998   -2556.1202 
11294000    277.15703   -3893.6008   -3418.5632   -3893.6008            0    6827.7343    17.105113    20.147564    20.868198    7191.7308    6067.7757    7412.6006    7002.8265   -593.56522    -280.0511    -503.8602    -2702.443 
11295000    252.55927   -3904.5115   -3471.6335   -3904.5115            0    5081.6555    17.142983     20.19217      20.9144     7239.604    4858.3763    5495.8504    4890.7399   -1134.9786    188.64953   -206.57811   -2935.1012 
11296000    264.50261   -3845.5394    -3392.191   -3845.5394            0    6003.8754    17.149617    20.199983    20.922492    7248.0111    5186.1329    5029.1748    7796.3185   -226.54619    496.92501    150.03223   -2757.5525 
11297000    262.87085   -3884.5035   -3433.9519   -3884.5035            0    6565.3802    17.112884    20.156717    20.877679    7201.5375     6819.293    7001.6606    5875.1869   -661.59256    510.64579   -204.36388   -2744.4094 
11298000    282.49276   -3899.6162   -3415.4333   -3899.6162            0     7326.485    17.047217    20.079369    20.797564    7118.9514    7190.2759    8127.6666    6661.5125    1115.7421    840.29008    1850.7969   -2654.7785 
11299000    259.14661   -3853.1944    -3409.026   -3853.1944            0    9169.8274    17.063969    20.099101    20.818002    7139.9593    9241.0787    8719.5787    9548.8249   -1316.1713   -738.42424   -1129.1083   -2454.1812 
11300000    257.81286   -3891.2802   -3449.3978   -3891.2802            0    7013.1274    17.098787    20.140113     20.86048     7183.755    6680.9593     6906.891    7451.5318   -13.158956    165.29058   -616.65665   -2714.6486 
11301000     258.3068   -3853.7878   -3411.0587   -3853.7878            0    4755.4397    17.160758    20.213107    20.936085    7262.1468    5829.6193    4188.7731    4247.9267    531.88163   -115.70627    -157.1116   -2907.4055 
11302000    267.47574   -3865.8367   -3407.3924   -3865.8367            0    6550.8219    17.114817    20.158994    20.880037    7203.9777    6353.0897    6079.7196    7219.6564     721.3364     7.659176    278.97492   -2719.1458 
11303000    246.68974   -3844.7175   -3421.8997   -3844.7175            0    8553.6294    17.051117    20.083964    20.802323    7123.8393     10961.22     7147.217    7552.4509    338.35634   -30.090776   -106.51257   -2533.2299 
11304000    279.58181   -3864.0712   -3384.8776   -3864.0712            0    7824.3142    17.069883    20.106068    20.825218     7147.386    8664.6946    5692.5929    9115.6552   -1394.9737   -378.07866   -1522.6374   -2569.2922 
11305000     256.5064   -3852.9491   -3413.3059   -3852.9491            0    8029.6803    17.055336    20.088933     20.80747    7129.1281    10290.812    6347.0977    7451.1311    426.05387    1092.3451    701.16582   -2578.4518 
11306000    266.16462   -3816.8298   -3360.6328   -3816.8298            0    7267.3374    17.078146    20.115801    20.835299    7157.7707    8159.7858    7278.1232    6364.1033    1560.6275     772.1341   -1434.8331   -2602.0046 
11307000    273.02503    -3884.555   -3416.5995    -3884.555            0    5468.7411    17.065743    20.101191    20.820167    7142.1868    5042.8957    5290.6548    6072.6728   -453.58346    69.548933   -123.82075   -2846.9674 
11308000    267.45194   -3856.0196   -3397.6161   -3856.0196            0     7843.507    16.988174    20.009825    20.725532    7045.2382     7389.857    8761.5003    7379.1636    868.22104   -1802.2119   -535.14994   -2591.7148 
11309000    253.60938   -3851.2249   -3416.5471   -3851.2249            0    7684.2594    17.068179     20.10406    20.823138     7145.245    8520.5758    6521.0672     8011.135    1688.2527    2067.7614   -979.36596   -2615.8007 
11310000    247.00302   -3881.1394   -3457.7847   -3881.1394            0    7884.7009    17.054511    20.087961    20.806464    7128.0937    6166.0151    7986.2726     9501.815  -0.65734296    874.82815     297.9226   -2638.1232 
11311000    245.37711   -3842.8872   -3422.3192   -3842.8872            0    7341.3738    17.046445    20.078461    20.796624    7117.9854    6316.0077    7376.6177    8331.4961   -213.73995   -471.02414   -237.87637   -2660.2221 
11312000    261.90305   -3863.7224   -3414.8295   -3863.7224            0    6321.8705    17.129086    20.175801    20.897445    7222.0116    5665.1853    8170.2887    5130.1374   -548.26483    710.86865    204.09533   -2748.9745 
11313000    265.53598   -3828.3965   -3373.2769   -3828.3965            0    6337.7821    17.071646    20.108144    20.827368    7149.6003    6894.2199    5841.8694    6277.2571    -93.79431    -834.0266    817.75019    -2712.439 
11314000    273.22752   -3875.5943   -3407.2917   -3875.5943            0     7919.099    17.046531    20.078562    20.796728    7118.0926    6045.0109    8416.5611    9295.7251   -1661.5669     1216.808    244.63104   -2585.2094 
11315000    246.43435   -3867.9215   -3445.5415   -3867.9215            0    6810.0064    17.107657     20.15056    20.871302    7194.9404    6848.3217    6944.2885    6637.4089    324.70789    3.8591833    25.629788   -2730.9619 
11316000    270.25284   -3843.6942   -3380.4901   -3843.6942            0    7542.2579    17.094276    20.134799    20.854977    7178.0707     8542.328    6373.8843    7710.5615   -258.78458    1987.9516    679.37861   -2590.9304 
11317000    259.20184   -3888.1379   -3443.8749   -3888.1379            0    6901.6387    17.130498    20.177464    20.899168    7223.7977     6957.175    8323.4514    5424.2896   -156.58331   -683.99921   -571.13666   -2716.7756 
11318000    258.59188   -3844.8607    -3401.643   -3844.8607            0    7389.9346    17.053024     20.08621     20.80465    7126.2295    6378.0762     8591.465    7200.2625   -851.82927   -190.67707    505.14676   -2633.6164 
11319000    253.13178   -3883.9188   -3450.0596   -3883.9188            0    6274.5755     17.07944    20.117324    20.836876     7159.397    4845.1661    6714.8752    7263.6851   -63.588105   -331.41542   -825.43044   -2794.9158 
11320000    267.68412   -3860.3166   -3401.5152   -3860.3166            0     9327.661     17.08433    20.123084    20.842843    7165.5489    10162.042    9022.8104    8798.1302     170.5226   -1359.6974   -457.88685   -2426.7543 
11321000    261.65935   -3852.3831   -3403.9079   -3852.3831            0    5405.5268    17.169301    20.223169    20.946507    7272.9973    4165.8633    7777.6317    4273.0853    766.93775   -583.53875    486.93011    -2830.548 
11322000    275.49475   -3787.3741   -3315.1856   -3787.3741            0    7016.2637    17.091217    20.131196    20.851245    7174.2176    6970.9385    6408.3295    7669.5232    75.125621   -622.03506     150.9571   -2581.0837 
11323000    246.25918   -3843.0626   -3420.9828   -3843.0626            0    6736.9225     17.16419    20.217149    20.940272    7266.5043    7302.1516    6610.1595    6298.4565    1635.3435   -128.99223    339.23191   -2707.0407 
11324000    277.80898   -3860.7362   -3384.5812   -3860.7362            0    8052.9813    17.087483    20.126797    20.846689    7169.5161    7646.2249    8057.9208    8454.7982     125.6579   -67.619631    50.450845   -2542.5611 
11325000    278.65251   -3853.0187   -3375.4179   -3853.0187            0    7608.0528    17.131179    20.178266    20.899998    7224.6584     7376.733    8678.1501    6769.2752     1669.524     802.5871   -12.220805   -2573.8012 
11326000    267.38018   -3863.2094   -3404.9289   -3863.2094            0     7294.113    17.099387     20.14082    20.861213    7184.5116    6684.2439    6696.3943    8501.7007   -674.23709    74.213108   -667.32426    -2640.661 
11327000     260.8056    -3887.994   -3440.9821    -3887.994            0    5596.8507    17.156009    20.207513    20.930291     7256.119    7078.5205    6137.6954    3574.3361   -1346.7699    826.53228   -280.69055   -2848.7063 
11328000    286.25643   -3877.7273   -3387.0936   -3877.7273            0      6867.48    17.163992    20.216915     20.94003    7266.2524    4603.4767    9558.9636    6439.9996    690.67108    1803.6189   -776.27289    -2659.341 
11329000    265.73212   -3900.2697   -3444.8139   -3900.2697            0    8219.5788    17.103866    20.146095    20.866677    7190.1584    7353.6894    8836.7411    8468.3058    1643.7192    2303.3361    1256.6828   -2582.8999 
11330000    273.13333   -3857.7486   -3389.6074   -3857.7486            0    5232.1072    17.228412    20.292793    21.018622    7348.3751    4599.2382    4677.3534    6419.7299    -91.27121    242.91952    123.29893   -2828.8903 
11331000    247.14775   -3834.9807   -3411.3779   -3834.9807            0    6613.4293    17.154444    20.205669    20.928381    7254.1331    6028.2473    6379.2295     7432.811   -420.22833    344.41385   -74.143851   -2711.7161 
11332000    261.95674   -3896.6766   -3447.6917   -3896.6766            0    6009.9206    17.105752    20.148316    20.868977    7192.5368    6148.4412    6405.9201    5475.4005    312.06166    193.59718    293.41168   -2817.2765 
11333000    254.94194   -3870.6325   -3433.6708   -3870.6325            0    6703.4776    17.118069    20.162824    20.884004    7208.0852    6006.5466    7746.2616    6357.6245   -506.54778   -1190.8107    383.25733   -2728.9842 
11334000    270.23018   -3825.6047   -3362.4395   -3825.6047            0    6977.3448     17.12552      20.1716    20.893094    7217.5011    8071.5008    6272.9614    6587.5723   -1731.2296    599.08345   -771.66308   -2628.0052 
11335000    256.12483   -3843.4873   -3404.4981   -3843.4873            0    6521.9076    17.127339    20.173743    20.895314    7219.8021    7060.0009    7036.4735    5469.2485   -1317.3336    555.73011    1031.5161   -2717.7842 
11336000    259.66875   -3848.2913   -3403.2279   -3848.2913            0    6199.2583    17.131174     20.17826    20.899992    7224.6522    5383.6067    5675.3723    7538.7959   -239.44584   -306.96864    991.00659   -2750.0484 
11337000    255.72079    -3852.664   -3414.3673    -3852.664            0     6532.436    17.051603    20.084536    20.802915    7124.4477    5783.9117    6025.3671    7788.0291   -423.09504   -1379.1538    1239.3457   -2735.6292 
11338000    273.65124   -3848.7441   -3379.7153   -3848.7441            0    6995.3627     17.13732    20.185499     20.90749    7232.4306    8119.3402    8859.5994    4007.1485   -330.15718   -186.72073   -1095.9149   -2641.8614 
11339000    264.12958   -3893.3692   -3440.6602   -3893.3692            0    6579.7302    17.098123     20.13933     20.85967    7182.9173    7898.4135    6831.8438    5008.9334    238.81075    1163.6309   -391.17728   -2751.3973 
11340000    276.59931   -3892.0455   -3417.9637   -3892.0455            0    6714.3863    17.133419    20.180904    20.902731    7227.4932    6694.4298    8279.6952    5169.0339   -389.74106    1191.6808   -35.142171     -2710.23 
11341000    250.48939   -3903.8351   -3474.5049   -3903.8351            0    6882.1759    17.071882    20.108422    20.827656    7149.8973    7554.4173    7041.6634    6050.4469   -1276.7762   -1690.8592    103.41971   -2756.8734 
11342000    268.21564   -3889.5984   -3429.8859   -3889.5984            0    6097.9064    17.102091    20.144004    20.864511    7187.9196     5447.722    7173.3376    5672.6595    76.587313    237.81981   -1391.1628    -2790.652 
11343000    254.46106   -3914.5622   -3478.4247   -3914.5622            0    3898.8672    17.135389    20.183224    20.905134     7229.986    2187.2652    4475.1244     5034.212   -176.74859    41.816327    972.47755   -3067.3206 
11344000    264.49326   -3901.6156   -3448.2832   -3901.6156            0    6702.3382    17.075138    20.112257    20.831628    7153.9886    7997.3506    4787.0978    7322.5661    1127.2583   -90.054723    454.05095   -2749.0043 
11345000    252.11932     -3858.64   -3426.5161     -3858.64            0    9470.1585    17.026209    20.054625    20.771935    7092.6652    9656.7187     9366.294     9387.463   -150.30555    146.70305    1313.9678   -2446.9301 
11346000    266.20342   -3854.3277   -3398.0642   -3854.3277            0    6351.0969    17.063063    20.098035    20.816898    7138.8229    7645.9502    4882.4206    6524.9198    -632.7096   -600.49082    704.05031   -2736.8362 
11347000    265.21599   -3845.1503   -3390.5791   -3845.1503            0    8202.9805    17.061156    20.095788     20.81457    7136.4287    7065.3854    8194.8972     9348.659    289.05241   -733.23367   -957.38876   -2536.8335 
11348000    252.76664   -3865.2448   -3432.0114   -3865.2448            0    6763.7228    17.062742    20.097657    20.816506    7138.4199     7132.307    6868.2823    6290.5792   -88.184559    -1105.798    93.396663   -2727.8637 
11349000    274.29156   -3853.9257   -3383.7993   -3853.9257            0    8570.0999    16.999228    20.022845    20.739018    7058.9996    8062.1974    10311.324    7336.7785    1051.7529    1032.4862   -1083.6232   -2501.5224 
11350000    250.04094   -3851.7782   -3423.2165   -3851.7782            0    7169.5249    17.050604    20.083359    20.801697    7123.1956    5845.8497    8360.3745    7302.3507   -591.35134    438.29057   -124.85114    -2678.414 
11351000    252.47239    -3870.481   -3437.7519    -3870.481            0    6954.5064     17.10121    20.142967    20.863436    7186.8094    6599.7608    8520.0766    5743.6817    396.14454   -2698.9713   -164.16954   -2708.8345 
11352000    264.33615   -3829.4339   -3376.3708   -3829.4339            0    6261.1227    17.140756    20.189547    20.911682    7236.7825    5688.0272    7430.2806    5665.0605     1285.242   -1691.7171    782.58736   -2715.5653 
11353000     265.7471   -3857.4287   -3401.9473   -3857.4287            0    8389.2695    17.037898    20.068394    20.786196    7107.2838    7216.4882    8614.1729    9337.1475   -266.75539   -150.77776   -938.93251    -2532.379 
11354000    271.22423   -3863.0713   -3398.2023   -3863.0713            0    6814.9847    17.128081    20.174617    20.896219    7220.7405    7727.4676    5619.9232    7097.5632   -896.14898   -465.72882   -864.01693    -2680.536 
11355000    267.79812   -3859.7792   -3400.7824   -3859.7792            0    5519.8247    17.169094    20.222925    20.946255    7272.7343    5531.1707    5936.3976    5091.9057    1592.7712   -525.64503   -438.33549   -2815.3202 
11356000    245.79155   -3874.5853   -3453.3069   -3874.5853            0    6186.0459    17.130118    20.177017    20.898704    7223.3171    5247.7585    6593.4361    6716.9432   -447.39657   -1241.1409   -431.98653     -2801.64 
11357000    247.80407   -3873.6229   -3448.8952   -3873.6229            0    6126.8453    17.232917      20.2981    21.024118    7354.1412    6452.4007    4923.6279    7004.5071     948.5246    126.59663    46.491858   -2791.7751 
11358000    266.10718   -3866.4369   -3410.3383   -3866.4369            0    6778.4193    17.139985    20.188638    20.910741    7235.8052     4441.404    7769.7519     8124.102    321.98746    614.71108  -0.77297687   -2695.0334 
11359000    272.34682   -3878.0594   -3411.2663   -3878.0594            0    8937.0533    17.042229    20.073494    20.791479    7112.7044    9228.5791    9510.6638    8071.9171    517.06161    181.94403    480.37029   -2484.2124 
11360000    268.10124   -3865.7077   -3406.1914   -3865.7077            0    3924.6785    17.189368    20.246805    20.970989    7298.5287    3144.0628    4062.6195    4567.3533    1030.7832    225.32354   -547.35146   -2988.4425 
11361000    271.64936   -3868.2548   -3402.6571   -3868.2548            0    6631.2321    17.165906     20.21917    20.942366    7268.6845    7057.8471    5239.8439    7596.0054   -910.15574     1489.383    510.65299   -2699.7047 
11362000    272.01913   -3904.3144   -3438.0829   -3904.3144            0    7926.5391    17.130179    20.177088    20.898779     7223.394    7161.8778    9295.7793    7321.9604    1041.6483    518.92159    1236.1888   -2603.0553 
11363000    262.16437   -3884.3233   -3434.9826   -3884.3233            0    7314.4005     17.11402    20.158055    20.879064    7202.9715    6585.7815    7233.1449    8124.2751   -1280.4683    1118.3924      78.3355   -2666.6198 
11364000    275.88122   -3835.9333   -3363.0823   -3835.9333            0    6034.5602    17.191981    20.249882    20.974176     7301.857    4806.7925    7471.5525    5825.3357    464.88233   -733.06087    358.70831   -2720.4615 
11365000    266.20127   -3823.4391   -3367.1792   -3823.4391            0    7815.5229      17.1388    20.187242    20.909296    7234.3047    9672.7859     7672.062    6101.7207   -1179.3351    1413.1613    315.09653   -2542.6032 
11366000    257.16209   -3880.7135   -3439.9465   -3880.7135            0    6193.9885    17.160471    20.212768    20.935734    7261.7816     5796.068    8472.1579    4313.7397    1644.3016    50.307821    894.72407   -2783.9682 
11367000    253.90519   -3887.4312   -3452.2464   -3887.4312            0    5271.7312    17.134199    20.181823    20.903682    7228.4801    4409.0289    6565.7613    4840.4034    168.22931    54.480866    -304.3104   -2896.5007 
11368000    261.81803   -3888.1859   -3439.4388   -3888.1859            0    6734.9804    17.055668    20.089324    20.807875    7129.5441    7096.9206    7173.6906      5934.33   -615.49816    1354.5306    -240.7226   -2739.1551 
11369000    267.66959   -3859.3511   -3400.5746   -3859.3511            0    9878.7091    17.020134     20.04747    20.764524    7085.0763    8692.2939    11352.051    9591.7822   -817.69814   -2009.9582   -1601.8909   -2379.8217 
11370000    250.84419   -3863.2999   -3433.3616   -3863.2999            0     6539.029    17.085306    20.124234    20.844033    7166.7766    4540.5829    8849.9966    6226.5074    1361.0737    116.90128   -1342.9759   -2749.9017 
11371000    251.47081   -3849.2062   -3418.1938   -3849.2062            0    6263.7119    17.166765    20.220182    20.943413     7269.775    4946.3319    8154.1276    5690.6763    1397.8575   -708.09374    250.39669   -2754.1012 
11372000    270.81878   -3831.3445   -3367.1703   -3831.3445            0    5814.6058    17.092524    20.132736    20.852839    7175.8639    5493.7553    6304.9204    5645.1417    1706.5067    424.77597   -1190.9765   -2758.6566 
11373000    248.66966   -3872.3002   -3446.0889   -3872.3002            0    5564.4762    17.224209    20.287843    21.013495    7342.9991    5314.4525    5239.0044    6139.9718   -221.13021    1547.7391     413.8562   -2850.1885 
11374000     264.3248   -3826.3293   -3373.2857   -3826.3293            0    7401.7777    17.079747    20.117686    20.837252    7159.7838    8792.8061    5639.7311     7772.796   -746.22604   -1335.7095    318.69521   -2600.4061 
11375000     280.4568   -3847.8322   -3367.1388   -3847.8322            0    7025.0297    17.114848     20.15903    20.880075    7204.0172    6191.4792    7947.6834    6935.9265   -770.79042    470.87069    919.21025   -2629.0667 
11376000    257.03414   -3847.3061   -3406.7583   -3847.3061            0    8395.6265    17.077818    20.115414    20.834898    7157.3576    8507.8003    8143.7507    8535.3285    401.98545    891.39206   -829.25793      -2530.4 
11377000    269.09947   -3888.3058   -3427.0785   -3888.3058            0    7770.4465    17.092138     20.13228    20.852368    7175.3771    7608.7446    8873.6477    6828.9471    320.36673   -1011.6298   -1183.2792   -2613.9361 
11378000    268.86932   -3872.4993   -3411.6665   -3872.4993            0    8037.0898    17.126354    20.172582    20.894111    7218.5556    7090.8117    8171.9721    8848.4856    445.25202    723.59067   -463.17486     -2565.56 
11379000    279.54591   -3871.9789   -3392.8467   -3871.9789            0    6908.8445    17.136252    20.184242    20.906188    7231.0795    5306.1047    8051.7312    7368.6975   -1113.4482   -901.74692    645.51425   -2664.2547 
11380000    257.21855   -3887.7805   -3446.9167   -3887.7805            0     8567.653    17.120199    20.165333    20.886603    7210.7765    7417.7931    10008.271    8276.8948   -1522.0382   -240.35055   -254.65427   -2545.9271 
11381000    252.25367   -3885.5255   -3453.1714   -3885.5255            0    6150.6125    17.105087    20.147533    20.868166    7191.6984    5553.2697    6792.6874    6105.8804   -192.33367   -552.33416    -39.38406   -2808.0733 
11382000    260.88184   -3828.8975   -3381.7549   -3828.8975            0    7276.2001    17.066349    20.101905    20.820906    7142.9479    8003.4578    6376.0691    7449.0733   -592.21328    -364.0644   -262.77288   -2623.7745 
11383000    257.13958   -3833.8486   -3393.1202   -3833.8486            0    6547.5183    17.092931    20.133214    20.853335    7176.3757    4990.2705    6997.4539    7654.8306    929.53213   -821.58316    1444.0338   -2707.8564 
11384000     252.9361   -3846.2578    -3412.734   -3846.2578            0    7154.7825    17.093388    20.133754    20.853894    7176.9525     5959.891    8035.1316    7469.3249    1591.8737    474.27281    -395.9164   -2663.8537 
11385000    248.94864   -3855.9572   -3429.2678   -3855.9572            0    6585.6178     17.12349    20.169209    20.890618    7214.9354     6663.594    6058.7083    7034.5511   -428.92082    693.02355    278.60243    -2736.313 
11386000    257.48699   -3844.8816   -3403.5577   -3844.8816            0    5278.9685    17.145673    20.195338    20.917681    7243.0116    5178.2548    5284.5528    5374.0978   -212.61871    241.74644     215.9069   -2845.9303 
11387000    253.18198   -3851.2536   -3417.3083   -3851.2536            0    7451.9554    17.110368    20.153753    20.874609    7198.3611    7330.6495    7047.9565    7977.2603    377.93406   -137.66351   -187.63516   -2634.9967 
11388000    277.16285   -3855.4461   -3380.3985   -3855.4461            0    6894.2743    17.094645    20.135234    20.855427    7178.5356    6467.6674    6783.2121    7431.9433    231.73406   -867.71721    1083.9724    -2658.626 
11389000    240.07177   -3865.2524   -3453.7776   -3865.2524            0    7650.1442    17.119704     20.16475    20.885999    7210.1503    9472.3302    6809.2449    6668.8575    512.88414   -51.396698   -2402.1817   -2649.3447 
11390000    266.15616   -3882.8505   -3426.6679   -3882.8505            0    7165.4198    17.197647    20.256557     20.98109    7309.0798    7365.6658    8276.1953    5854.3983   -1944.2158    1207.0016    442.62523   -2662.8669 
11391000    260.82809    -3887.318   -3440.2675    -3887.318            0    7421.2093    17.085526    20.124493    20.844302    7167.0535    7579.8815    9074.4697    5609.2767    536.27614    1196.5766   -506.52581   -2664.5721 
11392000    261.97098   -3884.7655   -3435.7562   -3884.7655            0    8150.5516    17.073252    20.110035    20.829327    7151.6182     9494.421     9395.149    5562.0847   -119.29571   -1534.6797   -826.48818   -2585.6617 
11393000    247.60963   -3857.4678   -3433.0734   -3857.4678            0    5598.6031     17.19836    20.257396    20.981959    7309.9885    6728.1957    5375.1413    4692.4724   -1261.1897    954.84757    309.97945   -2836.2137 
11394000    260.50943   -3873.3178   -3426.8136   -3873.3178            0    5584.9118    17.194346    20.252669    20.977062    7304.8718     4066.693    7701.6327    4986.4098   -585.96061   -289.74036   -8.8524002   -2831.8302 
11395000    273.37535   -3876.7962   -3408.2402   -3876.7962            0    7585.1472    17.133945    20.181524    20.903373     7228.159    7749.8167    5918.6567    9086.9682   -1404.4012   -484.22809    -155.1997   -2608.6497 
11396000     259.5171   -3893.8277   -3449.0243   -3893.8277            0    7116.5843    17.146544    20.196364    20.918744    7244.1157    7166.4249    6820.1706    7363.1574    586.68802    400.81742   -625.65147   -2697.1714 
11397000    256.66117   -3904.2291   -3464.3207   -3904.2291            0    7055.8932    17.118487    20.163317    20.884514    7208.6134    8883.9025    5693.0283    6590.7488    473.93774    48.152116   -162.36644    -2722.533 
11398000     261.4693   -3887.6641   -3439.5146   -3887.6641            0    7327.6091    17.040427    20.071373    20.789282    7110.4492    7719.1157    5587.5726    8676.1391    408.09223   -64.461278   -170.77241   -2679.6518 
11399000    279.86241   -3853.1116    -3373.437   -3853.1116            0    7683.5846    17.103601    20.145783    20.866354    7189.8242    7641.2854    7351.1994     8058.269    163.41111   -357.05669    401.70877   -2567.7654 
11400000    247.80841    -3836.942   -3412.2069    -3836.942            0    6608.5897    17.114954    20.159155    20.880203    7204.1503    7550.1177     6913.053    5362.5983    693.61065   -423.05604    2546.3859   -2717.8744 
11401000    263.48849   -3830.1198   -3378.5095   -3830.1198            0    7272.6486    17.099824    20.141334    20.861745    7185.0618    7208.5677    5578.6428    9030.7353    12.388739   -1546.2568   -491.26289   -2616.4323 
11402000    252.66486   -3896.2472   -3463.1883   -3896.2472            0    4103.3079     17.18814    20.245359    20.969491    7296.9651    5463.3256    2904.6241    3941.9739   -215.96064   -46.096398    927.61692   -3026.5194 
11403000    263.49042   -3857.8113   -3406.1977   -3857.8113            0    7097.4125    17.136102    20.184065    20.906005    7230.8897    6575.3457    7209.0815    7507.8102    520.43653   -39.605065   -1816.7781   -2657.7393 
11404000    272.69416     -3881.45   -3414.0616     -3881.45            0    7010.4581    17.068951     20.10497    20.824081    7146.2155    5284.0567    6699.4035    9047.9142     491.7671    -428.7214   -790.80458   -2683.4301 
11405000    263.81417   -3850.5033   -3398.3348   -3850.5033            0    8364.8145     17.05707    20.090975    20.809585    7131.3027    8953.2685    8628.6296    7512.5455    -2000.755   -132.17727   -1158.1838   -2528.3712 
11406000    253.13028   -3885.8365   -3451.9799   -3885.8365            0    6590.5836    17.051566    20.084493    20.802871    7124.4022    6396.8283    6986.7054    6388.2172   -833.94326   -824.93807   -1196.2517   -2767.2044 
11407000    252.87856   -3880.7346   -3447.3094   -3880.7346            0    6086.8212    17.155171    20.206526    20.929269    7255.0557    5397.9315    6345.7984    6516.7336    865.26504    665.14693   -1472.9583   -2803.2778 
11408000    260.86327   -3907.0292   -3459.9184   -3907.0292            0    6038.3338    17.108231    20.151236    20.872002    7195.6643    6742.4576    6277.6927    5094.8511     175.4714   -292.04005   -704.51189   -2826.2473 
11409000    253.35733    -3853.145   -3418.8992    -3853.145            0    5403.0906    17.077853    20.115455    20.834941    7157.4016    5816.9203    5414.6881    4977.6634    33.576873    729.91698   -2236.2684   -2854.9064 
11410000    283.74631   -3878.4442   -3392.1127   -3878.4442            0    5185.4319    17.164107    20.217051     20.94017    7266.3988    4879.8695    4093.4575    6582.9688    295.94519   -584.87453    156.58123   -2842.5971 
11411000    251.24997   -3871.2445   -3440.6107   -3871.2445            0    7240.2996    17.092459    20.132659     20.85276    7175.7815    7217.8282    8396.8191    6106.2515   -542.27961    1697.4861   -1149.3661   -2682.9031 
11412000    244.83731   -3854.9175   -3435.2747   -3854.9175            0    5348.6478    17.188719    20.246041    20.970197     7297.702    6265.1861    4869.2563    4911.5011   -2251.3803     -248.417    187.36168   -2866.0208 
11413000    271.81816   -3886.0263   -3420.1393   -3886.0263            0    6780.5839    17.114673    20.158824    20.879861     7203.796    5406.6434    9642.5471    5292.5611    740.34531     1787.102   -1304.1021   -2707.7713 
11414000    265.50251   -3892.7087   -3437.6464   -3892.7087            0    6153.7923    17.198885    20.258014    20.982599    7310.6576    5465.5012     5692.528    7303.3478   -179.40994    474.59651    996.99052   -2781.5387 
11415000    256.26914   -3840.2259   -3400.9894   -3840.2259            0    5907.6905    17.128397     20.17499    20.896605    7221.1402    7305.8669    5814.1789    4603.0258    848.83263    728.90585   -525.87808   -2778.8332 
11416000    260.07919   -3830.2065   -3384.4397   -3830.2065            0    5742.5565    17.128848     20.17552    20.897154      7221.71    5769.7628    6687.0946     4770.812    1353.3108   -1429.6044    744.96247   -2779.6265 
11417000     248.4065   -3861.9537   -3436.1934   -3861.9537            0    5701.6111    17.116016    20.160406      20.8815     7205.492    5674.3128     5862.646    5567.8744   -207.38051    927.11056    560.99291   -2837.0413 
11418000    271.98289   -3837.0499   -3370.8805   -3837.0499            0    5453.4943    17.114296     20.15838    20.879401    7203.3195    5477.4342    5670.8985    5212.1503   -924.16264    2202.1591   -1666.4708   -2797.9744 
11419000    274.02521   -3866.8765   -3397.2067   -3866.8765            0    5938.2302    17.178622    20.234148    20.957879    7284.8496    7803.0637     5462.738    4548.8891    2243.5852    1959.3698    986.06606   -2766.3169 
11420000    262.81795   -3856.0846   -3405.6236   -3856.0846            0    8845.7609    17.058279    20.092399     20.81106    7132.8191    7969.7514    9166.2415    9401.2898   -1904.0759   -878.34114    269.21254   -2485.4446 
11421000    255.20563   -3867.9638   -3430.5501   -3867.9638            0    8066.4928    17.123431    20.169139    20.890545    7214.8603    8427.1031    7968.2012    7804.1741    1033.1172   -491.64262   -2118.2676   -2581.7829 
11422000    250.74379   -3854.3559   -3424.5896   -3854.3559            0    4872.2067    17.113979    20.158007    20.879015    7202.9202    5307.8387    6766.0973    2542.6842    120.88964   -1258.6258    668.76775   -2912.7779 
11423000    276.98526   -3877.3343   -3402.5911   -3877.3343            0    7997.6222    17.027737    20.056425    20.773799    7094.5747    6692.1767    11115.075    6185.6152    1216.1746   -34.622432    1687.5117   -2575.1003 
11424000    258.04274    -3872.031   -3429.7546    -3872.031            0    7546.3105    17.092328    20.132505      20.8526     7175.617    5996.4537    9268.1279      7374.35   -930.93638    -167.8252     352.1924   -2640.0406 
11425000    270.20352   -3865.6221   -3402.5025   -3865.6221            0    6348.1568    17.087106    20.126353    20.846229    7169.0415    5081.2427    7639.8072    6323.4205   -125.29971    296.95266    1201.2833    -2738.783 
11426000    256.75361   -3878.0625   -3437.9956   -3878.0625            0    6384.1088    17.147216    20.197155    20.919563    7244.9674    7225.1425    5244.0968     6683.087   -934.14292   -33.103776   -726.00153    -2763.448 
11427000    267.69013   -3848.7639   -3389.9522   -3848.7639            0    5238.3037    17.200437    20.259843    20.984493    7312.6373     3940.878    5406.4533    6367.5798   -623.76531   -1451.1525   -1448.2461   -2831.3012 
11428000    264.12915   -3870.0461   -3417.3378   -3870.0461            0    6528.8421    17.200282    20.259661    20.984304    7312.4401    5625.8323    6359.0221     7601.672    1186.0889   -223.05309   -1139.6364   -2721.0731 
11429000     252.0376   -3873.5493   -3441.5655   -3873.5493            0    7184.2682    17.167394    20.220922     20.94418    7270.5739    7355.8785     7095.471    7101.4553    741.47434    1402.2378     162.1958   -2679.7898 
11430000    252.82271   -3867.4869   -3434.1574   -3867.4869            0    6222.3707     17.16007    20.212296    20.935245    7261.2725    5144.8499    6195.3904    7326.8718   -195.52976    1068.3438    50.485968   -2775.2195 
11431000    268.39169   -3883.2357   -3423.2215   -3883.2357            0    8103.0002     17.06445    20.099668     20.81859    7140.5637    7893.0853    9050.6862    7365.2291   -2034.4742   -44.674444    706.07379   -2579.3929 
11432000    268.79076   -3867.8608   -3407.1627   -3867.8608            0    8959.0374    17.057241    20.091176    20.809794    7131.5168    8074.0434    12328.512    6474.5571   -461.10616    -1702.154    499.96257   -2475.3703 
11433000       251.13   -3869.5584   -3439.1302   -3869.5584            0    6859.2831    17.120271    20.165417     20.88669    7210.8667    6828.9906     8407.059    5341.7998    226.60543    780.49889    1147.9619   -2717.7868 
11434000    257.46334    -3900.428   -3459.1447    -3900.428            0    6590.9231    17.115249    20.159502    20.880563    7204.5228    7670.2097    5506.8725    6595.6872    703.96569    94.524292    68.515403   -2766.6326 
11435000    256.57446   -3848.8463   -3409.0865   -3848.8463            0    5750.8772    17.128647    20.175284     20.89691    7221.4563    6050.0084    5975.0029    5227.6203     2065.944    -186.1763    418.31962   -2803.4183 
11436000    261.74454   -3846.3778   -3397.7567   -3846.3778            0    8464.9738    17.141219    20.190091    20.912247    7237.3684    7526.9762    7358.1007    10509.844    321.73234    2109.3238   -935.19203   -2504.2821 
11437000     257.5569   -3874.1294   -3432.6857   -3874.1294            0    7076.5714    17.175941     20.23099    20.954608    7281.4386    7536.4816     5621.042    8072.1907   -443.24171    -1170.504    1351.7505   -2681.2082 
11438000    273.83203   -3846.0892   -3376.7505   -3846.0892            0    7836.7031    17.116618    20.161115    20.882234    7206.2526    8735.1775    7493.6626    7281.2691    597.53948   -11.549701     351.6741   -2553.1459 
11439000    252.69253   -3880.9972   -3447.8908   -3880.9972            0    7333.9495     17.08941    20.129068    20.849041    7171.9427    7438.9724    8056.2599    6506.6162   -79.777581   -351.69934    592.65933   -2680.7932 
11440000    285.65348   -3854.8699   -3365.2697   -3854.8699            0    8740.0398    17.038119    20.068654    20.786465      7107.56    7805.7699     9256.652    9157.6974   -126.84762    510.26233    625.30618    -2459.308 
11441000    253.78973   -3861.5059    -3426.519   -3861.5059            0    7411.4901    17.071628    20.108123    20.827346     7149.578    8308.3135    7402.5768    6523.5799   -231.19546    666.03143   -960.19868   -2653.7284 
11442000    261.92671   -3866.1443   -3417.2109   -3866.1443            0    6404.3147    17.169801    20.223757    20.947117    7273.6324    6831.8595     7386.677    4994.4076   -1158.3244    288.82883   -559.91619    -2737.851 
11443000    262.33411   -3860.0412   -3410.4095   -3860.0412            0     6669.254     17.12156    20.166937    20.888264    7212.4965    7972.7082    5759.8889     6275.165    168.08338    399.30064   -1521.5001   -2708.8916 
11444000    268.20485   -3846.3516   -3386.6577   -3846.3516            0    8585.9616     17.05691    20.090788    20.809391    7131.1028    8399.6871    9015.7292    8342.4685    1527.5749   -353.12029   -639.25731   -2493.7192 
11445000     261.3723   -3877.8276   -3429.8444   -3877.8276            0    7190.1352    17.151884    20.202654    20.925259    7250.8862    6175.2754    6221.4653    9173.6648    1618.8456    1024.1938   -741.14308   -2669.5111 
11446000     256.1762   -3871.1385   -3432.0612   -3871.1385            0    5399.4516    17.175561    20.230542    20.954144    7280.9557    4726.0223    5755.8199    5716.5127    1183.8181    650.93764   -774.79544    -2858.719 
11447000    247.74199   -3872.4583    -3447.837   -3872.4583            0    6979.9505    17.149092    20.199365    20.921852    7247.3454    6364.5653    7832.7264    6742.5599   -1011.5565    356.33209    1442.6044   -2710.0905 
11448000    262.71821   -3874.2607   -3423.9706   -3874.2607            0    5832.1167    17.111701    20.155324    20.876236    7200.0441    5073.9572    5356.3868     7066.006   -184.35217   -511.76125   -522.69961   -2811.5677 
11449000    263.51467    -3843.524   -3391.8689    -3843.524            0    6418.7064    17.042357    20.073646    20.791636    7112.8651    6484.7612     5651.798    7119.5599   -264.07437   -2047.9944   -661.00963   -2726.0318 
11450000    267.92626   -3901.5689   -3442.3525   -3901.5689            0    6424.9288    17.110311    20.153686    20.874539    7198.2887    6697.8894    6351.8418    6225.0551     701.1104    19.640462    1366.5022   -2767.8657 
11451000    248.29457   -3853.8511   -3428.2827   -3853.8511            0    5724.0141    17.157366    20.209111    20.931947    7257.8409    6924.8381    4292.6327    5954.5715   -1069.4893    475.02711    208.84265   -2822.4064 
11452000    272.44865   -3875.9479   -3408.9803   -3875.9479            0    6833.4586    17.136021    20.183969    20.905906    7230.7866    4378.3141    9120.0755    7001.9861    51.607724   -625.01085   -435.97501   -2688.3674 
11453000    263.00998   -3903.4493   -3452.6592   -3903.4493            0    5447.0458    17.136142    20.184112    20.906054    7230.9404    5842.9477    5486.7008     5011.489    1442.3365    229.18031    1061.8404   -2878.2364 
11454000    242.98435   -3856.9881   -3440.5212   -3856.9881            0    5310.0788    17.087127    20.126379    20.846255    7169.0686    6173.7941    4582.9245    5173.5177   -529.47333    1860.8855    -232.1569   -2885.3338 
11455000    263.46878   -3919.0958   -3467.5193   -3919.0958            0    6228.9767    17.119471    20.164475    20.885714    7209.8557    5322.8324    7729.7107    5634.3871    540.95097    1084.3201    580.82468   -2812.5527 
11456000    261.81145   -3896.8975   -3448.1616   -3896.8975            0    5883.5569    17.060225    20.094691    20.813434    7135.2603    6415.0719    4959.3395    6276.2593   -774.14352    207.88057   -672.04486    -2835.916 
11457000    263.24922    -3876.248   -3425.0478    -3876.248            0    7081.3086    17.123847     20.16963    20.891053    7215.3863    5519.3601    6362.4492    9362.1165   -1041.3489   -268.11397    922.60325   -2679.8887 
11458000     249.4334   -3823.0024   -3395.4821   -3823.0024            0    7844.5215    17.056859    20.090727    20.809328    7131.0385    8628.5681    7166.6731    7738.3232   -1266.2402   -545.33213   -422.34186   -2579.6606 
11459000    265.85073    -3875.834    -3420.175    -3875.834            0    5497.8177    17.080329    20.118371    20.837961    7160.5152    5406.2014    3860.7663    7226.4853   -704.58346    472.67658    1277.4785   -2846.0447 
11460000    278.23659   -3831.4336   -3354.5456   -3831.4336            0    9324.0349    17.038412    20.068999    20.786823    7107.9269    8205.8629      9543.49    10222.752    1168.6532   -727.82193   -149.03894   -2387.9991 
11461000    256.55045   -3854.5501   -3414.8314   -3854.5501            0    5945.6288    17.045347    20.077167    20.795283    7116.6091    5928.0177    6330.5943    5578.2743   -96.921871   -1197.3668    -1613.018   -2797.7438 
11462000    259.66133   -3860.7431   -3415.6925   -3860.7431            0    5434.5318    17.190963    20.248683    20.972934      7300.56    6088.7172    5150.2602    5064.6181    -86.45333    368.45485    213.71112   -2837.0715 
11463000    266.37937   -3843.2686   -3386.7035   -3843.2686            0    6032.4949    17.099007    20.140372    20.860749    7184.0322    7360.2914    6133.7654    4603.4279   -328.15102     1264.143    467.36801   -2754.6685 
11464000    263.72106   -3890.0032   -3437.9943   -3890.0032            0    5665.4477    17.180861    20.236785     20.96061    7287.6978    7035.2029    5349.8185    4611.3216   -2248.0879    1328.7118   -347.60185   -2835.8502 
11465000     250.8773   -3898.6026   -3468.6075   -3898.6026            0    7300.9162    17.027808    20.056509    20.773886     7094.664    7874.4933    5971.2554    8056.9999   -29.609404   -1864.9863    793.45985   -2713.1934 
11466000    254.99899   -3870.2652   -3433.2056   -3870.2652            0    6589.9576    17.185371    20.242098    20.966113    7293.4391    6325.1567     6968.718    6475.9983   -662.09121    1231.9782    -1519.328   -2732.2494 
11467000    248.65211   -3858.7903   -3432.6091   -3858.7903            0    7040.2787     17.06797    20.103814    20.822883    7144.9826    6849.6667    6426.8703    7844.2991   -142.38767    -768.1646    1997.0289   -2698.9963 
11468000    268.77368    -3874.275   -3413.6062    -3874.275            0    6026.5303    17.141168    20.190031    20.912184    7237.3036    6794.0887    6368.9476    4916.5545    747.47794    35.843831    212.83405    -2777.514 
11469000    265.89646   -3848.0944   -3392.3569   -3848.0944            0    6856.4944    17.105909    20.148502    20.869169    7192.7354    6850.0268     7369.786    6349.6703    893.97095   -974.27297   -1923.1498   -2673.1198 
11470000    244.18269   -3848.1846   -3429.6639   -3848.1846            0    8832.3589    16.983817    20.004693    20.720217    7039.8185    8593.5874    9286.8891    8616.6002    517.08841   -346.66013   -292.31882   -2522.8585 
11471000    271.22341   -3884.8243   -3419.9566   -3884.8243            0     5891.309     17.08491    20.123768    20.843551     7166.279    5117.3741    7054.0062    5502.5466   -375.70837    502.16783   -1233.0971   -2804.2392 
11472000    257.04501   -3876.0168   -3435.4505   -3876.0168            0    5503.8892    17.167471    20.221014    20.944275    7270.6724    6512.3921    5928.4412    4070.8342    -1290.429   -617.31924    302.81269   -2851.8439 
11473000    262.72791   -3885.8027    -3435.496   -3885.8027            0     6534.664    17.134841     20.18258    20.904467    7229.2936    8074.3498    6253.2704    5276.3717    620.72631    1164.8462   -251.43488   -2746.5344 
11474000    261.40748   -3842.9193   -3394.8758   -3842.9193            0     5266.024    17.138256    20.186602    20.908632    7233.6163    6998.3455    4028.9932    4770.7333    875.22967   -891.04719   -744.66463   -2839.3373 
11475000    274.42388   -3904.1516   -3433.7985   -3904.1516            0    7475.6725    17.079399    20.117276    20.836826    7159.3454    9658.7286    5707.8695    7060.4195    807.23802   -669.49966    1279.1374   -2653.2507 
11476000    264.43985   -3868.0266   -3414.7858   -3868.0266            0    6939.0334    17.088823    20.128376    20.848324    7171.2037    6834.2226    8707.4774    5275.4003   -358.62993    321.44492    1167.2549   -2689.0694 
11477000    272.66668   -3829.3105   -3361.9692   -3829.3105            0    7628.5111    17.088318    20.127781    20.847708    7170.5672    7121.7211    8060.2356    7703.5766   -162.37582   -2076.5717   -44.790755   -2564.2148 
11478000    267.61878   -3860.7018   -3402.0123   -3860.7018            0    7647.0082    17.095199    20.135887    20.856103     7179.234    8307.2729    6652.8834    7980.8683     982.9495   -187.73947    8.0278764   -2601.3571 
11479000    272.94022   -3864.9853   -3397.1751   -3864.9853            0    5724.1329    17.127825    20.174315    20.895907    7220.4164    4528.1145     6643.081    6001.2033     1254.021    426.90535    1262.5086   -2794.4104 
11480000    259.02863   -3838.5768   -3394.6106   -3838.5768            0    5384.2124    17.131079    20.178148    20.899876     7224.532    5526.5988     5010.575    5615.4633    70.355765    -474.8383   -9.2660661   -2827.3171 
11481000    271.26489   -3885.6061   -3420.6673   -3885.6061            0    5124.5844     17.15585    20.207325    20.930097    7255.9171     3479.752    5021.2254    6872.7757     289.4359   -1262.4623   -218.94648   -2878.3833 
11482000    261.08984   -3885.3547   -3437.8557   -3885.3547            0    7213.2216    17.103377    20.145519     20.86608    7189.5414    4014.1271    7877.4188     9748.119   -2548.9822   -476.06786    -1317.525   -2681.5343 
11483000    256.42702   -3885.0479   -3445.5408   -3885.0479            0    8038.1146    17.118875    20.163774    20.884988    7209.1039    8046.7174    7760.7426    8306.8838   -762.61975    -731.5306   -814.83424   -2600.4344 
11484000    273.45481   -3888.0704   -3419.3782   -3888.0704            0    7805.2865    17.093261    20.133603    20.853738    7176.7914    8957.1166    7328.9806    7129.7625    1167.5534   -660.51556     1233.571    -2602.429 
11485000    246.75353   -3863.1023   -3440.1752   -3863.1023            0    5137.8761    17.155727     20.20718    20.929947    7255.7612    6228.0599    3316.0303     5869.538   -328.53466   -720.09739    1271.6322   -2896.4963 
11486000    250.63977   -3864.3885   -3434.8005   -3864.3885            0    6344.0353    17.058793    20.093005    20.811688    7133.4647     5967.854    7008.8815    6055.3704    923.14884   -212.24379   -72.037826   -2774.8034 
11487000    266.48251   -3893.5113   -3436.7694   -3893.5113            0    5966.6722    17.122234     20.16773    20.889085    7213.3477    6072.5443    5288.2093    6539.2628    839.89292    866.37667    1074.4359   -2809.0798 
11488000    269.26661   -3875.2672   -3413.7535   -3875.2672            0    5473.3126    17.100947    20.142657    20.863116    7186.4779    6434.1518    5293.6988    4692.0872   -223.05766     240.9175   -1792.3284   -2840.1098 
11489000    265.09482   -3883.0795   -3428.7161   -3883.0795            0    6275.9893    17.123917    20.169713    20.891139    7215.4757    4067.0383     6577.506    8183.4236   -3.2497176   -638.64073   -175.31942   -2768.2917 
11490000    261.16415   -3847.7452   -3400.1188   -3847.7452            0    6866.1904    17.119301    20.164275    20.885507    7209.6415    7648.3134    5213.3303    7736.9275    262.84709    90.804366    196.09198   -2678.1716 
11491000    256.53417   -3898.7056   -3459.0148   -3898.7056            0    7230.5989    17.124739     20.17068    20.892141     7216.514    6645.7005    6738.1368    8307.9595   -798.76206   -886.93402    687.44104   -2698.0271 
11492000    257.31503   -3863.4612   -3422.4321   -3863.4612            0    6215.7851    17.153316     20.20434    20.927005    7252.7022    6226.7143    7178.1467    5242.4943   -783.52499   -794.36077    1414.6483   -2764.9685 
11493000    288.54221   -3889.2973   -3394.7458   -3889.2973            0    4959.9756    17.149607    20.199972     20.92248    7247.9986    5454.1481    5219.2007    4206.5779    366.27719   -741.31496   -438.98866   -2870.4535 
11494000    273.40496   -3888.3191   -3419.7124   -3888.3191            0    5981.5058    17.108659     20.15174    20.872524    7196.2044    4755.5565    6720.9875    6467.9732   -393.92775   -1429.7591    484.81329   -2791.9578 
11495000    272.57493      -3823.9   -3356.7159      -3823.9            0    6918.2387    17.077608    20.115167    20.834642    7157.0942    7906.4417    7080.4141    5767.8603    780.59952   -43.843276    -615.2609   -2634.5979 
11496000    273.06516   -3889.6555   -3421.6311   -3889.6555            0    4045.7292     17.24393    20.311072    21.037555    7368.2501    3405.6245    3992.9755    4738.5877    -1245.512   -355.13236    199.67231   -2986.8837 
11497000    263.39574   -3896.3121   -3444.8608   -3896.3121            0      5554.91    17.202218     20.26194    20.986665    7314.9086    5301.4253    4638.1341    6725.1705    -1255.198    335.88941   -402.25381   -2852.2606 
11498000    263.63861   -3860.7044   -3408.8368   -3860.7044            0    8346.9676    17.102558    20.144555    20.865081    7188.5093    5873.5874    9571.7694     9595.546   -1042.6312   -225.39839    -626.7759   -2533.7655 
11499000    238.06086   -3872.6958   -3464.6676   -3872.6958            0    4832.8602    17.198579    20.257654    20.982226    7310.2674    4824.6165    5442.1919    4231.7723   -549.39017    214.24111    -76.25356   -2949.4231 
11500000    271.10589   -3856.7623   -3392.0961   -3856.7623            0    4686.0123    17.187967    20.245154    20.969279    7296.7438    5023.2152    4816.6874    4218.1343   -171.35301   -2110.2219    566.40144   -2893.4316 
Loop time of 440.08 on 64 procs for 250000 steps with 864 atoms

Performance: 98.164 ns/day, 0.244 hours/ns, 568.079 timesteps/s
99.1% CPU use with 64 MPI tasks x 1 OpenMP threads

MPI task timing breakdown:
Section |  min time  |  avg time  |  max time  |%varavg| %total
---------------------------------------------------------------
Pair    | 21.296     | 25.96      | 30.592     |  46.2 |  5.90
Bond    | 0.26902    | 0.2771     | 0.28676    |   0.7 |  0.06
Kspace  | 184.5      | 193.87     | 207.48     |  35.2 | 44.05
Neigh   | 4.8988     | 5.766      | 7.0071     |  24.2 |  1.31
Comm    | 92.6       | 104.95     | 114.73     |  54.8 | 23.85
Output  | 1.4875     | 1.4884     | 1.4941     |   0.1 |  0.34
Modify  | 100.67     | 103.58     | 106.74     |  18.5 | 23.54
Other   |            | 4.176      |            |       |  0.95

Nlocal:        13.5000 ave          19 max           9 min
Histogram: 4 2 8 5 12 13 9 4 4 3
Nghost:        2176.56 ave        2219 max        2130 min
Histogram: 3 5 6 6 9 10 8 6 6 5
Neighs:        4229.83 ave        6183 max        2297 min
Histogram: 3 4 7 6 10 13 9 9 1 2

Total # of neighbors = 270709
Ave neighs/atom = 313.32060
Ave special neighs/atom = 2.0000000
Neighbor list builds = 14244
Dangerous builds = 0

unfix		3
unfix		2
unfix		1

write_data	data.final.${pid}
write_data	data.final.0
System init for write_data ...
PPPM initialization ...
  extracting TIP4P info from pair style
  using 12-bit tables for long-range coulomb (../kspace.cpp:340)
  G vector (1/distance) = 0.37479337
  grid = 24 24 25
  stencil order = 5
  estimated absolute RMS force accuracy = 0.0030134242
  estimated relative force accuracy = 9.0748374e-06
  using double precision FFTW3
  3d grid and FFT values/proc = 2730 288
Last active /omp style is kspace_style pppm/tip4p/omp
WARNING: Not all mixed pair coeffs generated from mixing. Use write_data with 'pair ij' option to store all pair coeffs. (../write_data.cpp:312)

write_restart   restart.lmp.${pid}
write_restart   restart.lmp.0
System init for write_restart ...
PPPM initialization ...
  extracting TIP4P info from pair style
  using 12-bit tables for long-range coulomb (../kspace.cpp:340)
  G vector (1/distance) = 0.37479337
  grid = 24 24 25
  stencil order = 5
  estimated absolute RMS force accuracy = 0.0030134242
  estimated relative force accuracy = 9.0748374e-06
  using double precision FFTW3
  3d grid and FFT values/proc = 2730 288
Last active /omp style is kspace_style pppm/tip4p/omp
Total wall time: 0:07:23
