LAMMPS (27 Oct 2021)
  using 32 OpenMP thread(s) per MPI task
package omp 0
using multi-threaded neighbor list subroutines
echo both

include		in.partitions
variable        pid world 0
include		in.temp
variable	temperature equal 300.0
variable	tempDamp equal 100.0
include		in.pressure
variable        pressure equal 12000
variable        pressureDamp equal 1000.0 # This is 1 ps
include		in.seed
variable        seed world 745823

units		real
atom_style	full
include		in.box
read_data       water.data
Reading data file ...
  orthogonal box = (0.0000000 1.0915313 0.0000000) to (18.207572 22.537647 22.213196)
  1 by 1 by 1 MPI processor grid
  reading atoms ...
  864 atoms
  reading velocities ...
  864 velocities
  scanning bonds ...
  2 = max bonds/atom
  scanning angles ...
  1 = max angles/atom
  reading bonds ...
  576 bonds
  reading angles ...
  288 angles
Finding 1-2 1-3 1-4 neighbors ...
  special bond factors lj:    0        0        0       
  special bond factors coul:  0        0        0       
     2 = max # of 1-2 neighbors
     1 = max # of 1-3 neighbors
     1 = max # of 1-4 neighbors
     2 = max # of special neighbors
  special bonds CPU = 0.000 seconds
  read_data CPU = 0.066 seconds
include 	in.setup
variable	out_freq equal 500
variable	out_freq2 equal 500

timestep	2.0

neigh_modify    delay 7 every 1

include		in.tip4p
# This is TIP4P/Ice

# create groups ###
group ox type 2
288 atoms in group ox
group hy type 1
576 atoms in group hy

# set charges - beside manually ###
set group ox charge -1.1794
Setting atom values ...
  288 settings made for charge
set group hy charge 0.5897
Setting atom values ...
  576 settings made for charge

# ### TIP3P Potential Parameters ###
pair_style lj/cut/tip4p/long 2 1 1 1 0.1577 8.5
pair_coeff 1 1*2 0.000 0.000
pair_coeff 2 2 0.21084 3.1668
bond_style  harmonic
bond_coeff  1 450 0.9572
angle_style harmonic
angle_coeff 1 55 104.52
kspace_style pppm/tip4p 1.0e-5
pair_modify tail yes

thermo          ${out_freq}
thermo          500
thermo_style 	custom step temp pe etotal epair emol press lx ly lz vol pxx pyy pzz pxy pxz pyz

restart 	${out_freq} restart.lmp.${pid} restart2.lmp.${pid}
restart 	500 restart.lmp.${pid} restart2.lmp.${pid}
restart 	500 restart.lmp.0 restart2.lmp.${pid}
restart 	500 restart.lmp.0 restart2.lmp.0


include         in.dump
dump            myDump all atom ${out_freq2} dump.water.${pid}
dump            myDump all atom 500 dump.water.${pid}
dump            myDump all atom 500 dump.water.0
dump            myDump2 all dcd ${out_freq2} dump.dcd
dump            myDump2 all dcd 500 dump.dcd
dump_modify     myDump append yes
dump_modify     myDump2 append yes


timer           timeout 00:55:00 every 1000
New timer settings: style=normal  mode=nosync  timeout=00:55:00

fix 		1 all shake 1e-6 200 0 b 1 a 1
       0 = # of size 2 clusters
       0 = # of size 3 clusters
       0 = # of size 4 clusters
     288 = # of frozen angles
  find clusters CPU = 0.000 seconds
fix             2 all nph iso ${pressure} ${pressure} ${pressureDamp}
fix             2 all nph iso 12000 ${pressure} ${pressureDamp}
fix             2 all nph iso 12000 12000 ${pressureDamp}
fix             2 all nph iso 12000 12000 1000
fix             3 all temp/csvr ${temperature} ${temperature} ${tempDamp} ${seed}
fix             3 all temp/csvr 300 ${temperature} ${tempDamp} ${seed}
fix             3 all temp/csvr 300 300 ${tempDamp} ${seed}
fix             3 all temp/csvr 300 300 100 ${seed}
fix             3 all temp/csvr 300 300 100 745823
velocity 	all create ${temperature} ${seed} dist gaussian
velocity 	all create 300 ${seed} dist gaussian
velocity 	all create 300 745823 dist gaussian

run             500000
PPPM initialization ...
  extracting TIP4P info from pair style
  using 12-bit tables for long-range coulomb (../kspace.cpp:340)
  G vector (1/distance) = 0.37144849
  grid = 24 25 25
  stencil order = 5
  estimated absolute RMS force accuracy = 0.0033118622
  estimated relative force accuracy = 9.9735747e-06
  using single precision MKL FFT
  3d grid and FFT values/proc = 33792 15000
  generated 0 of 1 mixed pair_coeff terms from geometric mixing rule
Last active /omp style is kspace_style pppm/tip4p/omp
Neighbor list info ...
  update every 1 steps, delay 7 steps, check yes
  max neighbors/atom: 2000, page size: 100000
  master list distance cutoff = 10.8154
  ghost atom cutoff = 10.8154
  binsize = 5.4077, bins = 4 4 5
  1 neighbor lists, perpetual/occasional/extra = 1 0 0
  (1) pair lj/cut/tip4p/long/omp, perpetual
      attributes: half, newton on, omp
      pair build: half/bin/newton/omp
      stencil: half/bin/3d
      bin: standard
Per MPI rank memory allocation (min/avg/max) = 38.65 | 38.65 | 38.65 Mbytes
Step Temp PotEng TotEng E_pair E_mol Press Lx Ly Lz Volume Pxx Pyy Pzz Pxy Pxz Pyz 
       0          300   -3852.2439   -3338.0542   -3852.2439            0    3467.3083    18.207572    21.446115    22.213196    8673.8464    3133.8643    3776.2154    3491.8451    2131.3549   -2192.9288   -1816.9989 
     500    314.49285   -3701.2733   -3162.2433   -3701.2733            0    11443.663    17.108307    20.151326    20.872094    7195.7601    11404.858    11559.348    11366.782   -983.95787    454.58226    1475.3116 
    1000    309.20128   -3726.6589   -3196.6985   -3726.6589            0    11404.205    17.037558    20.067992    20.785781    7106.8575    13123.339    9919.7605    11169.517   -230.75653    1779.5191   -1530.9349 
    1500    295.97036    -3734.256   -3226.9729    -3734.256            0    11845.548     16.88035    19.882823    20.593988    6911.9397    8944.3833    12296.102    14296.159    -971.0041   -581.57977   -690.48656 
    2000    311.33874   -3727.4952   -3193.8712   -3727.4952            0    12672.828    16.807481    19.796993    20.505088    6822.8132    12186.981    13707.073     12124.43    2677.7253   -243.93699    976.04041 
    2500    298.34748   -3702.5454    -3191.188   -3702.5454            0    11515.854    16.901164    19.907339    20.619381    6937.5395    11956.199    11176.605    11414.759    378.55755    2022.3534    245.61395 
    3000    290.86057   -3702.9738   -3204.4487   -3702.9738            0    11434.935    16.864954    19.864688    20.575205    6893.0447    10285.449    13809.552    10209.803   -1581.3934    693.16234    -1088.497 
    3500    285.13103   -3740.5593   -3251.8544   -3740.5593            0     12490.38    16.813026    19.803523    20.511852    6829.5676    12415.778    13663.997    11391.366    1817.9708   -121.91184   -69.422748 
    4000    285.63752   -3745.3331   -3255.7602   -3745.3331            0    12117.513    16.865014    19.864759    20.575278    6893.1183    10725.954    13604.682    12021.902   -537.32936    1826.5251    935.29749 
    4500    304.77385   -3751.4011   -3229.0292   -3751.4011            0    12568.082    16.848679    19.845519     20.55535    6873.1084    11000.028    14071.136    12633.082   -175.10991    395.02496     1272.024 
    5000    299.54318   -3707.6023   -3194.1956   -3707.6023            0    11160.957    16.870749    19.871514    20.582274    6900.1524    11190.612    11682.544    10609.717    1411.7579    1245.5308   -466.45703 
    5500    291.15663   -3764.4239   -3265.3914   -3764.4239            0    11508.368    16.814156    19.804855    20.513232    6830.9458    11836.654    11551.622    11136.828   -601.23871    1358.8081    48.080533 
    6000    298.75398   -3707.7459   -3195.6918   -3707.7459            0    12009.969    16.789169    19.775424    20.482747    6800.5371    10874.474    13115.599    12039.834    1658.8662   -679.17651    2168.7067 
    6500      303.262   -3737.1094   -3217.3287   -3737.1094            0    10376.125    16.865765    19.865644    20.576194    6894.0393    9526.9987    11484.808    10116.569    661.17052    1342.4816   -1144.6475 
    7000     299.2469   -3711.9443   -3199.0454   -3711.9443            0     13244.06    16.876171    19.877901     20.58889    6906.8079    13713.591    13939.856    12078.734   -1320.9908    329.22005     450.2382 
    7500    296.58918   -3750.5836   -3242.2399   -3750.5836            0    10820.647    16.912489    19.920678    20.633197    6951.4942    10643.637    9892.7013    11925.601   -478.31914    157.24964   -477.07695 
    8000    300.60864   -3713.5431   -3198.3102   -3713.5431            0    11476.492    16.826052    19.818867    20.527744    6845.4541    12194.932    10922.356    11312.187    -1409.818   -1430.9276     1148.228 
    8500    295.75335   -3688.7611     -3181.85   -3688.7611            0    15532.518    16.733888     19.71031    20.415305    6733.5827    15837.249    16146.774    14613.533    965.69567   -218.89906   -614.29036 
    9000      325.072    -3707.821   -3150.6587    -3707.821            0    12669.052    16.786453    19.772225    20.479434    6797.2372    12145.207    11867.825    13994.123   -803.42957   -1936.2862    195.46895 
    9500    310.04397    -3704.143   -3172.7383    -3704.143            0    13272.754    16.793353    19.780351    20.487851     6805.622    11381.731        15608    12828.531   -1163.2618   -1343.7754     962.9236 
   10000    289.55729    -3680.363   -3184.0717    -3680.363            0    13224.845    16.836125    19.830732    20.540033    6857.7559    14167.959    13633.566     11873.01    -1531.231     541.2425   -1689.8423 
   10500    315.23371    -3681.834   -3141.5342    -3681.834            0     12454.66    16.805148    19.794245    20.502241    6819.9724    13688.359     12414.85    11260.772    156.90962   -954.84845   -473.37693 
   11000    295.25525   -3711.3767   -3205.3193   -3711.3767            0    12822.026    16.808277     19.79793    20.506059    6823.7824    10078.004    14799.255    13588.818    195.91042     1442.446    2012.8749 
   11500    305.08316   -3762.2673   -3239.3652   -3762.2673            0    11425.987    16.786917    19.772771        20.48     6797.801    10988.034    11678.121    11611.807     292.4398    327.96375    1767.8666 
   12000    325.83764   -3715.7612   -3157.2866   -3715.7612            0    11292.226    16.813313    19.803862    20.512202    6829.9177    10030.773    11097.246    12748.658    2064.2781   -803.35214   -679.43222 
   12500    305.82615   -3747.2215    -3223.046   -3747.2215            0    9841.8454    16.855247    19.853254    20.563361    6881.1484    10124.555    10274.019    9126.9621   -753.68547    1221.6287    2425.5171 
   13000    306.22639   -3725.1505   -3200.2889   -3725.1505            0    11033.393    16.862794    19.862143    20.572569    6890.3957    11950.946    9624.2462    11524.988    1170.1549   -307.04998    794.60323 
   13500     304.1001   -3753.5087   -3232.2915   -3753.5087            0    13402.506    16.757594    19.738232    20.444225    6762.2397    14140.636     11237.57    14829.312    312.07219   -899.41876    -2213.474 
   14000    289.54174   -3733.1607    -3236.896   -3733.1607            0    11390.202    16.897315    19.902806    20.614685    6932.8008    11553.935    9777.2321    12839.438    1919.9428   -1647.5539   -874.49561 
   14500    281.84023   -3731.7133   -3248.6488   -3731.7133            0    12218.439    16.828541    19.821799    20.530781    6848.4929    10364.993    14173.915    12116.408   -904.07341   -927.04249   -1285.5098 
   15000    295.82528   -3690.5137   -3183.4792   -3690.5137            0    12589.048    16.849645    19.846656    20.556528    6874.2903    8674.2358    14201.975    14890.934    88.361357   -1092.8745   -2156.9907 
   15500     289.9819   -3714.0586   -3217.0395   -3714.0586            0    12807.031    16.899441    19.905309    20.617278    6935.4169    11864.765    15662.835    10893.493   -1099.6432    1044.6288    2664.5596 
   16000    309.57644   -3749.1615   -3218.5581   -3749.1615            0    11142.635    16.836421     19.83108    20.540395     6858.118    10342.376    10425.252    12660.279    1224.5942    1802.0073    1585.2018 
   16500    309.35476   -3675.6725   -3145.4491   -3675.6725            0    13039.181    16.810047    19.800015    20.508218    6825.9381    11146.623    12903.846    15067.075    761.18864    582.55032   -394.57264 
   17000    306.96763   -3678.8991   -3152.7671   -3678.8991            0    13139.346    16.802846    19.791533    20.499433    6817.1698    11689.752    15782.463    11945.823    -124.8867    589.90531   -807.51519 
   17500    293.59603   -3688.1942   -3184.9806   -3688.1942            0    9869.6468    16.888584    19.892521    20.604033    6922.0595    12598.451    9995.9403    7014.5496    217.45217    981.67186    -220.3252 
   18000    291.06495   -3727.9674   -3229.0921   -3727.9674            0    10511.565    16.891029    19.895402    20.607016    6925.0664    11562.681    8785.2034    11186.812   -395.07371   -483.03735   -1286.1335 
   18500    295.05044   -3714.9448   -3209.2385   -3714.9448            0    13232.287    16.833043    19.827101    20.536273    6853.9899    13262.497    12571.171    13863.194    654.36222   -74.306593    31.308114 
   19000    302.26063   -3711.9726   -3193.9082   -3711.9726            0    12202.371    16.862722    19.862059    20.572481    6890.3074     13735.33    10075.377    12796.407     614.5239   -1361.0347     786.4882 
   19500    295.79793   -3673.9915    -3167.004   -3673.9915            0    12218.393    16.881517    19.884197    20.595411    6913.3729    12489.839     12286.28    11879.059    1326.9345   -833.98582   -840.48202 
   20000     303.5023   -3729.6565   -3209.4639   -3729.6565            0     12325.39    16.861612    19.860752    20.571128    6888.9479    12991.625    12767.476     11217.07   -1563.2245   -1047.6042    1846.7985 
   20500    284.15729   -3685.6718   -3198.6359   -3685.6718            0    10608.682    16.884761    19.888018    20.599369     6917.359    10488.006    7957.1694     13380.87    602.01326    85.863056   -438.92295 
   21000    295.26812   -3732.3216   -3226.2421   -3732.3216            0    12427.073     16.81753    19.808829    20.517347    6835.0583     11826.45    11957.022    13497.747    206.81362    1899.2137    1263.1543 
   21500    297.10076   -3755.5203   -3246.2997   -3755.5203            0    9800.7595    16.900964    19.907103    20.619136    6937.2921    8080.0895    11217.269     10104.92   -16.047727   -773.95286   -35.994217 
   22000    318.62644   -3739.9378    -3193.823   -3739.9378            0    12199.508    16.831979    19.825848    20.534975    6852.6906    11519.964    11746.132    13332.429    1129.3083   -463.28214    445.38837 
   22500    304.80355   -3733.3554   -3210.9326   -3733.3554            0    11407.532    16.808537    19.798237    20.506376    6824.0996    8506.9959    11806.307    13909.294    649.57515    397.85753   -964.61799 
   23000    288.95834   -3723.1798   -3227.9151   -3723.1798            0      11749.1    16.814875    19.805701    20.514108     6831.821    11521.023    10627.586    13098.692    647.21328   -268.84715    1397.1464 
   23500    307.38392   -3709.6752   -3182.8297   -3709.6752            0    12261.292    16.901048    19.907202    20.619239     6937.396    13345.582    12725.916    10712.377   -658.40049    313.53506    2007.2661 
   24000    321.75179   -3665.9018   -3114.4302   -3665.9018            0    14789.781    16.813611    19.804213    20.512566    6830.2807    15590.834    13140.843    15637.666   -583.09574    1855.2937    651.18007 
   24500    281.12889    -3698.905   -3217.0597    -3698.905            0    10992.974    16.825518    19.818238    20.527093    6844.8024     11114.32    9755.7702    12108.832   -801.76999   -807.01686   -1804.3433 
   25000    316.52401   -3736.0797   -3193.5684   -3736.0797            0    12470.656    16.809919    19.799864    20.508062    6825.7825    12978.414    12740.112    11693.441    660.22437   -803.05632   -1177.9219 
   25500    287.00243   -3726.5769   -3234.6646   -3726.5769            0     12111.42    16.797346    19.785055    20.492723     6810.478    12130.661    11219.236    12984.364    221.99575     252.1885   -271.63191 
   26000    309.90046    -3706.207   -3175.0483    -3706.207            0    13116.051    16.835144    19.829575    20.538836    6856.5565     14070.39    12200.603    13077.159    485.56303   -79.990753    301.80107 
   26500    275.97139   -3764.1166   -3291.1111   -3764.1166            0    10811.461    16.857297     19.85567    20.565863    6883.6603     10206.42    10656.853    11571.109   -111.02322   -1103.1242   -1128.8318 
   27000    303.69591   -3709.1517   -3188.6273   -3709.1517            0    12158.593    16.846336    19.842758     20.55249    6870.2404    10866.562    12333.788    13275.428   -272.81419    -900.0158   -97.413747 
   27500    308.90922    -3743.275   -3213.8152    -3743.275            0    12911.164    16.824843    19.817443    20.526269    6843.9787    12277.669    12462.495    13993.328   -701.33997    807.54299    -792.7081 
   28000    303.65724   -3749.0674   -3228.6093   -3749.0674            0    12463.419    16.906998     19.91421    20.626498    6944.7252    10764.216    10692.549    15933.492   -695.97758    -1123.265    1042.3056 
   28500     284.0776   -3725.0735   -3238.1742   -3725.0735            0    10199.498    16.959047    19.975517    20.689998    7009.0625     9446.905    10633.698    10517.892   -606.10391    537.20729    1592.5943 
   29000    291.51033   -3752.6253   -3252.9866   -3752.6253            0    13783.778    16.822091    19.814201    20.522911    6840.6205    13163.864     12880.93    15306.542    145.40405   -76.595873    58.174079 
   29500    310.30773    -3712.815   -3180.9582    -3712.815            0    11422.387     16.80266    19.791314    20.499206    6816.9436    12324.164    11237.903    10705.093   -349.76796    -1055.925    280.35048 
   30000    310.74477   -3726.4493   -3193.8434   -3726.4493            0    12803.222    16.789209    19.775471    20.482796    6800.5856    12354.718    13240.962    12813.986    787.58682    1474.3574   -37.707969 
   30500     283.3704   -3714.1652    -3228.478   -3714.1652            0    13812.623    16.767827    19.750285    20.456709    6774.6351    12892.982    16401.253    12143.633    888.37116   -1096.0061   -277.01461 
   31000    303.14413   -3697.3718   -3177.7931   -3697.3718            0     11364.28    16.890477    19.894751    20.606343    6924.3873     11399.45    10586.656    12106.735    2136.8851    461.10029   -763.89433 
   31500    305.89802   -3710.3418   -3186.0431   -3710.3418            0    11779.829    16.840171    19.835497    20.544969    6862.7008     10414.63    12219.264    12705.594    1061.8789    1255.5894    1178.1588 
   32000    305.09204   -3714.9839   -3192.0666   -3714.9839            0    11783.227    16.886547    19.890122    20.601548    6919.5545    11525.088    10483.441    13341.151   -215.05966    652.16978   -2101.9729 
   32500    301.47041   -3725.3274   -3208.6174   -3725.3274            0    12096.703     16.87218    19.873199     20.58402    6901.9084    11960.552    11536.284    12793.274    677.36584   -831.55288   -1732.1564 
   33000    309.34253   -3729.4528   -3199.2503   -3729.4528            0    13616.864    16.863597     19.86309    20.573549    6891.3806    14011.066    12973.143    13866.383   -634.18118    1135.9353   -699.52866 
   33500    308.19686   -3751.6367   -3223.3978   -3751.6367            0    9138.9201     16.86808     19.86837    20.579018     6896.878    8509.2654    8911.5881    9995.9069   -1254.0857    830.75641   -1190.5981 
   34000    298.47432   -3774.7482   -3263.1734   -3774.7482            0    10798.678    16.845959    19.842314     20.55203    6869.7795    7661.0813    12358.259    12376.693   -1212.6667    770.21707   -545.12154 
   34500    285.30381   -3749.6577   -3260.6567   -3749.6577            0    13755.068    16.818115    19.809518    20.518061    6835.7717    15027.795    10904.914    15332.494    980.42058    876.37919   -39.203204 
   35000    290.66825    -3764.941   -3266.7455    -3764.941            0    10789.037    16.872093    19.873097    20.583914    6901.8018    11014.168     10131.51    11221.431    241.36807   -448.03482     122.7429 
   35500    305.34286   -3748.9756   -3225.6284   -3748.9756            0    10885.806    16.839249    19.834411    20.543844    6861.5736    9866.2267    9417.4622     13373.73   -224.03321    86.924045    2272.2477 
   36000    294.11455   -3748.8758   -3244.7735   -3748.8758            0    11346.432    16.828955    19.822286    20.531286    6848.9978    12986.954    10134.944    10917.397   -1459.6524   -1437.9908   -1649.0714 
   36500    304.20023   -3699.6086   -3178.2198   -3699.6086            0    10441.216    16.866917    19.867001      20.5776    6895.4521    11260.418    8715.6906    11347.538   -1589.5908    407.04908    178.85486 
   37000    305.47237   -3737.3082   -3213.7391   -3737.3082            0    11038.677    16.854967    19.852924     20.56302    6880.8057    10985.946    11836.888    10293.198    436.46729    1135.4925    229.76647 
   37500    297.88857   -3714.0033   -3203.4324   -3714.0033            0    10694.344    16.851738    19.849121    20.559081    6876.8517    10566.506    10725.932    10790.593     260.9738   -337.05176   -951.11771 
   38000    307.31349   -3726.9835   -3200.2587   -3726.9835            0    10282.198    16.867188     19.86732     20.57793    6895.7844    7933.5687    10825.557    12087.468    240.11978   -65.353359    2935.2017 
   38500    306.11901   -3730.9451   -3206.2676   -3730.9451            0    13348.024    16.882105     19.88489    20.596129    6914.0957    13764.138    13195.224    13084.712    702.58462    17.310592   -185.49055 
   39000    302.66191   -3719.1848   -3200.4326   -3719.1848            0    12313.865    16.910809      19.9187    20.631148    6949.4234    11928.925    12947.251    12065.419    526.03343    1243.2681   -991.80341 
   39500    301.21428   -3710.7554   -3194.4844   -3710.7554            0    12074.738    16.859435    19.858187    20.568471    6886.2793    12998.181    11881.673    11344.358   -799.37561   -260.81519   -1834.6238 
   40000    290.70091   -3696.6403   -3198.3889   -3696.6403            0    8558.5931    16.899894    19.905843    20.617832    6935.9756    8644.5978    10099.277    6931.9044    2357.1465    700.26918   -49.444866 
   40500    288.86175   -3763.3804   -3268.2813   -3763.3804            0    12812.828    16.858468    19.857049    20.567292    6885.0947    13209.664    13774.968    11453.852    -1268.761   -891.10612   -851.36215 
   41000    302.62189   -3742.2531   -3223.5695   -3742.2531            0    12408.689    16.838895    19.833994    20.543412     6861.141    12345.888    11168.185    13711.993    77.621338   -1988.6679   -65.502518 
   41500     304.4924   -3727.6604   -3205.7708   -3727.6604            0    12384.328    16.809046    19.798836    20.506997    6824.7196     10142.29    14483.944     12526.75   -247.60379    307.92682    1613.7244 
   42000    299.00401   -3719.4966   -3207.0139   -3719.4966            0     10698.05    16.899902    19.905853    20.617841    6935.9854     11453.52    11027.561    9613.0696   -1405.5119    1391.5155   -261.03561 
   42500    301.31059    -3719.393   -3202.9569    -3719.393            0    12493.821    16.841751    19.837358    20.546897    6864.6332    12173.201    12881.928    12426.334    1085.1858    202.30674    1425.3452 
   43000    297.42834   -3719.5087   -3209.7267   -3719.5087            0    9119.9498    16.934974    19.947163    20.660629    6979.2572    9765.3944    10906.863    6687.5924    389.32793     64.62588    1710.2594 
   43500    297.50066   -3723.1528   -3213.2469   -3723.1528            0     14203.56    16.772483     19.75577     20.46239     6780.281    14927.559    14116.529    13566.591   -607.03441   -678.67497    38.250434 
   44000    307.55535   -3733.7942   -3206.6549   -3733.7942            0    10997.028    16.929803    19.941072     20.65432    6972.8661    10482.351    11255.251    11253.483    15.382369   -1226.5628    -1721.164 
   44500    315.55709   -3711.1608   -3170.3068   -3711.1608            0     11294.09    16.880389    19.882869    20.594036    6911.9878    14405.974    10595.398    8880.8971   -1012.7713   -1038.5979     1371.811 
   45000    285.14634   -3760.9886   -3272.2576   -3760.9886            0    12498.775    16.844576    19.840685    20.550343    6868.0874    11153.874     12182.03    14160.422    1540.3473   -282.29488   -109.87931 
   45500    293.34172   -3752.5564   -3249.7787   -3752.5564            0    13315.314    16.798364    19.786254    20.493965    6811.7161    14514.452    10984.269    14447.222    1067.7326    103.75549    772.85935 
   46000    305.68961   -3698.7165    -3174.775   -3698.7165            0    14225.396    16.782662    19.767759    20.474809    6792.6331    14388.143    13400.508    14887.536     453.2159   -51.945969   -2089.5678 
   46500    296.54568   -3727.6789   -3219.4098   -3727.6789            0    13307.676    16.825222    19.817889    20.526731     6844.441    14822.345    11016.095    14084.589    129.94148   -674.59488     1564.701 
   47000    290.17848   -3711.2972   -3213.9412   -3711.2972            0    11608.993    16.814198    19.804905    20.513283    6830.9968    10457.364    11560.819    12808.796   -565.88178    2337.6558    2346.4978 
   47500    307.26809   -3729.2952   -3202.6482   -3729.2952            0    11326.659    16.786421    19.772187    20.479395    6797.1982     12628.71    11034.699    10316.569    1272.3521   -844.67484   -343.42386 
   48000    305.62817   -3734.8334   -3210.9972   -3734.8334            0    12569.344     16.83209    19.825978     20.53511    6852.8261    12449.221    15088.604    10170.207    276.93779   -1066.9739   -509.87179 
   48500    296.94686   -3694.6164   -3185.6596   -3694.6164            0    11107.131    16.816237    19.807306     20.51577    6833.4822    12235.785    11102.532    9983.0742    1732.9179   -1533.6127    75.850965 
   49000    312.74481   -3687.2969    -3151.263   -3687.2969            0     12660.17    16.807834    19.797409    20.505519    6823.2435    14520.999    13218.708    10240.802    1127.7041    1217.4633    787.33128 
   49500    319.87323   -3665.5794   -3117.3277   -3665.5794            0    12767.945    16.843392    19.839291    20.548899    6866.6398    16636.363    11244.549    10422.922   -1446.3695   -2212.0781   -1237.6328 
   50000    293.83579   -3730.6634   -3227.0389   -3730.6634            0    12097.308    16.850455     19.84761    20.557516    6875.2814    13781.106    11182.783    11328.035   -968.20127    497.57336    531.58955 
   50500    297.08164   -3697.4165   -3188.2288   -3697.4165            0    11027.735    16.888338    19.892232    20.603733     6921.757     10402.28    11907.457    10773.468   -768.03932    650.06615    83.590383 
   51000    321.10436     -3727.07   -3176.7081     -3727.07            0    11143.792    16.793988      19.7811    20.488626    6806.3943    8390.7247    13518.187    11522.463    716.08378   -384.57653    140.09555 
   51500    316.13343   -3756.9993   -3215.1575   -3756.9993            0    12716.154    16.831281    19.825026    20.534123    6851.8382    10254.056    12823.738    15070.667   -254.65176    -206.3289   -217.79739 
   52000    289.25234   -3709.2273   -3213.4587   -3709.2273            0    13737.143    16.844861    19.841022    20.550691    6868.4368    13476.241    13315.302    14419.888   -1551.4624   -19.531891   -159.83848 
   52500    293.28872   -3657.6186   -3154.9318   -3657.6186            0    13965.067    16.840222    19.835557    20.545032    6862.7637    14433.337    12388.257    15073.607    921.90695   -1106.1409    2886.8003 
   53000    299.95295   -3739.7402   -3225.6311   -3739.7402            0    13461.799     16.84485    19.841008    20.550677    6868.4228    14735.762    12868.725    12780.911   -160.72198    774.39102   -1591.4476 
   53500    293.04327   -3731.3858   -3229.1197   -3731.3858            0    12691.643    16.863135    19.862545    20.572985     6890.814    12909.734    11304.679    13860.516    -1782.869    -585.7587    517.94139 
   54000     313.0394   -3728.0925   -3191.5536   -3728.0925            0    12606.352    16.825897    19.818684    20.527555    6845.2647    12280.323    13618.868    11919.865    913.41673    1657.3828   -923.65005 
   54500    276.92847   -3735.9503   -3261.3044   -3735.9503            0    12702.257    16.854879    19.852821    20.562913    6880.6983    13954.131     13120.12    11032.522    1080.1054    668.34323   -889.97875 
   55000     289.8605   -3735.0095   -3238.1985   -3735.0095            0    10080.567    16.891879    19.896403    20.608053    6926.1118     12150.01    8693.2283    9398.4628   -955.86127   -684.64175    812.76443 
   55500    294.89294    -3743.227   -3237.7906    -3743.227            0    12117.909    16.790592      19.7771    20.484483    6802.2665    11464.909    12892.519    11996.299     -863.985   -1338.7554   -1197.9826 
   56000    316.78049    -3704.695   -3161.7441    -3704.695            0    12229.862    16.822664    19.814876     20.52361    6841.3195    11169.462    12195.479    13324.644   -1178.3716   -351.22835   -1944.5412 
   56500     315.4764   -3723.5981   -3182.8824   -3723.5981            0    12952.469    16.765424    19.747454    20.453778     6771.723    11523.432    12367.935    14966.042    716.66662    1338.8585   -1765.8596 
   57000    303.32613   -3724.7481   -3204.8575   -3724.7481            0    13318.619    16.808193    19.797831    20.505956    6823.6799    14131.184    11565.839    14258.833   -786.75635    805.14941    440.96499 
   57500     302.5908   -3724.0551   -3205.4248   -3724.0551            0    13846.215    16.768399    19.750959    20.457407    6775.3287    15866.964    14599.662    11072.019     310.2739    1683.5181    348.50233 
   58000    287.83231   -3742.9478    -3249.613   -3742.9478            0    9456.9427    16.965286    19.982866    20.697609    7016.8004    10368.767     9316.476    8685.5849   -551.39034    5.6658186    49.430474 
   58500    310.22023     -3761.71   -3230.0032     -3761.71            0    10358.726    16.873183    19.874381    20.585244    6903.1396     8975.298    9722.5255    12378.354    516.48063   -259.14162    1510.3416 
   59000    299.42043   -3741.7414    -3228.545   -3741.7414            0    12545.312    16.859404    19.858151    20.568433    6886.2411    12232.857    13235.124    12167.956    719.37726    -339.4296   -199.18465 
   59500    312.95884   -3753.6125   -3217.2117   -3753.6125            0    10552.058    16.858295    19.856845    20.567081    6884.8831    10389.786    11563.652    9702.7353   -599.98273    1440.1287    1273.2326 
   60000    287.71637   -3754.0473   -3260.9113   -3754.0473            0    11475.395    16.835736    19.830273    20.539558      6857.28    11493.907    10938.443    11993.834   -343.35894    1027.5114   -612.63793 
   60500    277.93692   -3728.5764   -3252.2021   -3728.5764            0    10157.639    16.866029    19.865954    20.576516    6894.3627    11152.735    9085.0611    10235.123   -566.08971    1764.3912   -1835.9751 
   61000    283.25455   -3701.6324   -3216.1438   -3701.6324            0    11848.186    16.876334    19.878093    20.589089    6907.0081    13432.762    13236.483     8875.313    356.81317    2466.6786    797.63501 
   61500    295.46233    -3694.396   -3187.9836    -3694.396            0    11161.312    16.878282    19.880387    20.591465    6909.3998    9364.8047    11131.645    12987.485   -539.70432   -1248.9618   -250.20272 
   62000    302.18574   -3690.7441   -3172.8081   -3690.7441            0    9562.5858     16.92632     19.93697    20.650071    6968.5636    9503.0123    10298.627     8886.118   -1118.6352   -382.24986    1554.4374 
   62500    300.48788   -3715.9022   -3200.8763   -3715.9022            0    10711.034    16.856569    19.854812    20.564975    6882.7686    11078.976    11433.744    9620.3823    1501.9845    1544.2341   -66.918523 
   63000    317.38959    -3694.512   -3150.5172    -3694.512            0    10765.364    16.882497    19.885351    20.596607    6914.5773    12596.118    11252.863    8447.1097    441.39515    922.36736   -950.63412 
   63500    280.03354    -3703.164   -3223.1961    -3703.164            0    11893.483    16.855569    19.853634    20.563755    6881.5432    12296.534    12452.531    10931.383   -1004.5063   -473.52282    657.27197 
   64000     305.4859   -3714.5742   -3190.9818   -3714.5742            0    11478.514    16.879884    19.882274    20.593419    6911.3671    11914.969    12595.337    9925.2376    981.18827    1014.5858    674.86388 
   64500    302.66788   -3763.7831   -3245.0207   -3763.7831            0    11878.476    16.802874    19.791566    20.499467    6817.2041    11440.978    12071.083    12123.366    2212.1596    1286.1799   -857.64569 
   65000    275.44997    -3735.902   -3263.7902    -3735.902            0    10206.614    16.823659    19.816048    20.524825     6842.534    9183.2706    9649.0135    11787.557    -231.8598   -62.982654     994.5062 
   65500    300.04135   -3741.2009   -3226.9403   -3741.2009            0    11948.184    16.835674      19.8302    20.539483    6857.2049    11477.722    13049.435    11317.395    39.365929    -440.9619    1603.1118 
   66000    306.98113   -3703.6666   -3177.5115   -3703.6666            0    10734.819    16.898977    19.904763    20.616713    6934.8465    10285.969    11582.073    10336.413    1124.6698      558.011    451.77002 
   66500    304.55207   -3683.4178    -3161.426   -3683.4178            0    13262.712    16.821461    19.813459    20.522143    6839.8521    15335.224    12033.904    12419.008    297.97613   -1006.9871   -2131.5826 
   67000    284.81939    -3722.217   -3234.0463    -3722.217            0    11635.561    16.835117    19.829544    20.538803    6856.5238    9735.4285    12710.677    12460.578   -492.15493    1054.4494    367.17019 
   67500    299.16587   -3775.6737   -3262.9137   -3775.6737            0    9755.7559    16.902704    19.909152    20.621259     6939.435    8944.1733     9488.487    10834.608   -1393.4932   -776.05345    656.94136 
   68000    289.49096   -3687.5089   -3191.3313   -3687.5089            0    12133.274    16.795947    19.783407    20.491016    6808.7761    11569.893    11146.915    13683.014    1854.9524   -355.08807    392.40044 
   68500    315.53812   -3735.8062   -3194.9846   -3735.8062            0    12831.612    16.750881    19.730325    20.436035     6754.116    12776.238    14075.443    11643.155    323.10978   -254.45514   -657.18831 
   69000    295.16048   -3774.1158   -3268.2209   -3774.1158            0    10947.549    16.840996    19.836469    20.545976    6863.7102    9896.2403    12470.191    10476.216   -1077.6302    1208.9357   -49.900597 
   69500    291.63738   -3738.1185    -3238.262   -3738.1185            0     11742.21    16.801729    19.790218     20.49807    6815.8109    11550.446    11584.424     12091.76    1237.8148    -1251.998   -52.875698 
   70000    290.04966   -3708.6991   -3211.5639   -3708.6991            0    11066.276    16.883142    19.886111    20.597393    6915.3692    11337.443    10825.845     11035.54   -41.083361     286.7197    624.57183 
   70500    322.31651   -3755.4314    -3202.992   -3755.4314            0    11455.626    16.796515    19.784076    20.491709    6809.4671    12413.005    10615.906    11337.966   -1642.2001    223.85897   -961.48105 
   71000    302.94308    -3743.849    -3224.615    -3743.849            0    12756.706    16.767532    19.749938     20.45635    6774.2787    13029.148    11202.795    14038.175    1093.8939    2104.1141   -168.33941 
   71500    289.85286   -3754.1308   -3257.3329   -3754.1308            0    12595.903    16.820781    19.812658    20.521314     6839.023    13834.627    12133.595    11819.488   -319.75221    835.01161   -629.19633 
   72000    310.26968   -3689.1923   -3157.4007   -3689.1923            0    13694.838    16.853843      19.8516    20.561649     6879.429     12658.68    12473.793    15952.042   -324.91994    -544.4427    -2353.975 
   72500     301.2328   -3757.0468   -3240.7441   -3757.0468            0    10540.248     16.87941    19.881715     20.59284    6910.7846    7980.1383    10720.101    12920.505    417.38931   -1050.6907   -615.14748 
   73000    290.97077   -3777.0428   -3278.3289   -3777.0428            0    11393.616     16.90046    19.906509    20.618522    6936.6721    9981.3881    12103.507    12095.954     362.5652   -2552.8901    40.237598 
   73500    304.65885   -3731.9979    -3209.823   -3731.9979            0     11658.74    16.864723    19.864416    20.574923    6892.7613    11562.406    11401.124     12012.69    2271.4037    333.87035    1448.3912 
   74000    295.77558   -3729.8477   -3222.8985   -3729.8477            0    15269.645    16.752437    19.732158    20.437934    6755.9992    16770.232    12936.687    16102.017   -488.93982    628.74877    54.582815 
   74500    303.08841   -3749.0565   -3229.5733   -3749.0565            0    11190.979    16.891692    19.896182    20.607825     6925.882     11633.98    11239.163    10699.795    184.69669   -1098.3548    935.37262 
   75000    303.37142   -3742.9774   -3223.0091   -3742.9774            0    11579.686    16.838911    19.834013    20.543432    6861.1609    11302.405    11133.448    12303.205   -1762.1027   -1140.9281   -1036.3724 
   75500    300.49466   -3769.8744   -3254.8369   -3769.8744            0    12928.038    16.813059    19.803562    20.511892    6829.6079    11787.083    15435.321    11561.711    481.06667    609.04508   -2023.0264 
   76000    300.83317   -3742.7155   -3227.0977   -3742.7155            0    14713.766    16.837814    19.832721    20.542094      6859.82    13696.365    14221.163    16223.771   -2327.1365   -480.34777   -791.32779 
   76500     273.2271   -3767.8034   -3299.5015   -3767.8034            0    12979.075    16.834513    19.828833    20.538066     6855.786    12622.334    15087.519    11227.371    855.80645   -738.16946   -1246.4346 
   77000    283.25613    -3707.642   -3222.1507    -3707.642            0    11788.989    16.799815    19.787963    20.495735    6813.4815    11587.068    13699.605    10080.295    52.868193    35.301676   -1177.2724 
   77500    302.43711   -3720.0917   -3201.7248   -3720.0917            0    13665.256    16.809624    19.799517    20.507702    6825.4236    11725.696    13097.298    16172.774   -1516.7137   -639.38159   -683.15726 
   78000    314.49074    -3726.518   -3187.4916    -3726.518            0    10275.706    16.865506    19.865338    20.575878    6893.7213    9974.7046    9349.9354    11502.477   -2190.8862    142.81666    30.137236 
   78500    301.27097   -3750.7742    -3234.406   -3750.7742            0    12057.552    16.821385    19.813369     20.52205    6839.7595    11106.747    13018.953    12046.955    167.27569     665.9196    12.004946 
   79000    290.21254     -3733.63   -3236.2156     -3733.63            0    9402.1866    16.856811    19.855097     20.56527    6883.0644    9499.4065    8699.7823    10007.371   -172.55877   -47.678776    -2400.721 
   79500    298.60327   -3692.9645   -3181.1687   -3692.9645            0    11608.181    16.853212    19.850857    20.560879    6878.6566    12754.868    11851.575    10218.101    451.82462    296.15286   -785.56183 
   80000    310.91559   -3687.0322   -3154.1335   -3687.0322            0    10871.379    16.863704    19.863216     20.57368    6891.5123    12936.053    8739.8466    10938.238    1220.1994   -1457.5596   -1228.6636 
   80500    311.44715   -3744.4629   -3210.6531   -3744.4629            0    9853.6131    16.919191    19.928572    20.641374    6959.7618    9256.1113    9467.3434    10837.384   -854.95973   -1457.8399    -131.0746 
   81000    285.77667   -3717.6999   -3227.8885   -3717.6999            0    11945.596     16.85767    19.856108    20.566318    6884.1167    13074.839    10945.749    11816.199   -1073.6124    1056.1111    525.06922 
   81500    294.17177   -3741.0782   -3236.8779   -3741.0782            0    11985.717    16.828756    19.822051    20.531043    6848.7546    11932.024    11730.598     12294.53    1457.4187   -54.902491    1827.8703 
   82000    300.60391   -3734.0285   -3218.8037   -3734.0285            0    13630.519    16.837395    19.832227    20.541582    6859.3072    12502.478    12868.811    15520.269    632.04218    164.91551    304.37615 
   82500     313.1888   -3673.3576   -3136.5627   -3673.3576            0     10070.57    16.887779    19.891573    20.603051     6921.069    11332.819    9747.6029    9131.2887     1933.491    428.65244   -161.77825 
   83000    286.40368   -3698.3557   -3207.4696   -3698.3557            0    9987.6215    16.898667    19.904397    20.616334    6934.4641    12551.278    8864.1056    8547.4804     87.45331   -1422.2664   -324.20903 
   83500    316.14183    -3738.003   -3196.1468    -3738.003            0    8142.6657    16.924191    19.934461    20.647473    6965.9333    8369.4221    8507.0854    7551.4898    86.108376    171.28562   -1045.9384 
   84000    308.93246   -3697.3305   -3167.8308   -3697.3305            0    11647.572     16.86056    19.859513    20.569844     6887.658    11842.182    11151.115    11949.421   -399.59663   -1047.2564   -654.81457 
   84500    291.58161   -3737.7542   -3237.9933   -3737.7542            0    13599.364    16.856451    19.854673    20.564831    6882.6235    14256.194    14424.014    12117.884     350.0564    1041.1725   -603.23588 
   85000    299.90593   -3733.7793   -3219.7508   -3733.7793            0    11683.762    16.879414     19.88172    20.592846    6910.7901    10765.135    9998.1373    14288.014   -1064.3357    105.32315    732.73487 
   85500    314.51859     -3723.17   -3184.0959     -3723.17            0    8833.9002    16.994197    20.016919     20.73288    7052.7341    9083.2791    7361.3532    10057.068    589.87702     -1172.27   -351.60055 
   86000    301.38615   -3739.1457   -3222.5802   -3739.1457            0    13738.621    16.861537    19.860663    20.571035    6888.8551    13358.004    14488.585    13369.273    914.59069    852.79151     579.1807 
   86500     296.5944   -3767.0984   -3258.7458   -3767.0984            0    11803.393     16.85317    19.850808    20.560828    6878.6051    11830.138    12210.807    11369.234   -475.27466     736.9179   -725.89791 
   87000     304.6793   -3753.2107   -3231.0008   -3753.2107            0    9827.1358    16.891665     19.89615    20.607792    6925.8483    8481.7093    10432.609    10567.089   -425.36242    2231.5281    2214.7067 
   87500    305.73172   -3747.9653   -3223.9516   -3747.9653            0    11229.454    16.858759    19.857391    20.567646    6885.4508    11576.953    11564.009      10547.4   -145.52975    497.45404   -384.58495 
   88000    304.58617   -3671.3827   -3149.3324   -3671.3827            0    12671.875     16.80671    19.796085    20.504147    6821.8746     13447.64    14861.351    9706.6344   -1942.3067   -885.19781    371.01384 
   88500    302.29891    -3754.545    -3236.415    -3754.545            0    10859.314    16.828994    19.822332    20.531334    6849.0458    11052.745     11252.91    10272.288   -497.88923    468.20722    569.53484 
   89000    291.58847   -3739.6759   -3239.9032   -3739.6759            0    13727.589    16.784504    19.769929    20.477056    6794.8697     12590.86    13826.682    14765.226   -1004.8743     1176.216   -92.218822 
   89500    285.36497   -3715.5508   -3226.4451   -3715.5508            0    11634.326    16.757468    19.738084    20.444072    6762.0878    12996.474    9541.1417    12365.361   -1095.5594    53.178498   -1913.5977 
   90000    296.08336   -3725.7814   -3218.3047   -3725.7814            0    12312.695    16.786869    19.772714    20.479941    6797.7418    11901.466     11910.19    13126.429   -697.21578   -263.41384   -1114.3021 
   90500     309.4286   -3726.3775   -3196.0274   -3726.3775            0    15795.496    16.744109    19.722349    20.427774    6745.9287    15435.879    14589.779    17360.829    -1074.466    1248.6438   -236.20294 
   91000    287.93737   -3749.7207   -3256.2059   -3749.7207            0    12267.614     16.84954    19.846533      20.5564    6874.1618    13697.728    11465.105    11640.009   -786.99974    372.82867   -862.03438 
   91500    274.77495   -3744.7905   -3273.8357   -3744.7905            0    11653.565    16.777499    19.761677    20.468509    6786.3654    10436.042    13144.851    11379.802    354.32305    663.88852    6.5707259 
   92000    314.66821   -3723.9145   -3184.5839   -3723.9145            0    14530.467    16.725108    19.699967    20.404592    6722.9881    18024.163    10883.092    14684.146   -205.69247    1020.4514    795.02767 
   92500    290.58011   -3765.0608   -3267.0164   -3765.0608            0    10293.661    16.847323    19.843921    20.553695    6871.4485    9982.8563    10234.569    10663.556   -187.89521    1757.2553    443.72938 
   93000    294.92391   -3754.5924   -3249.1029   -3754.5924            0    11646.851    16.811785    19.802063    20.510339    6828.0564    9391.7998     12037.68    13511.073    1271.3315    634.34882    163.62887 
   93500    291.15504   -3740.0472   -3241.0174   -3740.0472            0    14130.692      16.7412    19.718922    20.424225    6742.4126     15519.06    14171.888    12701.128    1556.0527   -910.26646   -104.97913 
   94000    286.83432   -3694.0926   -3202.4684   -3694.0926            0    13416.832    16.800832    19.789161    20.496976    6814.7195    13106.226    11307.527    15836.742    2230.9967   -1023.1859   -612.31858 
   94500    302.78469    -3725.338   -3206.3754    -3725.338            0     13903.02    16.807643    19.797184    20.505286    6823.0108    12665.395    14628.596    14415.068   -196.32841    433.46569   -163.28541 
   95000    285.44972   -3741.0174   -3251.7664   -3741.0174            0    13539.657    16.820838    19.812725    20.521382    6839.0918    13949.462    14512.949    12156.561   -573.44077   -215.60217    593.07465 
   95500    300.80564    -3728.542   -3212.9715    -3728.542            0    13172.683    16.791656    19.778352    20.485781    6803.5589    12635.159    12481.803    14401.088    1248.5963    457.37772    -4.878875 
   96000    308.26172   -3728.9533   -3200.6032   -3728.9533            0    10713.974     16.82347    19.815826    20.524594    6842.3036    8199.1327    11355.217    12587.573    185.41907    -959.4646   -654.21042 
   96500    319.14855   -3708.8331   -3161.8234   -3708.8331            0    14020.329    16.775088    19.758837    20.465568      6783.44    14335.427    13597.349     14128.21   -31.661861   -1789.4876    -160.5256 
   97000    294.97758   -3712.0514   -3206.4699   -3712.0514            0    11524.309    16.865956    19.865868    20.576427    6894.2729    13689.811    11562.744    9320.3714    596.05663    869.88307    1215.1114 
   97500    299.75752   -3715.2422   -3201.4681   -3715.2422            0    14963.648    16.789159    19.775411    20.482735    6800.5244    18075.164    10961.125    15854.655    551.45108    1465.7072   -99.581088 
   98000    302.12628   -3767.3782   -3249.5441   -3767.3782            0     10656.05    16.850387     19.84753    20.557433    6875.1982    10189.742    10324.352    11454.057    1095.1627    164.59359   -351.25632 
   98500    303.38719   -3711.9234   -3191.9282   -3711.9234            0     12346.64    16.793156    19.780119    20.487611    6805.3824    12964.895    10844.353    13230.672   -2177.1548   -1101.9991   -313.75356 
   99000    305.07284   -3735.0823   -3212.1979   -3735.0823            0    11756.655    16.779699    19.764269    20.471193    6789.0353    10710.388    11259.678    13299.898   -610.73847    534.56834   -421.81279 
   99500    300.35613   -3671.0247   -3156.2245   -3671.0247            0    12818.644    16.801379    19.789805    20.497643    6815.3842    12465.753    13378.284    12611.894   -3346.1943    1812.9039   -876.27257 
  100000    290.71994    -3752.869    -3254.585    -3752.869            0    11437.421     16.93537    19.947629    20.661112    6979.7466    10209.113     13725.77     10377.38    333.34628   -259.52135   -1826.7929 
  100500    295.01145   -3693.5783   -3187.9388   -3693.5783            0    11695.486    16.835968    19.830547    20.539842    6857.5641    11556.717    11307.828    12221.911   -1084.9203   -2351.4683     256.2129 
  101000    289.00173   -3731.3615   -3236.0224   -3731.3615            0    11525.261    16.823318    19.815646    20.524408    6842.1176    11082.227    11453.559    12039.997   -161.43487    1258.3206    1307.2234 
  101500    298.71802   -3715.6619   -3203.6694   -3715.6619            0    12114.074    16.807059    19.796495    20.504572    6822.2988    11542.092    12243.418    12556.711    2075.2991   -1678.2355    315.21025 
  102000    310.33809   -3729.2584   -3197.3496   -3729.2584            0    10821.142    16.812585    19.803004    20.511314    6829.0305    9468.8543    10921.464    12073.109   -1258.6341   -685.59805    1528.0316 
  102500      286.087   -3745.2381   -3254.8948   -3745.2381            0    12281.819    16.800293    19.788526    20.496318    6814.0628    11572.143    11752.748    13520.565   -1167.7094   -872.37981   -1322.2132 
  103000    303.49282   -3706.5844    -3186.408   -3706.5844            0    13528.543    16.792481    19.779324    20.486787    6804.5616    14844.735    12720.773     13020.12   -759.43444     1425.477   -1546.8676 
  103500    313.83974   -3745.0908   -3207.1803   -3745.0908            0    13473.608    16.759978     19.74104    20.447134    6765.1262    11951.314    15053.618    13415.893   -1122.7084   -991.89251    -527.0593 
  104000    300.53369   -3740.3238   -3225.2193   -3740.3238            0    11969.499    16.879515    19.881839    20.592968    6910.9135    10745.639    12093.172    13069.687   -1391.2061   -466.06612   -376.97311 
  104500    304.13986   -3742.2057   -3220.9204   -3742.2057            0     12235.45    16.857303    19.855676     20.56587    6883.6668     11461.04    13122.315    12122.995    620.39886   -754.08176   -940.68747 
  105000    311.23243   -3730.2762   -3196.8345   -3730.2762            0     12789.23    16.796056    19.783535    20.491149    6808.9089    11817.055    15228.572    11322.063   -118.65689    -708.4488   -28.506592 
  105500    313.34695   -3720.0956   -3183.0297   -3720.0956            0    11965.201    16.855541    19.853601    20.563721    6881.5089    13527.623    11844.709    10523.269    1672.8698    1501.0329   -29.453773 
  106000    301.51474   -3803.9953   -3287.2093   -3803.9953            0    10772.883    16.794194    19.781342    20.488878    6806.6449     9396.656    9545.6148    13376.379   -1719.9147   -1588.4896    173.50479 
  106500    292.67974   -3743.0669   -3241.4238   -3743.0669            0    13167.344    16.722913    19.697383    20.401915    6720.3423    10706.223    14898.047    13897.762   -1001.3987   -1139.3031   -1824.4522 
  107000    298.90857   -3788.4655   -3276.1464   -3788.4655            0    10876.675    16.785299    19.770865    20.478026    6795.8355     10463.21    10387.979    11778.836     258.4891   -470.06814   -874.68932 
  107500    304.25431   -3734.7802   -3213.2987   -3734.7802            0    11727.954    16.788991    19.775213    20.482529      6800.32    11279.818    13103.278    10800.766    187.01303   -57.899923   -55.310086 
  108000    291.20301   -3746.8614   -3247.7494   -3746.8614            0    9537.1983    16.883264    19.886255    20.597543    6915.5197    10578.571    10204.361    7828.6624    329.45386   -138.30276   -330.66869 
  108500    298.94979    -3699.696   -3187.3063    -3699.696            0    13384.315    16.784345    19.769742    20.476862    6794.6769     12911.36     14010.19    13231.396    483.04937   -107.25481    230.76106 
  109000      294.916   -3759.8976   -3254.4216   -3759.8976            0    12748.657    16.766982     19.74929    20.455679    6773.6119    13337.493    10554.334    14354.145   -294.92399    2181.0777    482.29129 
  109500    287.19042   -3724.8659   -3232.6313   -3724.8659            0    9952.1531    16.839833    19.835099    20.544557     6862.288    11315.895    9553.8225    8986.7421   -75.366688     947.4315    484.01738 
  110000    296.12493   -3735.1996   -3227.6516   -3735.1996            0    13332.859    16.756875    19.737386    20.443349    6761.3701    13020.194    16213.658    10764.724    574.26186     291.8425    229.25852 
  110500    294.14476   -3740.5934   -3236.4393   -3740.5934            0    13687.024    16.798872    19.786853    20.494585    6812.3346    15434.647    13628.489    11997.936    -299.0423   -586.50498    729.98551 
  111000    292.56388   -3719.8897   -3218.4452   -3719.8897            0    11922.064    16.889303    19.893368    20.604911    6922.9436    13628.731    11846.889    10290.574   -1957.9411   -1543.5063   -2359.6663 
  111500    294.43035   -3691.0528   -3186.4093   -3691.0528            0    11578.133    16.846415    19.842851    20.552586     6870.337    11508.717    10762.337    12463.346    580.89337   -402.07079     371.6238 
  112000    289.15338   -3702.4424   -3206.8435   -3702.4424            0    13279.965    16.763656    19.745373    20.451622    6769.5818    10897.937      14753.4    14188.558    707.89002    -2.643502   -625.43441 
  112500    286.55075   -3725.3262    -3234.188   -3725.3262            0    12353.553    16.843914    19.839905    20.549535    6867.2776    11341.351    14543.698    11175.609    1199.0322    75.679762    1556.9641 
  113000     300.7157   -3746.1428   -3230.7264   -3746.1428            0     12548.16    16.807523    19.797042    20.505139     6822.864    11828.903    11235.443    14580.135   -412.50155   -90.375949     782.8887 
  113500    295.83741   -3741.9725   -3234.9173   -3741.9725            0    11847.362    16.870598    19.871336    20.582091    6899.9676    12483.858     10723.94    12334.289    610.29777   -1124.5612   -640.80461 
  114000    320.13149   -3750.5881   -3201.8937   -3750.5881            0    11232.464     16.88398    19.887098    20.598416    6916.3997    11146.797    10420.301    12130.292    206.38833   -633.10154   -1020.5307 
  114500    293.04643   -3728.1112   -3225.8396   -3728.1112            0    9051.8109    16.879625    19.881968    20.593103    6911.0484    9109.7366    7619.2473    10426.449    811.30079   -348.43139   -1085.1949 
  115000    287.53273   -3678.3881   -3185.5669   -3678.3881            0    14569.637    16.823883    19.816311    20.525097    6842.8068    13162.367    15963.723    14582.821    973.80722    319.62152    1982.9605 
  115500    288.30423    -3688.078   -3193.9344    -3688.078            0    12967.539     16.83695    19.831704     20.54104    6858.7644    13071.104     12729.43    13102.083     1949.672   -1688.8101   -256.13716 
  116000    309.61093    -3761.793   -3231.1304    -3761.793            0    14516.453    16.801697     19.79018    20.498032    6815.7722    14721.767    13871.203     14956.39   -423.18617   -126.20749   -1040.7244 
  116500    307.31114   -3724.6417   -3197.9209   -3724.6417            0    12749.688    16.819991    19.811727    20.520349    6838.0588    11414.617    14705.181    12129.264    698.88713    698.27683   -1169.4302 
  117000    277.23707   -3749.0118    -3273.837   -3749.0118            0     10009.06    16.936394    19.948835    20.662361    6981.0129    8618.2856    11238.427    10170.467    705.59199   -728.80265    1464.7948 
  117500    301.61072    -3758.201   -3241.2506    -3758.201            0    11661.615    16.823966    19.816409    20.525199     6842.908    11776.864    11126.475    12081.506     1944.123    1156.3803    234.91687 
  118000      287.248   -3708.9094   -3216.5761   -3708.9094            0    13767.881    16.774454    19.758091    20.464795    6782.6713    13957.766    15276.129    12069.749    249.48844    936.52783    1214.5542 
  118500    311.91735   -3757.4964   -3222.8808   -3757.4964            0    10357.476    16.855815    19.853924    20.564055    6881.8449    11468.893    9239.4445    10364.092    930.63294   -989.96685    459.00244 
  119000     303.9516   -3736.1182   -3215.1555   -3736.1182            0    10985.895    16.880762    19.883308    20.594491     6912.446     9497.645    13096.493    10363.549   -457.95098   -482.70369    1510.1212 
  119500    295.84678   -3749.2622    -3242.191   -3749.2622            0    12207.517    16.838065    19.833017      20.5424    6860.1269    10464.015    14850.641    11307.896   -2870.9457    1326.8131   -1152.7513 
  120000    288.00785   -3739.6274   -3245.9918   -3739.6274            0     10655.62    16.870886    19.871676    20.582442    6900.3208    9502.4598     9613.138    12851.262    707.21832    679.39802   -836.83579 
  120500    297.02724    -3677.416   -3168.3214    -3677.416            0     12403.33    16.810303    19.800317    20.508531    6826.2505     12152.57    12220.406    12837.013    813.69832    212.63787   -1004.5296 
  121000    297.26461   -3761.9979   -3252.4965   -3761.9979            0    11269.836    16.861439    19.860548    20.570916    6888.7351    11378.308    9700.1046    12731.096    436.13789    1068.2507    763.13935 
  121500    301.01932   -3758.4548   -3242.5179   -3758.4548            0    12684.075    16.821518    19.813527    20.522213    6839.9225    11960.168    14383.648    11708.409   -53.693727     611.1486     71.32721 
  122000    319.15833   -3766.9073   -3219.8809   -3766.9073            0    10305.299    16.904595    19.911381    20.623567    6941.7655    10384.393    10893.897    9637.6058    267.75018   -867.82639    905.27411 
  122500    303.55226   -3708.4262    -3188.148   -3708.4262            0    10822.339    16.878492    19.880634    20.591721    6909.6572    11794.439    10449.103    10223.474   -54.820455   -1681.7094    182.82555 
  123000    286.91907    -3733.574   -3241.8045    -3733.574            0     11496.46    16.811982    19.802294    20.510579    6828.2963    11555.794     11612.75    11320.836   -1214.6741    2240.4357   -625.84054 
  123500    283.43065   -3703.7303   -3217.9399   -3703.7303            0     13143.02    16.829424    19.822839    20.531858     6849.571    10683.894    15404.272    13340.895   -290.73183   -837.83462    389.09074 
  124000    315.57509   -3715.5211   -3174.6362   -3715.5211            0    12621.421      16.8639    19.863446    20.573918    6891.7519    9731.5099    12791.997    15340.757    1095.8628    578.67373     222.6568 
  124500    302.16109   -3734.0761   -3216.1824   -3734.0761            0    10526.751    16.880409    19.882892    20.594059    6912.0116    9617.7386    12613.879    9348.6343   -1113.9531    1758.0427    1008.7785 
  125000    300.75159    -3672.288   -3156.8101    -3672.288            0    12824.945    16.835804    19.830353    20.539641    6857.3634    12662.531    14516.911    11295.393   -1450.5363     2078.509    -258.9537 
  125500     290.3965   -3720.0569   -3222.3273   -3720.0569            0     12822.82    16.810111     19.80009    20.508296    6826.0163    13722.172    12687.183    12059.104   -1095.4953    2589.3099    1292.2037 
  126000    312.17269   -3739.0033     -3203.95   -3739.0033            0    14193.359    16.816545    19.807668    20.516145    6833.8569    13968.853    14642.785    13968.438   -1047.3808    -280.0021   -1455.0162 
  126500    287.55972   -3769.7074   -3276.8399   -3769.7074            0    12901.261     16.83016    19.823706    20.532756    6850.4696    12452.181    13076.545    13175.058    1386.0638   -402.73922    1422.6297 
  127000    301.67924   -3739.9527   -3222.8848   -3739.9527            0    12483.791    16.864669    19.864352    20.574856    6892.6946    13802.026    12607.234    11042.112    221.61962      -1196.7    827.43828 
  127500    296.16657   -3718.0174    -3210.398   -3718.0174            0    12919.793    16.832414    19.826361    20.535506    6853.2225    10649.554    13519.723    14590.103    1620.7937    23.511903    1130.9316 
  128000    322.96031   -3773.8279    -3220.285   -3773.8279            0    11498.393    16.824993     19.81762    20.526453    6844.1623     11412.75     11840.66    11241.768   -1478.2507   -1336.6777    755.22277 
  128500     285.2106   -3765.0244   -3276.1832   -3765.0244            0    10346.473      16.8741    19.875461    20.586363    6904.2653    11039.162    9345.3394    10654.918   -1104.2589    912.07487    143.67135 
  129000     312.4101    -3715.225   -3179.7647    -3715.225            0    12961.086    16.783084    19.768257    20.475324    6793.1456    13328.431    12828.923    12725.904   -301.27422   -1407.4153     1298.004 
  129500    306.62327    -3753.071   -3227.5292    -3753.071            0    10247.085    16.900079    19.906061    20.618057    6936.2036    10507.728    8454.2356     11779.29   -879.89107    -274.9731   -564.61706 
  130000    298.93853   -3755.2651   -3242.8947   -3755.2651            0    13069.604    16.826069    19.818887    20.527765    6845.4755    14514.319    12700.956    11993.538   -974.21334     2514.701    1816.6258 
  130500    291.35583   -3698.0097   -3198.6358   -3698.0097            0    12190.064    16.899519    19.905402    20.617374     6935.514    14127.846    10843.265     11599.08    706.99944    451.87503   -397.42369 
  131000    289.04857   -3733.4432   -3238.0238   -3733.4432            0    13618.829      16.8171    19.808323    20.516823    6834.5346    13513.769    14212.379     13130.34    1606.3773   -1351.6862    2013.5504 
  131500    303.21626   -3729.0396   -3209.3373   -3729.0396            0     12450.55    16.877172    19.879079     20.59011     6908.036     11829.87    13495.138    12026.643   -3524.2356    612.02486    1641.8227 
  132000    304.44121    -3700.301   -3178.4992    -3700.301            0    11155.111    16.850489     19.84765    20.557557    6875.3233    8488.7191    14000.147    10976.467    1020.2937   -1114.5196   -801.91737 
  132500    300.35774   -3685.5013   -3170.6984   -3685.5013            0    11618.988    16.874348    19.875753    20.586665    6904.5694    11378.021     14187.95    9290.9929    768.92556    165.55002    189.44369 
  133000    287.71033   -3703.7056   -3210.5799   -3703.7056            0    13291.805    16.840157    19.835481    20.544953    6862.6843    14020.947    12735.916    13118.553   -358.91893     1037.759   -968.60852 
  133500    304.18337   -3684.2528   -3162.8929   -3684.2528            0     12948.75     16.85061    19.847793    20.557705    6875.4714    12802.659    12531.599    13511.991    -626.2627   -460.63311    942.15917 
  134000    293.54804   -3741.2407   -3238.1094   -3741.2407            0    12952.512    16.830886     19.82456    20.533641    6851.3557    13164.863    12638.084    13054.588   -814.95003    372.13363     1344.602 
  134500     304.3026   -3718.5544   -3196.9901   -3718.5544            0    11033.698    16.857471    19.855874    20.566075    6883.8729     10721.53    9779.3297    12600.235   -1230.7932   -1056.1814   -126.70952 
  135000     285.5721   -3750.1311   -3260.6703   -3750.1311            0    12142.657    16.839674    19.834912    20.544363    6862.0939    14014.069    9503.9068    12909.995   -309.78511   -1363.0404    1257.8902 
  135500    305.29355   -3755.6812   -3232.4185   -3755.6812            0    10290.289    16.852201    19.849666    20.559645    6877.4185     10345.11    9349.8665     11175.89    378.47674    74.066578    792.93599 
  136000    290.74986   -3690.2685   -3191.9332   -3690.2685            0    11729.303    16.828061    19.821233    20.530195    6847.9068    15793.963    8503.8543    10890.092     2541.735   -1035.2989   -935.78449 
  136500    290.77901   -3689.3563   -3190.9711   -3689.3563            0    12678.245    16.884154    19.887304    20.598629     6916.614    16147.026    11236.392    10651.318    17.829164   -476.57992    1648.5256 
  137000    296.42224   -3734.9945   -3226.9369   -3734.9945            0     12132.13    16.796421    19.783965    20.491594    6809.3524    13371.981    10060.289     12964.12    638.93016   -114.34102   -874.40696 
  137500      309.936   -3677.5628   -3146.3431   -3677.5628            0    13142.497    16.823728    19.816129    20.524909    6842.6179    13787.719    12999.685    12640.086     -283.454   -197.59447     1893.195 
  138000    310.87941   -3726.6542   -3193.8175   -3726.6542            0    11283.638    16.813068    19.803574    20.511904    6829.6197    12369.819    12154.619    9326.4771    2111.9802   -204.82946    997.55024 
  138500     327.3068   -3737.0422   -3176.0496   -3737.0422            0    10974.936    16.814368    19.805105     20.51349    6831.2038    12311.736    11453.557    9159.5151   -1053.2255   -1465.6057   -1559.8818 
  139000    288.36973   -3790.1504   -3295.8946   -3790.1504            0    9903.1178    16.907821     19.91518    20.627502    6945.7399    8907.4136    11350.846    9451.0937    673.11719    -1504.733   -1816.6177 
  139500    310.19717   -3744.3421   -3212.6748   -3744.3421            0    10986.844     16.88768    19.891456     20.60293    6920.9475    11732.553    11331.083    9896.8962    653.12399    410.40443   -725.44822 
  140000    291.58139     -3711.86   -3212.0995     -3711.86            0    11955.315    16.833979    19.828204    20.537416    6855.1343    11632.981    12487.146    11745.817   -856.47831   -75.021671   -966.47855 
  140500    323.27794   -3730.7206   -3176.6333   -3730.7206            0    12941.605    16.785078    19.770605    20.477756    6795.5673    14173.212     13138.97    11512.632    2027.1998   -666.97005    44.613211 
  141000    301.28672   -3760.5565   -3244.1613   -3760.5565            0    10834.654    16.828114    19.821296     20.53026    6847.9717    11394.266    10946.703    10162.994   -732.57468   -179.83313   -54.820514 
  141500    269.55009   -3695.1042   -3233.1046   -3695.1042            0    12178.861    16.783142    19.768325    20.475394     6793.216    11276.782     13914.13     11345.67   -1181.5382    1349.6882   -1008.7377 
  142000    283.83857   -3732.9526    -3246.463   -3732.9526            0    13752.551    16.780285    19.764959    20.471908    6789.7464    15114.275    12349.212    13794.166   -1429.1522   -866.71852    217.20244 
  142500    304.98212   -3728.0175   -3205.2886   -3728.0175            0    11976.913    16.820994    19.812909    20.521574    6839.2832    11703.989    12613.468    11613.281   -839.39568    1368.8263    939.83697 
  143000    281.07539   -3755.7225   -3273.9689   -3755.7225            0    12052.656    16.812003    19.802319    20.510605     6828.322    11672.339    11435.667    13049.963   -170.16512   -941.29193    447.11693 
  143500    288.89124   -3740.7197     -3245.57   -3740.7197            0    14148.225    16.779113    19.763579    20.470479    6788.3247    17455.063    13336.683     11652.93    140.04136    519.61685    248.49817 
  144000    293.15433   -3761.2234   -3258.7669   -3761.2234            0    13335.678    16.771686     19.75483    20.461417    6779.3138    10530.812     14695.86    14780.362   -405.86094   -73.126666    754.48492 
  144500    290.24101   -3742.0325   -3244.5694   -3742.0325            0    12211.212    16.805504    19.794664    20.502676    6820.4063    9270.8461    13860.216    13502.573    1235.3952    3361.8285   -1538.2815 
  145000    305.64762   -3727.3129   -3203.4433   -3727.3129            0    9491.8882    16.851523    19.848869    20.558819    6876.5894    8469.0325    9359.1327    10647.499   -484.11548   -327.75996   -26.201411 
  145500    300.14508   -3698.8643   -3184.4259   -3698.8643            0     12361.97    16.809246    19.799071     20.50724    6824.9623    12758.352    11956.349    12371.207    1136.6962    68.627077   -193.65457 
  146000    289.84074   -3738.4876   -3241.7105   -3738.4876            0    11615.348    16.852445    19.849954    20.559944    6877.7178    13072.252    11564.282    10209.511    361.65695     2938.833   -616.54438 
  146500    301.28251   -3748.8459    -3232.458   -3748.8459            0    12929.448    16.872024    19.873016     20.58383    6901.7173    13238.388     13097.78    12452.176   -675.41366    490.71371   -999.63208 
  147000    281.61939   -3732.5847   -3249.8987   -3732.5847            0    12233.456     16.81243    19.802822    20.511125    6828.8418     14311.33    12983.892    9405.1458   -87.338453   -902.73233    69.388628 
  147500    323.27097   -3742.2386   -3188.1632   -3742.2386            0    11974.514    16.796815     19.78443    20.492076    6809.8326    13349.515    11686.538    10887.488    809.23008    311.84201    744.51841 
  148000    293.57945   -3744.1283   -3240.9431   -3744.1283            0    13552.931    16.801837    19.790345    20.498202    6815.9424    12151.589    13555.759    14951.444   -485.39092    1103.0752    1049.9851 
  148500    291.24925   -3711.7496   -3212.5584   -3711.7496            0    10431.119    16.827248    19.820276    20.529204    6846.9146    11626.684    10529.643    9137.0287   -1048.4461    1165.8677    -256.2119 
  149000    315.18903   -3710.3428   -3170.1196   -3710.3428            0    12923.707    16.867677    19.867895    20.578526    6896.3833    13507.029    11586.524    13677.568    226.33736   -197.16949    867.31449 
  149500     302.9646   -3684.9416   -3165.6707   -3684.9416            0    13739.577    16.838725    19.833794    20.543205    6860.9332     14187.43    11869.631    15161.671     272.7017    1050.3497    810.67039 
  150000    291.30616   -3701.4878    -3202.199   -3701.4878            0    12463.683    16.801557    19.790015    20.497861    6815.6017    12823.992    12092.152    12474.904    413.50374    1074.1398    1900.9482 
  150500    296.08275   -3716.1183   -3208.6426   -3716.1183            0    11049.807    16.864268     19.86388    20.574367     6892.203    12120.661    11962.834    9065.9264   -218.20758   -2078.3437    885.42917 
  151000    316.63408    -3727.687   -3184.9871    -3727.687            0    13145.068    16.796241    19.783753    20.491375    6809.1339    13482.646    12040.897     13911.66   -610.99133     -1355.26   -1296.0766 
  151500    311.97217   -3754.7964   -3220.0868   -3754.7964            0    14943.348    16.766257    19.748436    20.454794    6772.7327    13204.886    13749.475    17875.684    100.99273   -366.20522   -750.46525 
  152000    265.31982   -3700.0461    -3245.297   -3700.0461            0    11808.649    16.869623    19.870187      20.5809    6898.7703    11382.641    11906.502    12136.805   -1028.4429    1545.5322     1718.148 
  152500    299.99224   -3753.0309   -3238.8544   -3753.0309            0    12074.741    16.827425    19.820484    20.529419    6847.1298    11982.792    14476.638    9764.7921    247.96503    453.91219   -1504.5735 
  153000    307.99797   -3738.9166   -3211.0186   -3738.9166            0    11775.051     16.85786    19.856333     20.56655      6884.35    13288.253    10699.208    11337.693    825.17452    1497.7158   -705.84387 
  153500    309.40865   -3706.2959     -3175.98   -3706.2959            0    14374.113    16.804074     19.79298    20.500931    6818.6652    13034.918    14402.124    15685.297   -199.95207    -695.2659    156.80666 
  154000     294.1461   -3750.8564   -3246.7001   -3750.8564            0    13807.093     16.79036    19.776826    20.484199    6801.9836    12644.362    13602.732    15174.186     938.0373    147.96095    806.80843 
  154500    293.19487   -3768.9921   -3266.4661   -3768.9921            0     12088.96      16.8091      19.7989    20.507063    6824.7855    11610.728    11183.412     13472.74    -1401.528   -1843.8857   -990.47299 
  155000    292.49451   -3755.5006    -3254.175   -3755.5006            0    9653.4373    16.882137    19.884928    20.596168    6914.1354    7963.0319    10002.014    10995.266    835.80145    1049.3973   -587.99335 
  155500    274.94736   -3714.2412   -3242.9908   -3714.2412            0    11759.432    16.815474    19.806407    20.514838    6832.5512    11218.289    12293.118    11766.889   -2379.5804    2375.6278    804.68966 
  156000    290.82271   -3777.7252    -3279.265   -3777.7252            0    9909.7822    16.877718    19.879722    20.590776    6908.7063    11043.481     9405.056    9280.8093    1383.7992    1019.4299    5.6576309 
  156500    285.39213   -3694.2054   -3205.0531   -3694.2054            0    12714.041    16.811387    19.801594    20.509853    6827.5715    12014.043    12070.972    14057.109    1430.3258   -19.379229    327.41771 
  157000    296.73857   -3731.5815   -3222.9817   -3731.5815            0    10799.483    16.861156    19.860215    20.570571    6888.3889    12744.299    8638.8835    11015.267    997.59535   -419.13226   -302.36992 
  157500    284.78513    -3726.155    -3238.043    -3726.155            0    12181.611    16.854397    19.852254    20.562325    6880.1083    12147.901     11915.24    12481.692   -117.82215   -57.073573    1432.0692 
  158000    302.40759   -3746.8723   -3228.5561   -3746.8723            0    11214.944    16.876696    19.878518    20.589529    6907.4516    10857.021    11686.233    11101.578    905.91423    1840.5414    631.75175 
  158500    289.16344   -3716.0392   -3220.4229   -3716.0392            0    11362.407    16.827333    19.820376    20.529308    6847.0183     10558.07    10758.597    12770.553     202.8253    6.1851503    203.71275 
  159000    300.93841   -3745.4494   -3229.6513   -3745.4494            0    11914.785    16.846882    19.843402    20.553157    6870.9094    10204.408    13950.232    11589.715    345.76689    876.83136   -1583.8656 
  159500    292.26671   -3694.5064   -3193.5712   -3694.5064            0    10157.805    16.860152    19.859032    20.569346    6887.1583    11225.478     8563.926     10684.01   -182.66494   -1214.8609   -1462.0575 
  160000    323.30421   -3703.4055   -3149.2732   -3703.4055            0    15426.153    16.744438    19.722737    20.428176    6746.3264    14991.657     16473.36     14813.44    42.170957    1731.2735   -792.94167 
  160500    306.65681   -3723.8238   -3198.2245   -3723.8238            0     13123.09    16.841438    19.836989    20.546515    6864.2498    10640.576    13008.166    15720.528    562.17763    1157.1467    -428.0048 
  161000    292.60448   -3756.8926   -3255.3786   -3756.8926            0    14132.163    16.816055    19.807092    20.515548    6833.2601     13381.48     14945.18     14069.83    173.49687   -167.78315    93.186618 
  161500    303.18644   -3750.3862   -3230.7351   -3750.3862            0    12343.412    16.824754    19.817338    20.526161    6843.8706    12807.467    11264.466    12958.303    687.23059   -919.53809   -1854.9766 
  162000    284.61135   -3744.0211   -3256.2069   -3744.0211            0    9707.5161    16.883868    19.886966     20.59828     6916.262    8622.3846    8912.4587    11587.705    907.65185    1063.2056    1285.6778 
  162500    294.08579   -3732.2355   -3228.1825   -3732.2355            0     12714.59    16.826823    19.819775    20.528685    6846.3956    11127.505    12600.344    14415.922    -2343.427   -414.69007    190.67039 
  163000    297.96473   -3720.0424    -3209.341   -3720.0424            0    15225.082    16.773244    19.756666    20.463319    6781.2039    15794.377    15352.963    14527.906    109.06733   -407.58465   -1193.9961 
  163500     279.5151   -3754.9649   -3275.8856   -3754.9649            0    11584.772    16.794418    19.781606    20.489151    6806.9169    10909.459    10286.753    13558.103    748.90948    2001.6691    1627.0461 
  164000    305.45846   -3746.3991   -3222.8537   -3746.3991            0    13425.034    16.751371    19.730902    20.436634    6754.7093    12717.069    13069.376    14488.658    502.10478    -2358.651    204.92888 
  164500    311.79185    -3746.864   -3212.4635    -3746.864            0    12495.838    16.844305    19.840367    20.550013    6867.7569    12872.643    11492.798    13122.072     1180.292   -2604.5133    1687.9403 
  165000    300.20387   -3716.0047   -3201.4655   -3716.0047            0    14541.509    16.775964     19.75987    20.466637    6784.5035    13979.091    14277.144    15368.292    373.29019   -444.23755   -754.76922 
  165500    310.14091   -3734.4858   -3202.9149   -3734.4858            0    12170.185    16.859756    19.858565    20.568863    6886.6726    11077.541    13225.617    12207.398    627.14111   -1196.3977    623.35311 
  166000    301.46571    -3677.969   -3161.2671    -3677.969            0    11342.322    16.836515    19.831191    20.540509    6858.2324    8900.8245    14662.559    10463.581    861.25401    63.833455    900.41568 
  166500    299.72909   -3785.1667   -3271.4413   -3785.1667            0    8716.9464    16.914652    19.923226    20.635836    6954.1623    7375.7205    8034.1625    10740.956   -332.52174    534.94385   -189.84142 
  167000    285.88468   -3747.7611   -3257.7646   -3747.7611            0    10743.601     16.82433    19.816839    20.525644    6843.3533    9432.0383    11543.386    11255.377    119.00766   -344.36866   -37.942285 
  167500    286.55032   -3732.8572   -3241.7197   -3732.8572            0    12121.618    16.783579    19.768839    20.475927    6793.7465    10656.171    13509.487    12199.195    486.11389    1419.2624    1500.8445 
  168000    321.14901   -3722.4818   -3172.0434   -3722.4818            0    13471.907     16.80113    19.789512     20.49734    6815.0823    11363.469    14049.118    15003.135    46.505306     469.9465    2509.3636 
  168500    292.63885   -3686.6941   -3185.1212   -3686.6941            0    11657.784    16.865246    19.865032     20.57556     6893.402    12088.012    11325.004    11560.337   -169.07676    291.48057    501.00854 
  169000    303.99479    -3695.117   -3174.0803    -3695.117            0      12762.3    16.849688    19.846707     20.55658    6874.3425    13852.768    12874.074    11560.058   -122.81602    167.52305   -1349.8438 
  169500    294.23882    -3720.151   -3215.8357    -3720.151            0    11855.529    16.850885    19.848117     20.55804    6875.8079    11700.823     9777.323    14088.441    584.71981   -1226.1876    854.97981 
  170000    291.07678    -3675.253   -3176.3573    -3675.253            0     13935.37    16.794886    19.782157    20.489722    6807.4864    14396.437    13903.669    13506.004    438.18458   -508.58163   -578.58419 
  170500    287.15954   -3734.4016     -3242.22   -3734.4016            0    12906.002     16.81192    19.802222    20.510504     6828.221    13004.874      11705.4    14007.731    1900.8679   -516.18935     1566.373 
  171000    277.06752   -3709.4468   -3234.5626   -3709.4468            0    12514.056     16.82292    19.815177    20.523923    6841.6319    12626.732     12000.37    12915.067    1096.0565    172.24344   -1847.7314 
  171500     301.0974   -3759.8433   -3243.7727   -3759.8433            0    10761.627    16.830967    19.824655     20.53374    6851.4543    11212.133    8882.9745    12189.772    1763.8204    -384.5888   -10.995452 
  172000    285.31723   -3739.6162   -3250.5922   -3739.6162            0    12101.973    16.909296    19.916917    20.629301    6947.5576    10887.433    13554.039    11864.448   -52.810221    2146.3875    1057.1044 
  172500    307.52786   -3725.3426   -3198.2504   -3725.3426            0     10924.43    16.899022    19.904816    20.616768     6934.902    12329.354    10999.626    9444.3094   -25.321131   -481.85636    172.08573 
  173000    290.71344   -3728.1865   -3229.9136   -3728.1865            0     11917.01    16.845751    19.842069    20.551777    6869.5249    14901.345    8631.4174    12218.268   -1158.3104   -884.04365   -40.538159 
  173500    298.97973   -3719.5398   -3207.0988   -3719.5398            0    12193.095    16.806031    19.795284    20.503318    6821.0473    10284.138    13723.313    12571.835   -449.09718    85.012374    6.8905425 
  174000    281.09986   -3723.1649   -3241.3694   -3723.1649            0    10879.245    16.896868    19.902278    20.614139    6932.2496    10987.869     9635.767    12014.097   -247.08879    1541.1228   -1178.9279 
  174500    305.52266   -3711.1847   -3187.5293   -3711.1847            0    12123.431    16.841768    19.837378    20.546917    6864.6532    13549.814    11042.576    11777.904   -1055.3758    732.73357    1390.3414 
  175000    297.29128   -3694.1831    -3184.636   -3694.1831            0     13522.99    16.783588     19.76885    20.475939    6793.7576    14318.965    14010.739    12239.267     1681.114   -888.18213   -1532.4035 
  175500    284.92182   -3747.4626   -3259.1163   -3747.4626            0     11562.05    16.783006    19.768165    20.475228    6793.0508    9611.1795    12597.235    12477.735    -760.8593    -177.0133   -568.05574 
  176000    303.16543   -3760.2467   -3240.6315   -3760.2467            0    11998.031    16.802349    19.790947    20.498826    6816.5647    11176.819    14106.726    10710.547    354.82424   -244.67828     741.6115 
  176500    308.08769   -3719.3618     -3191.31   -3719.3618            0    13711.962    16.806546    19.795892    20.503947    6821.6751    14036.941    14578.749    12520.194   -15.809841   -1529.4072    554.93036 
  177000    321.21938   -3739.8696   -3189.3106   -3739.8696            0    12273.958    16.868006    19.868283    20.578928    6896.7871    12087.789     10619.62    14114.466    2449.0586   -1679.9332   -1048.0139 
  177500    302.00116   -3734.4434   -3216.8237   -3734.4434            0    12655.429     16.82213    19.814247    20.522959    6840.6686     11856.25    12402.538    13707.499    1042.2536    -1156.454   -929.04314 
  178000    308.05866    -3740.565    -3212.563    -3740.565            0    9903.8207    16.911633     19.91967    20.632153    6950.4388     11143.68    8680.5082    9887.2736    1142.6882    191.19792   -430.88515 
  178500    276.27962   -3745.3197   -3271.7858   -3745.3197            0     13151.83     16.83787    19.832786    20.542162     6859.888    13234.105    13596.572    12624.812   -840.70791    159.37267    2059.5078 
  179000     296.2233   -3733.5379   -3225.8213   -3733.5379            0    11679.713    16.891216    19.895621    20.607244     6925.296    8755.6325     12540.01    13743.497   -946.91539   -1133.8357    202.89208 
  179500    305.36257   -3744.9158   -3221.5348   -3744.9158            0    11207.779    16.812657    19.803089    20.511402    6829.1185    11091.151    8951.9949    13580.192    287.99872   -2393.7477    -829.7772 
  180000    297.31778   -3740.7343   -3231.1418   -3740.7343            0    9972.0827    16.858198     19.85673    20.566962    6884.7637    10345.794    9505.9456    10064.509    -902.3223      926.431    1196.7572 
  180500    301.81915   -3720.5653   -3203.2576   -3720.5653            0    14028.325    16.720822     19.69492    20.399364    6717.8217    17406.628    11680.912    12997.434    31.683548    325.34714    1620.7093 
  181000    298.43856   -3723.1375    -3211.624   -3723.1375            0    13601.526    16.770157     19.75303    20.459552    6777.4599    13555.395    14651.299    12597.882    66.845703    977.17834   -356.79727 
  181500    305.23433   -3721.2409   -3198.0797   -3721.2409            0    13113.807    16.751783    19.731388    20.437136     6755.208    11740.754    13150.819    14449.848   -402.83191    799.58469   -264.19204 
  182000    300.24391   -3727.3184   -3212.7106   -3727.3184            0    11307.649    16.847363    19.843969    20.553744    6871.4979    10447.054     11563.52    11912.372    -1998.848    1136.6626    1204.3462 
  182500    303.80229   -3771.6699   -3250.9632   -3771.6699            0    11585.667    16.779832    19.764425    20.471356    6789.1968    10144.292    12666.214    11946.494   -1501.0042   -3215.9881   -60.525708 
  183000    310.60153   -3803.1748   -3270.8144   -3803.1748            0    12550.488    16.778949    19.763385    20.470278    6788.1248    15044.507    12350.651    10256.307   -83.979685    718.12805   -1065.3414 
  183500     286.7699   -3727.8302   -3236.3164   -3727.8302            0    13685.399    16.744611     19.72294    20.428387    6746.5353    14008.281     15401.51    11646.407   -1955.7708    114.03243   -883.70872 
  184000    289.24266   -3743.0348   -3247.2827   -3743.0348            0    13940.143    16.810716    19.800803    20.509035    6826.7541    17663.675    11387.262     12769.49    944.68407     493.1804    339.85324 
  184500    318.85536   -3726.8565   -3180.3493   -3726.8565            0    11798.336    16.880698    19.883233    20.594413    6912.3675     11531.69    13142.006    10721.313    1146.7627      446.359   -792.09482 
  185000    306.96093   -3731.6435    -3205.523   -3731.6435            0    11843.542    16.854743    19.852661    20.562747    6880.5313    10415.139    12771.559    12343.929    290.23696    493.64658   -168.46875 
  185500    322.67788   -3760.5616   -3207.5027   -3760.5616            0    12176.518    16.850865    19.848094    20.558016    6875.7838     11433.45    11660.766    13435.338    1829.3631   -373.58312   -53.336785 
  186000    302.01563    -3694.937   -3177.2926    -3694.937            0    11966.832    16.800226    19.788447    20.496237     6813.982    10723.638    11979.486    13197.371    323.13664    1218.2143    793.91768 
  186500    280.41668   -3746.0934   -3265.4688   -3746.0934            0    9947.9296    16.930001    19.941305    20.654561      6973.11    8723.4049     10504.56    10615.824     1119.279    66.696114    113.06916 
  187000    293.45403   -3743.0259   -3240.0558   -3743.0259            0    12259.974    16.840921     19.83638    20.545884    6863.6176    10639.159    15166.553     10974.21    523.98907    -1439.105   -1681.1618 
  187500    293.14122   -3710.9065   -3208.4724   -3710.9065            0    10436.372    16.848086     19.84482    20.554625    6872.3818    8810.5471     12030.99    10467.579    995.01184   -33.219336   -974.62077 
  188000    307.52781   -3702.2538   -3175.1617   -3702.2538            0    11503.607    16.873613    19.874887    20.585768    6903.6666    11014.636    12235.233     11260.95   -22.268424    770.59076    562.61988 
  188500    305.69634   -3712.8009   -3188.8478   -3712.8009            0    11497.159    16.834328    19.828615    20.537841    6855.5599    10563.433    10059.379    13868.665    331.54577   -397.59255   -27.273877 
  189000    293.29751   -3739.8988   -3237.1969   -3739.8988            0    11442.295    16.801293    19.789704    20.497538      6815.28    9844.6049    12193.353    12288.928    138.57399   -966.74336    1469.7282 
  189500    286.73899   -3696.7952   -3205.3343   -3696.7952            0    13544.448    16.774462      19.7581    20.464804    6782.6808    12832.215    12107.849    15693.278     -795.138   -1773.0867   -993.30889 
  190000    299.25854   -3672.7633   -3159.8444   -3672.7633            0    14855.041    16.823716    19.816115    20.524894    6842.6031     15357.36    14526.067    14681.697    1743.6285    2144.6628      -1381.7 
  190500    310.68961   -3730.2684   -3197.7571   -3730.2684            0    12212.869     16.82012     19.81188    20.520508    6838.2173    13847.839    11763.184    11027.585    858.48995   -1236.0335   -772.94665 
  191000    307.39648   -3725.0556   -3198.1885   -3725.0556            0    10983.072    16.854145    19.851957    20.562018    6879.7994    13127.334    10261.029    9560.8521   -1253.3428    357.39528    -706.2404 
  191500    287.89656   -3724.3815   -3230.9366   -3724.3815            0    11655.524    16.842842    19.838643    20.548228    6865.9667     12962.11     10699.76    11304.702    227.20588    396.03344   -1352.7266 
  192000     295.3679   -3709.9197   -3203.6693   -3709.9197            0    12787.041    16.797029    19.784682    20.492337    6810.0928    11871.697    15192.937    11296.487     2247.216    142.75852    1259.2819 
  192500    314.77009   -3710.2743   -3170.7691   -3710.2743            0    11955.949    16.834448    19.828756    20.537987    6855.7066    12426.557    11393.505    12047.785   -4.9530173     1.469277    873.80684 
  193000    287.99435   -3729.8557   -3236.2432   -3729.8557            0    10266.479    16.846437    19.842877    20.552613    6870.3641    8823.9234    10170.459    11805.056    846.74876     491.9522   -1459.9027 
  193500    292.37412   -3743.9172    -3242.798   -3743.9172            0    11944.777    16.862467    19.861759     20.57217    6889.9955    11852.997    12112.316    11869.019   -1025.4165    95.861944    739.56593 
  194000      307.458   -3725.7344   -3198.7619   -3725.7344            0    12914.492    16.779509    19.764045    20.470962    6788.8052    15745.397     13092.32    9905.7591     1310.549    653.85924    442.85381 
  194500    310.30633   -3758.9565   -3227.1021   -3758.9565            0    12797.896    16.779131      19.7636    20.470501    6788.3463     13109.96    13862.133    11421.594    1598.6531   -305.25674   -941.50185 
  195000    299.61318   -3752.8289   -3239.3022   -3752.8289            0    13141.838    16.774284    19.757891    20.464588    6782.4653    16057.624    11000.558    12367.332   -1210.7675    226.42921   -165.76429 
  195500     310.0336   -3749.3751   -3217.9881   -3749.3751            0    12784.994    16.820071    19.811822    20.520447    6838.1568    13548.406    10043.854    14762.723    1672.1513   -249.40071   -1642.0582 
  196000    298.69405   -3734.4832   -3222.5318   -3734.4832            0    11079.401    16.776931    19.761009    20.467817    6785.6766    10294.193    12057.091     10886.92   -541.74981   -309.75235   -927.60431 
  196500    312.50291   -3717.8884   -3182.2691   -3717.8884            0    14756.661    16.761321    19.742622    20.448772    6766.7529    14110.615    15153.772    15005.596   -807.14589    631.30603   -862.22296 
  197000    297.19291   -3737.1939   -3227.8154   -3737.1939            0    12059.719    16.869476    19.870014    20.580721    6898.5905    10092.145    12081.352    14005.662   -485.66244   -897.80339   -1198.7644 
  197500    312.34101   -3742.5258    -3207.184   -3742.5258            0    11787.582    16.815242    19.806134    20.514556     6832.269    12860.113    11178.957    11323.676   -380.76441    1075.6534   -256.19699 
  198000    301.43443   -3692.8784   -3176.2301   -3692.8784            0    12916.551    16.882641    19.885521    20.596783    6914.7545    15059.676    11613.294    12076.682    671.51702    2754.1131    99.878972 
  198500    315.50607   -3744.9398   -3204.1732   -3744.9398            0    10993.231    16.896666    19.902041    20.613893    6932.0018    10532.639    9597.5117    12849.541    1318.0065    418.59794   -919.38267 
  199000    303.44141   -3674.2406   -3154.1524   -3674.2406            0    13198.193    16.779734    19.764311    20.471237    6789.0787    12957.229    12644.848    13992.503     800.3003    487.07799   -2181.9189 
  199500    302.19362   -3710.1929   -3192.2434   -3710.1929            0    11565.446    16.854144    19.851955    20.562016     6879.798    12835.701    10286.727    11573.909   -862.30213    -1108.135    228.62461 
  200000    293.10617   -3725.0208   -3222.6469   -3725.0208            0     12676.84    16.843404    19.839305    20.548914    6866.6544    13587.255    12191.364    12251.901   -1514.1614   -485.98089   -1397.8642 
  200500    291.67125   -3733.1135    -3233.199   -3733.1135            0    13438.261    16.797273    19.784969    20.492634    6810.3895    14440.286      13811.6    12062.899    486.45145    2346.1706   -683.91603 
  201000    292.92089   -3715.2715   -3213.2151   -3715.2715            0    12507.627    16.838632    19.833684    20.543092    6860.8198    13010.608    11776.615    12735.656    1083.7084    -11.33004   -1442.7143 
  201500    310.75556   -3732.9198   -3200.2954   -3732.9198            0    15445.419    16.768691    19.751304    20.457764    6775.6834    15401.088    14029.154    16906.014    1225.1256    1621.8389    1398.3132 
  202000    289.83487   -3710.7015   -3213.9345   -3710.7015            0    12138.237    16.877335    19.879272    20.590309    6908.2368     10307.77    11279.219    14827.721   -949.32403    558.87843   -1285.3853 
  202500    299.87992   -3721.3024   -3207.3184   -3721.3024            0    11935.889    16.810174    19.800165    20.508373    6826.0933    13093.385    9032.9004    13681.382    -1327.413    1045.7374    329.11319 
  203000    292.04239    -3742.621   -3242.0704    -3742.621            0    12035.124    16.815979    19.807002    20.515455    6833.1671    10887.472    12054.699      13163.2    985.80866   -74.790295   -504.59895 
  203500    314.35619   -3744.1783   -3205.3826   -3744.1783            0    12585.714    16.823442    19.815793     20.52456    6842.2694    11881.714    12144.537    13730.891    1668.2172    478.75669    231.67047 
  204000    300.09541   -3741.5285   -3227.1753   -3741.5285            0    11350.366    16.899268    19.905106    20.617068    6935.2051    13066.544    11052.783    9931.7716    93.790476   -2307.3214    1925.1196 
  204500    310.19839   -3763.3372   -3231.6678   -3763.3372            0    14158.998    16.798451    19.786357    20.494071    6811.8223    13645.537    15363.624    13467.833    109.54565   -2482.1751     49.05102 
  205000    292.71176   -3742.6295   -3240.9315   -3742.6295            0    13594.748    16.781342    19.766205    20.473198    6791.0304    13020.706    12753.544    15009.992    1630.2054   -380.27177    1133.8991 
  205500    302.22092    -3694.119   -3176.1227    -3694.119            0    12843.462    16.782486    19.767551    20.474593    6792.4185     13086.17    11594.195    13850.021   -44.972961    135.43449    1456.9145 
  206000    286.61268   -3744.4772   -3253.2329   -3744.4772            0    13325.124    16.843278    19.839156     20.54876       6866.5    12140.221    12345.003    15490.147    -654.2381    -1711.127    1510.7642 
  206500     316.3617   -3743.7336   -3201.5005   -3743.7336            0    11603.287     16.78131    19.766167    20.473159    6790.9914    10271.411    12500.953    12037.496    2022.8831   -347.23171    1767.7448 
  207000    309.10076   -3747.2929   -3217.5048   -3747.2929            0    11580.126    16.824593    19.817148    20.525964    6843.6733    12474.084    12195.995      10070.3   -2508.9089   -206.72039    -310.5332 
  207500    291.79547   -3699.5859   -3199.4585   -3699.5859            0    13338.529    16.811858    19.802148    20.510427    6828.1445    12577.602    14910.288    12527.698     249.8475    2527.2785    871.80254 
  208000    298.95917   -3718.9107   -3206.5049   -3718.9107            0     12576.42    16.836324    19.830965    20.540275    6857.9984    11788.397    12942.698    12998.166    1609.1725   -748.67103    -2112.211 
  208500    295.22856   -3739.6286    -3233.617   -3739.6286            0    12619.796    16.803005    19.791721    20.499627     6817.364    12662.461    12313.865    12883.063   -76.427123    589.07478    285.68097 
  209000    284.28125   -3746.9702   -3259.7219   -3746.9702            0    12593.103     16.89658     19.90194    20.613789    6931.8961    13278.709     11566.97    12933.632   -490.38657   -133.98523   -310.42579 
  209500    297.44381   -3750.3279   -3240.5193   -3750.3279            0     9537.099     16.94557    19.959643    20.673556     6992.366    7748.6566    11482.821    9379.8198   -689.21498    363.80127    35.555189 
  210000    317.62932   -3728.9577   -3184.5519   -3728.9577            0    12823.057    16.799098    19.787118     20.49486    6812.6089    13643.059    12561.364    12264.748    2058.1328    883.15145    2962.1253 
  210500    309.18706    -3724.639    -3194.703    -3724.639            0    11623.741    16.919677    19.929144    20.641966    6960.3612    10513.783    12157.264    12200.177   -92.840127   -8.2316711   -42.610623 
  211000    302.76378   -3757.5556   -3238.6288   -3757.5556            0     11602.87    16.826338    19.819204    20.528093    6845.8035    9920.1083    12588.935    12299.566    10.825971   -183.94287   -1427.5903 
  211500    305.82531   -3708.5292   -3184.3551   -3708.5292            0     15014.81    16.720212    19.694202     20.39862    6717.0867    17814.264    14637.195    12592.971    408.60045   -1136.8478    625.98486 
  212000    305.28065   -3727.8857   -3204.6451   -3727.8857            0    13410.774    16.792885      19.7798     20.48728    6805.0532    15204.242    10533.925    14494.154   -708.71869   -118.65761    1385.2973 
  212500    303.81501   -3685.1113   -3164.3827   -3685.1113            0    11344.826    16.842132    19.837806    20.547361    6865.0982     13279.69    10252.335    10502.453    257.90589   -430.46743    994.52728 
  213000    299.41056   -3716.7712   -3203.5918   -3716.7712            0    13368.134    16.815968    19.806989    20.515442    6833.1541    14114.049    15128.334    10862.018    1183.0554    1008.2834    449.12355 
  213500    312.24957   -3750.5116   -3215.3265   -3750.5116            0    11452.199    16.829171    19.822541     20.53155    6849.2619    11869.989    10061.554    12425.052    1104.8228    -241.1717   -32.701563 
  214000      293.555     -3719.98   -3216.8368     -3719.98            0    14731.311    16.830146    19.823689    20.532739    6850.4522    15156.093    15539.507    13498.331    1025.5907    1153.9085   -156.81134 
  214500    299.01366   -3734.6631   -3222.1639   -3734.6631            0     12847.52    16.830699     19.82434    20.533414    6851.1276    12439.332    12672.757    13430.472   -44.518179    229.30186   -1346.6847 
  215000    283.94491   -3790.5799   -3303.9081   -3790.5799            0    11665.388    16.797874    19.785677    20.493367    6811.1205    12351.354    11227.689    11417.122   -1259.9936    642.92969    1525.7929 
  215500    302.99291   -3724.6806   -3205.3611   -3724.6806            0    11607.037    16.865185    19.864961    20.575487    6893.3281    10924.108    13083.969    10813.034    614.36169    659.56182   -71.249449 
  216000    284.22159   -3711.4567   -3224.3106   -3711.4567            0    14170.894    16.801511    19.789961    20.497805    6815.5459    13722.536    13681.317    15108.829     1335.206    837.61767    1617.4835 
  216500     295.5794   -3733.6963   -3227.0833   -3733.6963            0    10033.626    16.893891    19.898772    20.610507    6928.5863    8832.3058    9910.5043    11358.068   -1595.6835   -141.84618    1062.8822 
  217000    299.13536   -3742.0324   -3229.3246   -3742.0324            0    14091.071    16.802382    19.790987    20.498867    6816.6054    12459.527    16200.036     13613.65    2243.4588    604.83951    10.199453 
  217500    294.85008   -3702.7284   -3197.3655   -3702.7284            0    11719.502     16.84346    19.839372    20.548982    6866.7234    12249.508    11982.631    10926.366    228.92441   -859.04758   -230.27551 
  218000    290.77307   -3706.9764   -3208.6013   -3706.9764            0    13053.266    16.779446    19.763971    20.470885    6788.7288    12032.663     13417.69    13709.445     737.6237   -1925.9807   -340.70768 
  218500    300.51632   -3703.4343   -3188.3596   -3703.4343            0    13338.102    16.778587    19.762959    20.469837    6787.6859    15946.851    12752.225    11315.229   -239.89791   -1257.2825   -984.60781 
  219000     307.5077   -3723.2297   -3196.1721   -3723.2297            0    11654.951    16.844244    19.840295    20.549938    6867.6819    11448.228    11665.859    11850.765    1255.3801   -51.144797     927.0406 
  219500    309.51386   -3722.0156   -3191.5195   -3722.0156            0    12815.833    16.812781    19.803235    20.511553    6829.2694    14077.015     10696.26    13674.223    22.291714   -1409.3198   -2129.7994 
  220000    293.72507   -3765.1507    -3261.716   -3765.1507            0     13778.76    16.806585    19.795938    20.503995    6821.7226    13188.818     11065.22    17082.241   -1018.6031    864.46676    2700.7061 
  220500    298.01733   -3791.3308   -3280.5393   -3791.3308            0    9573.1639    16.814235    19.804948    20.513328    6831.0417    10371.365    10085.782    8262.3454   -1110.8887    1197.3907    1345.1397 
  221000    302.42789   -3750.3127   -3231.9617   -3750.3127            0    11977.269     16.81141     19.80162    20.509881    6827.5989    11135.463    11803.803    12992.542   -1289.0729   -1268.1646    1020.7647 
  221500    277.77542   -3779.4644   -3303.3669   -3779.4644            0    9164.3379    16.849492    19.846476    20.556341    6874.1031    9991.8505    8638.8772    8862.2861    921.31646   -777.87062    1722.0564 
  222000    304.28296   -3764.9975   -3243.4669   -3764.9975            0    12950.199    16.767375    19.749753    20.456158    6774.0877    13959.138    12147.574    12743.885    247.35971   -396.59926     491.8759 
  222500    296.79309   -3711.4758   -3202.7827   -3711.4758            0    12922.939    16.835806    19.830356    20.539645    6857.3665    14101.141    11742.238    12925.439   -41.439154    2292.6977    447.58909 
  223000    301.14602   -3737.7602   -3221.6062   -3737.7602            0    13023.202    16.787106    19.772993     20.48023    6798.0299    13621.658    11535.186    13912.761   -777.81024    666.69502    -16.15378 
  223500    290.09947   -3685.9285    -3188.708   -3685.9285            0    13133.794    16.818579    19.810065    20.518627    6836.3374    12566.395     15270.29    11564.696   -1710.6952    1254.6032   -484.91643 
  224000    308.15074   -3748.5225   -3220.3627   -3748.5225            0    11203.877    16.919685    19.929154    20.641977    6960.3718    10272.529    11763.905    11575.197    1706.4491    2212.6353    502.89501 
  224500    294.16603   -3724.6327   -3220.4422   -3724.6327            0    12909.177    16.850542    19.847713    20.557622    6875.3884    12174.509    14094.276    12458.745   -1258.9772    838.53292   -452.30531 
  225000    289.15766   -3742.8976   -3247.2913   -3742.8976            0    13690.932    16.835368     19.82984     20.53911    6856.8313    14414.932    14074.427    12583.438   -133.82082   -712.21164    964.19413 
  225500    310.58299   -3707.8027   -3175.4741   -3707.8027            0    9884.4942    16.910803    19.918692     20.63114    6949.4156    11827.524    11292.375     6533.584    182.63541    459.50217   -1668.4159 
  226000    304.57889   -3746.8526   -3224.8148   -3746.8526            0    11121.615    16.862304    19.861567    20.571972    6889.7961    13000.742    11460.249    8903.8535   -1822.4321   -966.82348   -695.84087 
  226500    310.05606   -3748.6334    -3217.208   -3748.6334            0    9949.8637    16.897697    19.903255     20.61515    6933.2701    8806.9441    9888.3673     11154.28    -355.1846   -1692.4601    1631.1011 
  227000    315.99058    -3698.705    -3157.108    -3698.705            0    12376.923    16.870435    19.871144    20.581891    6899.7666    10597.149    13504.555    13029.064   -1343.0216   -1135.4347    216.58578 
  227500    310.25124   -3725.4211   -3193.6611   -3725.4211            0    11519.536    16.824038    19.816494    20.525287     6842.996    10898.289    11277.467    12382.852   -229.04876   -639.55266    599.49827 
  228000    309.18083   -3729.3161   -3199.3907   -3729.3161            0    11287.138    16.831969    19.825837    20.534963     6852.679    9926.6682    11938.196     11996.55    1764.9239     553.1407    988.07086 
  228500    309.18079   -3740.5889   -3210.6637   -3740.5889            0    11674.067    16.853802    19.851553    20.561599    6879.3792    11331.901    10542.651     13147.65    491.32266    676.00402    1866.0019 
  229000    294.90409   -3739.5474   -3234.0918   -3739.5474            0    8661.9796    16.906419    19.913528    20.625792    6944.0121    8972.4224     8456.966    8556.5503     77.31941   -264.05641   -519.31476 
  229500    296.57877   -3735.9627   -3227.6368   -3735.9627            0    12726.766    16.857303    19.855676     20.56587    6883.6673    13563.407    13014.204    11602.686    -1952.637     163.4522   -626.90586 
  230000    303.69846   -3719.1842   -3198.6554   -3719.1842            0    10460.225     16.90632    19.913412    20.625671    6943.8906    11191.625    10046.403    10142.646   -627.78082    186.08495    387.71806 
  230500    317.34019   -3760.2156   -3216.3054   -3760.2156            0    12863.431     16.84036     19.83572      20.5452    6862.9325    12827.762    13209.686    12552.844   -934.41655    -1265.866   -704.74022 
  231000    292.25241   -3716.1412   -3215.2306   -3716.1412            0    12814.123    16.793661    19.780714    20.488227    6805.9963    11418.518    13639.879    13383.973   -1593.4629     1569.067    795.86392 
  231500    299.21119   -3728.0587    -3215.221   -3728.0587            0     11622.74    16.823191    19.815497    20.524254    6841.9634    10817.916    10410.515     13639.79    504.82413    1767.0726    266.51774 
  232000    291.24491   -3688.3895   -3189.2056   -3688.3895            0    10356.208    16.843443    19.839351    20.548962    6866.7025    8451.7602    11428.396    11188.467    2426.0556   -1741.6621   -476.79615 
  232500    289.61662   -3721.3511   -3224.9582   -3721.3511            0    10654.203    16.910017    19.917766    20.630181    6948.4464    9999.2878    12401.808    9561.5125   -87.257154   -877.85504   -1226.5038 
  233000    284.66673   -3709.6443   -3221.7352   -3709.6443            0    12853.319    16.826137    19.818966    20.527847    6845.5576    13152.745    11393.855    14013.357   -819.43443    -323.8311   -1120.0306 
  233500    295.02463   -3725.1377   -3219.4756   -3725.1377            0    12011.159     16.84823     19.84499    20.554802    6872.5588     11196.31    12028.391    12808.776   -476.04054   -878.26058    1099.1027 
  234000    301.83214   -3705.3591   -3188.0291   -3705.3591            0    12588.282    16.836483    19.831153     20.54047    6858.1935    13813.403    12334.497    11616.946    2309.4724     979.4921   -1421.5269 
  234500    292.95335   -3712.0018   -3209.8897   -3712.0018            0    12287.815    16.800214    19.788432    20.496221    6813.9665    11676.508    13685.049    11501.889    465.98973   -374.31402    683.94041 
  235000    299.36373   -3761.1757   -3248.0765   -3761.1757            0    14342.244    16.747548    19.726399     20.43197    6750.0857     13778.06    13766.511    15482.162    -351.2631   -1754.1534     1573.371 
  235500    295.85187   -3755.9346   -3248.8546   -3755.9346            0     15034.22    16.791402    19.778054    20.485471    6803.2507    13642.466    13958.121    17502.075    272.08516    262.34542    1398.5656 
  236000    296.06473   -3750.5135   -3243.0687   -3750.5135            0     12650.39    16.938777    19.951642    20.665269    6983.9602    12684.641    12769.633    12496.896    1288.4775    1731.9127    331.42711 
  236500    295.24353   -3765.8751   -3259.8378   -3765.8751            0    12559.866      16.8679    19.868158    20.578798    6896.6568    10691.501     13758.06    13230.035    428.41901    1590.1352   -329.12968 
  237000    295.57858   -3707.9076    -3201.296   -3707.9076            0    12569.969    16.801837    19.790345    20.498202    6815.9426    13639.148    12594.839    11475.921   -482.82375   -2887.2717    211.81021 
  237500    288.11484    -3728.449     -3234.63    -3728.449            0    12219.169    16.832599    19.826579    20.535732    6853.4486    11863.835    10772.665    14021.006    266.98709    2670.9318   -923.90349 
  238000     305.1938   -3711.0529   -3187.9612   -3711.0529            0    10337.766    16.859978    19.858827    20.569134    6886.9449    11186.906    11327.575    8498.8169   -596.93394   -1076.6915   -129.53562 
  238500    289.04428    -3701.513    -3206.101    -3701.513            0    11964.561    16.806303    19.795605     20.50365    6821.3781    11923.123    12653.332    11317.227    -765.8559    834.61358    199.07758 
  239000    295.46345   -3719.4877   -3213.0735   -3719.4877            0     12566.94    16.828742    19.822035    20.531025    6848.7375    12996.905    12194.244    12509.672    99.659134   -525.33608   -986.23384 
  239500    315.13081   -3707.4603   -3167.3369   -3707.4603            0    11721.807    16.854043    19.851837    20.561894    6879.6748     11662.49    10728.438    12774.494   -1837.5911   -2963.3105    273.54573 
  240000    279.90398   -3692.3603   -3212.6145   -3692.3603            0    11639.417    16.895535    19.900708    20.612513    6930.6096    12179.307     12169.95    10568.994   -87.546192    1376.8877   -278.49641 
  240500    304.92446   -3704.2499   -3181.6198   -3704.2499            0    12244.339    16.761144    19.742414    20.448557    6766.5388    12808.565    12041.835    11882.617    1325.9886   -745.09075    56.830121 
  241000    282.67892   -3693.4298   -3208.9278   -3693.4298            0    13002.326     16.75072    19.730135    20.435839    6753.9215    12000.292    15629.314    11377.373   -571.10164    148.43844    781.63712 
  241500    297.28111   -3680.5227    -3170.993   -3680.5227            0    12372.511    16.834597    19.828932    20.538169    6855.8888    13402.418    11609.458    12105.657   -893.38062   -230.22375   -591.62144 
  242000    310.40977   -3733.4323   -3201.4005   -3733.4323            0    11527.605    16.813019    19.803515    20.511843    6829.5591    10403.325     11102.94    13076.549    1428.7664   -788.73423    -1182.732 
  242500    314.63762   -3699.9723   -3160.6942   -3699.9723            0    12496.755    16.856846    19.855138    20.565313    6883.1072    10795.529    13303.623    13391.112   -169.63846   -1189.2014   -271.53072 
  243000    298.89562   -3681.0437   -3168.7468   -3681.0437            0    12738.124    16.886678    19.890276    20.601707    6919.7154    11529.475    12677.782    14007.117   -1565.7746    190.59953   -626.76207 
  243500    303.16275   -3711.1226   -3191.5121   -3711.1226            0    11378.592    16.855492    19.853544    20.563661    6881.4494    10685.957    12839.447    10610.371   -362.04116    888.70202    -2150.508 
  244000    315.60738   -3737.0126   -3196.0723   -3737.0126            0    11035.023    16.889058     19.89308    20.604612    6922.6424    9565.6642    10940.644    12598.761   -1316.4108   -205.16646   -226.40474 
  244500    306.61541   -3706.4357   -3180.9074   -3706.4357            0    11565.909    16.879936    19.882335    20.593483    6911.4314    11360.948    11451.231    11885.548    374.32712   -743.47005   -195.72276 
  245000    311.77315   -3723.4167   -3189.0482   -3723.4167            0    10504.346    16.923843    19.934052     20.64705    6965.5047    11175.152    9872.2279    10465.659   -1384.3935   -445.28201   -316.28727 
  245500    297.39668    -3716.197   -3206.4692    -3716.197            0    13323.795    16.803403    19.792189    20.500112    6817.8476    12777.165    13969.396    13224.825   -1027.5524   -1764.3392   -648.81122 
  246000    291.33806   -3740.6886   -3241.3451   -3740.6886            0    8575.6125     16.89425    19.899195    20.610946    6929.0286    9246.5025    9313.7308    7166.6042    2284.2678   -421.53166    721.72997 
  246500    314.19981   -3757.3976   -3218.8699   -3757.3976            0    11452.858    16.863171    19.862587    20.573029    6890.8578    9918.9685    12434.684    12004.921    -2045.205   -1577.9044    -185.8565 
  247000    280.90488   -3726.2647   -3244.8033   -3726.2647            0    10916.177    16.857068    19.855399    20.565583    6883.3793     8117.786    12521.548    12109.197   -38.064549   -171.39314   -866.60772 
  247500    284.50327   -3720.2577   -3232.6288   -3720.2577            0    12034.303    16.839653    19.834887    20.544338    6862.0682    12473.827     12097.62    11531.462   -670.79646    1177.8346    57.652277 
  248000    308.35579   -3745.0797   -3216.5684   -3745.0797            0    11645.618    16.839307    19.834479    20.543915    6861.6444    11205.384    12992.903    10738.568    1195.4586    946.92364    953.09971 
  248500    298.41606   -3807.5707   -3296.0958   -3807.5707            0    9701.9787    16.848829    19.845695    20.555532    6873.2915    8496.8269    10526.264    10082.845   -1534.4956    445.57104    190.56139 
  249000    278.80263   -3747.3533   -3269.4951   -3747.3533            0    11851.345    16.861873    19.861059    20.571446    6889.2674    12343.217    12390.038    10820.779   -2516.9245   -449.58777   -1304.1409 
  249500    312.51131   -3761.3935   -3225.7598   -3761.3935            0    12382.674    16.798859    19.786837    20.494569    6812.3185    13787.706    11176.585    12183.731   -2483.3426    745.56039   -366.16166 
  250000    317.09814   -3731.1211   -3187.6258   -3731.1211            0    11763.892    16.808459    19.798145    20.506281    6824.0043    11505.062     12908.66    10877.955   -1610.6543    -15.66449    -482.5412 
  250500    312.46306   -3760.2413   -3224.6903   -3760.2413            0    11894.891    16.832059    19.825942    20.535072    6852.7881    11944.609     10881.27    12858.793    -576.4259   -855.22189    121.95141 
  251000    299.10422   -3698.5796   -3185.9252   -3698.5796            0    12703.183    16.863716     19.86323    20.573694    6891.5267     14167.31    11788.842    12153.395    968.16932   -789.15421      993.394 
  251500    290.24029   -3740.9278   -3243.4659   -3740.9278            0    10576.586    16.891922    19.896453    20.608105    6926.1641    10767.326    6850.3047    14112.127   -939.26266    813.66032    1020.0142 
  252000    301.74202   -3784.7381   -3267.5626   -3784.7381            0     12232.06    16.847734    19.844405    20.554196    6871.9513    10359.478    14858.592     11478.11    3093.0768    736.99428      81.5579 
  252500    320.45724   -3746.2815   -3197.0288   -3746.2815            0    13087.401    16.819706    19.811392    20.520002    6837.7116    11146.968    14560.091    13555.143   -2265.4152   -162.53506    1390.0632 
  253000    312.83455   -3761.2924   -3225.1047   -3761.2924            0    9506.0177    16.884577    19.887801    20.599145    6917.1333     9778.454    5704.2243    13035.375    1179.5362    2237.3377    2426.6677 
  253500    327.43886   -3757.9501   -3196.7311   -3757.9501            0     11477.97    16.816884    19.808068    20.516559    6834.2702    11700.723    10860.986    11872.201    -1242.585   -1467.5559   -41.300573 
  254000    301.78356   -3705.5869   -3188.3402   -3705.5869            0    10801.388    16.875614    19.877245     20.58821     6906.124    11126.549    10105.868    11171.748   -155.01314   -1043.4063   -1038.7233 
  254500    303.78818   -3710.8867   -3190.2042   -3710.8867            0    11623.061    16.835132    19.829561    20.538821    6856.5418     12967.28    11965.166    9936.7369   -198.03814   -879.79285    262.85401 
  255000     306.1041   -3762.1344   -3237.4824   -3762.1344            0    11611.543    16.856261    19.854449    20.564599    6882.3904     10414.91    13200.503    11219.216    179.20964   -484.74649   -1072.5115 
  255500    291.72623   -3751.0293   -3251.0205   -3751.0293            0    11061.434    16.881083    19.883685    20.594881    6912.8394    11762.934    10681.881    10739.486   -1436.8085    1920.0681    2108.3502 
  256000    301.13359   -3668.6871   -3152.5544   -3668.6871            0    12350.643    16.815547    19.806493    20.514928    6832.6406    11870.478    11707.591     13473.86    -118.4774   -2546.0986    -66.46924 
  256500     316.2727   -3729.1402   -3187.0596   -3729.1402            0    11874.761    16.804561    19.793553    20.501525    6819.2579    10826.198    11782.002    13016.084   -561.74776   -2191.7042   -1139.1483 
  257000     308.6735   -3770.5834   -3241.5276   -3770.5834            0    10883.204    16.875937    19.877624    20.588603    6906.5195    11790.692    11457.511    9401.4108   -1147.6168    215.75095   -1208.7399 
  257500    305.01261   -3713.5523   -3190.7711   -3713.5523            0    13481.488     16.77055    19.753493    20.460032    6777.9367    13924.666    13922.954    12596.843    2015.1439   -928.42525    443.87831 
  258000    310.79181   -3737.1064   -3204.4199   -3737.1064            0    11273.761    16.869991    19.870621     20.58135    6899.2225    10567.308    10406.089    12847.887   -827.41411   -840.73978    927.66625 
  258500    302.21119   -3708.5576    -3190.578   -3708.5576            0    9890.8492    16.888492    19.892413    20.603921    6921.9464    8360.9683    10414.003    10897.576    510.30039   -793.73776    1302.6925 
  259000    298.20145   -3776.1885   -3265.0814   -3776.1885            0    11462.558    16.779612    19.764167    20.471088    6788.9305    10105.785    12404.613    11877.276   -353.40579   -989.96633   -196.65145 
  259500    308.26593   -3770.3696   -3242.0124   -3770.3696            0    11776.723    16.805865     19.79509    20.503117    6820.8458     13017.15    9463.5903    12849.429    434.84559    1072.5191   -342.14723 
  260000    296.80953   -3790.5365   -3281.8152   -3790.5365            0    13902.121      16.7552    19.735412    20.441305    6759.3421    13564.857    15385.237     12756.27   -665.35247    723.75101    865.49347 
  260500    303.31937   -3728.9759   -3209.0968   -3728.9759            0    13914.856     16.81353    19.804117    20.512467    6830.1821    14560.737    12928.088    14255.743   -1233.7322    696.63096   -371.86201 
  261000    288.94584   -3791.5276   -3296.2843   -3791.5276            0    11187.144    16.850054    19.847138    20.557027    6874.7907    12655.464    8977.2915    11928.676   -190.70873    1517.8348    -777.7659 
  261500    283.24898   -3749.9256   -3264.4465   -3749.9256            0    12176.796    16.827607    19.820698    20.529641     6847.352    12380.814    10465.776    13683.797   -1690.1993   -451.18314    738.76472 
  262000    302.75764   -3754.5704   -3235.6542   -3754.5704            0    12400.052    16.788606     19.77476     20.48206    6799.8527    12342.341    10253.434    14604.381   -568.07653    672.03337    792.76536 
  262500     312.7742   -3766.5834   -3230.4991   -3766.5834            0     10707.62     16.87127    19.872128     20.58291    6900.7922    10185.892    11763.896    10173.071   -1137.5207     208.8714   -551.91358 
  263000    301.00263   -3738.6278   -3222.7196   -3738.6278            0    13940.732    16.844742    19.840882    20.550546    6868.2913    16445.367    11753.604    13623.224    776.62776    1963.3844    1289.3918 
  263500    306.51695   -3725.8274   -3200.4678   -3725.8274            0    8462.0795    16.921834    19.931685    20.644598    6963.0239    7938.3829    9455.7339    7992.1215   -140.97297    1450.7469    -1096.203 
  264000    309.43786   -3742.1455   -3211.7796   -3742.1455            0    12501.421    16.817013     19.80822    20.516717     6834.428    11747.522    13129.899     12626.84   -1411.1983    897.23769    1503.5408 
  264500    297.63956   -3771.3684   -3261.2244   -3771.3684            0    9310.2353    16.863413    19.862873    20.573325    6891.1553    11261.046    8065.5116    8604.1485   -1051.4768    176.86239   -1131.0788 
  265000    290.95963   -3741.4774   -3242.7826   -3741.4774            0    10088.347     16.85682    19.855108    20.565281     6883.076    11540.325    8505.7328    10218.983   -210.34051   -55.783276    902.25983 
  265500    293.06331   -3754.3925    -3252.092   -3754.3925            0    13900.733    16.762724    19.744275    20.450484    6768.4521    15155.201    13207.836    13339.161    32.450651      279.779   -1086.8258 
  266000    307.73296   -3787.0722   -3259.6284   -3787.0722            0    10975.586    16.826845    19.819801    20.528712    6846.4224    11324.885    10511.203    11090.671    -1209.765   -1249.5872   -1375.6813 
  266500    305.45578   -3715.3289   -3191.7882   -3715.3289            0    11506.882    16.828786    19.822087    20.531079    6848.7915     9432.362    14517.017    10571.266    995.38185   -1387.2209   -1444.0093 
  267000    283.93818   -3731.2477   -3244.5874   -3731.2477            0    12971.009    16.858188    19.856719     20.56695     6884.752     13278.23     13917.71    11717.089   -811.80783    1984.8715    1382.4604 
  267500     306.1595   -3731.5775   -3206.8306   -3731.5775            0    11171.213    16.855612    19.853685    20.563808    6881.5964     12604.38    8759.0302    12150.227    -627.2149    178.88665   -104.27679 
  268000    304.22335     -3743.73   -3222.3016     -3743.73            0    12752.429    16.905982    19.913014    20.625259    6943.4742    15549.637    12528.819    10178.831   -1909.0903    735.77444   -357.25642 
  268500    288.33132   -3748.9933   -3254.8033   -3748.9933            0    12394.958    16.895165    19.900273    20.612062    6930.1548    13165.986    12344.768    11674.119    1240.7691    574.62643   -191.15707 
  269000     297.7206   -3708.7911   -3198.5082   -3708.7911            0    12790.959    16.831988    19.825858    20.534986    6852.7017    12010.892    12453.817    13908.169   -449.36806   -2236.1673    943.97612 
  269500    308.73932   -3708.9758   -3179.8072   -3708.9758            0    11641.247    16.859021    19.857699    20.567966    6885.7716    12200.986    11673.035    11049.719    527.74046    23.158928    1049.4363 
  270000    322.17456   -3727.9188   -3175.7226   -3727.9188            0    12512.857     16.86239    19.861668    20.572077    6889.9011    11219.818    11750.766    14567.985    592.64996    2313.0348   -851.13089 
  270500    314.39846   -3742.1311   -3203.2629   -3742.1311            0    11011.276    16.899112    19.904922    20.616877    6935.0122    9850.1634    10036.263    13147.402   -88.043092    488.98522   -1212.8416 
  271000    307.75368   -3726.0876   -3198.6083   -3726.0876            0    10028.341    16.827587    19.820675    20.529617    6847.3277    10081.112     9568.843    10435.069   -1355.3625    1635.3421   -1528.5447 
  271500    310.29948   -3732.8597    -3201.017   -3732.8597            0    12879.192    16.824041    19.816498    20.525291    6842.9999    12145.393    14943.355    11548.827    557.20695    1321.7115   -761.83402 
  272000    325.69108   -3728.5231   -3170.2998   -3728.5231            0    12596.143    16.817349    19.808615    20.517126    6834.8373    10990.402    15273.121    11524.905    2482.3564    31.012634    954.46737 
  272500    305.54659   -3715.3759   -3191.6795   -3715.3759            0    12733.351    16.855073    19.853049    20.563149    6880.9352    13269.998    12149.544    12780.511    556.41081   -1618.1973    395.36757 
  273000     290.9921   -3745.8657   -3247.1152   -3745.8657            0    11284.629    16.847438    19.844057    20.553835    6871.5892    10355.266     11313.63    12184.992   -631.78719    1059.4869    2243.4766 
  273500    316.89634   -3789.3413   -3246.1919   -3789.3413            0    11822.798    16.830953    19.824639    20.533723    6851.4376    12101.776    12334.154    11032.465   -303.76396    1330.5028    417.83183 
  274000     311.2281   -3719.3031   -3185.8688   -3719.3031            0    10326.359    16.875605    19.877234    20.588199    6906.1129    11134.412    11041.167    8803.4994   -1805.0588    162.48054   -653.66585 
  274500    305.61742   -3721.9554   -3198.1376   -3721.9554            0    12330.172    16.851101    19.848371    20.558304    6876.0721    11971.262    12899.327    12119.929   -13.646077   -713.35005   -1407.7379 
  275000    293.58686    -3739.628   -3236.4302    -3739.628            0    10546.638    16.898662    19.904392    20.616328    6934.4583    11528.567    8882.2251    11229.122   -176.96907   -672.79902    245.09837 
  275500    288.66724    -3717.857   -3223.0913    -3717.857            0    14594.146    16.807989    19.797591    20.505708    6823.4323    14490.896    13977.984    15313.556    621.41197   -667.63257    683.18498 
  276000    315.47437   -3706.5087   -3165.7964   -3706.5087            0    11712.198    16.871227    19.872077    20.582857    6900.7388    8486.2799    12835.212    13815.104   -401.94257    340.07296   -1810.2437 
  276500     286.3885   -3689.0667   -3198.2066   -3689.0667            0     16035.49    16.755728    19.736034    20.441949    6759.9809    14466.442    17123.414    16516.613    1147.8489   -626.49621     721.9873 
  277000    310.42167   -3715.9566   -3183.9044   -3715.9566            0    13247.396    16.780841    19.765614    20.472587     6790.422    13024.903    13345.159    13372.126   -877.60528   -1070.4199   -477.38406 
  277500    308.19167   -3717.1567   -3188.9267   -3717.1567            0    9739.7027    16.903358    19.909923    20.622057    6940.2412    8360.5002    8709.4471    12149.161   -2.4070414   -896.94927   -1932.2923 
  278000    306.44971   -3725.6023    -3200.358   -3725.6023            0    13298.072    16.779611    19.764166    20.471087    6788.9291    12655.244    12481.795    14757.178   -358.25795   -1012.4862   -455.64494 
  278500     288.5225   -3700.5444   -3206.0267   -3700.5444            0    9927.7233    16.938796    19.951664    20.665292    6983.9836    8362.1599    12521.853    8899.1569     277.6536    230.23985    1839.5239 
  279000    277.32894    -3696.451   -3221.1187    -3696.451            0    12723.554    16.775356    19.759154    20.465896    6783.7661    12942.067      14894.3    10334.295   -1114.2501   -1808.8186    390.60322 
  279500    294.70386   -3716.9872   -3211.8749   -3716.9872            0    10549.156     16.92697    19.937735    20.650864    6969.3656    11536.778    10629.871    9480.8191   -884.82984   -1252.4753   -1068.7601 
  280000     303.7049   -3718.1714   -3197.6316   -3718.1714            0    10099.061    16.873936    19.875267    20.586162    6904.0632    8651.9112    11977.585    9667.6878   -511.31296   -271.05414    494.50239 
  280500    299.83725   -3727.6043   -3213.6935   -3727.6043            0    11477.732    16.889347     19.89342    20.604964    6922.9975    11269.566    9227.6586    13935.972    315.98703    741.31686   -556.91419 
  281000    287.19621   -3689.4526   -3197.2081   -3689.4526            0    13276.702    16.832534    19.826502    20.535653    6853.3691    13124.614    11716.434    14989.059   -265.45043   -649.33408    -574.6981 
  281500    310.26408   -3708.5087   -3176.7266   -3708.5087            0    10752.233     16.87865    19.880821    20.591914     6909.852    11558.295    10477.696    10220.709    1243.4673   -606.10704    212.60332 
  282000    288.40312   -3701.6567   -3207.3436   -3701.6567            0    9973.6187    16.897397    19.902902    20.614785    6932.9015    11612.455    9670.8154    8637.5859   -2033.5961     322.9407   -528.49546 
  282500    292.64109   -3710.7338    -3209.157   -3710.7338            0    11673.782    16.900547    19.906612    20.618628    6936.7795    14180.109    10610.873    10230.365    1459.4043    89.209653    1424.2413 
  283000    289.57042   -3756.6095   -3260.2957   -3756.6095            0    12885.805    16.769061    19.751739    20.458215    6776.1316    13760.039    11643.045    13254.331    1265.3442    70.715466    196.04278 
  283500    285.46769   -3756.1516   -3266.8697   -3756.1516            0     11963.73    16.814956    19.805797    20.514206    6831.9198    11123.149     10735.71     14032.33    755.07218    1014.1376    192.20518 
  284000    295.57581   -3777.5746   -3270.9678   -3777.5746            0    12466.243    16.856978    19.855293    20.565473    6883.2687    13492.324    12099.879    11806.526   -610.59409   -1134.7801   -589.73949 
  284500    312.04121   -3719.2019   -3184.3739   -3719.2019            0    12953.854    16.816536    19.807658    20.516135    6833.8465    13519.957    12920.511    12421.093    1530.0497    -1036.778    311.05689 
  285000    287.73803   -3737.4827   -3244.3096   -3737.4827            0     10629.82    16.845659    19.841961    20.551665    6869.4127    10175.742    12206.304    9507.4138    1179.5324    1800.9933    464.21872 
  285500    297.65257   -3722.0155   -3211.8491   -3722.0155            0    10128.621    16.856823    19.855111    20.565285    6883.0795    8755.3285    10612.001    11018.533    474.34845    1313.4815    -2029.722 
  286000    283.23056   -3718.8952   -3233.4477   -3718.8952            0    12618.807    16.779501    19.764036    20.470952    6788.7957    14087.036    12553.704    11215.681   -633.63757   -842.33432    1716.7368 
  286500    307.17327   -3721.9563   -3195.4718   -3721.9563            0    12548.711    16.827788    19.820912    20.529862    6847.5733    15598.172     11687.63    10360.331    581.26146    1148.9542    190.94517 
  287000    306.48213   -3770.0602   -3244.7604   -3770.0602            0    11934.204    16.798594    19.786525    20.494245     6811.996    10162.228    11281.428    14358.956   -242.02948   -849.53469    508.56811 
  287500    311.89473   -3730.5834   -3196.0065   -3730.5834            0    13441.556    16.822292    19.814438    20.523157    6840.8662    13872.507    14720.096    11732.065    944.90258   -946.10464      1371.26 
  288000    268.88079   -3748.3917   -3287.5392   -3748.3917            0    12488.075    16.757246    19.737822      20.4438    6761.8183    10281.038    14741.822    12441.364   -347.57232   -114.88149   -1417.3168 
  288500    287.99259   -3763.2664   -3269.6569   -3763.2664            0    10298.367    16.805842    19.795063    20.503089    6820.8179    10819.883    8942.8622    11132.357    1065.2628   -531.99304     1069.311 
  289000    300.17822   -3695.6005   -3181.1053   -3695.6005            0    10197.816    16.849193    19.846124    20.555977    6873.7373    8878.9452    8827.2424    12887.261   -975.63239   -389.89017   -358.96546 
  289500    294.98679    -3711.613   -3206.0158    -3711.613            0    12717.095    16.851984    19.849411    20.559381    6877.1533    12404.854    12402.094    13344.336    166.26005   -1914.0368    94.328026 
  290000    305.46591   -3706.7196   -3183.1614   -3706.7196            0    13215.931    16.807599    19.797132    20.505232     6822.957    13047.482    15908.457    10691.853    1732.3707    468.40032    307.46142 
  290500    277.45931   -3707.1942   -3231.6385   -3707.1942            0     13282.25    16.846392    19.842824    20.552559    6870.3092     13172.83    13537.624    13136.296    1002.7186   -684.19924    1997.0606 
  291000     311.1748   -3722.1755   -3188.8326   -3722.1755            0    11292.078    16.855367    19.853396    20.563509    6881.2963    12061.044    10892.634    10922.556    672.15807    1122.4391   -235.46127 
  291500    299.44517   -3717.4513   -3204.2126   -3717.4513            0    12670.711    16.830798    19.824457    20.533534    6851.2486    13882.774    13277.636    10851.723    1906.3997    1251.3237    128.55998 
  292000    300.56915   -3735.2985   -3220.1332   -3735.2985            0    13394.433    16.781469    19.766354    20.473353    6791.1842    12457.595    13070.887    14654.816   -658.46994    2310.7244    428.97032 
  292500     305.7979   -3761.6396   -3237.5125   -3761.6396            0    11455.853    16.824475    19.817009     20.52582    6843.5292    11591.412    10426.384    12349.764    799.27957    271.88346   -326.70362 
  293000    281.22641   -3753.3067   -3271.2942   -3753.3067            0    13612.836    16.732895     19.70914    20.414093    6732.3836    13456.922    11454.665    15926.921    1864.9584    939.38002    1910.2445 
  293500    300.50192    -3670.672    -3155.622    -3670.672            0    12353.021    16.776688    19.760722     20.46752    6785.3812    10928.404    13350.748    12779.909   -1773.9805    367.31405    2500.9507 
  294000     287.3634   -3737.8735   -3245.3424   -3737.8735            0    10823.395    16.896935    19.902358    20.614222    6932.3331    11272.844    10482.275    10715.068   -489.41592   -632.12651     114.8048 
  294500    301.35629   -3700.2913    -3183.777   -3700.2913            0    12106.679    16.883391    19.886405    20.597698    6915.6762    12690.824    12546.013    11083.201    1053.8842   -1301.3901    577.88934 
  295000    297.93816   -3715.8842   -3205.2284   -3715.8842            0     11234.01    16.928534    19.939578    20.652773    6971.2984    12722.868    11366.319    9612.8444    942.48738   -744.24555    621.37806 
  295500    303.69611   -3717.2888    -3196.764   -3717.2888            0    12640.339    16.945232    19.959245    20.673143    6991.9469     10755.27    12713.459    14452.288    1323.9556   -273.40434    864.02323 
  296000     296.0034   -3712.2757    -3204.936   -3712.2757            0    11375.062    16.840699    19.836119    20.545613    6863.3462    12511.925    10361.459    11251.802    175.20256    1064.5582    61.602971 
  296500    284.46947   -3732.2482   -3244.6773   -3732.2482            0     11622.75    16.888229    19.892103      20.6036    6921.6227    11063.143    12086.792    11718.317    924.97305    288.86461   -685.12342 
  297000    296.93138   -3722.9753    -3214.045   -3722.9753            0    11097.113    16.841225    19.836738    20.546255    6863.9891    13028.965    10919.906    9342.4676    -1.164842     1222.049   -747.77753 
  297500    305.80804   -3697.8005    -3173.656   -3697.8005            0    12879.633     16.84639    19.842822    20.552556    6870.3069    11091.701    14970.296      12576.9    1382.3663    297.49817    613.53832 
  298000    304.74961   -3687.8339   -3165.5035   -3687.8339            0    13708.691    16.736737    19.713665     20.41878    6737.0215    14667.501    14309.102    12149.469   -1391.7467    1782.8864    2658.0098 
  298500    307.04517   -3704.1766   -3177.9117   -3704.1766            0    9770.3562    16.850796    19.848012    20.557932    6875.6987    8980.1868    9740.2808    10590.601    491.50087   -2238.5549   -563.40235 
  299000    296.93716   -3698.0478   -3189.1077   -3698.0478            0    11810.976     16.81134    19.801538    20.509796    6827.5143    10631.399    11436.383    13365.145    2244.7934   -682.81583   -879.77918 
  299500    281.06803   -3686.6838   -3204.9428   -3686.6838            0    13115.075    16.790127    19.776551    20.483915    6801.7004    11453.196    15034.745    12857.285    1118.0037   -30.817699   -740.01877 
  300000     315.6013   -3749.8036   -3208.8737   -3749.8036            0    12371.683    16.877462    19.879421    20.590464    6908.3923    13218.614    11532.776    12363.659   -861.23086   -1539.9587   -1817.8058 
  300500    289.71733    -3738.768   -3242.2024    -3738.768            0    12655.433    16.798931    19.786922    20.494657    6812.4065    11421.861    13572.293    12972.144   -678.70113   -836.56683   -1542.5413 
  301000    295.73048    -3750.276    -3243.404    -3750.276            0    13542.836    16.785825    19.771485    20.478667     6796.474    13823.854    15371.566    11433.089   -2113.4119    750.46758    114.83995 
  301500    299.74351   -3711.4249   -3197.6748   -3711.4249            0    13297.868    16.799038    19.787048    20.494787     6812.536    14162.296    12092.022    13639.284    210.93019   -405.46114    291.93276 
  302000    294.98628   -3718.6819   -3213.0855   -3718.6819            0    11601.588    16.839431    19.834625    20.544066    6861.7963    12194.264    11781.396    10829.102   -15.750606   -578.29527    1960.6751 
  302500    279.33362    -3700.336   -3221.5678    -3700.336            0    8961.3438    16.888027    19.891865    20.603354    6921.3744    8137.5462     9987.137    8759.3482   -117.86904    169.36651   -730.21488 
  303000    308.90155   -3718.8337    -3189.387   -3718.8337            0    11613.412    16.836098    19.830699        20.54    6857.7226    12661.498    8589.8354    13588.902    40.605894   -722.97383   -210.73128 
  303500    309.00437   -3736.5112   -3206.8883   -3736.5112            0    11952.095     16.89154    19.896003    20.607639    6925.6945    10925.043    11147.158    13784.085   -665.69186   -719.23702   -112.76204 
  304000    300.78575   -3743.5796   -3228.0431   -3743.5796            0    12477.928    16.867528    19.867721    20.578345    6896.2016    10050.004    14026.972    13356.809   -112.90812   -133.09665    129.87059 
  304500     304.1023   -3702.2614   -3181.0405   -3702.2614            0    11082.374    16.880801    19.883353    20.594537     6912.493    12174.317    11684.817    9387.9865   -1394.3894    559.04482   -543.41866 
  305000     297.2915    -3721.257   -3211.7095    -3721.257            0    11178.705    16.853398    19.851076    20.561106    6878.8841    9665.4966    10108.263    13762.356   -2.8231958    817.42594   -1555.1069 
  305500    304.83013   -3769.0654    -3246.597   -3769.0654            0    12059.359    16.871588    19.872502    20.583298    6901.1815    12089.479    10889.095    13199.504   -1748.8185   -2605.9568    493.23419 
  306000      312.736   -3779.2258    -3243.207   -3779.2258            0    13324.665    16.817102    19.808324    20.516825    6834.5359    12125.647    14224.879    13623.468   -673.95773    486.05434    788.72043 
  306500    299.65216   -3741.8122   -3228.2187   -3741.8122            0    11798.579    16.833742    19.827925    20.537126    6854.8445    9607.1405    12110.953    13677.642   -452.36639    798.94163    135.14787 
  307000    296.82852   -3721.4218   -3212.6679   -3721.4218            0    11964.647    16.848681    19.845521    20.555351    6873.1102    12122.066    11314.435     12457.44   -782.76795    1112.9899    125.49968 
  307500     303.6147   -3752.2149   -3231.8297   -3752.2149            0    10921.359    16.826604    19.819517    20.528418    6846.1285    11589.289    10292.861    10881.925    2656.7131    26.737611   -737.53109 
  308000    296.62321   -3719.6172   -3211.2152   -3719.6172            0    12875.061    16.847417    19.844032     20.55381    6871.5641    11503.686    11913.559    15207.939   -1220.8189   -438.10168    843.55372 
  308500    305.34104   -3711.5384   -3188.1943   -3711.5384            0    14043.703    16.777361    19.761515    20.468341    6786.1978    14268.598    11496.115    16366.396   -1189.0124    138.63024   -27.405933 
  309000    302.95265   -3715.4735    -3196.223   -3715.4735            0    13797.444    16.772277    19.755526    20.462138    6780.0303    15084.859    12148.034    14159.438   -1461.0728   -227.52169   -15.300967 
  309500     282.3712   -3719.2676    -3235.293   -3719.2676            0    11786.561     16.92098     19.93068    20.643556      6961.97    12741.269    10918.548    11699.867     637.7734   -1057.6654   -651.65759 
  310000    306.79974    -3735.883   -3210.0388    -3735.883            0    10805.071    16.951759    19.966933    20.681107    7000.0301    11656.308    10383.641    10375.265    787.65533    507.32973    267.34271 
  310500    315.31325   -3706.1594   -3165.7232   -3706.1594            0    11103.923    16.894884    19.899942    20.611719    6929.8086    13046.054     12151.17    8114.5452   -304.07393   -602.49705    729.21497 
  311000    289.69081   -3724.7575   -3228.2373   -3724.7575            0    11058.282    16.862852    19.862213     20.57264    6890.4676    12594.075    10388.888    10191.883   -170.05794   -2022.5395   -750.24004 
  311500    289.38584   -3731.1558   -3235.1583   -3731.1558            0    10787.032     16.82787    19.821008    20.529963    6847.6738     10705.77    12183.455    9471.8696   -1347.5607   -1317.6103   -1658.6753 
  312000    306.55963   -3723.4803   -3198.0476   -3723.4803            0    12393.407    16.841008    19.836483    20.545991    6863.7245    10648.114    14083.217    12448.889   -783.71084    236.52598   -956.96462 
  312500    271.71644   -3701.4265   -3235.7138   -3701.4265            0    11343.233    16.843646     19.83959    20.549208      6866.95    13225.525    11356.638    9447.5365    -68.17899    116.62832   -368.38989 
  313000    304.85949   -3710.7971   -3188.2784   -3710.7971            0    14831.406    16.753353    19.733237    20.439051    6757.1071    14574.737    14689.884    15229.598   -394.72709   -0.4994103   -1632.8336 
  313500    289.04666   -3728.4173   -3233.0012   -3728.4173            0    13825.397    16.856716    19.854985    20.565154    6882.9484    13449.434    12993.693    15033.064    1290.9132   -499.89897    432.43553 
  314000    306.96983   -3726.9084   -3200.7726   -3726.9084            0     13892.99    16.864566    19.864231    20.574731    6892.5688    14598.499    14178.043    12902.427    84.162824   -954.15512    -1154.486 
  314500     287.5931   -3731.2431   -3238.3184   -3731.2431            0    11685.342    16.891528    19.895989    20.607625    6925.6799    11066.992    12676.694    11312.338    669.17105   -1156.8156   -1735.5939 
  315000    297.64459   -3733.3434   -3223.1908   -3733.3434            0    11896.106    16.895586    19.900768    20.612575    6930.6721    11464.575    14652.746    9570.9982   -636.67968    1819.8638   -1166.4887 
  315500     317.0895   -3721.1911   -3177.7105   -3721.1911            0    12257.585    16.804691    19.793707    20.501684    6819.4163     12529.67    12960.246    11282.838   -1558.5435    2322.2882    452.38215 
  316000    305.94778   -3699.2436   -3174.8595   -3699.2436            0     12746.74    16.896707    19.902089    20.613943    6932.0519    13873.732    11584.846     12781.64    112.43426    857.86142    219.03668 
  316500    291.93772   -3706.9723   -3206.6011   -3706.9723            0    12793.037    16.860412    19.859339    20.569664     6887.477    16135.517    13074.202     9169.392   -682.95753    143.53838   -419.92681 
  317000    281.84108   -3718.4544   -3235.3884   -3718.4544            0    11683.298    16.820959    19.812868    20.521531    6839.2399    12501.452    13717.189    8831.2531    81.247634    156.62421    194.10581 
  317500    283.13343   -3722.9071   -3237.6261   -3722.9071            0    12826.893    16.768562    19.751151    20.457606    6775.5265    13291.756    13854.171    11334.752   -1101.5235   -712.92556   -1296.2998 
  318000    315.56383   -3784.2195   -3243.3539   -3784.2195            0    11266.066    16.815148    19.806023    20.514441    6832.1544    12349.489    10432.783    11015.928    500.81197   -501.51121   -1504.7961 
  318500    300.31237    -3764.691   -3249.9659    -3764.691            0    10922.343    16.852894    19.850483    20.560491    6878.2676    11985.412    10138.934    10642.682   -34.067607    2426.0983   -1404.8176 
  319000     297.2023   -3701.4637   -3192.0691   -3701.4637            0      12730.8    16.809339    19.799182    20.507355    6825.0766    12027.711    14923.093    11241.595   -160.95521    -524.1896    1250.7358 
  319500    301.56973   -3741.4831   -3224.6029   -3741.4831            0    13100.774    16.802053    19.790599    20.498466    6816.2053    12670.817    14578.635    12052.871    283.34097   -36.126379   -281.31567 
  320000    292.86917   -3733.4738   -3231.5061   -3733.4738            0    10130.434      16.9473     19.96168    20.675666     6994.507    11013.929    9690.0772    9687.2957    1827.1276   -1.2411251   -764.41704 
  320500    297.16345   -3739.0298   -3229.7018   -3739.0298            0    12863.158    16.808029    19.797638    20.505756    6823.4804    10599.471     14769.95    13220.054   -464.01379   -509.31988   -363.09203 
  321000     281.6048   -3763.7195   -3281.0585   -3763.7195            0    10368.717     16.81919    19.810784    20.519372     6837.082    11741.682    9730.3231    9634.1449    175.66983   -965.41331   -419.70525 
  321500    291.03879   -3754.7969   -3255.9663   -3754.7969            0    9258.6377    16.839425    19.834618    20.544059    6861.7889    7932.0351    9056.6535    10787.225   -155.64721    234.77345    -258.2001 
  322000    296.84989   -3724.5971   -3215.8065   -3724.5971            0    10866.199    16.851085    19.848353    20.558285     6876.053    9558.0621    11304.182    11736.351   -1124.2586   -1091.8474    306.92867 
  322500    289.10391   -3709.0361   -3213.5219   -3709.0361            0     12905.68    16.767707    19.750144    20.456563    6774.4897    14323.889    10531.957    13861.194   -988.90999    750.68941   -1163.4199 
  323000    303.92926   -3700.9343     -3180.01   -3700.9343            0    14094.075    16.754738    19.734868    20.440741    6758.7826    14268.316     13037.38    14976.529   -842.11665    215.25929   -226.33047 
  323500    291.87304   -3709.7699   -3209.5095   -3709.7699            0    13472.343    16.787409     19.77335    20.480599    6798.3979     11185.59    14477.845    14753.594     820.9268    803.61698    202.77313 
  324000    290.42845    -3745.703   -3247.9186    -3745.703            0    12377.864    16.768308    19.750852    20.457297    6775.2191    11940.316        14168    11025.276   -1248.6189    156.06603   -503.07218 
  324500    305.60501   -3720.5575    -3196.761   -3720.5575            0    12361.741    16.786158    19.771877    20.479074    6796.8786    10804.309     12420.58    13860.333     853.6467    1134.3497   -402.51215 
  325000    285.30406   -3681.5178   -3192.5164   -3681.5178            0    14007.594    16.749044    19.728162    20.433795    6751.8952    13095.972    11046.826    17879.982    1211.2955    26.498509    353.08637 
  325500    293.90857   -3731.0286   -3227.2794   -3731.0286            0    12614.474    16.891378    19.895812    20.607441    6925.4948    14538.738     11623.05    11681.633   -565.47839   -2207.7686   -216.69787 
  326000    287.59995   -3734.4885    -3241.552   -3734.4885            0    11823.042    16.831287    19.825032     20.53413     6851.845    13397.969    11186.231    10884.924    674.07507    1298.1636   -1073.3561 
  326500    291.45841   -3719.3733   -3219.8236   -3719.3733            0    13111.788    16.787339    19.773268    20.480515    6798.3134    12796.132    12654.528    13884.704    -142.5982   -1513.0166    362.71016 
  327000    295.34593   -3703.7623   -3197.5494   -3703.7623            0    13282.868    16.817784    19.809128    20.517657    6835.3682    11724.188    11583.544    16540.872   -107.15829   -1703.1931    413.61591 
  327500    296.48083   -3765.4489   -3257.2909   -3765.4489            0    9245.0844    16.835243    19.829693    20.538958    6856.6785    10249.804    8400.2778    9085.1713   -372.38614    404.44287   -653.15189 
  328000    315.73512    -3695.603   -3154.4438    -3695.603            0    14401.101    16.713859    19.686718    20.390869    6709.4326    17368.098     12120.21    13714.997   -826.10042   -267.52443      97.0286 
  328500    302.27761   -3702.4497   -3184.3562   -3702.4497            0    12854.478      16.8432    19.839065    20.548665    6866.4051    14895.685    12963.599    10704.151    793.04956   -398.05858   -1141.5494 
  329000     299.8916   -3682.8116   -3168.8077   -3682.8116            0    12780.451    16.747074    19.725841    20.431391    6749.5128    12848.866    12970.973    12521.514   -745.34732    357.00069    578.41241 
  329500    299.03705   -3759.4314   -3246.8921   -3759.4314            0    10712.804    16.843992    19.839998    20.549631    6867.3741    9947.3831    10106.861    12084.169   -214.08088     801.7632   -673.95325 
  330000    305.30675   -3754.8562   -3231.5709   -3754.8562            0    12911.393    16.796033    19.783509    20.491121    6808.8815    11762.591    14804.203    12167.384    153.83113    667.19526    699.70615 
  330500    298.69207   -3717.7034   -3205.7554   -3717.7034            0    14179.483    16.732393    19.708549    20.413481    6731.7779    14418.591    13501.054    14618.804    1607.6526    460.42937    -509.1957 
  331000    299.98863   -3756.9662    -3242.796   -3756.9662            0    14044.043     16.73369    19.710076    20.415062    6733.3427     12106.71    14469.873    15555.546     2613.601    237.53022    3.8835821 
  331500    289.79516   -3710.6454   -3213.9464   -3710.6454            0    11283.344    16.835286    19.829743     20.53901    6856.7306    10941.867    12744.184    10163.979   -1029.1501    1090.7629    -748.1146 
  332000    303.10208   -3671.1976   -3151.6911   -3671.1976            0    15087.267    16.756257    19.736658    20.442595    6760.6222    16894.948    14321.281    14045.572    1720.2258    1703.9859   -1210.5398 
  332500    305.98629   -3685.4789   -3161.0289   -3685.4789            0    12224.643    16.859776    19.858589    20.568888    6886.6975    11465.907    14487.925    10720.098    -469.2389    1086.7243    319.32657 
  333000    297.39211   -3702.3766   -3192.6568   -3702.3766            0    12102.291    16.805073    19.794157     20.50215    6819.8813    11614.208    11033.363    13659.302   -344.49515   -2317.3784    1156.6443 
  333500     317.6244   -3704.6329   -3160.2355   -3704.6329            0     12303.98     16.86867    19.869065    20.579738    6897.6022    11488.594    11702.278    13721.067   -602.62959    -900.6415   -61.879555 
  334000    311.50923   -3721.8456   -3187.9294   -3721.8456            0     12671.55    16.808404     19.79808    20.506214    6823.9373    14455.534    11029.912    12529.204    292.39225    267.66622   -983.34256 
  334500    296.65175   -3719.6094   -3211.1585   -3719.6094            0    13274.544    16.820986      19.8129    20.521564    6839.2733    15394.564    14935.582    9493.4855    1849.6066    303.52768    854.28792 
  335000    296.97068   -3740.6742   -3231.6767   -3740.6742            0    11137.867    16.858913    19.857573    20.567835    6885.6399    11774.545    10502.162    11136.893   -867.44191   -1543.7853   -37.009446 
  335500    320.32805   -3727.0245   -3177.9932   -3727.0245            0    10436.405    16.891766    19.896269    20.607914    6925.9718    10276.423    11821.111      9211.68    463.20733    1384.1902   -701.46588 
  336000    324.05401   -3719.7134   -3164.2959   -3719.7134            0    9759.5212    16.920314    19.929894    20.642743     6961.147    8063.9313    11286.537    9928.0952    -411.1092   -995.46406   -79.244955 
  336500    300.16499   -3750.3289   -3235.8564   -3750.3289            0    11971.828    16.847542    19.844179    20.553962    6871.7168    13606.849    11191.927    11116.708    209.28973    1168.5717    809.78252 
  337000    311.42811   -3734.5965   -3200.8193   -3734.5965            0    13509.605    16.827296    19.820332    20.529262    6846.9728    12902.159    13915.831    13710.826   -2790.0327   -298.78819   -425.88205 
  337500    296.96536   -3701.3231   -3192.3346   -3701.3231            0    10589.978    16.913429    19.921786    20.634344     6952.654    10448.788     10023.32    11297.826   -472.30101   -1190.5581    280.47582 
  338000    267.47582   -3721.6138   -3263.1695   -3721.6138            0    10342.247    16.881011    19.883601    20.594794    6912.7518    11791.241    10456.937    8778.5645   -491.11205   -839.28256   -40.701964 
  338500    309.22303   -3728.4114   -3198.4137   -3728.4114            0    14126.023    16.810458      19.8005     20.50872    6826.4398    15271.471    12192.296    14914.302   -1747.1162   -1195.9038    1362.4016 
  339000    299.84792   -3680.0852   -3166.1561   -3680.0852            0    12858.807    16.844977    19.841158    20.550832    6868.5782    12811.408    12095.389    13669.624   -197.73872   -239.33632    347.66692 
  339500     290.1785   -3742.6225   -3245.2665   -3742.6225            0    9821.0105    16.935971    19.948337    20.661846    6980.4903    9280.2829    10154.496    10028.252    213.52718     670.9639    66.809171 
  340000    304.59363   -3699.6099   -3177.5468   -3699.6099            0    11004.764    16.902569    19.908993    20.621094    6939.2689    10687.031    8753.3735    13573.888    9.6787065   -121.76502   -135.01082 
  340500    289.12853   -3649.6476   -3154.0912   -3649.6476            0    10379.271    16.884844    19.888115     20.59947     6917.461    9638.8201    11376.344     10122.65    1245.5022   -1022.3512    1283.5743 
  341000    299.01255   -3689.4579   -3176.9607   -3689.4579            0    13310.898    16.814069    19.804752    20.513124    6830.8388    11289.971    15326.643     13316.08   -36.411457   -625.29763    847.86951 
  341500    305.93379   -3748.3818   -3224.0218   -3748.3818            0    13110.481    16.817422    19.808701    20.517215    6834.9264    13339.559    12915.165     13076.72    103.21597    1683.2133   -622.82887 
  342000    289.25695    -3728.625   -3232.8485    -3728.625            0    11930.832    16.825433    19.818138    20.526989    6844.6992    11336.524    11358.031     13097.94    891.61543    16.005235    583.03511 
  342500    295.85788   -3753.0017   -3245.9114   -3753.0017            0    11784.088    16.825566    19.818295    20.527152    6844.8615     10412.33    12820.856    12119.078     268.6873   -778.88567    1105.1001 
  343000     286.2149   -3708.6428   -3218.0802   -3708.6428            0    11760.717    16.835213    19.829657    20.538921    6856.6416    9988.3143     11771.35    13522.486   -592.90359   -23.047736    332.55653 
  343500     303.3558   -3732.7423   -3212.8008   -3732.7423            0    14201.568    16.768644    19.751248    20.457707    6775.6261    13099.927    13670.354    15834.421    158.83202    677.15022      260.094 
  344000    298.17701   -3709.2602    -3198.195   -3709.2602            0    12525.407    16.848737    19.845587     20.55542    6873.1793    14435.939    12482.942    10657.339    1499.5948   -293.32978    882.36044 
  344500    291.67248   -3706.6872   -3206.7706   -3706.6872            0    12968.789    16.803274    19.792037    20.499955    6817.6905    10985.104     13725.92    14195.343    435.02859   -849.81055   -2428.7049 
  345000    288.01427   -3687.0125   -3193.3659   -3687.0125            0    14659.526    16.790686     19.77721    20.484598    6802.3802    17098.842    13009.242    13870.492    514.39019   -1107.1339   -110.13051 
  345500    290.37941   -3724.5346   -3226.8343   -3724.5346            0    13484.992    16.825779    19.818546    20.527411    6845.1214    13530.436    12164.667    14759.871   -694.02151   -433.82266   -695.46398 
  346000    283.79881   -3704.9603   -3218.5389   -3704.9603            0    12201.791    16.815826    19.806822    20.515268    6832.9807    12479.101    12314.177    11812.095   -1692.1286   -559.34556    927.66617 
  346500    302.36112   -3768.1075   -3249.8709   -3768.1075            0    12498.274    16.844612    19.840728    20.550387    6868.1319    11362.703    14346.781    11785.336    -213.5808    904.81893    434.13112 
  347000    311.35629   -3737.0035   -3203.3494   -3737.0035            0     13581.16     16.79784    19.785637    20.493325    6811.0788    13580.221    13867.891    13295.367   -161.11789    1465.1622    404.06228 
  347500    299.01631    -3710.392   -3197.8883    -3710.392            0    11095.772    16.869041    19.869502     20.58019    6898.0566    12132.373     9965.917    11189.026      1627.06   -29.127761    924.08456 
  348000    281.80713   -3728.9898    -3245.982   -3728.9898            0    12991.252    16.808024    19.797632     20.50575    6823.4748    13492.803    12403.492    13077.462   -605.60079    289.21798   -313.17667 
  348500     284.4122   -3716.3241   -3228.8513   -3716.3241            0    11080.678    16.853049    19.850665     20.56068    6878.4567    11763.425    10244.133    11234.476    -1037.405    386.05899    601.93143 
  349000    285.08771   -3719.0489   -3230.4183   -3719.0489            0    12567.954    16.817544    19.808845    20.517364     6835.075    12241.606    12055.297    13406.959    739.84357   -910.09986    217.90584 
  349500    300.33553   -3655.8116   -3141.0468   -3655.8116            0    14506.535    16.830188    19.823738     20.53279    6850.5031    13452.853    15203.404    14863.347   -528.67643    50.130966    214.74358 
  350000    304.95283   -3684.2365   -3161.5578   -3684.2365            0    10472.953    16.827501    19.820573    20.529512    6847.2226    9737.8683    11682.396    9998.5948   -962.58288    -1278.708   -1413.9792 
  350500    298.75808    -3685.318   -3173.2569    -3685.318            0    12445.631     16.83339    19.827509    20.536696    6854.4138    11785.318    12890.036    12661.539     1650.533    1179.1365    1458.1252 
  351000    288.46595   -3684.6124   -3190.1916   -3684.6124            0    12601.017    16.862581    19.861893     20.57231    6890.1352    12794.819    12718.805    12289.428   -1151.6032    1604.6238    1542.5143 
  351500    298.17245   -3706.2508   -3195.1934   -3706.2508            0    11774.299    16.867931    19.868195    20.578837    6896.6957    10682.418    9005.6464    15634.832    606.79619   -1773.3967    539.94371 
  352000    316.92879   -3739.8216   -3196.6165   -3739.8216            0    9892.9015    16.937224    19.949813    20.663374    6982.0393    9447.2267    8901.8485    11329.629    561.06758   -258.56396    711.85608 
  352500     306.5446   -3757.9801   -3232.5732   -3757.9801            0    12110.743    16.849456    19.846433    20.556297    6874.0587    13060.258    11242.449    12029.524   -408.21156    -712.9613   -2000.1946 
  353000    290.91163   -3751.4708   -3252.8582   -3751.4708            0    11025.127    16.928034    19.938988    20.652162    6970.6799    10671.596    11147.175    11256.611   -569.81007   -622.84897    116.08837 
  353500    292.64485    -3754.256   -3252.6727    -3754.256            0    13292.047    16.768207    19.750733    20.457174    6775.0964    13846.939    14215.692    11813.511   -1576.0341    -164.3028   -2674.9218 
  354000    295.66777   -3736.8612   -3230.0967   -3736.8612            0     12344.11    16.848857    19.845728    20.555566    6873.3257    14091.717    9394.2245    13546.388   -563.18141    787.01997   -995.91935 
  354500    306.13127   -3703.8858   -3179.1873   -3703.8858            0    13643.539    16.786358    19.772113    20.479318     6797.122    14452.257    13782.253    12696.108   -366.61888    1058.9115    425.28121 
  355000    307.33105   -3737.5579    -3210.803   -3737.5579            0    11550.987    16.846823    19.843332    20.553084    6870.8365    10704.672    10742.755    13205.534   -262.87537   -693.81983   -271.36386 
  355500    291.31465   -3741.4902   -3242.1868   -3741.4902            0    11327.522    16.876987    19.878862    20.589885    6907.8094    13987.968    11491.692    8502.9071    340.75043    1602.7153    176.36163 
  356000    305.38669   -3693.5683    -3170.146   -3693.5683            0    14380.066    16.754479    19.734564    20.440426    6758.4703    15445.584    15858.406    11836.209   -1988.0851    1817.5273   -1276.1572 
  356500    309.42393    -3731.137    -3200.795    -3731.137            0    13474.285    16.763635    19.745348    20.451596    6769.5561    10844.558    17565.532    12012.763   -2.4284086   -846.95823    -612.7902 
  357000    297.32467   -3691.1257   -3181.5214   -3691.1257            0    11703.033    16.850125    19.847222    20.557114    6874.8781    10142.206    12388.857    12578.034   -270.71739    297.10643   -818.36114 
  357500    313.00819    -3672.487   -3136.0017    -3672.487            0    11226.453    16.818192    19.809608    20.518154     6835.865    10222.352    11434.383    12022.624    1049.5102   -255.28222   -313.33817 
  358000    295.74229   -3706.8493   -3199.9572   -3706.8493            0    12797.214    16.771556    19.754677    20.461259    6779.1563    10965.253    14756.826    12669.564   -906.15204    106.27714    1393.8358 
  358500    298.15617   -3739.0938   -3228.0643   -3739.0938            0    12157.743    16.843792    19.839762    20.549387    6867.1293    13298.798        12917     10257.43    809.39062   -324.88129   -1622.2114 
  359000     285.5111   -3732.6306   -3243.2744   -3732.6306            0    12233.881    16.799035    19.787044    20.494784    6812.5328    12846.704    13157.225    10697.712   -327.87605     250.5143    1707.5028 
  359500    294.86647   -3705.5641   -3200.1731   -3705.5641            0    12587.108    16.852413    19.849916    20.559904    6877.6784    12655.526    12894.435    12211.363    411.73215    598.52813   -1504.6681 
  360000    292.31782   -3725.6327   -3224.6099   -3725.6327            0    12115.912    16.858559    19.857156    20.567403    6885.2061    10953.328    13268.548    12125.861   -1219.7284   -62.761421    323.84304 
  360500    298.21612   -3722.4133   -3211.2811   -3722.4133            0    12259.356    16.866468    19.866471    20.577051    6894.9004    13278.561    11321.804    12177.704   -2629.9734   -1463.9555   -256.57237 
  361000    307.40215   -3741.1709   -3214.2941   -3741.1709            0     10383.69    16.829049    19.822397      20.5314    6849.1127    12247.004     8843.465      10060.6    796.83922   -1920.1781    366.31915 
  361500    291.42629    -3721.227   -3221.7323    -3721.227            0    11331.282      16.8567    19.854966    20.565134    6882.9283    13840.975    9102.0913     11050.78    727.68527   -951.81242   -771.30752 
  362000    298.74798   -3760.9938     -3248.95   -3760.9938            0    12370.823    16.842187    19.837872    20.547429    6865.1662    12377.673    13414.611    11320.185   -1714.6547    1374.6949   -517.44359 
  362500    296.53014   -3737.8696   -3229.6271   -3737.8696            0    9303.1404    16.912529    19.920725    20.633246    6951.5438    10052.896    9863.0056    7993.5194    158.61564   -863.01864   -12.929808 
  363000    316.98533   -3723.8177   -3180.5156   -3723.8177            0    12641.931    16.838594     19.83364    20.543045    6860.7734     9603.526    13585.495    14736.773    791.82485   -662.80463   -760.76617 
  363500     307.8378   -3695.7184   -3168.0949   -3695.7184            0    10932.226    16.854445     19.85231    20.562384    6880.1672    13320.954    9022.7907    10452.933   -417.14712    -204.6492    1239.8155 
  364000    293.80792   -3692.0522   -3188.4755   -3692.0522            0    12148.529    16.826476    19.819366    20.528261    6845.9713     9024.477    13914.563    13506.546   -720.64881   -42.754026    306.22616 
  364500    298.22147    -3730.477   -3219.3356    -3730.477            0    9899.2887    16.873307    19.874527    20.585395    6903.2916    10062.045    9963.3804    9672.4406    -209.2912   -2052.0716    8.0271027 
  365000    293.50277   -3688.6882   -3185.6345   -3688.6882            0    13396.171    16.811181    19.801351    20.509602    6827.3201    12946.462    13575.983    13666.068   -361.25607    392.69653   -82.750495 
  365500    292.92618   -3678.1674   -3176.1019   -3678.1674            0    12817.654    16.815284    19.806184    20.514608    6832.3206    12248.969    13121.591    13082.401    927.61349   -39.878643   -1220.0353 
  366000    295.35604   -3662.7952   -3156.5651   -3662.7952            0    13364.273    16.868948    19.869393    20.580078    6897.9434     11175.57    15299.196    13618.053    157.69405    469.48128    430.39217 
  366500    290.89133   -3732.8426   -3234.2648   -3732.8426            0    10730.372    16.909251    19.916865    20.629247    6947.5028    10244.309    12784.094    9162.7122    1827.0984   -2150.2513    -1334.634 
  367000    296.56013   -3748.9173   -3240.6234   -3748.9173            0    10791.998    16.894226    19.899167    20.610916    6928.9987    10354.172    11209.367    10812.455   -189.54675    330.67984    202.16554 
  367500      294.087   -3702.6577   -3198.6027   -3702.6577            0    11197.401    16.880972    19.883556    20.594747    6912.7042    11148.509    11969.968    10473.726    200.80893    544.93518    359.15983 
  368000    302.24879   -3708.5223   -3190.4782   -3708.5223            0    11690.373    16.890094      19.8943    20.605875    6923.9161    11318.261     12013.36    11739.498   -86.613584    411.02005   -723.58795 
  368500    296.59263   -3727.6797   -3219.3301   -3727.6797            0    12141.687    16.877391    19.879337    20.590378    6908.3053    12907.145    12539.117    10978.798   -609.96562   -462.61126    257.12981 
  369000    309.61358    -3752.445   -3221.7779    -3752.445            0    9068.9185    16.866666    19.866704    20.577293    6895.1435    10331.765    8988.7349     7886.255    762.95115    2126.9215   -488.75633 
  369500    303.93567   -3766.3196   -3245.3842   -3766.3196            0    13565.118    16.777429    19.761595    20.468424    6786.2801    14643.332     12028.14    14023.882   -290.74393    1726.4248    -557.3428 
  370000    282.74426   -3691.4911   -3206.8771   -3691.4911            0    13065.248     16.81676    19.807922    20.516408    6834.1191    11072.013    12758.335    15365.397   -553.57687   -2403.9247   -1087.5211 
  370500    284.12706     -3740.67    -3253.686     -3740.67            0    12057.712    16.879724    19.882085    20.593224    6911.1707    13918.524    10820.659    11433.952   -1041.1097    543.13486   -891.28791 
  371000     299.7232   -3731.0786   -3217.3633   -3731.0786            0    11733.053    16.837514    19.832367    20.541727    6859.4527    10108.843    12792.814    12297.501    1135.7404    1139.0336    396.41021 
  371500    302.34139   -3723.6319   -3205.4291   -3723.6319            0    13165.268    16.791125    19.777727    20.485133    6802.9135    10676.177     14622.48    14197.147    -392.4874    124.61508    1571.7778 
  372000    296.17963   -3715.9942   -3208.3524   -3715.9942            0    10328.102     16.88079    19.883341    20.594524    6912.4799     9671.869    8315.1708    12997.267    477.96678    2531.4988   -1135.0299 
  372500    287.02065   -3732.4852   -3240.5416   -3732.4852            0    8932.3734    16.854008    19.851795     20.56185    6879.6309    10382.908    8553.4435    7860.7686    59.663159   -150.97783    1223.7503 
  373000    299.45776   -3755.8811   -3242.6208   -3755.8811            0    12491.848    16.723356    19.697904    20.402455    6720.8757    14462.915    11531.219    11481.409    1174.1985   -759.47146    786.20901 
  373500    298.58532   -3713.9128   -3202.1478   -3713.9128            0    10820.268    16.891261    19.895674    20.607299     6925.351    8627.3028     13713.74     10119.76    777.80158   -105.47855    291.22482 
  374000    307.04832   -3709.4052   -3183.1349   -3709.4052            0     14336.38    16.834121    19.828371    20.537589    6855.3077     12757.34     14576.55    15675.251    -32.52461   -371.79427   -383.74046 
  374500    334.04713   -3718.6948   -3146.1494   -3718.6948            0    12754.004    16.877169    19.879075    20.590106    6908.0321    12121.703    13006.903    13133.407    723.62596   -657.88687   -1043.3308 
  375000    326.43888   -3745.2267   -3185.7217   -3745.2267            0    10713.939    16.858945     19.85761    20.567873    6885.6788    11091.011    10379.508    10671.299    2213.7559   -177.03499    1894.3111 
  375500     301.1832   -3733.7251   -3217.5074   -3733.7251            0     10559.64    16.852693    19.850246    20.560246    6878.0214    8580.8254    12110.724    10987.371   -699.41251    1103.4753    468.54509 
  376000    326.82041   -3746.2775   -3186.1185   -3746.2775            0    11714.406     16.81319    19.803717    20.512052    6829.7677    11179.974    11326.767    12636.477    -942.2897   -1315.1705   -1027.8016 
  376500    295.80306   -3681.5389   -3174.5426   -3681.5389            0    10425.239    16.873251    19.874461    20.585327    6903.2226    8750.6739    10869.411     11655.63    29.165414   -134.85351   -3310.2186 
  377000    282.03811    -3777.255   -3293.8513    -3777.255            0    11725.699    16.842727    19.838507    20.548087    6865.8261    11862.241    11757.602    11557.255   -538.32062   -2413.8848    332.60095 
  377500    290.57121    -3744.637   -3246.6079    -3744.637            0    12800.204    16.846591    19.843059    20.552802    6870.5532    13391.497    10162.301    14846.815    1822.8014    893.41585   -2255.5278 
  378000    300.31743   -3737.6247   -3222.8909   -3737.6247            0    13528.055    16.813447    19.804019    20.512365    6830.0806    15038.191    14058.264     11487.71    1555.7134   -590.96002   -675.21543 
  378500    299.00347   -3730.4473   -3217.9656   -3730.4473            0    11690.478    16.769053    19.751729    20.458205    6776.1212    12789.155    10373.083    11909.196   -524.76892    846.14222   -631.19635 
  379000    296.39836   -3746.8565   -3238.8399   -3746.8565            0    11277.514     16.79413    19.781267      20.4888    6806.5671    9301.8584    13535.187    10995.496    1215.2111    1260.4009    631.93461 
  379500    297.60714   -3769.4414    -3259.353   -3769.4414            0    11227.881    16.784656    19.770108    20.477241    6795.0546    11216.212    10172.206    12295.226    1272.6059   -896.45449   -2012.0007 
  380000    281.23455   -3756.7569   -3274.7305   -3756.7569            0    12800.871    16.724236    19.698941    20.403529    6721.9377    14419.049     13351.46    10632.104    -240.0664   -332.79298    216.09744 
  380500    303.87427   -3712.8393   -3192.0092   -3712.8393            0    13063.794    16.793829    19.780912    20.488432    6806.2006    14178.413    13027.171    11985.799    346.03023    607.41678   -541.80928 
  381000     308.9166   -3770.2072   -3240.7347   -3770.2072            0     11895.16    16.806055    19.795313    20.503348    6821.0767    11258.752    11317.353    13109.374   -642.41078    666.05181    622.85705 
  381500    303.33327   -3685.9097   -3166.0068   -3685.9097            0    13567.643     16.77951    19.764046    20.470963    6788.8058     10517.76    13978.387    16206.781    264.55801   -1191.3358    -2022.598 
  382000    296.39469   -3709.5807   -3201.5703   -3709.5807            0    13175.915    16.771237    19.754301    20.460869    6778.7691    12932.614    13725.785    12869.348   -3373.2555   -613.93424    1036.1574 
  382500    301.34693   -3683.9561   -3167.4578   -3683.9561            0    9729.3707     16.86821    19.868523    20.579176     6897.037    8452.5727    9791.5235    10944.016   -1445.6043    -176.1185    1293.3416 
  383000     303.4224   -3692.9126    -3172.857   -3692.9126            0    13397.254    16.796925    19.784559     20.49221    6809.9664    14054.831    13440.309    12696.621   -2345.8929   -825.99407    -881.7739 
  383500    315.03223   -3686.1737   -3146.2192   -3686.1737            0    14497.974    16.768041    19.750538    20.456971    6774.8955    14054.098     14208.08    15231.745    1018.2519   -848.50175   -710.69565 
  384000    292.76508   -3726.4209   -3224.6316   -3726.4209            0    12766.498    16.735314    19.711989    20.417043    6735.3032    13239.298    11471.656    13588.539   -445.91071   -390.42583    1926.9889 
  384500    308.84315   -3744.7529   -3215.4063   -3744.7529            0    13449.719    16.769932    19.752765    20.459278    6777.1872     12034.29    13945.636    14369.233   -116.62211   -1298.6684   -101.63277 
  385000    308.78957   -3723.9142   -3194.6595   -3723.9142            0    12136.074    16.849282    19.846229    20.556085    6873.8458     10467.41    10479.638    15461.173    1078.2004    1191.9397    847.92578 
  385500    311.31857   -3723.1509   -3189.5615   -3723.1509            0    14837.991    16.764873    19.746806    20.453106    6771.0555    14149.934    14415.031    15949.008   -399.18894    36.022906    1675.4397 
  386000    302.52686   -3734.8279   -3216.3072   -3734.8279            0    11474.525    16.836915    19.831662    20.540997     6858.721    10381.601    12206.564     11835.41   -409.40207    1699.1145    84.650266 
  386500    308.01827   -3754.8012   -3226.8685   -3754.8012            0    11052.488    16.846936    19.843465    20.553222    6870.9749    9070.5192    13011.485    11075.461   -1395.6251    910.04993    -407.3505 
  387000    296.57957   -3727.8382   -3219.5109   -3727.8382            0    11349.836    16.881556    19.884243    20.595459    6913.4208    12368.305    10412.619    11268.586    -700.2309    143.29637    1594.3182 
  387500    300.84505   -3715.6308   -3199.9926   -3715.6308            0    12502.757    16.885631    19.889043    20.600431    6918.4292    12826.473    11026.374    13655.426    554.96328    209.35125    1255.1816 
  388000    299.71542   -3753.9195   -3240.2175   -3753.9195            0     10619.88    16.814185    19.804889    20.513267     6830.981      12230.3    10737.248    8892.0932    1331.4887    155.67183    259.35486 
  388500    278.12955   -3743.6561   -3266.9516   -3743.6561            0    11086.173    16.781384    19.766253    20.473249    6791.0805    11298.104    11820.582    10139.833   -1269.7819     63.25946    466.03757 
  389000    301.20118   -3742.9238   -3226.6753   -3742.9238            0    11777.987     16.88852    19.892446    20.603955    6921.9803    13099.808    9372.4324    12861.721    456.05257    1526.0459    297.61331 
  389500    299.48509   -3760.4219   -3247.1147   -3760.4219            0    12340.983    16.881739    19.884459    20.595683    6913.6463    12573.709    11702.646    12746.595    496.18456    1177.4195     303.0675 
  390000    289.02542   -3788.5568   -3293.1771   -3788.5568            0    10002.972    16.869234    19.869729    20.580426    6898.2936     9717.753    10900.799    9390.3645    2067.3752    355.02615    867.03472 
  390500     306.9502   -3744.0065   -3217.9043   -3744.0065            0      11946.7     16.89346    19.898264    20.609982    6928.0563    11120.571    13324.342    11395.188    607.38397    -172.7585   -2470.5856 
  391000    302.28333   -3757.3969   -3239.2936   -3757.3969            0    12171.136    16.891017    19.895387    20.607001    6925.0513    10876.242    12650.998    12986.168    1399.1894   -1278.5789    -1570.475 
  391500    309.07072   -3740.7762   -3211.0395   -3740.7762            0    11299.999    16.869793    19.870388    20.581109      6898.98    11653.681    9999.4247    12246.891   -386.61312   -376.30448    1978.8455 
  392000    277.66159   -3757.3537   -3281.4512   -3757.3537            0    12436.723    16.811267    19.801452    20.509706    6827.4246    10449.341    12801.958     14058.87    2055.0003   -503.75379   -2234.7354 
  392500    297.06851   -3727.8151   -3218.6498   -3727.8151            0    13800.538    16.837136    19.831923    20.541267    6858.9916    13292.773    13825.545    14283.295    1847.5848    283.67409    310.76057 
  393000    316.31065   -3726.3806    -3184.235   -3726.3806            0    12274.457    16.841954    19.837597    20.547145    6864.8811    10493.747    13733.548    12596.077    -160.2904    613.94167   -2544.1711 
  393500    300.63951   -3687.3921   -3172.1063   -3687.3921            0    10861.378    16.869855    19.870461    20.581184    6899.0553    10674.889    10650.156     11259.09    1923.3247    -926.4534    1074.6133 
  394000    297.16927   -3744.6982   -3235.3603   -3744.6982            0    14626.409    16.761505    19.742839    20.448997    6766.9757    13688.851    13422.252    16768.124   -1493.0899    1195.5131    448.73854 
  394500    304.82019   -3747.4316   -3224.9802   -3747.4316            0    12911.431    16.815877    19.806881     20.51533    6833.0426    13376.544     12975.98    12381.769   -712.74912   -433.66946    222.14007 
  395000    283.39635   -3717.3313   -3231.5996   -3717.3313            0     11853.04    16.810423    19.800458    20.508677    6826.3968    10000.137    12446.152     13112.83   -178.33749    592.82219    1040.6283 
  395500     286.7591   -3754.5203    -3263.025   -3754.5203            0    11608.484     16.79915     19.78718    20.494924    6812.6725     12276.26    12766.083    9783.1086    211.25842    -1205.284   -2073.6265 
  396000    305.80863   -3780.1569   -3256.0114   -3780.1569            0    11238.944    16.837956    19.832888    20.542267    6859.9936    10329.105    12993.186    10394.542    958.48533   -639.27695   -592.93683 
  396500    299.23366   -3745.1238   -3232.2475   -3745.1238            0    11721.708    16.822059    19.814163    20.522872    6840.5814    13375.484    9319.8863    12469.754    2458.5908    821.96143   -718.91991 
  397000    301.06971   -3776.6971   -3260.6739   -3776.6971            0    12454.086    16.820405    19.812216    20.520855    6838.5648    13975.503    9163.1957     14223.56    873.27496    843.64439    788.22627 
  397500    307.33287   -3759.0497   -3232.2916   -3759.0497            0    10129.972    16.835618    19.830134    20.539415    6857.1362    10539.102    9827.0004    10023.815    709.39815   -2523.9909    2291.3603 
  398000    293.15137   -3745.5122   -3243.0608   -3745.5122            0    11046.396    16.877978    19.880029    20.591094    6909.0262    11419.368    9662.1735    12057.647   -370.10582    537.49635   -1206.7587 
  398500     312.3778   -3719.6035   -3184.1987   -3719.6035            0    11546.526     16.85097    19.848217    20.558144    6875.9119    10960.758    12952.331    10726.489    383.65923    840.82029    896.16723 
  399000    283.81629   -3726.6658   -3240.2144   -3726.6658            0    11366.937    16.840716     19.83614    20.545635     6863.368    11003.386    11091.466    12005.958    2625.9378   -2649.7297   -1196.3012 
  399500    289.59448   -3731.0797   -3234.7246   -3731.0797            0    10101.433    16.859993    19.858845    20.569153    6886.9636    8586.0664    8473.4714    13244.762   -27.896286    505.73135   -1119.1531 
  400000    296.50668   -3700.2611   -3192.0588   -3700.2611            0    12449.479    16.843092    19.838937    20.548533    6866.2724    13235.508    11230.806    12882.124   -1832.5339   -275.01123    110.79374 
  400500    296.37287   -3700.1509    -3192.178   -3700.1509            0    12089.001    16.845741    19.842057    20.551764    6869.5124    11604.645     12397.16    12265.198   -1394.0922   -292.66771    549.60079 
  401000    300.22155    -3725.155   -3210.5856    -3725.155            0    13683.757    16.793249     19.78023    20.487725    6805.4962    13688.763    14545.293    12817.216   -563.13541   -636.57223    1361.0347 
  401500    292.96682   -3725.6159   -3223.4808   -3725.6159            0    9750.5403    16.935332    19.947584    20.661065    6979.6994    10590.293    9733.3977    8927.9299    1232.9018   -1152.5503    852.99729 
  402000    296.65028   -3688.2135   -3179.7651   -3688.2135            0    13335.869    16.769587    19.752358    20.458857    6776.7688    12453.368     13543.57     14010.67   -759.28997   -582.41348    148.65431 
  402500    304.42617    -3713.186     -3191.41    -3713.186            0    12490.467    16.827662    19.820764    20.529709    6847.4199    13352.057    10610.167    13509.175     -691.216   -876.48775   -606.79926 
  403000    299.95079   -3729.1163   -3215.0109   -3729.1163            0    10634.997     16.84132    19.836851    20.546371    6864.1062    10717.849    9769.6579    11417.483    773.73609   -881.35527    178.48183 
  403500    304.57812   -3747.1856   -3225.1491   -3747.1856            0    11063.911    16.843597    19.839532    20.549149    6866.8904    10840.716    11700.717    10650.299   -533.21219    1129.8982    1113.7582 
  404000    298.39099   -3753.0093   -3241.5773   -3753.0093            0    11127.363    16.836668    19.831371    20.540696    6858.4198    12280.144    10793.868    10308.078    838.17191   -1465.6745    539.59671 
  404500    295.07271   -3729.4331   -3223.6885   -3729.4331            0    13160.106    16.837358    19.832183    20.541537    6859.2622    13190.811    11336.089    14953.417   -30.943817    230.74783     571.4607 
  405000    290.56398   -3728.5628   -3230.5461   -3728.5628            0    10464.098    16.885171    19.888501    20.599869    6917.8635    9296.8332    10078.208    12017.255    1462.5678   -355.65534   -508.33536 
  405500    312.73006   -3707.0496   -3171.0409   -3707.0496            0    13796.079    16.825806    19.818577    20.527444    6845.1538    14184.646    11840.028    15363.564   -2169.5744    1661.2449   -680.99295 
  406000    302.22056   -3715.3824   -3197.3867   -3715.3824            0    11285.983    16.948572    19.963179    20.677218    6996.0825    10370.364    13029.185      10458.4    1610.9124   -13.021424   -154.75612 
  406500    310.53455   -3727.1252   -3194.8796   -3727.1252            0    12457.749    16.851233    19.848526    20.558464    6876.2333    12108.759    13798.535    11465.954     666.0052    606.72295   -138.86079 
  407000    275.78671   -3676.6602   -3203.9712   -3676.6602            0    13017.304    16.797467    19.785197     20.49287     6810.625    10307.199    13494.774    15249.937    1962.7459   -2337.3861    586.58657 
  407500    302.23673    -3704.558   -3186.5346    -3704.558            0     13758.46    16.849276    19.846222    20.556078    6873.8386     13564.24    12009.806    15701.336    1748.5864   -1424.0652    1063.0975 
  408000    290.00681   -3721.3433   -3224.2815   -3721.3433            0    10202.469    16.893359    19.898146    20.609859    6927.9322    8961.0131     11288.86    10357.535    1614.5829    633.37563    1800.7035 
  408500    315.19701   -3737.7503   -3197.5134   -3737.7503            0    12276.036    16.816453    19.807561    20.516034    6833.7456    12443.825    11566.611    12817.673    1933.0148    -5.302935   -1112.8202 
  409000    306.00867   -3723.8782   -3199.3898   -3723.8782            0    11064.312    16.837338     19.83216    20.541513    6859.2379    12420.148    10355.971    10416.816   -1470.6863    267.35447   -102.66542 
  409500    295.75191   -3703.6538   -3196.7452   -3703.6538            0    12652.899    16.825532    19.818254     20.52711    6844.8193    10915.709    13012.594    14030.395   -604.52402    547.19411   -196.09761 
  410000    301.19025    -3747.343   -3231.1132    -3747.343            0      11934.7    16.876859     19.87871    20.589728    6907.6515    10610.646    10948.458    14244.998    -1869.684    1274.0004   -733.89479 
  410500    288.91989   -3749.9728    -3254.774   -3749.9728            0    10051.688    16.955404    19.971227    20.685554    7004.5467    8437.6048    10643.174    11074.286   -1617.7725    328.94209    215.67882 
  411000    308.32619   -3700.2421   -3171.7815   -3700.2421            0    12672.733    16.877042    19.878926    20.589952    6907.8771    13723.754     10501.67    13792.777    709.07123    -640.3886   -508.65915 
  411500    301.42009   -3725.2192   -3208.5955   -3725.2192            0    11177.683    16.858615    19.857222    20.567471    6885.2752    11855.373    11276.487    10401.188   -1283.2338    1751.0156     629.5145 
  412000    294.49271    -3705.081   -3200.3306    -3705.081            0    11008.992    16.895691    19.900892    20.612703    6930.8011    10552.867    9892.4156    12581.694    1277.6359   -58.356094   -123.63795 
  412500    293.88587   -3710.6332   -3206.9229   -3710.6332            0     9791.441    16.939857    19.952914    20.666586    6985.2963    9461.6742    9151.4419    10761.207   -40.190612   -1724.8316   -1221.7272 
  413000    299.74247   -3726.9069   -3213.1585   -3726.9069            0    13371.589    16.794491    19.781691    20.489239    6807.0053    13273.439    14082.169     12759.16    -932.4213   -1477.3876   -39.104967 
  413500    295.09264   -3712.2708   -3206.4921   -3712.2708            0    11485.643    16.849679    19.846696    20.556569    6874.3317    9111.1737    13747.612    11598.145    510.42248   -1501.5814    1349.4131 
  414000    285.91888   -3708.7645   -3218.7093   -3708.7645            0    12456.174    16.817059    19.808274    20.516773    6834.4838    11518.266    14004.031    11846.226   -349.00918   -799.86705    938.03881 
  414500    286.77733   -3729.5908   -3238.0643   -3729.5908            0    13080.381    16.813089    19.803598    20.511929    6829.6451        14828    12534.745    11878.398    405.22919    1867.6239   -2193.1216 
  415000    293.82962   -3724.5622   -3220.9483   -3724.5622            0    12088.797    16.834279    19.828557    20.537781    6855.5005    11715.873    12648.485    11902.032   -545.24384    542.30748    89.793994 
  415500    297.27467   -3699.5636   -3190.0449   -3699.5636            0    12529.755    16.809773    19.799692    20.507884     6825.605    11831.237    13652.293    12105.736     605.6317    253.41313    646.58972 
  416000    319.81843   -3740.5989    -3192.441   -3740.5989            0    12078.357    16.823277    19.815598    20.524359    6842.0679    11978.093    12812.298    11444.679    1212.2225   -107.78929   -448.35684 
  416500    298.48806   -3703.4668   -3191.8685   -3703.4668            0    12727.315    16.798925    19.786914    20.494649    6812.3985    11524.702    15163.479    11493.764   -269.95405    2931.8387   -2194.3049 
  417000    292.26566   -3739.4207   -3238.4873   -3739.4207            0    11984.102    16.871221     19.87207    20.582851    6900.7321    10338.507    13714.113    11899.685    64.211858   -2.4447292       1850.4 
  417500    317.52991   -3737.1162   -3192.8808   -3737.1162            0    12134.811    16.838993    19.834109    20.543532    6861.2605    11410.913    12871.333    12122.188   -95.822359     1927.934   -951.00695 
  418000    292.10162   -3724.5994   -3223.9472   -3724.5994            0    13306.145    16.738232    19.715427    20.420604    6738.8278    13224.225    12938.515    13755.697   -1598.5117   -406.19901    1814.6384 
  418500     306.2377   -3686.2692   -3161.3882   -3686.2692            0    12453.793    16.762761    19.744318    20.450529    6768.4968    12531.518    12026.013    12803.848   -153.89667   -136.86313   -801.22985 
  419000    301.36841   -3750.3681    -3233.833   -3750.3681            0    11840.245    16.827149    19.820159    20.529082     6846.793    12046.651    12010.741    11463.343   -458.30869   -820.95076    625.18014 
  419500    296.94676   -3714.2733   -3205.3168   -3714.2733            0    13598.815    16.803847    19.792713    20.500654    6818.3889    13161.554     13067.85    14567.041   -866.32396    1719.2048    1928.1952 
  420000    296.14751   -3732.6721   -3225.0854   -3732.6721            0    13153.021    16.758899    19.739769    20.445818    6763.8199    14843.195    11256.035    13359.833    158.16945   -2441.8022    1117.6344 
  420500    298.42206   -3708.5037   -3197.0185   -3708.5037            0    11528.811    16.838688     19.83375     20.54316    6860.8882    12077.346     10040.64    12468.448   -583.94806   -1601.4327     732.5611 
  421000    318.19725   -3673.7016   -3128.3224   -3673.7016            0    11049.146    16.844684    19.840813    20.550476    6868.2204    8049.4415    13008.676    12089.322   -310.57922   -1325.9632    1262.9864 
  421500    315.87628   -3742.0855   -3200.6844   -3742.0855            0    11943.763    16.805033    19.794109    20.502101    6819.8326    12373.692    12190.462    11267.135   -1664.7732    1501.3006   -548.91577 
  422000    308.49735   -3749.1066   -3220.3527   -3749.1066            0    10983.392    16.845564     19.84185    20.551549    6869.2967    9838.7793    13289.079    9822.3188   -183.34736    -203.6823    704.68673 
  422500    283.66337   -3741.9377   -3255.7484   -3741.9377            0    11456.848    16.837817    19.832724    20.542098    6859.8237        11860    11178.174    11332.369    3176.2382   -306.26699   -542.61559 
  423000    311.91051   -3748.2968   -3213.6928   -3748.2968            0    9630.9932    16.867196    19.867329     20.57794    6895.7937    6845.6381    9845.7313     12201.61    248.71694   -251.60294    946.79816 
  423500    301.90884   -3742.2732   -3224.8118   -3742.2732            0    11730.807    16.858277    19.856823    20.567058      6884.86    11537.494    9981.9819    13672.947    2051.7041    1354.6945    393.46428 
  424000    297.45966   -3766.7923   -3256.9566   -3766.7923            0    12922.688    16.826232    19.819078    20.527963    6845.6736    11920.502    12736.888    14110.675    104.90975     483.7484    6.5405326 
  424500    302.50788   -3709.3541   -3190.8659   -3709.3541            0    14768.252    16.744245    19.722509    20.427939    6746.0923    15316.324    13830.928    15157.504   -2322.2239    2260.3821   -873.46443 
  425000    318.89071   -3737.6895   -3191.1217   -3737.6895            0    14333.976    16.843599    19.839535    20.549151    6866.8927    14660.972    13923.398    14417.558    678.26666    1951.5457    382.23994 
  425500    300.41655   -3743.6047    -3228.701   -3743.6047            0    12747.872    16.801713    19.790199    20.498051    6815.7912    11810.314    14280.692     12152.61    436.11144    1559.4384    1495.0279 
  426000    300.78372   -3722.7712   -3207.2382   -3722.7712            0    13066.118    16.905749    19.912739    20.624974    6943.1862    14049.859    12139.076    13009.417   -1433.9509    37.221483   -752.42252 
  426500     294.9347   -3720.0925   -3214.5845   -3720.0925            0    12055.654    16.893326    19.898107    20.609819    6927.8921    12691.748    11508.683     11966.53    2039.3888    1033.2198   -1213.4577 
  427000    303.35257   -3751.1206   -3231.1846   -3751.1206            0    13140.175    16.838263    19.833249    20.542641    6860.3681    14989.137    12619.351    11812.036    658.60614    1572.4289   -861.89856 
  427500    306.82678   -3708.9085   -3183.0179   -3708.9085            0    14200.783    16.852827    19.850404    20.560409    6878.1853      12380.5    15465.059    14756.791    113.63878    532.91643    229.46068 
  428000    291.20939   -3715.3889    -3216.266   -3715.3889            0    10000.937    16.837872    19.832789    20.542164    6859.8903    8751.6547    9462.2678     11788.89   -1780.4576    -1051.116    1348.8133 
  428500     307.3518   -3683.4785   -3156.6881   -3683.4785            0    11979.433    16.872209    19.873234    20.584056    6901.9444    11529.316    11064.593    13344.392   -650.01624    204.70743   -49.896216 
  429000    300.80901   -3739.5907   -3224.0144   -3739.5907            0    12298.331    16.819387    19.811016    20.519612    6837.3223    11813.007    11813.559    13268.427   -574.80545    1256.9577    739.41713 
  429500     319.7094   -3762.0756   -3214.1046   -3762.0756            0    9681.0872    16.851702    19.849079    20.559037    6876.8076    10794.809    9288.6192    8959.8337    2456.9824    1563.6759    321.00078 
  430000    279.32534   -3754.6177   -3275.8637   -3754.6177            0    11296.523    16.888743    19.892709    20.604227    6922.2547    11854.766    11881.919    10152.885    775.15662   -432.50007   -614.57151 
  430500    304.01657   -3740.5715   -3219.4975   -3740.5715            0    11173.497    16.850822    19.848043    20.557964    6875.7312    12588.579    10802.535    10129.377   -1602.7274   -526.20583    741.85124 
  431000    313.70158   -3674.0199   -3136.3461   -3674.0199            0     12674.35    16.823066     19.81535    20.524102     6841.811    11878.893    13377.555    12766.603   -304.23256   -135.87731   -1299.2972 
  431500    305.87546   -3742.4485   -3218.1884   -3742.4485            0    10343.645    16.902862    19.909339    20.621452    6939.6304    8116.2713    9966.0618    12948.601   -1011.7512   -1727.2292    1072.9852 
  432000    301.22231   -3708.9083   -3192.6236   -3708.9083            0    13768.234    16.837376    19.832205     20.54156    6859.2849    13136.465    12816.426    15351.809    1010.0857    1124.8955    355.20114 
  432500    299.27526   -3728.3778   -3215.4303   -3728.3778            0     11526.07    16.826105    19.818929    20.527809    6845.5188    11680.474    12252.118    10645.619   -891.92422    2152.1154     389.2639 
  433000    301.66698   -3717.3334   -3200.2865   -3717.3334            0    12621.207    16.787606    19.773582     20.48084    6798.6375    13016.035    11044.884    13802.702    1321.2509    842.24552   -1013.0341 
  433500    311.49279   -3733.7215   -3199.8335   -3733.7215            0    13740.137    16.762853    19.744426    20.450641    6768.6082    14268.874    12322.838      14628.7    7.1089624   -1215.9344    202.62743 
  434000    294.13323   -3742.2946   -3238.1603   -3742.2946            0    11739.065    16.881929    19.884682    20.595914    6913.8793    12634.561    12396.023     10186.61    1299.4053    661.67939   -1320.3063 
  434500    303.39398   -3693.9913   -3173.9844   -3693.9913            0    11931.881    16.806607    19.795964    20.504022    6821.7493    14808.391    13483.132    7504.1189    712.03087   -646.90777   -404.78912 
  435000    302.82027   -3747.3858   -3228.3622   -3747.3858            0    14222.368    16.842161    19.837841    20.547397    6865.1344    16032.024    13192.418    13442.663   -208.28209    818.24356   -943.34968 
  435500    292.57027   -3786.7311   -3285.2757   -3786.7311            0    11669.544    16.886656    19.890251    20.601681    6919.6892    10238.509    12723.091    12047.032   -1599.9001   -378.37354     1113.247 
  436000    298.46637   -3756.2686   -3244.7075   -3756.2686            0    10430.067    16.912095    19.920214    20.632716    6951.0081    10269.788    11924.319    9096.0956    482.91638    1491.6366    270.87248 
  436500    300.64153   -3719.3849   -3204.0956   -3719.3849            0    12831.343    16.864931     19.86466    20.575176    6893.0155    10929.118    13572.333    13992.577     360.7079    1067.5324    738.25305 
  437000    299.36636   -3728.0684   -3214.9647   -3728.0684            0    12235.073    16.872014    19.873003    20.583817    6901.7042        12174    13102.649    11428.571    1347.7735    167.96915    325.17574 
  437500    300.59765   -3756.0553   -3240.8412   -3756.0553            0    12471.779    16.860673    19.859646    20.569982    6887.7965    13905.109    12475.274    11034.953    121.60514    1237.2705    721.42242 
  438000     311.4297   -3759.3439   -3225.5641   -3759.3439            0    11579.938    16.836668    19.831371    20.540695    6858.4191    12053.725    10646.248    12039.841    -122.4994   -898.70995    123.98707 
  438500    302.02471   -3677.0422   -3159.3822   -3677.0422            0    14143.835    16.770382    19.753295    20.459827    6777.7329    14621.246    13974.522    13835.737    736.93281    1893.4138   -507.13444 
  439000    304.97193   -3678.5394   -3155.8279   -3678.5394            0    12201.878     16.86656    19.866579    20.577163    6895.0133    11994.729    12630.197    11980.707   -1507.2483    362.85314   -285.99948 
  439500     306.8153   -3725.7543   -3199.8834   -3725.7543            0    9924.6736     16.90268    19.909124     20.62123    6939.4057    10500.292    11011.388    8262.3413    189.16603    1686.6536    1338.6214 
  440000    286.45871   -3703.5155   -3212.5351   -3703.5155            0     12748.79    16.840928    19.836389    20.545893    6863.6267    11732.393    14054.632    12459.346    410.97618    842.44804   -254.93471 
  440500    283.15607   -3724.8916   -3239.5718   -3724.8916            0    11898.117    16.836972    19.831729    20.541067    6858.7912     11380.48    11917.111    12396.758   -487.24475    1683.9758     611.0133 
  441000    288.46697   -3762.0011   -3267.5786   -3762.0011            0     12870.47    16.816177    19.807235    20.515696    6833.4083    12930.672    11415.523    14265.213    953.87217   -1116.7216    818.05389 
  441500    282.23528    -3739.774   -3256.0324    -3739.774            0    11847.696    16.859679    19.858474    20.568768    6886.5778    12725.485    9464.0743    13353.529    9.5630465    1046.3707    820.66797 
  442000     286.4071   -3713.9211   -3223.0291   -3713.9211            0    13649.484    16.783859    19.769169    20.476269    6794.0865    14027.796    12495.038    14425.617    1586.6901   -1266.6104   -1025.6019 
  442500    292.32677   -3731.4692   -3230.4311   -3731.4692            0    11441.185    16.861716    19.860874    20.571254    6889.0744    9903.7919    11666.386    12753.378   -1087.9127   -1518.3869      243.798 
  443000    296.26008   -3718.0242   -3210.2446   -3718.0242            0    11557.842    16.878204    19.880295    20.591369    6909.3034    10877.645    11811.296    11984.583    1372.3184    2036.9022    65.755442 
  443500    302.84918   -3745.5212    -3226.448   -3745.5212            0    11804.263    16.828057    19.821228     20.53019    6847.9016    12208.535     10960.46    12243.795   -1746.7564    936.11453    1137.6137 
  444000    291.29285   -3766.6951   -3267.4291   -3766.6951            0    11393.614    16.869046    19.869509    20.580197    6898.0636    10565.121    12318.645    11297.078    1585.3088    2122.4931   -137.62559 
  444500    294.97385   -3778.9631    -3273.388   -3778.9631            0    11902.325     16.81384    19.804483    20.512846    6830.5603    14517.099    10334.176      10855.7   -1206.0626   -925.63216    775.75931 
  445000    295.69014   -3748.6108    -3241.808   -3748.6108            0    9988.4403    16.827382    19.820433    20.529366     6847.077    6678.0264    9075.8788    14211.416    1142.4736    538.37963    1254.3758 
  445500      310.321   -3731.2365   -3199.3569   -3731.2365            0    10652.296     16.86449    19.864141    20.574638    6892.4751    12446.666    9685.6133    9824.6086   -258.99504    1884.1593   -2463.8056 
  446000    300.74155   -3740.7649   -3225.3042   -3740.7649            0    11277.464    16.787041    19.772916     20.48015    6797.9506      10649.9    11474.446    11708.044   -217.86357    1301.4713   -1715.5421 
  446500    315.61595   -3728.7626   -3187.8077   -3728.7626            0    14011.381    16.731499    19.707496     20.41239    6730.6992    17614.025     10707.04    13713.078   -1113.2461   -899.05766    530.32227 
  447000    296.62626    -3701.884   -3193.4767    -3701.884            0    12845.265    16.844167    19.840204    20.549844    6867.5873    12933.986    12997.356    12604.451   -484.03258    301.69791    118.59864 
  447500    306.88352   -3699.2006   -3173.2127   -3699.2006            0    13046.879    16.826265    19.819117    20.528004    6845.7139     10525.53    14440.915     14174.19    435.78001   -1615.7111   -1283.5473 
  448000    294.36313   -3741.3765   -3236.8482   -3741.3765            0     12065.45    16.808419    19.798097    20.506232    6823.9554    12984.647    12287.911    10923.793   -1034.2276   -242.27507    766.63222 
  448500    301.60069   -3767.9004   -3250.9671   -3767.9004            0    12860.098    16.838338    19.833338    20.542733    6860.4599    13300.128    13869.285    11410.882   -157.12473   -1097.1015   -107.30171 
  449000     312.4004   -3784.2676    -3248.824   -3784.2676            0    9667.2894    16.847457    19.844079    20.553858    6871.6125    9228.9334    10863.386     8909.549   -1313.2748    624.24158   -469.24425 
  449500    306.45298   -3759.0056   -3233.7557   -3759.0056            0    11054.192    16.841867    19.837494    20.547038    6864.7742    10367.045    12532.869    10262.662    1577.2943   -2194.0536     -407.471 
  450000     281.6717   -3740.5488   -3257.7732   -3740.5488            0    10424.125     16.83323    19.827321    20.536501    6854.2184    10779.388    10496.151    9996.8364     823.9852    359.87561   -362.22185 
  450500    296.78779   -3772.3163   -3263.6322   -3772.3163            0    9709.9909    16.853515    19.851214    20.561249    6879.0275    11121.081    7322.9834    10685.908   -783.85911    1277.3848    271.74754 
  451000    286.90984   -3762.5042   -3270.7506   -3762.5042            0    13008.374    16.781946    19.766916    20.473935    6791.7638    12601.517    12512.617    13910.988    240.58341   -568.93347   -1514.1748 
  451500    302.45452    -3752.922   -3234.5253    -3752.922            0    11878.861    16.904429    19.911185    20.623364    6941.5608    10387.824    12885.667    12363.092   -681.80874    -254.3997    716.93427 
  452000    286.37117   -3710.9948   -3220.1644   -3710.9948            0    12838.577    16.849189    19.846119    20.555972    6873.7323     13528.41    14323.969    10663.354    -1597.016   -40.920024    1001.9028 
  452500    308.16982   -3757.3854   -3229.1929   -3757.3854            0    10406.692    16.907217    19.914468    20.626765    6944.9955    9756.5367    10103.846    11359.694   -145.34967    1038.9131   -1275.7487 
  453000    295.49255   -3736.1388   -3229.6747   -3736.1388            0    13467.744    16.869638    19.870206    20.580919    6898.7896    17033.479    14418.451    8951.3007   -1705.5709    53.425142    382.03209 
  453500     318.0682   -3735.6471   -3190.4891   -3735.6471            0     12845.34    16.843678    19.839628    20.549248      6866.99    13619.525    11133.301    13783.195   -659.19547   -29.227912   -630.86611 
  454000    316.12323   -3662.9761   -3121.1517   -3662.9761            0    12905.894    16.837982    19.832919    20.542299    6860.0252    13232.015    12562.357    12923.309    5.5232085     158.9834   -1175.1718 
  454500    300.66292   -3751.6614   -3236.3355   -3751.6614            0    12013.993    16.813243    19.803779    20.512117    6829.8325    12860.765    13026.105    10155.111   -80.569763    265.56605    117.69691 
  455000    297.07187   -3735.8051   -3226.6341   -3735.8051            0    11529.826    16.802252    19.790833    20.498708     6816.447    9899.8108    12262.175    12427.491   -886.47307    1303.3422   -871.96267 
  455500    281.71182   -3753.4157   -3270.5713   -3753.4157            0    12417.257    16.797151    19.784825    20.492485    6810.2404    11330.825    12574.775    13346.173    1265.0225   -1183.5248    626.75601 
  456000    294.36849   -3770.9229   -3266.3853   -3770.9229            0    11324.906    16.832241    19.826156    20.535294    6853.0103    10657.308    11583.618    11733.792    708.02671     339.8553    -744.2466 
  456500    289.90926   -3758.7852   -3261.8907   -3758.7852            0    13296.469    16.881521    19.884202    20.595416    6913.3781    12489.428    13695.837    13704.142   -756.98484    633.17219    1183.0357 
  457000    303.78027   -3751.4322   -3230.7632   -3751.4322            0    12787.462    16.835973    19.830553    20.539848    6857.5706    13916.606     11313.75    13132.031    267.87749   -680.20234    -1480.568 
  457500    293.58268   -3713.9491   -3210.7584   -3713.9491            0    13344.562    16.890323     19.89457    20.606155    6924.1979    13510.687    14551.945    11971.054     419.8928    1033.7487    786.56997 
  458000    296.87577   -3745.1169    -3236.282   -3745.1169            0    10841.926    16.859265    19.857987    20.568264    6886.0713    10934.843    12710.803    8880.1306    365.59651   -423.79346    2185.5354 
  458500    305.64811   -3772.1167   -3248.2463   -3772.1167            0    11506.692     16.82818    19.821373     20.53034    6848.0517    11646.183    10646.634     12227.26    -792.9366    1069.3368   -704.49285 
  459000    298.82727   -3742.3465   -3230.1668   -3742.3465            0    12073.784    16.833849    19.828051    20.537257    6854.9751    12651.039    12049.519    11520.793   -36.921844    1500.6153    63.275887 
  459500    279.99584   -3752.2007   -3272.2974   -3752.2007            0    11564.794    16.817141    19.808371    20.516873    6834.5841    10283.869    11545.252    12865.261    1180.4598   -919.83938   -149.09714 
  460000    303.64278   -3672.6007   -3152.1673   -3672.6007            0    11726.734    16.850243    19.847361    20.557258    6875.0225    13856.697    8819.8249     12503.68    1491.6277    1107.8571   -700.45597 
  460500    289.76618   -3692.4518   -3195.8025   -3692.4518            0     11595.81    16.856189    19.854364    20.564511    6882.3024    12574.107    11526.821    10686.501    215.43324    624.09464    820.53639 
  461000    299.63315   -3728.3359    -3214.775   -3728.3359            0    11198.758    16.847264    19.843852    20.553623    6871.3767    12034.638    9761.6963     11799.94   -715.75557    489.48065   -1456.2725 
  461500    296.08977   -3736.9789   -3229.4912   -3736.9789            0    12092.085    16.816419     19.80752    20.515992    6833.7037     12010.85    12381.212    11884.192   -209.36329    75.908635    -1704.391 
  462000    305.37939   -3720.2889   -3196.8791   -3720.2889            0    11443.902    16.866605    19.866633    20.577219    6895.0694    9283.7656    12811.197    12236.743    89.100731    2054.1709    52.506614 
  462500    309.98694   -3704.6756   -3173.3686   -3704.6756            0    11210.315    16.798888    19.786871    20.494604    6812.3541    10824.764    11393.626    11412.553   -1558.6512   -662.31085   -161.82049 
  463000    311.40921   -3746.7976   -3213.0529   -3746.7976            0    10776.209    16.753475    19.733381    20.439201    6757.2553    9302.3042    11284.337    11741.986   -1269.8737     648.2413   -315.06354 
  463500    300.31676   -3714.2877    -3199.555   -3714.2877            0    11201.649     16.83099    19.824683    20.533768    6851.4829    9227.0241    11241.778    13136.146   -621.25609     2896.278    603.25823 
  464000    301.43483   -3693.8798   -3177.2308   -3693.8798            0    12465.287    16.800344    19.788586    20.496381    6814.1255    11434.771    13582.794    12378.296    186.37332   -1804.4389   -1665.8867 
  464500    286.17081   -3759.8813   -3269.3943   -3759.8813            0    13326.727     16.73532    19.711996    20.417051    6735.3104    14327.183    12159.082    13493.915    146.36896   -234.65907   -1721.4108 
  465000    290.01915    -3762.789   -3265.7061    -3762.789            0    10192.024    16.861269    19.860348    20.570709    6888.5272    9131.2034    11491.817    9953.0516   -1909.5079   -357.98462    1461.2482 
  465500    289.16367   -3739.3227   -3243.7061   -3739.3227            0    11159.262    16.890712    19.895028     20.60663    6924.6764    9370.3297    11155.162    12952.293    689.03481   -690.36856    580.64842 
  466000    299.02065   -3731.7105   -3219.1994   -3731.7105            0    12144.036    16.851447    19.848779    20.558726    6876.4958    13284.069    10569.264    12578.777   -1257.2763    1120.0983    -716.6849 
  466500    282.42405   -3723.6317   -3239.5665   -3723.6317            0    12609.441    16.809373    19.799221    20.507396    6825.1172     12131.84    14250.628    11445.857   -1077.1296    1936.6867   -708.07686 
  467000    295.44684   -3691.7149   -3185.3291   -3691.7149            0    12333.591    16.818878    19.810417    20.518992    6836.7024    11652.812    14106.702     11241.26   -1933.9884   -78.161703   -1084.2963 
  467500    307.38456   -3778.3715   -3251.5248   -3778.3715            0    12352.623    16.798096    19.785939    20.493638    6811.3908    12161.554    13991.589    10904.724     2655.572     310.4934    658.78254 
  468000    289.02911   -3747.6301    -3252.244   -3747.6301            0    12103.057    16.770515    19.753452    20.459989    6777.8945    11550.758    12247.279    12511.133   -466.70226    1503.3693    968.66984 
  468500    313.11004   -3774.8002   -3238.1403   -3774.8002            0    10528.259    16.836095    19.830696    20.539997    6857.7195      12121.9    8740.1562    10722.721   -71.420782   -58.220245   -212.19374 
  469000    315.63982   -3747.1173   -3206.1214   -3747.1173            0    11447.984    16.817127    19.808355    20.516856    6834.5673    12107.687    12140.461    10095.804    309.61484   -298.54616   -1131.6071 
  469500    303.03242   -3762.2337   -3242.8465   -3762.2337            0    12473.407    16.820909    19.812808    20.521469    6839.1785    10957.108    12996.371    13466.743     541.6177   -1334.5013    2787.3161 
  470000    309.35612   -3738.5097   -3208.2839   -3738.5097            0    13009.069    16.796057    19.783537     20.49115    6808.9104     12615.14    13193.906     13218.16   -1867.2704   -180.63474   -462.49947 
  470500    293.43712   -3754.0052    -3251.064   -3754.0052            0     12811.09    16.811775     19.80205    20.510326    6828.0437    14176.507    11998.777    12257.988   -3193.5287   -628.12976   -320.99609 
  471000     311.5236   -3684.3151   -3150.3743   -3684.3151            0    10774.803    16.874023     19.87537    20.586268    6904.1699    8614.2214    10702.891    13007.297    -191.9715   -260.48373   -357.01912 
  471500    291.28579   -3654.8721   -3155.6182   -3654.8721            0    12841.605    16.859352    19.858089     20.56837    6886.1773    11692.999    14919.619    11912.196    -1156.447    511.94804   -528.10858 
  472000    312.68942   -3687.6491   -3151.7101   -3687.6491            0    10959.494    16.853102    19.850728    20.560745     6878.522    9060.2434    11521.505    12296.735   -963.81154    1413.8378    1316.7441 
  472500     306.3525   -3704.4396   -3179.3618   -3704.4396            0     11670.56    16.816115    19.807163    20.515621    6833.3335     13568.14     11081.82    10361.719    389.24719     1578.554   -239.81869 
  473000    295.05362    -3694.105   -3188.3932    -3694.105            0    13601.599    16.826612    19.819526    20.528427    6846.1372    13202.077    14423.931     13178.79   -461.92374    1152.4493    1865.8135 
  473500    299.99062   -3733.9881   -3219.8145   -3733.9881            0    9939.2312    16.850777    19.847989    20.557909    6875.6757    10177.534    8527.7338    11112.426   -1303.5051   -123.87898   -331.87638 
  474000    293.58114   -3756.4818   -3253.2938   -3756.4818            0    13388.562    16.797076    19.784737    20.492394    6810.1497     13008.06     15461.34    11696.288   -1054.3088    -1471.333    -2614.286 
  474500    301.36954   -3717.7272   -3201.1901   -3717.7272            0    12466.136     16.82348    19.815837    20.524606    6842.3152    14069.239    11532.081    11797.088    483.79999   -173.20645   -1124.0025 
  475000    307.14028   -3742.9282   -3216.5002   -3742.9282            0    12358.811    16.812441    19.802835    20.511139    6828.8557    14065.124     11508.46    11502.851    692.47759     -302.271   -1094.4507 
  475500    288.94588   -3775.2331   -3279.9898   -3775.2331            0    12005.816    16.800131    19.788335     20.49612     6813.866    11984.816    11422.618    12610.015    413.56338    326.56961    730.49678 
  476000    306.72435   -3738.5628   -3212.8478   -3738.5628            0    12174.236    16.801565    19.790024     20.49787    6815.6113    12070.256    12334.557    12117.895   -1352.0193    2016.7229   -1265.0035 
  476500    296.24708   -3735.8434   -3228.0861   -3735.8434            0    13396.728    16.775336     19.75913    20.465871    6783.7411    15726.515    12541.515    11922.153    296.02351   -531.35925   -575.84483 
  477000    292.79885    -3686.346   -3184.4988    -3686.346            0    11886.826    16.867944     19.86821    20.578852    6896.7108    11006.425     13661.28    10992.772    1022.8487    2159.8479   -443.89388 
  477500    296.79885   -3700.8967   -3192.1937   -3700.8967            0     13058.37    16.848679    19.845518    20.555349    6873.1078    12004.529    11083.199    16087.382   -42.103363   -193.01769    547.61841 
  478000    282.67351   -3725.2459   -3240.7532   -3725.2459            0    12702.415    16.845664    19.841968    20.551671    6869.4193    12406.493    13533.601    12167.151    144.89137    1915.7494   -1245.5522 
  478500    304.64873   -3740.7627   -3218.6052   -3740.7627            0    10046.973    16.909567    19.917236    20.629632    6947.8913    11607.227    8840.1133    9693.5779    923.15934   -924.13369    640.67747 
  479000    302.63396   -3738.4105   -3219.7062   -3738.4105            0    12717.873    16.801827    19.790333     20.49819    6815.9301    14092.433    10273.632    13787.553     2602.337   -1687.6451   -511.27204 
  479500    276.64779    -3770.132   -3295.9672    -3770.132            0    12685.593    16.824699    19.817273    20.526094    6843.8032     12393.68    13877.322    11785.776    1168.4752    -2314.232    605.28835 
  480000    301.46128   -3746.3996   -3229.7053   -3746.3996            0    11280.368    16.866848    19.866919    20.577515    6895.3671    10932.832    12894.013    10014.259    694.67331   -895.78352    -1068.747 
  480500    313.92613   -3746.2459   -3208.1873   -3746.2459            0    11697.684    16.809235    19.799058    20.507227    6824.9491    10952.589    11455.693    12684.768   -548.13579    757.26583    2397.6463 
  481000    283.02486   -3735.4482   -3250.3532   -3735.4482            0    12949.011    16.801969      19.7905    20.498363    6816.1028     13328.41    14152.101    11366.523    278.89493    571.34984   -1154.9058 
  481500    299.55285   -3771.2105   -3257.7871   -3771.2105            0    11813.417    16.802312    19.790904    20.498782    6816.5203    10866.242    11551.457    13022.552   -571.00347    652.94178    210.87341 
  482000    282.75826   -3769.8406   -3285.2026   -3769.8406            0    10203.558    16.832864     19.82689    20.536054    6853.7713    8433.4797    9892.3769    12284.817   -674.05723   -540.62003    745.27131 
  482500    313.28728   -3748.4734   -3211.5098   -3748.4734            0    11759.146    16.782139    19.767143     20.47417    6791.9978    11931.269    11203.652    12142.517   -1053.5647   -564.63274   -577.74094 
  483000    273.07094   -3723.5225   -3255.4883   -3723.5225            0    12770.546    16.834773    19.829139    20.538384    6856.1042    15615.002     10857.77    11838.867   -494.11556    333.39249   -19.138587 
  483500    317.82504    -3742.791   -3198.0498    -3742.791            0    11942.463    16.858386    19.856952    20.567192    6884.9941    11512.237    8910.2326    15404.919   -659.77016    355.54736    1550.9045 
  484000    298.29346   -3730.8365   -3219.5717   -3730.8365            0    11817.515    16.811766     19.80204    20.510315    6828.0329    11589.218    11329.636    12533.693   -590.69598    745.75805    866.23268 
  484500    293.09007   -3698.6823   -3196.3359   -3698.6823            0    11075.497    16.821941    19.814024    20.522728    6840.4374    9794.6044    13472.802    9959.0834    288.78683   -1173.4991    111.96924 
  485000    308.94388   -3729.2513    -3199.732   -3729.2513            0    12228.421    16.839937    19.835222    20.544684    6862.4155    10580.695    12971.358    13133.212    482.92452   -429.84243   -493.13286 
  485500    304.06043   -3678.3529   -3157.2037   -3678.3529            0    12345.832    16.806898    19.796306    20.504377    6822.1035    12570.332    9446.7678    15020.396   -469.82764    21.917186   -501.98982 
  486000    295.01355   -3711.7794   -3206.1363   -3711.7794            0    11251.366     16.82695    19.819924    20.528839    6846.5499    12604.297    10961.268    10188.532   -321.72077   -139.99525   -501.24708 
  486500    294.64129   -3733.9576   -3228.9525   -3733.9576            0    10501.679      16.8623    19.861562    20.571967     6889.791    9525.8923    11190.939    10788.206   -502.29697   -2184.9398    1437.6849 
  487000     308.6797   -3716.8988   -3187.8324   -3716.8988            0    10953.568    16.852187     19.84965    20.559629    6877.4019    8808.4827    9504.9482    14547.272     187.3821   -1311.2628     415.5778 
  487500     293.7604   -3720.9375   -3217.4422   -3720.9375            0     13089.57    16.786047    19.771746    20.478938    6796.7434    12672.295    12623.533    13972.881   -205.44094    558.17558   -1822.2251 
  488000    300.81897   -3731.8099   -3216.2164   -3731.8099            0    11261.742    16.862939    19.862315    20.572746     6890.574    10211.417    12219.987    11353.822   -809.43614   -1248.7048    308.84771 
  488500    293.48603    -3722.169    -3219.144    -3722.169            0    13456.163    16.831729    19.825554    20.534671     6852.386     13567.39    12921.722    13879.378   -827.63877    1309.1489    932.15178 
  489000    283.17913   -3774.5776   -3289.2182   -3774.5776            0     12614.33    16.839266    19.834432    20.543866    6861.5952    13918.985    11778.218    12145.787    1228.0441    1956.7006    1434.6079 
  489500    301.35511   -3737.7428   -3221.2304   -3737.7428            0    11811.276    16.854354    19.852203    20.562273    6880.0558    12131.471    12504.044    10798.312    119.93851   -54.996578    1227.7308 
  490000    295.86122   -3730.0868   -3222.9908   -3730.0868            0    11989.194    16.821945    19.814029    20.522733    6840.4425    11676.057    11303.663    12987.863   -167.85116    265.88376   -1724.0819 
  490500    290.01904   -3733.2689   -3236.1862   -3733.2689            0    12214.011     16.81049    19.800537    20.508759    6826.4788    12815.549    10331.272    13495.214    1018.6204    1639.7154    533.25289 
  491000    308.98257   -3740.8025   -3211.2169   -3740.8025            0    13703.019     16.78725    19.773163    20.480405    6798.2046    15745.255    12196.965    13166.838    727.34182    1445.9284   -119.18522 
  491500    297.21799    -3716.395   -3206.9735    -3716.395            0    12890.975    16.754919    19.735081    20.440962    6759.0021    14149.207    9950.8954    14572.822   -1715.6622   -849.97561   -304.64039 
  492000    301.38929   -3719.1556   -3202.5847   -3719.1556            0    11660.143    16.849123    19.846041    20.555891    6873.6512        13458    9850.7852    11671.644    533.93352    816.38977   -389.47523 
  492500    288.19529   -3751.1859   -3257.2291   -3751.1859            0    10812.025    16.798535    19.786455    20.494174    6811.9245    9798.1691    10905.633    11732.274   -2623.2773   -1287.7095    163.55226 
  493000    287.33298   -3729.2276   -3236.7487   -3729.2276            0    12077.383    16.785463    19.771058    20.478226    6796.0345    11027.533    10828.217      14376.4    1439.1038   -822.07486     1135.859 
  493500    289.85648   -3707.7095   -3210.9055   -3707.7095            0    13732.405    16.806193    19.795475    20.503516    6821.2444    12024.581    15513.469    13659.166    1058.8834   -2940.0123    1472.6518 
  494000    307.21878   -3703.4396   -3176.8771   -3703.4396            0    13687.775    16.802833    19.791518    20.499417    6817.1545    14109.449    11629.697    15324.178   -177.19484   -1173.3665    756.25599 
  494500    302.21333   -3701.0641   -3183.0808   -3701.0641            0    12352.588    16.837591    19.832458    20.541821    6859.5468    12455.021     12859.09    11743.652    2137.7752   -56.827623    -989.4368 
  495000      306.323   -3714.5656   -3189.5385   -3714.5656            0    14931.116    16.781075     19.76589    20.472873    6790.7064    15885.908    14517.937    14389.503   -779.39799    1166.1229    596.99211 
  495500    282.24892    -3737.207    -3253.442    -3737.207            0    10353.485    16.898655    19.904384     20.61632    6934.4502    11379.295     9229.081    10452.079    1143.3618    -2092.102     645.4431 
  496000    308.29473   -3711.4503   -3183.0437   -3711.4503            0    13246.447    16.773649    19.757143    20.463813     6781.695    14811.682    12582.626    12345.033    1108.4981   -298.81945   -690.01135 
  496500    300.89472   -3704.5674   -3188.8442   -3704.5674            0    11491.306    16.892445    19.897069    20.608743    6926.8075    9986.3161    11250.377    13237.226    98.579278    -510.4832    821.27069 
  497000    280.01633   -3703.9137   -3223.9753   -3703.9137            0    12125.651    16.852982    19.850587    20.560599    6878.3755    9883.2606    12006.732     14486.96   -1138.9878   -271.93533    937.23567 
  497500    296.86903   -3722.2988   -3213.4755   -3722.2988            0    12803.608    16.852373    19.849869    20.559856    6877.6295    13103.958    11932.237    13374.628   -1286.1963    2660.9853   -1663.1069 
  498000    298.62772   -3718.0074   -3206.1697   -3718.0074            0    12256.337    16.878188    19.880276     20.59135    6909.2841    11942.604    12835.912    11990.495   -893.94147   -1765.1349    411.43448 
  498500    300.69486   -3707.8257    -3192.445   -3707.8257            0    11028.074    16.821765    19.813818    20.522515    6840.2238    11202.322    12628.441    9253.4604   -1471.3774    242.71801    -574.1847 
  499000    293.16613   -3722.7427    -3220.266   -3722.7427            0    10052.928    16.899719    19.905636    20.617617    6935.7592    8670.1373    11330.938    10157.709   -768.85261     1122.043   -702.16408 
  499500    302.85667   -3721.7907   -3202.7047   -3721.7907            0    10582.513    16.834488    19.828803    20.538036    6855.7551    9981.0243    11364.915    10401.601    -1225.719     1544.306    944.99254 
  500000    287.97205   -3719.0205   -3225.4463   -3719.0205            0    14753.803    16.740719    19.718356    20.423638    6741.8315    16295.805    13350.644    14614.961    73.386942    158.52016    549.62418 
Loop time of 1744.44 on 32 procs for 500000 steps with 864 atoms

Performance: 49.529 ns/day, 0.485 hours/ns, 286.625 timesteps/s
3158.7% CPU use with 1 MPI tasks x 32 OpenMP threads

MPI task timing breakdown:
Section |  min time  |  avg time  |  max time  |%varavg| %total
---------------------------------------------------------------
Pair    | 218.76     | 218.76     | 218.76     |   0.0 | 12.54
Bond    | 31.621     | 31.621     | 31.621     |   0.0 |  1.81
Kspace  | 1049.7     | 1049.7     | 1049.7     |   0.0 | 60.17
Neigh   | 25.193     | 25.193     | 25.193     |   0.0 |  1.44
Comm    | 101.24     | 101.24     | 101.24     |   0.0 |  5.80
Output  | 3.1616     | 3.1616     | 3.1616     |   0.0 |  0.18
Modify  | 312.55     | 312.55     | 312.55     |   0.0 | 17.92
Other   |            | 2.232      |            |       |  0.13

Nlocal:        864.000 ave         864 max         864 min
Histogram: 1 0 0 0 0 0 0 0 0 0
Nghost:        7601.00 ave        7601 max        7601 min
Histogram: 1 0 0 0 0 0 0 0 0 0
Neighs:        292371.0 ave      292371 max      292371 min
Histogram: 1 0 0 0 0 0 0 0 0 0

Total # of neighbors = 292371
Ave neighs/atom = 338.39236
Ave special neighs/atom = 2.0000000
Neighbor list builds = 35193
Dangerous builds = 3

unfix		3
unfix		2
unfix		1

write_data	data.final.${pid}
write_data	data.final.0
System init for write_data ...
PPPM initialization ...
  extracting TIP4P info from pair style
  using 12-bit tables for long-range coulomb (../kspace.cpp:340)
  G vector (1/distance) = 0.37540447
  grid = 24 24 24
  stencil order = 5
  estimated absolute RMS force accuracy = 0.0030330265
  estimated relative force accuracy = 9.1338693e-06
  using single precision MKL FFT
  3d grid and FFT values/proc = 31713 13824
  generated 0 of 1 mixed pair_coeff terms from geometric mixing rule
Last active /omp style is kspace_style pppm/tip4p/omp
WARNING: Not all mixed pair coeffs generated from mixing. Use write_data with 'pair ij' option to store all pair coeffs. (../write_data.cpp:309)

write_restart   restart.lmp.${pid}
write_restart   restart.lmp.0
System init for write_restart ...
PPPM initialization ...
  extracting TIP4P info from pair style
  using 12-bit tables for long-range coulomb (../kspace.cpp:340)
  G vector (1/distance) = 0.37540447
  grid = 24 24 24
  stencil order = 5
  estimated absolute RMS force accuracy = 0.0030330265
  estimated relative force accuracy = 9.1338693e-06
  using single precision MKL FFT
  3d grid and FFT values/proc = 31713 13824
  generated 0 of 1 mixed pair_coeff terms from geometric mixing rule
Last active /omp style is kspace_style pppm/tip4p/omp
Total wall time: 0:29:05
