LAMMPS (30 Jul 2021)
Processor partition = 1
  using 2 OpenMP thread(s) per MPI task
using multi-threaded neighbor list subroutines
variable        pid world 0 1
variable        phase world IceV IceIII

shell cd ${phase}
shell cd IceIII
include Restart.lmp
echo both
log log.lammps
#include		in.partitions
include		in.temp
variable        temperature equal 113.97
variable	tempDamp equal 100.0
include		in.pressure
variable        pressure equal 6991.8
variable        pressureDamp equal 1000.0 # This is 1 ps
include		in.seed
variable        seed equal 745823

units		real
atom_style	full

read_restart	restart.lmp.${pid}
read_restart	restart.lmp.1
Reading restart file ...
  restart file = 30 Jul 2021, LAMMPS = 30 Jul 2021
  restoring atom style full from restart
  orthogonal box = (0.10450872 0.093635314 0.10857502) to (19.895492 19.906366 20.591423)
  2 by 4 by 4 MPI processor grid
  restoring pair style lj/cut/tip4p/long/omp from restart
  restoring bond style harmonic/omp from restart
  restoring angle style harmonic/omp from restart
  972 atoms
  648 bonds
  324 angles
Finding 1-2 1-3 1-4 neighbors ...
  special bond factors lj:    0        0        0       
  special bond factors coul:  0        0        0       
     2 = max # of 1-2 neighbors
     1 = max # of 1-3 neighbors
     1 = max # of 1-4 neighbors
     2 = max # of special neighbors
  special bonds CPU = 0.002 seconds
  read_restart CPU = 0.010 seconds
include 	in.setup
variable	out_freq equal 1000
variable	out_freq2 equal 10000
variable	out_freq3 equal 1000

timestep	2.0

neigh_modify    delay 7 every 1

include		in.tip4p
# This is TIP4P/Ice

# create groups ###
group ox type 2
324 atoms in group ox
group hy type 1
648 atoms in group hy

# set charges - beside manually ###
set group ox charge -1.1794
Setting atom values ...
  324 settings made for charge
set group hy charge 0.5897
Setting atom values ...
  648 settings made for charge

# ### TIP3P Potential Parameters ###
pair_style lj/cut/tip4p/long/omp 2 1 1 1 0.1577 8.5
pair_coeff 1 1*2 0.000 0.000
pair_coeff 2 2 0.21084 3.1668
bond_style  harmonic
bond_coeff  1 450 0.9572
angle_style harmonic
angle_coeff 1 55 104.52
kspace_style pppm/tip4p/omp 1.0e-5
pair_modify tail yes

thermo          ${out_freq}
thermo          1000
thermo_style    custom step temp pe etotal epair emol press lx ly lz vol pxx pyy pzz pxy pxz pyz enthalpy

restart 	${out_freq3} restart.lmp.${pid} restart2.lmp.${pid}
restart 	1000 restart.lmp.${pid} restart2.lmp.${pid}
restart 	1000 restart.lmp.1 restart2.lmp.${pid}
restart 	1000 restart.lmp.1 restart2.lmp.1


include         in.dump
dump            myDump all atom ${out_freq2} dump.water.${pid}
dump            myDump all atom 10000 dump.water.${pid}
dump            myDump all atom 10000 dump.water.1
dump            myDump2 all dcd ${out_freq2} dump.dcd
dump            myDump2 all dcd 10000 dump.dcd
dump_modify     myDump append yes
dump_modify     myDump2 append yes


variable natoms 	equal  "count(all)"                        # NUMBER ATOMS
variable H      	equal  "enthalpy/v_natoms"                 # ENTHALPY-per-atom
variable Vol      	equal  "vol/v_natoms"                 # volume-per-atom
fix AVG all 		ave/time ${out_freq} 1 ${out_freq} v_Vol v_H file vol_enthalpy.dat
fix AVG all 		ave/time 1000 1 ${out_freq} v_Vol v_H file vol_enthalpy.dat
fix AVG all 		ave/time 1000 1 1000 v_Vol v_H file vol_enthalpy.dat


timer           timeout 02:55:00 every 1000
New timer settings: style=normal  mode=nosync  timeout=02:55:00

fix 		1 all shake 1e-6 200 0 b 1 a 1
Finding SHAKE clusters ...
       0 = # of size 2 clusters
       0 = # of size 3 clusters
       0 = # of size 4 clusters
     324 = # of frozen angles
  find clusters CPU = 0.000 seconds
fix             2 all nph aniso ${pressure} ${pressure} ${pressureDamp}
fix             2 all nph aniso 6991.8 ${pressure} ${pressureDamp}
fix             2 all nph aniso 6991.8 6991.8 ${pressureDamp}
fix             2 all nph aniso 6991.8 6991.8 1000
fix             3 all temp/csvr ${temperature} ${temperature} ${tempDamp} ${seed}
fix             3 all temp/csvr 113.97 ${temperature} ${tempDamp} ${seed}
fix             3 all temp/csvr 113.97 113.97 ${tempDamp} ${seed}
fix             3 all temp/csvr 113.97 113.97 100 ${seed}
fix             3 all temp/csvr 113.97 113.97 100 745823


run             250000
PPPM initialization ...
  extracting TIP4P info from pair style
  using 12-bit tables for long-range coulomb (../kspace.cpp:340)
  G vector (1/distance) = 0.37218263
  grid = 24 24 24
  stencil order = 5
  estimated absolute RMS force accuracy = 0.003509969
  estimated relative force accuracy = 1.0570167e-05
  using double precision FFTW3
  3d grid and FFT values/proc = 3211 432
Last active /omp style is kspace_style pppm/tip4p/omp
Neighbor list info ...
  update every 1 steps, delay 7 steps, check yes
  max neighbors/atom: 2000, page size: 100000
  master list distance cutoff = 10.8154
  ghost atom cutoff = 10.8154
  binsize = 5.4077, bins = 4 4 4
  1 neighbor lists, perpetual/occasional/extra = 1 0 0
  (1) pair lj/cut/tip4p/long/omp, perpetual
      attributes: half, newton on, omp
      pair build: half/bin/newton/omp
      stencil: half/bin/3d
      bin: standard
Setting up Verlet run ...
  Unit style    : real
  Current step  : 29500000
  Time step     : 2
  Walltime left : 2:54:59.93
Per MPI rank memory allocation (min/avg/max) = 10.19 | 10.19 | 10.19 Mbytes
Step Temp PotEng TotEng E_pair E_mol Press Lx Ly Lz Volume Pxx Pyy Pzz Pxy Pxz Pyz Enthalpy 
29500000    120.13785    -5001.001   -4769.3051    -5001.001            0    7369.5195    19.790984     19.81273    20.482848    8031.5996    6145.7102    8298.4776    7664.3706   -442.89302   -183.00423    251.17149   -3906.0938 
29501000    114.33234   -5020.6942   -4800.1947   -5020.6942            0    7312.9309    19.876627    19.684281    20.441825    7998.0095    7039.2957     7866.158    7033.3389   -518.06718    824.50947   -56.116879   -3947.1942 
29502000    110.28498   -5010.2362   -4797.5423   -5010.2362            0    6342.7328    19.802411    19.745474    20.539431    8031.0815    6303.0851    6577.4785    6147.6349   -294.36563    271.80657    515.24404   -4054.6492 
29503000     111.3028   -5016.7914   -4802.1345   -5016.7914            0    7591.5952    19.899271    19.714748    20.451577    8023.3402     7000.869     8105.466    7668.4505    406.47875   -219.28772   -1180.5973   -3913.8254 
29504000    113.70802   -5032.3667   -4813.0712   -5032.3667            0     6261.404    19.780464    19.814042    20.393877    7992.9916    6794.8435    5322.2724     6667.096   -375.19535    -793.0112    104.07976   -4083.1819 
29505000    115.59554   -5014.9992   -4792.0635   -5014.9992            0     6962.497    19.842054    19.794734    20.273998    7962.9814    5528.6559     7528.261    7830.5742    -342.3579   -413.25057    22.588513   -3983.4953 
29506000    114.95643   -5008.3787   -4786.6755   -5008.3787            0    7008.6468    19.906836    19.764042    20.368271    8013.6834    7361.3853    6478.2923    7186.2629    334.09554    761.20683   -57.603479   -3967.5655 
29507000    114.81829   -5011.7711   -4790.3344   -5011.7711            0    7814.8174    19.781975    19.695091    20.449795    7967.3998    7686.6149    9078.3808    6679.4565    127.92166   -125.68744    756.85056   -3882.2811 
29508000    113.74073   -5011.0628   -4791.7042   -5011.0628            0    7400.0125    19.690626     19.86606    20.429238    7991.4109    8966.1363    5855.8428    7378.0584   -177.29471   -344.37856   -382.88366   -3929.2584 
29509000    121.07678   -5018.8539   -4785.3472   -5018.8539            0    6548.8003     19.93022    19.710858    20.491208    8049.8017    6187.0357    6457.4133     7001.952   -167.24196    115.62471   -946.48048   -4016.5305 
29510000    117.15837   -5011.9986   -4786.0489   -5011.9986            0     7322.605     19.74355    19.717613     20.52428    7990.0135    7669.2559    7248.4231    7050.1359   -309.49569    380.37285   -673.58727   -3932.7739 
29511000    111.13201   -5009.8009   -4795.4735   -5009.8009            0    6890.7987    19.685072    19.701688    20.659557    8012.3782    7089.8979    7504.5766    6077.9217   -191.78964    1101.4463    514.33827   -3990.2677 
29512000    119.75505   -5002.9011   -4771.9434   -5002.9011            0    8200.9381    19.666491    19.797335    20.481594    7974.3876    8224.1478    8532.7899    7845.8765    161.55695    506.94029    664.46382   -3818.1886 
29513000    120.08336   -5003.3825   -4771.7917   -5003.3825            0    6342.8859    19.752544    19.674883    20.482733    7960.1839    7139.2827    5530.1416    6359.2336   -245.88764   -173.18515    239.27316   -4035.4389 
29514000    118.88321   -5024.6681   -4795.3918   -5024.6681            0    7291.3731    19.737283    19.689555      20.4975    7965.7041    7024.9709    7430.1947    7418.9536   -400.75082    774.18246    49.361923   -3948.3412 
29515000    111.19134   -5015.1026   -4800.6608   -5015.1026            0    6771.3945    19.745748    19.841183     20.42973    8003.9389     6610.528    6991.8674    6711.7881   -600.86351    776.37788    112.50651    -4010.241 
29516000    114.66702   -5016.1283   -4794.9833   -5016.1283            0    6985.7564    19.713033    19.858304     20.45882     8008.961    7786.5802    6834.4482    6336.2409    537.75445    1196.1096    557.70772   -3979.0296 
29517000     114.7475   -5016.0543   -4794.7541   -5016.0543            0    6790.3989    19.713625    19.617934    20.663099     7991.259    7238.2085    6496.7738    6636.2144   -41.781761    1222.0671   -905.57454   -4003.3717 
29518000    105.00388   -5004.7267   -4802.2179   -5004.7267            0     7250.782    19.751307    19.624927      20.5656    7971.5957    7682.5642    7733.6913    6336.0906    320.11633    255.00406    133.94771   -3959.2598 
29519000     110.4831   -5003.8821   -4790.8062   -5003.8821            0     8321.682    19.723685    19.684575    20.494859    7957.1772    9537.9378    7150.0001    8277.1082   -499.12559   -387.18179    900.87705   -3825.0977 
29520000    111.43791   -5012.0121   -4797.0947   -5012.0121            0    6913.7547    19.680147    19.852215     20.46164    7994.2506    6091.4975    7215.5095     7434.257   -408.89903    56.954259    185.83276   -3991.0343 
29521000    113.57038   -5023.3274   -4804.2974   -5023.3274            0    6461.9492    19.844581    19.809247    20.347667    7998.7939    8152.1854    4697.1865    6536.4755   -420.28475    27.260335    1317.9967   -4050.4838 
29522000    114.26646   -5014.1535    -4793.781   -5014.1535            0    6236.7588    19.730057    19.831885    20.475467     8011.727    6058.6588    6701.8639    5949.7537   -419.48623    461.41345    900.08365   -4065.0605 
29523000    110.13915   -5014.9324   -4802.5198   -5014.9324            0    6239.8953     19.66728    19.714802    20.549475     7967.782    6026.4473    7171.0245     5522.214    585.06601   -188.45778    1097.3304    -4077.432 
29524000    117.28034   -5002.4576   -4776.2726   -5002.4576            0    7665.0188    19.647582    19.985455    20.463913    8035.4798    7040.5928    8041.6454    7912.8181   -766.13548    1018.2373   -551.24361   -3878.0149 
29525000    121.22266   -5015.9596   -4782.1715   -5015.9596            0    6200.5993    19.899113    19.622424     20.49467    8002.5301    6781.0249    5706.7314    6114.0416   -358.11282    401.77068   -223.30534   -4058.5077 
29526000    117.65231   -5006.2625   -4779.3601   -5006.2625            0    6542.8678    19.808093    19.859418    20.332632    7998.3937    4669.2642    7060.6781    7898.6612   -31.017855    127.35501    164.34196   -4016.1452 
29527000    120.51403   -5011.9933   -4779.5718   -5011.9933            0    6422.1911    19.930889    19.816388    20.294106    8015.3243    6161.9541    6091.1571    7013.4622   -529.14745     1843.661    383.87573    -4028.848 
29528000    113.92418   -5021.5497   -4801.8373   -5021.5497            0    8070.9293    19.847965    19.694298    20.469251    8001.2612    9605.2359    6664.5054    7943.0466   -92.198135    175.28051   -342.33391   -3860.0391 
29529000    117.83678   -5024.9526   -4797.6945   -5024.9526            0    5976.1566    19.742632    19.988058    20.381563    8042.9082    7262.4538    4146.0571    6519.9588   -713.49969    633.66788    759.40711   -4096.7058 
29530000    116.77956   -5014.2084   -4788.9892   -5014.2084            0    6609.7009    19.826148    19.833939    20.346093    8000.7068    5887.4026    6857.2019    7084.4982    156.89372    587.85706    441.09916   -4017.7554 
29531000    116.86415   -4997.2542   -4771.8718   -4997.2542            0    8663.5246    19.673053    19.885864    20.264613     7927.834    8150.3129    8989.0269     8851.234   -450.51226    -241.7746   -73.862216   -3770.2009 
29532000    115.90533   -5010.4919   -4786.9588   -5010.4919            0    7021.6706    19.842556    19.716463    20.494683    8018.0332    6967.0794    7211.0105     6886.922    370.17436    323.14615   -435.76882   -3965.8812 
29533000    115.32475   -5014.3573   -4791.9438   -5014.3573            0    7398.7619    19.793758    19.901163      20.3191    8004.0756    7565.1371    6074.4804    8556.6682   -276.90528   -328.32064   -241.10669   -3928.2772 
29534000    111.96001   -5017.6744   -4801.7501   -5017.6744            0    5863.4513    19.765668    19.937273     20.29634      7998.25    5844.0165    5759.9797    5986.3577   -729.85957   -207.61534    708.65013   -4117.8004 
29535000    114.36626   -5032.6641   -4812.0991   -5032.6641            0    6753.6405    19.677403    19.889651     20.42358    7993.3128    7587.4311    6083.6714     6589.819    117.38896   -507.20953    111.33913   -4024.7984 
29536000     110.5928   -5023.6301   -4810.3426   -5023.6301            0    5628.5473    19.772893    19.848494    20.482032    8038.4224    5271.9163    6322.7282    5290.9974   -84.749592   -173.01288   -95.890266   -4150.4959 
29537000    113.31901    -5015.803   -4797.2578    -5015.803            0    6382.8467    19.660396    19.874618    20.481947    8003.1746    7472.3624    5393.9288     6282.249   -748.27849   -56.100685   -1.3612999   -4052.2641 
29538000    114.52449   -5004.8556   -4783.9855   -5004.8556            0    7421.5223    19.652524    19.820102    20.479314    7977.0006    7825.1874    6790.6479    7648.7315     122.1911    -450.4811    107.45248   -3920.5926 
29539000    110.26077   -5012.6955   -4800.0483   -5012.6955            0    7901.2569    19.704898    19.972219    20.253281    7970.6894    9387.3168    6562.6711    7753.7828   -567.71429    395.60917   -392.97674    -3881.572 
29540000    110.67528   -5010.8189   -4797.3723   -5010.8189            0    5977.2305    19.839564    19.779688    20.382068    7998.3389     4710.444    6677.0928    6544.1545     409.4869   -866.93981    334.30003   -4100.1429 
29541000    115.23442   -5013.0959   -4790.8566   -5013.0959            0    7483.0859    19.874406    19.798716    20.334751    8001.4751    6176.1054    8081.7701    8191.3822   -141.33675    419.29375    75.803291   -3917.6306 
29542000     109.6639   -5009.1343   -4797.6382   -5009.1343            0     7392.809    19.881907    19.744176    20.324713    7978.5041    7328.8866    6998.3148    7851.2257   -53.145858    96.997817    953.40292   -3937.4236 
29543000      115.947   -5005.9854   -4782.3718   -5005.9854            0    6190.5617    19.625922    20.060176    20.279564     7984.053    7351.3783    3933.3614    7286.9453   -244.98731   -808.18468    236.82042   -4061.5476 
29544000    110.54617    -5023.102   -4809.9044    -5023.102            0    6258.4522    19.768801    19.783239     20.53197     8029.867    6163.7867    7343.7023    5267.8676   -512.07009   -537.32635    -1726.977   -4076.9935 
29545000    110.05194   -5019.7702   -4807.5257   -5019.7702            0    7564.9953    19.818292    19.799245    20.328074    7976.4764    7328.0364    7788.8865    7578.0629    -326.9552   -391.60773    190.43146   -3927.4995 
29546000     113.2978   -5021.2945   -4802.7902   -5021.2945            0    6632.6137    19.758215    19.760268    20.474946    7993.9843    8180.0629    5089.8947    6627.8836    555.11105   -290.45271    407.31525   -4029.5331 
29547000    115.87632   -5019.0362    -4795.559   -5019.0362            0    6738.0662    19.752371    19.910584    20.346551    8001.9169    6125.7974    6600.0064    7488.3949   -115.26131    208.03053   -480.39304   -4009.2283 
29548000    110.99541   -5020.2816   -4806.2176   -5020.2816            0    6994.2599    19.637871    19.706481     20.62937    7983.4287    6977.9869    8239.5997    5765.1931   -266.94213    581.07189    123.81827   -3991.8751 
29549000    110.97773    -5006.004   -4791.9741    -5006.004            0    7089.4936    19.768492    19.772727    20.504817    8014.8611    8101.8808    5845.9935    7320.6066    42.135698    641.48574    263.00994   -3963.2937 
29550000    111.20266   -5024.3686   -4809.9049   -5024.3686            0     6522.061    19.714893    19.790149     20.57648    8028.1333     8553.333    4943.5452    6069.3048    53.380154    109.50117    871.05725   -4046.2884 
29551000    122.61961   -5003.3467   -4766.8645   -5003.3467            0    7259.4642    19.735869    19.862808    20.449304     8016.327    7164.7973       7240.1    7373.4953   -465.66919      241.599    329.64655   -3918.1612 
29552000    111.53457   -5019.8021   -4804.6983   -5019.8021            0    7060.2374    19.536381     19.83163    20.593942    7978.8813    6710.3289    8016.7226    6453.6608   -465.18201   -597.69018    21.878958   -3983.1422 
29553000    111.27135   -5026.6635   -4812.0673   -5026.6635            0    6725.7467    19.822799    19.708649    20.486716     8003.762    5522.5789    7586.4106    7068.2505    433.21388    24.984871   -232.85357   -4026.9934 
29554000    119.11897   -5009.8598   -4780.1289   -5009.8598            0    7818.8299    19.758496    19.735391    20.444281    7972.0765    7881.7454    8110.2569    7464.4873    122.84966   -806.63405    1011.7611   -3871.0761 
29555000    114.79862   -5017.1838    -4795.785   -5017.1838            0    5835.0563    19.819381    19.789563    20.513788    8045.8539    5425.0766     6131.601    5948.4914   -305.47864    531.12557   -340.73669   -4111.0964 
29556000    114.75133   -4994.5551   -4773.2476   -4994.5551            0    7634.8309    19.868364    19.750208    20.381558    7997.8116     7822.213    7485.0057    7597.2741   -326.77447    946.50899   -446.33884   -3882.7218 
29557000    111.14423   -5024.7572   -4810.4062   -5024.7572            0    7544.2706    19.805458    19.718871    20.494438    8003.9238     6227.191     8825.033    7580.5879     -21.0387    272.93592    67.349561   -3929.7709 
29558000    115.40786   -5017.5182   -4794.9444   -5017.5182            0    6465.2137    19.697389    19.833582    20.544131    8025.9713    6597.5182    6579.1175    6219.0053    -40.56517    1155.9241    447.41077   -4038.1875 
29559000    110.02127   -5006.5819   -4794.3966   -5006.5819            0    7926.4046    19.727406    19.801845    20.405944    7971.3579    8712.8794    6967.8919    8098.4427     329.1851   -938.96463    199.48114   -3872.9198 
29560000     115.0052   -5023.6288   -4801.8316   -5023.6288            0     5825.801    19.814185     19.81772    20.519088    8057.2706     4712.566    6773.3472    5991.4897   -331.62946    55.116044    162.07153    -4117.259 
29561000    112.81811   -5006.0816   -4788.5024   -5006.0816            0    6995.1811    19.832221    19.772195    20.395008    7997.4242    5787.7808    7129.2073     8068.555    335.61709   -174.21126   -54.567226   -3972.6248 
29562000    119.25727   -5006.2027    -4776.205   -5006.2027            0    7114.8549    19.807422    19.756929    20.428617    7994.4088    8417.5212      6166.09    6760.9535   -152.44883   -43.574462    123.04049   -3946.6823 
29563000    121.72465   -5022.3324   -4787.5762   -5022.3324            0    6148.2055    19.840802    19.861272    20.419418    8046.5487    5412.8028    6776.6001    6255.2136   -286.49633   -7.8990792   -73.948491   -4066.0802 
29564000    114.58407    -5016.762    -4795.777    -5016.762            0    7405.9508     19.75885    19.848676    20.431442    8012.9464    7494.4822    7115.9702    7607.3999     127.8938   -269.68233   -547.47434   -3930.3131 
29565000    113.44461   -5018.2043   -4799.4168   -5018.2043            0     7399.313    19.858645    19.617003    20.549113    8005.2585    6650.6949    8504.7019    7042.5421    81.613433   -77.838002   -356.42954   -3935.5582 
29566000    117.86928   -5004.7009     -4777.38   -5004.7009            0    5995.4724    19.773024    19.726315    20.528452    8007.1001    5905.7971    5954.7589    6125.8613    77.799451   -153.81384   -741.21339   -4077.2567 
29567000    117.70978   -5024.7121   -4797.6989   -5024.7121            0    7732.2341    19.792208    19.718651    20.399399    7961.3882    7372.1319    7918.2371    7906.3334   -5.8996674   -392.70208    1081.3756   -3899.9194 
29568000    113.23667    -5015.097   -4796.7106    -5015.097            0    6180.7556    19.694104    19.797271    20.530835    8004.7572    8010.5102    5300.0967      5231.66    150.03149    395.46485   -345.04516   -4075.1619 
29569000    104.36766   -5015.4947   -4814.2129   -5015.4947            0    6245.0067    19.795605    19.903621    20.417137    8044.4383    6224.9876     5096.431    7413.6015   -13.629972   -622.20506    297.24601   -4081.5494 
29570000    112.70239   -5012.5239   -4795.1679   -5012.5239            0    6264.3592    19.924663    19.803251     20.39512    8047.3659    5185.9701    7057.5609    6549.5468   -102.00846    40.283729    421.99408   -4059.9665 
29571000    115.83755   -5011.8519   -4788.4494   -5011.8519            0    8366.9997    19.671261    19.826702    20.402133    7957.1628    8515.5711    8648.2327    7937.1953   -87.350994   -293.04738    341.48299   -3817.4837 
29572000    121.25812   -5000.9181   -4767.0616   -5000.9181            0     6511.275    19.795608     19.74899    20.469144     8002.274    6308.4671    6903.7728    6321.5852   -267.12152   -1728.1297   -28.463203   -4007.1635 
29573000    108.65993    -5026.451   -4816.8912    -5026.451            0    5765.6352    19.823565    19.795473      20.5077    8047.5671    4917.6699    6981.8955    5397.3403    307.40302    1078.3567    1069.0276   -4140.2045 
29574000    112.87102   -5021.2663    -4803.585   -5021.2663            0    7396.9462    19.735351    19.730825    20.419507    7951.2489    6946.0954    8533.4032      6711.34   -539.16425     926.4037    353.45549   -3945.8291 
29575000    114.08268   -5016.3723   -4796.3543   -5016.3723            0    6885.0924    19.789018    19.731663    20.396398    7964.1859    6129.3366    7997.0417    6528.8989    97.705808    379.92262    702.24898   -3996.6543 
29576000    115.13851   -5020.2823    -4798.228   -5020.2823            0    6141.8165    19.850567    19.860654    20.319085    8010.7025    6259.6178    4645.1311    7520.7004   -508.44744    342.76937    356.54966   -4080.6926 
29577000     108.7591   -5026.4385   -4816.6874   -5026.4385            0    5990.5295    19.671299      19.8612    20.502799    8010.3534    6812.0781    5858.1807    5301.3297    18.210158     149.2489   -467.95875   -4116.8571 
29578000    118.06402   -5009.9271   -4782.2307   -5009.9271            0    5868.1153    19.794343    19.840889    20.455559    8033.6625     7604.511    4603.3892    5396.4456    510.49454    295.06681   -96.373386   -4094.7063 
29579000     113.1643   -5023.6309    -4805.384   -5023.6309            0    7079.9248    19.673773    19.817918    20.502135    7993.6434    7083.0025    7979.3399     6177.432    549.83866   -210.21275    221.95965   -3980.0128 
29580000    115.04968   -5006.3003   -4784.4173   -5006.3003            0     6425.621    19.879031    19.670583    20.504919    8018.0822    6460.5042    6365.7924    6450.5664    -685.3442    -241.0799    -255.1512   -4033.0341 
29581000    115.20591   -5008.9149   -4786.7307   -5008.9149            0    5956.9854     19.94355    19.608836    20.416464    7984.2626    5668.3591     6360.686    5841.9111   -641.75101    321.98815     310.0781   -4093.0857 
29582000    110.38182   -5021.2828   -4808.4022   -5021.2828            0    6589.3046    19.812591     19.73662     20.45936    8000.2966    7015.3781    5881.9018     6870.634   -131.71793    961.15316   -276.77679   -4039.5877 
29583000    113.76698   -5013.0131   -4793.6039   -5013.0131            0    7076.1805    19.805235    19.745462    20.530595    8028.7667    7883.1897    7039.7708    6305.5811   -170.57018   -194.33557    556.62643   -3965.0445 
29584000    119.77293   -5009.0456   -4778.0534   -5009.0456            0    6924.7566    19.793543    19.745537    20.488379    8007.5577    6633.1736    6658.8077    7482.2884   -376.85245    363.86449   -730.93787   -3969.3664 
29585000    113.04634   -5022.8057   -4804.7863   -5022.8057            0    5418.1801    19.865271    19.640951    20.580116    8029.8019    4739.8691     6182.393    5332.2782    -626.4726    -731.6738   -267.53136   -4170.2826 
29586000    108.97228   -5009.2527   -4799.0905   -5009.2527            0    6824.6499    19.854453    19.672365    20.461776     7992.043     7014.895    7254.8919    6204.1627   -25.335497    513.57648   -340.66862   -4003.6383 
29587000    110.69301   -5014.9598    -4801.479   -5014.9598            0    6094.0694    19.692478     19.81032    20.539922    8012.9171    6368.5845    7057.8357     4855.788   -238.66603    28.864713   -2.7555558    -4089.325 
29588000    114.18846   -5012.3353   -4792.1132   -5012.3353            0    6654.9291    19.867259    19.809043    20.287858    7984.3143    7200.4105    5840.2388     6924.138    38.111237    432.39304    221.02592   -4017.1931 
29589000     111.8529   -5036.7558    -4821.038   -5036.7558            0    5963.8197    19.755555    19.737459    20.587482    8027.5626    7030.5747    5974.2733     4886.611    -86.08497    354.51524    768.97925   -4122.8312 
29590000      115.238    -5020.113   -4797.8668    -5020.113            0    7157.8461     19.68626    19.760848    20.499114    7974.5078    6770.4997    7879.2273    6823.8112    550.57778    147.57146   -238.61868   -3965.4092 
29591000    113.39621   -5015.9746   -4797.2805   -5015.9746            0    7033.3051    19.758523    19.789719    20.411123     7981.068    8236.8989    6542.6768    6320.3396   -263.56059    1507.2123    104.13925   -3978.6341 
29592000    110.69241   -5010.6847   -4797.2051   -5010.6847            0    7294.9705     19.67446    19.905792    20.426288    7999.6639    7729.5129    6960.0576    7195.3411   -137.96858   -430.93061    -952.6693   -3946.1235 
29593000    117.55662   -5007.4307   -4780.7128   -5007.4307            0    7810.1046    19.710291    19.717244    20.451083    7947.9575    7570.0105    7784.8469    8075.4563    264.50667   -420.51329   -216.11904   -3875.4217 
29594000    115.18818   -5020.9216   -4798.7715   -5020.9216            0    5690.5156    19.758342    19.913452    20.454464     8047.948    5310.0045    5888.6164    5872.9258    356.37146    1173.5749   -196.08775   -4130.8696 
29595000    109.02323   -5028.8514    -4818.591   -5028.8514            0    6235.2154    19.883729     19.91016    20.362862    8061.4173    7469.9202    3995.2937    7240.4322    200.24738    650.36611    95.477985   -4085.5323 
29596000     114.4256   -5009.4365   -4788.7572   -5009.4365            0    7591.6436    19.802142    19.662131    20.491126    7978.2675    5805.5388    8668.2171    8301.1751    432.48254   -662.53996     1394.982   -3905.4326 
29597000     112.3862   -5010.5618   -4793.8156   -5010.5618            0     7497.536    19.808419    19.792087    20.360373    7982.2835    7297.0122    7616.3371    7579.2588    183.40399     32.04669    800.87051   -3921.0018 
29598000    111.02501   -5008.6144   -4794.4934   -5008.6144            0    7800.3818    19.810198     19.75799    20.389136     7980.506    7492.6891    8284.4287    7624.0276   -311.28537   -1002.7553    278.47578   -3886.6265 
29599000    107.71761   -5000.2207   -4792.4782   -5000.2207            0      7843.66    19.669523    19.773659     20.42924    7945.7166    7449.4299    9365.3057    6716.2445   -272.62352    4.9604268    462.94876   -3883.5539 
29600000    106.40252   -5001.1767   -4795.9705   -5001.1767            0    7524.7697    19.830458    19.712983    20.442356    7991.2741    7743.5892    7706.4082    7124.3118   -7.9645948    306.08414    322.45585   -3918.9997 
29601000    105.95413   -5017.4292   -4813.0878   -5017.4292            0    6949.6529     19.73677    19.652823    20.618667    7997.6356    8157.8235    6371.2858    6319.8493   -723.38858    686.01093    364.76019   -4002.4989 
29602000    111.94379   -5012.6681   -4796.7751   -5012.6681            0     6837.229    19.733526    19.725931    20.587919    8014.0979    6571.5556    7820.6453    6119.4861    378.76333   -113.94783    356.24613   -3997.6575 
29603000     115.3719   -5008.0053   -4785.5008   -5008.0053            0    6672.8213    19.935347    19.545926    20.528092    7998.8699    5302.0881    7662.1215    7054.2542   -678.80804    1514.4305   -1010.2279   -4007.0808 
29604000    116.23647   -5011.7919   -4787.6201   -5011.7919            0    5983.7982    19.739671    19.704299    20.523606    7982.7874    5734.8349    6317.9679    5898.5919   -152.79374     814.9021    595.41311   -4090.9817 
29605000     120.4244   -5008.3019   -4776.0533   -5008.3019            0    6631.2959    19.848266    19.692362    20.525001    8022.3862     5928.562    7605.1578     6360.168    205.36292   -1.8330046   -221.50854   -4000.2031 
29606000    108.91643   -5019.2458   -4809.1914   -5019.2458            0    6563.5632    19.811025    19.717893    20.518842    8015.3094    7021.7478     6995.953    5672.9887    256.68516   -691.58541    529.34206   -4041.9432 
29607000    111.00841   -5006.4475   -4792.3584   -5006.4475            0    6364.2314    19.644067    19.767047    20.640658    8014.8746    7777.7616    5605.5922    5709.3403   -810.64262    -249.4325   -422.93028   -4048.4516 
29608000    116.14017   -5015.1251    -4791.139   -5015.1251            0    5610.3429    19.780614    19.820641    20.509921     8041.211    4181.3686    6259.2873    6390.3729   -128.55899   -499.02495   -195.72977   -4133.1983 
29609000    107.93328   -4999.1583   -4790.9999   -4999.1583            0    7423.3441    19.695372    19.795636    20.476609    7983.4696    7640.7982    7331.7602     7297.474    -310.2307   -603.92976    661.24591   -3926.6946 
29610000    118.21538   -5014.5275   -4786.5392   -5014.5275            0    5722.1744     19.78199    19.815424    20.495307    8033.9249    5912.0857      5033.35    6221.0876   -257.85824    265.68867    3.5655225   -4116.0917 
29611000     121.6278   -5017.9766   -4783.4071   -5017.9766            0    6534.7377    19.923611    19.715538     20.38641    8007.8779    6189.6113    6419.0437    6995.5582   -277.53473    254.66574    376.42918   -4020.2368 
29612000    116.35882   -5019.2866   -4794.8788   -5019.2866            0    6509.9784    19.900084    19.760706    20.474655    8051.4472    4923.4684     7683.924    6922.5428   0.36526215    136.71352   -483.14802   -4030.4635 
29613000    114.54351   -5022.2379   -4801.3311   -5022.2379            0    7299.5183    19.718943    19.801953     20.32337    7935.7391    6303.4956    7366.0084    8229.0508    117.92858    995.30781    1008.5712   -3956.5241 
29614000    117.27425   -5018.6214   -4792.4481   -5018.6214            0    6173.8722    19.863345    19.870718    20.368343    8039.3635    5698.9896    5992.7197    6829.9073    252.83256    47.643856    56.781492   -4068.5871 
29615000    114.44122   -5015.4701   -4794.7605   -5015.4701            0    7169.7322    19.803634    19.901105     20.31061    8004.6995    7594.6976    6112.2563    7802.2427   -83.195178    359.00401    778.93091   -3957.7636 
29616000    108.40159   -5020.9781   -4811.9166   -5020.9781            0    6146.5171    19.731552    19.892612    20.474305    8036.4127    5354.1979    6906.6351    6178.7183    106.63425    126.01956   -633.24089   -4091.5273 
29617000    111.01406   -5019.6393   -4805.5393   -5019.6393            0    6991.5887    19.652413    19.909308    20.382291    7974.8964    7262.6309    5924.7585    7787.3767   -844.28499    -251.0124   -789.28696   -3992.3778 
29618000    109.53539   -5017.1082     -4805.86   -5017.1082            0    7313.9276    19.935088    19.675157     20.44295     8018.256    6677.6149    7964.6938     7299.474    53.810933   -878.72513    264.70254   -3950.5836 
29619000    114.66355   -5025.0395   -4803.9012   -5025.0395            0    7437.5876    19.709372    19.778543    20.421002    7960.5693    7732.5268    7592.1354    6988.1006    151.36478    570.05745    319.46346   -3940.4216 
29620000    113.52417   -5015.0962   -4796.1553   -5015.0962            0    5530.6991    19.794249    19.875922    20.441799    8042.3957    6884.3733     3416.377    6291.3469    54.711088     730.9342   -331.19588   -4147.4591 
29621000     109.9017   -5019.2975   -4807.3428   -5019.2975            0    8024.4815    19.739673    19.864826    20.275432    7950.5071    8404.9224    7053.1984    8615.3237   -690.90544    1030.4755   -37.195471   -3876.9043 
29622000    115.98476   -5008.4783    -4784.792   -5008.4783            0    6240.2069    19.882042    19.761643    20.379551    8007.1626    5106.6811    6791.5633    6822.3763   -233.16902    38.409135   -409.23871    -4056.084 
29623000    115.77748   -5012.9762   -4789.6896   -5012.9762            0    7150.5948    19.791749    19.800682    20.288224    7950.7546    6589.1141    6850.4885    8012.1819   -164.48737    65.579222    577.77158   -3960.5524 
29624000    110.88365   -5004.1807   -4790.3323   -5004.1807            0    7973.8799    19.791304    19.860364    20.305488    7981.3258    6791.5012    8773.2421    8356.8965   -75.923817    1.3673352    98.871543   -3862.1771 
29625000    114.94083   -4999.7513   -4778.0782   -4999.7513            0    6903.1472    19.711073    19.760978    20.430093    7957.7272    5768.5677     7777.249    7163.6249    287.10779   -484.16898    211.10752   -3976.9315 
29626000    107.42567   -5018.2301   -4811.0507   -5018.2301            0    7605.6166    19.885284    19.756657    20.373253    8003.9734    8142.8579    7376.0963    7297.8956      114.579    74.267269   -960.66084    -3923.249 
29627000    113.17838    -5018.366    -4800.092    -5018.366            0    7247.2907    19.800661    19.812091    20.397275    8001.6981    7070.8426    7113.1617    7557.8679    -358.4845    838.96898    -518.4588   -3954.3581 
29628000    111.43279   -5014.5412   -4799.6337   -5014.5412            0    7324.4894    19.809057    19.678751    20.506314      7993.72    6726.4108    7608.7594    7638.2979   -453.39212   -211.45893    286.58224   -3945.7432 
29629000    121.61587   -5015.8707   -4781.3243   -5015.8707            0    6014.7006    19.925644    19.680824    20.499963    8039.1235    5753.8255    6947.1328    5343.1434    56.972008    847.43403   -949.53471   -4076.1465 
29630000    104.49108   -5016.4515   -4814.9316   -5016.4515            0    7625.9385    19.724962    19.794336    20.493522    8001.5421    7697.9847    8292.7004    6887.1304   -74.140097   -507.49469    630.96643   -3925.0282 
29631000    113.75502   -5030.8756   -4811.4894   -5030.8756            0    7206.9817     19.61382    19.772687    20.568078    7976.6689    7431.8742    7256.9727    6932.0983   -365.78912   -414.33723   -132.80323   -3973.0902 
29632000    115.44992   -5003.9937   -4781.3388   -5003.9937            0    6811.0092     19.79661    19.752365    20.465052    8002.4465     6314.526    7624.5967    6493.9047    245.29231   -120.40509    75.701578   -3986.4432 
29633000    119.45377   -5013.4525   -4783.0758   -5013.4525            0    6578.3018    19.777974    19.828331    20.443936    8017.3801    6792.3467    7091.1843    5851.3744    189.55994    153.41671    -290.5259   -4013.9062 
29634000    113.97352   -5025.4859   -4805.6783   -5025.4859            0    6228.3126    19.622872    19.962619    20.471529    8019.1875     8172.501     3867.867    6644.5698    19.385587    999.96551    47.605285   -4077.2671 
29635000    115.38621   -5024.6248   -4802.0928   -5024.6248            0    5733.4834    19.859532    19.777066     20.45387    8033.5287    5775.7027    6242.2676      5182.48   -200.12031    82.326798    281.11062   -4130.3535 
29636000    119.53883   -5019.4893   -4788.9486   -5019.4893            0    6930.5666    19.806741    19.616698    20.517411    7971.8934    6297.0332    7449.5831    7045.0836   -115.32195    388.08677    629.68085   -3983.1879 
29637000    111.94844   -5011.9596   -4796.0577   -5011.9596            0    8353.8511    19.610336    19.674756    20.571878    7937.2183    9793.7644    7611.8041    7655.9848   -185.14198    -159.0342    499.51368   -3829.0477 
29638000    113.79326   -5011.4693   -4792.0094   -5011.4693            0    8874.5131    19.686952    19.641646    20.487144    7922.0534    9450.0829    8592.2408    8581.2156    69.983971    905.32807   -541.44452   -3766.6924 
29639000    110.05123   -5023.2674   -4811.0244   -5023.2674            0    7329.5875    19.654033    19.692529    20.645102    7990.4309    9574.6767    6634.6996    5779.3862   -28.654733    729.48993    -40.74271   -3956.8911 
29640000     117.5029    -5020.154   -4793.5398    -5020.154            0    6379.6215    19.844133    19.747477    20.528012     8044.344    4904.6657    7711.9519    6522.2471   -396.91227   -119.96122   -232.25907   -4045.0921 
29641000    112.77871   -5016.6563    -4799.153   -5016.6563            0    5920.5696    19.820803    19.834554    20.329871      7992.42     4913.281     5402.802    7445.6259    38.748995   -368.80315   -181.56048    -4109.044 
29642000    112.78238    -5013.206   -4795.6957    -5013.206            0    7474.4438     19.83704    19.790229    20.271506    7958.1787    6568.4737    7675.6984    8179.1593    24.189262   -628.22884   -465.67302   -3928.1977 
29643000    111.68086   -5013.1806   -4797.7947   -5013.1806            0     7141.111    19.814622    19.694598    20.440513    7976.7267     6477.068    7694.7417    7251.5232   -5.4597145    453.11096   -60.034309   -3967.0523 
29644000    113.05107   -5014.6126   -4796.5841   -5014.6126            0    6842.4583    19.764958    19.793413     20.47251    8009.1732    5801.5081    8922.5021    5803.3647   -498.89155     100.9045   -501.32781   -3997.3469 
29645000    111.75416   -5016.1151   -4800.5878   -5016.1151            0    5637.8464    19.783813    19.761093    20.537051    8028.9554    6055.8469    5674.4151     5183.277    77.820759    14.477843   -1125.0952   -4140.4293 
29646000    112.36622    -5020.261   -4803.5533    -5020.261            0    7788.6842    19.801256    19.690718    20.472499    7982.2469    6824.3394    9321.2986    7220.4147   -24.766689   -405.88334    305.34375   -3896.8501 
29647000    113.99071   -5033.4882   -4813.6476   -5033.4882            0    7658.8045    19.814042    19.675419    20.496956    7990.7295    7948.3344    8003.4373    7024.6419   -627.85197    75.816568    213.07964   -3921.1166 
29648000    112.86016   -5020.2044   -4802.5441   -5020.2044            0    7203.2586    19.684844    19.707629     20.52955    7964.2664    6857.3857    8253.7746    6498.6153   -112.27617    60.156063   -1271.1593   -3965.8809 
29649000    118.31423    -5015.811    -4787.632    -5015.811            0    6857.5385    19.816524     19.77231    20.463228    8017.8705    7105.0748    6574.9259    6892.6149    -439.8654     886.4905    168.79655   -3985.7635 
29650000    113.40937    -5015.362   -4796.6425    -5015.362            0    7041.6496    19.742089    19.677423    20.547694    7982.2331    7630.7612    8130.5675    5363.6199   -120.94641   -236.12552    124.36653   -3976.9052 
29651000    118.76608    -5002.082   -4773.0317    -5002.082            0    7896.9065    19.832652    19.667355    20.353248    7938.9024    6382.7975    9571.1679    7736.7542   -70.944772    1131.7324    1195.5538   -3858.7219 
29652000    115.31801   -5008.8085    -4786.408   -5008.8085            0    6767.0126    19.860413    19.773259    20.329912    7983.6601    5918.4689    6822.6919     7559.877   -166.61029    698.77263    507.21309   -3998.5011 
29653000    117.52677   -5023.0021   -4796.3418   -5023.0021            0    6699.2557    19.923209    19.839968    20.233161    7997.6792    7278.7635    5408.4058    7410.5978    26.279451    561.65141   -1796.8632   -4014.9544 
29654000    111.89896   -5009.8085    -4794.002   -5009.8085            0    7114.9487    19.743275    19.779859    20.436337    7980.7821    6807.8989    6711.0441     7825.903    233.00373    320.82825   -486.82288   -3965.8823 
29655000    113.10591    -5017.323   -4799.1888    -5017.323            0    6493.7974    19.710393    19.950952    20.394083    8019.7916    5290.6006    7100.5449    7090.2466   -74.742099    209.09183    38.443503   -4039.6714 
29656000    106.45958   -5008.7022   -4803.3859   -5008.7022            0    7645.6709    19.696378    19.720242    20.502325    7963.4587    5578.0084    9650.9652    7708.0392    -117.9138    448.77508    31.555299   -3915.4263 
29657000    121.37332   -5025.7812   -4791.7026   -5025.7812            0    6694.4044    19.640841    19.877622    20.480935    7996.0276    6821.8243    6781.3416    6480.0472   -475.59565    898.85986   -778.81298   -4011.0422 
29658000    111.02909   -5024.8389     -4810.71   -5024.8389            0     7378.803    19.639547    19.830712    20.506174    7986.4615    8997.0137     6182.435    6956.9603    211.59911    1412.7743    94.032525   -3951.2687 
29659000    112.68794    -5022.158   -4804.8299    -5022.158            0    7533.4847     19.75064    19.697174    20.539837    7990.6494    6710.6645    9292.8524    6596.9373   -317.91708   -332.68152    483.78127    -3926.912 
29660000    110.87657   -5012.5984   -4798.7636   -5012.5984            0    6285.3489    19.783722     19.75728    20.560127     8036.389    6125.6209    6712.4968     6017.929   -103.41999    830.07093    757.62388   -4062.1051 
29661000    111.38852   -5010.9964   -4796.1743   -5010.9964            0    8259.2794    19.615628    19.763852    20.459252      7931.65    8181.4744    8027.3659     8568.998    483.74157    225.11571   -714.76958   -3840.7823 
29662000    113.65985   -5014.5289   -4795.3263   -5014.5289            0    6322.5665    19.824124    19.660046    20.614513    8034.3663    6470.8705    7320.6557    5176.1734    199.70877    1007.5066     -102.273   -4054.4923 
29663000    113.31131   -5008.5669   -4790.0365   -5008.5669            0    6943.7156    19.689073    19.708865    20.569954    7982.1558    7796.6526    6610.2316    6424.2626    -4.034531     -355.994   -367.79997   -3981.7078 
29664000    112.01474   -5016.6333   -4800.6034   -5016.6333            0    7679.3004    19.776618    19.754061    20.463878    7994.5929    8183.5547    7389.0191    7465.3274   -452.59969   -150.77079    246.86258   -3905.2512 
29665000    118.81232   -5023.8218   -4794.6822   -5023.8218            0    7802.3541    19.701131    19.757243    20.500533    7979.6284    7942.5845     8020.991    7443.4868   -134.13747   -539.95885    114.29085   -3886.6857 
29666000    114.74462   -5012.7424   -4791.4477   -5012.7424            0    7153.3184    19.702229    19.754794     20.57814    8009.2896    8086.8717    6582.5703    6790.5132    245.19566    1057.3139    1213.2551   -3955.8881 
29667000    115.29359   -5012.5446   -4790.1912   -5012.5446            0    7083.9716    19.717124    19.745101    20.392294    7939.0588    7362.8933    6590.9229    7298.0984   -514.17426   -236.80137    460.22513   -3969.9875 
29668000    121.45842     -5010.22   -4775.9772     -5010.22            0    7205.4729    19.728877     19.71566     20.52228    7982.5067    6498.7189     8438.495    6679.2048    408.05797   -427.06687    496.11537     -3937.14 
29669000    119.02569   -5008.9028   -4779.3518   -5008.9028            0    7623.3552    19.747958    19.776363    20.444144    7984.3126    7805.4944    8251.3053    6813.2658   -87.440765    540.38973    37.850489   -3891.6654 
29670000    112.22441    -5008.382   -4791.9477    -5008.382            0    7508.3603    19.777632     19.76225    20.518844    8019.8007    7914.6142    7080.6087    7529.8579   -65.476523   -543.71152   -358.29563   -3913.7657 
29671000    113.70096   -5005.3577   -4786.0758   -5005.3577            0    7273.6464     19.83817    19.841144    20.351835    8010.7266    5959.1614    7335.2517    8526.5262   -422.43983    423.47969   -711.44552   -3936.3086 
29672000    116.55963   -5020.2918   -4795.4967   -5020.2918            0    7596.5328    19.590352    19.818693    20.468119    7946.8532      9083.09    6623.6672    7082.8413    124.56294    427.29833   -478.30405   -3915.0836 
29673000    114.84261   -5025.6004   -4804.1168   -5025.6004            0    7920.7321    19.760156    19.644275    20.507996    7960.6694    7604.8137    8208.2914    7949.0911   -190.90862   -428.53953    414.28434    -3884.534 
29674000    112.89341   -5017.8244      -4800.1   -5017.8244            0    5903.4247    19.751708    19.808027    20.560287    8044.0553    6289.6145    5803.4676     5617.192    201.73477    670.36745   -278.98974   -4107.5439 
29675000    115.15944   -5023.2964   -4801.2017   -5023.2964            0     6851.705    19.796069    19.829289    20.391162    8004.3868    6810.1459    6799.7726    6945.1966    361.19187    89.191112    511.10282   -4001.3626 
29676000      111.451    -5023.379   -4808.4364    -5023.379            0    5435.5779    20.013532    19.665362     20.41338    8034.1622    5137.3005    5796.7975    5372.6356   -502.35028    1013.2927   -879.77073   -4171.5496 
29677000     109.8074   -5006.2155   -4794.4427   -5006.2155            0    6419.0022    19.716638    19.727974    20.581195    8005.4535     6927.241    6409.7478    5920.0179   -656.60382    75.887142   -914.19871   -4045.0157 
29678000    117.00916   -5022.0827   -4796.4207   -5022.0827            0    7121.3146    19.794994    19.659148    20.546503    7995.7274    7062.1831    6714.8677    7586.8928     476.6034    245.25743    68.305714   -3966.0079 
29679000    121.06246    -5016.054   -4782.5748    -5016.054            0    7706.4323    19.739576    19.711616    20.495017    7974.5891    8106.5914    7904.1569    7108.5487    131.62963    1038.3477    1649.4433   -3886.3075 
29680000     118.1788   -5011.8556   -4783.9378   -5011.8556            0    6400.1137    19.814938    19.684339    20.472092     7985.016    6943.1179    6327.1815    5930.0418   -346.61044    200.85118   -51.940031   -4038.6237 
29681000    114.52875    -5018.284   -4797.4057    -5018.284            0    7582.3201     19.79889    19.797307    20.355513    7978.6426     9348.169    5608.9145    7789.8768   -291.90386    -429.4238   -131.15601   -3915.1245 
29682000    112.04136   -5010.6409   -4794.5597   -5010.6409            0    7079.1685    19.597315    19.687912    20.629755    7959.5829    7182.1441    7516.9046    6538.4569   -136.59361    472.35523   -511.62223   -3972.7931 
29683000    115.24774   -5027.3597   -4805.0947   -5027.3597            0    6791.3448    19.644448    19.846212    20.444092    7970.4946    6598.4137     7679.408    6096.2127    209.72125    807.79616    461.07145   -4015.6587 
29684000    108.67786   -5016.5883   -4806.9939   -5016.5883            0    6811.0021    19.663416    19.914757    20.441397    8004.6907    7886.2506    5206.5603    7340.1953   -179.55809    852.15639    586.15829   -4011.8762 
29685000    116.44131   -5005.6904   -4781.1235   -5005.6904            0    8430.4961    19.577088    19.654033    20.655361     7947.537    8202.3548    9254.5288    7834.6046    862.30027    625.22297    189.36302   -3803.9727 
29686000    116.95057   -5013.6196   -4788.0706   -5013.6196            0    7278.3677    19.817337    19.730611    20.444675    7994.0346    7817.4194    7216.9334    6800.7503    83.658183     53.49157    7.9464698   -3939.5236 
29687000    118.12458   -5029.9285   -4802.1153   -5029.9285            0     7425.765    19.819227    19.692356    20.448391     7980.747     7417.684    7137.4905    7722.1205   -290.33847   -181.07978   -307.60135    -3937.823 
29688000    114.33556   -5012.5679   -4792.0621   -5012.5679            0    6822.9032    19.685408    19.869085    20.460375    8002.6882    8933.8326    5438.1137    6096.7632   -435.30619    1104.9915    738.30735   -3995.7543 
29689000    109.08482   -5013.9941   -4803.6148   -5013.9941            0    7175.0522     19.91417    19.650976    20.351076    7964.0452     7230.173    7101.2616    7193.7219    233.90691    747.29667    565.88982    -3970.251 
29690000    119.47708   -5004.9297   -4774.5081   -5004.9297            0    8809.6913    19.694902    19.736858    20.417562    7936.6226    8754.8669    9430.2983    8243.9086    380.58164    169.25932     480.8222   -3754.8084 
29691000    114.50806   -5009.3257   -4788.4873   -5009.3257            0    8426.8575    19.678283    19.743502    20.432921    7938.5622     9346.386     7628.334    8305.8524   -101.36902    948.76258    440.21156   -3812.8612 
29692000    114.55676   -5006.1791   -4785.2467   -5006.1791            0    7446.0513     19.62808    19.849675    20.402746    7949.1346    8479.7988    5979.1212     7879.234   -499.28938   -86.882003   -107.56112   -3922.0262 
29693000     118.3518   -5020.5343   -4792.2829   -5020.5343            0    7469.6769    19.727243    19.826581    20.374091    7968.7918    7867.5071    7056.3254    7485.1982    -382.0375    107.30783     620.1658    -3924.182 
29694000    113.69361   -5001.9138   -4782.6461   -5001.9138            0    7236.1409    19.796429    19.878313    20.343754     8005.666     8461.485    5218.9744    8027.9634    16.435126    376.19824     59.82791   -3937.7947 
29695000    111.07042   -5006.3591   -4792.1505   -5006.3591            0    8032.8156    19.730279    19.788539    20.436522    7979.1008    7363.1572    8609.6998    8125.5897   -115.79264   -216.51376    53.542019   -3857.3958 
29696000    111.68833   -5010.9596   -4795.5593   -5010.9596            0    7125.9184     19.73009    19.914281    20.332511    7988.8582    6989.7382     6659.959    7728.0581    249.45737    1031.0827   -152.86644   -3965.3235 
29697000    117.05873   -5022.5778   -4796.8202   -5022.5778            0    6268.6249    19.840917    19.834275    20.384005    8021.7219     6790.325    5565.3141    6450.2354    -11.58628     1071.952    404.96815   -4063.4626 
29698000    111.76222   -5013.5559   -4798.0131   -5013.5559            0    6619.7369    19.757004    19.942718    20.366215    8024.4594    7573.7206    5610.1957    6675.2944    480.20511   -746.22231    35.715323   -4023.3152 
29699000    115.05863   -5003.6655   -4781.7653   -5003.6655            0    6731.0893    19.771843    19.762241    20.374298    7960.9703    5382.1736    8167.7258    6643.3686    284.56355    1021.4035   -301.85978   -4000.2684 
29700000    112.52512   -5018.8377   -4801.8236   -5018.8377            0    8173.4429    19.839206    19.733978    20.392672    7983.8627    8367.6046    8851.6064    7301.1176   -122.48381   -889.39008    995.43235   -3850.1369 
29701000    110.62068   -5010.8832   -4797.5419   -5010.8832            0    7208.5092    19.752341    19.782614    20.467392    7997.6938    9112.5096    6917.4344    5595.5836   -64.744195    1521.6591    587.70461   -3956.7546 
29702000     115.7215   -5014.3913   -4791.2126   -5014.3913            0    6608.6294    19.610662    19.712682    20.598001    7962.7498    6862.3917    6305.4338    6658.0626    268.99922    1203.6985     395.9792   -4023.7621 
29703000    107.16842   -5012.6209   -4805.9376   -5012.6209            0    7443.5638    19.733643    19.741763    20.496438    7984.9386    7868.3582    6757.1078    7705.2254   -310.27953    907.93419    899.06314   -3939.1187 
29704000    109.90936   -5022.5242   -4810.5548   -5022.5242            0    7340.6977    19.772313    19.801054    20.433818    8000.0978    8130.5424    6907.2939     6984.257    11.799949    1508.9257    130.78405   -3954.0919 
29705000    113.72549   -5028.8325   -4809.5033   -5028.8325            0    6202.4376    19.785853    19.869526    20.278689    7972.2731    6054.4278    5281.1019    7271.7831    286.95417   -176.86614   -297.30665   -4088.3618 
29706000    113.94277    -5028.191   -4808.4428    -5028.191            0    6918.5067    19.855471    19.831924    20.355007    8015.2357    8172.0703    5858.9586    6724.4913    251.76608    61.346067    304.06946    -3999.711 
29707000     109.9195   -5010.2364   -4798.2474   -5010.2364            0    7281.8796    19.852094    19.762932    20.429605    8015.2608    7375.6504    6947.5995     7522.389    85.308216    361.32522   -519.93485   -3947.0367 
29708000    118.20585   -5015.8228   -4787.8529   -5015.8228            0    7708.8749    19.692812    19.841877    20.359781    7955.4286    7565.0099    6978.9907    8582.6241   -268.72913    165.80535   -39.389981   -3893.4556 
29709000    108.91245   -5003.9392   -4793.8923   -5003.9392            0    7735.4333     19.78149    19.876525    20.362916    8006.4395    8435.5272    6857.0539    7913.7186     280.0505    783.70714   -463.34971    -3890.659 
29710000    118.88875   -5009.2946   -4780.0077   -5009.2946            0     7547.886    19.772323     19.80144    20.373318    7976.5711    7574.0186     6929.871    8139.7684   -333.42635   -416.22311    189.12549   -3901.9613 
29711000    115.61247   -5018.7521   -4795.7838   -5018.7521            0    6627.2854    19.716658     19.83684    20.443372    7995.7339    7297.2375    5954.3812    6630.2375    556.17367    587.55836    702.29505   -4022.9788 
29712000    116.30572   -5027.0047   -4802.6993   -5027.0047            0     6650.749    19.890447     19.85093    20.369354    8042.7144    6221.5873    6398.5524    7332.1072   -774.38012    82.077264   -476.75781   -4022.6014 
29713000      116.845   -5011.9271   -4786.5817   -5011.9271            0    7008.2661    19.786133    19.833645     20.38179    7998.4489    6395.2316    7233.0971    7396.4695    -207.0302    -600.6713    622.17624   -3969.0732 
29714000    116.66935   -5017.1199   -4792.1132   -5017.1199            0    6580.6794    19.718232    19.830612    20.420144    7984.7788    6773.1146    6813.4594    6155.4642   -381.16239    356.19454   -1228.7591   -4025.7944 
29715000    105.17161   -5021.0654   -4818.2331   -5021.0654            0    6626.8775    19.977502    19.730093    20.348247    8020.4236    6663.6044    6520.9724    6696.0556     145.9885    52.694744   -541.99792   -4043.0896 
29716000    106.17015   -5007.9403   -4803.1822   -5007.9403            0    7199.1346    19.797498    19.847695     20.29743    7975.5649    7876.2411     6053.674    7667.4887   -529.97013   -782.92175    -314.9025   -3965.8118 
29717000    108.40726   -5015.7468   -4806.6743   -5015.7468            0    7201.1808    19.837442     19.64904     20.41871    7958.9413    7823.6867     7111.054    6668.8017    90.020987    654.46426    21.460032   -3970.8117 
29718000    114.77708   -5007.0064   -4785.6491   -5007.0064            0    7972.0305    19.825081    19.740896    20.394033    7981.5082    7672.2941    7960.7802    8283.0172    37.987766   -286.39166    -113.6882    -3857.688 
29719000    118.44189   -5019.4045   -4790.9794   -5019.4045            0    7396.1329    19.807764    19.609098    20.538195    7977.2895    7296.3868    8812.4388    6079.5731    353.52004   -446.60907    -852.3486   -3930.5089 
29720000    114.37813   -5034.1886   -4813.6008   -5034.1886            0    5619.8293    19.865692    19.758767    20.563042    8071.4379    5658.8801    5955.8066     5244.801    -501.9327    277.55869    463.44302   -4152.0702 
29721000    111.19947     -5019.47   -4805.0125     -5019.47            0    6276.5937    19.856373    19.690717    20.550412    8034.9284     5005.644    7960.7413    5863.3957    284.29235    59.484857    363.33559   -4069.5138 
29722000     112.5957   -5018.4976   -4801.3473   -5018.4976            0    7636.8666    19.758215    19.479534    20.732122    7979.3962    8857.2812    7646.9004    6406.4181   -265.78364   -775.07812    1488.6043   -3912.6351 
29723000    116.46325   -5026.5335   -4801.9244   -5026.5335            0    7183.9354    19.613129    19.787385    20.593285    7992.1005    8425.7616    6420.2215    6705.8231    528.29953    776.34427    742.24102   -3964.5894 
29724000     113.7992    -5016.842   -4797.3707    -5016.842            0    7290.5251     19.79902    19.753266    20.487056    8012.3915    8416.5428    6954.8199    6500.2126   -338.92738    166.57392    772.66554   -3945.4545 
29725000    107.42727   -5012.8955   -4805.7129   -5012.8955            0    7295.9984    19.742363    19.884948    20.386347    8003.1879    6852.3293    7989.5687    7046.0973   -329.01619   -59.623522   -349.87072   -3954.1365 
29726000     108.8051   -5006.4754   -4796.6356   -5006.4754            0    6937.2088    19.940461    19.836281    20.277926    8020.8239    6353.6357    6573.4306    7884.5601   -241.62512    476.00816    839.99763   -3985.1522 
29727000    118.89617   -4998.6121   -4769.3108   -4998.6121            0    7059.5532    19.847175    19.860755    20.303469    8003.2187    6160.1363    8176.3001    6842.2233    249.70709    444.75577   -756.46413   -3945.3287 
29728000    119.49116   -5010.3497    -4779.901   -5010.3497            0    7299.3829    19.718806    19.732215    20.413261    7942.7122    5840.5284    8317.8093    7739.8109   -30.724114    1167.6446    416.15285   -3934.3674 
29729000    115.75042   -5009.7328   -4786.4983   -5009.7328            0    7104.2136    19.777622    19.823125    20.378014    7989.2877    7850.5111    5917.6424    7544.4874   -543.58511   -47.294296    661.10907   -3958.7469 
29730000    116.79857   -5014.5621   -4789.3062   -5014.5621            0    6635.9915    19.815762    19.800095    20.560634    8067.0466    6344.2627    8189.4327    5374.2792    125.91297    706.43142    295.99081   -4008.5845 
29731000    118.23589   -5012.7318   -4784.7039   -5012.7318            0    8170.7284    19.886404     19.69612    20.390253    7986.5563    7403.6724    9366.2874    7742.2253   -367.98342   -53.452359    351.12121   -3833.0124 
29732000    113.77281   -5014.5839   -4795.1635   -5014.5839            0    5077.7984    19.672112    19.788048    20.637689    8033.6887    4949.1659     5040.897    5243.3324    246.99967   -38.090445   -265.83804   -4200.2328 
29733000    114.76152   -5024.1967   -4802.8695   -5024.1967            0    6946.1669    19.815537    19.657165    20.515626    7991.1908     7526.068    6512.6485    6799.7843   -386.03618   -793.59619    154.78414   -3993.3401 
29734000     116.7493    -5014.356   -4789.1951    -5014.356            0    6648.3974    19.754977    19.736052    20.564348    8017.7357     7206.075     7139.695    5599.4224   -838.62553   -461.47772    129.03647    -4011.795 
29735000    109.40511   -5016.2665   -4805.2695   -5016.2665            0    8100.4215    19.658072    19.807522    20.459775    7966.5802    7726.6257     8636.788    7937.8508   -400.81932    702.49802    32.624311   -3864.1269 
29736000    107.38091   -5010.8152   -4803.7221   -5010.8152            0    7034.5988    19.756628    19.742963    20.479007    7987.9262    8786.4808    5900.0229    6417.2929   -47.385613    274.06684    338.13593   -3984.2215 
29737000    112.60591   -5015.0883   -4797.9183   -5015.0883            0    6568.7792    19.582592    19.873193    20.586748    8011.7165    6669.1973    7226.8803    5810.2601    -300.6641     123.8011    754.12464   -4030.4046 
29738000    118.59666   -5021.1256    -4792.402   -5021.1256            0    7026.4741    19.634908    19.912779    20.483261    8008.6598    8302.2872    5809.0627    6968.0723   -273.24506    321.30324   -234.68737   -3971.7232 
29739000    118.55614    -5020.003   -4791.3575    -5020.003            0    8727.2342    19.722232    19.782871    20.399923    7959.2821    8027.5279    9313.6132    8840.5617    144.40831    707.52918   -1371.5108   -3778.3179 
29740000    116.76119    -5016.222   -4791.0382    -5016.222            0    7251.9748    19.867414    19.730482    20.401035    7997.0764    7199.3215    7634.7045    6921.8983   -49.845108    261.35187   -659.57286   -3945.2465 
29741000    109.54806   -5013.5664   -4802.2938   -5013.5664            0    7049.9797    19.746786     19.77557    20.419011    7973.7044    6958.2758    7891.7731    6299.8902   -499.07125   -170.90639   -655.48507   -3982.4636 
29742000    108.33249   -5009.2601   -4800.3318   -5009.2601            0    6455.1972    19.797911    19.814648    20.470895    8030.4996    6089.5761      6833.53    6442.4856   -28.677246   -596.84475   -85.375666    -4044.321 
29743000    112.36616   -5002.3303   -4785.6227   -5002.3303            0     7908.462    19.718332    19.772198    20.430193    7965.2166    7893.2416    8192.8199    7639.3246   -264.05177   -470.06617    -89.69688   -3866.9401 
29744000    116.66555     -5013.47   -4788.4707     -5013.47            0    7306.0084    19.622475    19.780322    20.592753    7992.8481    6207.4185    8007.7088    7702.8979   -335.19005    122.51121   -1142.7924   -3936.8276 
29745000     115.4933    -5009.078   -4786.3395    -5009.078            0     5977.913    19.924295    19.779114    20.484117    8072.4814    4775.0292    7059.2431    6099.4666   -469.87158     610.7434   -41.936462   -4082.5666 
29746000    116.21566   -5014.8368   -4790.7051   -5014.8368            0    7140.4714    19.671692    19.824109    20.546747    8012.6926    7842.3993    7007.5069    6571.5081   -130.05262     30.22102   -209.32638   -3956.2918 
29747000    109.84103   -5008.5726   -4796.7349   -5008.5726            0    6828.2568    19.741913    19.785464    20.442006    7984.7073    7180.2275    6482.9812    6821.5616    -312.3277    466.61236   -819.21158   -4001.5929 
29748000    116.73725   -5010.4424   -4785.3048   -5010.4424            0     6977.928    19.707644    19.747528    20.564646    8003.2923    7677.9877    6307.9384    6947.8579   -35.269652    984.96673    534.16858   -3970.8424 
29749000    109.59187    -5020.604   -4809.2469    -5020.604            0    6564.3185    19.690297    19.770515    20.599004     8018.931    7857.2998    5748.6856      6086.97   -1.6635926     820.5613      738.443   -4041.5638 
29750000    119.74271   -5004.9864   -4774.0525   -5004.9864            0    7396.7241    19.720578    19.764364    20.439131    7966.4512    5832.2487    9176.6189    7181.3048   -163.28496    471.75125   -612.67727   -3914.6825 
Loop time of 386.254 on 64 procs for 250000 steps with 972 atoms

Performance: 111.843 ns/day, 0.215 hours/ns, 647.242 timesteps/s
194.4% CPU use with 32 MPI tasks x 2 OpenMP threads

MPI task timing breakdown:
Section |  min time  |  avg time  |  max time  |%varavg| %total
---------------------------------------------------------------
Pair    | 29.069     | 36.274     | 43.797     |  71.4 |  9.39
Bond    | 0.95906    | 1.2531     | 2.0213     |  16.5 |  0.32
Kspace  | 168.71     | 177.15     | 184.42     |  34.9 | 45.86
Neigh   | 0.76487    | 0.79315    | 0.85288    |   3.2 |  0.21
Comm    | 70.664     | 74.714     | 77.123     |  19.1 | 19.34
Output  | 0.53236    | 0.53272    | 0.53446    |   0.0 |  0.14
Modify  | 76.026     | 78.338     | 81.525     |  13.1 | 20.28
Other   |            | 17.2       |            |       |  4.45

Nlocal:        30.3750 ave          37 max          26 min
Histogram: 5 4 7 2 4 2 2 4 0 2
Nghost:        2722.50 ave        2748 max        2689 min
Histogram: 1 1 3 2 5 7 3 4 4 2
Neighs:        9860.03 ave       13174 max        7975 min
Histogram: 3 8 3 6 2 5 2 1 1 1

Total # of neighbors = 315521
Ave neighs/atom = 324.61008
Ave special neighs/atom = 2.0000000
Neighbor list builds = 2264
Dangerous builds = 0

unfix		3
unfix		2
unfix		1

write_data	data.final.${pid}
write_data	data.final.1
System init for write_data ...
PPPM initialization ...
  extracting TIP4P info from pair style
  using 12-bit tables for long-range coulomb (../kspace.cpp:340)
  G vector (1/distance) = 0.37240359
  grid = 24 24 24
  stencil order = 5
  estimated absolute RMS force accuracy = 0.0034825883
  estimated relative force accuracy = 1.0487711e-05
  using double precision FFTW3
  3d grid and FFT values/proc = 3211 432
Last active /omp style is kspace_style pppm/tip4p/omp
WARNING: Not all mixed pair coeffs generated from mixing. Use write_data with 'pair ij' option to store all pair coeffs. (../write_data.cpp:312)

write_restart   restart.lmp.${pid}
write_restart   restart.lmp.1
System init for write_restart ...
PPPM initialization ...
  extracting TIP4P info from pair style
  using 12-bit tables for long-range coulomb (../kspace.cpp:340)
  G vector (1/distance) = 0.37240359
  grid = 24 24 24
  stencil order = 5
  estimated absolute RMS force accuracy = 0.0034825883
  estimated relative force accuracy = 1.0487711e-05
  using double precision FFTW3
  3d grid and FFT values/proc = 3211 432
Last active /omp style is kspace_style pppm/tip4p/omp
Total wall time: 0:06:26
