LAMMPS (30 Jul 2021)
  using 1 OpenMP thread(s) per MPI task
package omp 0
using multi-threaded neighbor list subroutines
echo both

include		in.partitions
variable        pid world 0
include		in.temp
variable        temperature equal 260.63
variable	tempDamp equal 100.0
include		in.pressure
variable        pressure equal 7625.0
variable        pressureDamp equal 1000.0 # This is 1 ps
include		in.seed
variable        seed world 745823

units		real
atom_style	full
read_restart	restart.lmp.${pid}
read_restart	restart.lmp.0
Reading restart file ...
  restart file = 30 Jul 2021, LAMMPS = 30 Jul 2021
  restoring atom style full from restart
  orthogonal box = (0.57779024 1.7720919 0.70490274) to (17.629782 21.857086 21.508293)
  4 by 4 by 4 MPI processor grid
  restoring pair style lj/cut/tip4p/long/omp from restart
  restoring bond style harmonic/omp from restart
  restoring angle style harmonic/omp from restart
  864 atoms
  576 bonds
  288 angles
Finding 1-2 1-3 1-4 neighbors ...
  special bond factors lj:    0        0        0       
  special bond factors coul:  0        0        0       
     2 = max # of 1-2 neighbors
     1 = max # of 1-3 neighbors
     1 = max # of 1-4 neighbors
     2 = max # of special neighbors
  special bonds CPU = 0.057 seconds
  read_restart CPU = 0.204 seconds
include 	in.setup
variable	out_freq equal 1000
variable	out_freq2 equal 10000
variable	out_freq3 equal 1000

timestep	2.0

neigh_modify    delay 7 every 1

include		in.tip4p
# This is TIP4P/Ice

# create groups ###
group ox type 2
288 atoms in group ox
group hy type 1
576 atoms in group hy

# set charges - beside manually ###
set group ox charge -1.1794
Setting atom values ...
  288 settings made for charge
set group hy charge 0.5897
Setting atom values ...
  576 settings made for charge

# ### TIP3P Potential Parameters ###
pair_style lj/cut/tip4p/long/omp 2 1 1 1 0.1577 8.5
pair_coeff 1 1*2 0.000 0.000
pair_coeff 2 2 0.21084 3.1668
bond_style  harmonic
bond_coeff  1 450 0.9572
angle_style harmonic
angle_coeff 1 55 104.52
kspace_style pppm/tip4p/omp 1.0e-5
pair_modify tail yes

thermo          ${out_freq}
thermo          1000
thermo_style    custom step temp pe etotal epair emol press lx ly lz vol pxx pyy pzz pxy pxz pyz enthalpy

restart 	${out_freq3} restart.lmp.${pid} restart2.lmp.${pid}
restart 	1000 restart.lmp.${pid} restart2.lmp.${pid}
restart 	1000 restart.lmp.0 restart2.lmp.${pid}
restart 	1000 restart.lmp.0 restart2.lmp.0


include         in.dump
dump            myDump all atom ${out_freq2} dump.water.${pid}
dump            myDump all atom 10000 dump.water.${pid}
dump            myDump all atom 10000 dump.water.0
dump            myDump2 all dcd ${out_freq2} dump.dcd
dump            myDump2 all dcd 10000 dump.dcd
dump_modify     myDump append yes
dump_modify     myDump2 append yes


variable natoms 	equal  "count(all)"                        # NUMBER ATOMS
variable H      	equal  "enthalpy/v_natoms"                 # ENTHALPY-per-atom
variable Vol      	equal  "vol/v_natoms"                 # volume-per-atom
fix AVG all 		ave/time ${out_freq} 1 ${out_freq} v_Vol v_H file vol_enthalpy.dat
fix AVG all 		ave/time 1000 1 ${out_freq} v_Vol v_H file vol_enthalpy.dat
fix AVG all 		ave/time 1000 1 1000 v_Vol v_H file vol_enthalpy.dat


timer           timeout 23:50:00 every 1000
New timer settings: style=normal  mode=nosync  timeout=23:50:00

fix 		1 all shake 1e-6 200 0 b 1 a 1
       0 = # of size 2 clusters
       0 = # of size 3 clusters
       0 = # of size 4 clusters
     288 = # of frozen angles
  find clusters CPU = 0.001 seconds
fix             2 all nph iso ${pressure} ${pressure} ${pressureDamp}
fix             2 all nph iso 7625 ${pressure} ${pressureDamp}
fix             2 all nph iso 7625 7625 ${pressureDamp}
fix             2 all nph iso 7625 7625 1000
fix             3 all temp/csvr ${temperature} ${temperature} ${tempDamp} ${seed}
fix             3 all temp/csvr 260.63 ${temperature} ${tempDamp} ${seed}
fix             3 all temp/csvr 260.63 260.63 ${tempDamp} ${seed}
fix             3 all temp/csvr 260.63 260.63 100 ${seed}
fix             3 all temp/csvr 260.63 260.63 100 745823

run             250000
PPPM initialization ...
  extracting TIP4P info from pair style
  using 12-bit tables for long-range coulomb (../kspace.cpp:340)
  G vector (1/distance) = 0.37388796
  grid = 24 24 24
  stencil order = 5
  estimated absolute RMS force accuracy = 0.0032038975
  estimated relative force accuracy = 9.6484422e-06
  using double precision FFTW3
  3d grid and FFT values/proc = 2535 216
Last active /omp style is kspace_style pppm/tip4p/omp
Neighbor list info ...
  update every 1 steps, delay 7 steps, check yes
  max neighbors/atom: 2000, page size: 100000
  master list distance cutoff = 10.8154
  ghost atom cutoff = 10.8154
  binsize = 5.4077, bins = 4 4 4
  1 neighbor lists, perpetual/occasional/extra = 1 0 0
  (1) pair lj/cut/tip4p/long/omp, perpetual
      attributes: half, newton on, omp
      pair build: half/bin/newton/omp
      stencil: half/bin/3d
      bin: standard
Per MPI rank memory allocation (min/avg/max) = 9.236 | 9.238 | 9.241 Mbytes
Step Temp PotEng TotEng E_pair E_mol Press Lx Ly Lz Volume Pxx Pyy Pzz Pxy Pxz Pyz Enthalpy 
14500000    260.72825   -3830.4986   -3383.6193   -3830.4986            0    7577.8746    17.051992    20.084994     20.80339    7124.9356     7936.411    7397.2558    7399.9569    252.99211    -1869.478    1494.6616   -2596.2033 
14501000    269.01865   -3853.6105   -3392.5217   -3853.6105            0    7729.1857    16.992897    20.015389    20.731295    7051.1165    5759.3006    8711.8315    8716.4251    897.50237   -150.92468     1679.015    -2597.704 
14502000    247.84156   -3830.4787   -3405.6867   -3830.4787            0    8578.2736    17.010346    20.035941    20.752583      7072.86    7558.4016    8199.3774    9977.0417    650.88056   -797.25095      1275.82   -2520.8343 
14503000    257.11745   -3880.6972   -3440.0067   -3880.6972            0    6731.1973    17.059778    20.094165    20.812889    7134.6997     7444.156    7060.5138    5688.9221    653.52979    210.53537    526.18549   -2739.6103 
14504000    243.29596   -3864.4435   -3447.4425   -3864.4435            0    6759.4575    16.972787    19.991702    20.706761    7026.1126    5459.8303    7103.0822      7715.46    755.67856    741.02152   -423.84821   -2754.8101 
14505000    252.81342   -3863.8505    -3430.537   -3863.8505            0    6451.9098    17.126768    20.173071    20.894617    7219.0801    5165.3643    7225.2943    6965.0708    444.48479   -35.070737    505.30169   -2751.2613 
14506000    274.85435    -3886.015    -3414.924    -3886.015            0    7129.2011    17.057992    20.092061     20.81071    7132.4593    6153.4898    6243.9043    8990.2091    1465.7448    708.57412    951.75506   -2673.3474 
14507000    263.75458   -3866.2013    -3414.135   -3866.2013            0    8854.9908    17.009773    20.035266    20.751884     7072.145    7809.7499    9843.8136    8911.4088    769.03668   -1002.8505    23.059693   -2500.8314 
14508000    269.93255   -3864.6337   -3401.9786   -3864.6337            0    7450.4831    17.103689    20.145886    20.866461     7189.935    7346.4492    6765.5315    8239.4687    347.43582    -69.71245     234.0125   -2620.7371 
14509000     285.7849   -3867.5264   -3377.7008   -3867.5264            0    9270.1604    17.014477    20.040806    20.757622    7078.0136    8741.3298    9783.1411    9286.0104    1313.0822   -442.84656    169.98701   -2420.7833 
14510000    270.24444   -3865.3305   -3402.1408   -3865.3305            0    10457.652    16.978891    19.998891    20.714208    7033.6956    11625.074    9990.0123    9757.8704    386.98487   -1186.5147   -684.97987   -2329.4028 
14511000    262.79096   -3875.7693   -3425.3546   -3875.7693            0    8651.6224    17.017105    20.043902    20.760829    7081.2942    7350.8779    9642.3487    8961.6405   -1226.5276   -325.00771   -280.21164    -2531.872 
14512000    277.39781   -3856.4696   -3381.0193   -3856.4696            0     6077.786    17.068215    20.104103    20.823183    7145.2913    6906.9911    6300.6833    5025.6834   -400.24718    1273.8471    566.50755    -2747.673 
14513000    276.12359   -3862.1181   -3388.8517   -3862.1181            0    7272.4599    16.989483    20.011367     20.72713    7046.8672    6866.4908    6994.3849     7956.504    1197.1269    236.43895   -672.79335   -2641.4513 
14514000    253.15373   -3889.5654   -3455.6686   -3889.5654            0    8041.3243    16.998478    20.021961    20.738103    7058.0655    8246.4921    8787.3941    7090.0868   -396.24179    2098.4108    193.52601   -2627.9378 
14515000    263.89774   -3887.6276   -3435.3159   -3887.6276            0    8574.2223    17.012145     20.03806    20.754777    7075.1041     9351.748    6642.4953    9728.4238    1408.7148    1247.1813   -265.29667   -2550.6008 
14516000    261.95071   -3862.7805   -3413.8059   -3862.7805            0    7922.8347    17.003062    20.027361    20.743696    7063.7777    6310.8571    8558.6642    8898.9828   -563.12303    1630.4086    663.61529   -2597.6117 
14517000    264.16706   -3880.9281   -3428.1548   -3880.9281            0    7864.9183    17.023328    20.051231     20.76842    7089.0652     6558.999    7739.4036    9296.3524   -1077.9953    887.43328    567.81276   -2615.0265 
14518000    248.72887   -3890.2752   -3463.9624   -3890.2752            0    6396.3759    17.051354    20.084242    20.802612    7124.1356    6474.5091    4505.2924    8209.3261    809.61387   -544.31118     214.3121   -2799.3904 
14519000    256.99404   -3874.1093   -3433.6303   -3874.1093            0    9284.1365    16.968829    19.987039    20.701931    7021.1973    10402.754    8813.2598    8636.3955   -1291.4631   -4274.8693      594.272   -2482.9629 
14520000    246.40454    -3904.205   -3481.8761    -3904.205            0    6892.0745    17.063482    20.098527    20.817408    7139.3477    8297.5289    6268.1141    6110.5804   -441.32054    192.08683    2146.7793   -2764.2729 
14521000    249.82799   -3914.1216    -3485.925   -3914.1216            0    7231.2054    16.992905    20.015397    20.731304     7051.126    7661.8184    6818.8346    7212.9633    126.94673     833.2777    420.77648   -2742.3152 
14522000    272.78769   -3880.4835   -3412.9347   -3880.4835            0    6248.8587    17.056826    20.090688    20.809288    7130.9969    6730.1242    6890.9037    5125.5484   -12.895915     1352.776     581.3586   -2763.0642 
14523000    252.71076   -3901.1102   -3467.9726   -3901.1102            0    6533.0701      17.0232    20.051081    20.768264    7088.9052    7364.9735     6364.105    5870.1317   -1239.7315    1743.6081   -800.66065    -2792.555 
14524000    276.33854   -3845.7351   -3372.1003   -3845.7351            0    9702.9971    16.980978    20.001349    20.716754    7036.2896    7921.9638    11320.551    9866.4761   -642.48087    1706.7134    471.25527   -2376.4072 
14525000    264.83117   -3872.4727   -3418.5611   -3872.4727            0    8103.7604    17.009305    20.034714    20.751312    7071.5609    9479.6806    5680.4786    9151.1219   -1823.2253   -2130.6159   -436.37877   -2582.8084 
14526000    256.37217   -3820.8082   -3381.3951   -3820.8082            0    6659.2143    17.082156    20.120523     20.84019    7162.8132     6818.074    5857.8203    7301.7487    480.18683     826.8428    1551.9065   -2685.7583 
14527000    265.42178   -3849.3211   -3394.3972   -3849.3211            0    6917.3453    17.035912    20.066055    20.783773    7104.7989    5464.0226    7470.3872    7817.6262   -1196.6457    254.88021    -229.8634   -2677.6482 
14528000    243.89301   -3847.0031   -3428.9788   -3847.0031            0    6330.5236    17.060644    20.095185    20.813945    7135.7861    5082.8162    7323.4339    6585.3209    222.08137    388.75391   -738.62169   -2770.1731 
14529000    250.07027    -3850.146   -3421.5342    -3850.146            0     8784.312    17.059604    20.093961    20.812677    7134.4821    9348.0304    10141.182    6863.7231     507.9254   -1730.9882   -1616.4634   -2507.5344 
14530000    275.22083   -3868.5844   -3396.8653   -3868.5844            0    6602.7886    17.099266    20.140677    20.861065    7184.3586     6219.452    6607.5708    6981.3431    770.36853    200.03926   -364.92893   -2705.0482 
14531000     274.8369    -3876.128   -3405.0669    -3876.128            0    7194.1142      17.1273    20.173697    20.895266    7219.7522    6562.2996    7830.9604    7189.0826    563.79391   -332.35958   -32.004864   -2647.5793 
14532000    266.55338    -3853.283   -3396.4196    -3853.283            0    8550.3261    17.028775    20.057648    20.775066    7095.8726    6139.4458     8947.024    10564.508    -864.2396    2137.7115    -74.45179   -2511.5803 
14533000     262.9768   -3863.6518   -3412.9186   -3863.6518            0    8745.6276    16.977776    19.997577    20.712847    7032.3091      10064.6    7165.0503    9007.2322    859.49028    1928.8866    1.5536632   -2515.9757 
14534000    256.28615   -3890.5364   -3451.2707   -3890.5364            0    8123.4345    16.928346    19.939355    20.652542    6971.0652    8979.6497     5931.769    9458.8848   -62.819227   -764.87176    93.624717   -2625.3949 
14535000    252.82135    -3911.775   -3478.4478    -3911.775            0    8333.4403    17.026613      20.0551    20.772427    7093.1696    7995.2872     9261.878    7743.1557    631.07138   -128.75956    596.27456   -2616.3817 
14536000    256.13837   -3891.9156   -3452.9032   -3891.9156            0    8250.8576    17.058077    20.092162    20.810814    7132.5661    7540.3059    8355.6073    8856.6595   -388.46261    1017.5906   -1496.8077   -2594.6394 
14537000    261.66833   -3843.0674   -3394.5769   -3843.0674            0    9416.4203    17.009381    20.034804    20.751405    7071.6554    8501.7712    11452.542    8294.9477   -125.06782   -1308.7218     -270.928   -2423.4347 
14538000    257.80486   -3870.1942   -3428.3255   -3870.1942            0    8756.8544    17.036333     20.06655    20.784286    7105.3247    7150.7883    10519.288    8600.4867   -1159.1872    769.62311    2439.4586   -2520.9064 
14539000    263.20155   -3857.8931   -3406.7746   -3857.8931            0    8104.6989     17.01997    20.047277    20.764324    7084.8718    8107.9137    8473.4376    7732.7455   -180.13808   -670.08478    221.39277   -2569.3518 
14540000    256.02358   -3867.8987   -3429.0831   -3867.8987            0    7399.1638    17.049268    20.081785    20.800067    7121.5215    6110.9654     7919.306    8167.2201   -1327.8388   -1320.1156    1439.0512   -2660.6053 
14541000    263.80656   -3885.4931   -3433.3377   -3885.4931            0    7217.9068     17.02181    20.049444    20.766569    7087.1695    8291.4142      6171.64    7190.6663    989.15561   -839.53774    982.84603   -2687.3014 
14542000    263.71264   -3889.5334    -3437.539   -3889.5334            0    7982.5307    17.008289    20.033518    20.750073    7070.2939     7704.697    6867.2233    9375.6717   -536.09148   -698.01903   -780.49426   -2614.4364 
14543000    266.95352   -3867.6369   -3410.0877   -3867.6369            0    7179.2598    17.034943    20.064912     20.78259    7103.5855    8228.5148    6400.2506     6909.014   -1262.0437   -1404.4218    2419.7983   -2666.3271 
14544000    257.33201   -3870.6906   -3429.6324   -3870.6906            0    8553.8744    17.018203    20.045195    20.762168    7082.6646    8315.2128    8350.7272     8995.683    1181.7036   -51.300357   -7.2764379   -2546.0736 
14545000    246.09836   -3908.5224   -3486.7182   -3908.5224            0    6476.6019    16.992837    20.015318    20.731222    7051.0417    7068.1164    4724.0875    7637.6016    433.02759   -2021.9738   -438.41423   -2820.7149 
14546000    278.75031   -3886.6612   -3408.8927   -3886.6612            0    8069.4232    16.956147    19.972102     20.68646    7005.4679    9794.2051    7467.9763    6946.0881   -356.65528   -1488.9395    1315.5038   -2584.4594 
14547000    256.50438   -3868.3392   -3428.6994   -3868.3392            0    8766.5096    16.922405    19.932358    20.645294    6963.7285    9762.0225     6947.504    9590.0022   -1054.2325    257.54671     1220.131   -2538.3829 
14548000    257.96586   -3863.3292   -3421.1846   -3863.3292            0    8566.6535    16.972648    19.991537    20.706591    7025.9391    8519.6739    7470.7945    9709.4921    21.521024     -794.095   -630.38804   -2543.3929 
14549000    255.83888   -3837.6001    -3399.101   -3837.6001            0    8916.4225    16.915168    19.923833    20.636465     6954.798    9892.9138    7263.9335    9592.4202   -609.50116    1006.3233   -188.36169   -2494.7208 
14550000     260.6887   -3885.8635    -3439.052   -3885.8635            0    9071.8997    17.005643    20.030401    20.746845    7066.9945    7075.8303    9638.3662    10501.503    1360.7681    64.197691   -770.31686   -2504.0578 
14551000    254.34152   -3842.5043   -3406.5717   -3842.5043            0    9034.3841    17.010185    20.035751    20.752386    7072.6585    8040.8903    11126.824    7935.4384    1346.9051   -970.09334    40.822915   -2474.6978 
14552000    262.56278   -3896.1516    -3446.128   -3896.1516            0    8334.3877    16.958118    19.974423    20.688864    7007.9104    9556.5203    6080.3249    9366.3178    224.92689   -403.65039    -331.2567    -2594.327 
14553000    249.11831   -3870.1178   -3443.1375   -3870.1178            0    7412.3876    17.011931    20.037808    20.754516    7074.8371    9254.9998    8254.4297    4727.7333    993.84083    159.63686    516.86747    -2678.333 
14554000    257.99921   -3848.9076   -3406.7058   -3848.9076            0    7681.2634    17.041343    20.072452    20.790399    7111.5959    7792.1999    6964.6564    8286.9338    418.20288    1374.4316   -110.41237    -2610.041 
14555000     258.0805    -3870.082   -3427.7408    -3870.082            0    8237.8135    17.060192    20.094653    20.813395    7135.2196    9172.4027    6558.1851    8982.8527    1933.2047   -464.54918   -959.65276   -2570.5151 
14556000    270.17053   -3859.8761   -3396.8131   -3859.8761            0    6348.0705    17.014326    20.040629    20.757438    7077.8258    5639.8438    6376.8987     7027.469    42.907643   -579.87441    1403.6891   -2741.5473 
14557000    270.56904   -3905.0661     -3441.32   -3905.0661            0    6702.5942    17.006531    20.031447    20.747928    7068.1018    6848.6979    6124.2616     7134.823    53.858232     338.7996     1380.909   -2750.4098 
14558000    245.48889   -3840.0244   -3419.2648   -3840.0244            0    7970.9238    16.975224    19.994572    20.709734    7029.1394    8744.5318    4866.4763    10301.763     651.2705   -513.33125    121.84977   -2602.1432 
14559000    274.24393   -3877.1752   -3407.1305   -3877.1752            0    10254.474    16.962321    19.979374    20.693992    7013.1226    10856.777    11315.645    8590.9983    1531.4813    -1664.341    -668.0518   -2358.3111 
14560000    253.54757    -3898.784   -3464.2122    -3898.784            0    8620.0727    17.003213    20.027539    20.743881    7063.9661    10160.982    7833.4574    7865.7782    161.91276   -1022.9087    1209.9794   -2576.1663 
14561000    253.51352   -3869.5944   -3435.0809   -3869.5944            0    8845.2975    16.971372    19.990035    20.705035    7024.3556    9004.8494    9699.2832    7831.7598   -505.82997    1536.0359   -99.582554   -2528.9419 
14562000     254.7416   -3865.6683   -3429.0499   -3865.6683            0    5676.0241    17.088809     20.12836    20.848307    7171.1856    6435.3353    5700.6484    4892.0887     590.3774    267.09192   -2706.9446   -2835.4264 
14563000    258.72048    -3831.786    -3388.348    -3831.786            0    8738.8196    17.040597    20.071572    20.789488     7110.661    7099.8964    9711.1966    9405.3659   -1090.6927   -1354.5938    92.977511   -2482.1175 
14564000    263.98563   -3876.5404   -3424.0781   -3876.5404            0    6859.0984    17.052819    20.085969      20.8044     7125.973    6011.1119    7909.8079    6656.3754   -200.43112    9.9561037    501.71573   -2711.2462 
14565000    253.51522   -3876.0569   -3441.5405   -3876.0569            0     7681.643    17.006192    20.031048    20.747515    7067.6793    9563.0111    6497.5207     6984.397   -234.53613   -663.16506   -859.48259   -2649.7563 
14566000    267.49094   -3842.7582   -3384.2879   -3842.7582            0    8392.2476    17.011059    20.036781    20.753452    7073.7491    9501.0283    7669.4302    8006.2842    -2272.598   -923.15418   -228.16449   -2518.5153 
14567000    254.18126   -3876.5856   -3440.9276   -3876.5856            0     6829.647    16.991186    20.013373    20.729208    7048.9867    6428.7124    7939.2271    6121.0017    2597.3328   -488.10311    326.26087   -2738.8246 
14568000    253.98993   -3861.1278   -3425.7978   -3861.1278            0    6854.9307    16.973622    19.992685     20.70778    7027.1495    6032.0905    6635.8222    7896.8793   -1127.6608     669.2044     66.73846   -2723.2786 
14569000    253.83319   -3912.0037   -3476.9423   -3912.0037            0    5678.6329    17.070109    20.106334    20.825493    7147.6699    4791.9723    6397.8526    5846.0739    660.92069   -1324.9317   -775.49746   -2884.9935 
14570000    242.95291   -3826.9569   -3410.5439   -3826.9569            0    7135.3282    17.035127    20.065129    20.782815     7103.816    5588.9739    8356.6309    7460.3798    360.31775    1345.1818    688.90496   -2671.3106 
14571000    256.62092   -3861.7477   -3421.9082   -3861.7477            0      7559.23    17.029147    20.058086     20.77552    7096.3378    8609.6314    6610.1708    7457.8878   -497.27035    1995.3909     295.1542   -2639.5823 
14572000    292.82159   -3842.4234   -3340.5372   -3842.4234            0    6428.0393    17.063517    20.098569    20.817451    7139.3922      6488.02     6167.298    6628.7999   -8.0339764   -1034.8511    1026.0837   -2671.2452 
14573000    257.59697   -3885.3423   -3443.8299   -3885.3423            0    7397.4643    17.037847    20.068333    20.786134    7107.2196    5455.3061    7408.7578    9328.3289    561.62146    223.40468    1032.9265   -2677.0716 
14574000    252.10251   -3866.6853   -3434.5902   -3866.6853            0    9099.4005    17.025337    20.053598    20.770871    7091.5752    9161.4228    8151.1156    9985.6631    440.45424    403.12332   -63.879294   -2493.4997 
14575000    272.90555   -3875.3864   -3407.6356   -3875.3864            0    8194.0071    17.035213     20.06523     20.78292    7103.9233    7576.8576     8807.538    8197.6259   -493.56458   -562.96263   -1436.1361   -2558.7083 
14576000    253.40192   -3863.5994   -3429.2772   -3863.5994            0    7968.9136    17.009279    20.034684     20.75128    7071.5283    8898.6563    7472.5618    7535.5226   -4.0916783    5.4547595    -1483.478   -2607.4352 
14577000     252.6366   -3890.0532   -3457.0428   -3890.0532            0    8178.2602    17.059248    20.093541    20.812243    7134.0354    9953.3061    7156.5486    7424.9257   -990.64394    302.76658   -978.25033   -2606.1554 
14578000    281.00623   -3850.9622   -3369.3271   -3850.9622            0    6304.3914     17.09849    20.139763    20.860118    7183.3807    8700.3668    4478.7117    5734.0957    241.20198    989.22784    1541.7458   -2708.8649 
14579000    267.93176   -3885.6092   -3426.3833   -3885.6092            0    9789.6301    17.040024    20.070898     20.78879    7109.9444    8221.3041    9353.0421    11794.544   -352.87301   -1562.4145    922.16316   -2411.2844 
14580000      271.788   -3841.4969   -3375.6616   -3841.4969            0    8016.6564    17.035716    20.065823    20.783534     7104.553    8406.2454    8545.3597    7098.3642    1074.3255    241.46787   -54.404906   -2545.0348 
14581000    246.83359   -3834.5865   -3411.5221   -3834.5865            0    6924.8431    17.065308    20.100679    20.819636    7141.6408    6595.1329    6190.2508    7989.1456    241.66917   -121.18389    140.53702   -2690.2755 
14582000    263.29834   -3895.9902   -3444.7059   -3895.9902            0    6355.4811    17.088265    20.127719    20.847644    7170.5012    7507.3321    6569.5587    4989.5526   -993.60151     1291.436    1348.8079   -2780.0852 
14583000    257.46148   -3886.7685   -3445.4884   -3886.7685            0    7680.9967    17.052767    20.085907    20.804336    7125.9074    7114.2959     7971.431    7957.2631   -1980.8703    1134.0576   -317.96659   -2647.2481 
14584000    267.77733   -3843.9501   -3384.9889   -3843.9501            0    7537.7822    17.106814    20.149568    20.870273    7193.8771    5691.8278    9602.9796    7318.5393    400.82599    76.485934   -131.89926   -2594.1601 
14585000    265.48667    -3869.011   -3413.9759    -3869.011            0    8114.9622    16.963239    19.980455    20.695112    7014.2614    7129.9043    8309.6862     8905.296    1184.9567    80.287118   -627.11593   -2583.8493 
14586000    259.72348   -3869.1161    -3423.959   -3869.1161            0     8055.845    16.959356    19.975881    20.690374     7009.445    7788.1752     8319.815    8059.5448    1298.1056    755.59537   -811.56606   -2600.4457 
14587000    253.21537   -3886.2166   -3452.2142   -3886.2166            0    8599.7806    17.039904    20.070756    20.788643    7109.7939    9387.3166    8582.4031    7829.6222    596.27429    208.98479   -1127.0902   -2560.5111 
14588000    273.72718   -3854.7722   -3385.6132   -3854.7722            0    8461.9396    17.072254    20.108861     20.82811    7150.3649     10021.34    6140.1525    9224.3266    917.61409    993.74257    50.830631   -2503.1959 
14589000    245.05735   -3883.8562   -3463.8363   -3883.8562            0    8316.3419    17.098314    20.139556    20.859903    7183.1589     10225.66    7755.5148    6967.8511    356.68003    1492.1676   -539.46498   -2592.6246 
14590000    261.61586   -3863.9608   -3415.5602   -3863.9608            0    7790.9238    17.029147    20.058085    20.775519    7096.3373    8675.6911    7314.2153     7382.865   -783.52624    205.29956   -1011.9549   -2609.2556 
14591000    254.81721   -3876.4608   -3439.7128   -3876.4608            0    6063.0249    17.061847    20.096602    20.815414    7137.2965    5985.1315    6926.4013    5277.5418   -734.67691   -81.262485    744.49012   -2808.6116 
14592000    254.31253   -3818.3957   -3382.5127   -3818.3957            0    8125.6738     17.06415    20.099315    20.818223    7140.1868    8451.6101    7335.3011      8590.11     1958.142   -271.42519   -1339.8544   -2536.3676 
14593000    233.74543   -3847.9982   -3447.3666   -3847.9982            0    9469.3802     17.09199    20.132106    20.852187    7175.1907    8920.5451    8472.4295    11015.166   -567.73441    502.63813    210.95721   -2456.4641 
14594000    254.49638   -3892.7677   -3456.5696   -3892.7677            0     7474.514    17.065029     20.10035    20.819295    7141.2901    9474.7714     5887.819    7060.9518   -471.18225   -564.04971   -435.35569    -2678.111 
14595000    249.83416   -3873.2643   -3445.0571   -3873.2643            0    6559.1354    17.039708    20.070525    20.788403    7109.5482    8147.8084    5598.8492    5930.7487    267.38244    390.44287   -130.06653   -2764.9701 
14596000    266.73138   -3873.4443   -3416.2758   -3873.4443            0    8720.9853    17.030145    20.059262    20.776738    7097.5859    8809.0581    9087.5875    8266.3104   -632.73681   -881.66112    655.60984   -2513.5578 
14597000    258.22061   -3870.8499   -3428.2686   -3870.8499            0    9523.4558    16.955042      19.9708    20.685112     7004.098    8648.3803    10010.765    9911.2217    334.70703    255.32544    179.41629   -2455.4706 
14598000    256.53398   -3900.6598   -3460.9693   -3900.6598            0    7561.4056    16.960744    19.977516    20.692068    7011.1668    6728.1615    7530.2442    8425.8111    838.47837     -418.409    203.26152   -2687.8105 
14599000    252.55439   -3872.2636    -3439.394   -3872.2636            0      8641.83    16.981728    20.002232    20.717668    7037.2215    8701.7053     9732.364    7491.4207   -1776.8076   -237.54731    644.45457   -2552.4773 
14600000    252.01499   -3894.8875   -3462.9424   -3894.8875            0    7598.8771    17.031286    20.060606    20.778129    7099.0123    5099.7969    10823.575    6873.2595   -661.50803   -437.78791   -46.656906   -2676.2169 
14601000    251.44119   -3906.1052   -3475.1436   -3906.1052            0    9430.9599    16.999837    20.023562    20.739761    7059.7587    8997.3709    9599.6653    9695.8436   -826.95919    11.946335   -196.70357   -2504.1382 
14602000    271.10074   -3881.5764    -3416.919   -3881.5764            0    7612.7443    17.082529    20.120963    20.840646    7163.2831    8935.6751    5754.5431    8148.0148    391.65636    1537.7098     1453.599   -2621.6222 
14603000    258.35642   -3870.7404   -3427.9263   -3870.7404            0    8366.3487    17.034991     20.06497     20.78265    7103.6465    8190.9872     6359.531    10548.528   -1282.1093    311.24381    535.21652   -2561.1777 
14604000    271.16344   -3896.6786   -3431.9137   -3896.6786            0    7039.5436      17.0542    20.087595    20.806084    7127.7038    7131.6986    6622.7485    7364.1838    101.93784    200.21001    101.37803   -2700.1514 
14605000    262.09652   -3865.3219   -3416.0975   -3865.3219            0    7517.7553    17.095842    20.136643    20.856887     7180.043     8652.179    6906.8538    6994.2332   -432.74523    34.182106    102.62514   -2628.8865 
14606000    252.70701   -3906.1675   -3473.0363   -3906.1675            0    8326.1517    17.053382    20.086632    20.805086    7126.6785    8073.8913    9443.0182    7461.5455    624.94315   -2818.5334     1797.105   -2607.6553 
14607000    259.62171    -3901.895   -3456.9123    -3901.895            0     6755.759    17.069299    20.105379    20.824505     7146.652    5787.6381    7455.1581    7024.4807    1430.1461   -2505.1836   -406.77472   -2752.7825 
14608000    247.81229   -3876.0551   -3451.3133   -3876.0551            0    7607.0058    17.044467    20.076131     20.79421    7115.5076    7927.1506    7952.4261    6941.4407   -147.55551    -530.0142   -877.12888   -2661.9163 
14609000    264.92495   -3914.7667   -3460.6944   -3914.7667            0    7548.8395    17.061684     20.09641    20.815214    7137.0912    8914.4287    6384.1335    7347.9562   -63.952073   -161.32681    1380.5762   -2674.9572 
14610000    251.71262   -3881.3268      -3449.9   -3881.3268            0    7483.6631     17.11929    20.164262    20.885494    7209.6278     7119.024    8459.1302     6872.835    -1139.082   -8.6304639    174.17117   -2663.0301 
14611000    266.49387   -3892.3731   -3435.6117   -3892.3731            0    6540.0063    17.050277    20.082974    20.801298    7122.7863    4866.1725    8402.2607    6351.5858   -461.33372   -199.09143   -314.94854   -2756.2454 
14612000    250.20198   -3874.5966    -3445.759   -3874.5966            0    9126.2846    17.049807     20.08242    20.800724    7122.1967    9331.7555    8221.1359    9825.9625    575.65865    977.15057    506.99252   -2497.8124 
14613000     257.5002   -3913.1874   -3471.8409   -3913.1874            0    6935.6739    17.057494    20.091474    20.810102    7131.8343    5539.5378    6950.9703    8316.5135   -342.82325     772.9603    -675.9956   -2750.4581 
14614000    278.66195   -3893.0282   -3415.4112   -3893.0282            0    6403.5799    17.073374    20.110179    20.829477    7151.7719    5182.3373    6193.0663     7835.336   -1342.0573    679.38181   -735.45502   -2747.5097 
14615000    278.72629   -3895.3257   -3417.5984   -3895.3257            0    8046.6273    17.006326    20.031205    20.747678    7067.8458    6533.4315    8602.4259    9004.0244    160.57581    290.75589     1775.482   -2588.1739 
14616000    264.33336   -3912.3895   -3459.3312   -3912.3895            0    7745.4774    17.010731    20.036394    20.753052    7073.3398    6501.5231    7664.8164    9070.0927    924.95481    499.62627    891.73945   -2660.3278 
14617000    253.79709   -3909.6462   -3474.6466   -3909.6462            0    8918.1012    16.996716    20.019887    20.735954    7055.8715    10109.108    9076.9393    7568.2567    1157.4137    1543.3404   -1554.6252   -2556.9504 
14618000    260.42259   -3925.2165   -3478.8611   -3925.2165            0    5186.9428    17.101359    20.143142    20.863618    7186.9966    5248.0749    5876.6909    4436.0624    23.701345    1109.7384    78.548201   -2935.1918 
14619000    264.02526   -3894.3767   -3441.8464   -3894.3767            0    7911.7149    17.085676    20.124669    20.844485    7167.2422    8158.5725    6836.4171     8740.155   -451.51261   -1484.6025   -1051.9907   -2614.8596 
14620000    257.22096   -3894.1366   -3453.2687   -3894.1366            0     8196.517    17.017259    20.044083    20.761016    7081.4857    9782.8797    7657.1186    7149.5528   -778.47646    718.85501   -1150.4275   -2606.7635 
14621000    275.70925   -3924.1546   -3451.5984   -3924.1546            0    7057.1368    17.065093    20.100425    20.819373    7141.3701    5756.8756     8505.362    6909.1727   -413.25989    1534.7025     431.8159   -2716.6007 
14622000    268.66362   -3884.5247   -3424.0444   -3884.5247            0    7142.4565     17.00773     20.03286    20.749391    7069.5974    7194.4996    8117.0796    6115.7902   -742.03201    434.63057   -1185.3735    -2687.637 
14623000    248.60984   -3909.7881   -3483.6794   -3909.7881            0     8037.898    17.020008    20.047321     20.76437    7084.9182    7430.2781    9556.1376    7127.2784   -1065.0907    359.63205    -609.8606   -2653.1534 
14624000    270.67153   -3902.9536   -3439.0318   -3902.9536            0     6766.141    17.071874    20.108413    20.827647    7149.8875    6697.9726    8170.6118    5429.8384   -167.01568   -7.1872513   -695.78607   -2733.5008 
14625000    277.77758   -3903.9276   -3427.8263   -3903.9276            0    7755.5913    17.080295    20.118332    20.837921    7160.4733    6173.8052    9390.4689    7702.4999   -909.19293    1123.0324     195.2889   -2617.9242 
14626000    273.66988   -3929.6329   -3460.5721   -3929.6329            0    7655.8781    17.074487    20.111491    20.830835    7153.1712    8374.3795    7061.4027    7531.8522   -930.01572   -1513.6039   -1251.3544   -2661.8981 
14627000    271.96308   -3900.6728   -3434.5374   -3900.6728            0    8809.2254    17.046719    20.078784    20.796958    7118.3285    8557.1612    7545.1033    10325.412    -1547.858   -1119.0128    29.450179   -2520.0207 
14628000     257.3034   -3876.4189   -3435.4097   -3876.4189            0    6217.4016       17.084    20.122695     20.84244    7165.1331    5124.7281    6865.0462    6662.4306    704.54875   -586.57479   -179.84497   -2785.7154 
14629000    274.95629   -3863.9724   -3392.7067   -3863.9724            0    8112.6602    17.097088    20.138112    20.858408    7181.6141    8878.5089    8573.3256    6886.1461   -734.84458     1263.337   -792.22592   -2543.0153 
14630000    251.64972   -3887.1947   -3455.8757   -3887.1947            0    7355.5127    17.076288    20.113612    20.833032    7155.4344    7649.7101    8596.2766    5820.5514   -1021.9921   -1844.3176    448.90591   -2688.2936 
14631000     248.7847   -3885.2252   -3458.8167   -3885.2252            0    8102.3927    17.128276    20.174847    20.896457    7220.9868    7829.8975    7090.9571    9386.3234    2216.1192    1818.3812   -368.29751   -2605.5482 
14632000    269.61648   -3872.1355   -3410.0221   -3872.1355            0    7547.1823    17.087833     20.12721    20.847117    7169.9575    7369.0121    8951.2703    6321.2645     1310.691    898.23577   -666.01309   -2620.8399 
14633000    246.09287   -3855.7736   -3433.9788   -3855.7736            0    6746.3025    17.053112    20.086313    20.804756    7126.3393     6789.801    6003.6642    7445.4423    850.59081   -1268.4056     -216.072   -2732.8333 
14634000    254.17494   -3897.8449   -3462.1978   -3897.8449            0    7825.8782    17.026575    20.055056    20.772382    7093.1229    8214.0085    8085.0074    7178.6188    495.66277   -935.74532    395.98272   -2652.6426 
14635000    250.39035   -3898.0553   -3468.8948   -3898.0553            0    6197.1118    17.053419    20.086675    20.805132     7126.725    6427.3745    6187.5626    5976.3982    1680.4973   -985.99597   -690.00519   -2824.7919 
14636000    272.69025   -3885.2212   -3417.8395   -3885.2212            0    6784.7734    16.997845    20.021217    20.737332    7057.2779    4069.2378    8633.8377    7651.2447   -894.39379    393.40804     2117.758   -2719.5292 
14637000    250.72024   -3888.2796   -3458.5537   -3888.2796            0    6815.1727    17.063363    20.098388    20.817263    7139.1992    8778.4694    7576.5722    4090.4763     1116.661     164.1377   -672.15387   -2748.9722 
14638000    264.76207    -3853.701   -3399.9079    -3853.701            0    9567.9318    17.034536    20.064433    20.782094    7103.0767     10524.17    10625.858    7553.7673   -730.75677   -985.31133    631.94711   -2408.7554 
14639000     240.4621   -3882.7751   -3470.6313   -3882.7751            0    8694.3384    16.987975    20.009591     20.72529    7044.9907    9228.5151    9718.2203    7136.2797    1143.0913    104.22449    364.60837   -2577.3405 
14640000    262.05757    -3876.446   -3427.2883    -3876.446            0    5826.1253    17.083929    20.122612    20.842354    7165.0446    4892.2859    7057.8931    5528.1969    757.82812   -98.651072    1171.8202   -2818.4884 
14641000    246.01151   -3901.0913   -3479.4359   -3901.0913            0    6461.0591    17.098346    20.139593    20.859942    7183.1988    6292.9162    6028.4288    7061.8324   -320.58001   -561.14547   -1047.3839   -2802.5781 
14642000     264.2896   -3919.2574    -3466.274   -3919.2574            0    7026.9068    17.009774    20.035266    20.751884    7072.1454    8136.8357    6385.4627     6558.422   -1773.1671    1007.7785   -1498.2763   -2741.5189 
14643000     256.8001   -3875.2601   -3435.1135   -3875.2601            0     7988.818    16.973653    19.992721    20.707817    7027.1873    7372.1754    8327.7876    8266.4911    331.10763   -335.43131    1113.7823    -2616.385 
14644000    253.64766   -3872.5323   -3437.7889   -3872.5323            0    7347.4259     17.10769    20.150599    20.871342    7194.9823    6586.9206    6054.7257    9400.6314    1634.4856     901.6138   -613.21125    -2666.813 
14645000    277.00871   -3872.8601   -3398.0766   -3872.8601            0    7845.6125    17.079836    20.117791     20.83736    7159.8955    8069.9393    5912.1807    9554.7174    782.51991   -2279.8879    -35.56022   -2578.8399 
14646000    256.74019   -3863.0767   -3423.0328   -3863.0767            0    6753.0804    16.979896    20.000074    20.715433    7034.9439     5809.309    6852.1947    7597.7373    1379.4385   -273.13227   -932.44208   -2730.1841 
14647000    245.39767   -3868.6606   -3448.0574   -3868.6606            0    7160.4987    17.021578    20.049171    20.766286    7086.8796     5529.716     8651.536    7300.2441    695.95832    85.157357   -1579.0771    -2707.985 
14648000     244.3826   -3879.1061   -3460.2427   -3879.1061            0    6370.7325    17.000091    20.023862    20.740071    7060.0753    6484.3801    6534.1294    6093.6879    437.98776    1196.2597   -1004.9153   -2804.2869 
14649000    273.75463   -3854.3725   -3385.1664   -3854.3725            0    8275.5209    17.007655    20.032771    20.749299    7069.5027    6180.2525    9473.3574    9172.9528   -1061.8832      1037.26   -289.20034   -2531.9482 
14650000    250.11832   -3893.2173   -3464.5231   -3893.2173            0    7278.7636    17.013987    20.040229    20.757024    7077.4022    6202.7929    6219.5133    9413.9845   -207.43009   -141.90507   -912.80407   -2713.2335 
14651000     257.7811    -3861.527    -3419.699    -3861.527            0    7945.5793    17.040267    20.071183    20.789086     7110.248    8679.6199    7386.8556    7770.2625    -455.1755   -343.35875   -1325.1944   -2595.7768 
14652000    256.45744   -3898.5453   -3458.9861   -3898.5453            0    8657.6924    17.010647    20.036295     20.75295    7073.2351    8805.4278     9225.136    7942.5136   -561.43528    457.20377    12.807921   -2565.8942 
14653000    264.80844   -3881.5682   -3427.6956   -3881.5682            0     4432.269    17.081443    20.119684    20.839321    7161.9167    4743.7901    4346.7085    4206.3084    80.243441    359.70141    329.00705   -2964.7486 
14654000    249.79283   -3898.3273    -3470.191   -3898.3273            0    6427.5135    17.004177    20.028675    20.745056    7065.1674    5170.4335     6653.665    7458.4418    1527.3701   -227.74487    273.94682   -2807.9114 
14655000    260.75342    -3882.511   -3435.5886    -3882.511            0      7491.51    17.010799    20.036474    20.753135    7073.4248    6962.6949    6429.2332     9082.602    678.06274    -504.9323    1153.7674   -2662.7745 
14656000    244.68153   -3904.1275   -3484.7518   -3904.1275            0    8877.1024    16.991362     20.01358    20.729422    7049.2051    9047.0423    8379.2332    9205.0317    -396.7843   -1457.7622    642.91548   -2572.1375 
14657000    267.17344   -3920.9615   -3463.0353   -3920.9615            0    6372.9708    17.054842    20.088351    20.806867    7128.5087    5131.7959    7623.1645    6363.9519    -944.1425   -1483.8046     997.7316   -2800.4886 
14658000    255.53567    -3897.815   -3459.8356    -3897.815            0    5531.4037    17.110146    20.153492    20.874338    7198.0807    5683.8244    5742.9874    5167.3992   -832.65063    952.87044     783.1341   -2879.1675 
14659000    261.19729    -3910.005   -3462.3218    -3910.005            0    7146.1848    17.018417    20.045447    20.762429    7082.9319    8848.4833    6588.3502    6001.7209     90.18326   -954.43247    39.345232   -2724.1402 
14660000    263.99018   -3879.9861    -3427.516   -3879.9861            0    6520.0169    17.130603    20.177588    20.899296    7223.9301    5857.3938    6493.1816    7209.4754   -6.6596811   -46.827837    170.77644   -2740.6087 
14661000    258.72691   -3925.3219   -3481.8728   -3925.3219            0    7454.4248    17.048297    20.080641    20.798882    7120.3044    7715.1187    6313.8348     8334.321    281.72302   -768.57456   -1004.3077   -2707.7879 
14662000     252.3266   -3894.0431   -3461.5639   -3894.0431            0    7174.3935    17.015177    20.041631    20.758476    7078.8876    9220.7241    6362.5721    5939.8842    367.96363   -1321.1874   -179.96498   -2720.8916 
14663000    253.41702   -3881.2831    -3446.935   -3881.2831            0    7653.6376    17.060812    20.095383    20.814151    7135.9972    6507.5531    7110.1915    9343.1683    673.02692   -209.02526    1770.4636   -2650.4117 
14664000    258.78951   -3902.9824    -3459.426   -3902.9824            0    6464.0257    17.079197    20.117038    20.836581     7159.092     8007.157    6095.2964    5289.6236    1557.2868    1354.6619    1442.4579   -2784.5299 
14665000    258.23223   -3908.0384   -3465.4372   -3908.0384            0     7288.741    17.099055    20.140428    20.860807    7184.0929    6141.4347    7769.9091    7954.8792   -1170.6477   -1539.2489    1385.1003   -2701.7766 
14666000    263.74069   -3882.3244   -3430.2819   -3882.3244            0    7674.6637    17.067664    20.103454    20.822511    7144.5993    7017.5381    8592.7747    7413.6782    264.73907  -0.65302241    27.776953   -2630.6076 
14667000    256.00773   -3920.3917   -3481.6032   -3920.3917            0    8461.6302    16.980686    20.001005    20.716397    7035.9261    7551.0503    9335.1408    8498.6996    39.545604    54.716927    1350.8183   -2613.3404 
14668000    281.91347    -3895.357    -3412.167    -3895.357            0    6589.7413    17.023592    20.051543    20.768742    7089.3952    7895.8142    6127.1563    5746.2533   -119.04449    -924.6793    1116.6167   -2730.8433 
14669000    273.77538   -3874.5998   -3405.3582   -3874.5998            0     7708.131    16.984899    20.005968    20.721538    7041.1651    8759.5937    9494.5122    4870.2872    734.86975    915.46014   -441.21531   -2613.8243 
14670000    260.74035   -3868.5659   -3421.6659   -3868.5659            0    7031.8649    16.989297    20.011148    20.726903    7046.6358    5381.6728    8353.3258    7360.5961    1487.6744   -1122.8748   -822.79517   -2699.0155 
14671000    249.31507   -3848.5761   -3421.2586   -3848.5761            0    7383.7145    17.047436    20.079628    20.797832    7119.2264    8930.8045      9289.34    3930.9989   -450.58945    291.50719    1178.2322   -2654.6325 
14672000    262.16731   -3873.7001   -3424.3544   -3873.7001            0    8017.9422    16.969758    19.988134    20.703066    7022.3516    7944.9762    8197.8645    7910.9859   -481.08195    237.23235     273.1293   -2603.2065 
14673000    257.64517   -3892.1551   -3450.5601   -3892.1551            0    9134.5723    17.047507    20.079711    20.797918    7119.3149    8260.3701    11272.989    7870.3574   -349.33615   -1058.6192   -412.54243   -2502.1366 
14674000    254.23951   -3884.3461   -3448.5883   -3884.3461            0    6619.8388    17.065877    20.101349     20.82033    7142.3548    5748.3264    7014.0112    7097.1787    246.44209     248.9613   -514.35332   -2759.0399 
14675000    255.76264   -3862.5935   -3424.2251   -3862.5935            0    7978.7653    17.070394     20.10667    20.825841    7148.0283     6330.336    9264.5674    8341.3926   -153.48674    1622.1452   -1158.5513   -2592.4655 
14676000     257.5721   -3876.7569   -3435.2871   -3876.7569            0    7394.9263    17.025962    20.054334    20.771633    7092.3562    7406.9541    7840.6813    6937.1435   -166.67533    1492.6438   -1438.0633   -2670.3948 
14677000    280.69535   -3877.6319   -3396.5297   -3877.6319            0    8236.0155    17.006883    20.031862    20.748357    7068.5405    9307.0719    8344.8946    7056.0799    46.988742   -552.90574   -308.88917   -2547.5002 
14678000    264.62004   -3866.3178   -3412.7681   -3866.3178            0    6053.4487    17.049134    20.081628    20.799904    7121.3537    5956.3371    6733.5402    5470.4689   -398.20116   -936.97938    567.49814   -2784.0713 
14679000    253.70732   -3880.0882   -3445.2425   -3880.0882            0    5609.6208    17.108301    20.151318    20.872087    7195.7522    6213.2999    5648.4625    4967.1002    -240.0287    772.64132    234.86997    -2856.554 
14680000    248.37748   -3861.4058   -3435.6953   -3861.4058            0    8576.9212    17.057408    20.091374    20.809998    7131.7271    10329.902    7710.5959    7690.2656    674.74956    212.06228    1683.4331    -2543.619 
14681000    250.11897   -3832.4619   -3403.7665   -3832.4619            0    8673.0395     17.02908    20.058007    20.775438    7096.2536    6866.1869    9973.3643    9179.5673    -919.3629    394.09315   -1401.9198     -2506.18 
14682000    272.48915   -3860.0284   -3392.9913   -3860.0284            0    8843.8606     17.03122    20.060527    20.778048    7098.9289    7099.8772    10093.724    9337.9805    1120.6495   -434.42966   -2054.0758   -2477.3811 
14683000    253.44533   -3868.0525   -3433.6559   -3868.0525            0    7611.9534    17.018809    20.045909    20.762908     7083.422    9851.1221    6903.6987    6081.0394    2420.4812    10.528473   -393.11707   -2647.3073 
14684000    259.07682   -3859.5945   -3415.5457   -3859.5945            0    8902.3306     16.96395    19.981293     20.69598    7015.1436    9476.1352    8736.3822    8494.4743    244.88781    1170.9394    539.86406   -2504.7601 
14685000    270.72455   -3866.6964   -3402.6838   -3866.6964            0    7215.9447    17.069877     20.10606     20.82521    7147.3783    7108.6746    5425.9882    9113.1714   -735.99467   -32.701083   -1052.6006    -2650.514 
14686000    273.86513   -3861.6884   -3392.2929   -3861.6884            0    6810.4367    17.032174    20.061651    20.779212    7100.1223    4996.4589    6694.3415    8740.5097    2714.4367   -732.10007    1495.2883   -2687.0858 
14687000     259.0755   -3870.4578   -3426.4113   -3870.4578            0    10410.567    16.937733    19.950412    20.663995    6982.6686    8934.7421    12192.184    10104.777    103.19319    1442.0582   -858.93135   -2366.2505 
14688000    272.38372   -3856.3555   -3389.4991   -3856.3555            0    9014.9965    17.013197    20.039298     20.75606    7076.4161    11434.788    8807.1979    6803.0035    1343.3891     -835.632   -1590.5718    -2459.131 
14689000    247.69773   -3878.3002   -3453.7548   -3878.3002            0    6531.1253    16.981128    20.001526    20.716937    7036.4762    6868.1419    7637.3026    5087.9313    413.42646    48.369348    256.56658   -2783.5321 
14690000    273.30758   -3849.7328    -3381.293   -3849.7328            0    7961.4191     16.98783     20.00942    20.725113    7044.8107    10989.196    6969.0106    5926.0509    410.31068   -2593.1192   -1863.4029   -2563.3261 
14691000    258.09799   -3859.9639   -3417.5928   -3859.9639            0    9259.9573    16.919134    19.928504    20.641303    6959.6907    8559.7919    9281.4252    9938.6548    143.38901   -1457.8845    536.48893   -2477.7076 
14692000    266.58099   -3862.9841   -3406.0734   -3862.9841            0    8211.4327    16.969135      19.9874    20.702306    7021.5782    9495.0958    9269.7479    5869.4545    1549.4221    148.07634    548.43332   -2565.2021 
14693000     258.4078   -3863.7636   -3420.8614   -3863.7636            0    6324.5173    16.994855    20.017694    20.733683    7053.5537    6228.6492     6091.029    6653.8737   -321.09958     -387.405    275.16225   -2770.2657 
14694000    264.24541   -3846.9976   -3394.0901   -3846.9976            0    7188.2703    16.991834    20.014136    20.729998    7049.7927    8195.6828    5803.0866    7566.0414    -45.39644    606.15012    282.33059   -2655.0353 
14695000      257.142   -3879.3241   -3438.5915   -3879.3241            0     7433.864    17.089354    20.129001    20.848972    7171.8717    8860.3184    7028.3509    6412.9227    720.91504   -142.48178   -15.561627    -2661.051 
14696000    248.56902   -3834.1143   -3408.0755   -3834.1143            0    6424.5295     17.04887    20.081317    20.799582    7121.0232    7647.7689    4491.4803    7134.3395    1054.7976   -197.61107   -262.90481     -2740.87 
14697000    261.95441   -3861.9084   -3412.9275   -3861.9084            0    8068.3452    16.965574    19.983205     20.69796    7017.1579    6720.8208    8733.6057    8750.6091   -246.48844   -813.22769   -75.547463   -2587.2288 
14698000     266.8458   -3904.1037   -3446.7391   -3904.1037            0    7903.3467    17.064958    20.100266    20.819209    7141.2011    6361.6718    9131.8477    8216.5207   -421.82902    465.69285   -2158.7091   -2623.6285 
14699000    271.43628     -3877.43   -3412.1975     -3877.43            0    6786.4947    17.042214    20.073477    20.791461    7112.6858    5524.6132    7798.1061    7036.7646    663.68275    1453.5557   -2605.7418   -2708.2261 
14700000    260.87614   -3899.2297    -3452.097   -3899.2297            0    6700.4257    17.027636    20.056306    20.773676    7094.4491    6116.9877     7482.553    6501.7364    923.09014   -453.35228   -731.19427   -2758.8357 
14701000     259.8188   -3883.7936   -3438.4731   -3883.7936            0    7098.5532    17.017807    20.044729    20.761685     7082.171    7994.8687    8584.1594    4716.6313   -295.87983    162.59451   -653.42384   -2705.2905 
14702000    265.07468   -3874.6863   -3420.3574   -3874.6863            0    7425.8786    17.019878    20.047168    20.764211    7084.7562    7947.7786     7482.906    6846.9513    78.212977   -273.94122   -1743.4387   -2653.0866 
14703000    260.76481   -3903.4992   -3456.5573   -3903.4992            0     9889.506    16.959462    19.976006    20.690504    7009.5769    10232.082    9949.7133    9486.7228    -2181.362    146.01562   -591.69844   -2445.5779 
14704000    264.55015   -3922.6038   -3469.1739   -3922.6038            0    7863.7291    16.995499    20.018452    20.734468     7054.355    9210.3262    6025.9823    8354.8789   -1979.1597   -1657.0331   -333.68626   -2660.1492 
14705000    253.57996   -3912.8648   -3478.2375   -3912.8648            0    6365.3464    17.076025    20.113302    20.832711    7155.1041    7518.0805    5867.5733    5710.3855   -494.16738   -219.28792    1554.4547   -2814.0145 
14706000    265.32327   -3921.6917   -3466.9367   -3921.6917            0    6817.9105    17.098118    20.139324    20.859664    7182.9112    6358.7414     6943.209    7151.7812   -95.712573     -857.569    -284.7032   -2752.7238 
14707000    261.91322   -3910.9373    -3462.027   -3910.9373            0     5808.962    17.058369    20.092506    20.811171    7132.9329    5558.8058    5062.5326    6805.5474   -2163.0198   -595.53448    177.69036   -2857.7409 
14708000    264.44403    -3869.874    -3416.626    -3869.874            0    6777.3479    17.079224    20.117069    20.836613    7159.1252       6754.6    6208.2074    7369.2364   -1016.3574    141.59389    557.80293   -2709.0133 
14709000    256.46222   -3876.1011   -3436.5337   -3876.1011            0    7674.2751    17.005562    20.030306    20.746746    7066.8935    10535.721    8276.4531     4210.651    741.10245   -438.33504    513.85829   -2645.5968 
14710000    276.30295   -3880.6781   -3407.1043   -3880.6781            0    8553.4085    16.990253    20.012273    20.728069    7047.8248    10743.669    8040.0453    6876.5107    1022.6037   -766.99393   -43.118415   -2527.9397 
14711000    258.67872   -3883.0419   -3439.6754   -3883.0419            0    7678.0123    16.960707    19.977472    20.692022    7011.1201    10219.318    5926.7178    6888.0008   -670.76105   -543.03785   -466.75031   -2654.5987 
14712000    258.66541   -3883.7052   -3440.3615   -3883.7052            0    7367.6716    17.029577    20.058593    20.776045    7096.8759    6706.1233    7051.8872    8345.0043    1686.9055   -329.12388    2260.6983   -2677.8027 
14713000    266.33465   -3873.3222   -3416.8337   -3873.3222            0    8586.7264    16.988419    20.010113    20.725831    7045.5427    8259.7725    6852.1779    10648.229     910.9689   -101.64242   -434.04382   -2534.5303 
14714000     265.0285   -3894.1189   -3439.8691   -3894.1189            0    7090.5467    17.007307    20.032362    20.748875    7069.0697    7971.3556    5097.1086    8203.1759   -294.34733   -83.842428    160.38551   -2708.8682 
14715000    246.89676   -3892.6139   -3469.4413   -3892.6139            0    7907.9984    16.933835    19.945821    20.659239     6977.849    9591.2629    6824.4082    7308.3239   -237.01603   -1392.5652   -512.32362   -2664.6857 
14716000    256.97015   -3887.7049   -3447.2669   -3887.7049            0    7094.6615    17.018106     20.04508    20.762049    7082.5431     7751.898     5980.938    7551.1485    318.52538    531.05332    321.55701   -2714.4478 
14717000    247.84357   -3860.0691   -3435.2737   -3860.0691            0    6921.7143    17.020909    20.048383     20.76547    7086.0443    8116.1694    5599.3133    7049.6603     1075.139    1380.2016    -342.6543   -2719.9651 
14718000    263.99085   -3851.3621   -3398.8909   -3851.3621            0    8792.0956    16.997079    20.020314    20.736396     7056.323    7962.6709    8521.6911    9891.9248    117.17351   -47.265121   -771.80416   -2494.1031 
14719000    262.94463   -3851.6429   -3400.9648   -3851.6429            0    7427.7206    17.023909    20.051916    20.769129    7089.7913    9238.0455    8071.6379    4973.4783    370.87659    414.77383   -303.37525   -2632.9583 
14720000    254.51335   -3895.7436   -3459.5164   -3895.7436            0    8100.4087     16.95203    19.967252    20.681436    7000.3651    8509.5443    8174.1931    7617.4888   -103.71476    321.18504   -794.72666   -2632.5202 
14721000    260.13037   -3866.2787   -3420.4241   -3866.2787            0    8227.3858    16.951441    19.966558    20.680718     6999.636    10525.268    8745.2325    5411.6565    1283.0224    -92.46041   -1462.3538   -2580.5519 
14722000    252.72737   -3879.3893   -3446.2233   -3879.3893            0    8390.2048    16.976852     19.99649     20.71172    7031.1619    7996.3134    8608.6984    8565.6028    1510.5741    766.24725   -227.64817   -2585.8725 
14723000    251.77396    -3888.494   -3456.9621    -3888.494            0    4426.9899    17.097255    20.138308    20.858611     7181.824    3214.4336    4213.9268    5852.6094    1279.0888    621.53679   -874.92139   -2993.2812 
14724000    261.83285   -3859.5897   -3410.8171   -3859.5897            0    8065.4805    17.062888    20.097828    20.816683    7138.6024    7961.0494    8760.6745    7474.7175    637.60611   -238.62183   -1510.3096   -2571.1265 
14725000    259.45549   -3878.7685   -3434.0707   -3878.7685            0    6753.3253    17.089799    20.129525    20.849514    7172.4316    6248.1121    7650.7889    6361.0748   -1374.0021      79.3195    187.73701   -2727.6556 
14726000    249.76372    -3832.473   -3404.3865    -3832.473            0    7259.6247    17.059284    20.093583    20.812286    7134.0796    7885.2291    7371.1673    6522.4778    460.49786   -819.88488   -618.18424   -2649.0717 
14727000    281.77612   -3832.1458   -3349.1912   -3832.1458            0    6025.5875    17.067369    20.103107    20.822151    7144.2289    8111.1717    4125.2686    5840.3222    2021.2858   -216.94662     523.0031   -2721.3777 
14728000     268.6418   -3849.5762   -3389.1333   -3849.5762            0     7567.904    17.099417    20.140855    20.861249    7184.5493    9030.6576    6329.8167    7343.2379    795.13723   -413.42975   -1084.2596   -2596.1738 
14729000    268.14053   -3877.4908   -3417.9071   -3877.4908            0     6144.393    17.089593    20.129284    20.849264    7172.1732    5778.1532    4867.3986    7787.6271   -476.24102   -1692.4102   -1649.2673   -2775.2111 
14730000    250.43928    -3829.074   -3399.8296    -3829.074            0    6893.6359     17.07812     20.11577    20.835267    7157.7378    7863.6332    6986.6429    5830.6317   -1335.2041    1189.5704   -1409.4606   -2680.2149 
14731000     271.0522   -3876.0593   -3411.4851   -3876.0593            0    5887.1652    17.136761    20.184841    20.906809     7231.724    5582.6371     4241.391    7837.4675    10.398201   -153.04746   -171.94939   -2790.5818 
14732000    258.51044   -3841.1314   -3398.0534   -3841.1314            0    8460.9707    17.025844    20.054195    20.771489    7092.2087    9242.5137    8660.8462    7479.5522    907.26714     2418.281   -1016.8358   -2522.9133 
14733000     242.9428   -3856.0569   -3439.6613   -3856.0569            0    7455.9861    17.037679    20.068136    20.785929    7107.0099    6854.6029    7965.3165    7548.0389   -929.07945   -994.31705    -656.4803   -2666.8599 
14734000    265.02663   -3850.9322   -3396.6856   -3850.9322            0    8040.2632    16.935828    19.948168    20.661671    6980.3131     6097.678    8884.2282    9138.8834    1454.1668    285.28867   -1726.2883   -2578.1812 
14735000    249.95623   -3855.8339   -3427.4175   -3855.8339            0    5757.2932    17.071811    20.108338    20.827569    7149.8077    5892.1041    6269.8746    5109.9009   -445.52001   -1173.3743   -1306.8254   -2827.0895 
14736000    255.32335   -3871.9405    -3434.325   -3871.9405            0    7640.5836    17.032489    20.062022    20.779596     7100.516    6204.3133     8036.261    8681.1764   -249.48441   -148.48577   -471.93285    -2643.114 
14737000    252.46705   -3843.5126   -3410.7927   -3843.5126            0    8344.3022    16.961822    19.978786    20.693383    7012.5034    8450.6804    8716.5699    7865.6564    1738.2226   -673.88149   -1311.4001   -2557.4195 
14738000    264.29171   -3846.3008   -3393.3138   -3846.3008            0    7085.8944    17.066573    20.102169     20.82118    7143.2294    7773.3389    6793.8644    6690.4799   -369.69784    184.44375    1247.9588   -2655.1289 
14739000    247.32236   -3823.8816   -3399.9795   -3823.8816            0    7638.4905    17.103481    20.145641    20.866206    7189.6721    7935.3989    8734.4243    6245.6484   -386.70047   -958.40886   -436.01743   -2599.0533 
14740000    268.97647    -3866.682   -3405.6656    -3866.682            0     7842.806     17.00149    20.025509    20.741778    7061.8182    9191.2568    7455.5738    6881.5872   -489.77973    1037.3881   -1123.9337   -2597.9399 
14741000    258.79531   -3864.2731   -3420.7068   -3864.2731            0    6795.3847    16.996338    20.019441    20.735493    7055.4008    6050.3932    7769.1852    6566.5756   -889.02481    527.95094    743.54583   -2721.4903 
14742000    276.06142   -3880.9066   -3407.7468   -3880.9066            0    8743.7584    17.013239    20.039349    20.756112    7076.4691    8918.5165    10356.529    6956.2298   -1192.1951    208.00152    310.35963   -2505.3643 
14743000    269.18867   -3836.9339   -3375.5537   -3836.9339            0    6437.2631    17.054649    20.088124    20.806632    7128.2671     6313.658    6469.8354    6528.2959   -219.09668   -508.28039   -328.70299   -2706.3458 
14744000    251.01541   -3825.3702   -3395.1384   -3825.3702            0    9623.5385    17.004668    20.029252    20.745655    7065.7789     8630.728    10144.444    10095.444    702.78369   -311.39848   -52.678837   -2403.4603 
14745000    267.01444   -3827.6885   -3370.0349   -3827.6885            0    4792.1304    17.102953     20.14502    20.865563    7189.0069    6188.9293    4397.9901    3789.4716   -1167.8129   -466.45497    371.44616   -2867.6074 
14746000    262.74248    -3873.999   -3423.6673    -3873.999            0    5712.4629    17.107739    20.150657    20.871402    7195.0443    5603.0212    5459.8956    6074.4717    224.12702   -753.65883     1847.103   -2824.2452 
14747000    254.18318    -3874.564   -3438.9027    -3874.564            0    6409.9078    17.096176    20.137037    20.857294    7180.4638    6914.0726    6804.4792    5511.1716    1212.1732   -227.36286   -1295.2547   -2767.6591 
14748000    261.40321   -3845.5534   -3397.5172   -3845.5534            0    8819.5148    17.006834    20.031804    20.748298    7068.4798    8908.2891    8855.2294    8695.0259     -398.443    600.66871    830.87749   -2488.3441 
14749000    260.30549   -3914.6962   -3468.5415   -3914.6962            0    7678.1234    17.030376    20.059533    20.777019    7097.8741    9205.2723    7701.6973    6127.4006   -451.41563    126.23773    392.78689   -2673.7389 
14750000    270.96991   -3868.5162   -3404.0831   -3868.5162            0    7632.6798    17.000517    20.024364    20.740591    7060.6062    7352.7483    7359.1653    8186.1257    857.47649    514.85677    60.471291   -2618.1331 
Loop time of 454.138 on 64 procs for 250000 steps with 864 atoms

Performance: 95.125 ns/day, 0.252 hours/ns, 550.493 timesteps/s
99.0% CPU use with 64 MPI tasks x 1 OpenMP threads

MPI task timing breakdown:
Section |  min time  |  avg time  |  max time  |%varavg| %total
---------------------------------------------------------------
Pair    | 21.607     | 26.813     | 31.246     |  49.1 |  5.90
Bond    | 0.27377    | 0.28375    | 0.30108    |   1.0 |  0.06
Kspace  | 193.64     | 203.14     | 215.83     |  28.3 | 44.73
Neigh   | 5.2474     | 5.9863     | 7.2498     |  16.9 |  1.32
Comm    | 93.948     | 104.83     | 112.48     |  34.4 | 23.08
Output  | 1.4172     | 1.421      | 1.4438     |   0.6 |  0.31
Modify  | 104.84     | 106.54     | 108.08     |   7.5 | 23.46
Other   |            | 5.115      |            |       |  1.13

Nlocal:        13.5000 ave          17 max           9 min
Histogram: 1 3 6 8 0 8 20 10 7 1
Nghost:        2248.98 ave        2286 max        2212 min
Histogram: 3 6 8 4 10 9 7 7 8 2
Neighs:        4368.47 ave        5666 max        2526 min
Histogram: 1 1 4 5 12 8 12 11 4 6

Total # of neighbors = 279582
Ave neighs/atom = 323.59028
Ave special neighs/atom = 2.0000000
Neighbor list builds = 13927
Dangerous builds = 0

unfix		3
unfix		2
unfix		1

write_data	data.final.${pid}
write_data	data.final.0
System init for write_data ...
PPPM initialization ...
  extracting TIP4P info from pair style
  using 12-bit tables for long-range coulomb (../kspace.cpp:340)
  G vector (1/distance) = 0.3741376
  grid = 24 24 24
  stencil order = 5
  estimated absolute RMS force accuracy = 0.0031751798
  estimated relative force accuracy = 9.5619598e-06
  using double precision FFTW3
  3d grid and FFT values/proc = 2535 216
Last active /omp style is kspace_style pppm/tip4p/omp
WARNING: Not all mixed pair coeffs generated from mixing. Use write_data with 'pair ij' option to store all pair coeffs. (../write_data.cpp:312)

write_restart   restart.lmp.${pid}
write_restart   restart.lmp.0
System init for write_restart ...
PPPM initialization ...
  extracting TIP4P info from pair style
  using 12-bit tables for long-range coulomb (../kspace.cpp:340)
  G vector (1/distance) = 0.3741376
  grid = 24 24 24
  stencil order = 5
  estimated absolute RMS force accuracy = 0.0031751798
  estimated relative force accuracy = 9.5619598e-06
  using double precision FFTW3
  3d grid and FFT values/proc = 2535 216
Last active /omp style is kspace_style pppm/tip4p/omp
Total wall time: 0:07:35
