#include		in.partitions
include		in.temp
variable        temperature equal 130.23
variable	tempDamp equal 100.0
include		in.pressure
variable        pressure equal 6668.8
variable        pressureDamp equal 1000.0 # This is 1 ps
include		in.seed
variable        seed equal 745823

units		real
atom_style	full
box tilt large
read_restart	restart.lmp.${pid}
read_restart	restart.lmp.0
Reading restart file ...
  restart file = 30 Jul 2021, LAMMPS = 30 Jul 2021
  restoring atom style full from restart
  triclinic box = (-10.589434 -9.1249495 0.12697816) to (12.569434 12.114947 21.733021) with tilt (-9.1038362 1.8391214 2.8916004)
  4 by 4 by 4 MPI processor grid
  restoring pair style lj/cut/tip4p/long/omp from restart
  restoring bond style harmonic/omp from restart
  restoring angle style harmonic/omp from restart
  1296 atoms
  864 bonds
  432 angles
Finding 1-2 1-3 1-4 neighbors ...
  special bond factors lj:    0        0        0       
  special bond factors coul:  0        0        0       
     2 = max # of 1-2 neighbors
     1 = max # of 1-3 neighbors
     1 = max # of 1-4 neighbors
     2 = max # of special neighbors
  special bonds CPU = 0.008 seconds
  read_restart CPU = 0.021 seconds
include 	in.setup
variable	out_freq equal 1000
variable	out_freq2 equal 10000
variable	out_freq3 equal 1000

timestep	2.0

neigh_modify    delay 7 every 1

include		in.tip4p
# This is TIP4P/Ice

# create groups ###
group ox type 2
432 atoms in group ox
group hy type 1
864 atoms in group hy

# set charges - beside manually ###
set group ox charge -1.1794
Setting atom values ...
  432 settings made for charge
set group hy charge 0.5897
Setting atom values ...
  864 settings made for charge

# ### TIP3P Potential Parameters ###
pair_style lj/cut/tip4p/long/omp 2 1 1 1 0.1577 8.5
pair_coeff 1 1*2 0.000 0.000
pair_coeff 2 2 0.21084 3.1668
bond_style  harmonic
bond_coeff  1 450 0.9572
angle_style harmonic
angle_coeff 1 55 104.52
kspace_style pppm/tip4p/omp 1.0e-5
pair_modify tail yes

thermo          ${out_freq}
thermo          1000
thermo_style    custom step temp pe etotal epair emol press lx ly lz vol pxx pyy pzz pxy pxz pyz enthalpy

restart 	${out_freq3} restart.lmp.${pid} restart2.lmp.${pid}
restart 	1000 restart.lmp.${pid} restart2.lmp.${pid}
restart 	1000 restart.lmp.0 restart2.lmp.${pid}
restart 	1000 restart.lmp.0 restart2.lmp.0


include         in.dump
dump            myDump all atom ${out_freq2} dump.water.${pid}
dump            myDump all atom 10000 dump.water.${pid}
dump            myDump all atom 10000 dump.water.0
dump            myDump2 all dcd ${out_freq2} dump.dcd
dump            myDump2 all dcd 10000 dump.dcd
dump_modify     myDump append yes
dump_modify     myDump2 append yes


variable natoms 	equal  "count(all)"                        # NUMBER ATOMS
variable H      	equal  "enthalpy/v_natoms"                 # ENTHALPY-per-atom
variable Vol      	equal  "vol/v_natoms"                 # volume-per-atom
fix AVG all 		ave/time ${out_freq} 1 ${out_freq} v_Vol v_H file vol_enthalpy.dat
fix AVG all 		ave/time 1000 1 ${out_freq} v_Vol v_H file vol_enthalpy.dat
fix AVG all 		ave/time 1000 1 1000 v_Vol v_H file vol_enthalpy.dat


timer           timeout 10:00:00 every 1000
New timer settings: style=normal  mode=nosync  timeout=10:00:00

fix 		1 all shake 1e-6 200 0 b 1 a 1
       0 = # of size 2 clusters
       0 = # of size 3 clusters
       0 = # of size 4 clusters
     432 = # of frozen angles
  find clusters CPU = 0.002 seconds
fix             2 all nph tri ${pressure} ${pressure} ${pressureDamp}
fix             2 all nph tri 6668.8 ${pressure} ${pressureDamp}
fix             2 all nph tri 6668.8 6668.8 ${pressureDamp}
fix             2 all nph tri 6668.8 6668.8 1000
fix             3 all temp/csvr ${temperature} ${temperature} ${tempDamp} ${seed}
fix             3 all temp/csvr 130.23 ${temperature} ${tempDamp} ${seed}
fix             3 all temp/csvr 130.23 130.23 ${tempDamp} ${seed}
fix             3 all temp/csvr 130.23 130.23 100 ${seed}
fix             3 all temp/csvr 130.23 130.23 100 745823


run             250000
PPPM initialization ...
  extracting TIP4P info from pair style
  using 12-bit tables for long-range coulomb (../kspace.cpp:340)
  G vector (1/distance) = 0.36758683
  grid = 30 40 32
  stencil order = 5
  estimated absolute RMS force accuracy = 0.0045032147
  estimated relative force accuracy = 1.3561297e-05
  using double precision FFTW3
  3d grid and FFT values/proc = 5168 640
Last active /omp style is kspace_style pppm/tip4p/omp
Neighbor list info ...
  update every 1 steps, delay 7 steps, check yes
  max neighbors/atom: 2000, page size: 100000
  master list distance cutoff = 10.8154
  ghost atom cutoff = 10.8154
  binsize = 5.4077, bins = 7 5 4
  1 neighbor lists, perpetual/occasional/extra = 1 0 0
  (1) pair lj/cut/tip4p/long/omp, perpetual
      attributes: half, newton on, omp
      pair build: half/bin/newton/tri/omp
      stencil: half/bin/3d/tri
      bin: standard
Per MPI rank memory allocation (min/avg/max) = 9.445 | 9.450 | 9.455 Mbytes
Step Temp PotEng TotEng E_pair E_mol Press Lx Ly Lz Volume Pxx Pyy Pzz Pxy Pxz Pyz Enthalpy 
18500000    130.99639   -6659.1847   -6322.2045   -6659.1847            0    6176.7914    23.158868    21.239897    21.606043    10627.839    7024.4861    6636.7804    4869.1077    -189.5888    170.37236   -411.67579   -5364.8257 
18501000    131.71657   -6679.3298   -6340.4969   -6679.3298            0    6726.9068    23.246574    21.276015    21.376274    10572.586     6983.937    5539.0028    7657.7806   -591.72417   -16.632053    592.39437    -5303.273 
18502000    130.57132    -6675.431   -6339.5442    -6675.431            0    6202.4764    23.184011     21.18993    21.601433    10612.084    6743.9546    6657.4539    5206.0207   -442.25146    151.83336   -121.83762   -5379.6095 
18503000    129.15959   -6677.7376   -6345.4824   -6677.7376            0    6752.6905    23.188193    21.248971     21.48327     10585.35    6079.0517    6395.8547    7783.1652    82.873234   -453.93553    289.53547   -5303.0259 
18504000    127.45584    -6693.509   -6365.6366    -6693.509            0    6215.7091    23.123985    21.304128    21.530624    10606.767    5790.4594    6359.7196    6496.9483    55.148487    585.03102    232.09616   -5404.1359 
18505000     128.6534   -6674.2227   -6343.2697   -6674.2227            0    6656.0386    23.083198    21.388888    21.498437    10614.293    7350.2129    6653.8891    5964.0138     278.9951    -454.8786    410.77446   -5312.9244 
18506000    133.61436    -6677.155   -6333.4402    -6677.155            0      6033.09    23.099923     21.37286     21.52556    10627.415    6616.2109    5027.1244    6455.9348    612.96976   -155.86008    634.06245   -5398.3719 
18507000    129.36028   -6679.9143   -6347.1428   -6679.9143            0    7280.2634    22.993767    21.408408    21.493029    10580.158    7228.0664    7961.3925    6651.3312   -284.59686    277.79952   -344.12078   -5223.7928 
18508000    133.58039   -6671.4188   -6327.7914   -6671.4188            0    7695.0265    23.098491    21.402535    21.333106    10546.368    6919.6085    8740.1477    7425.3234    1620.2425   -93.123177    176.76858   -5144.2351 
18509000    140.44226   -6681.6903   -6320.4111   -6681.6903            0    6847.3194    23.006565    21.323521    21.615924    10604.361    7891.7938    7008.6326    5641.5318    507.65306   -95.452812    595.61473   -5261.4476 
18510000    137.41099   -6689.9108   -6336.4294   -6689.9108            0     5309.616    23.237436    21.367544    21.394516    10622.954    5527.8966    5577.1769    4823.7745    155.14269    1080.3823   -182.72748   -5513.8377 
18511000    130.28332    -6677.041   -6341.8951    -6677.041            0    6255.0854     23.08028    21.297709     21.56901      10602.4    6440.4146    6060.8703    6263.9713    257.67276   -512.26787   -124.69672   -5374.7018 
18512000    131.85776   -6660.8115   -6321.6155   -6660.8115            0    6675.6498    23.248704    21.281345    21.456561    10615.927    5599.3885    6888.7292    7538.8318    359.57809    922.30822    263.26592   -5288.0753 
18513000    134.42964   -6672.9932   -6327.1811   -6672.9932            0    6695.6152    23.143632    21.234098    21.604661    10617.268    7794.8867     6199.239      6092.72   -996.17464     -1103.94    359.83968   -5290.4189 
18514000    129.22003   -6688.5116   -6356.1009   -6688.5116            0    6410.3131    23.204167    21.259152    21.464852    10588.631    6074.3831     6624.751    6531.8053    -45.74002    297.44259   -91.852446   -5366.1926 
18515000    133.09326   -6683.1023    -6340.728   -6683.1023            0     7086.311    23.121183    21.280065    21.533931    10595.131    6939.6487    7348.5726    6970.7117   -496.92763    702.06386    64.480369   -5245.7574 
18516000    131.96309   -6676.4308   -6336.9638   -6676.4308            0    7297.3071    23.137603    21.260267    21.453358    10553.156    7166.6717    6826.1238    7899.1259    50.521017    45.299794   -94.512989   -5213.8574 
18517000    131.34061   -6678.3681   -6340.5024   -6678.3681            0    6911.8857    23.206934    21.251224    21.469923    10588.445    6742.7897    6363.1288    7629.7387    93.862996   -55.719081    767.64428   -5273.1579 
18518000    126.81237   -6685.5099   -6359.2928   -6685.5099            0    6731.4307    23.180829    21.277934    21.483091    10596.323    5751.2137    6845.8956    7597.1828    138.97224   -170.79333    372.64177   -5319.0411 
18519000    129.88359   -6677.6196   -6343.5019   -6677.6196            0    7046.3356     23.14711    21.166612    21.624898     10595.03    6879.3218    6868.5038    7391.1812   -604.49298    1155.7286    336.01149   -5254.7187 
18520000    125.13004   -6673.9443   -6352.0549   -6673.9443            0    6362.5153    23.329487    21.259819    21.408903    10618.402    5163.6605    6466.7685    7457.1168   -399.86688   -717.96697    120.92815   -5366.7653 
18521000     126.8377   -6683.2618   -6356.9795   -6683.2618            0    7045.7651    23.190622     21.13026    21.579937    10574.684    6949.0697      8615.45    5572.7756   -283.45566   -676.93083   -710.42811   -5270.3751 
18522000    130.68705   -6671.9171   -6335.7326   -6671.9171            0    6801.9543    23.376728    21.187174    21.394156    10596.243    5838.5705    6039.6687    8527.6236    552.26549   -1102.6215    1121.2509   -5284.5903 
18523000    127.36982   -6678.0949   -6350.4438   -6678.0949            0    5935.8081    23.286731    21.063162    21.672973    10630.424    5349.1596    7326.6955    5131.5692   -733.28936    870.72579   -325.69425   -5430.1927 
18524000    132.29344   -6642.3506   -6302.0338   -6642.3506            0    7492.1109    23.212266    21.202047    21.507437    10584.833    6813.9678    8046.7063    7615.6585    808.42355   -561.02829   -426.72156   -5145.4847 
18525000    135.53036   -6669.3382   -6320.6946   -6669.3382            0    5996.0717    23.244104    21.372589    21.403394    10632.921    5521.6156    5685.2259    6781.3736   -228.12187    349.53579   -213.48953   -5390.8823 
18526000    134.55729   -6664.7746   -6318.6342   -6664.7746            0    7731.8681    23.066089    21.228571    21.553543    10553.911    8241.0032    8074.7617    6879.8395   -356.42804    692.05548    -610.7869   -5128.5608 
18527000    133.54644   -6670.9884   -6327.4484   -6670.9884            0    7118.2518    23.140434    21.267485    21.480823    10571.547    6575.7456    7855.0424    6923.9675   -126.78234   -124.35839   -291.78559   -5229.9907 
18528000     124.3195   -6681.6822   -6361.8778   -6681.6822            0    5320.6396    23.035565    21.404449    21.585622    10643.084    5969.5191    4866.7993    5125.6003     318.0356   -237.49754   -498.41937   -5536.0163 
18529000    125.36402   -6674.6783    -6352.187   -6674.6783            0    7149.7627    23.110293    21.429218    21.344319    10570.465     6906.961    6628.4768    7913.8501    59.096417   -674.57938   -340.47593    -5249.984 
18530000    131.61111   -6657.5407   -6318.9792   -6657.5407            0    7278.9528    23.008026    21.349891    21.544246     10582.94    8132.3335    6240.9483    7463.5766    150.27804    359.89319    1096.4903   -5195.5359 
18531000    130.99163   -6664.9896   -6328.0216   -6664.9896            0    6875.9995    23.067384    21.320358    21.540829    10593.885    7080.3016    6543.3828    7004.3141    56.084993    654.66003    209.65132   -5265.6732 
18532000    136.47467    -6682.852   -6331.7792    -6682.852            0    6102.5236    23.151509    21.459613    21.388159    10626.117    5500.0888    6688.0053    6119.4767    523.88128   -366.67154   -956.39592   -5386.0649 
18533000    134.48138   -6686.4879   -6340.5427   -6686.4879            0    6206.8055    23.021541    21.365952    21.589074    10619.172    7028.4428    5955.4954    5636.4783    141.36088   -110.86925   -829.83885   -5379.2964 
18534000    124.78654   -6664.0442   -6343.0385   -6664.0442            0    8129.3849    23.055161    21.304462    21.455009    10538.224    9068.9932    7646.4717    7672.6896   -1024.0616    406.90088   -532.90785   -5093.6399 
18535000    126.70376   -6682.0131   -6356.0754   -6682.0131            0    5538.2816    23.164039    21.382955     21.45877    10628.864    5545.1274    5344.5047    5725.2127   -25.562035    315.11914   -400.69005   -5497.5804 
18536000     131.6015   -6692.6642   -6354.1273   -6692.6642            0    5681.3679    23.088424    21.428563    21.481653    10628.085    5786.7719    4996.1168    6261.2149    542.88532   -354.50036    343.60913   -5473.5169 
18537000    128.99343   -6670.5326   -6338.7048   -6670.5326            0    7056.2153    23.125033    21.319667    21.488132    10594.036    7263.6213    6626.0392    7278.9853    727.00669   -827.53258    156.46619   -5248.4973 
18538000    127.53622   -6669.3774   -6341.2983   -6669.3774            0    7288.0364    23.126724    21.272413    21.536293    10595.021    6232.6477    7850.7655     7780.696   -80.299538    1265.6932    -856.7782    -5215.169 
18539000    129.40366   -6671.0967   -6338.2136   -6671.0967            0     6324.614    23.204502    21.382348    21.365098    10600.651    5902.8599    5299.8133    7771.1686   -307.38512     306.3564   -252.10983   -5360.4307 
18540000    125.12981   -6674.5333   -6352.6445   -6674.5333            0    6219.2222    23.071405     21.34908    21.574087    10626.387    6140.2714    6657.3795    5860.0157   -601.13997    165.10304   -242.77511   -5388.8208 
18541000    129.91074   -6689.5307   -6355.3432   -6689.5307            0    5930.5175    23.118564    21.388571    21.479446    10621.008    6939.7287     4440.485    6411.3387   -504.45553    86.967828    852.91338   -5436.7268 
18542000    132.47495    -6684.444   -6343.6602    -6684.444            0    6975.7478    23.007011    21.383083    21.523723    10588.828    7343.5562    6965.3829    6618.3044    111.37015   -734.01314   -1053.3383    -5266.415 
18543000    131.52892   -6672.7058   -6334.3556   -6672.7058            0    6365.7035    23.129776    21.372537    21.453126    10605.181    7089.6858    5117.6971    6889.7275   -37.481316    211.01321   -153.68062   -5349.7997 
18544000    129.39546   -6673.3211   -6340.4592   -6673.3211            0    5843.9109    23.116836    21.352871    21.524107    10624.532    5893.7401     5779.586    5858.4065   -260.33563    135.36365   -391.88737   -5434.9574 
18545000    121.52533   -6684.2867   -6371.6702   -6684.2867            0    7679.8133    23.021984    21.299819    21.487522    10536.709    8665.5472    7626.4714    6747.4214    -91.33817   -303.33151   -375.17874   -5191.5356 
18546000    130.87936   -6668.7115   -6332.0323   -6668.7115            0    7644.6632    23.126167    21.318211    21.457848    10578.901    6914.8007    7153.2336    8865.9553    401.78093    266.93266    42.871084   -5152.5952 
18547000    126.46774   -6677.0927   -6351.7621   -6677.0927            0    6091.3407    23.092271    21.321139     21.57653    10623.281    6468.8529    6280.1752     5524.994    191.75945    222.19245    129.05397   -5408.0328 
18548000    135.12475   -6678.1933   -6330.5931   -6678.1933            0     6813.326    23.159192    21.279628    21.464372     10578.05    5991.3835    7085.1255     7363.469    104.75725    1213.5458    641.72492   -5279.5012 
18549000    131.81327     -6669.52   -6330.4384     -6669.52            0    6196.4462    23.195336    21.314254    21.470871    10615.011     5054.557    6845.4558    6689.3258    -234.8216    644.89879   -179.97305   -5371.1724 
18550000    134.99615   -6686.1189   -6338.8495   -6686.1189            0    7402.2915    23.134266    21.212677    21.530213     10565.73    6470.8781    8256.6814    7479.3149    -213.8681    886.81137    976.74347   -5198.2279 
18551000    130.98428   -6667.8976   -6330.9486   -6667.8976            0    5897.8547    23.229413    21.259518    21.526309    10630.684     5789.305    5888.8358    6015.4234    -206.8242    410.35147    161.27976   -5416.5592 
18552000    130.83033   -6690.0413   -6353.4882   -6690.0413            0    7121.3934    23.204861    21.184982    21.523177    10580.677    7302.7112    6640.2542    7421.2148    999.90388   -1521.6621   -112.23181    -5254.598 
18553000    125.85901   -6676.2351   -6352.4704   -6676.2351            0    6686.4823    23.221328    21.210418    21.522805    10600.715    6443.1446    7530.5626    6085.7398   -209.71135    348.95419   -454.36545   -5318.7366 
18554000    136.72505   -6682.9395   -6331.2227   -6682.9395            0    6555.2293    23.235427     21.20558     21.52291    10604.784    5680.2256    7447.6373    6537.8252    255.72312    5.4655391   -177.30965   -5317.3916 
18555000    132.41242   -6681.6317   -6341.0088   -6681.6317            0    6047.9023    23.187313    21.324304    21.496112    10628.824    6308.5764    5582.6723    6252.4582    1052.4223   -1661.9898    1051.1119   -5403.5205 
18556000    132.05154    -6661.866   -6322.1714    -6661.866            0    6834.7815    23.236182    21.217704     21.51328    10606.444    6596.9703    6694.3796    7212.9947    444.70438    385.33307    668.71532   -5264.9394 
18557000    128.94277    -6672.836   -6341.1385    -6672.836            0    6823.8164    23.148627    21.299234    21.501338    10601.193     6604.684    7286.5607    6580.2045   -268.13585   -89.236838   -142.55813   -5286.1252 
18558000    128.44201   -6676.9897   -6346.5804   -6676.9897            0    6310.8437    23.311503    21.293109    21.434939    10639.754    5725.0042    6050.0625    7157.4645   -191.53313    83.149352    176.05952   -5367.3274 
18559000     133.8598   -6684.4989   -6340.1527   -6684.4989            0    6152.9165    23.201295    21.191449    21.599073    10619.596    5903.4285    6830.2516    5725.0695    444.75961    211.94055    690.96118   -5387.2141 
18560000    127.12542   -6685.1249   -6358.1025   -6685.1249            0    7667.6566    23.173474    21.203889    21.467682    10548.527    6720.8672    8255.1628    8026.9397    343.30684    221.75906     742.5957   -5178.5145 
18561000    129.23286   -6669.4726   -6337.0289   -6669.4726            0    7705.2351    23.216952    21.318946    21.346662    10565.764    7753.0725    7780.7307    7581.9021   -541.97222   -879.21342     -1054.64   -5149.7229 
18562000    132.79555   -6679.7569   -6338.1484   -6679.7569            0    5553.5789    23.239344    21.236731    21.552902    10636.954    5436.4879    6008.2714    5215.9775    67.841401   -313.09458    111.11445   -5476.6269 
18563000    130.84793   -6657.5931   -6320.9948   -6657.5931            0    6486.4614    23.166081    21.237656    21.557757    10606.271    6539.3775    6374.9876    6545.0191    236.99234    246.55648    76.664868   -5317.6586 
18564000    128.95825   -6680.8699   -6349.1327   -6680.8699            0    6949.1726     23.23705    21.238466    21.474125    10597.895    6166.4386    7240.5838    7440.4953    532.52795    277.89889   -1061.5362   -5275.0726 
18565000    128.24018   -6695.0626   -6365.1726   -6695.0626            0    6563.3325    23.240452    21.221043    21.476033    10591.692    5839.1634    7316.4352    6534.3989     624.4231    563.80239   -299.49706   -5351.3414 
18566000    130.55362   -6664.6691   -6328.8279   -6664.6691            0    6607.2704    23.206188    21.188839    21.546111    10594.485    6510.0083    7090.7715    6221.0316     1260.646    59.482036     396.4047   -5307.9405 
18567000     127.1966   -6690.6081   -6363.4026   -6690.6081            0    5872.8418    23.177076    21.223475    21.593706    10621.903    5541.1222    6233.6582    5843.7449    258.23217    1089.9491    90.051395   -5453.6433 
18568000    124.40458   -6679.0507   -6359.0275   -6679.0507            0    6023.0401     23.17245    21.334916    21.483694    10621.158    6229.2744    6126.0078    5713.8381    182.62469    239.28666   -331.52287   -5426.0665 
18569000    118.13816   -6669.0365   -6365.1332   -6669.0365            0    7511.0715    23.099737    21.253373    21.503729    10557.198    8359.0336    7723.0646    6451.1161   -847.34252    269.42111   -1062.0882   -5208.6843 
18570000    123.78114   -6661.2851   -6342.8656   -6661.2851            0    7542.2309    23.121495    21.293616    21.467708    10569.417    8210.8372    6788.2521    7627.6036   -381.86707   -50.689554    306.62868   -5180.2752 
18571000    129.13056    -6674.817   -6342.6365    -6674.817            0    5366.8338    23.151852    21.306655     21.58974    10649.971    6511.7743    5010.0296    4578.6976   -536.54962      149.288    60.439361   -5509.0658 
18572000    138.44364   -6668.9344   -6312.7966   -6668.9344            0    6605.7298    23.206989    21.315898    21.419315     10595.66    5948.5962    6378.8178    7489.7753   -376.79467    600.39861   -578.77205   -5292.0341 
18573000    125.83858   -6678.6485   -6354.9364   -6678.6485            0    7442.7296    23.049011     21.23001    21.611966    10575.399    8613.5562     7587.704    6126.9286    -764.7801   -577.19512   -1037.8094   -5207.0342 
18574000    129.96299   -6677.0515   -6342.7296   -6677.0515            0      7023.36    23.267578    21.248791    21.397683    10579.184    5638.1809    6784.6517    8647.2474    19.553229    1827.8821    246.65253   -5259.1197 
18575000    132.87778   -6685.8707   -6344.0507   -6685.8707            0     6904.317    23.096279    21.222459    21.619148    10596.838    6735.7709    7000.1652    6977.0148   -54.224498    242.05943   -227.60816   -5277.0298 
18576000    129.30507   -6679.8111   -6347.1816   -6679.8111            0    6256.2227    23.269041    21.331406    21.386964    10615.662    6283.5387    5025.7886    7459.3409   -971.23545    505.40399    26.790243   -5378.6023 
18577000    131.28448   -6692.2015   -6354.4802   -6692.2015            0    6314.9863    23.068561    21.236493    21.656912     10609.62    6403.1982    6146.0045    6395.7563    -486.5243     531.3551   -60.142631   -5377.3597 
18578000    135.27537   -6672.3081   -6324.3205   -6672.3081            0    6245.1029    23.239454    21.317546    21.423862    10613.555    5904.7099    5904.8157    6925.7831     335.4736    628.35865    179.13399   -5357.6546 
18579000    128.21618   -6687.8229   -6357.9946   -6687.8229            0    6852.8517    23.093588     21.31283    21.518678    10591.272    7791.6521    5985.7184    6781.1846    679.42237   -583.10361     409.7218   -5299.4836 
18580000    136.40509   -6670.3721   -6319.4783   -6670.3721            0    6515.2475     23.04253    21.387157    21.538684     10614.57    6785.8164    6325.8198    6434.1062    161.86382    604.12833   -64.293608   -5310.9009 
18581000    127.29048    -6682.378    -6354.931    -6682.378            0    5228.5606    23.160978    21.363269    21.510897    10643.467    4632.7408    5479.8249     5573.116    645.79818    442.40702   -721.67237   -5543.3326 
18582000    128.22811    -6677.732    -6347.873    -6677.732            0    8335.0208    23.023051    21.308162    21.469503    10532.485    8176.4662    7476.4248    9352.1714    197.58534    220.14671    963.83513    -5067.568 
18583000    130.10516   -6682.5409   -6347.8533   -6682.5409            0    5816.2194    23.103024    21.378078    21.521409    10629.386    6449.6726    5863.4747    5135.5109   -463.75104    166.98971   -164.87009   -5446.2306 
18584000    135.37145   -6663.6245   -6315.3897   -6663.6245            0    7118.1155    23.055628    21.353738    21.509938    10589.856    7233.6748    7180.6602    6940.0114   -206.38291   -361.33787    762.90999   -5216.0524 
18585000    131.64933   -6687.8211   -6349.1612   -6687.8211            0    6129.4517    23.061637    21.403933    21.492731    10609.021    7253.4737    5138.7712    5996.1101    657.10177    -3.511056   -210.36003   -5400.8021 
18586000    130.64017   -6684.8829    -6348.819   -6684.8829            0    7425.9301     22.98924    21.411284    21.453813    10560.192    7588.1976    7442.6334    7246.9593    625.48763    7.0231947   -549.81244   -5205.1547 
18587000    128.79272   -6693.3223   -6362.0108   -6693.3223            0    6283.3041    23.067331    21.418118    21.462008    10603.494    6162.4256    5825.3988    6862.0878    839.24044    300.70981    173.40753   -5390.3539 
18588000    128.64174   -6669.7466   -6338.8235   -6669.7466            0    6567.5736    23.078992    21.369476     21.50024    10603.617     5644.649    6963.8152    7094.2567   -33.497152    250.09316    111.11039   -5323.1951 
18589000    120.79068   -6681.7431   -6371.0164   -6681.7431            0     6151.209    23.078721    21.430363    21.458859    10613.237     6991.859    5022.2066    6439.5613   -258.59375   -330.07404    1042.3589   -5418.9128 
18590000    127.64854   -6678.3091    -6349.941   -6678.3091            0    6815.3019    23.066692    21.334405    21.536455    10598.394    7634.3655    5689.7088    7121.8313    525.29849    274.95236    691.11314   -5296.5222 
18591000     129.9196   -6693.1349   -6358.9246   -6693.1349            0    6943.1422    23.163484    21.304707    21.419387     10570.28    6126.0107    6927.3949    7776.0212    212.92072    859.58203    344.55733   -5288.5928 
18592000    130.90667   -6680.9235    -6344.174   -6680.9235            0    6326.3504    23.190562    21.227916    21.543226    10605.457    6220.1407    6391.4963    6367.4141    537.94867   -134.84714   -526.87421   -5365.6793 
18593000    127.30006   -6670.1369   -6342.6653   -6670.1369            0    7044.4693    23.153167    21.313887    21.419412    10570.137     6954.193    6806.9367    7372.2781   -148.61005   -326.14092    433.63933   -5256.7279 
18594000    131.60381   -6675.2872   -6336.7444   -6675.2872            0    6896.1787    23.139886    21.184568     21.57649    10576.979    6141.6467    7652.5929    6894.2966    672.97373   -198.30184    1014.4056   -5272.9786 
18595000    124.22882   -6688.3211   -6368.7501   -6688.3211            0    6374.9976    23.169906    21.290118    21.499589    10605.533    7156.5738    5905.6883    6062.7308   -884.32676   -240.13939    776.12877   -5382.7239 
18596000    134.76951   -6678.3838   -6331.6974   -6678.3838            0    5931.3741    23.272071    21.233969    21.537642    10643.007     5178.501    6596.5072    6019.1139    270.30305    375.54463   -132.52893   -5411.0453 
18597000    128.51118   -6674.1286   -6343.5415   -6674.1286            0    6887.7228    23.186873    21.201982    21.519509    10579.156    7149.3291    7024.3991    6489.4402   -111.33754    107.05068    250.77074   -5280.8613 
18598000    128.15022    -6694.501   -6364.8424    -6694.501            0    6280.9533    23.228428    21.173655    21.536588    10592.356    5846.4016    6189.3186    6807.1398    -1403.421    711.48914   -467.26321   -5394.5692 
18599000    131.55551   -6682.6284   -6344.2098   -6682.6284            0    6202.3519    23.279372    21.245224    21.484815    10625.863     5943.719    6529.7812    6133.5556   -911.57635     154.9618   -453.67864    -5383.048 
18600000    127.01596    -6679.336   -6352.5952    -6679.336            0    6395.2551     23.20792    21.195106    21.520646    10585.884    6002.2728     6345.913    6837.5794    -967.5204    879.67137    129.91667   -5365.2685 
18601000    126.49807   -6687.1934   -6361.7848   -6687.1934            0    6246.8374    23.239643    21.157125     21.57158    10606.401    6448.4363     6576.339    5715.7367    142.65697   -311.47705   -94.375448   -5395.5023 
18602000    129.99375   -6673.7656   -6339.3646   -6673.7656            0    7906.7758    23.176827    21.273997    21.384597    10543.969    7594.2511    7865.5077    8260.5684    456.49379   -1015.6578   -487.56388   -5123.5161 
18603000    130.22579   -6659.6381   -6324.6402   -6659.6381            0    7104.5715    23.084196    21.219663     21.60891    10584.884    7391.5522    6893.5061    7028.6562    615.99865   -4.1975939    190.99321   -5227.9098 
18604000    130.31591    -6675.149   -6339.9193    -6675.149            0    6280.0447     23.23447    21.346471    21.382579    10605.202    5376.6038    5824.1524    7639.3779     537.0357     87.94453    491.54446   -5368.6099 
18605000    133.01916   -6678.6025   -6336.4189   -6678.6025            0    6702.4375    23.151332    21.209408    21.580054    10596.369    7495.2777     6563.075    6048.9599   -168.23472     564.1352   -1126.2486   -5300.6432 
18606000    125.70366   -6673.1238   -6349.7588   -6673.1238            0    6835.5636    23.251524    21.259101    21.424246    10590.144    5652.3044    7127.4691    7726.9174   -565.64856    640.69384    1022.0893   -5294.0308 
18607000    127.54896   -6676.4443   -6348.3324   -6676.4443            0     6784.542    23.264825    21.135419    21.536659     10589.83     6319.815    8006.6893    6027.1218    660.81234    252.10196   -814.17113   -5300.5155 
18608000    130.37694   -6688.6933   -6353.3065   -6688.6933            0    5171.1034    23.206851    21.344516    21.501299    10650.432    4854.7577    4564.0368    6094.5158    242.84771     323.2538    196.62728   -5550.1016 
18609000    127.42648   -6679.0715   -6351.2746   -6679.0715            0    6994.0139    23.162571    21.201576    21.545131    10580.448    7648.0236    6637.3941     6696.624   -234.91306   -261.37812    425.60285   -5272.0635 
18610000    130.54178   -6685.0796   -6349.2689   -6685.0796            0    7140.3312    23.127947    21.276722    21.476813    10568.458    7418.1749    6766.5886    7236.2303    444.19483   -869.41782    508.15738   -5248.7287 
18611000     127.0542   -6667.0853   -6340.2461   -6667.0853            0    7030.7695    23.145082    21.306268    21.481703    10593.387    6757.5077    6270.2196    8064.5811    -259.1491     249.0643   -212.41733   -5254.0367 
18612000    134.43985   -6686.8797   -6341.0414   -6686.8797            0    6280.5857    23.132245    21.280382    21.526619    10596.759    6172.7451    6096.9355    6572.0766    648.44502   -1030.8258     430.5075   -5370.4218 
18613000    126.77495   -6662.4256   -6336.3048   -6662.4256            0    7721.1488    23.094872    21.284494    21.464531    10551.162    8027.7482    7876.7413     7258.957   -871.69659   -530.86301   -80.488173   -5148.1908 
18614000    128.74778   -6668.3291   -6337.1333   -6668.3291            0     6835.638    23.162277    21.351414    21.447567    10606.838    7191.3935    6560.3867    6755.1338   -237.69835     35.03404   -396.04525   -5279.7295 
18615000    132.89878   -6687.0611   -6345.1871   -6687.0611            0    5206.0278     23.18452    21.368662     21.49926     10651.21    5175.1003    5067.8477    5375.1353    581.07547   -128.55033    671.39908   -5536.4985 
18616000    131.58963   -6702.5086   -6364.0023   -6702.5086            0    7578.3601    23.030701    21.172159    21.635402    10549.631    7853.4836    7746.3422    7135.2545   -202.24778    427.96661   -64.194654   -5198.0295 
18617000    122.58114   -6693.2334   -6377.9009   -6693.2334            0    6550.3889    23.265767     21.31188    21.337132    10579.745    5597.7685    6419.5061    7633.8922    817.21189     -37.6435     264.0857   -5367.2104 
18618000     125.4908   -6679.9243   -6357.1069   -6679.9243            0    6433.8456    23.146438    21.280496    21.519552    10599.836    5899.1703    7256.4597    6145.9068   -557.34206   -277.33594   -922.87851   -5362.5133 
18619000    126.75478   -6671.7478   -6345.6789   -6671.7478            0    6898.2544    23.205545    21.233191    21.448689    10568.364    7460.1409    6832.4792     6402.143    374.91198   -372.54836    936.83829   -5282.4596 
18620000    131.77148   -6684.6043   -6345.6302   -6684.6043            0    7352.0636    23.143508    21.216182    21.494444    10554.135    7506.7484    7117.4319    7432.0106    279.31351   -191.95694    317.96439   -5213.9915 
18621000    129.35033   -6686.0032   -6353.2574   -6686.0032            0    6227.5162    23.128189    21.296211    21.590623    10634.306     6387.441     7039.973    5255.1346    -88.34203    206.81132   -729.39219   -5387.4291 
18622000     136.4218   -6670.1329   -6319.1961   -6670.1329            0    7153.5624    23.169633    21.340452    21.391904    10577.237    6743.2861    7570.3022     7147.099    251.64438   -409.37134    109.78755   -5215.7009 
18623000    125.60728   -6670.2888   -6347.1717   -6670.2888            0    7490.1978    22.989596    21.276505     21.62151    10575.908     7789.342    7450.4332    7230.8183    143.45975     621.0331   -31.678727   -5191.8928 
18624000    129.59788   -6672.9483   -6339.5657   -6672.9483            0    6346.2485    23.081878    21.402943     21.47959     10611.35    6678.6568    5562.5627     6797.526    544.56503   -1220.7743    307.89236   -5357.4478 
18625000    134.71121   -6678.1119   -6331.5755   -6678.1119            0     6652.212     23.10068    21.302776    21.551663    10605.759    6629.5926    6804.3448    6522.6986    88.793718    1177.8835   -139.88066   -5302.6505 
18626000      132.697   -6689.9649     -6348.61   -6689.9649            0    6954.9427    23.016371    21.364342    21.557438    10600.431    7579.6908    6269.6633    7015.4739   -903.63953   -109.18707   -86.070474   -5273.4008 
18627000     132.8812   -6691.9401   -6350.1113   -6691.9401            0    5390.2997    23.223768    21.333585    21.492286    10648.272     4145.872    5676.2245    6348.8025    693.90896    639.23584   -284.59233   -5513.0294 
18628000    129.19426   -6679.9424    -6347.598   -6679.9424            0    5853.7776    23.093125     21.38691    21.470125    10603.893    5688.1348    5509.2084    6363.9897   -733.30648    152.38419   -347.15902   -5442.3294 
18629000    133.56952   -6663.1551   -6319.5557   -6663.1551            0     7661.968    23.071158    21.326951    21.463631     10560.91    9078.3181    6316.4335    7591.1524    310.89942      334.524    360.50166    -5139.459 
18630000    126.27453   -6691.9355    -6367.102   -6691.9355            0    6999.5002     23.01509    21.326197    21.515718    10560.438    7209.7207     7596.942    6191.8378    706.62388   -28.685162   -19.789192   -5289.0868 
18631000    124.35781   -6684.7589    -6364.856   -6684.7589            0    6382.0837    23.033192    21.430939    21.479116    10602.585    7020.9423    6210.3051    5915.0036   -528.71313    353.44265    4.1045859   -5378.0083 
18632000    137.76826   -6679.8342   -6325.4338   -6679.8342            0    6786.5334    23.068642    21.371159    21.479331    10589.388    7374.5104     6455.069    6530.0208   -191.91862    66.042756   -558.31431    -5277.353 
18633000    125.48802   -6659.1669   -6336.3566   -6659.1669            0    5617.9001    22.989963    21.460069    21.558456    10636.213    6826.1217    4384.9105     5642.668     93.78465   -136.82154    1055.2433   -5464.9177 
18634000    125.69146   -6681.0793   -6357.7457   -6681.0793            0    7301.9359    23.039667    21.382188    21.411621    10548.189    6027.9826    6919.6184    8958.2068    1007.2198    1977.6947    903.78556   -5234.4559 
18635000    123.71576   -6683.9801   -6365.7288   -6683.9801            0    6071.9875    23.009018    21.444684    21.504437    10610.744    7315.8852    4776.6707    6123.4064   -869.12386    280.73641   -159.90009   -5426.1081 
18636000    131.36091   -6668.0832   -6330.1653   -6668.0832            0    6589.9114    22.991155    21.472211     21.47817    10603.148    7596.1778    5405.0445    6768.5118   -233.35554   -282.78913   -1012.9092   -5311.1276 
18637000    130.04787   -6682.5225   -6347.9823   -6682.5225            0    6909.1789     23.09598    21.312743    21.462743    10564.792    7568.8434    6792.3981    6366.2954   -932.65907     337.9494   -706.67097   -5283.4391 
18638000    124.40514   -6681.9042   -6361.8795   -6681.9042            0    6535.7244    23.077979    21.345175    21.518271    10599.976    6371.3144    7006.7363    6229.1226   -615.16551    84.387414   -296.37894   -5351.5234 
18639000    128.70643   -6682.2321   -6351.1426   -6682.2321            0     6989.855    23.082426    21.367062    21.440617     10574.59    7414.6077    6629.8624    6925.0948   -367.34664     504.0557   -288.00907   -5273.1703 
18640000    130.62936   -6683.9516   -6347.9155   -6683.9516            0    6686.3025    23.105945    21.345499    21.497616    10602.794    6298.9105    6841.5546    6918.4425   -807.19943     1350.582   -60.069871   -5314.0067 
18641000    125.74917   -6674.8632   -6351.3811   -6674.8632            0    7506.6587    23.064833    21.329005    21.465045    10559.727    8056.0166    7180.8026    7283.1568    681.96318   -460.02467   -707.78427   -5195.3347 
18642000    129.43825   -6676.5149   -6343.5428   -6676.5149            0     6681.805    23.192377    21.309722    21.452102    10602.125    6536.9279     6814.224    6694.2631    66.473433    506.73734   -1003.8132   -5310.3947 
18643000    131.31516   -6676.7354   -6338.9351   -6676.7354            0    7914.6233    23.053562    21.247298    21.528312    10545.124    8988.9187    7164.4701    7590.4812   -69.737458   -452.65464    262.23188   -5121.7466 
18644000    124.80007   -6672.5324   -6351.4918   -6672.5324            0    5301.5051     23.26832    21.273023    21.510051    10647.207     5465.968    5313.6942    5124.8532    183.87453    78.006397    298.51375   -5528.2816 
18645000    132.17354    -6665.081   -6325.0726    -6665.081            0    6275.5843    23.238611      21.2113    21.544939    10619.956    6212.1418    6474.4946    6140.1165   -538.55267   -838.85246    698.09956   -5353.1029 
18646000    127.84561   -6681.1084   -6352.2333   -6681.1084            0    6709.4295    23.251355    21.210507    21.475346    10591.062    6369.7732     6279.859    7478.6562   -221.53847   -801.34606    385.45866   -5315.8964 
18647000    128.78524   -6687.3967   -6356.1045   -6687.3967            0    7322.6402    23.138172      21.1778      21.6013    10584.974    7073.6407    7560.6673    7333.6126   -259.53766   -417.87971    329.84071   -5225.7013 
18648000    125.87132   -6678.8083    -6355.012   -6678.8083            0    7127.1075     23.24702    21.209082    21.411789    10557.039    6428.1473    7054.1831     7898.992   -291.29825   -472.76476   -580.98753    -5257.697 
18649000    126.21096   -6655.3601   -6330.6901   -6655.3601            0    6396.9437    23.276665    21.083839     21.65063    10625.295    5407.1965    7768.9552    6014.6795   -369.49451    53.802275   -100.12102   -5339.4259 
18650000    132.43113   -6692.8455   -6352.1745   -6692.8455            0    6787.2331     23.30127    21.154124      21.4452    10570.724    5672.0143    7314.9751    7374.7099    8.5561381   -577.78451   -195.27737   -5305.8331 
18651000    131.55608   -6671.0384   -6332.6184   -6671.0384            0    7220.5995    23.246592    21.166175    21.508261    10582.956    6123.6594    8383.7895    7154.3495    352.47166    458.62502   -562.72229   -5218.1799 
18652000    123.79431   -6681.0335   -6362.5802   -6681.0335            0    5517.4672    23.385028    21.165702    21.488591    10636.005    4656.1966    5718.6493    6177.5558   -578.39219   -255.81436    729.22818   -5506.7371 
18653000    132.23867   -6665.4537   -6325.2778   -6665.4537            0    6889.4024    23.305233    21.040836    21.571495    10577.833    6356.8675     8265.816    6045.5238   -213.63707   -476.95345   -155.99712   -5262.4715 
18654000    127.28699    -6674.228     -6346.79    -6674.228            0    6628.3758    23.344273     21.12343    21.537984    10620.619    5976.2399    6958.6548    6950.2327   -164.41978   -547.85189    101.08223   -5320.1153 
18655000    128.00454   -6686.3879    -6357.104   -6686.3879            0    7491.3907    23.250584    21.144266    21.476652    10558.277    6374.8187    8426.7186    7672.6349   -317.91025    645.40609    143.75172   -5203.5674 
18656000    123.58924   -6686.7106   -6368.7848   -6686.7106            0    7736.9293    23.245623    21.120211     21.51857    10564.595    8418.5877    7272.5628    7519.6374   -193.67033   -955.68358   -51.729351   -5176.7269 
18657000    122.10908   -6666.2788   -6352.1607   -6666.2788            0    6540.9835    23.369785    21.132612    21.470836    10603.686    6044.3606     6876.359     6702.231   -362.69934    648.46618   -15.462345   -5340.6376 
18658000    129.28322   -6682.9762    -6350.403   -6682.9762            0    7560.5438    23.160795    21.176842    21.497133    10543.752    6744.1696    8591.9974    7345.4644    97.048145   -153.78713   -38.374197   -5187.8197 
18659000    130.23111   -6683.2764   -6348.2648   -6683.2764            0    6248.1984    23.262526    21.178893    21.552189    10618.215    4927.0489    6906.5525    6910.9938   -174.88177     25.22626   -215.76363   -5380.6952 
18660000    131.62206   -6687.2938   -6348.7041   -6687.2938            0    7586.6668    23.245754    21.173642    21.456629    10560.895    6895.9173    7355.5566    8508.5265   -918.69309    688.98986   -291.02675   -5180.2071 
18661000    126.00709   -6688.4689   -6364.3233   -6688.4689            0     6205.602     23.16676    21.233269    21.578013    10614.355    6699.6929    5863.9517    6053.1615    54.488531   -461.42757   -365.54574   -5403.6993 
18662000     133.0678   -6683.5603   -6341.2514   -6683.5603            0    6750.4456    23.324759    21.260208    21.296968    10560.937    5960.7242    6671.4974    7619.1152   -778.97076   -475.42862    12.792915   -5301.5449 
18663000    127.41491   -6677.6083   -6349.8413   -6677.6083            0    5788.2684    23.169005    21.212704    21.655059    10642.969    6240.3596     6824.608    4299.8375    111.42363   -941.59972   -556.67185   -5451.4048 
18664000    126.44235   -6680.4634   -6355.1981   -6680.4634            0    6582.1218    23.256251    21.300122    21.394348    10597.925    5216.5625    7224.3153    7305.4875   -744.47607    64.471663   -700.38648   -5337.8663 
18665000     132.5982   -6683.2214   -6342.1207   -6683.2214            0     6883.067    23.051446    21.270761    21.595148    10588.572    7797.1334    6291.2547    6560.8129   -964.35085    104.84186   -332.92499   -5279.2137 
18666000    131.85364    -6667.317   -6328.1315    -6667.317            0    7444.5423    23.095079     21.31174    21.442335    10553.838    8487.1582    6971.1165    6875.3521   -292.86942    333.45698   -1094.6799   -5182.2906 
18667000    124.46371   -6670.3762   -6350.2009   -6670.3762            0    7049.6036    23.102989    21.308364    21.507667    10587.943    6945.4909    6864.8378     7338.482   -121.24634   -105.90278    -571.8051   -5261.6414 
18668000    127.73286   -6660.8389   -6332.2539   -6660.8389            0    6511.3663      23.0837     21.39325    21.496593    10615.778    6757.4243    6037.3103    6739.3645   -815.76048    84.350547   -202.66314   -5324.1627 
18669000    138.25629   -6674.9061   -6319.2502   -6674.9061            0    6455.6524    23.132002    21.429618    21.406825    10611.577     6374.954    5946.1886    7045.8147   -495.23675    180.12382   -600.62473   -5320.1801 
18670000    130.19313   -6685.7476   -6350.8337   -6685.7476            0    6118.6158    23.057446    21.298565    21.618301    10616.543    6867.4994    6799.8196    4688.5285     4.788621   -50.776777   -354.28123   -5403.4799 
18671000    130.64485     -6678.82   -6342.7441     -6678.82            0    6293.1517    23.172998    21.372126    21.392899    10594.967    6759.6165    6087.9274    6031.9111    5.7658316   -491.07298   -175.50712   -5370.3469 
18672000    132.33446   -6683.8673   -6343.4449   -6683.8673            0     6534.382    23.097803    21.324592    21.508547    10594.061    6844.2841    6057.8894    6700.9726   -332.30421   -41.620791   -339.65135   -5333.8599 
18673000    124.55073   -6667.8063   -6347.4071   -6667.8063            0    8266.7005    23.050064    21.353154    21.379631    10522.874    7974.8621     8715.304    8109.9355    244.49619   -491.21134   -270.86403   -5078.7553 
18674000    126.54678   -6688.1421   -6362.6082   -6688.1421            0    5466.9259    23.167901    21.291592    21.586204    10648.075    4931.5937    5332.2278    6136.9562    38.944173    1121.5143    537.46793   -5513.6425 
18675000    130.45439   -6679.1406   -6343.5546   -6679.1406            0    5816.6489    23.175326    21.333511    21.510059    10634.811      5913.46    4611.7668    6924.7198    18.375541   -385.92101    578.76719   -5441.4051 
18676000     129.9844   -6688.4234   -6354.0465   -6688.4234            0    7556.4725    23.201915    21.226891    21.458343    10568.331    7338.5647    7873.1093    7457.7435   -242.30234    334.06587   -886.08554   -5189.3805 
18677000    134.38099   -6668.4982   -6322.8113   -6668.4982            0    6765.9894    23.148908    21.246562    21.550871    10599.466    7079.8866    6925.2349    6292.8469    104.57664   -983.99952    771.37775   -5276.9088 
18678000    132.27133   -6671.8186   -6331.5587   -6671.8186            0    7398.7158    23.226992    21.144297    21.490331    10554.298    6370.9563    8331.4505    7493.7407    863.54969    483.89524    16.974511   -5192.7216 
18679000    133.26514    -6686.331   -6343.5146    -6686.331            0    6700.1621    23.169731    21.218772    21.541765    10590.648    6671.0065     7537.089    5892.3907   -931.94321   -529.79391   -997.89977   -5308.6495 
18680000    131.31603   -6678.2713   -6340.4688   -6678.2713            0    7185.7428    23.220213    21.215619    21.464619    10574.141    6348.6831    7367.4723    7841.0729   -623.46331    680.71901   -344.69402   -5232.3339 
18681000    134.14553   -6693.5565   -6348.4753   -6693.5565            0    6656.6538    23.127762    21.206272    21.580248    10584.111    6865.8563    7069.3685    6034.7366    13.546848   -165.41735    440.89887   -5320.9649 
18682000    130.04681   -6667.2776   -6332.7401   -6667.2776            0    7320.4579    23.225617    21.175064    21.512844    10580.101    6212.6072    8304.2188    7444.5477    30.514916    408.58346    504.36127    -5203.194 
18683000    124.74216   -6680.5099   -6359.6183   -6680.5099            0    6497.1138    23.273946    21.219931    21.515738     10626.01    5556.8997    7121.7825    6812.6591   -184.74182   -31.011935   -255.82284   -5352.7641 
18684000    126.76654   -6680.9027   -6354.8035   -6680.9027            0     6014.383    23.370753    21.140834    21.464861    10605.298    5310.0057     6422.881    6310.2623   -630.82961   -224.03219   -27.814967   -5424.5745 
18685000    133.90281   -6680.4593   -6336.0024   -6680.4593            0    7098.2125    23.193771    21.146418    21.581237    10584.845    6948.0379    7485.1817    6861.4179   -431.93552   -152.56219     89.52037   -5240.2577 
18686000    135.03924   -6679.4253   -6332.0451   -6679.4253            0    7237.1043    23.198019    21.262549    21.456089    10583.195     7296.419    7037.2419     7377.652   -334.66968   -197.06433    233.35088   -5215.0339 
18687000    125.91828   -6690.2018   -6366.2847   -6690.2018            0    7489.6624    23.150287    21.266903    21.501373    10585.876     7741.616    7291.6362    7435.7351    41.698387    219.76863     234.6064   -5209.9996 
18688000    129.24602   -6665.6777   -6333.2002   -6665.6777            0      5751.74     23.16238     21.34002    21.547803     10650.77    5720.6401     6149.307    5385.2729    327.39607   -209.88368    32.129629   -5439.7793 
18689000    123.42321   -6684.5898   -6367.0911   -6684.5898            0    6615.8389    23.177046    21.274547    21.475798    10589.312    6508.7629    5854.1783    7484.5756    -222.0239    722.14644   -71.861187    -5345.379 
18690000    132.77691   -6653.3052   -6311.7447   -6653.3052            0    7339.9634    23.094623    21.342065    21.447353     10571.12    7728.4826    7271.5265    7019.8811    294.77416   -1442.0518    413.96154   -5180.1503 
18691000    131.80111   -6670.2073   -6331.1569   -6670.2073            0    6241.3617    23.188864    21.217246    21.571935    10613.475    6708.6083    6430.8508    5584.6261   -592.06303    508.72464   -495.05263   -5365.0775 
18692000    131.65412   -6672.4289   -6333.7567   -6672.4289            0    7904.8485    23.155929     21.28363    21.414367    10553.904    8273.1908    7923.8904    7517.4643   -382.23212   -381.10244   -472.36606   -5117.0593 
18693000    127.30201     -6673.76   -6346.2833     -6673.76            0    7984.9434    23.130986    21.267162    21.442848    10548.389     7848.776    7484.8978    8621.1563    977.31972    64.514225     380.2063   -5117.9001 
18694000    133.49016    -6691.951   -6348.5557    -6691.951            0    5416.6685     23.13512    21.357843    21.574285    10660.205     5370.627    4526.3898    6352.9887   -138.92026    652.82317    382.17271   -5506.4363 
18695000    127.31035   -6661.8869   -6334.3888   -6661.8869            0    6683.4837      23.1247    21.366368    21.462129    10604.242    6389.9738    6200.4022    7460.0752    1100.5166   -129.72614    443.26828   -5300.7747 
18696000    127.46134   -6678.9418   -6351.0553   -6678.9418            0    6501.4068    22.978654    21.413664    21.544674    10601.212    6312.4347    6802.3875    6389.3982   -871.73165    806.29774   -563.53793   -5345.8871 
18697000    131.29499   -6675.7589   -6338.0106   -6675.7589            0    6862.3356    23.013241    21.467308     21.42794    10586.095    6900.5958    6503.2979    7183.1132    -8.352938    691.63503     365.3121   -5278.5528 
18698000    131.36071   -6671.6544    -6333.737   -6671.6544            0    6877.1166    23.105039    21.339812    21.476517    10589.151    6550.3123    6707.9372    7373.1003    598.77217    81.182793   -220.72495   -5271.6908 
18699000    134.20231   -6677.8162   -6332.5889   -6677.8162            0    7142.1371    23.085803    21.320577    21.478996    10572.019    7613.3311    6360.5248    7452.5553   -552.09531    130.39864    1619.6749   -5231.3996 
18700000    136.40166   -6705.3278   -6354.4428   -6705.3278            0    6557.1601    23.061217    21.293112    21.556805    10585.363    6664.3879    6756.8627    6250.2297    1081.6112     89.45302   -953.42555   -5342.1703 
18701000    135.81914   -6691.1325    -6341.746   -6691.1325            0    7006.8999    23.151294    21.300324    21.432258    10568.891    7343.3143    6847.8236    6829.5616   -260.17488    535.75645    34.856589   -5261.7275 
18702000    131.00672   -6690.6189   -6353.6121   -6690.6189            0    4735.6498    23.197872    21.231744    21.658534    10667.506    4956.4228    5089.1273    4161.3995   -69.752195    283.65086    900.84912   -5616.8651 
18703000    123.61551   -6688.0309   -6370.0375   -6688.0309            0    7244.5157    23.230849    21.260367     21.39863    10568.706    7078.5166    6766.9204    7888.1102    49.082956   -797.32128   -711.76626   -5253.4133 
18704000    128.22401   -6680.5969   -6350.7484   -6680.5969            0     6827.089    23.195564     21.19566    21.573665    10606.591    7582.2457    6723.3135    6175.7078   -329.64518   -614.57108   -633.03837   -5294.6917 
18705000    129.52586   -6684.3885   -6351.1911   -6684.3885            0    7116.1289    23.196746    21.203639    21.480517    10565.309    6656.6033    7042.4825    7649.3008    108.51948    368.93664    736.79971   -5254.7081 
18706000    128.94963   -6697.1202   -6365.4051   -6697.1202            0     6724.634     23.26002    21.202534    21.455615    10581.295    6676.7314      5919.22    7577.9506   -836.92288   -614.81248    554.91366   -5327.6775 
18707000    126.57309   -6683.2194   -6357.6179   -6683.2194            0    6972.9751     23.14934    21.194177    21.592156    10593.786    7548.2154    7140.7072    6230.0029   -36.981786   -1137.8001   -931.38746   -5280.2967 
18708000    132.92159   -6691.6224   -6349.6898   -6691.6224            0    5401.3471    23.251654    21.292397    21.493684    10641.168    4702.7506    5602.7904    5898.5003    169.98721    71.770969   -120.24049   -5511.4519 
18709000    129.83172   -6671.0234   -6337.0392   -6671.0234            0    7213.7463    23.182511    21.149513    21.603043    10591.947    8402.1672    6362.6979    6876.3739   -6.3387561   -980.97197   -670.57788   -5222.7125 
18710000    134.50038   -6690.4732   -6344.4792   -6690.4732            0    7569.6375    23.213068    21.131082     21.54078    10566.124    6934.0552    7401.5006    8373.3567    -925.0427    340.80454    757.35454   -5178.0277 
18711000    127.02798   -6663.5793   -6336.8075   -6663.5793            0     6700.227      23.3073    21.248258    21.403539    10599.878    5460.9429    6601.0971    8038.6409   -558.16753   -406.97199   -1106.5983   -5301.0305 
18712000    124.62537   -6676.4331    -6355.842   -6676.4331            0    7446.0527    23.203798    21.119315    21.589184    10579.743    6554.2645    7903.6419    7880.2517   -386.07876    937.87348    82.883094   -5206.9554 
18713000    124.25626   -6672.0663   -6352.4247   -6672.0663            0    5674.7948    23.353609    21.119797    21.554597    10631.234    4462.4476    6334.4957     6227.441   -22.849032   -180.59609    483.14049   -5472.5725 
18714000    129.42573   -6674.0187   -6341.0789   -6674.0187            0    8265.2392    23.195555    21.190238    21.460975    10548.484    7550.1183    9139.0656    8106.5337   -501.60422    594.98941   -580.20277   -5069.5642 
18715000    124.78348   -6688.1498   -6367.1519   -6688.1498            0    6411.7597    23.180721    21.209632    21.585887      10612.8    6210.3918    6460.4726    6564.4148    624.19595     219.5154   -25.047715   -5374.7603 
18716000    126.03477   -6671.0821   -6346.8653   -6671.0821            0    5969.3729    23.148962    21.260677    21.549644    10605.929    6411.1605    6145.6005    5351.3576    820.42456   -275.70893    92.464276    -5423.543 
18717000    132.52702   -6686.1539   -6345.2362   -6686.1539            0    7487.9063    23.106721    21.282733    21.475395    10561.045    7167.2932    7507.4381    7788.9876    539.12162   -208.25009    129.74958   -5191.9339 
18718000    135.52808   -6687.7204   -6339.0827   -6687.7204            0    6128.0917    23.153871    21.368164    21.461568    10618.234    6388.1278    5464.4589    6531.6884    160.31972   -217.66581   -457.12129   -5390.1106 
18719000    133.09965   -6692.7386   -6350.3478   -6692.7386            0    7099.7211    23.042229    21.325709    21.519047    10574.285    7461.4191    7757.4857    6080.2586    272.81563    49.087853   -173.48667   -5255.4636 
18720000     123.7358   -6683.0641   -6364.7613   -6683.0641            0    7042.2957    23.039995     21.30539    21.553603    10580.148    6940.5417    7127.2362    7059.1093    415.45569    1385.5719    635.30206   -5278.1307 
18721000    132.50627   -6701.8152   -6360.9509   -6701.8152            0      5915.62    23.082373    21.394559    21.545907     10640.17    6960.4537    4782.7838    6003.6225    57.315753   -578.51297   -174.47054   -5442.9888 
18722000    133.27193   -6694.2903   -6351.4564   -6694.2903            0    7812.4307    23.033868    21.299332    21.466007    10531.352    8472.4095    7564.5074    7400.3753    -67.09988   -854.59674   -629.38465   -5151.5533 
18723000    130.10351   -6692.4474    -6357.764   -6692.4474            0    6472.5535    23.113193    21.351781    21.456482    10588.942    6974.0658    6341.6281    6101.9664    565.87934    117.66509   -146.38728    -5358.215 
18724000    131.15692   -6666.4577   -6329.0645   -6666.4577            0    7161.7463    22.986822    21.316346    21.609848    10588.719    8418.4775     6166.989    6899.7722    -649.1067    707.20446    183.44024   -5223.1075 
18725000    130.08629   -6685.4176   -6350.7786   -6685.4176            0    7284.1718    23.146635    21.346689    21.382704     10565.28    7302.9467    6678.8354    7870.7334   -386.95447    139.23714   -535.65272   -5228.4059 
18726000    129.45232   -6684.5335   -6351.5253   -6684.5335            0     5962.591    23.045161    21.303587    21.608606    10608.628    6898.1735    5359.6787    5629.9207   -132.99852   -252.93906   -603.33757   -5429.0173 
18727000    138.56097   -6670.9066   -6314.4669   -6670.9066            0    7287.1609    23.132012    21.383943    21.354486    10563.074    7471.4978    6235.9012    8154.0838    431.24618   -132.86217    540.12091   -5191.8681 
18728000    133.08022   -6669.3938   -6327.0531   -6669.3938            0    6335.2907     23.03114     21.31061    21.664307    10633.007    6378.2594    7312.4134    5315.1992    1479.7425   -1292.2409    217.25322     -5344.63 
18729000    130.49907   -6675.1721   -6339.4712   -6675.1721            0    6334.7095    23.218169    21.342571    21.392945    10600.962    5690.9774    6309.5281     7003.623    653.13037   -445.77279   -41.509105   -5360.0988 
18730000    134.83662   -6672.0696   -6325.2106   -6672.0696            0    7482.2905     23.04658     21.28277    21.553243    10571.759    7101.8587    7428.3495    7916.6633    767.83332    42.444419    714.20754    -5171.604 
18731000    127.67891   -6660.1505   -6331.7043   -6660.1505            0    6349.1638    23.150723    21.289555    21.541021    10616.892    7201.1719    6214.4446     5631.875     438.1902    180.45064    192.29808   -5348.6221 
18732000    132.25639   -6679.7577   -6339.5362   -6679.7577            0    6567.0973    23.159086    21.303298    21.492587    10603.688      6793.21    6274.7607    6633.3212    88.704773   -325.08399    261.80235   -5323.9746 
18733000    130.93141     -6691.65   -6354.8369     -6691.65            0    6269.5793    23.251497    21.191684    21.518865    10603.171    5908.6336    7590.7093     5309.395    351.60767   -101.08135   -896.77194   -5385.3319 
18734000    128.17409   -6671.9469   -6342.2269   -6671.9469            0    7019.8348    23.229209    21.256788    21.425388    10579.393    5531.0586    7882.8681    7645.5775   -489.04281     883.0403    519.07551   -5259.1394 
18735000    133.00024   -6686.9577   -6344.8227   -6686.9577            0    7687.4617    23.093272    21.179883    21.524255    10527.789    7662.4721    7192.5295    8207.3835   -105.64004    432.62731    21.876427   -5164.5128 
18736000    129.52106   -6683.1795   -6349.9945   -6683.1795            0     5848.865    23.257892    21.314327     21.41288    10614.928    4495.1369    6680.0652    6371.3928   -844.41784   -604.46121   -992.13257   -5444.5443 
18737000    123.91324    -6672.828   -6354.0688    -6672.828            0    7031.5072    23.186229    21.227134    21.503677     10583.62    7502.9962    7128.1507    6463.3746   -947.75772    583.68134   -562.73526   -5268.7469 
18738000    133.38336   -6675.0286    -6331.908   -6675.0286            0    6124.3141    23.186051    21.251798     21.55181    10619.553    6041.6844    6401.5549    5929.7029   -3.3886602   -84.660764   -117.57865   -5383.4031 
18739000    122.12099    -6659.063   -6344.9142    -6659.063            0    7561.6282    23.155829    21.202215    21.531682    10571.084    7720.6912    8165.6245    6798.5689    1275.2964   -366.64747    200.69902   -5179.1499 
18740000    137.27662   -6691.2347   -6338.0989   -6691.2347            0    6274.6895    23.215362    21.296507    21.446098    10603.082    6264.1307    6299.9018    6260.0359   -720.51003   -77.661788   -1092.7697   -5367.8118 
18741000    127.95025   -6681.5852    -6352.441   -6681.5852            0    6628.8439    23.151737    21.313055    21.453924      10586.1    7016.2398    6669.2502    6201.0416    127.33053   -338.63791    191.49876    -5329.031 
18742000    127.23589   -6680.4389   -6353.1323   -6680.4389            0     7150.449    23.031293    21.278377    21.599808    10585.386    8136.0103    7112.1224    6203.2144    464.64245   -178.86808     567.3839   -5249.2674 
18743000    126.67763   -6671.1611   -6345.2907   -6671.1611            0    5698.3616    23.072224    21.424166    21.524665     10639.71    6039.1983    5373.5882    5682.2983   -251.47098   -332.54828    414.10718   -5461.0801 
18744000    128.96098   -6680.4513    -6348.707   -6680.4513            0    6119.9284    23.103159    21.415723    21.479946    10627.651    6711.2815    5044.9857    6603.5178   -643.63712    -471.0318    -350.0417   -5400.1585 
18745000    133.24764   -6666.3401   -6323.5687   -6666.3401            0    6544.1987     23.06266    21.382384    21.534261     10619.29     5978.119    6081.4596    7573.0176    229.88396    178.32462    657.95421   -5310.0591 
18746000    127.37763    -6670.399   -6342.7278    -6670.399            0    8609.3079    22.971805    21.368626     21.41255    10510.905    9398.4836    7699.6619    8729.7781    1229.8223   -471.36434    855.79747   -5023.0004 
18747000    132.01321   -6683.4508   -6343.8548   -6683.4508            0    6680.6754    23.033353    21.335522    21.561144    10595.763    7293.6304    7430.7758    5317.6202   -414.82984   -244.96663   -554.00292   -5311.5012 
18748000    134.58697   -6688.3834   -6342.1666   -6688.3834            0    6445.3254    23.110462    21.434298     21.39676    10599.025    6074.4482    6161.0938    7100.4342   -937.24586    365.21028    721.06685   -5345.8746 
18749000    129.04723   -6683.5963   -6351.6301   -6683.5963            0     7563.924    23.025019    21.328506    21.502572    10559.682    7871.2779    6678.3334    8142.1608    141.16909     142.0493    792.99913   -5186.7698 
18750000    135.17005   -6660.6518   -6312.9351   -6660.6518            0    7858.9472    23.032872     21.33751    21.488684    10560.917    8489.9307    7121.7241    7965.1867    1.8674378   -79.702218    1367.3483   -5102.4989 
Loop time of 528.615 on 64 procs for 250000 steps with 1296 atoms

Performance: 81.723 ns/day, 0.294 hours/ns, 472.934 timesteps/s
99.1% CPU use with 64 MPI tasks x 1 OpenMP threads

MPI task timing breakdown:
Section |  min time  |  avg time  |  max time  |%varavg| %total
---------------------------------------------------------------
Pair    | 30.127     | 41.506     | 53.149     | 110.9 |  7.85
Bond    | 0.28143    | 0.28874    | 0.30141    |   0.8 |  0.05
Kspace  | 265.55     | 277.4      | 288.77     |  43.1 | 52.48
Neigh   | 1.7593     | 1.7834     | 1.8044     |   0.7 |  0.34
Comm    | 89.829     | 92.063     | 94.581     |  15.5 | 17.42
Output  | 0.70958    | 0.70993    | 0.71129    |   0.0 |  0.13
Modify  | 102.34     | 104.78     | 108.45     |  14.1 | 19.82
Other   |            | 10.08      |            |       |  1.91

Nlocal:        20.2500 ave          26 max          14 min
Histogram: 7 2 10 5 2 9 8 6 8 7
Nghost:        2657.34 ave        2690 max        2633 min
Histogram: 2 6 12 12 12 8 4 3 2 3
Neighs:        6612.61 ave        8438 max        4516 min
Histogram: 7 2 10 5 2 8 9 6 8 7

Total # of neighbors = 423207
Ave neighs/atom = 326.54861
Ave special neighs/atom = 2.0000000
Neighbor list builds = 3388
Dangerous builds = 0

unfix		3
unfix		2
unfix		1

write_data	data.final.${pid}
write_data	data.final.0
System init for write_data ...
PPPM initialization ...
  extracting TIP4P info from pair style
  using 12-bit tables for long-range coulomb (../kspace.cpp:340)
  G vector (1/distance) = 0.37154242
  grid = 30 40 32
  stencil order = 5
  estimated absolute RMS force accuracy = 0.0036584281
  estimated relative force accuracy = 1.1017248e-05
  using double precision FFTW3
  3d grid and FFT values/proc = 5168 640
Last active /omp style is kspace_style pppm/tip4p/omp
WARNING: Not all mixed pair coeffs generated from mixing. Use write_data with 'pair ij' option to store all pair coeffs. (../write_data.cpp:312)

write_restart   restart.lmp.${pid}
write_restart   restart.lmp.0
System init for write_restart ...
PPPM initialization ...
  extracting TIP4P info from pair style
  using 12-bit tables for long-range coulomb (../kspace.cpp:340)
  G vector (1/distance) = 0.37154242
  grid = 30 40 32
  stencil order = 5
  estimated absolute RMS force accuracy = 0.0036584281
  estimated relative force accuracy = 1.1017248e-05
  using double precision FFTW3
  3d grid and FFT values/proc = 5168 640
Last active /omp style is kspace_style pppm/tip4p/omp
Total wall time: 0:08:48
