LAMMPS (30 Jul 2021)
  using 1 OpenMP thread(s) per MPI task
package omp 0
using multi-threaded neighbor list subroutines
echo both

include		in.partitions
variable        pid world 0
include		in.temp
variable        temperature equal 249.63
variable	tempDamp equal 100.0
include		in.pressure
variable        pressure equal 6875.0
variable        pressureDamp equal 1000.0 # This is 1 ps
include		in.seed
variable        seed world 745823

units		real
atom_style	full
box tilt large
read_restart	restart.lmp.${pid}
read_restart	restart.lmp.0
Reading restart file ...
  restart file = 30 Jul 2021, LAMMPS = 30 Jul 2021
  restoring atom style full from restart
  triclinic box = (-10.585760 -9.2963154 0.048761896) to (12.565760 12.286313 21.811237) with tilt (-9.0312259 1.7818068 2.5279377)
  4 by 4 by 4 MPI processor grid
  restoring pair style lj/cut/tip4p/long/omp from restart
  restoring bond style harmonic/omp from restart
  restoring angle style harmonic/omp from restart
  1296 atoms
  864 bonds
  432 angles
Finding 1-2 1-3 1-4 neighbors ...
  special bond factors lj:    0        0        0       
  special bond factors coul:  0        0        0       
     2 = max # of 1-2 neighbors
     1 = max # of 1-3 neighbors
     1 = max # of 1-4 neighbors
     2 = max # of special neighbors
  special bonds CPU = 2.125 seconds
  read_restart CPU = 2.483 seconds
include 	in.setup
variable	out_freq equal 1000
variable	out_freq2 equal 10000
variable	out_freq3 equal 1000

timestep	2.0

neigh_modify    delay 7 every 1

include		in.tip4p
# This is TIP4P/Ice

# create groups ###
group ox type 2
432 atoms in group ox
group hy type 1
864 atoms in group hy

# set charges - beside manually ###
set group ox charge -1.1794
Setting atom values ...
  432 settings made for charge
set group hy charge 0.5897
Setting atom values ...
  864 settings made for charge

# ### TIP3P Potential Parameters ###
pair_style lj/cut/tip4p/long/omp 2 1 1 1 0.1577 8.5
pair_coeff 1 1*2 0.000 0.000
pair_coeff 2 2 0.21084 3.1668
bond_style  harmonic
bond_coeff  1 450 0.9572
angle_style harmonic
angle_coeff 1 55 104.52
kspace_style pppm/tip4p/omp 1.0e-5
pair_modify tail yes

thermo          ${out_freq}
thermo          1000
thermo_style    custom step temp pe etotal epair emol press lx ly lz vol pxx pyy pzz pxy pxz pyz enthalpy

restart 	${out_freq3} restart.lmp.${pid} restart2.lmp.${pid}
restart 	1000 restart.lmp.${pid} restart2.lmp.${pid}
restart 	1000 restart.lmp.0 restart2.lmp.${pid}
restart 	1000 restart.lmp.0 restart2.lmp.0


include         in.dump
dump            myDump all atom ${out_freq2} dump.water.${pid}
dump            myDump all atom 10000 dump.water.${pid}
dump            myDump all atom 10000 dump.water.0
dump            myDump2 all dcd ${out_freq2} dump.dcd
dump            myDump2 all dcd 10000 dump.dcd
dump_modify     myDump append yes
dump_modify     myDump2 append yes


variable natoms 	equal  "count(all)"                        # NUMBER ATOMS
variable H      	equal  "enthalpy/v_natoms"                 # ENTHALPY-per-atom
variable Vol      	equal  "vol/v_natoms"                 # volume-per-atom
fix AVG all 		ave/time ${out_freq} 1 ${out_freq} v_Vol v_H file vol_enthalpy.dat
fix AVG all 		ave/time 1000 1 ${out_freq} v_Vol v_H file vol_enthalpy.dat
fix AVG all 		ave/time 1000 1 1000 v_Vol v_H file vol_enthalpy.dat


timer           timeout 10:00:00 every 1000
New timer settings: style=normal  mode=nosync  timeout=10:00:00

fix 		1 all shake 1e-6 200 0 b 1 a 1
       0 = # of size 2 clusters
       0 = # of size 3 clusters
       0 = # of size 4 clusters
     432 = # of frozen angles
  find clusters CPU = 1.078 seconds
fix             2 all nph tri ${pressure} ${pressure} ${pressureDamp}
fix             2 all nph tri 6875 ${pressure} ${pressureDamp}
fix             2 all nph tri 6875 6875 ${pressureDamp}
fix             2 all nph tri 6875 6875 1000
fix             3 all temp/csvr ${temperature} ${temperature} ${tempDamp} ${seed}
fix             3 all temp/csvr 249.63 ${temperature} ${tempDamp} ${seed}
fix             3 all temp/csvr 249.63 249.63 ${tempDamp} ${seed}
fix             3 all temp/csvr 249.63 249.63 100 ${seed}
fix             3 all temp/csvr 249.63 249.63 100 745823


run             250000
PPPM initialization ...
  extracting TIP4P info from pair style
  using 12-bit tables for long-range coulomb (../kspace.cpp:340)
  G vector (1/distance) = 0.37065779
  grid = 30 40 32
  stencil order = 5
  estimated absolute RMS force accuracy = 0.0037806324
  estimated relative force accuracy = 1.1385262e-05
  using double precision FFTW3
  3d grid and FFT values/proc = 5168 640
Last active /omp style is kspace_style pppm/tip4p/omp
Neighbor list info ...
  update every 1 steps, delay 7 steps, check yes
  max neighbors/atom: 2000, page size: 100000
  master list distance cutoff = 10.8154
  ghost atom cutoff = 10.8154
  binsize = 5.4077, bins = 7 5 5
  1 neighbor lists, perpetual/occasional/extra = 1 0 0
  (1) pair lj/cut/tip4p/long/omp, perpetual
      attributes: half, newton on, omp
      pair build: half/bin/newton/tri/omp
      stencil: half/bin/3d/tri
      bin: standard
Per MPI rank memory allocation (min/avg/max) = 9.434 | 9.441 | 9.445 Mbytes
Step Temp PotEng TotEng E_pair E_mol Press Lx Ly Lz Volume Pxx Pyy Pzz Pxy Pxz Pyz Enthalpy 
23500000    258.98613   -6305.7931    -5639.567   -6305.7931            0    6562.2016    23.151519    21.582629    21.762475     10874.07    7465.8433    5477.1581    6743.6035    -1509.633    188.50691      672.938   -4598.8861 
23501000    254.43272   -6345.0918   -5690.5791   -6345.0918            0    5767.3891    23.450333    21.418332     21.59245    10845.175    4283.0204    7337.9105    5681.2363    410.89246   -428.54432   -915.37467   -4778.3757 
23502000    256.10915   -6344.7868   -5685.9616   -6344.7868            0    6085.4835    23.392397    21.429193    21.675807    10865.653     6321.331    7036.9842    4898.1352   -2083.9769    543.50361   -1923.0732   -4721.6292 
23503000    248.46618   -6324.7095   -5685.5454   -6324.7095            0     7318.939    23.180751    21.610068    21.587739     10814.11    7203.7467    7843.8757    6909.1947    260.61228    78.354948   -1443.5315   -4531.2557 
23504000    238.00136   -6341.2359   -5728.9919   -6341.2359            0    6227.8603    23.450499    21.225685    21.778953    10840.537    5726.4353    6933.9281    6023.2174    743.32875   -758.25624    51.956704   -4744.3789 
23505000    251.65057     -6344.44   -5697.0842     -6344.44            0     6434.585    23.217342     21.49053    21.708891    10831.716      5721.84    6208.9614    7372.9535   -237.74353    630.33336    692.08977   -4680.6163 
23506000    250.58051   -6317.2869   -5672.6838   -6317.2869            0     6160.805    23.325478    21.499865     21.67925    10872.028    6058.5313    6426.9542    5996.9294   -790.80973    1318.9472   -674.30132   -4695.8427 
23507000    249.43707   -6342.7363   -5701.0746   -6342.7363            0     7155.984    23.400416    21.275986    21.724642     10815.98     7081.703    8743.0678    5643.1813   -977.61678   -78.403693   -1928.5866   -4572.2899 
23508000    245.40224   -6308.5633    -5677.281   -6308.5633            0      7842.33    23.195521    21.520358    21.570585    10767.517    7332.1675    8440.0891    7754.7334     751.0888   -345.71172   -755.53263   -4445.7749 
23509000    259.55443   -6307.8755   -5640.1875   -6307.8755            0    7944.0749    23.353195    21.330667    21.620686    10770.112    7869.0902    7667.5915    8295.5431     249.9863    823.54224    1165.0257   -4392.4034 
23510000    260.25891   -6341.8082    -5672.308   -6341.8082            0    6649.6383    23.286315    21.331462    21.755811    10806.789    7313.3549      5703.81    6931.7501   -141.63539    877.40959   -195.41883   -4624.2855 
23511000    247.27141   -6323.1972   -5687.1066   -6323.1972            0    6852.0741    23.266786    21.539173    21.577023    10813.267    6577.0949    6762.1071    7217.0202   -5.3712148    565.92929   -106.48803   -4606.5317 
23512000    251.40404   -6302.1592   -5655.4376   -6302.1592            0    6049.4101     23.50798    21.305873    21.696224    10866.728     5851.614    6114.1892    6182.4271   -477.65099   -614.88947   -307.53018   -4696.7266 
23513000    255.52395   -6319.0847   -5661.7649   -6319.0847            0    7229.4962    23.163828    21.450651     21.74565    10804.961    8844.4489    6947.4241    5896.6157    -118.8421    294.52247    559.83746   -4522.5462 
23514000     238.7337   -6330.0323   -5715.9044   -6330.0323            0    7581.6698    23.290021    21.465479    21.593641    10795.341    8110.3001    7055.3661    7579.3431   -681.53899   -649.98348    697.51689   -4522.2541 
23515000    258.46514   -6347.0951   -5682.2093   -6347.0951            0    6469.7633    23.422216     21.30093    21.711419    10832.152    5997.0037    6381.6293     7030.657    1030.6196    -637.7665     855.6895   -4660.1431 
23516000    254.53345   -6349.4461   -5694.6743   -6349.4461            0     6512.456    22.984163     21.73904    21.680238     10832.61    6999.5012    5143.3167    7394.5501    1678.3259     989.4703    1165.4906   -4665.8202 
23517000    261.99422   -6352.8418   -5678.8776   -6352.8418            0    8785.1934    23.505373     21.19713    21.555489    10739.946     8514.905    8810.1104    9030.5647    810.22199   -571.83793   -28.943205   -4302.8432 
23518000    254.86046   -6379.1088   -5723.4958   -6379.1088            0    6733.4795    23.243192    21.454041     21.66875    10805.347    6681.3919    6698.7852    6820.2614    796.89884    797.50901    -219.9501   -4662.4011 
23519000    247.72439   -6326.8512   -5689.5953   -6326.8512            0    8582.2777    23.192132    21.290289    21.813677    10770.878    9605.7686    8634.3385    7506.7261    1647.8092    318.34309   -469.89799   -4341.4722 
23520000    247.79628   -6334.4319   -5696.9911   -6334.4319            0    8642.6812    23.593951    21.297474    21.363211    10734.833     7948.675    8526.3945    9452.9742     525.0622    -210.4605   -1526.2226   -4343.9229 
23521000    237.12441   -6324.5848   -5714.5967   -6324.5848            0    8332.8758    23.205333    21.468228    21.592787    10757.038    8094.3092     9005.791     7898.527    581.41988    467.64878   -499.59969   -4407.3322 
23522000    249.90507   -6326.4445   -5683.5789   -6326.4445            0    6885.6417    23.353579    21.385281     21.68393     10829.45    6668.8027    6690.4063     7297.716   -247.41524    244.85502   -1.4288591   -4596.0853 
23523000    249.59623   -6344.8298   -5702.7587   -6344.8298            0    6783.8559    23.311067    21.564918    21.543855    10830.123    7339.0908    6004.2076    7008.2691    283.61595   -1443.3447   -468.71845   -4631.2742 
23524000    261.83966   -6289.7643   -5616.1977   -6289.7643            0    6110.5633    23.273101     21.55675    21.723556    10898.544    7054.2791    5837.6764    5439.7344      330.275   -148.49017   -338.44687   -4644.9598 
23525000    266.33308   -6338.8969   -5653.7713   -6338.8969            0    5183.2533     23.38498    21.389175    21.774569    10891.322    6063.0117    5216.4685    4270.2796   -1102.4979   -1319.8066    -580.3134   -4830.4697 
23526000    254.95668   -6311.4596   -5655.5991   -6311.4596            0     5815.317     23.45942    21.483348    21.600056    10886.145     5159.497    5687.3207    6599.1333    1174.1509    470.14903    1091.5301   -4732.3404 
23527000     252.6343   -6322.8735   -5672.9871   -6322.8735            0    6631.4858    23.328088    21.468937    21.632254    10834.066    5975.1452    7059.0928    6860.2194     615.9514    1154.4022    1657.4347   -4625.1876 
23528000    238.08711   -6337.7801   -5725.3155   -6337.7801            0    5964.1683    23.248917    21.248228    21.929991    10833.378    7679.2542    5417.6687     4795.582   -560.97961    1264.1007    740.91289   -4783.0145 
23529000    249.19862   -6355.8271   -5714.7788   -6355.8271            0    5824.2621    23.340854     21.42068    21.692196    10845.599    4905.0464    6300.0193    6267.7207   -129.90888    1436.3025   -459.21986    -4793.544 
23530000    266.17617   -6326.1289    -5641.407   -6326.1289            0    6061.6302     23.44363    21.593566    21.419628    10843.292    6124.3593    5345.5213    6715.0099    901.52633    458.12089   -1345.8611   -4682.8311 
23531000    251.99481   -6307.1767   -5658.9354   -6307.1767            0    6240.5902    23.344239     21.43141    21.788631    10900.851    6342.4613    5791.6537    6587.6556   -398.71844   -186.85009   -691.13689   -4666.8205 
23532000    252.70702   -6328.8722   -5678.7987   -6328.8722            0    5701.3978    23.326178    21.460365    21.753594    10889.594    6167.2231    6487.0772    4449.8931   -334.23912   -264.56228    -307.2436   -4773.3394 
23533000     248.8929   -6330.0351   -5689.7732   -6330.0351            0    7136.6686    23.345225    21.547042    21.487191    10808.499    7216.7384    6090.9167    8102.3506   -270.19529      228.258    692.15171    -4564.814 
23534000    238.65053   -6323.4879   -5709.5739   -6323.4879            0    6340.7298     23.32889    21.361132    21.752952    10840.181    7869.8415    6155.6054    4996.7423   -1423.2387   -242.50731   -97.946906   -4707.1494 
23535000    248.68008   -6352.6915   -5712.9772   -6352.6915            0    7685.8697    23.127348    21.353972    21.796196    10764.285    8265.3173    8088.0889    6704.2028    118.07524    626.79423   -835.33167   -4506.4028 
23536000    240.19661   -6331.7326   -5713.8415   -6331.7326            0      7196.79    23.251836     21.37162    21.687642    10777.227    7404.9908    7033.9297    7151.4494   -698.91157   -324.59389    689.36856   -4582.6874 
23537000    265.55396    -6352.741   -5669.6196    -6352.741            0    8606.1318    23.342498    21.289282    21.528628    10698.544    8571.3196     9027.833    8219.2429   -49.265663   -814.84932    276.08011   -4326.8281 
23538000    251.85857   -6332.0402   -5684.1493   -6332.0402            0    8485.9819    23.231736    21.389015    21.597321    10731.794    7874.0078    9257.7039    8326.2339   -937.59014    128.66238   -305.41835   -4355.9896 
23539000    254.07792   -6332.9435   -5679.3435   -6332.9435            0    8111.4363    23.299036    21.335305    21.642789    10758.458    7873.2148    7506.6776    8954.4166   -541.36809    194.84361    709.73267   -4406.6504 
23540000     259.8301   -6370.6208   -5702.2237   -6370.6208            0    6576.7596    23.246855    21.434657    21.657744    10791.802    6780.0805    6153.3235    6796.8749   -156.12336    464.92836     734.7926   -4667.1248 
23541000    242.47831    -6329.315   -5705.5544    -6329.315            0    6268.7896    23.318916    21.316413    21.804354    10838.413    5905.1857    6999.8709    5901.3123    603.48817    739.70453    335.01088   -4714.6647 
23542000    245.99229   -6333.9739   -5701.1737   -6333.9739            0     5985.432    23.282647    21.515117    21.719841    10880.096    5506.8856    5458.3431    6991.0673   -512.95204     1254.078   -138.18013   -4751.4351 
23543000    255.29455   -6334.5333   -5677.8036   -6334.5333            0    6697.7096    23.229296    21.509506    21.668906    10826.883    5941.3079    7728.6266    6423.1942   -766.80948   -60.876368   -1192.3839   -4620.2421 
23544000    255.02293   -6343.0999   -5687.0689   -6343.0999            0    6602.4229    23.468493    21.310423    21.627932    10816.637    6287.6748     6870.582    6649.0119    58.088504    440.45638    562.97946   -4645.5396 
23545000    232.12932   -6348.1543   -5751.0158   -6348.1543            0    6892.7307    23.281204    21.308664    21.741806    10785.922    6912.9939    7788.3277    5976.8706   -385.16971    2006.2357    389.65554   -4666.7781 
23546000    248.55698   -6318.5944   -5679.1967   -6318.5944            0    7715.7498    23.209747    21.565432    21.637509    10830.184    6563.9316    7731.2116    8852.1062   -669.61751    856.24396   -392.69642   -4460.5162 
23547000    246.71684   -6345.0768   -5710.4128   -6345.0768            0     7099.622     23.45459       21.274    21.697759    10826.595    7426.6935    7509.1679    6363.0047   -213.01805    -1090.284   -1188.7273   -4589.4195 
23548000    257.54553   -6336.7545   -5674.2343   -6336.7545            0    7018.6413    23.094993    21.687574    21.559349    10798.525    7340.8182    6566.0207    7149.0848    1009.4259    397.84789    243.24029   -4568.9007 
23549000    250.78608   -6313.9315   -5668.7996   -6313.9315            0    6500.3948    23.319305      21.4159    21.729286     10851.69    5534.7156    7970.8519    5995.6168    1015.6688    474.24633   -114.76666   -4640.0421 
23550000    249.60415   -6322.8443   -5680.7528   -6322.8443            0    8779.3726    23.302685    21.231067    21.696289     10734.04    9266.3579    9379.0395    7692.7204    1437.0341    145.02062    1002.8925   -4306.3862 
23551000    252.87644   -6313.4234   -5662.9142   -6313.4234            0    6780.0509    23.232772    21.630879    21.578319    10844.083    7524.1562    4922.9995     7892.997    659.60616   -480.66563     770.2176   -4590.6504 
23552000    253.67865   -6375.2564   -5722.6835   -6375.2564            0    5506.9607    23.332164    21.443791    21.713181    10863.757    5000.6391    5942.3818    5577.8612   -570.56597    102.07145   -978.39351   -4850.1786 
23553000    240.00779   -6328.6833   -5711.2779   -6328.6833            0    7012.3972    23.407712    21.513558     21.49146    10822.738    6126.0375    7227.2163    7683.9377    -776.2738   -333.43555   -737.95468   -4604.4514 
23554000    257.41946   -6336.1186   -5673.9228   -6336.1186            0    5768.3165    23.277004    21.561552    21.634898    10858.303    4684.5199    6168.0594    6452.3702     431.3381     89.49681    785.86673   -4760.4682 
23555000    266.38062   -6359.7551   -5674.5072   -6359.7551            0    6774.6583    23.249053    21.306635    21.831841    10814.601    7316.5268    7207.3429    5800.1053    361.23528    1093.2833    429.11199    -4606.009 
23556000    259.02504   -6322.9845   -5656.6583   -6322.9845            0    7206.4887    23.387348    21.489923    21.558013    10834.892    6790.1528      6418.16    8411.1534   -313.47936    78.160052    790.40752   -4517.9194 
23557000    249.76883   -6331.4218   -5688.9067   -6331.4218            0     8031.972    23.289487    21.523595    21.548348    10801.616    6933.9146    7069.9454    10092.056   -792.41549    216.52213   -249.52556   -4423.6262 
23558000    239.71066   -6310.9612   -5694.3201   -6310.9612            0    7415.3482    23.346738    21.322368    21.734556     10819.63    7026.0326    8388.2073    6831.8046     889.3352   -67.620612   -261.41347   -4524.2285 
23559000    250.30432   -6325.9165   -5682.0239   -6325.9165            0    8190.5748    23.306244    21.372232    21.619178    10768.652    8471.3749    7459.2979    8641.0516   -1139.1373    1170.5228    646.62267   -4395.6963 
23560000    240.54162   -6338.3933   -5719.6146   -6338.3933            0    6924.7026    23.231299    21.418127    21.694462    10794.533    7489.3386     6250.246    7034.5233    766.73579    399.26059    457.13098   -4629.4781 
23561000    253.18595   -6342.5388   -5691.2334   -6342.5388            0    5905.4631    23.390413    21.318598    21.746463    10843.891    6611.1601    5869.7831    5235.4462    527.13604   -914.51146    323.20425   -4757.3019 
23562000    250.44162   -6319.3909    -5675.145   -6319.3909            0    5618.4542    23.404811    21.512301    21.699564    10925.543    4267.3284    5548.9185    7039.1158     629.0235   -1009.9737    1057.3787   -4779.9127 
23563000    254.54424   -6307.2271   -5652.4275   -6307.2271            0    5866.4735     23.31954      21.6526    21.612307    10912.673    4794.9639     5210.277    7594.1798    536.33935    -292.7811    845.80389   -4718.7774 
23564000    240.28811   -6320.7109   -5702.5844   -6320.7109            0    5710.6095    23.395768     21.31913    21.844611    10895.599    4850.8524    6634.2503    5646.7258   -443.26215   -563.60443    732.05082   -4795.1621 
23565000    232.53996   -6343.9887   -5745.7938   -6343.9887            0    5475.5192    23.340726    21.457432    21.740478    10888.328    6166.3522    6183.0391    4077.1664   -452.09891    797.24814    91.660511   -4876.3082 
23566000    250.83417   -6308.1274   -5662.8718   -6308.1274            0     6227.524    23.312856    21.541444    21.625543    10860.187    6961.8967     6054.355    5666.3204    -152.0208    1190.0903   -934.21446   -4676.5273 
23567000    241.14229   -6351.5288   -5731.2049   -6351.5288            0    7451.8348    23.297731    21.366965    21.692395    10798.513    7122.0169    8457.0148    6776.4727   -320.74595     275.3356   -643.69683   -4557.6509 
23568000    250.99058   -6358.7966   -5713.1386   -6358.7966            0     7693.491    23.341813    21.210655    21.758874    10772.713    6852.3986    9369.5554    6858.5191     959.5204     924.9681    777.55563   -4504.4222 
23569000    238.94823   -6348.7263   -5734.0465   -6348.7263            0    8459.6065    23.160271    21.473937    21.568751     10727.05    8449.8653    9530.0888    7398.8654    882.02738    1406.8192   -1746.3018   -4410.6001 
23570000    253.91248   -6351.3989   -5698.2246   -6351.3989            0    7587.3678    23.357191    21.382976    21.621627    10798.841     8331.844    7955.8004    6474.4591   -933.75647   -2339.6594   -1386.2783   -4503.2899 
23571000    248.29704   -6313.0379   -5674.3089   -6313.0379            0    6723.3842    23.346717        21.48    21.587047    10825.634    6559.1395     6316.517    7294.4962   -81.945131   -251.37582   -650.95682   -4612.8158 
23572000    264.75706    -6300.931   -5619.8596    -6300.931            0    6526.6005    23.194007    21.649657    21.604128    10848.346    6581.5876    5422.9248    7575.2891   -531.59792     318.6728     1644.288   -4587.2731 
23573000    245.43552   -6346.4049    -5715.037   -6346.4049            0    6289.2696     23.39436    21.337267    21.777257    10870.591    6350.3865     6927.035    5590.3872   -314.66609    920.49276     297.1459   -4717.9587 
23574000    256.40609   -6364.2667   -5704.6777   -6364.2667            0    4494.3168    23.382657    21.569012     21.56835    10877.799    4319.1453    3801.0104    5362.7948    484.13606   -202.77294   -41.909493   -4991.6923 
23575000    250.68931   -6341.3138   -5696.4308   -6341.3138            0    6285.1968    23.372541    21.546879    21.561358    10858.414    5727.0775    6213.3638    6915.1491    331.36347   -443.65711    -1295.645   -4701.1144 
23576000    246.98891   -6331.8218   -5696.4579   -6331.8218            0    6883.8489    23.336357    21.337517    21.772319    10841.306    6860.0294    7549.6259    6241.8912    1123.5819    122.38878   -794.84907   -4608.0572 
23577000    249.03589   -6349.4488   -5708.8192   -6349.4488            0    8067.7526    23.225514    21.435467    21.640328    10773.632    7944.5146    7679.0125    8579.7308    413.27058    475.71216   -1158.3527   -4441.1948 
23578000    250.52674   -6287.4499   -5642.9851   -6287.4499            0    7269.1327    23.470432     21.46298    21.443303    10801.966    6572.7818    6521.2138    8713.4025    646.70874      88.4347    578.00808    -4497.838 
23579000    256.69202   -6369.4381   -5709.1136   -6369.4381            0    7752.3722    23.397858    21.221485    21.583646    10717.085    7182.4643    9525.7501    6548.9022   -158.42286    619.39867    81.983765   -4497.4357 
23580000    255.20617   -6312.4708   -5655.9684   -6312.4708            0    7975.6405    23.116607    21.496478    21.782582    10824.323    8965.0285    7556.4424    7405.4507    1330.1451   -806.68917    253.36469   -4396.9206 
23581000    245.69045   -6340.6133   -5708.5896   -6340.6133            0    6445.0801    23.457382     21.39301     21.55653    10817.584    5627.6573    7445.9669    6261.6161    1502.5864    701.08783   -5.1397447   -4691.7921 
23582000     258.0185   -6375.3824   -5711.6455   -6375.3824            0    6109.3594    23.489796    21.378039    21.570522    10831.978    4748.0088     7998.944    5581.1254  -0.36395896   -257.04768   -2225.6694     -4746.53 
23583000    250.79703   -6343.6156   -5698.4556   -6343.6156            0    5761.9996    23.237839    21.493075    21.728764    10852.488    7874.6949     5833.708     3577.596   -2.2681591   -1503.7404    -318.7195     -4786.49 
23584000    252.69579   -6292.6254   -5642.5809   -6292.6254            0    7274.2318    23.381708    21.475969    21.632011    10862.403    7633.7878    6586.4246     7602.483     146.1376   -1846.6409   -144.55848   -4490.2189 
23585000     245.0069   -6333.2622   -5702.9968   -6333.2622            0    6921.1862    23.350289    21.450986    21.566448    10802.348    6746.3888    6693.6009    7323.5689    -55.11072   -603.21024    341.76391   -4612.6251 
23586000    243.11682   -6339.2192    -5713.816   -6339.2192            0    6226.8796    23.323192    21.451194    21.700241    10856.855    6651.8483    6714.7732    5314.0171   -132.53303   -245.81192   -192.81477   -4727.8763 
23587000    240.04698   -6338.3719   -5720.8657   -6338.3719            0    7105.3249    23.195993    21.464421    21.739875    10824.035    7125.7255    7839.3149    6350.9342   -337.14652   -1296.2907   -1440.9105   -4599.2373 
23588000    263.71865   -6360.3164   -5681.9163   -6360.3164            0    6730.5843    23.376918     21.41905    21.646726    10838.762    7543.5566     5730.433    6917.7633    50.051569   -683.57317   -295.64836   -4617.9979 
23589000    239.78677   -6352.9682   -5736.1313   -6352.9682            0    6508.3126    23.235658    21.383406     21.69395    10778.802    5681.6103     5843.999    7999.3285    880.45046    511.22208    1044.2952    -4713.039 
23590000    249.59509   -6349.8458   -5707.7776   -6349.8458            0    7393.3695    23.383905    21.259369    21.676855    10776.152    7725.5963    7397.6051    7056.9071    144.00963    845.15178   -474.99959   -4545.8421 
23591000    245.23507   -6358.2699   -5727.4177   -6358.2699            0    7512.8837     23.29991    21.381279    21.704632    10812.854    7588.3563    8168.1942    6782.1007   -610.63066    748.19834   -1260.7342   -4542.6781 
23592000    256.07466   -6345.8186   -5687.0822   -6345.8186            0    7582.3687    23.281905    21.552886    21.452812    10764.854    7398.4699    6340.9744    9007.6618   -731.68744      370.034    31.567746    -4496.693 
23593000    242.03461   -6321.9858   -5699.3665   -6321.9858            0    5153.8269    23.385747    21.402402     21.80819    10915.243    5132.0492    5914.7573    4414.6743   -1051.9287   -363.75701     191.0437   -4878.9411 
23594000    251.34963   -6337.9092   -5691.3276   -6337.9092            0     4816.018    23.252468    21.557108    21.762122    10908.394    5038.2293    4655.9704    4753.8544    -120.4586    635.15518    614.61647   -4925.1582 
23595000    236.69237   -6355.2359   -5746.3592   -6355.2359            0    5706.1201    23.235441    21.602494    21.654041    10869.104    6520.7538    4019.4972    6578.1092   -441.23226   -81.748455    1002.4479    -4841.855 
23596000    252.49414   -6320.6631   -5671.1373   -6320.6631            0       6457.2    23.447037    21.361671    21.709159     10873.42    5908.1832    6985.3726    6478.0443    219.39501    377.01178    651.04504   -4647.1694 
23597000    240.00371    -6323.348   -5705.9531    -6323.348            0    7461.5748    23.269158    21.439997    21.679589    10815.745    6743.5656    6980.2522    8660.9066   -1012.0285    1328.5984   -25.141905     -4528.99 
23598000    246.68649   -6367.5691   -5732.9831   -6367.5691            0    7616.8446    23.061515    21.500398    21.686694    10752.952    9387.7224    5958.6486    7504.1627   -91.069807     215.1398   -82.733602   -4538.5036 
23599000    251.29206   -6333.8231   -5687.3896   -6333.8231            0    7257.4622    23.320003    21.380071    21.741719    10840.058    7646.8562    6570.1329    7555.3975   -173.54082    734.35253    464.11623   -4540.0491 
23600000    245.79646    -6342.075   -5709.7785    -6342.075            0     6561.857    23.418875    21.391433    21.570429    10805.993    5525.2448    7446.8445    6713.4817      -775.66     630.3234   -399.79873   -4675.6671 
23601000    244.31788    -6350.629   -5722.1362    -6350.629            0    7161.4077    23.251442    21.346854    21.730474    10785.815    6752.6781    8539.8844    6191.6605    1657.2653    67.872378   -1360.3986   -4595.6464 
23602000     249.0384    -6339.069   -5698.4329    -6339.069            0    6113.5224     23.39658    21.263018    21.850443      10870.2    5388.7536    6375.1358    6576.6779    589.25826    898.14069    667.43977   -4729.2518 
23603000    246.72023   -6291.4112   -5656.7384   -6291.4112            0     7636.741     23.17722    21.514137    21.680738    10810.837    6015.7101    8691.9843    8202.5287    833.26732     347.9264    480.10973   -4452.6919 
23604000    250.74789   -6328.4684   -5683.4347   -6328.4684            0    7581.5775    23.228075    21.496964    21.624269    10797.713    5892.8368    10001.088    6850.8081    520.29454     565.5106   -465.31831   -4489.5366 
23605000    259.83539   -6344.1079   -5675.6972   -6344.1079            0    5821.5342    23.409503    21.460136    21.611603    10857.045    6870.3059    5146.4204    5447.8763   -1954.2396   -491.54063    186.73749   -4753.9221 
23606000    238.26146   -6318.3529   -5705.4398   -6318.3529            0    7724.1863    23.138598    21.475951    21.747669    10806.926    8134.3684    8557.9698    6480.2208     814.5892   -1257.2398   -1250.3711   -4488.0468 
23607000    251.43852   -6346.0173   -5699.2071   -6346.0173            0    7961.9536    23.374821    21.448128      21.4926    10775.232    7290.1669    7989.1111    8606.5826   -157.47974    761.22075   -302.27714   -4448.0202 
23608000    246.65849   -6332.3816   -5697.8676   -6332.3816            0    7843.6795     23.38135    21.269648    21.638054    10760.887    9833.9074    8218.6296    5478.5013   -967.25148   -792.98208   -396.89512    -4466.908 
23609000    240.27904   -6330.1289   -5712.0257   -6330.1289            0    6717.3607    23.325653    21.439324    21.631229     10817.48     7673.403    4667.6312     7811.048     650.7359   -220.98463    888.87629   -4652.2825 
23610000    245.52403   -6333.2666    -5701.671   -6333.2666            0    6453.8221     23.31604    21.572027    21.553717    10840.964     6777.468    5871.1405    6712.8578    246.35032   -637.00398    17.779577   -4681.2936 
23611000    247.54931   -6322.8754   -5686.0699   -6322.8754            0    6030.4606    23.460442    21.409565     21.63888     10868.73    4514.7979    6916.5764    6660.0074     1391.207    790.08926   -1252.3895   -4730.1859 
23612000    256.90042   -6348.3707   -5687.5101   -6348.3707            0    6635.1314     23.21505    21.512016    21.727855    10850.946    7735.5333    6386.3174    5783.5434   -489.38448    20.263658     -808.333   -4637.5011 
23613000    248.93102   -6333.5166   -5693.1567   -6333.5166            0    6864.2557    23.237763    21.399008    21.731778    10806.454    6564.4275    7095.1739    6933.1656   -356.23297    1318.4346    498.21211   -4611.3428 
23614000    248.79497   -6323.0576   -5683.0477   -6323.0576            0    6570.9757    23.443634    21.386056    21.583901    10821.453    5475.8429    7820.6638    6416.4204   -688.39742    1356.7128    564.91805   -4646.0177 
23615000    249.72015   -6319.3433   -5676.9534   -6319.3433            0    7419.6885    23.280095    21.625514    21.491926    10819.982    6133.6384    8026.0675    8099.3597    648.93267    152.87233   -590.38195   -4506.1389 
23616000    237.86535   -6342.4981    -5730.604   -6342.4981            0    7036.1903    23.269139    21.426641    21.679948    10809.178    6747.8992    7785.4843    6575.1873   -34.869927    -227.5884    -189.4256   -4621.4135 
23617000    232.36352   -6353.8198   -5756.0788   -6353.8198            0    6282.8266    23.549407    21.243361    21.710988    10861.325    6478.3192    6031.6062    6338.5544    479.42534   -1789.8035      631.464    -4760.871 
23618000    242.48967   -6344.6646   -5720.8747   -6344.6646            0    6819.3558    23.173294    21.567913    21.634842    10813.085    7643.6029    5968.1337    6846.3308    809.47963   -283.51022    1214.1579   -4645.4776 
23619000    254.19653   -6352.6891    -5698.784   -6352.6891            0    7683.4006    23.276435    21.458305    21.600028    10788.627    6677.4429    8207.5707    8165.1881   -224.14052    1191.6324    375.43536   -4489.8697 
23620000     246.3312   -6329.8075   -5696.1355   -6329.8075            0    6924.8744    23.524433    21.227832    21.619789    10796.333     6379.997    8083.8239    6310.8021   -939.46649   -187.05395   -240.11186   -4605.7902 
23621000    245.19965   -6328.3182    -5697.557   -6328.3182            0    7005.0458    23.164504    21.587609    21.618969    10810.917    7487.8204    5997.0108    7530.3061    -119.2959    34.461959   -8.1435375   -4593.0985 
23622000    255.21468   -6309.9742   -5653.4499   -6309.9742            0    6768.6906    23.430844     21.33779    21.714929    10856.649    8242.0376    7436.1004    4627.9338    232.41147   -519.07654   -896.18099   -4581.7423 
23623000     245.5519   -6339.6876   -5708.0203   -6339.6876            0    6527.2539    23.416505    21.297531    21.783477    10863.719     5459.301    7056.2746     7066.186    272.76597    1120.6922      866.389    -4673.867 
23624000    257.54502   -6344.7272   -5682.2084   -6344.7272            0    6612.9306    23.197902     21.61077    21.534171    10795.608    6152.9913     5689.896    7995.9046     462.3336      939.963    602.03674   -4641.0496 
23625000    256.27946   -6316.7246   -5657.4613   -6316.7246            0    7962.2189    23.329524    21.283406    21.680798    10765.204    7665.6732    8801.7216    7419.2619   -862.41267    687.08565   -1209.8092   -4407.3972 
23626000    259.13929   -6352.0392   -5685.4192   -6352.0392            0     9121.962    23.237168    21.282648    21.615931    10690.125    8643.0509    10312.665    8410.1696    316.70928     829.5125    130.94916   -4263.2641 
23627000    252.98804   -6346.5448   -5695.7485   -6346.5448            0    7499.6967    23.177987    21.477286    21.656582    10780.652    7485.6439    6946.5676    8066.8787    964.07137    572.44069   -394.00046   -4516.6106 
23628000    255.73539   -6349.5882   -5691.7245   -6349.5882            0     7434.537    23.460337    21.370525    21.549705    10804.154     5906.001     7845.095    8552.5151    462.43705   -501.46747    333.65998    -4520.283 
23629000    248.14879   -6286.3995   -5648.0518   -6286.3995            0    6118.9766    23.386361    21.379291    21.761625     10880.46     6431.013     5981.423    5944.4939   -484.17531    1154.2171    580.01577   -4677.0905 
23630000    236.02881   -6354.4118   -5747.2421   -6354.4118            0    5387.5874    23.096665    21.567453    21.860243    10889.379    6346.8074    4876.0628    4939.8919    152.62188   -700.32535    64.778366   -4891.6371 
23631000     235.4828     -6341.48   -5735.7148     -6341.48            0    7202.3027    23.427453    21.236166    21.739456    10815.581    6803.4967    6880.9351    7922.4763   -401.20631     627.7858    158.71102   -4599.6657 
23632000    246.37138   -6292.0139   -5658.2385   -6292.0139            0    5573.1876    23.403079    21.575908    21.636927    10925.408    4210.3896    6890.8251     5618.348    245.05945    521.92983   -24.984729   -4770.2298 
23633000    245.13442   -6317.6814    -5687.088   -6317.6814            0     4885.283    23.318453    21.642031     21.74209    10972.334    4868.8572    4231.0274    5555.9644    1132.3446    1564.2382   -286.25363   -4905.3439 
23634000     235.1906   -6342.7806   -5737.7672   -6342.7806            0    5954.0825    23.499071    21.234015    21.763959    10859.772    5575.2121    7222.7987    5064.2368     1013.677    227.70505    254.19159   -4794.7677 
23635000    241.43544   -6355.4046   -5734.3267   -6355.4046            0    6715.0609    23.194641    21.450645    21.718189    10805.668    6454.6236    7278.3003    6412.2588    616.98107     447.7153   -388.53201    -4676.103 
23636000    254.11351   -6325.9324   -5672.2409   -6325.9324            0    6853.1924    23.336006    21.508831    21.540756    10811.956    7336.4326    5421.4033    7801.7413    754.94647   -1588.8036    586.87065   -4591.6206 
23637000    243.47762   -6326.3216   -5699.9903   -6326.3216            0    8482.8308    23.499254    21.170528    21.611095    10751.339    7450.1621    9952.3842    8045.9462     134.2789   -874.08646    274.53194   -4369.9058 
23638000    245.91129   -6355.7479   -5723.1561   -6355.7479            0    8275.5637    23.182944    21.549814     21.56501    10773.623    9261.9479    7040.9222    8523.8208    409.51779    56.360251   -1097.9951    -4422.881 
23639000    246.09778   -6338.4778   -5705.4063   -6338.4778            0    8038.8096    23.394969    21.384493    21.486635    10749.539    6676.4969    8408.5302    9031.4018    495.00262   -781.41636    660.94841   -4445.1541 
23640000    247.54193   -6324.3824   -5687.5958   -6324.3824            0    7717.5509    23.403895    21.266303    21.677922    10789.413    7319.6823    8471.3378    7361.6325   -1124.6905    439.13619    457.60375   -4473.2198 
23641000    253.34884   -6373.8082   -5722.0837   -6373.8082            0    5888.8754    23.133476     21.53108    21.785578    10851.151    6571.2907    5279.2646    5816.0711   -979.84844    1078.5447    158.90576   -4790.1521 
23642000    253.85706   -6350.1078    -5697.076   -6350.1078            0    7349.1256    23.328889    21.360715    21.639007    10783.188    7060.3703    8447.1789    6539.8274    203.21178    598.99648   -64.089243   -4541.3398 
23643000    255.03317   -6342.4231   -5686.3658   -6342.4231            0    6638.8682    23.496307    21.204946     21.68903    10806.297    5950.3704    6057.1855    7909.0487    698.14415    912.42577    1391.0463   -4640.0884 
23644000    245.41517   -6330.5765    -5699.261   -6330.5765            0    7984.6574    23.095679    21.505404    21.770924    10813.224    8930.8495    7766.1442    7256.9785   -790.32331    1117.2159   -306.57156   -4440.0822 
23645000    259.53232   -6322.7162   -5655.0851   -6322.7162            0    7145.8282    23.428926      21.3012    21.704786    10832.082    6407.0633    7936.4343    7093.9871   -866.08053    707.56864     138.5949   -4526.2243 
23646000    251.66418   -6352.1852   -5704.7944   -6352.1852            0    8266.5481    23.358194    21.383848    21.553389    10765.661    7398.3079    6555.0629    10846.274   -396.27764    551.78286    520.52428   -4406.8958 
23647000     249.3658   -6362.9618   -5721.4834   -6362.9618            0    5438.8429    23.177633     21.60028    21.674219    10851.054    4997.6585    5419.7154    5899.1547     1.998407    178.92674     1001.178   -4860.7785 
23648000     240.6221    -6344.082   -5725.0963    -6344.082            0    6601.7461      23.3663    21.246584    21.790517    10817.991    6902.3423    7319.9983    5582.8977   -14.104517   -697.86592    323.44153   -4683.5434 
23649000    250.44971   -6307.3321   -5663.0655   -6307.3321            0    6633.2468    23.382833    21.416813    21.701897    10868.001    5770.3982    7741.0563     6388.286    764.89357    903.15111   -68.224231   -4611.7049 
23650000    244.20022   -6346.7928   -5718.6026   -6346.7928            0    4631.5237    23.264805    21.677378     21.65059    10918.825    5303.1659    3954.8594    4636.5459   -2107.8304    477.25914    -1048.944   -4981.0794 
23651000     254.1121    -6323.334   -5669.6461    -6323.334            0    5216.4808    23.575137    21.425961    21.610129    10915.707    4648.3665    4366.6486    6634.4271   -930.28972   -1221.2752   -1092.1855   -4839.2116 
23652000    236.11778    -6333.502   -5726.1034    -6333.502            0     7729.748    23.172473    21.501122    21.705314    10814.329    9167.9423    6005.0638    8016.2379   -1134.5654    -271.6096    1371.8191   -4506.9993 
23653000    267.91944   -6356.5125   -5667.3061   -6356.5125            0    5949.0077    23.323018    21.435974    21.667932    10832.917    5936.2486    6939.0927    4971.6819    841.86251   -366.44589   -62.145266   -4727.4403 
23654000    245.26473   -6323.5687   -5692.6402   -6323.5687            0    7592.4936     23.41681    21.292457     21.64765    10793.549    6217.4078    8880.9956    7679.0776    362.66755    87.113026    642.82057   -4497.4842 
23655000    241.60603   -6344.2922   -5722.7755   -6344.2922            0    6148.5839     23.29086    21.589541    21.546269    10834.303     5849.176    6615.9636    5980.6123    171.98304    302.48093   -845.23674   -4751.2549 
23656000    240.29326   -6367.4016   -5749.2619   -6367.4016            0    6321.2595    23.375633     21.46829    21.581346    10830.272    6490.2037    5506.9125    6966.6623    716.24935    170.00687    428.41527    -4750.829 
23657000    234.37019   -6320.8195   -5717.9165   -6320.8195            0     6061.057    23.335974    21.241777    21.961931    10886.476    6216.6272    6832.4913    5134.0526    1676.2793   -1984.2773    341.75399   -4755.6141 
23658000    246.96874   -6354.4588   -5719.1468   -6354.4588            0    5808.0736    23.311425    21.638952    21.538594    10864.816    6210.1557     3729.034    7485.0309    341.42565    558.90134   -135.13441   -4798.8448 
23659000    246.63392   -6327.7322   -5693.2815   -6327.7322            0    7576.3083     23.51711    21.310941    21.498947    10774.665    7756.9333    7153.9737     7818.018   -76.587294    539.08519    27.549272   -4502.7598 
23660000    246.92939   -6338.2418    -5703.031   -6338.2418            0    7632.9519    23.162934    21.392464     21.77618    10790.363    7937.4577    6954.8649     8006.533   -728.42999   -1054.0478   -45.174088    -4501.861 
23661000    245.12846   -6355.8532   -5725.2752   -6355.8532            0    7388.0705    23.153043    21.533041    21.667699    10802.549    7737.4014     7217.998    7208.8123    709.58504   -4.9813986    516.60052   -4561.3284 
23662000    247.00776   -6329.1488   -5693.7364   -6329.1488            0    6091.5854    23.536697    21.328425    21.679231    10882.989    5620.0207    6336.6575    6318.0782   -669.49898    799.79171    664.33428   -4726.8968 
23663000    249.42351   -6333.6329   -5692.0061   -6333.6329            0    6765.9416    23.163526    21.712546    21.538034     10832.32    7785.3466    6907.4726    5605.0056   -1437.9484    116.95737   -1320.1544   -4623.1343 
23664000    248.14905   -6357.1841   -5718.8358   -6357.1841            0    7137.3113    23.308629    21.406928    21.687073    10821.115    8854.1852    6359.9887      6197.76   -1108.1466   -1167.9613   -120.32859   -4592.4619 
23665000    250.01774   -6335.8765   -5692.7211   -6335.8765            0    7070.8353    23.353462    21.331427    21.660512    10790.459    6440.5595    7186.5999    7585.3465    688.20138   -99.332015    624.52302   -4579.9995 
23666000    257.91375   -6330.8711   -5667.4037   -6330.8711            0    6192.5948    23.126648    21.603015    21.677081    10829.985    6829.2932    5309.1027    6439.3886   -334.58585    968.88625   -294.74369   -4689.3192 
23667000    239.75481   -6329.1574   -5712.4027   -6329.1574            0    6017.7603    23.668274    21.172965    21.675659     10862.27    4724.1755    5616.4608    7712.6448   -362.10047     50.16312    344.28636   -4759.0989 
23668000    254.29193   -6318.0377   -5663.8872   -6318.0377            0    5982.8524    23.371066    21.593368     21.52995    10865.305    5918.9644    5148.5126    6881.0801    791.27015    194.79512   -64.437503   -4715.8484 
23669000    261.67656   -6318.8175   -5645.6705   -6318.8175            0    7491.5121    23.317035    21.447947    21.731757    10868.107    7615.7537    8582.9603    6275.8222    852.61509    14.157054    583.30739   -4458.2644 
23670000    250.00357   -6343.9483   -5700.8294   -6343.9483            0    6675.4026    23.329856    21.300858    21.799408    10833.128    7370.2433    7888.4526     4767.512   -1101.2836   -704.69168   -1038.2713   -4646.1821 
23671000    250.03849   -6332.7445   -5689.5357   -6332.7445            0    6937.6664     23.21528    21.565622    21.565906    10797.013     6304.397    6211.1148    8297.4873   -93.228653    1056.7301    1550.4052   -4597.1075 
23672000    248.01998   -6327.8874   -5689.8711   -6327.8874            0    7409.7602    23.291341    21.361792    21.683687    10788.605    7275.9661    7931.2215    7022.0929   -489.42486    -1186.165   -577.47725   -4524.0139 
23673000    249.12389   -6350.4688   -5709.6128   -6350.4688            0    8546.5142    23.221092     21.48986    21.585313     10771.46    9031.7504    8948.3851    7659.4071   -1578.8469   -442.97863   -604.46748   -4367.0349 
23674000    241.94416   -6333.7799   -5711.3933   -6333.7799            0    6352.9123    23.301372    21.584955    21.553175    10840.364    6242.2143    6462.7553    6353.7673   -1581.4328   -236.77278   -838.19233   -4707.0258 
23675000    246.49625   -6327.7056   -5693.6091   -6327.7056            0    6228.6013    23.248118    21.291192     21.93666    10858.211    6709.6324    6770.9374    5205.2342   -468.40167   -456.84531    21.766821   -4707.2735 
23676000    243.79403   -6351.2757   -5724.1304   -6351.2757            0    7751.6042    23.233372    21.382583    21.683986    10772.376    7216.8124      8910.52    7127.4802   -503.26274    472.58252    -803.9816   -4506.3219 
23677000    250.60188   -6305.8436   -5661.1855   -6305.8436            0    7166.4963    23.273366    21.433238    21.718509    10833.705    6213.6094    7744.4534    7541.4263   -952.30429    2386.4415   -1027.3426     -4528.89 
23678000    257.01307   -6340.6397   -5679.4892   -6340.6397            0    7009.1722    23.461278     21.34877    21.569069    10803.288    5497.4261    7774.9743    7755.1163    132.73832    552.75753   -630.50212     -4575.16 
23679000    244.24293   -6324.7046   -5696.4046   -6324.7046            0    6517.1607    23.267979    21.441546    21.721488    10836.882    7581.4606    6933.2121    5036.8095   -1768.3535   -1320.1173   -165.05737   -4666.4012 
23680000    248.69398   -6326.2073   -5686.4572   -6326.2073            0    6566.0292    23.234377    21.490175    21.710216    10840.146     7400.682    6852.2827     5445.123    140.02408   -513.70265   -574.42112   -4648.4178 
23681000    245.74011   -6337.5903   -5705.4388   -6337.5903            0    5970.4777    23.418462    21.360662      21.6824    10846.271    5368.1574    7312.9112    5230.3644     -200.625    832.12865    -348.8877   -4761.0183 
23682000    248.69807   -6316.6945   -5676.9338   -6316.6945            0    7442.8984    23.173002    21.387907    21.805439    10807.255    7140.9345    8039.4435    7148.3172    -394.3293    1307.2877   -537.50883   -4503.8383 
23683000    244.99733   -6346.8122   -5716.5715   -6346.8122            0    6910.8041    23.230964    21.405965    21.692643    10787.343    7399.8779    7666.4164     5666.118   -1115.7936    884.60879   -662.85926   -4629.3477 
23684000    253.88556   -6368.0908   -5714.9856   -6368.0908            0    6958.3601    23.318415    21.418985    21.666563    10821.512    6866.3839    7045.1863    6963.5103   -333.14342    49.971473    84.077892   -4616.8127 
23685000    253.64472   -6326.7872   -5674.3016   -6326.7872            0    6272.8168    23.365824    21.349372    21.715321    10832.594    6622.9917    5751.0967     6444.362   -1020.1633    831.07524     581.3824   -4683.3078 
23686000    244.62896   -6297.3648   -5668.0717   -6297.3648            0    6905.7454    23.281925    21.416387    21.750547    10845.143    8037.8743    4970.5363    7708.8257    184.76495     456.6626    1502.5946   -4575.8225 
23687000    244.68972   -6363.4096   -5733.9602   -6363.4096            0    6260.6305    23.275901    21.447656    21.698752     10832.31    6217.1936    6033.3124    6531.3855    76.456246    60.645175    798.96358   -4744.9174 
23688000    257.70882   -6326.6416   -5663.7014   -6326.6416            0    7035.0227    23.419324    21.398201    21.514591    10781.637    7034.6465    7205.5341    6864.8875   -696.20695     -495.562   -1915.9353   -4557.5206 
23689000    242.23637   -6352.1728   -5729.0345   -6352.1728            0    8865.4897    23.147587    21.435034    21.646017    10740.089    9857.9637    9431.4546    7307.0508    532.73621   -731.96558   -943.72239   -4340.4046 
23690000    258.16385   -6296.2773   -5632.1665   -6296.2773            0    7597.7365    23.203196    21.410209    21.711955    10786.179    8196.1544    8893.8837    5703.1715   -1405.6637    771.30111   -29.087738   -4437.0018 
23691000     256.6942   -6322.6953   -5662.3651   -6322.6953            0    7598.8098    23.200441    21.362852    21.798736    10804.055    7946.6689    9068.5265    5781.2342   -1065.9698     851.2003   -1037.6172   -4465.0506 
23692000    245.46802    -6309.166   -5677.7145    -6309.166            0    8180.9882    23.178336    21.401151    21.757301    10792.558    8201.4992    8186.1622    8155.3032   -935.86156    1306.9353    547.69923   -4390.0401 
23693000    244.48772     -6330.01   -5701.0802     -6330.01            0    7231.8951    23.384029    21.494481    21.449573    10781.147    6798.3181    7405.3181    7492.0491   -957.29408    1033.7425    72.753984   -4563.9951 
23694000    247.21353   -6326.3533   -5690.4115   -6326.3533            0    7330.8545    23.457972    21.471829    21.469753    10814.005    8360.1127    7189.0838    6443.3669   -1264.7648    347.67333   -224.69987   -4534.2539 
23695000    259.58646   -6346.3363   -5678.5659   -6346.3363            0    7387.8558    23.237245    21.402232    21.765254     10824.49    8835.8582    7125.5297    6202.1794   -74.942903   -794.46089   -546.67158   -4512.2889 
23696000    248.90751   -6339.3734    -5699.074   -6339.3734            0    8412.7652    23.278049    21.249333    21.737252     10752.18    8319.6992    9285.4916    7633.1048    586.03143    397.34612    464.15973   -4379.8724 
23697000     246.1411    -6323.531    -5690.348    -6323.531            0    5862.5945    23.228764    21.433232    21.812578    10859.774    5841.1796    6013.0621    5733.5417    243.02516    417.84976    979.91825   -4761.8381 
23698000    252.75812   -6331.5388   -5681.3339   -6331.5388            0    5875.5205    23.365132    21.481836    21.696011     10889.79     5198.577      4920.89    7507.0946    633.19288   -617.91427    763.76537   -4748.2048 
23699000    249.10411   -6323.6086   -5682.8035   -6323.6086            0    5119.9175    23.558154    21.462305    21.588709    10915.516     6274.706    3880.3179    5204.7286   -1694.7921   -39.988025   -271.35012   -4867.7556 
23700000    244.68624   -6341.0435   -5711.6031   -6341.0435            0    7653.4301    23.212532    21.463795    21.661801    10792.538    7676.9189    7905.8171    7377.5542    464.27556     259.8171    4.0562482   -4506.9677 
23701000    256.96259   -6351.2598   -5690.2392   -6351.2598            0    6499.0053     23.22374    21.463192    21.683155     10808.09    6477.0316    5701.5499    7318.4344    347.79248   -101.57116    1376.9398   -4665.8341 
23702000    247.92426    -6329.934   -5692.1639    -6329.934            0    6829.0878    23.453689    21.297669    21.699283    10838.985     6832.727    7203.0886    6451.4478    -494.0351   -1275.0696    360.82766   -4612.6526 
23703000    239.49584   -6367.0603   -5750.9719   -6367.0603            0    6296.2634    23.352365    21.603605    21.500174    10846.736    8343.2939    4726.5432     5818.953   -782.80651   -1358.8267   -1642.8637   -4754.9753 
23704000    239.87556   -6327.6888   -5710.6235   -6327.6888            0     6860.595    23.319995    21.388372    21.710057    10828.471    5758.5042    7416.7958    7406.4849    468.96252    36.054958    341.13452   -4627.1836 
23705000     252.1744    -6360.635   -5711.9317    -6360.635            0    6806.2715    23.388805    21.182701    21.771082    10786.223    6951.5926    8216.4206    5250.8012    1048.1468    59.328452   -897.85097   -4641.2644 
23706000    243.40507   -6350.2817    -5724.137   -6350.2817            0    7856.8304    23.246921    21.416977    21.605266    10756.803    8290.4223     7635.228    7644.8409    903.26618    179.58765    1298.7581   -4491.5815 
23707000     248.9061   -6351.2736   -5710.9778   -6351.2736            0    9143.7885    23.300534    21.404123    21.477733    10711.536    9203.8727    9168.5802    9058.9126   -1380.0882    535.61982   -1092.5229   -4282.5647 
23708000    247.29198    -6326.507   -5690.3634    -6326.507            0    6130.6804    23.494333    21.373487    21.587099    10840.087    5285.2642    7443.5902    5663.1868    1137.1525    470.23774   -671.81879   -4721.1546 
23709000    254.69213   -6340.9338   -5685.7538   -6340.9338            0    5696.0508    23.275964     21.59956    21.647395     10883.24    4448.1149    7412.4126    5227.6249    1830.7191    618.72853   -1262.3586   -4781.6715 
23710000    248.96326   -6337.5854   -5697.1425   -6337.5854            0    6961.9061    23.290642    21.417146    21.673002    10810.907    6907.2068    6474.9799    7503.5316    767.83303    1136.4635    713.47909   -4599.4868 
23711000    246.80228    -6311.029   -5676.1452    -6311.029            0    6950.8726    23.396977    21.349578    21.682547     10830.77    6990.0107    7071.1968    6791.4102    514.71322   -95.172425    639.24329   -4578.2155 
23712000     247.3122    -6354.369   -5718.1734    -6354.369            0    6653.0905     23.26936    21.522454    21.581708    10808.416    6457.3953    7427.6527    6074.2235   -179.22345     127.3618   -2159.4773   -4669.4491 
23713000    247.27175   -6346.9512   -5710.8597   -6346.9512            0    7644.7138    23.283619    21.537438    21.551318    10807.329    9065.5239    5758.2067    8110.4107   -1706.5789    244.68843   -308.09718   -4505.9473 
23714000    240.64907   -6310.6959   -5691.6408   -6310.6959            0    8381.5911    23.428818    21.370922    21.512623    10771.272    7493.2866    9110.0616    8541.4252    766.99007     -749.282    -401.1847   -4374.9937 
23715000    250.02405   -6381.3331   -5738.1614   -6381.3331            0    7596.8561    23.237625     21.35868    21.678271    10759.468    7547.0779    7525.4133    7718.0769    789.33631    264.29473    997.73115   -4546.0947 
23716000    251.70578   -6341.2216   -5693.7238   -6341.2216            0    8432.3613    23.170103    21.389455    21.671927    10740.518    8342.1094    9540.1145      7414.86    1114.9765   -418.14169    1104.4357   -4372.8835 
23717000    253.67831    -6341.784    -5689.212    -6341.784            0    8003.0284    23.373921    21.310463    21.608866    10763.572    7580.3126     8485.519    7943.2535    903.38553   -2173.5873   -607.88004   -4432.9313 
23718000    252.90683   -6322.5837   -5671.9963   -6322.5837            0    7609.4065    23.279365     21.45637    21.647584    10812.766    8174.3385     7089.576    7564.3051    554.10785   -56.029135    932.11564   -4472.0454 
23719000    252.74409   -6344.8856   -5694.7169   -6344.8856            0    7912.2038    23.412009    21.410531    21.481115      10767.7    6112.3465    8043.5024    9580.7625    819.74268    639.16137     519.9171   -4452.2171 
23720000    242.05535   -6363.6577   -5740.9851   -6363.6577            0    6579.9675    23.334967     21.19108    21.926585    10842.546    5936.6372    8507.4791    5295.7862    821.29994    61.466928   -349.41067   -4700.5119 
23721000    247.76379   -6353.5925   -5716.2353   -6353.5925            0    6210.0358    23.268143    21.506283    21.665481    10841.651    5226.0121    7458.8799    5945.2155    594.05294    728.26778     -761.786   -4734.3394 
23722000    262.84398   -6388.2347   -5712.0845   -6388.2347            0    6794.2592    23.468716    21.286991    21.563721    10772.768    7211.2657    6654.8735    6516.6383    298.70258    797.51722   -198.26964   -4644.6401 
23723000    245.14981   -6347.0301   -5716.3971   -6347.0301            0    7148.1859    23.291124     21.36075    21.682533    10787.404    6625.5866    7549.5041    7269.4672   -73.290901    706.82523    960.14661   -4591.8214 
23724000    258.30647   -6326.1243   -5661.6466   -6326.1243            0      7750.35     23.06667    21.443166    21.805221    10785.352    9919.0594    6764.5958    6567.3947   -139.68447    425.62668   -1207.4647   -4442.5686 
23725000     243.3308   -6336.5968   -5710.6432   -6336.5968            0    7209.2352      23.7655    21.133418      21.5569    10826.872    4456.9035    8792.6507    8378.1514   -1141.0686   -509.32266   -129.52474   -4572.3135 
23726000    232.77259   -6302.4608   -5703.6675   -6302.4608            0    5501.0205    23.273595    21.727928    21.555387    10900.279    5844.8412    5362.2489    5295.9713   -62.110423     128.2981   -588.68854   -4829.1736 
23727000    255.71609   -6304.8036   -5646.9895   -6304.8036            0    5887.1198    23.257227    21.451615    21.795847    10874.059      6276.03    5876.4233    5508.9062    -78.58422   -233.27406    256.31346   -4713.3689 
23728000    250.80388   -6301.4544   -5656.2767   -6301.4544            0    6726.5583    23.366445    21.392524    21.716253    10855.244    6522.1691    8206.4374    5451.0684   -786.17837    1086.7145     1005.329   -4591.3778 
23729000    253.03897   -6331.6367   -5680.7093   -6331.6367            0    6293.8227    23.273888    21.621201    21.573112    10855.793    5907.9788      6240.85    6732.6393    442.39029    294.10007    393.79732   -4684.2675 
23730000    252.02888   -6317.8899    -5669.561   -6317.8899            0    5514.3154    23.463963    21.430796    21.714692    10919.263    4034.1855    5868.2045    6640.5562   -29.320007   -958.55847    503.41557   -4791.4269 
23731000    255.73673   -6328.7059   -5670.8388   -6328.7059            0    6413.5766    23.267087    21.530212    21.688986    10864.996    7101.1347    5975.2038    6164.3912   -833.72807   -933.86178   -160.12207   -4654.5767 
23732000    254.94036   -6341.7078   -5685.8893   -6341.7078            0    7285.9418    23.269686    21.425005    21.665341    10801.324    7809.9349    8541.0835     5506.807    174.36578   -157.71835    -1566.061   -4538.1623 
23733000    250.20751   -6349.3819   -5705.7383   -6349.3819            0    8303.7874    23.419264    21.319881    21.443193    10706.499    6645.4099    8568.5768    9697.3755    707.20012      1316.83    703.58855   -4409.1575 
23734000    243.67884   -6314.8289   -5687.9799   -6314.8289            0    8301.4011    23.234801    21.419263    21.659021    10779.095    8911.2639    7932.2731    8060.6663    711.79505     1336.705   -101.38704   -4382.9827 
23735000     254.2029   -6354.2941   -5700.3726   -6354.2941            0    7852.3777    23.267212    21.255534    21.727878    10745.675    7526.7119    7070.9067    8959.5145    758.52474    1154.6949    228.86184     -4469.79 
23736000    242.21971   -6318.6246   -5695.5291   -6318.6246            0     7675.271    23.480533    21.310739    21.563633    10790.173    7633.4384    7011.4143    8380.9605   -968.87903    274.50224     1237.584   -4487.7208 
23737000    250.52319   -6354.2077    -5709.752   -6354.2077            0    8154.7342    23.256385    21.533202     21.49145    10762.584    6874.9227    7616.0112    9973.2687   -125.04495   -294.08738   -217.42983   -4429.7748 
23738000    257.30332   -6325.8147   -5663.9175   -6325.8147            0    6796.8883    23.225302    21.392917    21.786319    10824.684    7588.7823    7363.6392    5438.2435   -381.28835    456.71534   -315.06021   -4590.9138 
23739000    238.57084   -6319.6541   -5705.9452   -6319.6541            0    7446.2353    23.393614    21.294905    21.698367    10809.362    7339.1186    7222.3676    7777.2196   -516.71053   -1603.1423    180.43633   -4532.0949 
23740000    265.09301   -6356.2981   -5674.3625   -6356.2981            0    7866.1424    23.134969    21.681557    21.439909    10754.305     7436.453    6735.2889    9426.6852    196.75129    300.50814    160.11821   -4440.6328 
23741000    245.79311   -6340.7653   -5708.4776   -6340.7653            0    7755.8371    23.335942    21.261777     21.71796    10775.661    7978.4753    8475.6717    6813.3644    159.60989    406.16857    238.97598   -4489.6325 
23742000    244.42552   -6332.6237   -5703.8539   -6332.6237            0    6777.1248    23.446704     21.29696     21.66253    10817.044    5664.3143    7678.5932    6988.4667   -632.87951    386.54858    673.97653   -4634.7253 
23743000    249.06589   -6324.7359    -5684.029   -6324.7359            0    6495.8315    23.233912    21.599298    21.606649    10842.999       6701.6    7531.6971    5254.1974    -777.5899    447.44739   -1834.3642   -4656.8172 
23744000    250.57529   -6344.4076   -5699.8179   -6344.4076            0    6976.9154    23.451116    21.293593    21.686973    10829.575    6598.7264    7890.9811    6441.0386    1251.4227   -887.71711    22.576948   -4597.8962 
23745000    256.31957   -6307.8335    -5648.467   -6307.8335            0    6779.8023    23.414046    21.302101    21.770645     10858.51    5833.8997    8133.7271    6371.7801    773.08315   -167.04748    1691.0487    -4574.816 
23746000    248.26424   -6349.9565   -5711.3118   -6349.9565            0    5424.3788    23.240052    21.633675    21.593753    10856.642    6399.9377    4037.6718    5835.5268    -301.6449    363.28983    808.80371   -4852.4537 
23747000    244.42072    -6331.151   -5702.3936    -6331.151            0    6522.0013    23.365792    21.285902    21.823251    10854.055    5807.1065     7757.671    6001.2263    -169.1934    -727.8023   -260.29479   -4669.9917 
23748000    244.79069   -6313.8203   -5684.1112   -6313.8203            0    6869.5467    23.286425    21.406603      21.7069    10820.527    7904.3617    5710.0302    6994.2482    382.98432   -325.03017   -340.30505   -4600.0536 
23749000    250.78577    -6353.197   -5708.0659    -6353.197            0    7680.7741    23.181884    21.538489    21.564482    10767.205    7711.3721    6656.2123    8674.7378   -361.73126     60.06074   -778.53044   -4501.9643 
23750000    259.85759   -6304.4939   -5636.0261   -6304.4939            0     7206.091    23.485055    21.242142    21.721192    10836.113    5999.9159     8719.856    6898.5011    857.93348    631.76435   -178.27888   -4497.2216 
Loop time of 674.157 on 64 procs for 250000 steps with 1296 atoms

Performance: 64.080 ns/day, 0.375 hours/ns, 370.834 timesteps/s
99.2% CPU use with 64 MPI tasks x 1 OpenMP threads

MPI task timing breakdown:
Section |  min time  |  avg time  |  max time  |%varavg| %total
---------------------------------------------------------------
Pair    | 30.073     | 39.284     | 48.886     |  95.8 |  5.83
Bond    | 0.2724     | 0.27854    | 0.29123    |   0.8 |  0.04
Kspace  | 342.15     | 362.61     | 383.58     |  49.3 | 53.79
Neigh   | 4.5949     | 5.578      | 6.5553     |  23.1 |  0.83
Comm    | 108.9      | 121.74     | 139.47     |  71.1 | 18.06
Output  | 1.1915     | 1.1962     | 1.2074     |   0.5 |  0.18
Modify  | 131.75     | 135.93     | 138.93     |  17.4 | 20.16
Other   |            | 7.532      |            |       |  1.12

Nlocal:        20.2500 ave          26 max          14 min
Histogram: 5 2 7 6 7 15 4 5 5 8
Nghost:        2588.11 ave        2617 max        2544 min
Histogram: 1 4 2 4 9 7 14 9 7 7
Neighs:        6439.16 ave        8306 max        4450 min
Histogram: 5 2 7 7 13 8 4 5 7 6

Total # of neighbors = 412106
Ave neighs/atom = 317.98302
Ave special neighs/atom = 2.0000000
Neighbor list builds = 9028
Dangerous builds = 0

unfix		3
unfix		2
unfix		1

write_data	data.final.${pid}
write_data	data.final.0
System init for write_data ...
PPPM initialization ...
  extracting TIP4P info from pair style
  using 12-bit tables for long-range coulomb (../kspace.cpp:340)
  G vector (1/distance) = 0.37018682
  grid = 30 40 32
  stencil order = 5
  estimated absolute RMS force accuracy = 0.0038839996
  estimated relative force accuracy = 1.169655e-05
  using double precision FFTW3
  3d grid and FFT values/proc = 5168 640
Last active /omp style is kspace_style pppm/tip4p/omp
WARNING: Not all mixed pair coeffs generated from mixing. Use write_data with 'pair ij' option to store all pair coeffs. (../write_data.cpp:312)

write_restart   restart.lmp.${pid}
write_restart   restart.lmp.0
System init for write_restart ...
PPPM initialization ...
  extracting TIP4P info from pair style
  using 12-bit tables for long-range coulomb (../kspace.cpp:340)
  G vector (1/distance) = 0.37018682
  grid = 30 40 32
  stencil order = 5
  estimated absolute RMS force accuracy = 0.0038839996
  estimated relative force accuracy = 1.169655e-05
  using double precision FFTW3
  3d grid and FFT values/proc = 5168 640
Last active /omp style is kspace_style pppm/tip4p/omp
Total wall time: 0:11:18
