#include		in.partitions
include		in.temp
variable        temperature equal 40.85
variable	tempDamp equal 100.0
include		in.pressure
variable        pressure equal -581.2
variable        pressureDamp equal 1000.0 # This is 1 ps
include		in.seed
variable        seed equal 745823

units		real
atom_style	full
box tilt large
read_restart	restart.lmp.${pid}
read_restart	restart.lmp.0
Reading restart file ...
  restart file = 30 Jul 2021, LAMMPS = 30 Jul 2021
  restoring atom style full from restart
  triclinic box = (-10.652459 -9.1939901 0.089499695) to (12.632459 12.183988 21.770499) with tilt (-9.1048125 1.9774067 2.9459119)
  4 by 4 by 4 MPI processor grid
  restoring pair style lj/cut/tip4p/long/omp from restart
  restoring bond style harmonic/omp from restart
  restoring angle style harmonic/omp from restart
  1296 atoms
  864 bonds
  432 angles
Finding 1-2 1-3 1-4 neighbors ...
  special bond factors lj:    0        0        0       
  special bond factors coul:  0        0        0       
     2 = max # of 1-2 neighbors
     1 = max # of 1-3 neighbors
     1 = max # of 1-4 neighbors
     2 = max # of special neighbors
  special bonds CPU = 0.007 seconds
  read_restart CPU = 0.016 seconds
include 	in.setup
variable	out_freq equal 1000
variable	out_freq2 equal 10000
variable	out_freq3 equal 1000

timestep	2.0

neigh_modify    delay 7 every 1

include		in.tip4p
# This is TIP4P/Ice

# create groups ###
group ox type 2
432 atoms in group ox
group hy type 1
864 atoms in group hy

# set charges - beside manually ###
set group ox charge -1.1794
Setting atom values ...
  432 settings made for charge
set group hy charge 0.5897
Setting atom values ...
  864 settings made for charge

# ### TIP3P Potential Parameters ###
pair_style lj/cut/tip4p/long/omp 2 1 1 1 0.1577 8.5
pair_coeff 1 1*2 0.000 0.000
pair_coeff 2 2 0.21084 3.1668
bond_style  harmonic
bond_coeff  1 450 0.9572
angle_style harmonic
angle_coeff 1 55 104.52
kspace_style pppm/tip4p/omp 1.0e-5
pair_modify tail yes

thermo          ${out_freq}
thermo          1000
thermo_style    custom step temp pe etotal epair emol press lx ly lz vol pxx pyy pzz pxy pxz pyz enthalpy

restart 	${out_freq3} restart.lmp.${pid} restart2.lmp.${pid}
restart 	1000 restart.lmp.${pid} restart2.lmp.${pid}
restart 	1000 restart.lmp.0 restart2.lmp.${pid}
restart 	1000 restart.lmp.0 restart2.lmp.0


include         in.dump
dump            myDump all atom ${out_freq2} dump.water.${pid}
dump            myDump all atom 10000 dump.water.${pid}
dump            myDump all atom 10000 dump.water.0
dump            myDump2 all dcd ${out_freq2} dump.dcd
dump            myDump2 all dcd 10000 dump.dcd
dump_modify     myDump append yes
dump_modify     myDump2 append yes


variable natoms 	equal  "count(all)"                        # NUMBER ATOMS
variable H      	equal  "enthalpy/v_natoms"                 # ENTHALPY-per-atom
variable Vol      	equal  "vol/v_natoms"                 # volume-per-atom
fix AVG all 		ave/time ${out_freq} 1 ${out_freq} v_Vol v_H file vol_enthalpy.dat
fix AVG all 		ave/time 1000 1 ${out_freq} v_Vol v_H file vol_enthalpy.dat
fix AVG all 		ave/time 1000 1 1000 v_Vol v_H file vol_enthalpy.dat


timer           timeout 10:00:00 every 1000
New timer settings: style=normal  mode=nosync  timeout=10:00:00

fix 		1 all shake 1e-6 200 0 b 1 a 1
       0 = # of size 2 clusters
       0 = # of size 3 clusters
       0 = # of size 4 clusters
     432 = # of frozen angles
  find clusters CPU = 0.001 seconds
fix             2 all nph tri ${pressure} ${pressure} ${pressureDamp}
fix             2 all nph tri -581.2 ${pressure} ${pressureDamp}
fix             2 all nph tri -581.2 -581.2 ${pressureDamp}
fix             2 all nph tri -581.2 -581.2 1000
fix             3 all temp/csvr ${temperature} ${temperature} ${tempDamp} ${seed}
fix             3 all temp/csvr 40.85 ${temperature} ${tempDamp} ${seed}
fix             3 all temp/csvr 40.85 40.85 ${tempDamp} ${seed}
fix             3 all temp/csvr 40.85 40.85 100 ${seed}
fix             3 all temp/csvr 40.85 40.85 100 745823


run             250000
PPPM initialization ...
  extracting TIP4P info from pair style
  using 12-bit tables for long-range coulomb (../kspace.cpp:340)
  G vector (1/distance) = 0.36638122
  grid = 30 40 32
  stencil order = 5
  estimated absolute RMS force accuracy = 0.0047653205
  estimated relative force accuracy = 1.4350621e-05
  using double precision FFTW3
  3d grid and FFT values/proc = 5168 640
Last active /omp style is kspace_style pppm/tip4p/omp
Neighbor list info ...
  update every 1 steps, delay 7 steps, check yes
  max neighbors/atom: 2000, page size: 100000
  master list distance cutoff = 10.8154
  ghost atom cutoff = 10.8154
  binsize = 5.4077, bins = 7 5 5
  1 neighbor lists, perpetual/occasional/extra = 1 0 0
  (1) pair lj/cut/tip4p/long/omp, perpetual
      attributes: half, newton on, omp
      pair build: half/bin/newton/tri/omp
      stencil: half/bin/3d/tri
      bin: standard
Per MPI rank memory allocation (min/avg/max) = 9.435 | 9.441 | 9.446 Mbytes
Step Temp PotEng TotEng E_pair E_mol Press Lx Ly Lz Volume Pxx Pyy Pzz Pxy Pxz Pyz Enthalpy 
10750000    42.384205   -6914.1073   -6805.0765   -6914.1073            0   -730.56829    23.284917    21.377978       21.681    10792.464   -541.64598   -924.05524   -726.00366   -347.63188   -392.29524   -371.21334   -6920.0658 
10751000    41.182703   -6918.1299   -6812.1899   -6918.1299            0   -568.62818    23.159176    21.437589    21.724726    10785.825    3.5925302   -970.93854   -738.53853     340.1344    266.38856   -195.12613   -6901.6352 
10752000    39.916911   -6914.7025   -6812.0187   -6914.7025            0   -393.41665    23.275908    21.320813    21.728905    10783.214   -530.58801   -195.59483    -454.0671   -346.64171   -503.62078   -95.719526   -6873.8883 
10753000    39.285282   -6915.5398   -6814.4808   -6915.5398            0   -826.53936    23.198501    21.394966    21.751827     10796.11    -970.9992   -222.52016   -1286.0987    101.26857    430.18066   -596.28655   -6944.6196 
10754000    40.115606   -6920.7287   -6817.5337   -6920.7287            0   -1186.1646    23.271026    21.298533    21.821421    10815.542   -1083.3478    -968.1281   -1507.0179   -185.72429    165.38731    401.17219   -7004.6317 
10755000    41.938117   -6921.5309   -6813.6476   -6921.5309            0   -594.16219    23.153194    21.420873    21.728644    10776.574   -544.03193   -705.32046   -533.13419     306.8103     154.3705    165.00044   -6907.0293 
10756000    41.921108   -6916.9368   -6809.0973   -6916.9368            0     -617.778     23.24079    21.300384    21.783718    10783.763   -537.52769   -443.38848   -872.41783    236.62978   -164.68656    166.40592   -6906.2553 
10757000     41.64478   -6922.5952   -6815.4666   -6922.5952            0   -652.27144    23.184083    21.393019     21.73128    10778.226   -733.89696   -697.48707    -525.4303   -44.711782    12.142553    85.073987   -6917.9967 
10758000    41.612598   -6918.3392   -6811.2933   -6918.3392            0   -954.71204    23.288931    21.355827    21.696301     10790.75   -1136.7118    -786.9831   -940.44125   -13.649676   -32.548637    175.20137   -6961.5383 
10759000    42.860469   -6915.8958   -6805.6398   -6915.8958            0   -66.633339       23.276    21.330621    21.659681    10753.848   -379.29049   -72.990955    252.38142    678.45099   -109.62863   -270.76355   -6816.0902 
10760000    42.068596   -6919.1382   -6810.9193   -6919.1382            0   -714.14808    23.265854    21.370928    21.682077    10780.608   -917.80512   -774.23867   -450.40046    78.539452     192.8264   -117.81936   -6923.2006 
10761000    39.368779   -6914.3828    -6813.109   -6914.3828            0   -491.82529     23.28213     21.35035    21.677604    10775.538   -472.39671   -767.58737   -235.49177   -122.19442   -130.59157   -33.039932   -6890.3994 
10762000    41.424655   -6912.2569   -6805.6945   -6912.2569            0   -798.40849    23.232949    21.406937    21.697311    10791.077     -355.194   -916.68931   -1123.3422     102.6471     -422.578    -64.93805   -6931.3454 
10763000    40.757386   -6912.6801   -6807.8342   -6912.6801            0   -627.67767    23.235842    21.358797    21.726074    10782.425   -470.51188   -882.99979   -529.52136   -403.74427    281.48082    188.24818   -6906.5369 
10764000     40.31118   -6920.6445   -6816.9465   -6920.6445            0    -439.5465     23.22448    21.369399    21.703347    10771.223   -414.78224   -590.41431   -313.44295    409.55448   -144.78402    161.29323   -6885.9936 
10765000    40.448439   -6915.7075   -6811.6563   -6915.7075            0    -134.0783    23.223519    21.324512    21.739931    10766.271   -223.93646   -3.1380472   -175.16038   -647.16254    154.33978   -247.53972   -6832.7087 
10766000    40.753856   -6918.7107   -6813.8739   -6918.7107            0   -330.72596    23.166565    21.392353     21.74596    10777.022    324.11415   -992.37605   -323.91599    848.68811    52.165144    336.59918   -6865.8547 
10767000    42.678945   -6922.8465   -6813.0575   -6922.8465            0   -369.91569    23.269018    21.348587    21.694007    10776.729   -400.79404    -526.1107   -182.84234   -873.44419    324.80754    396.96927   -6871.1962 
10768000    40.980891   -6924.0977   -6818.6768   -6924.0977            0   -754.54127    23.233518    21.404605     21.70211    10792.552   -921.23122   -557.17701   -785.21558    453.88506     46.15319    130.52476   -6937.4404 
10769000    41.855661   -6921.9987   -6814.3276   -6921.9987            0    -678.5324    23.271639    21.306774    21.780548    10799.744   -711.76908   -563.10096   -760.72716   -272.40773    2.9047907   -240.06563   -6921.1986 
10770000    40.152882   -6918.3296   -6815.0387   -6918.3296            0   -784.69741    23.159579    21.471262    21.713342    10797.294   -332.31154   -1560.2965   -461.48422   -168.51461   -388.57981    129.79575    -6938.603 
10771000    40.774547   -6922.5574   -6817.6674   -6922.5574            0   -632.46329    23.259748    21.350995    21.714641    10783.898   -800.41264   -684.32017   -412.65707   -140.19917    410.35193    283.32767   -6917.1362 
10772000    39.671084    -6913.729   -6811.6776    -6913.729            0   -561.67519    23.250317    21.357116    21.705513    10778.083   -642.57842   -315.64666   -726.80049    356.71743   -22.878369    85.252618   -6899.9658 
10773000    39.370234   -6916.6052   -6815.3276   -6916.6052            0   -290.53441    23.316482    21.327167    21.647686    10764.842   -1315.7353    204.69957    239.43248    478.24116    298.74593   -17.131849   -6860.9398 
10774000    43.658129   -6913.1302   -6800.8223   -6913.1302            0   -424.92377    23.190083    21.393448    21.720789    10776.027   -67.121373   -553.09368   -654.55626   -35.645211   -314.82344    288.18223   -6867.6022 
10775000    41.485463   -6914.5044   -6807.7855   -6914.5044            0   -632.60319    23.246795    21.363284    21.725462     10789.47   -149.11106   -655.58752    -1093.111   -161.14407    230.06025   -359.79341   -6907.3278 
10776000    40.934066   -6913.0468   -6807.7464   -6913.0468            0   -977.65524    23.227624    21.408259    21.725133    10803.105   -860.68188    -857.3326   -1214.9512   -384.83835   -130.70518   -158.61331   -6961.7782 
10777000    41.698372   -6916.3748   -6809.1083   -6916.3748            0   -836.76521     23.23309    21.338111    21.799703    10807.208    -719.7821   -517.32256    -1273.191    14.625854    109.33476    22.881042   -6940.9926 
10778000    40.651175   -6922.7073   -6818.1346   -6922.7073            0   -748.65239    23.230347    21.414628    21.690222    10790.218   -844.25101   -896.55603   -505.15013    122.51694    6.5348029    328.81653   -6935.9458 
10779000    40.663663   -6921.0341   -6816.4293   -6921.0341            0   -836.94254     23.21721    21.390709    21.726588    10790.131   -655.87162   -1114.0064   -740.94956   -72.029925    392.15693    77.897538   -6948.1331 
10780000    42.547617   -6916.4865   -6807.0353   -6916.4865            0   -594.52839    23.311551    21.309751    21.707756    10783.617    -589.9672   -200.61269    -993.0053    -49.87786   -752.96874   -314.90833   -6900.5356 
10781000    41.608817   -6913.8614   -6806.8253   -6913.8614            0   -455.35593    23.226399    21.417257     21.64621    10767.815   -210.84912   -738.54439   -416.67427   -23.236753    658.20767   -210.63079   -6878.3332 
10782000    41.787507   -6916.5149   -6809.0191   -6916.5149            0   -826.22844    23.279555    21.309626    21.762645    10795.983   -902.86478   -280.32695   -1295.4936   -7.2700498    52.588908    121.88048   -6939.1074 
10783000     40.72811    -6917.034   -6812.2634    -6917.034            0   -740.73034    23.149971    21.489562    21.688031    10789.421   -290.67554   -1628.5661   -302.94942    240.54711   -95.494433    559.28518   -6928.8193 
10784000    41.006364   -6920.2015   -6814.7151   -6920.2015            0   -911.74377    23.286912    21.328447    21.727662    10791.558   -1206.0313   -624.96798     -904.232   -75.544642    74.265501   -94.447449   -6958.2089 
10785000    40.410555   -6920.3677    -6816.414   -6920.3677            0   -649.30625     23.16312    21.407315    21.747533    10783.736   -644.27524   -659.26957   -644.37394    149.23095    666.07606    184.65783   -6918.5302 
10786000    39.892116    -6918.368   -6815.7479    -6918.368            0   -950.23535    23.312458    21.306596    21.733469    10795.213   -883.64333    -897.3467    -1069.716   -611.32331    -192.6973   -72.759171   -6965.3502 
10787000    41.444753   -6917.0129   -6810.3988   -6917.0129            0   -868.95276    23.198964    21.446555    21.685862    10789.537   -650.53663    -1154.125   -802.19669    507.16881    157.42826    -198.6454   -6947.1323 
10788000    40.217634   -6915.7048   -6812.2474   -6915.7048            0   -585.78583    23.367435    21.282513    21.686189    10784.926    -1306.427    208.02561   -658.95609   -25.833675    32.972387    36.011346   -6904.3839 
10789000    40.240668   -6915.4992   -6811.9826   -6915.4992            0   -710.39768    23.225242    21.460242    21.640823    10786.204   -943.65498   -856.00006   -331.53801    328.19059    247.74943    -275.0265   -6923.7322 
10790000    40.789912   -6920.4562   -6815.5267   -6920.4562            0   -558.91117    23.294137    21.294457    21.737732    10782.698    -1155.546    88.309262   -609.49678   -100.68757   -39.469626   -76.553847    -6903.418 
10791000    40.670482   -6921.4355   -6816.8132   -6921.4355            0   -762.26656    23.148085    21.494052    21.675189    10784.407   -60.870557   -1718.8651     -507.064    33.155166   -308.98004    67.359125   -6936.7021 
10792000    40.204368   -6917.5644   -6814.1411   -6917.5644            0    -602.8789    23.254361    21.304526    21.777335    10788.996   -423.66295   -561.49254   -823.48121    66.746118   -391.96066   -37.780482    -6909.002 
10793000    41.807482   -6918.7294   -6811.1822   -6918.7294            0    -342.1335    23.176868    21.437022    21.693934     10778.48   -531.63062   -637.44534    142.67547   -472.20435    215.87472    223.87802   -6864.9632 
10794000     40.64181   -6916.0898   -6811.5412   -6916.0898            0   -680.21128    23.240913    21.337966    21.764957    10793.543   -698.26767   -549.07571   -793.29047    341.34379   -212.04701   -335.52545   -6918.6152 
10795000    39.318245   -6925.0308    -6823.887   -6925.0308            0   -750.03229    23.215456    21.353591    21.774221    10794.208   -596.22031   -626.70703   -1027.1695    515.74404   -112.47546    439.43273    -6941.959 
10796000     40.83398   -6916.1473   -6811.1044   -6916.1473            0   -600.41719    23.195377    21.428329    21.704693    10788.061   -649.10142   -518.85583   -633.29434   -115.30966    50.006213    54.064892   -6905.5697 
10797000    40.630028   -6920.4491   -6815.9308   -6920.4491            0   -903.42444    23.243667    21.330479    21.770017    10793.542    -443.5157   -1178.5478   -1088.2098   -131.15432    291.88723   -51.852879   -6958.1413 
10798000    42.794124   -6919.5689   -6809.4837   -6919.5689            0   -684.52517    23.163978     21.44788    21.708729    10785.292   -738.79304   -975.39103   -339.39145    148.07234    91.766474     103.1534   -6917.1543 
10799000     42.37089   -6917.8347   -6808.8382   -6917.8347            0   -1074.2872    23.327864    21.338813    21.676927    10790.534    -1239.331   -1216.7016   -766.82921   -168.09071   -509.32286   -256.80887   -6977.8976 
10800000    40.692598   -6916.1918   -6811.5126   -6916.1918            0   -909.71122    23.164946    21.440086    21.728327    10791.556    -520.9021   -899.07427   -1309.1573    250.90458    633.36586    140.21001   -6954.6864 
10801000    40.415246   -6912.6232   -6808.6575   -6912.6232            0   -502.22174    23.281269    21.295894    21.744705    10780.926   -963.65545   -2.6291657   -540.38062    238.44251    233.48426    237.78061   -6887.6212 
10802000     38.88509   -6917.1706   -6817.1411   -6917.1706            0   -607.77909    23.153698    21.457627    21.701485    10781.806   -355.44915   -791.41357   -676.47455   -136.99063   -204.78552    148.30126   -6912.7092 
10803000    40.143896    -6918.741   -6815.4733    -6918.741            0   -277.67998    23.280433    21.276265    21.750475     10773.46   -745.60397   -26.898023   -60.537957     23.73787    535.34473   -132.30373   -6859.1023 
10804000    42.785985   -6921.4499   -6811.3855   -6921.4499            0   -458.34118    23.162295    21.453524    21.708493    10787.229    6.1918187   -753.04629   -628.16908   -71.700108   -298.69685   -310.12087   -6883.4921 
10805000    42.002057   -6919.1595   -6811.1117   -6919.1595            0   -504.51961    23.312308    21.284039    21.744939    10789.406   -884.70489    240.64622   -869.50015   -436.81411    -340.5751   -22.923533   -6890.4991 
10806000    42.113375   -6915.0425   -6806.7084   -6915.0425            0   -986.15861    23.191649    21.473787    21.687838    10800.815   -370.58775   -1623.8724   -964.01572    -108.7714    181.99447    42.212056   -6962.0469 
10807000    40.294643   -6916.1462   -6812.4907   -6916.1462            0   -318.50656    23.375833     21.25789    21.681676    10774.077   -1256.8232    739.94544   -438.64196   -229.11463    46.014561   -96.395921   -6862.5373 
10808000     39.59815   -6916.1637   -6814.2999   -6916.1637            0   -389.55994    23.197789    21.436713    21.667385    10774.852   -303.20094   -846.72284   -18.756027    708.20937   -6.7603767    335.33553   -6875.5154 
10809000    41.120686   -6917.5583   -6811.7779   -6917.5583            0   -1184.5795    23.348381    21.288773     21.73896    10805.532   -1833.5118   -388.52172   -1331.7049   -363.55037    16.221978   -73.255202   -6998.4529 
10810000    38.796827    -6917.833   -6818.0305    -6917.833            0    -551.4795    23.176085    21.474301    21.654614     10777.29   -420.44392   -1419.9222    185.92761   -148.01561    390.98651    325.66381   -6904.7097 
10811000    40.905442   -6918.3011   -6813.0744   -6918.3011            0   -257.35835    23.309358     21.28022    21.711909     10769.72   -832.61214    77.263697   -16.726613    188.71915    28.976382    118.00021   -6853.4964 
10812000    40.385754   -6914.3864   -6810.4965   -6914.3864            0   -491.80771    23.127593      21.4542    21.723157    10778.683    199.12981   -751.11196   -923.44099    100.64473   -129.65664   -50.002636   -6887.8067 
10813000     40.03883   -6908.2937   -6805.2962   -6908.2937            0   -775.49846    23.295053    21.355246    21.712502    10801.353   -911.20707   -1068.9429   -346.34536    132.82691    -86.00653    59.012477   -6927.4579 
10814000    40.478272   -6917.5805   -6813.4526   -6917.5805            0   -902.43877    23.181818    21.436276    21.724624    10795.658   -914.08492   -539.10595   -1254.1254    27.193642   -44.300556   -631.84487   -6955.5358 
10815000    38.860827   -6920.7698   -6820.8026   -6920.7698            0   -385.36696    23.296211      21.3117    21.696419    10771.879   -396.12376   -578.83663   -181.14048    99.158169    32.406637   -276.13796   -6881.3426 
10816000    42.326937   -6917.8609   -6808.9774   -6917.8609            0   -122.15431    23.173906    21.420896    21.674939    10759.566   -234.91748   -4.7056694    -126.8398   -264.20711    258.83735    483.57301   -6828.1456 
10817000    39.671786   -6921.4184   -6819.3651   -6921.4184            0   -916.06075      23.2091    21.307293    21.831967    10796.411   -252.96993   -688.44341   -1806.7689   -168.25948   -27.540437   -295.15774   -6963.6031 
10818000    41.136131   -6924.1341   -6818.3139   -6924.1341            0   -490.27183    23.222064    21.369514    21.695446     10766.24   -712.89621   -693.85733   -64.061958   -281.93772   -196.49107   -301.19095   -6895.2937 
10819000    39.501385    -6922.649   -6821.0341    -6922.649            0   -451.67993    23.238854    21.317003    21.748362    10773.763   -379.57387   -71.999223   -903.46669   -199.18224    204.70078   -41.048265   -6892.0039 
10820000    40.949243   -6920.6398   -6815.3004   -6920.6398            0   -471.57571    23.233797    21.361243    21.714078    10776.757    -423.2091   -291.47031   -700.04771    144.87339    173.30161    235.27632    -6889.417 
10821000    40.187573   -6916.1439   -6812.7638   -6916.1439            0   -1035.6509    23.271543    21.428647    21.651714    10797.226   -1455.7877   -1260.9915   -390.17338    122.54446    93.096079    102.99488   -6975.8441 
10822000    42.028296   -6911.9732    -6803.858   -6911.9732            0   -664.18828    23.257077    21.295297    21.787682    10790.706   -351.13099   -76.540606   -1564.8933    120.72879   -119.47877   -179.23139   -6908.3822 
10823000    39.656139   -6919.8944   -6817.8814   -6919.8944            0   -506.31579    23.192713    21.407922    21.706418    10777.406   -334.90701   -885.10387   -298.93649    433.28473    -66.15041    302.27155   -6897.4628 
10824000    41.411815   -6921.0108   -6814.4815   -6921.0108            0    -582.4021      23.2589    21.330392    21.739576     10785.47   -661.67628   -648.60148   -436.92854   -671.10756    -220.7083   -378.44675   -6906.0904 
10825000    40.566571   -6917.6724   -6813.3174   -6917.6724            0   -190.11063    23.124577    21.400062    21.772789    10774.643   -64.192602   -150.19156   -355.94774    446.81994   -65.188071    279.46815   -6843.1908 
10826000    41.873906   -6921.9433   -6814.2252   -6921.9433            0   -747.45987    23.272433    21.360171    21.699458    10786.869    -619.7538   -1250.8031   -371.82272   -738.33108     35.03769    74.374789   -6931.8122 
10827000    40.071602   -6919.8748   -6816.7931   -6919.8748            0    -710.4934    23.172969    21.457102    21.707025     10793.27   -713.30011   -422.26158   -995.91852    349.00317   -24.131688   -545.77857    -6928.631 
10828000    41.731135   -6912.7711   -6805.4203   -6912.7711            0   -735.39508    23.275507     21.30164    21.772427     10794.91   -626.71179   -419.01675   -1160.4567    97.610258   -469.44994    -129.2094   -6921.1955 
10829000    39.635909   -6918.4721   -6816.5111   -6918.4721            0   -376.56314    23.151559    21.500044    21.621324     10762.22   -14.741519   -772.56366   -342.38425    328.09788   -356.99766    -118.4101   -6875.6149 
10830000    42.027644   -6914.7442   -6806.6306   -6914.7442            0   -593.01356    23.270621    21.265176    21.799402    10787.518   -420.10416   -367.00213   -991.93438   -186.70153    160.91466   -308.77496   -6899.9264 
10831000     38.39105   -6914.6246   -6815.8659   -6914.6246            0   -484.02239    23.188035    21.397262    21.721931    10777.563   -836.88837   -67.552087    -547.6267    388.63951   -162.61133    23.198497   -6891.9444 
10832000    40.480038   -6919.0643   -6814.9319   -6919.0643            0   -196.02345    23.337457    21.256273    21.683425    10756.439   -569.02407   -74.737193    55.690911   -601.97544    299.07293   -155.20754   -6845.6824 
10833000    41.268988   -6920.0972   -6813.9352   -6920.0972            0   -653.93977    23.177412    21.426844     21.70947    10781.331    -540.0388   -701.35298   -720.42753    423.78436    395.68139    468.31679   -6916.7572 
10834000    43.099763    -6915.911   -6805.0395    -6915.911            0   -583.79552    23.287682    21.334538    21.713801     10788.11   -82.621098   -1187.7955   -480.96997   -888.36721   -364.27865    379.28166   -6896.8901 
10835000    41.107483   -6921.1157   -6815.3692   -6921.1157            0   -560.72242     23.19265    21.433534    21.687335    10780.784   -198.99277   -678.14073   -805.03376   -13.852079   -136.42715   -499.57505   -6903.5297 
10836000    41.049775   -6920.7691   -6815.1711   -6920.7691            0   -399.27774    23.282942    21.272889    21.761704    10778.473   -929.62396    297.44551   -565.65477     639.3686   -259.71258    34.403905   -6877.9347 
10837000    38.278101   -6916.2376   -6817.7695   -6916.2376            0   -203.58328    23.218845    21.394694    21.666662    10763.133    -257.6889   -182.43864    -170.6223    277.73714    45.965993   -30.103579   -6849.7259 
10838000    40.849268   -6918.1747   -6813.0924   -6918.1747            0   -390.63692    23.237092     21.32281     21.74304    10773.244   -158.88362   -368.39279   -644.63436   -164.00309    153.07668    498.92351    -6874.468 
10839000    41.479688    -6928.667    -6821.963    -6928.667            0   -673.38998    23.238713    21.368068    21.691415    10771.228   -802.67141   -583.36252   -634.13601    116.57481   -94.634626   -170.64981    -6927.744 
10840000    41.067131   -6922.2573   -6816.6146   -6922.2573            0   -449.88881    23.234906    21.364819    21.705983    10775.058   -142.90615   -711.38513   -495.37516    -381.9896   -41.654357    65.583486   -6887.3115 
10841000    40.210767   -6921.6749   -6818.2351   -6921.6749            0   -625.29543    23.255343    21.322257    21.747367    10783.571   -689.17396    115.04674   -1301.7591    401.77227    118.21928   -225.55551   -6916.5736 
10842000    40.693491   -6918.1225    -6813.441   -6918.1225            0   -402.63626    23.222554    21.457634    21.608382     10767.48   -21.807642   -1441.8073    255.70613   -21.714133   -26.461303    298.93355    -6876.668 
10843000    40.475435   -6919.0074   -6814.8868   -6919.0074            0   -832.16186    23.363834    21.308991    21.693918    10800.528   -1545.6411   -396.61669   -554.22783   -95.196848    66.515668    83.348891   -6945.9645 
10844000    40.710495   -6916.2522   -6811.5269   -6916.2522            0   -664.04338    23.234627    21.416845     21.68629    10791.367   -976.59964   -616.35413   -399.17637    509.51778    112.04381   -131.15437   -6916.0348 
10845000    41.161711   -6926.1693   -6820.2833   -6926.1693            0   -577.02849    23.347065    21.292416    21.689718    10782.293   -1049.2118   -298.10307   -383.77059   -534.31765    51.780268   -24.394621   -6911.0202 
10846000    41.834688   -6915.9261    -6808.309   -6915.9261            0   -774.53699    23.169653    21.462509    21.706277    10794.073   -665.32157   -1109.5798   -548.70961    541.15348    39.246072   -171.82979    -6930.237 
10847000    40.671234   -6918.6226   -6813.9984   -6918.6226            0   -830.42481    23.296398    21.272392    21.783296    10795.151   -743.05073   -322.60023   -1425.6235   -169.51254   -513.08688   -393.02622   -6944.7373 
10848000    39.394433   -6921.2221   -6819.8823   -6921.2221            0   -702.66022    23.158304    21.506036    21.646635    10780.962   -643.06001   -1445.9869   -18.933755    329.41661    51.957605    637.65269   -6930.3611 
10849000    42.477322   -6921.3363    -6812.066   -6921.3363            0   -723.38434    23.299868    21.266074     21.77014    10787.033   -1181.3855    57.196061   -1045.9636   -414.34128    280.11968   -326.42311   -6925.8672 
10850000    39.896855   -6918.0534   -6815.4211   -6918.0534            0    -389.6885    23.145672    21.478419    21.657526    10766.658    143.46584   -1221.8364   -90.694921   -22.635604    -241.6842   -259.36172   -6876.6103 
10851000    39.621713   -6921.4401   -6819.5156   -6921.4401            0   -293.98454    23.262968    21.295156    21.725593     10762.61   -425.68834    310.56872   -766.83401   -129.82654    94.579045    -102.7871   -6865.6599 
10852000    41.061147   -6921.1896   -6815.5623   -6921.1896            0   -612.97206    23.141843    21.433786    21.737118    10781.987   -56.426463    -1230.973   -551.51671    325.91134   -274.63759   -5.0207362   -6911.9486 
10853000    41.277962   -6915.4637   -6809.2786   -6915.4637            0   -628.94652    23.301639     21.32983    21.707633    10789.128   -703.42763   -599.59924   -583.81269   -295.31256   -332.17511    -186.3076   -6908.2423 
10854000    40.945621   -6917.4687   -6812.1386   -6917.4687            0   -678.85885    23.197833    21.387802    21.756517     10794.51   -659.77233   -471.21979   -905.58444    111.01747    165.88971   -139.28836   -6919.0092 
10855000    40.118902   -6913.9269   -6810.7235   -6913.9269            0   -563.65641    23.279662    21.331322    21.713436    10782.588   -499.62455   -451.32879    -740.0159    -823.0117    174.54085    194.31257   -6899.3601 
10856000    40.727948   -6921.4794   -6816.7092   -6921.4794            0    41.385693    23.193875    21.427231    21.639162    10754.242    403.65164   -637.70371    358.20915    61.687578    113.99572    40.937397   -6810.2183 
10857000    40.307662   -6919.4146   -6815.7256   -6919.4146            0   -642.98222    23.244193    21.321275    21.759669    10784.001   -749.82358   -334.57021   -844.55287   -9.3353043   -390.51637   -10.633085   -6916.8497 
10858000    39.280408    -6917.203   -6816.1565    -6917.203            0    -902.3353    23.257954     21.40467    21.685344    10795.589   -1121.9549   -1079.9208   -505.13018   -44.304307    33.479314    110.95241   -6958.2225 
10859000    40.414802   -6919.7492   -6815.7846   -6919.7492            0   -770.64751    23.239629    21.369302     21.73362    10793.234   -1056.2225   -633.56594   -622.15415      142.064    604.67152    157.46991   -6937.0909 
10860000      40.8797   -6920.5972   -6815.4367   -6920.5972            0   -481.38566    23.248376     21.32416    21.757084     10786.12   -180.88913   -459.78328   -803.48457    75.896588   -419.31001    92.869137   -6891.1608 
10861000    41.706153   -6921.1212   -6813.8347   -6921.1212            0   -511.01428    23.184453    21.455481     21.65029    10769.582    -473.0918   -917.85338   -142.09767    248.33871    136.72393    -160.2327   -6894.0963 
10862000    41.037539   -6918.3699   -6812.8034   -6918.3699            0   -448.60211    23.255256    21.276603     21.78746     10780.28   -520.89017   -177.84523   -647.07093   -470.22753    208.46885    292.58291   -6883.3323 
10863000    41.332794    -6918.563    -6812.237    -6918.563            0   -648.79156    23.197725     21.41113    21.704661    10780.477   -545.31064   -640.22023   -760.84381    157.67625    154.16989    23.911377   -6914.2414 
10864000    40.349371   -6914.1975   -6810.4012   -6914.1975            0   -592.56202    23.294231    21.278512    21.760208    10785.807    -668.3627   -712.44232   -396.88104    132.03548   -219.88637   -331.12686   -6903.6111 
10865000    41.427726   -6917.4587   -6810.8883   -6917.4587            0   -774.52362    23.190399    21.433248    21.710341    10791.028   -623.75376      -536.69   -1163.1271    493.24151   -121.40086    84.586805   -6932.7798 
10866000    39.114284   -6921.8846   -6821.2655   -6921.8846            0   -895.83238    23.370256    21.302843     21.67572     10791.32   -1209.4437   -674.24722   -803.80621   -442.99346   -39.637516   -183.53927   -6962.2519 
10867000    37.867751   -6922.3654   -6824.9529   -6922.3654            0   -311.06931     23.19601    21.457066    21.619172    10760.258   -449.91887   -619.34677    136.05771     723.2526    28.665629    31.469664   -6873.7682 
10868000    39.060328   -6918.5928   -6818.1125   -6918.5928            0    -482.2469    23.312946    21.268383    21.730163    10774.438   -765.80727    47.291892   -728.22532   -259.98428    80.472583    66.168267   -6893.8899 
10869000    42.211488   -6923.0946   -6814.5081   -6923.0946            0   -66.749818    23.160778     21.44795    21.631554      10745.5    38.373103   -594.08006     355.4575    73.792549    154.15778    127.27864   -6824.9686 
10870000    41.184288   -6920.7333   -6814.7893   -6920.7333            0   -440.62444    23.296039    21.244529    21.769205    10773.871   -822.33226    74.413329   -573.95439   -168.87673    344.79797    131.28307   -6884.0228 
10871000    39.773843   -6917.8236   -6815.5078   -6917.8236            0   -96.947709    23.142487    21.396671    21.739393    10764.743    287.53785   -186.67704   -391.70394    317.32863   -328.64874   -156.35614   -6830.7279 
10872000    41.016217   -6913.2299   -6807.7182   -6913.2299            0   -654.63598    23.262675    21.322562    21.771962    10799.325   -752.32111   -371.72557   -839.86126    386.50428   -384.20501    272.06341   -6910.8214 
10873000    40.667316   -6920.3541   -6815.7399   -6920.3541            0   -922.58132    23.214777    21.392194    21.741242    10797.028   -707.47777    -762.8311   -1297.4351   -56.008692     146.2577   -161.37008   -6961.0129 
10874000    41.052727   -6916.9608   -6811.3552   -6916.9608            0   -442.33519    23.247431     21.37673    21.704203    10785.991   -488.22757   -452.94292   -385.83506   -277.97546    375.06973   -263.86242   -6880.9357 
10875000    42.154104   -6918.2454   -6809.8065   -6918.2454            0   -453.99775    23.231914    21.351773    21.743442    10785.673   -525.09462   -77.493189   -759.40544   -190.41319   -59.290471    -331.9147   -6881.2194 
10876000     40.46685   -6919.1682   -6815.0696   -6919.1682            0   -648.61007    23.238712    21.384963    21.697031    10782.534   -282.68948   -1009.0776   -654.06313    64.108275   -90.270869    17.765149    -6917.065 
10877000    40.368665   -6919.0591   -6815.2132   -6919.0591            0   -583.25495    23.253853    21.355739    21.708964    10780.741   -777.09374   -645.45433   -327.21677    85.730529    327.74812   -206.95413   -6906.9161 
10878000      40.7926   -6918.5311   -6813.5946   -6918.5311            0    -745.7893    23.214421    21.372289    21.745078    10788.718    -659.0529   -608.12236   -970.19264    410.74512   -74.314619    232.33371   -6930.9389 
10879000    41.822066   -6913.8631   -6806.2784   -6913.8631            0   -621.75767     23.24739    21.371809    21.706394    10784.578   -646.11171   -418.93818   -800.22312   -603.17511    104.96174   -272.51627   -6904.0697 
10880000    38.538195   -6921.4956   -6822.3585   -6921.4956            0   -504.90722    23.178807      21.4025    21.730607    10780.216   -66.887795   -588.07385   -859.76002    68.894382   -154.71912   -113.06224   -6901.7392 
10881000    37.826004   -6918.1795   -6820.8744   -6918.1795            0    -650.9517    23.309926    21.287531    21.730957    10783.135   -639.53951   -466.63946   -846.67615    463.73125   -424.61899   -418.45554   -6923.2437 
10882000     41.11098   -6913.1261   -6807.3706   -6913.1261            0   -649.23452    23.207675    21.431958    21.679072    10782.865   -697.89869   -790.92817   -458.87671    -345.9899    432.11652    544.85574   -6909.4673 
10883000    39.579692   -6911.6784   -6809.8621   -6911.6784            0   -300.91445    23.300997    21.234988    21.775534    10774.455    -153.0109    127.56288   -877.29533   -342.27346    -161.3011   -246.45263   -6857.1461 
10884000    40.015793   -6922.1938   -6819.2556   -6922.1938            0   -569.87548    23.160297    21.471587    21.664861    10773.683   -639.92642   -920.29248   -149.40755    227.36496   -110.75798    107.99092   -6908.7962 
10885000    39.785622   -6920.7762   -6818.4301   -6920.7762            0   -664.46741    23.301816    21.294259    21.720655    10777.678   -844.77418   -245.77084   -902.85722     27.67978    -293.7675    22.660315    -6922.872 
10886000    43.302212   -6919.9947   -6808.6024   -6919.9947            0   -272.54279     23.10691    21.500868    21.657746    10759.972    247.79855   -972.77502   -92.651887    470.95968    397.81098    557.97546   -6851.3707 
10887000    41.604409   -6921.3857   -6814.3609   -6921.3857            0   -340.95016    23.339403    21.272144    21.693457    10770.349   -780.48834   -171.28767   -71.074465   -89.432393   -154.21299    126.00046   -6867.9155 
10888000    40.397374   -6922.6372   -6818.7174   -6922.6372            0   -410.43203    23.176308    21.464304    21.640908    10765.558   -280.48777   -1058.4412    107.63283    490.94799    17.914099     38.80751   -6883.1572 
10889000    41.356667    -6923.646   -6817.2585    -6923.646            0   -601.26152    23.294765    21.277979    21.751949    10781.691   -688.75384   -273.98238   -841.04836   -268.91115   -130.13266   -33.652766   -6911.8008 
10890000    40.254032   -6917.7754   -6814.2243   -6917.7754            0   -1069.0481    23.167869    21.474436    21.710796    10801.488   -624.16172   -1486.6068    -1096.376      119.035   -11.091431   -228.39863     -6982.63 
10891000    40.205818   -6922.3398   -6818.9127   -6922.3398            0   -402.98183    23.297969    21.272341    21.739015    10773.907   -730.47765    26.027288   -504.49513   -757.74676   -113.03182     -147.802   -6882.2318 
10892000    40.949802   -6919.1103   -6813.7694   -6919.1103            0    -694.6258    23.164707    21.419304    21.734905    10784.249   -302.39446   -777.61404   -1003.8689    434.47328   -30.594616   -185.95923   -6923.0182 
10893000     39.79959   -6915.3639   -6812.9818   -6915.3639            0    -620.0907    23.301331    21.290354    21.751731    10790.894   -1160.6102   -367.09212   -332.56981    8.4378147   -110.13265    29.500531   -6910.5681 
10894000    40.256847   -6919.1506   -6815.5923   -6919.1506            0   -696.87213     23.19004    21.429938    21.701856    10784.979   -292.32043   -989.80451   -808.49146    102.43175   -190.04776    111.03648   -6925.2019 
10895000    40.894726   -6912.6213   -6807.4221   -6912.6213            0   -685.54741     23.24455     21.31768    21.784552    10794.678    -944.5724   -398.15839   -713.91144    530.85558    589.47256     299.0547   -6915.3473 
10896000    39.837963   -6918.3269   -6815.8462   -6918.3269            0   -145.29198    23.221584    21.397976    21.665135    10765.295   -19.592095   -644.99486    228.71101   -266.11846    23.382944    166.77954   -6838.6571 
10897000    41.302394   -6925.3746   -6819.1267   -6925.3746            0   -562.00887    23.217329    21.369857     21.72515    10778.955   -359.38835   -544.52883   -782.10943    200.54269    6.8675177   -54.220311   -6907.4745 
10898000    40.267801   -6921.8907   -6818.3043   -6921.8907            0   -807.78252    23.274551    21.346822     21.72376    10793.183   -840.81061   -745.99805    -836.5389   -294.06362    42.921907    251.53879   -6945.4553 
10899000    42.811404   -6917.8832   -6807.7534   -6917.8832            0   -781.23472    23.233251    21.459037    21.621255    10779.562   -360.68869   -1408.0999   -574.91554    249.35838   -501.24282   -466.65857   -6930.5704 
10900000    40.652077   -6920.6969   -6816.1219   -6920.6969            0   -466.43819     23.28585     21.27679    21.760559    10781.229   -947.34651   -34.952671   -417.01539    -105.1689   -5.2067099    257.21535   -6889.4615 
10901000    42.697764    -6919.532   -6809.6946    -6919.532            0   -860.22387    23.177464    21.450238    21.718676    10797.703   -666.45137   -1078.9192     -835.301    -51.86799    649.38196    154.22955    -6945.157 
10902000    39.665078    -6919.914    -6817.878    -6919.914            0    -814.8078     23.32192    21.295604    21.747759     10801.12    -1287.961   -649.12562    -507.3368    92.446088    352.63237     431.7073   -6946.2292 
10903000    40.760434   -6912.3889   -6807.5351   -6912.3889            0   -559.54035    23.176127    21.410923    21.739989    10787.867    48.072694   -1021.7126   -704.98117    1.5720319   -164.33084    508.32684   -6895.5676 
10904000    40.531684   -6917.0964   -6812.8311   -6917.0964            0   -6.4524456    23.293713    21.265436    21.714907      10756.5   -221.21261    197.36358    4.4916953    95.974099   -476.69812   -162.45046   -6813.8433 
10905000    39.771734   -6920.9733    -6818.663   -6920.9733            0   -268.73956    23.122429    21.445034    21.698732    10759.561    207.25874   -230.57626   -782.90114    -362.8751    22.252231   -493.49658   -6860.8328 
10906000    39.386338   -6923.7862   -6822.4672   -6923.7862            0   -698.85964    23.333883    21.256889     21.74723    10786.751   -753.35944   -282.96164   -1060.2579   -37.628464   -541.55597   -180.96629   -6932.4074 
10907000     39.49047   -6918.2793   -6816.6925   -6918.2793            0   -699.31354    23.166869    21.463661    21.682857     10781.71   -664.90084     -990.811   -442.22877     645.7356    -39.48499    25.480522   -6926.6527 
10908000    41.588068   -6923.5845   -6816.6017   -6923.5845            0   -441.68826    23.296528    21.313896    21.693851     10771.86   -448.75855   -146.17341    -730.1328   -528.59738    77.874802   -60.230579   -6885.9894 
10909000     40.87394   -6919.3389   -6814.1932   -6919.3389            0   -335.38905    23.184562    21.425052    21.680843    10769.535   -258.17492   -352.63207   -395.36016    -209.4943    384.02903   -75.701121   -6866.8702 
10910000    38.740638   -6915.4721   -6815.8142   -6915.4721            0    -572.0653    23.300353    21.309315    21.726555    10787.551   -807.94959   -475.20739   -433.03892    -41.08122   -181.89513    276.86987   -6905.8146 
10911000    38.574523   -6918.7808   -6819.5502   -6918.7808            0   -793.38497     23.20489    21.391249    21.750944    10796.768   -372.41128   -805.73601   -1202.0076    15.032175   -84.264737   -37.285624   -6944.4764 
10912000    40.719354   -6916.9131   -6812.1651   -6916.9131            0   -370.19821    23.202503    21.364764    21.742178    10777.946   -575.53779   -23.379442   -511.67739   -138.20635    204.43445    37.380528   -6870.3548 
10913000    41.222592   -6921.1722   -6815.1296   -6921.1722            0   -706.47105    23.229738    21.358215    21.737116    10784.778   -494.35372    -984.9707   -640.08873   -299.53117    126.99808   -192.32221   -6926.2468 
10914000    39.892017   -6920.4249   -6817.8051   -6920.4249            0   -504.74211    23.201174     21.40455    21.705553     10779.21    -510.3939   -499.45448   -504.37796   -289.55588   -180.86027   -61.344261   -6897.1524 
10915000    42.127711   -6922.4964   -6814.1254   -6922.4964            0   -461.97164    23.233752    21.329815    21.739082    10773.273    222.76265   -893.87327    -714.8043   -277.00922   -38.356465   0.19809616   -6886.7091 
10916000    40.001246   -6911.6812   -6808.7804   -6911.6812            0   -398.46095    23.183597    21.427461    21.700257    10779.942   -433.09739   -500.92122   -261.36425   -286.00826    325.65346   -23.831668   -6871.4242 
10917000    40.808237   -6920.8549   -6815.8782   -6920.8549            0   -185.45561     23.27742    21.320431    21.708401    10773.546   -153.30923   -320.49929   -82.558317   -414.72847   -866.15412   -414.35933   -6845.0172 
10918000    41.863358   -6916.4061   -6808.7152   -6916.4061            0   -562.56632    23.204304    21.405908    21.705459    10781.301   -821.49656   -484.71781    -381.4846    332.88767    255.31129    205.77026   -6897.1698 
10919000    42.213277   -6913.8941   -6805.3031   -6913.8941            0   -308.08699    23.343657      21.2909     21.68093    10775.584   -890.61439    406.64301    -440.2896    154.08321    61.215556   -283.93564   -6853.7192 
10920000    41.181604   -6920.2182    -6814.281   -6920.2182            0    -662.3633    23.233385    21.437833    21.647635    10782.112   -1023.4242   -658.95446   -304.71122   -189.16441    591.91005   -133.08896    -6918.435 
10921000    40.005192   -6918.3308   -6815.4199   -6918.3308            0   -256.09818    23.299019    21.300805    21.686966    10762.978   -69.627928   -668.06036   -30.606249    265.35936   -629.85233    231.66969   -6855.6189 
10922000    42.254492   -6920.6042   -6811.9071   -6920.6042            0   -161.80383    23.149751    21.397753    21.709538    10753.878   -49.790427   -435.07626  -0.54478728    -220.0442    61.195652    224.23806   -6837.2835 
10923000     40.21625   -6918.8402   -6815.3863   -6918.8402            0   -545.11037    23.279103    21.252681    21.808008    10789.367   -623.94152   -264.33468   -747.05492   -134.71913    265.44616    47.253206   -6901.1605 
10924000    39.246669     -6918.59   -6817.6303     -6918.59            0   -16.093536    23.139097    21.423542    21.699856    10757.083    473.62556    -178.1221   -343.78407    103.40122    33.054734    331.34301   -6820.1551 
10925000    41.268954   -6920.6705   -6814.5086   -6920.6705            0   -335.58454    23.282064    21.291152      21.7386    10775.867   -816.94374    175.89822   -365.70809   -315.88634    191.18318   -109.24768   -6867.2474 
10926000    39.912994   -6920.3396   -6817.6658   -6920.3396            0   -532.48042    23.159285    21.437438    21.712625    10779.791    -309.7997   -763.78616    -523.8554    476.65107    -592.8372   -410.90313   -6901.3782 
10927000    41.867064   -6914.1638   -6806.4633   -6914.1638            0   -578.74139    23.315061     21.31415    21.704804    10786.001   -838.86417   -357.17069   -540.18932   -391.50993   -72.748769   -205.08242   -6897.5009 
10928000    41.554948   -6918.2057   -6811.3081   -6918.2057            0   -551.33707    23.188967     21.46239    21.660837    10780.396    9.7446694   -1278.8985    -384.8574    205.28082     110.2132   -42.775613   -6897.9899 
10929000     40.53422    -6918.211   -6813.9391    -6918.211            0   -777.21753    23.333189    21.328439    21.677022    10787.798   -1342.2964   -443.20156   -546.15468   -186.35079 -0.039141896    1.2751106    -6936.218 
10930000     40.13271   -6916.6786   -6813.4397   -6916.6786            0   -419.86576    23.224477    21.453806    21.624244    10774.354   -570.95753   -942.86133    254.22157    203.33106    502.47099   -34.832268   -6879.4144 
10931000    40.668776   -6920.0705   -6815.4526   -6920.0705            0   -839.53609    23.275891    21.348523    21.724582    10795.073   -1012.0672   -683.89258   -822.64854    105.47325    -141.8409   -83.366993    -6947.625 
10932000    40.869531   -6915.9201   -6810.7857   -6915.9201            0   -786.80953    23.204893    21.385579    21.764032    10800.403   -315.61681   -921.92877    -1122.883   -512.66896   -37.173258    285.59808   -6934.7183 
10933000     39.87316   -6921.5029   -6818.9317   -6921.5029            0   -653.21977     23.18563    21.378502    21.777285    10794.435   -758.73343   -436.00791   -764.91795   -55.083349    234.37846    62.607115   -6921.7653 
10934000    40.980002    -6922.568   -6817.1494    -6922.568            0   -596.57435    23.219986    21.343336    21.772857    10790.453   -347.20945   -726.47661     -716.037   -93.096808    84.429449    369.75283   -6911.0309 
10935000    41.992625   -6918.3786   -6810.3551   -6918.3786            0   -630.89889    23.187453    21.403925    21.721023    10780.199   -657.57457   -614.67625   -620.44586    244.82787     105.4938    53.898846   -6909.5439 
10936000    43.527571   -6921.4875   -6809.5155   -6921.4875            0    -809.6482    23.293418    21.329107    21.716105    10789.165   -731.98814   -1158.4169   -538.53959    10.443876   -2.1401301    244.10093   -6936.9127 
10937000    39.995448   -6923.3602   -6820.4743   -6923.3602            0   -876.91148    23.227364    21.416844    21.677595    10783.667   -1099.7844   -585.00755    -945.9425    315.32941   -155.04468   -92.059803   -6958.3851 
10938000    43.149404   -6919.3464   -6808.3472   -6919.3464            0   -625.71831    23.331653    21.300064     21.68368    10776.045   -1186.9073   -264.95294   -425.29472   -311.98463    134.77169    256.63115   -6906.6836 
10939000    40.214098   -6924.7556   -6821.3072   -6924.7556            0   -583.33901    23.232154    21.422604    21.638802    10769.485   -354.29158   -1193.3934   -202.33207   -24.642807    236.02924    75.546173   -6912.9276 
10940000    41.474024   -6910.3489   -6803.6595   -6910.3489            0   -573.11776    23.326791    21.299385    21.720373    10791.687    -1249.159    282.52372   -752.71795   -215.45455   -98.873042   -434.11318   -6893.8601 
10941000    41.895307   -6917.7883   -6810.0152   -6917.7883            0   -568.27063    23.172081    21.465953    21.679973    10783.853   -91.075894   -820.16642   -793.56957   -172.14256    126.07952   -58.769821    -6899.388 
10942000    39.946506   -6914.5779    -6811.818   -6914.5779            0   -565.93207    23.269893    21.322725    21.745384    10789.571   -383.72321   -961.91786   -352.15514    182.28625   -174.46215   -45.031383   -6900.8701 
10943000    41.724335   -6922.7301   -6815.3968   -6922.7301            0   -546.84153    23.145793    21.460341    21.718984     10788.18   -410.44234   -654.67017   -575.41207   -129.95933   -305.09417   -1.5759998   -6901.4339 
10944000    41.304519   -6918.8077   -6812.5544   -6918.8077            0    -628.4142    23.320616    21.272967     21.74238    10786.367   -966.15834   -505.71828   -413.36598    33.546484    259.06275    174.68694    -6911.409 
10945000    40.020635   -6913.8296    -6810.879   -6913.8296            0   -536.25912    23.189694    21.437446    21.682141    10778.795   -810.85209   -731.64725   -66.278013    303.13827    60.623981     353.2872   -6895.1777 
10946000    39.454243   -6916.7501   -6815.2565   -6916.7501            0   -858.72757    23.303442    21.310472    21.745278    10798.865    -738.9455   -387.69842   -1449.5388   -38.411864   -272.43995   -184.36857   -6950.4978 
10947000    40.830531    -6917.627   -6812.5929    -6917.627            0   -533.06974     23.16999    21.439538    21.696077    10777.611   -255.28005   -1155.7878   -188.14136    286.31196    570.79302    249.15322    -6896.381 
10948000    42.441339   -6920.3488    -6811.171   -6920.3488            0   -532.81448    23.350846    21.277891    21.700047    10781.815   -838.88129   -546.92832   -212.63383   -213.42746   -511.19765   -26.430951   -6894.9517 
10949000    42.520248   -6919.5133   -6810.1325   -6919.5133            0   -735.97822    23.188339    21.448493    21.692781    10789.012   -737.64676   -1150.5105   -319.77737    311.58087   -49.238289    63.127578   -6925.9363 
10950000    39.359367   -6917.7635   -6816.5139   -6917.7635            0   -839.79867     23.34297    21.290284    21.709828    10789.317   -1059.3197   -561.83883   -898.23748   -68.119722   -181.49543   -497.77101   -6948.6572 
10951000    40.325785   -6916.2097   -6812.4741   -6916.2097            0   -429.07829    23.145614     21.47408    21.661775    10766.569    303.51886   -1064.2592   -526.49448   -213.30335   -346.14336     -153.254   -6879.8477 
10952000    40.932674   -6919.9077   -6814.6109   -6919.9077            0    -572.4162    23.257679    21.306406    21.746846    10776.379   -437.78307   -277.14144   -1002.3241     178.2621   -347.71749    140.54783   -6904.5732 
10953000    39.190765   -6923.0136   -6822.1977   -6923.0136            0   -625.00587    23.116396    21.442714    21.755072    10783.516    133.19524    -1132.119   -876.09386   -108.42358    379.78477    65.646458   -6920.4902 
10954000    39.699937   -6917.9923   -6815.8667   -6917.9923            0   -506.74826     23.23898     21.31924    21.771473    10786.402   -589.71849   -136.61995   -793.90632    129.92875   -138.98303   -94.627475   -6895.5825 
10955000    40.450901   -6921.3789   -6817.3214   -6921.3789            0   -551.10522    23.177228    21.402506    21.740964    10784.622   -568.65305    -582.4709    -502.1917     449.8817     97.18117    12.207701   -6904.0007 
10956000    39.266446     -6920.27   -6819.2595     -6920.27            0   -812.97309    23.281638    21.325622    21.730454    10789.071   -858.36797   -407.93583   -1172.6155    56.023822    197.98074   -77.523092   -6947.1788 
10957000    40.256563   -6923.1112   -6819.5537   -6923.1112            0    -332.9164    23.213297    21.413335    21.657673    10765.468   -78.714025   -788.69062   -131.34457   -446.43781   -174.24188    211.59575   -6871.8226 
10958000    41.826431   -6921.0749   -6813.4789   -6921.0749            0   -362.09797    23.279261    21.303098    21.715811    10769.313   -416.50971    -115.6256    -554.1586   -373.77551    227.94314   -665.75708   -6870.3498 
10959000    40.989497   -6916.4985   -6811.0555   -6916.4985            0   -404.49786    23.247719    21.395873    21.638617    10763.162   -601.18023    -588.4052    -23.90814    421.84484   -8.9522009   -169.02833   -6874.5494 
10960000    38.171944   -6914.0502   -6815.8552   -6914.0502            0   -533.31905    23.235934    21.379189    21.691223     10775.45   -444.13435   -705.65485   -450.16796     -235.792    78.270004   -223.45782   -6899.6657 
10961000    40.761581    -6915.534   -6810.6773    -6915.534            0   -431.71375    23.213678    21.314263    21.792315    10782.455   -35.338709   -155.25671   -1104.5458     136.4327   -433.85558   -13.548499   -6878.5647 
10962000    39.660331   -6920.1622   -6818.1384   -6920.1622            0   -760.37312    23.172118     21.41447    21.733072    10784.355   -547.15386   -795.35194   -938.61357    66.444403    498.25039   -187.66315    -6937.729 
10963000    40.273997   -6919.2781   -6815.6756   -6919.2781            0   -409.77902    23.277982    21.339743    21.691758    10775.297   -1056.2344   -553.21665    380.11398   -8.7523607    48.402201    366.71873   -6880.0711 
10964000    42.465892   -6923.4709     -6814.23   -6923.4709            0   -882.50605    23.173539    21.420636    21.742419    10792.762   -471.41051   -973.21766     -1202.89    132.24737   -228.95182   -25.490118   -6953.1377 
10965000    39.609035   -6921.9735   -6820.0817   -6921.9735            0   -616.99907    23.286291    21.328322    21.712627    10783.739   -737.52855   -414.20567   -699.26301     -159.381    14.446846    287.82332    -6917.117 
10966000    41.202025   -6922.3281   -6816.3384   -6922.3281            0   -514.73433    23.186429    21.442703    21.682878    10780.287    -37.15875   -955.45811   -551.58613   -166.21294   -26.102819    49.188852   -6897.2647 
10967000    41.165883     -6919.95   -6814.0533     -6919.95            0    -672.4123    23.309802    21.273648    21.763211     10792.04   -859.13969   -374.53142   -783.56578   -421.47024    349.35433   -302.74573   -6919.8848 
10968000    41.486608   -6917.1883   -6810.4665   -6917.1883            0   -843.36776    23.200103    21.433735    21.702065    10791.674   -449.80331   -1382.7269   -697.57307    301.73103   -538.44333   -26.903777   -6943.2004 
10969000    40.019831   -6918.5829   -6815.6343   -6918.5829            0   -532.27598    23.303581    21.267796    21.754966    10782.105   -1079.8007    16.945107   -533.97236   -235.31737    34.076366    194.08502   -6899.3325 
10970000    39.142071   -6921.1931   -6820.5026   -6921.1931            0   -677.27074    23.142476    21.431831    21.730268    10777.901   -221.84656   -891.60181   -918.36385    655.22097    405.70249   -160.22761   -6926.9591 
10971000     39.25888   -6917.0331    -6816.042   -6917.0331            0   -471.98378    23.327427    21.267433    21.731739    10781.431   -1369.4227    244.42164   -290.95028   -293.43212   -27.762721    215.20539   -6890.2549 
10972000    40.592668   -6922.2564   -6817.8342   -6922.2564            0    -668.9578    23.160068    21.473005    21.671268    10777.474   -228.82153   -1177.8362   -600.21565    523.78002   -235.98474    221.45775   -6922.9799 
10973000    41.231035    -6924.659   -6818.5947    -6924.659            0   -770.23379    23.351002    21.258183    21.730733    10787.133   -1203.4098   -125.79423   -981.49739   -516.66258   -40.420243   -629.70839   -6939.7673 
10974000    41.818198   -6916.2966   -6808.7218   -6916.2966            0   -713.03163    23.136656      21.4962    21.682453    10783.772   -219.06538   -1473.6518   -446.37773   -525.68708    562.94147    19.169321   -6920.8605 
10975000    41.399953   -6924.2183   -6817.7195   -6924.2183            0   -647.46116    23.272985     21.31116     21.72957    10777.309    -654.9554   -551.04316   -736.38492    370.81553    -259.9289    271.46408   -6919.4848 
10976000    40.739396   -6920.7146    -6815.915   -6920.7146            0   -561.15498       23.153     21.45614    21.695456    10777.739   -509.37279   -888.71789   -285.37425    722.16899    10.220424    58.653004   -6904.1186 
10977000    41.514646   -6912.7376   -6805.9437   -6912.7376            0   -604.19524    23.291002     21.29106    21.763262    10792.187   -526.72154   -198.65992   -1087.2043    36.974564   -244.17911   -349.13129   -6901.0397 
10978000    42.791739   -6916.6719   -6806.5927   -6916.6719            0   -747.13125    23.198964    21.426117    21.705167    10788.851   -852.63492   -1014.0216   -374.73726   -155.56195    41.271223    46.839974   -6924.1496 
10979000    39.618941   -6914.4292   -6812.5119   -6914.4292            0   -626.92689    23.259016    21.357187    21.709776     10784.27   -792.98349    -423.0737   -664.72349   -74.669699     151.7038   -263.27702   -6911.1134 
10980000    42.235349    -6917.737   -6809.0892    -6917.737            0   -1074.1296    23.228223    21.364484    21.760037    10798.614   -863.37698   -623.35068   -1735.6612   -5.2876351    7.4369837   -46.502871   -6978.2503 
10981000    43.493562   -6920.2765   -6808.3919   -6920.2765            0   -497.98482    23.260364    21.391478    21.642638    10768.805   -327.46578   -1081.8048   -84.683849   -132.71361   -175.57813   -374.02498   -6886.6014 
10982000    41.258324   -6918.9743   -6812.8397   -6918.9743            0   -228.64325    23.260569    21.324582    21.703325    10765.325   -330.79487    52.378111     -407.513    377.42053   -276.86585   -71.438716    -6848.737 
10983000    40.674438   -6922.6386   -6818.0061   -6922.6386            0   -646.78771    23.216867     21.37928    21.727046    10784.435   -391.34149   -665.26671   -883.75493    77.047647    125.43328    418.40015   -6919.7328 
10984000     40.81415    -6917.812   -6812.8201    -6917.812            0   -194.00705    23.194445    21.354744    21.748133    10772.099    -57.18763   -259.57673    -265.2568   -266.32745   -205.83272   -84.696317   -6843.2986 
10985000    39.434568    -6916.967    -6815.524    -6916.967            0   -460.91606    23.130572    21.395491    21.778251    10777.837    89.787281   -667.07719   -805.45829    39.946678   -30.864729   -198.12866   -6887.9725 
10986000    39.113033   -6914.9044   -6814.2885   -6914.9044            0   -625.35069    23.307521     21.29039    21.737517    10786.726   -945.46915   -360.60495   -569.97797   -210.45465   -82.776748   -121.32092   -6912.6645 
10987000    40.080705   -6920.4739   -6817.3687   -6920.4739            0    -542.2705     23.15882    21.427493     21.70109     10768.85   -361.61938   -49.177407   -1216.0147    153.71465   -2.7703792   -300.37217   -6902.5337 
10988000    42.086951   -6917.1949   -6808.9288   -6917.1949            0   -400.25393    23.312352    21.264657    21.725224    10769.827   -462.24939   -76.236423   -662.27597   -149.87924    145.94852    264.35069   -6871.7955 
10989000    39.004653   -6916.1022   -6815.7651   -6916.1022            0    2.9616718    23.159766     21.47436    21.608964    10747.027   -116.65865   -278.67603     404.2197    516.80579   -15.283866   -178.58997   -6815.3009 
10990000    41.397656   -6918.6828   -6812.1899   -6918.6828            0   -598.33265    23.319258    21.261878    21.748847    10783.322   -670.03521   -307.26244    -817.7003    10.694108   -335.06414   -5.4026389   -6906.2859 
10991000    39.637642   -6918.4718   -6816.5064   -6918.4718            0    -649.8777    23.157191     21.44582    21.709821    10781.639   -999.59309   -628.95211   -321.08788    65.989368    276.49551    80.550214   -6918.6926 
10992000    39.609472   -6918.5974   -6816.7044   -6918.5974            0     -479.744    23.289627    21.327403     21.69792    10777.514   -634.90289   -168.46063   -635.86848   -510.22623    -10.62965   -286.20974   -6892.1101 
10993000    40.183308    -6915.697   -6812.3279    -6915.697            0     -774.731    23.145773    21.465035    21.724091    10793.068   -73.766749   -1203.1572    -1047.269   -260.23062    428.56786    36.441831    -6934.275 
10994000    40.245573   -6917.4372   -6813.9079   -6917.4372            0   -293.80598     23.29246    21.325599    21.680874    10769.447   -984.34093    44.541433    58.381549   -86.114889   -14.321251    248.92934   -6860.0535 
10995000    43.592634   -6919.5856   -6807.4462   -6919.5856            0   -462.09341    23.178943    21.447436    21.673766    10774.655   -498.83938   -788.66172   -98.779135    201.06427    175.79842    127.19319   -6880.0584 
10996000    39.260268   -6918.0852   -6817.0906   -6918.0852            0     -429.849    23.278685    21.311447    21.726767    10778.702   -312.77406   -447.72023    -529.0527   -407.29105   -14.254992    159.66233   -6884.6613 
10997000    40.555216   -6918.4805   -6814.1547   -6918.4805            0   -847.20008    23.202406    21.419321    21.697233    10783.086    -617.8066    -1422.817   -500.97659    297.97013    268.55269    452.25242   -6947.3856 
10998000    41.989365   -6920.3697   -6812.3546   -6920.3697            0   -867.02153    23.281256    21.347864     21.70974    10789.851   -1089.6888   -618.65888   -892.71688    129.09571   -263.84974    49.308993   -6948.7881 
10999000    40.377983   -6920.8921   -6817.0222   -6920.8921            0   -451.86611    23.212381    21.356069     21.74302    10778.563   -436.47482   -536.49081    -382.6327    19.373776    314.52626   -20.981669    -6888.053 
11000000    41.727228   -6912.8559   -6805.5151   -6912.8559            0   -280.52467     23.28583    21.356678    21.663275    10773.319    120.29306   -692.38943   -269.47765      549.878   -491.87992    184.86158   -6849.5905 
Loop time of 532.982 on 64 procs for 250000 steps with 1296 atoms

Performance: 81.053 ns/day, 0.296 hours/ns, 469.059 timesteps/s
99.1% CPU use with 64 MPI tasks x 1 OpenMP threads

MPI task timing breakdown:
Section |  min time  |  avg time  |  max time  |%varavg| %total
---------------------------------------------------------------
Pair    | 27.806     | 39.808     | 52.39      | 125.2 |  7.47
Bond    | 0.28153    | 0.28922    | 0.29869    |   0.7 |  0.05
Kspace  | 269.97     | 283.65     | 295.96     |  47.1 | 53.22
Neigh   | 0.13779    | 0.14338    | 0.14698    |   0.5 |  0.03
Comm    | 89.733     | 91.759     | 95.446     |  18.8 | 17.22
Output  | 0.55036    | 0.55198    | 0.55352    |   0.1 |  0.10
Modify  | 103.1      | 105.53     | 108.52     |  13.2 | 19.80
Other   |            | 11.25      |            |       |  2.11

Nlocal:        20.2500 ave          27 max          13 min
Histogram: 1 5 13 7 2 10 3 15 3 5
Nghost:        2606.94 ave        2625 max        2587 min
Histogram: 2 6 9 7 7 5 6 10 6 6
Neighs:        6482.28 ave        8670 max        4243 min
Histogram: 1 9 9 7 7 5 8 10 3 5

Total # of neighbors = 414866
Ave neighs/atom = 320.11265
Ave special neighs/atom = 2.0000000
Neighbor list builds = 269
Dangerous builds = 0

unfix		3
unfix		2
unfix		1

write_data	data.final.${pid}
write_data	data.final.0
System init for write_data ...
PPPM initialization ...
  extracting TIP4P info from pair style
  using 12-bit tables for long-range coulomb (../kspace.cpp:340)
  G vector (1/distance) = 0.36615123
  grid = 30 40 32
  stencil order = 5
  estimated absolute RMS force accuracy = 0.0048274073
  estimated relative force accuracy = 1.4537594e-05
  using double precision FFTW3
  3d grid and FFT values/proc = 5168 640
Last active /omp style is kspace_style pppm/tip4p/omp
WARNING: Not all mixed pair coeffs generated from mixing. Use write_data with 'pair ij' option to store all pair coeffs. (../write_data.cpp:312)

write_restart   restart.lmp.${pid}
write_restart   restart.lmp.0
System init for write_restart ...
PPPM initialization ...
  extracting TIP4P info from pair style
  using 12-bit tables for long-range coulomb (../kspace.cpp:340)
  G vector (1/distance) = 0.36615123
  grid = 30 40 32
  stencil order = 5
  estimated absolute RMS force accuracy = 0.0048274073
  estimated relative force accuracy = 1.4537594e-05
  using double precision FFTW3
  3d grid and FFT values/proc = 5168 640
Last active /omp style is kspace_style pppm/tip4p/omp
Total wall time: 0:08:53
