LAMMPS (30 Jul 2021)
  using 1 OpenMP thread(s) per MPI task
package omp 0
using multi-threaded neighbor list subroutines
echo both

include		in.partitions
variable        pid world 0
include		in.temp
variable        temperature equal 262.08
variable	tempDamp equal 100.0
include		in.pressure
variable        pressure equal 8000.0
variable        pressureDamp equal 1000.0 # This is 1 ps
include		in.seed
variable        seed world 745823

units		real
atom_style	full
read_restart	restart.lmp.${pid}
read_restart	restart.lmp.0
Reading restart file ...
  restart file = 30 Jul 2021, LAMMPS = 30 Jul 2021
  restoring atom style full from restart
  orthogonal box = (0.57440898 1.7681092 0.70077762) to (17.633163 21.861069 21.512418)
  4 by 4 by 4 MPI processor grid
  restoring pair style lj/cut/tip4p/long/omp from restart
  restoring bond style harmonic/omp from restart
  restoring angle style harmonic/omp from restart
  864 atoms
  576 bonds
  288 angles
Finding 1-2 1-3 1-4 neighbors ...
  special bond factors lj:    0        0        0       
  special bond factors coul:  0        0        0       
     2 = max # of 1-2 neighbors
     1 = max # of 1-3 neighbors
     1 = max # of 1-4 neighbors
     2 = max # of special neighbors
  special bonds CPU = 1.926 seconds
  read_restart CPU = 2.291 seconds
include 	in.setup
variable	out_freq equal 1000
variable	out_freq2 equal 10000
variable	out_freq3 equal 1000

timestep	2.0

neigh_modify    delay 7 every 1

include		in.tip4p
# This is TIP4P/Ice

# create groups ###
group ox type 2
288 atoms in group ox
group hy type 1
576 atoms in group hy

# set charges - beside manually ###
set group ox charge -1.1794
Setting atom values ...
  288 settings made for charge
set group hy charge 0.5897
Setting atom values ...
  576 settings made for charge

# ### TIP3P Potential Parameters ###
pair_style lj/cut/tip4p/long/omp 2 1 1 1 0.1577 8.5
pair_coeff 1 1*2 0.000 0.000
pair_coeff 2 2 0.21084 3.1668
bond_style  harmonic
bond_coeff  1 450 0.9572
angle_style harmonic
angle_coeff 1 55 104.52
kspace_style pppm/tip4p/omp 1.0e-5
pair_modify tail yes

thermo          ${out_freq}
thermo          1000
thermo_style    custom step temp pe etotal epair emol press lx ly lz vol pxx pyy pzz pxy pxz pyz enthalpy

restart 	${out_freq3} restart.lmp.${pid} restart2.lmp.${pid}
restart 	1000 restart.lmp.${pid} restart2.lmp.${pid}
restart 	1000 restart.lmp.0 restart2.lmp.${pid}
restart 	1000 restart.lmp.0 restart2.lmp.0


include         in.dump
dump            myDump all atom ${out_freq2} dump.water.${pid}
dump            myDump all atom 10000 dump.water.${pid}
dump            myDump all atom 10000 dump.water.0
dump            myDump2 all dcd ${out_freq2} dump.dcd
dump            myDump2 all dcd 10000 dump.dcd
dump_modify     myDump append yes
dump_modify     myDump2 append yes


variable natoms 	equal  "count(all)"                        # NUMBER ATOMS
variable H      	equal  "enthalpy/v_natoms"                 # ENTHALPY-per-atom
variable Vol      	equal  "vol/v_natoms"                 # volume-per-atom
fix AVG all 		ave/time ${out_freq} 1 ${out_freq} v_Vol v_H file vol_enthalpy.dat
fix AVG all 		ave/time 1000 1 ${out_freq} v_Vol v_H file vol_enthalpy.dat
fix AVG all 		ave/time 1000 1 1000 v_Vol v_H file vol_enthalpy.dat


timer           timeout 23:50:00 every 1000
New timer settings: style=normal  mode=nosync  timeout=23:50:00

fix 		1 all shake 1e-6 200 0 b 1 a 1
       0 = # of size 2 clusters
       0 = # of size 3 clusters
       0 = # of size 4 clusters
     288 = # of frozen angles
  find clusters CPU = 0.372 seconds
fix             2 all nph iso ${pressure} ${pressure} ${pressureDamp}
fix             2 all nph iso 8000 ${pressure} ${pressureDamp}
fix             2 all nph iso 8000 8000 ${pressureDamp}
fix             2 all nph iso 8000 8000 1000
fix             3 all temp/csvr ${temperature} ${temperature} ${tempDamp} ${seed}
fix             3 all temp/csvr 262.08 ${temperature} ${tempDamp} ${seed}
fix             3 all temp/csvr 262.08 262.08 ${tempDamp} ${seed}
fix             3 all temp/csvr 262.08 262.08 100 ${seed}
fix             3 all temp/csvr 262.08 262.08 100 745823

run             250000
PPPM initialization ...
  extracting TIP4P info from pair style
  using 12-bit tables for long-range coulomb (../kspace.cpp:340)
  G vector (1/distance) = 0.37385519
  grid = 24 24 24
  stencil order = 5
  estimated absolute RMS force accuracy = 0.0032076839
  estimated relative force accuracy = 9.6598449e-06
  using double precision FFTW3
  3d grid and FFT values/proc = 2535 216
Last active /omp style is kspace_style pppm/tip4p/omp
Neighbor list info ...
  update every 1 steps, delay 7 steps, check yes
  max neighbors/atom: 2000, page size: 100000
  master list distance cutoff = 10.8154
  ghost atom cutoff = 10.8154
  binsize = 5.4077, bins = 4 4 4
  1 neighbor lists, perpetual/occasional/extra = 1 0 0
  (1) pair lj/cut/tip4p/long/omp, perpetual
      attributes: half, newton on, omp
      pair build: half/bin/newton/omp
      stencil: half/bin/3d
      bin: standard
Per MPI rank memory allocation (min/avg/max) = 9.235 | 9.239 | 9.243 Mbytes
Step Temp PotEng TotEng E_pair E_mol Press Lx Ly Lz Volume Pxx Pyy Pzz Pxy Pxz Pyz Enthalpy 
 4000000    277.47764   -3874.0546   -3398.4674   -3874.0546            0    7638.1159    17.058754    20.092959    20.811641    7133.4158    7858.1722    9269.7631    5786.4125    366.77308   -819.94637    756.61148    -2603.847 
 4001000    258.56372   -3871.4629   -3428.2935   -3871.4629            0     8440.343    17.040525    20.071487    20.789401    7110.5712    6903.6642    8685.5064    9731.8584   -189.26858    1083.1354   -2066.6622   -2553.0266 
 4002000    273.63063   -3894.6606   -3425.6671   -3894.6606            0    6482.4131    17.111504    20.155091    20.875994    7199.7946    7517.5847    4936.5885    6993.0661    610.53196   -164.82584    -1650.368   -2745.0032 
 4003000    263.71803   -3879.2051   -3427.2015   -3879.2051            0    8639.3462    17.032556    20.062101    20.779678    7100.5998    9882.0315    6692.3861    9343.6211    462.66527   -248.01133    1163.2204   -2532.5543 
 4004000    241.09619   -3890.6938   -3477.4632   -3890.6938            0    9983.9182    16.920151    19.929703    20.642545    6960.9466    9167.7996    9894.4374    10889.518    571.20241    605.24803   -78.198865   -2463.9131 
 4005000    265.83046   -3863.9721   -3408.3478   -3863.9721            0    9066.6053    16.990235    20.012252    20.728047    7047.8026     6918.876    10525.037    9755.9026      56.4835   -1365.4157    -6.250415    -2476.437 
 4006000    267.21806   -3850.9989   -3392.9963   -3850.9989            0    7684.4495    16.979657    19.999793    20.715142    7034.6472    7770.4185    7705.4335    7577.4963    218.08917   -224.82754   -1032.7322   -2604.6247 
 4007000    265.49992   -3831.1542   -3376.0964   -3831.1542            0    8393.1338     16.99854    20.022035    20.738179    7058.1428    7811.4118    9169.3925     8198.597   -2651.1203    1942.7913    1040.0078   -2512.1427 
 4008000    261.22134   -3854.2415   -3406.5171   -3854.2415            0    6754.6704    17.082729    20.121198    20.840889    7163.5337    6932.2246    6633.0709    6698.7157   -676.63339     12.89518   -838.03367   -2700.8378 
 4009000    288.18149   -3873.8847   -3379.9515   -3873.8847            0    8379.0349    17.070292     20.10655    20.825717    7147.8999    8117.1588     8451.775    8568.1709    1927.5372   -1976.7493    2181.0059   -2506.4808 
 4010000    266.72038   -3877.5162   -3420.3666   -3877.5162            0    5662.8602     17.15832    20.210235     20.93311    7259.0516    7195.3034    3250.9913    6542.2858    31.088635    1316.1855    387.53101   -2820.8632 
 4011000    270.15412   -3888.0937   -3425.0588   -3888.0937            0    6831.6598    17.057408    20.091374    20.809998    7131.7274    8343.0188    5173.0327    6978.9278    647.82476   -439.03496   -1931.9575   -2714.5052 
 4012000    282.30743   -3862.0152   -3378.1499   -3862.0152            0    6297.7751    17.119857     20.16493    20.886185    7210.3435    6198.9715    4598.5538    8095.8001    1316.8049   -954.40076    874.37175   -2715.9044 
 4013000    265.96045   -3839.7532   -3383.9061   -3839.7532            0    9115.8226    17.116954    20.161511    20.882644    7206.6764     10316.43    9595.9149    7435.1228    770.28627   -151.90057   -185.97499   -2425.8151 
 4014000    257.78147   -3866.4028   -3424.5742   -3866.4028            0     8055.919    17.055141    20.088703    20.807232    7128.8832     6460.449    9435.2699    8272.0379    298.12403    202.78378    -1127.869   -2587.0209 
 4015000    262.65127   -3852.3754   -3402.2001   -3852.3754            0    7519.6694    17.091779    20.131858     20.85193    7174.9252    7081.7444    8361.1303    7116.1335   -963.04239   -1065.0421    817.79375     -2615.35 
 4016000    266.13434   -3860.2935   -3404.1484   -3860.2935            0    8176.0374    17.051236    20.084104    20.802468    7123.9884    8106.2564    6680.2856    9741.5701    1217.5549    193.28289   -29.204269   -2554.6903 
 4017000    263.77162   -3840.0342   -3387.9387   -3840.0342            0    8284.2145    17.031932    20.061366    20.778917    7099.8201    8930.7097    7648.8246    8273.1093   -17.255629   -230.34558   -415.47628   -2530.1613 
 4018000    253.44283   -3865.0784   -3430.6861   -3865.0784            0    7329.0473    17.036302    20.066513    20.784248    7105.2859    7292.1174    7156.3704     7538.654    347.83776    -58.30963    133.41703    -2671.226 
 4019000    251.93831   -3825.7851   -3393.9714   -3825.7851            0     8038.623     16.97112    19.989738    20.704727    7024.0425    7948.6456    7966.1967    8201.0268   -1206.7543   -1570.5391      124.278   -2570.5073 
 4020000    257.48167   -3866.1681   -3424.8533   -3866.1681            0    7866.3434    16.954733    19.970436    20.684735    7003.7152    8028.7159    8224.7094    7345.6049   -2048.0187   -480.20743    851.95038   -2621.3693 
 4021000    259.59401   -3879.3812   -3434.4459   -3879.3812            0    7553.6702    16.992613    20.015053    20.730948    7050.7622    7222.6998    8637.4768     6800.834    -512.2291   -72.370348    884.02933   -2657.7161 
 4022000    265.99506    -3862.537   -3406.6305    -3862.537            0    5735.5807    17.068437    20.104364    20.823453    7145.5696    7649.1601     4597.456    4960.1259    1200.6926   -97.140361   -507.17916   -2808.9211 
 4023000    239.88372   -3860.3569   -3449.2044   -3860.3569            0    7012.2749    17.021768    20.049395    20.766518    7087.1172    6683.6269    6563.7376    7789.4601   -603.76828     280.5233    -1795.765   -2724.4273 
 4024000    261.85244   -3791.5292   -3342.7231   -3791.5292            0    7357.1628    17.013558    20.039724    20.756501    7076.8673    6746.2399    7425.3375     7899.911    1471.9384   -804.34064   -607.63566   -2583.3988 
 4025000    264.07059    -3859.714   -3407.1061    -3859.714            0    8680.4501    16.977619    19.997392    20.712655    7032.1143    9055.9863    9748.1027    7237.2613   -444.27763    982.96031    277.64864   -2516.8723 
 4026000    268.16161   -3848.7366   -3389.1168   -3848.7366            0    8147.7485    16.957988     19.97427    20.688706    7007.7497    7456.5511    8631.4253    8355.2692    52.179685   -266.65978    718.09925     -2556.41 
 4027000    271.13129   -3858.0638    -3393.354   -3858.0638            0     8059.341    16.932328    19.944046    20.657401    6975.9866    7665.4134    6542.5274    9970.0821   -887.98191   -368.21191   -1052.3823    -2573.416 
 4028000    260.01964   -3877.7974   -3432.1327   -3877.7974            0    6822.7691    17.006443    20.031343    20.747821    7067.9919    7101.1725    5914.3313    7452.8034    539.61215    -287.1865    922.60702   -2728.8456 
 4029000    254.58779   -3898.4018    -3462.047   -3898.4018            0     6840.168    16.998923    20.022486    20.738646    7058.6198    5018.2076    8775.6758    6726.6206    -22.23481    8.3050051    840.81012   -2757.9015 
 4030000     266.9902   -3852.2906   -3394.6785   -3852.2906            0    9519.3524    17.013011     20.03908    20.755834    7076.1847     8232.746    10893.409    9431.9024    697.06834    770.51442   -822.31217   -2412.2919 
 4031000    274.36373   -3852.8072   -3382.5571   -3852.8072            0    7250.7223    17.087294    20.126575    20.846458    7169.2782    5820.9043    6858.2931    9072.9695    -164.0391   -237.25755   -1338.1717   -2624.4465 
 4032000    257.63688   -3842.9162   -3401.3354   -3842.9162            0    7452.9027    17.017254    20.044077     20.76101    7081.4798    5977.9755    7409.7526    8970.9799     -747.341    460.73707    1556.5403   -2631.6286 
 4033000    264.13507   -3871.8436   -3419.1252   -3871.8436            0    7726.0045     17.04092    20.071953    20.789882    7111.0656    7679.1049    6440.7509    9058.1576    2039.0955   -1771.5363    1029.3967   -2617.8798 
 4034000    252.44618   -3886.7138   -3454.0297   -3886.7138            0    9914.6259    17.007102     20.03212    20.748625    7068.8136    8841.4706    10799.442    10102.965    2235.3322   -1366.4605   -401.28024   -2431.9171 
 4035000    252.02519   -3907.3975   -3475.4349   -3907.3975            0    9200.7208    17.013855    20.040074    20.756864    7077.2377    7137.6198    12089.332    8375.2105    807.21125   -85.806921    131.65718   -2525.7894 
 4036000    261.52734   -3878.0816   -3429.8326   -3878.0816            0     8843.595    16.956441    19.972447    20.686818    7005.8313    8319.3053    7364.9672    10846.512     793.7888    534.44583    630.60288   -2526.2572 
 4037000    262.02558   -3862.6372   -3413.5344   -3862.6372            0    10175.514     16.91033    19.918135    20.630563    6948.8325    8280.8107    10551.551    11694.179   -552.47316    899.64176    122.80691   -2382.3316 
 4038000    260.66016   -3873.3961   -3426.6335   -3873.3961            0    9372.5882    16.964044    19.981403    20.696094    7015.2602     8474.721    10728.789    8914.2541   -1044.2529    1858.7979   -810.59319   -2467.7205 
 4039000    258.88423   -3867.6415   -3423.9227   -3867.6415            0    8274.3159    16.956068    19.972008    20.686363    7005.3691    7287.5516    9904.2234    7631.1728    815.43977   -35.656024   -446.01726    -2578.568 
 4040000    256.85526    -3883.199   -3442.9579    -3883.199            0    7490.9322    16.983147    20.003904    20.719399    7038.9857    5165.0093    8985.3135    8322.4738    725.56224    1401.4104   -1941.1022   -2673.9659 
 4041000    259.14857   -3876.2772   -3432.1054   -3876.2772            0    6084.5829    17.019868    20.047156    20.764199    7084.7433    6212.9496    6383.0037    5657.7954   -46.469223    395.46528   -463.87227   -2803.4237 
 4042000    266.75065   -3894.5574   -3437.3559   -3894.5574            0    5925.1034    17.047538    20.079748    20.797957    7119.3545    7194.7666     3658.958    6921.5857    -1007.575    229.99746    529.82183   -2822.1614 
 4043000    267.50934   -3863.7483   -3405.2465   -3863.7483            0    6699.3304    17.015735    20.042289    20.759158    7079.5844    6171.8345    5997.7157    7928.4409     155.7205   -118.67799   -63.139502   -2713.5508 
 4044000    262.50426    -3832.846   -3382.9227    -3832.846            0    9661.4208    16.934462    19.946559    20.660004    6978.6235     9192.383    10605.111    9186.7687   -1257.1097   -565.56023    1242.3829   -2399.6213 
 4045000    256.51861   -3890.9131    -3451.249   -3890.9131            0    8646.3958    16.949618    19.964411    20.678495    6997.3782    10614.762    8968.1248    6356.3004    720.61297    372.68429    2049.2419   -2568.8879 
 4046000    273.32948   -3867.9981   -3399.5207   -3867.9981            0    6965.9621    17.043131    20.074557     20.79258    7113.8338    5415.5214    7446.2971    8036.0679    1799.0891   -1891.0303   -1320.4734   -2676.8163 
 4047000    248.23633   -3845.2899   -3419.8213   -3845.2899            0    8990.1466    16.975342     19.99471    20.709877    7029.2854    9387.9703    8176.7962    9405.6731   -1985.8461   -10.700824   -379.86975   -2498.1971 
 4048000    258.94835   -3845.5541   -3401.7255   -3845.5541            0    7694.6261    17.002083    20.026208    20.742501    7062.5572    6631.0649     8287.934    8164.8795   -1878.7388    -963.4281   -1227.6344   -2609.1778 
 4049000    260.73984    -3835.538   -3388.6389    -3835.538            0    8923.8641    16.935595    19.947894    20.661386    6980.0249     8679.495    9159.6008    8932.4964    495.39863   -165.29717    1795.5288   -2480.2207 
 4050000    244.61446    -3839.897   -3420.6362    -3839.897            0     8621.053    16.927369    19.938204     20.65135    6969.8583    7955.8702    9403.8501    8503.4386    76.716762   -1474.2163    156.07174   -2544.3214 
 4051000    274.93836   -3874.2862   -3403.0513   -3874.2862            0    5227.6928    17.047163    20.079306    20.797499    7118.8843    3734.6392    6028.2045    5920.2347   -1100.9929    143.82352   -1246.2737   -2860.3037 
 4052000    252.26202   -3845.6361   -3413.2676   -3845.6361            0    7379.8021    16.995742    20.018739    20.734766    7054.6584    5901.4955    8206.4803    8031.4305    -558.0174   -462.46422     723.0059    -2653.997 
 4053000     257.4156   -3854.0863   -3412.8848   -3854.0863            0    9083.6742    16.950844    19.965855     20.67999    6998.8968    8672.1525    9313.1608    9265.7091   -23.379144     325.7313   -1169.5462   -2485.6984 
 4054000    280.41659   -3863.0529   -3382.4285   -3863.0529            0    6172.7998    17.001882    20.025971    20.742256    7062.3066    7613.9943    5025.2777    5879.1275   -607.92123   -137.67684   -1283.2751   -2746.6517 
 4055000    259.40331   -3876.9139   -3432.3055   -3876.9139            0    8005.4638    17.085169    20.124072    20.843866    7166.6041      10825.4    7512.4124    5678.5788   -1276.8989   -50.683591    1639.3849   -2595.5939 
 4056000     266.7674   -3847.2686   -3390.0384   -3847.2686            0    5440.8613    17.078207    20.115873    20.835373    7157.8476    5908.3266    6263.9043    4150.3529    2381.1965   -985.82617   -333.87787   -2822.0676 
 4057000    270.10359   -3881.9433    -3418.995   -3881.9433            0    7019.3848    17.058303    20.092427    20.811089    7132.8492    8939.9483    6381.3716    5736.8344   -157.67116   -637.03822    1334.2058   -2688.8014 
 4058000    264.70953   -3855.3244   -3401.6213   -3855.3244            0    8168.4708    17.031689     20.06108     20.77862    7099.5157    9074.9412    7436.3302    7994.1409   -271.86393   -107.10998   -850.95804   -2555.8647 
 4059000    256.89946   -3850.2384   -3409.9215   -3850.2384            0    7082.5167     17.04319    20.074626    20.792652    7113.9078    6696.1557    5675.0165     8876.378   -144.13346    -1454.189    1210.5633   -2675.1171 
 4060000    263.80054   -3895.5543   -3443.4092   -3895.5543            0    7477.7131    17.066841    20.102484    20.821506    7143.5647    7806.6047    6061.5501    8564.9844   -906.78059   -35.963299    529.47996   -2664.3694 
 4061000    260.73931   -3852.7871   -3405.8888   -3852.7871            0    8027.6529    17.041273    20.072369    20.790314    7111.5081    9216.9293    6342.9174    8523.1119    84.944596   -116.54304   -409.09952   -2573.3084 
 4062000    263.54225   -3827.9633   -3376.2609   -3827.9633            0    7040.1455    17.016703    20.043428    20.760338     7080.792    7615.1206    5241.0398    8264.2762    -354.1557   -212.10239    51.315695   -2649.2526 
 4063000    278.79621   -3848.6012    -3370.754   -3848.6012            0     7754.894    16.990536    20.012608    20.728415     7048.178    7193.3167    6679.9923    9391.3731    1490.0636   -801.56102     1359.098    -2573.625 
 4064000    262.50973   -3847.5584   -3397.6257   -3847.5584            0    8527.2276    16.936534       19.949    20.662532    6981.1858    9005.8168    7565.7621    9010.1038    988.36632   -535.07463    1182.6368   -2529.4394 
 4065000    255.85538   -3902.3583   -3463.8309   -3902.3583            0    7970.4859    17.022372    20.050106    20.767254    7087.8714    8373.9584    7562.4354     7975.064   -382.41978   -13.737772     -86.8293   -2639.9271 
 4066000    263.43343   -3850.6215   -3399.1056   -3850.6215            0    5431.7241    17.117213    20.161816     20.88296     7207.004    5073.9666    5271.0089    5950.1967    1154.4015    -1319.214    2137.9627   -2828.1947 
 4067000    258.85108   -3908.6577   -3464.9958   -3908.6577            0    5522.6781    17.042572    20.073899    20.791898    7113.1343    5805.2613    6431.8244    4330.9486   -165.35135   -947.26755   -964.99409   -2892.0855 
 4068000    268.92409   -3872.5772   -3411.6505   -3872.5772            0    8291.2615    16.986586    20.007954    20.723595    7043.2625    9274.3385    8625.4021     6974.044   -1002.2843   -282.07953   -1210.4139   -2559.9824 
 4069000    255.27068   -3883.6089   -3446.0837   -3883.6089            0    7825.9768    16.959858    19.976473    20.690987    7010.0679    4814.6226    7454.9396    11208.368   -629.30076     976.0093    837.51461   -2645.9977 
 4070000    263.00343   -3857.7739    -3406.995   -3857.7739            0    8155.9824    16.939853    19.952909    20.666581    6985.2905    7878.7078    8820.9716    7768.2679   -2728.3367   -101.57775    -411.5238   -2576.1182 
 4071000    248.70186   -3850.5461   -3424.2796   -3850.5461            0    6114.2348    17.022242    20.049953    20.767096    7087.7094    5909.4836    6192.1278    6241.0931    1903.1722    1394.7649   -278.48197   -2792.2696 
 4072000    276.53767   -3804.6968   -3330.7207   -3804.6968            0    7341.6426    16.995496    20.018449    20.734465    7054.3518    7475.6489     6614.069    7935.2101    1379.2367   -1960.8984   -1475.6789   -2575.4089 
 4073000    260.38948   -3867.6183   -3421.3196   -3867.6183            0    7919.7236    17.012007    20.037897    20.754608    7074.9312    7676.9097     6263.641    9818.6201   -203.18867    -237.1824    35.015204   -2604.1577 
 4074000    263.49732   -3872.5223   -3420.8969   -3872.5223            0     8278.018    17.011072    20.036796    20.753468    7073.7651    8880.5106     8628.216    7325.3274    1156.0239    19.910332    -1398.025   -2566.9067 
 4075000    260.51432   -3832.7927   -3386.2801   -3832.7927            0    7402.5747    16.985762    20.006984     20.72259    7042.2379    8927.2675    6716.0841    6564.3725   -1237.5243   -611.98469   -741.11138   -2626.0074 
 4076000    248.86687   -3856.0662   -3429.5169   -3856.0662            0    6249.1268    17.070519    20.106817    20.825994    7148.1851    6551.9359    6142.6101    6052.8343   -1865.1547   -524.13099    -1155.595    -2778.052 
 4077000    252.07002   -3875.5712   -3443.5318   -3875.5712            0    8632.3408    17.015098    20.041538     20.75838    7078.7894    10143.462    6446.9577    9306.6025   -1565.2236    -784.1128    830.83753   -2552.3559 
 4078000    282.05052   -3827.5219    -3344.097   -3827.5219            0    9844.7922    16.947702    19.962155    20.676157    6995.0056    9744.2247    10816.032    8974.1202   -1024.2577    1156.5943    2099.1071   -2339.7807 
 4079000    270.01121   -3878.9962   -3416.2062   -3878.9962            0    8284.8106    16.974868    19.994152    20.709299    7028.6962    8799.1458    8853.0529     7202.233    644.04761   -357.39635    531.50819   -2566.9607 
 4080000    273.65899   -3837.9414   -3368.8993   -3837.9414            0    6965.7604    17.015187    20.041642    20.758488    7078.8994    6828.1673    7625.5823    6443.5316   -119.68289    462.65048    1548.3352   -2649.7647 
 4081000    262.57651   -3881.1216   -3431.0744   -3881.1216            0     8640.866    17.013967    20.040206    20.757001    7077.3779    8444.2478    10280.663    7197.6871   -197.89266   -1102.6593   -1430.9116   -2539.1962 
 4082000    261.68295   -3909.3873   -3460.8716   -3909.3873            0    7263.0636     17.02196    20.049621    20.766752    7087.3569    7688.3172    6344.3624    7756.5111   -404.00641   -248.39729   -933.91626   -2710.1481 
 4083000    258.37457   -3900.3923   -3457.5471   -3900.3923            0    5519.2926    17.012595    20.038589    20.755326     7075.665    5340.3703    5073.7899    6143.7176   -17.895164    84.084712   -533.97471   -2888.0041 
 4084000    284.50686   -3878.8585   -3391.2235   -3878.8585            0     8414.795    17.012927    20.038981    20.755732    7076.0801    8101.6951    8236.5452    8906.1446    491.00325    120.75392    496.19732   -2522.8388 
 4085000    275.67973   -3899.1901   -3426.6844   -3899.1901            0    8568.6519    16.988722    20.010471    20.726202    7045.9207    9218.0838    7445.3227    9042.5492   -865.29754   -318.67579    320.12462    -2546.191 
 4086000    249.90135   -3843.7546   -3415.4322   -3843.7546            0    8319.5131    16.979304    19.999377    20.714711    7034.2086    8452.4557    6402.7429    10103.341    536.66983    785.31724   -1713.1094   -2561.9607 
 4087000     258.6422   -3900.8203   -3457.5165   -3900.8203            0    8340.3236    17.010759    20.036428    20.753087    7073.3752     7348.379    9177.5573    8495.0347    735.36758    91.377277    638.63585    -2597.146 
 4088000    269.48531   -3887.6931   -3425.8045   -3887.6931            0    9255.5357    17.009127    20.034505    20.751095    7071.3387    8682.8568    9805.3858    9278.3645   -287.94688     822.1239   -630.89602   -2471.2976 
 4089000    253.31726   -3920.1826   -3486.0055   -3920.1826            0    8551.2924    17.009309    20.034719    20.751317    7071.5661     8931.705    9657.5953     7064.577   -1000.7513   -577.98664   -1322.8378   -2604.0976 
 4090000    266.18641   -3880.5203   -3424.2859   -3880.5203            0    11290.281    16.928045       19.939    20.652175    6970.6932    10179.558    13067.916    10623.368    978.78109    1595.3961   -887.11879   -2276.5114 
 4091000    249.76117   -3911.4098   -3483.3277   -3911.4098            0    8679.6767    16.956523    19.972545    20.686919    7005.9336    6606.0631    9945.3944    9487.5725    676.78132   -374.96608    -178.1135   -2596.4874 
 4092000    269.47571   -3873.6025   -3411.7303   -3873.6025            0    9855.2334    16.981354    20.001792    20.717212    7036.7569     9474.418    10252.926    9838.3562   -72.374479   -1038.9242    397.78562    -2400.348 
 4093000    251.59754   -3868.8699   -3437.6404   -3868.8699            0    8363.7902    17.017953      20.0449    20.761863    7082.3524    7571.9875    6918.3679    10601.015   -193.24931   -1269.8572    1674.9119   -2573.7542 
 4094000    276.35287   -3912.8666   -3439.2072   -3912.8666            0    6494.7284    17.010636    20.036282    20.752936    7073.2212    5011.9317    8003.6795    6468.5741   -548.63031    1760.9629    628.42839   -2769.2391 
 4095000    256.68424   -3898.1252   -3458.1772   -3898.1252            0     9688.422    16.903392    19.909963    20.622098    6940.2825    8112.2752    10757.081     10195.91   -262.00035    1169.4916    908.41633   -2477.5452 
 4096000     267.2455   -3882.2008   -3424.1511   -3882.2008            0    7047.9343    17.025549    20.053848     20.77113    7091.8407    5742.0061    6930.1197    8471.6769   -187.47618   -285.45935   -1503.2108   -2695.2029 
 4097000    269.91558   -3907.7293   -3445.1033   -3907.7293            0    7035.9371    17.058052    20.092132    20.810784    7132.5348    8263.0146    6135.3092    6709.4875    1371.2724   -471.52898   -939.31064   -2713.2201 
 4098000    257.59811   -3897.8608   -3456.3465   -3897.8608            0    8056.3477    16.989917    20.011878    20.727659    7047.4076    9364.1493    7231.2777     7573.616   -275.61574   -817.08918   -104.55425   -2628.3214 
 4099000    259.22079   -3856.3723   -3412.0767   -3856.3723            0    7806.6076    17.014614    20.040968    20.757789    7078.1849     8737.393    7081.2205    7601.2094   -1068.5789    424.77982   -1025.3602   -2606.2157 
 4100000    253.58431   -3866.1215   -3431.4867   -3866.1215            0     8541.867    16.965343    19.982933    20.697679    7016.8716    7839.6231    8803.2699     8982.708    -706.4797   -417.52851    1252.8604   -2557.3643 
 4101000    250.28128   -3880.6534   -3451.6798   -3880.6534            0    8435.8173    16.963779    19.981091    20.695771    7014.9313    9434.2891    7666.6899    8206.4729    542.07002     697.4401    -1977.512   -2588.6487 
 4102000    276.99261   -3869.7558   -3394.9999   -3869.7558            0    7127.7748    17.031683    20.061073    20.778614    7099.5087    5543.9852    9894.9247    5944.4144    539.52602   -335.92992   -1061.3167   -2656.9968 
 4103000    261.73499   -3832.6877   -3384.0829   -3832.6877            0    9573.9366    16.939895    19.952959    20.666633    6985.3431    8901.2392    9264.9916    10555.579    1333.7856    990.41338   -1756.8726   -2408.7471 
 4104000    255.33036   -3840.0301   -3402.4026   -3840.0301            0    7215.5823    17.068283    20.104183    20.823266    7145.3763    6745.6019    8516.2048    6384.9401     513.6834    600.57666     357.9438   -2650.4813 
 4105000     272.6649   -3826.7366   -3359.3983   -3826.7366            0    7210.3862    16.951527     19.96666    20.680823    6999.7425    8478.6287    6770.8068     6381.723   -1701.1011    1391.0552    1028.2157   -2623.3328 
 4106000    244.67733   -3842.5822   -3423.2136   -3842.5822            0    5459.8941     17.01799    20.044944    20.761908    7082.3988    5460.8134     5147.063    5771.8058   -716.67289    1430.5624     950.7067   -2859.2637 
 4107000    256.18965   -3875.2375   -3436.1372   -3875.2375            0    7613.4269    17.036948    20.067274    20.785037    7106.0944    6825.8908    8686.2232    7328.1668    -1417.424   -1172.5041   -244.94274    -2647.119 
 4108000    253.09732   -3833.9368   -3400.1367   -3833.9368            0    6613.1227    17.062401    20.097254    20.816089    7137.9909    8186.4476    5942.0205    5710.8999    65.339734   -1014.3058    353.24035   -2711.7088 
 4109000    263.19653   -3869.4204   -3418.3105   -3869.4204            0    6452.0062    17.066248    20.101786    20.820783    7142.8211    6577.5758    6012.6036    6765.8392    510.60554    -1598.921    537.93352   -2746.2004 
 4110000    250.10829   -3833.1519   -3404.4749   -3833.1519            0     8184.315    17.058314     20.09244    20.811103    7132.8629    7199.1789     9142.541    8211.2251    776.08619   -896.26591   -259.52497   -2553.0975 
 4111000    259.97265   -3876.8041   -3431.2199   -3876.8041            0    4144.3766    17.107615    20.150511    20.871251    7194.8876    3363.5274    5187.6847    3881.9177    422.83279    318.06918    206.95419   -2996.3502 
 4112000    264.12266   -3881.8279   -3429.1307   -3881.8279            0    9180.3746    16.999216    20.022831    20.739004    7058.9853    8162.4539    10137.375    9241.2947   -1201.3561    751.25468    102.35755    -2484.029 
 4113000    254.43235    -3876.508   -3440.4196    -3876.508            0    8505.9672    17.009272    20.034676    20.751273    7071.5204    6749.0078    9027.9476    9740.9462    1547.9511   -1008.5699    1161.1337   -2563.1918 
 4114000     278.2259   -3870.9234   -3394.0538   -3870.9234            0    8470.8259     16.96519    19.982753    20.697492    7016.6815    6838.6416    10388.703     8185.133   -916.82374    667.83027    1365.2451   -2527.2248 
 4115000    272.69886   -3870.3949   -3402.9984   -3870.3949            0    9321.3174    16.963341    19.980575    20.695237    7014.3879    10502.909    9762.0381    7699.0053    192.81945   -2198.9337   -903.81314   -2449.4495 
 4116000    262.60909   -3895.7038   -3445.6008   -3895.7038            0     8277.424    16.978664    19.998624     20.71393    7033.4132    8298.5148    9168.1811    7365.5761    357.86797   -1944.5039    375.58974   -2596.5431 
 4117000    261.35767   -3891.2004   -3443.2423   -3891.2004            0    8738.0726    16.995437     20.01838    20.734394    7054.2788    8378.1954    9903.3828    7932.6395   -106.53247   -183.85529   -1064.2324   -2544.2745 
 4118000    260.15434   -3880.1119   -3434.2162   -3880.1119            0    8102.6119    16.971251    19.989892    20.704886    7024.2045    7980.9122    10715.488    5611.4352   -495.88142    461.19683   -1300.6369    -2604.178 
 4119000     268.1367   -3881.1378   -3421.5607   -3881.1378            0    8832.0724    17.027701    20.056382    20.773755    7094.5296    10294.128    5214.2777    10987.812   -577.40816   -801.56134   -118.39226   -2507.7376 
 4120000    261.99765   -3881.5708   -3432.5157   -3881.5708            0    7625.0345    17.004368    20.028899    20.745289    7065.4053    6260.7441    9102.1133     7512.246   -1436.3633   -1841.0759   -109.11562   -2646.8193 
 4121000    255.67124   -3863.1819   -3424.9701   -3863.1819            0    7910.5319    17.018959    20.046086    20.763091     7083.609     8114.471    7223.7784    8393.3464    1955.8301    892.06119    -1604.692   -2607.7554 
 4122000    287.38203   -3866.9896   -3374.4267   -3866.9896            0    8071.6607     16.99447    20.017241    20.733214    7053.0747    7343.0244    9032.5343    7839.4234    671.80431    356.52348   -1513.4781   -2544.1606 
 4123000    253.00755   -3855.2148   -3421.5686   -3855.2148            0    7014.6838    17.008793    20.034112    20.750688    7070.9229    7555.6243    6364.0815    7124.3456    279.37896    28.508472   -889.45131   -2698.1992 
 4124000     278.4796   -3878.5168   -3401.2123   -3878.5168            0    7229.2635    17.005598    20.030349     20.74679    7066.9391    8655.1914    5816.8231    7215.7761     722.9094   -1218.7327   -1470.6997    -2656.135 
 4125000    275.64859   -3859.7978   -3387.3455   -3859.7978            0    9425.5772    16.970625    19.989155    20.704123     7023.428    9582.7135    8795.2997    9898.7183   -1082.4317   -1439.7264   -1146.0003   -2421.8884 
 4126000    261.39033   -3876.2251   -3428.2111   -3876.2251            0    8581.7129    16.942247    19.955729    20.669502    6988.2528    8157.8657    9450.3733    8136.8996   -741.04205     1658.742   -42.150966   -2553.5929 
 4127000    261.98226    -3856.178   -3407.1494    -3856.178            0     10266.76    16.885535     19.88893    20.600314    6918.3111    11236.209    9881.2049    9682.8669   -688.21967    266.83658    1766.4067   -2371.2695 
 4128000    262.54751   -3871.8455   -3421.8481   -3871.8455            0    9154.9739      16.9656    19.983235    20.697992      7017.19    9418.7672    10429.664    7616.4901    628.99686    -1339.407   -382.93014   -2484.9416 
 4129000    273.77788      -3865.7   -3396.4541      -3865.7            0    8109.0066    16.972678    19.991572    20.706627    7025.9762    9122.7998    7734.5611    7469.6588    768.61563    203.33667     105.5326   -2565.5513 
 4130000    256.58503   -3903.1755   -3463.3975   -3903.1755            0     8116.437    16.939083    19.952002    20.665641     6984.338    7650.7358    8315.0798    8383.4955   -67.839553    251.13722    758.48495   -2636.6621 
 4131000    264.09048   -3918.4075   -3465.7655   -3918.4075            0    9498.0619    16.812598    19.803019     20.51133    6829.0462    11346.576    10567.376    6580.2338    855.49888   -236.44752    420.32689   -2519.8095 
 4132000    277.36484   -3886.8394   -3411.4455   -3886.8394            0    7362.3788    16.952073    19.967303     20.68149    7000.4193    7550.6964    7521.2247    7015.2154   -517.85068     530.3531    859.49613   -2659.7913 
 4133000    268.03902   -3909.2629   -3449.8532   -3909.2629            0    7584.6042    16.972848    19.991773    20.706835    7026.1875    7526.3458    5427.8484    9799.6183    704.48902   -1547.0287    1315.7937   -2672.6608 
 4134000    260.39459   -3930.9949   -3484.6875   -3930.9949            0    6420.3945     16.96361    19.980892    20.695565    7014.7216    6591.8948    5635.9703    7033.3183   -852.37337   -259.93682   -1020.1524    -2827.865 
 4135000    247.98534   -3908.4626   -3483.4242   -3908.4626            0    6975.8162    16.956797    19.972867    20.687253    7006.2727    5002.7015     6333.046     9591.701    301.09374   -1452.6128    446.49841   -2770.6402 
 4136000    261.21817   -3886.6814   -3438.9624   -3886.6814            0    7563.2284    16.964146    19.981523    20.696219    7015.3864    6221.5359    6364.7688    10103.381   -937.79319    69.385212   -1039.2231   -2665.1517 
 4137000    260.36852   -3889.6253   -3443.3626   -3889.6253            0    10004.913    16.916361    19.925239    20.637921    6956.2704    9754.7004    8714.1018    11545.937   -449.34581    398.53963    802.84057   -2428.3635 
 4138000    260.03155    -3845.785   -3400.0998    -3845.785            0    8462.3811    16.933915    19.945915    20.659337     6977.948    8081.6736    8542.7594    8762.7101    65.125618   -796.30467   -868.93801   -2538.9153 
 4139000    243.84557   -3893.3358   -3475.3928   -3893.3358            0    8312.1198    16.964835    19.982334    20.697059    7016.2408    5704.3647    10462.847    8769.1479   -53.509882   -1314.5335   -101.21401   -2624.8579 
 4140000    249.92972   -3858.9961   -3430.6251   -3858.9961            0    8726.1298    16.981267    20.001689    20.717106    7036.6482    8937.3129    7696.9109    9544.1656    1203.8189   -46.677398   -48.139519   -2535.1296 
 4141000    262.24699   -3904.0767   -3454.5944   -3904.0767            0    8312.0528    16.891599    19.896073    20.607712    6925.7675    7335.4302    7997.8713    9602.8569    1565.4438   -817.71962    881.89688   -2615.0337 
 4142000    256.29842   -3893.6791   -3454.3924   -3893.6791            0    6340.3666    17.056225     20.08998    20.808554    7130.2428    6232.9869    5672.9377    7115.1751    -652.0369    394.41326   -864.04688   -2795.0749 
 4143000    244.32187   -3870.1079   -3451.3486   -3870.1079            0    7045.0702    17.015598    20.042127     20.75899    7079.4134    6633.7679    8432.4853    6068.9576    1064.1605   -245.27863   -1539.2606   -2723.9734 
 4144000    260.01195   -3849.8926    -3404.241   -3849.8926            0    8386.6818    16.929937    19.941229    20.654483    6973.0312    6450.7988    9334.3154    9374.9311    1799.2374   -1713.0743    625.80054   -2551.3615 
 4145000    269.08836   -3839.4717   -3378.2634   -3839.4717            0    6473.5553     17.07849    20.116205    20.835718    7158.2029    5220.9156     7060.603    7139.1472    72.048696   -518.78508    596.36388   -2702.4563 
 4146000    249.28319   -3844.5652   -3417.3023   -3844.5652            0    6728.9856    17.039331    20.070081    20.787943    7109.0763    8681.4407    5524.8917    5980.6243    87.813325   -171.07258   -1128.2814   -2719.6506 
 4147000    258.38047   -3876.3656   -3433.5103   -3876.3656            0    7395.5664    17.007373    20.032438    20.748955    7069.1511    7108.1827    7170.2078    7908.3087   -138.48257    555.15067   -562.19705   -2671.0546 
 4148000    243.31248   -3861.6619   -3444.6326   -3861.6619            0    9730.5333    16.946698    19.960972    20.674932     6993.762     8804.265    10270.209    10117.126    741.60247    1779.4305    143.10613   -2452.1489 
 4149000    261.35462   -3810.9575   -3363.0047   -3810.9575            0    10347.774    16.986499    20.007852    20.723489    7043.1542    9260.8336    11293.812    10488.678    766.80239    1193.1081    128.77743   -2300.1105 
 4150000    249.78126    -3852.767   -3424.6505    -3852.767            0    7253.9231    17.080532     20.11861    20.838209    7160.7707    9631.6339    2683.6289    9446.5065   -936.78405    22.643986   -148.11501   -2667.1052 
 4151000    267.86505    -3888.112   -3429.0005    -3888.112            0    7926.8626    17.092763    20.133017    20.853131    7176.1649    7687.5722    7319.1283    8773.8875    2290.5329   -163.66504   -305.13183   -2599.3988 
 4152000    251.26351   -3893.5806   -3462.9236   -3893.5806            0    7081.1173    17.040276    20.071194    20.789096    7110.2591      6931.34    7321.8544    6990.1576    566.00474   -1267.0074   -1104.7349   -2728.6412 
 4153000    266.78934   -3879.5534   -3422.2856   -3879.5534            0    7972.8219    16.990319    20.012351    20.728149    7047.9071    7193.6475     7321.082    9403.7363   -865.12098    524.28429     2061.061   -2602.7871 
 4154000    248.31158   -3858.0037   -3432.4061   -3858.0037            0     10241.37    16.897052    19.902495    20.614364    6932.4764    10506.783    10935.595    9281.7324    526.01192    374.77308    737.25395   -2396.9723 
 4155000     267.9498   -3904.5677   -3445.3109   -3904.5677            0    8655.7823     16.97995    20.000138    20.715499    7035.0113     9012.779    8026.1978      8928.37    2678.8302    1081.0069   -1483.9888   -2557.2413 
 4156000    260.36582   -3931.9951    -3485.737   -3931.9951            0    7686.7954    16.972815    19.991734    20.706794    7026.1464    7660.0675    7627.8403    7772.4784   -878.02422   -1316.7646   -295.62221   -2698.0777 
 4157000    250.85078   -3889.9676   -3460.0179   -3889.9676            0    6948.1033    17.084943    20.123806     20.84359    7166.3195    8393.7414     7112.718    5337.8505     789.2764    784.52779    787.61456   -2733.8479 
 4158000     262.6842   -3902.5491   -3452.3174   -3902.5491            0    9078.4685    16.958855    19.975291    20.689764    7008.8245    7264.8712    11041.684    8928.8501    557.97137    65.837607    228.23792   -2524.3479 
 4159000    267.07541   -3927.0814   -3469.3233   -3927.0814            0    8401.0937    17.023169    20.051044    20.768226    7088.8666    8111.9185    7580.7486     9510.614   -909.11474   -777.32115    423.24947   -2600.7859 
 4160000    275.57108   -3868.7661   -3396.4467   -3868.7661            0    8371.2239    17.046275     20.07826    20.796416    7117.7717    8127.4652    8218.5394    8767.6671    925.19968    330.01132   -470.74678   -2527.4684 
 4161000    261.77267   -3925.4928   -3476.8234   -3925.4928            0    5754.2969     17.08524    20.124156    20.843952    7166.6932    4975.6884    8124.6862    4162.5162    905.46769    33.693063    1829.9648   -2875.3908 
 4162000    251.55899   -3879.6654   -3448.5019   -3879.6654            0     7181.823    17.061839    20.096592    20.815403    7137.2858    6935.7756    6173.4028    8436.2906   -460.55084    1265.6057   -653.62293    -2700.946 
 4163000    262.28635   -3882.9656   -3433.4158   -3882.9656            0    8378.3403    17.006261     20.03113    20.747599    7067.7657    8326.0599    8641.1857    8167.7755    566.34066    619.18276    447.87238   -2569.8091 
 4164000    260.45775   -3885.5074   -3439.0917   -3885.5074            0    8246.2567    17.006236      20.0311    20.747568    7067.7338    9509.4075    7695.3468    7534.0158    933.06105   -303.53036    -1.850482   -2589.1035 
 4165000    262.55705   -3878.1239   -3428.1101   -3878.1239            0    8084.9693     17.00587    20.030669    20.747122    7067.2783    7861.7391    8699.0529    7694.1158   -213.93444   -836.92043   -387.26271   -2594.8003 
 4166000    276.74002   -3893.4379    -3419.115   -3893.4379            0    6773.2842    16.988525    20.010238     20.72596    7045.6745    8158.3476    7145.2261     5016.279    882.84556   -1074.2654    767.95731   -2723.1334 
 4167000    255.01208   -3885.6937   -3448.6117   -3885.6937            0    7746.5313    16.970175    19.988625    20.703574    7022.8693    5142.3628    9603.3706    8493.8606   -457.42588    109.58258    955.79681   -2655.2015 
 4168000    273.28911   -3861.5663   -3393.1582   -3861.5663            0    8776.0978    16.917078    19.926084    20.638796    6957.1546    8768.5396    7668.1654    9891.5882   -279.67872    354.09985   -934.84997   -2502.7093 
 4169000     255.1802   -3824.1084   -3386.7383   -3824.1084            0    6800.3465    17.046938    20.079041    20.797225    7118.6023    6684.2307    7558.6743    6158.1346   -488.99237    273.57821   -1118.7915   -2680.7432 
 4170000    261.32886   -3883.8445   -3435.9358   -3883.8445            0    8626.7662    16.963896    19.981228    20.695913    7015.0758    10534.471     6056.205    9289.6222    1165.9947   -785.68194    130.02842   -2553.3513 
 4171000    265.19206    -3911.164   -3456.6339    -3911.164            0    7132.2927    17.030408    20.059571    20.777058    7097.9142    5109.3566    7777.6981    8509.8235   -204.59853   -283.29968   -1904.1673    -2718.329 
 4172000     270.2586   -3906.1562   -3442.9422   -3906.1562            0    8966.7223    17.014868    20.041267      20.7581    7078.5022    8920.9689    8839.6135    9139.5845   -930.89994   -1212.9006   -485.79971   -2517.2833 
 4173000    250.73299   -3895.2356   -3465.4878   -3895.2356            0    8370.1422    17.026138    20.054541    20.771848    7092.5762    8992.8972    8093.6672    8023.8623    103.47658   -1498.8114     226.7498   -2599.6975 
 4174000     241.2452   -3893.9728   -3480.4868   -3893.9728            0    8402.6549    17.025109    20.053329    20.770593    7091.2904    7876.7296    9296.1761    8035.0589    1179.7389    -51.88363    -617.0952    -2611.491 
 4175000    280.67025   -3921.2597   -3440.2005   -3921.2597            0    8140.2844    17.041912    20.073121    20.791093    7112.3077    8039.1062    6880.1523    9501.5948   -410.38879    -1090.415   -1139.7796   -2595.8437 
 4176000      247.186   -3897.9477   -3474.2793   -3897.9477            0    8445.3037    17.003414    20.027776    20.744125    7064.2162    9701.4695    8078.2985    7556.1433   -256.61772   -2147.1273   -1285.5885   -2604.2074 
 4177000    263.53092   -3875.0924   -3423.4094   -3875.0924            0     7914.543    17.119239    20.164203    20.885432    7209.5635    7656.7087    8941.1245    7145.7958    357.95464    114.97996    1303.6339    -2591.242 
 4178000     266.0922   -3882.4837   -3426.4108   -3882.4837            0     6885.176    17.089457    20.129123    20.849098    7172.0019    7072.4145    5525.6916    8057.4218   -1645.4413    1182.0476   -476.45274   -2706.2469 
 4179000    250.64766   -3891.6453   -3462.0438   -3891.6453            0    7377.5399    17.047331    20.079504    20.797703    7119.0941    7427.5715    7949.6364    6755.4117   -531.08061    294.70411    658.58152   -2696.0731 
 4180000    264.88232   -3907.1289   -3453.1297   -3907.1289            0    6757.5186    17.012219    20.038146    20.754867    7075.1956    7048.4311    6233.6764    6990.4483    748.63065   -2032.2956    58.788122   -2755.8587 
 4181000    271.90192   -3865.6092   -3399.5786   -3865.6092            0    8439.6428    16.963861    19.981187     20.69587    7015.0323    8216.2329    8828.8542    8273.8414   -2554.5939    27.594182   -593.75019   -2536.1436 
 4182000    282.46071   -3865.0735   -3380.9455   -3865.0735            0    10102.516    16.975946    19.995422    20.710614    7030.0354    10070.879    9319.8744    10916.796   -1292.3656   -341.61378   -13.528161   -2345.1764 
 4183000    254.67402    -3859.618   -3423.1154    -3859.618            0    8049.8741     16.99025     20.01227    20.728065     7047.821    5159.2141     8937.529    10052.879    1206.2175   -702.56129   -411.22944   -2595.7072 
 4184000     251.8799   -3862.2283   -3430.5148   -3862.2283            0    7047.1296    17.046958    20.079065    20.797249    7118.6273    7355.4465    5368.8404    8417.1018   -1164.3322    618.27252   -1338.3832   -2698.8968 
 4185000     271.9057   -3849.2106   -3383.1736   -3849.2106            0    7397.8341    17.005602    20.030353    20.746795    7066.9435      8312.87    5971.4048    7909.2274     12.89439   -17.112654    98.655764   -2620.7223 
 4186000    273.02038   -3842.8364   -3374.8889   -3842.8364            0    8306.5041    17.021803    20.049435     20.76656    7087.1603    7972.6298    8552.6165     8394.266    254.90224    70.527339   -160.09185   -2516.3372 
 4187000    259.30284   -3872.2828   -3427.8466   -3872.2828            0    7644.7009    16.977916    19.997742    20.713018    7032.4837    7738.3589    7893.9585    7301.7854   -701.22651   -850.23249    780.65232   -2643.7942 
 4188000    264.00406   -3809.9741   -3357.4801   -3809.9741            0     8104.503    17.053822     20.08715    20.805623    7127.2298    5408.1511    8415.6723    10489.686    359.10039    1775.9464   -819.10158   -2515.0711 
 4189000    250.05096   -3881.0857   -3452.5069   -3881.0857            0    7486.3227     17.04917     20.08167    20.799948    7121.3991     7788.208    7486.8901    7183.8698      579.097   -242.57136   -852.51705   -2674.9902 
 4190000    269.42129   -3820.6773   -3358.8984   -3820.6773            0    10436.131     16.99236    20.014756     20.73064    7050.4476     9870.071    11042.414    10395.907    51.251073   -974.96276   -2051.9255   -2285.8184 
 4191000    262.59257   -3850.3925   -3400.3178   -3850.3925            0    6675.9797    17.087835    20.127213    20.847119    7169.9601    5222.9218    7119.5423     7685.475   -1619.5322    -219.2644   -948.44233   -2702.2339 
 4192000     268.4542   -3878.3691   -3418.2477   -3878.3691            0    7787.0882    17.059038    20.093294    20.811987    7133.7716    7466.2774    9862.0713    6032.9158   -460.65733     865.1834   -660.53968   -2608.0889 
 4193000    252.50871   -3819.9714   -3387.1801   -3819.9714            0    8769.1231    17.024711    20.052861    20.770108    7090.7933    8713.5701    10567.635    7026.1642   -1700.1047   -487.55867   -345.07433    -2480.348 
 4194000    266.38685    -3848.999   -3392.4211    -3848.999            0    8548.4827    16.945026    19.959003    20.672892    6991.6925    8200.9841    8216.3112    9228.1526    531.15277   -1749.4402   -328.95342   -2520.7608 
 4195000    273.69047   -3883.7437   -3414.6476   -3883.7437            0    7349.3542    17.021286    20.048827    20.765929    7086.5147    7537.8473    6912.8491    7597.3663   -1694.3318    17.888944    756.89192   -2655.0952 
 4196000    262.46233   -3847.8227   -3397.9712   -3847.8227            0     5183.357    17.098907    20.140254    20.860626    7183.9059    4013.1459     6540.865    4996.0602   -380.84624   -467.43437   -863.76883   -2854.9114 
 4197000    261.89337   -3844.1036   -3395.2273   -3844.1036            0    5363.9467    17.130206     20.17712    20.898811    7223.4281    8386.6012    3242.4192    4462.8196     200.7297    339.36682   -1135.9067   -2830.1554 
 4198000    262.33176   -3862.8758   -3413.2482   -3862.8758            0    8560.2932    17.055801    20.089481    20.808038    7129.7117    9056.0989    9416.3421    7208.4386     393.3707    551.00148   -676.01662   -2523.1529 
 4199000    263.72945   -3824.2266   -3372.2033   -3824.2266            0     9651.473    16.990368    20.012409     20.72821    7047.9686     11557.65    10045.146    7351.6229    926.92027   -343.21976     369.7998   -2380.1536 
 4200000     261.0242   -3847.6039   -3400.2173   -3847.6039            0    8931.3147    17.009113    20.034488    20.751078    7071.3216    9518.0172    6800.7406    10475.186    750.69251   -510.04802    1051.1628    -2479.149 
 4201000    262.79729   -3887.2345   -3436.8089   -3887.2345            0    5083.3346    17.134952    20.182711    20.904602    7229.4339    4532.0353    6381.5555    4336.4131   -73.145833   -314.74647    587.93615   -2900.8532 
 4202000    266.15761   -3871.1802   -3414.9951   -3871.1802            0    6803.6032     17.05402    20.087383    20.805864    7127.4777    7221.6068    6127.4345    7061.7682   -494.96852    -905.0979   -84.862156   -2707.7813 
 4203000    254.62858   -3867.8813   -3431.4566   -3867.8813            0    8769.1048    16.970009    19.988429    20.703371    7022.6628    8989.6167    7017.3183    10300.379   -2275.4233    -92.61632   -2426.1569   -2533.3395 
 4204000    259.60565   -3903.4879   -3458.5327   -3903.4879            0    7597.9832    17.029617    20.058639    20.776092    7096.9247    7341.1835    8591.1212     6861.645   -1226.2591    823.04674   -286.06121    -2672.131 
 4205000    251.87443   -3901.4632   -3469.7591   -3901.4632            0    6752.0638     17.04147    20.072601    20.790554     7111.755    6618.4259     7353.407    6284.3584    492.25013    1497.4393    273.68091   -2769.4509 
 4206000    259.56096   -3901.6719   -3456.7933   -3901.6719            0     8082.964    16.998282    20.021731    20.737864    7057.8216    7464.1211    7952.8275    8831.9435    1397.7703   -92.517256    83.704527   -2624.8051 
 4207000    265.81836   -3919.6508   -3464.0472   -3919.6508            0     6590.089    17.041614    20.072771     20.79073    7111.9353     5472.496    6836.3325    7461.4386    826.63145   -698.54509   -3424.9472   -2780.5214 
 4208000    276.50439    -3915.394    -3441.475    -3915.394            0    6289.8115    17.120305    20.165458    20.886732      7210.91    4137.3442    7488.4772     7243.613    457.22417   -199.72413    1833.6531    -2780.015 
 4209000    262.19501   -3899.6111   -3450.2178   -3899.6111            0    8281.6567    16.988722     20.01047    20.726201    7045.9197    9628.3179      7943.35    7273.3022    851.44576    929.52426    1469.2504   -2599.2154 
 4210000    266.98124   -3868.6491   -3411.0524   -3868.6491            0    8658.6573    16.978894    19.998895    20.714211    7033.6992    7520.4823    10390.369    8065.1208   -2133.9394    434.51873   -779.89838   -2522.8535 
 4211000    274.40254    -3904.432   -3434.1154    -3904.432            0    8575.8629    16.957241     19.97339    20.687794    7006.8233    8384.5867    8684.3645    8658.6375   -690.67811    1496.0422    689.61604   -2557.7709 
 4212000    249.59189   -3852.3179   -3424.5259   -3852.3179            0    9243.0975    16.956401    19.972401     20.68677    7005.7823    8238.6937    7319.5009    12171.098    975.76213   -283.99556    601.33263   -2480.1388 
 4213000    258.82186   -3816.2987   -3372.6869   -3816.2987            0    7434.0777     17.02828    20.057065    20.774462     7095.254    6491.3201    8301.1621    7509.7507   -296.10868    1572.1394   -798.01587   -2603.4308 
 4214000    259.67773    -3868.734   -3423.6553    -3868.734            0     8091.911    17.010045    20.035586    20.752215    7072.4843    6698.8387    7997.3049    9579.5896     1195.552    805.26709    -1699.893   -2589.0157 
 4215000    241.14828   -3910.1401   -3496.8202   -3910.1401            0    8423.0492    16.999763    20.023476    20.739672    7059.6671    6704.0792    10125.894    8439.1741    519.09798    427.77935    848.81868   -2629.5999 
 4216000    233.10872   -3831.8598   -3432.3195   -3831.8598            0    6948.4195    17.009972    20.035501    20.752127    7072.3936    5642.0938    7113.1998    8089.9651   -306.71525   -831.98849     216.1657   -2715.6344 
 4217000    245.92511   -3862.5892    -3441.082   -3862.5892            0    7978.1581    17.059015    20.093266    20.811958    7133.7423    8237.6227    7281.5781    8415.2735   -806.10329     601.4875   -1347.7842   -2611.0478 
 4218000    267.62435   -3894.8809   -3436.1819   -3894.8809            0    5622.9069     17.13891    20.187372     20.90943    7234.4446    4463.1453    7073.9184    5331.6571   -1006.4147    188.74859    -1191.892   -2842.9261 
 4219000    267.20108   -3858.4188   -3400.4453   -3858.4188            0    8167.5326     17.01487    20.041269    20.758102    7078.5043    8656.9357     8695.897     7149.765    319.13488    772.70171   -437.05963   -2557.2887 
 4220000    268.72967   -3909.1194   -3448.5259   -3909.1194            0    7997.0101    16.948441    19.963025    20.677059    6995.9208    8593.4776    7909.3897    7488.1629    626.87959    1765.9076   -627.74724   -2632.6043 
 4221000    268.65054   -3873.0897   -3412.6318   -3873.0897            0    8026.3459    17.043135    20.074562    20.792585    7113.8395    8528.7063    6081.9444    9468.3868    246.64048   -596.13132    532.20208   -2579.9141 
 4222000    262.89707   -3893.2522   -3442.6556   -3893.2522            0    8181.8293    17.010711    20.036371    20.753028    7073.3149    10725.429     6871.829    6948.2293   -1925.7742    840.00447    38.108419   -2598.6423 
 4223000    264.32915   -3874.3094   -3421.2583   -3874.3094            0    7270.5112    17.070084    20.106305    20.825463    7147.6386    6473.1894    7636.5083    7701.8359    -298.1331    1786.3179   -2472.5447   -2663.3731 
 4224000    265.92853   -3887.3611   -3431.5687   -3887.3611            0    7838.4699    17.072202    20.108798    20.828046    7150.2986    8135.9476    7637.6926    7741.7696   -1940.6642   -920.95061    1206.8362   -2614.1749 
 4225000    258.39119   -3885.9836     -3443.11   -3885.9836            0    8771.0431    17.063622    20.098693    20.817579    7139.5237     9047.881    9221.7273     8043.521   -34.685228   -409.43157   -1367.9243   -2529.8459 
 4226000    262.44477   -3878.0875   -3428.2661   -3878.0875            0    6010.8814    17.077137    20.114612    20.834068    7156.5022    5654.5343     4703.039    7675.0708    -143.6627   -1065.8528    2305.9194    -2800.909 
 4227000     260.9729   -3810.0941   -3362.7954   -3810.0941            0    7329.4661    17.061987    20.096767    20.815584    7137.4714     6655.563     7066.035    8266.8002    789.60706    91.793008   -1312.8247   -2599.8515 
 4228000    273.00194   -3867.8403   -3399.9244   -3867.8403            0    8843.0939    16.969967    19.988379     20.70332    7022.6101    10306.775    8408.7195    7813.7871    202.07765   -1197.4267   -772.58293   -2494.2362 
 4229000    262.69062   -3882.1157    -3431.873   -3882.1157            0    6194.9532    17.047686    20.079922    20.798137    7119.5394    6577.4124    5794.2759    6213.1713   -1512.2811    683.26678     569.7933   -2788.6437 
 4230000    264.59235   -3834.4249   -3380.9227   -3834.4249            0    8370.4219    16.990017    20.011996    20.727781    7047.5319    7408.2704    10890.198     6812.797   -136.67075    711.28945   -228.21586   -2520.6021 
 4231000     272.8294   -3860.4434   -3392.8232   -3860.4434            0    8761.2414    16.971017    19.989616    20.704601    7023.9139    8474.5065    9127.7926     8681.425    1432.0786   -757.85322    727.89003   -2495.3516 
 4232000    272.10086   -3870.5092   -3404.1377   -3870.5092            0    8452.6939    16.985929    20.007181    20.722794    7042.4456     9500.376    7480.1555    8377.5501    1850.8079    836.63071    541.02462   -2535.9881 
 4233000    256.01116   -3864.6955   -3425.9011   -3864.6955            0    7107.0837    17.048433    20.080803    20.799049    7120.4759    8830.3208    5169.2834    7321.6471   -275.68882    881.68824    75.336226   -2687.8672 
 4234000      267.185   -3841.4928   -3383.5469   -3841.4928            0    8245.4703     16.98673    20.008125    20.723772    7043.4426    8642.2142    10021.464    6072.7325   -589.48257    578.12532    24.457387   -2536.5608 
 4235000    246.24337   -3850.5758   -3428.5231   -3850.5758            0    9831.7559    16.953458    19.968934    20.683179    7002.1344    9653.3761    12935.209    6906.6826   -342.52401   -1268.5234    1043.2745   -2424.5145 
 4236000    261.48303   -3861.6506   -3413.4776   -3861.6506            0    9569.4689    16.988768    20.010525    20.726258    7045.9778    7416.1308    11297.567    9994.7095    827.32957     230.6387    2426.8169   -2430.1347 
 4237000     262.5635   -3865.6963   -3415.6714   -3865.6963            0    8881.9112    16.962576    19.979674    20.694303    7013.4388    8475.7006    8940.8842    9229.1489    100.21868    1105.9974   -278.42975   -2507.1957 
 4238000    273.56051   -3863.1595   -3394.2861   -3863.1595            0      6335.71    17.009796    20.035293    20.751911    7072.1732    5564.6921    7034.6367    6407.8013   -574.05398    168.32334   -2115.6228   -2740.8185 
 4239000    274.66128   -3898.3279   -3427.5678   -3898.3279            0    8282.7729    16.950305    19.965221    20.679333    6998.2291     7700.698    7863.7409    9283.8797    114.37222     323.2878   -943.52603   -2582.2115 
 4240000    264.81455   -3873.9154   -3420.0323   -3873.9154            0    10904.366    16.895118    19.900218    20.612005     6930.097    10913.946    11116.047    10683.104    517.55388   -1004.6203    148.30391    -2317.946 
 4241000    256.70197   -3885.0028   -3445.0244   -3885.0028            0    8898.9009    16.912032     19.92014     20.63264    6950.9312    8713.2038    8099.0524    9884.4466    722.58159   -37.890983    1215.9473   -2542.9232 
 4242000    260.98833   -3845.4635   -3398.1384   -3845.4635            0    6887.4841    17.022045    20.049721    20.766855    7087.4629    5540.6771    7706.4779    7415.2974    -96.62149   -1598.5148   -544.83665   -2686.2248 
 4243000    258.72093    -3814.494   -3371.0552    -3814.494            0    9167.1176    16.918891    19.928219    20.641008    6959.3916    9358.0004    8852.2871    9291.0654     1528.693   -112.60314    9.9344297   -2440.6332 
 4244000    261.78475   -3834.6779   -3385.9878   -3834.6779            0    7809.5133    17.023873    20.051874    20.769085    7089.7463    9624.6644    6243.8512    7560.0245    742.99855   -549.28535   -216.07218     -2578.51 
 4245000    267.55987   -3818.2016   -3359.6132   -3818.2016            0    10449.185    16.993188    20.015731    20.731649    7051.4781     11751.61    10451.733    9144.2117   -668.50963   -944.57963    571.50464   -2285.0339 
 4246000    254.10377   -3851.7896   -3416.2644   -3851.7896            0    5945.2317     17.08837    20.127843    20.847772    7170.6334    4967.7633      6605.86    6262.0719    845.33203   -150.49164    483.75079   -2794.5339 
 4247000    263.04384   -3861.1528   -3410.3046   -3861.1528            0    10313.614     16.92654    19.937228    20.650339    6968.8343    10162.699     11302.08    9476.0627    268.02777   -958.13528   -1399.8846    -2362.098 
 4248000     261.1567   -3838.4227   -3390.8091   -3838.4227            0    7816.9347    17.024601    20.052732    20.769974    7090.6564    7921.3634    9357.7236     6171.717    1054.2578   -1005.1709   -210.69451   -2582.4603 
 4249000    255.37366   -3883.2623   -3445.5606   -3883.2623            0    8639.3536    17.025064    20.053277    20.770538    7091.2347    8367.7031    8116.9807    9433.3769    694.18177   -503.67165   -298.83294   -2552.0926 
 4250000    265.10702   -3838.9336   -3384.5492   -3838.9336            0     7793.696    17.057158    20.091078    20.809692    7131.4127    10425.916    7242.0334    5713.1382   -167.09268   -464.92827   -1227.6053    -2573.971 
Loop time of 585.551 on 64 procs for 250000 steps with 864 atoms

Performance: 73.777 ns/day, 0.325 hours/ns, 426.948 timesteps/s
99.1% CPU use with 64 MPI tasks x 1 OpenMP threads

MPI task timing breakdown:
Section |  min time  |  avg time  |  max time  |%varavg| %total
---------------------------------------------------------------
Pair    | 21.806     | 26.847     | 32.525     |  47.2 |  4.58
Bond    | 0.2874     | 0.29853    | 0.31045    |   1.1 |  0.05
Kspace  | 252.75     | 266.24     | 287.54     |  54.7 | 45.47
Neigh   | 5.8317     | 7.4016     | 10.01      |  43.3 |  1.26
Comm    | 115.29     | 139.85     | 154.87     |  88.5 | 23.88
Output  | 1.3114     | 1.3135     | 1.3302     |   0.3 |  0.22
Modify  | 134.36     | 138.41     | 143.05     |  19.6 | 23.64
Other   |            | 5.192      |            |       |  0.89

Nlocal:        13.5000 ave          20 max           9 min
Histogram: 6 7 9 8 15 7 6 3 2 1
Nghost:        2246.12 ave        2292 max        2207 min
Histogram: 4 5 11 10 6 5 11 7 2 3
Neighs:        4326.17 ave        7370 max        2845 min
Histogram: 8 12 14 10 4 10 5 0 0 1

Total # of neighbors = 276875
Ave neighs/atom = 320.45718
Ave special neighs/atom = 2.0000000
Neighbor list builds = 14149
Dangerous builds = 1

unfix		3
unfix		2
unfix		1

write_data	data.final.${pid}
write_data	data.final.0
System init for write_data ...
PPPM initialization ...
  extracting TIP4P info from pair style
  using 12-bit tables for long-range coulomb (../kspace.cpp:340)
  G vector (1/distance) = 0.37386293
  grid = 24 24 24
  stencil order = 5
  estimated absolute RMS force accuracy = 0.0032067895
  estimated relative force accuracy = 9.6571514e-06
  using double precision FFTW3
  3d grid and FFT values/proc = 2535 216
Last active /omp style is kspace_style pppm/tip4p/omp
WARNING: Not all mixed pair coeffs generated from mixing. Use write_data with 'pair ij' option to store all pair coeffs. (../write_data.cpp:312)

write_restart   restart.lmp.${pid}
write_restart   restart.lmp.0
System init for write_restart ...
PPPM initialization ...
  extracting TIP4P info from pair style
  using 12-bit tables for long-range coulomb (../kspace.cpp:340)
  G vector (1/distance) = 0.37386293
  grid = 24 24 24
  stencil order = 5
  estimated absolute RMS force accuracy = 0.0032067895
  estimated relative force accuracy = 9.6571514e-06
  using double precision FFTW3
  3d grid and FFT values/proc = 2535 216
Last active /omp style is kspace_style pppm/tip4p/omp
Total wall time: 0:09:49
