LAMMPS (30 Jul 2021)
Processor partition = 0
  using 2 OpenMP thread(s) per MPI task
using multi-threaded neighbor list subroutines
variable        pid world 0 1
variable        phase world IceV IceIII

shell cd ${phase}
shell cd IceV
include Restart.lmp
echo both
log log.lammps
#include		in.partitions
include		in.temp
variable        temperature equal 83.97
variable	tempDamp equal 100.0
include		in.pressure
variable        pressure equal 6865.4
variable        pressureDamp equal 1000.0 # This is 1 ps
include		in.seed
variable        seed equal 745823

units		real
atom_style	full
read_restart    restart.lmp.${pid}
read_restart    restart.lmp.0
Reading restart file ...
  restart file = 30 Jul 2021, LAMMPS = 30 Jul 2021
  restoring atom style full from restart
  triclinic box = (-3.1120517 -0.13906343 0.085134396) to (14.722051 22.719062 19.144864) with tilt (-0.032241955 -6.6576214 0.092837033)
  2 by 4 by 4 MPI processor grid
  restoring pair style lj/cut/tip4p/long/omp from restart
  restoring bond style harmonic/omp from restart
  restoring angle style harmonic/omp from restart
  1008 atoms
  672 bonds
  336 angles
Finding 1-2 1-3 1-4 neighbors ...
  special bond factors lj:    0        0        0       
  special bond factors coul:  0        0        0       
     2 = max # of 1-2 neighbors
     1 = max # of 1-3 neighbors
     1 = max # of 1-4 neighbors
     2 = max # of special neighbors
  special bonds CPU = 0.002 seconds
  read_restart CPU = 0.008 seconds

include 	in.setup
variable	out_freq equal 1000
variable	out_freq2 equal 10000
variable	out_freq3 equal 1000

timestep	2.0

neigh_modify    delay 7 every 1

include		in.tip4p
# This is TIP4P/Ice

# create groups ###
group ox type 2
336 atoms in group ox
group hy type 1
672 atoms in group hy

# set charges - beside manually ###
set group ox charge -1.1794
Setting atom values ...
  336 settings made for charge
set group hy charge 0.5897
Setting atom values ...
  672 settings made for charge

# ### TIP3P Potential Parameters ###
pair_style lj/cut/tip4p/long/omp 2 1 1 1 0.1577 8.5
pair_coeff 1 1*2 0.000 0.000
pair_coeff 2 2 0.21084 3.1668
bond_style  harmonic
bond_coeff  1 450 0.9572
angle_style harmonic
angle_coeff 1 55 104.52
kspace_style pppm/tip4p/omp 1.0e-5
pair_modify tail yes

thermo          ${out_freq}
thermo          1000
thermo_style    custom step temp pe etotal epair emol press lx ly lz vol pxx pyy pzz pxy pxz pyz enthalpy

restart 	${out_freq3} restart.lmp.${pid} restart2.lmp.${pid}
restart 	1000 restart.lmp.${pid} restart2.lmp.${pid}
restart 	1000 restart.lmp.0 restart2.lmp.${pid}
restart 	1000 restart.lmp.0 restart2.lmp.0


include         in.dump
dump            myDump all atom ${out_freq2} dump.water.${pid}
dump            myDump all atom 10000 dump.water.${pid}
dump            myDump all atom 10000 dump.water.0
dump            myDump2 all dcd ${out_freq2} dump.dcd
dump            myDump2 all dcd 10000 dump.dcd
dump_modify     myDump append yes
dump_modify     myDump2 append yes


variable natoms 	equal  "count(all)"                        # NUMBER ATOMS
variable H      	equal  "enthalpy/v_natoms"                 # ENTHALPY-per-atom
variable Vol      	equal  "vol/v_natoms"                 # volume-per-atom
fix AVG all 		ave/time ${out_freq} 1 ${out_freq} v_Vol v_H file vol_enthalpy.dat
fix AVG all 		ave/time 1000 1 ${out_freq} v_Vol v_H file vol_enthalpy.dat
fix AVG all 		ave/time 1000 1 1000 v_Vol v_H file vol_enthalpy.dat



fix 		1 all shake 1e-6 200 0 b 1 a 1
Finding SHAKE clusters ...
       0 = # of size 2 clusters
       0 = # of size 3 clusters
       0 = # of size 4 clusters
     336 = # of frozen angles
  find clusters CPU = 0.001 seconds
fix             2 all nph tri ${pressure} ${pressure} ${pressureDamp}
fix             2 all nph tri 6865.4 ${pressure} ${pressureDamp}
fix             2 all nph tri 6865.4 6865.4 ${pressureDamp}
fix             2 all nph tri 6865.4 6865.4 1000
fix             3 all temp/csvr ${temperature} ${temperature} ${tempDamp} ${seed}
fix             3 all temp/csvr 83.97 ${temperature} ${tempDamp} ${seed}
fix             3 all temp/csvr 83.97 83.97 ${tempDamp} ${seed}
fix             3 all temp/csvr 83.97 83.97 100 ${seed}
fix             3 all temp/csvr 83.97 83.97 100 745823


run             250000
PPPM initialization ...
  extracting TIP4P info from pair style
  using 12-bit tables for long-range coulomb (../kspace.cpp:340)
  G vector (1/distance) = 0.37920962
  grid = 24 27 32
  stencil order = 5
  estimated absolute RMS force accuracy = 0.0024822099
  estimated relative force accuracy = 7.4751013e-06
  using double precision FFTW3
  3d grid and FFT values/proc = 5355 672
Last active /omp style is kspace_style pppm/tip4p/omp
Neighbor list info ...
  update every 1 steps, delay 7 steps, check yes
  max neighbors/atom: 2000, page size: 100000
  master list distance cutoff = 10.8154
  ghost atom cutoff = 10.8154
  binsize = 5.4077, bins = 5 5 4
  1 neighbor lists, perpetual/occasional/extra = 1 0 0
  (1) pair lj/cut/tip4p/long/omp, perpetual
      attributes: half, newton on, omp
      pair build: half/bin/newton/tri/omp
      stencil: half/bin/3d/tri
      bin: standard
Setting up Verlet run ...
  Unit style    : real
  Current step  : 35750000
  Time step     : 2
Per MPI rank memory allocation (min/avg/max) = 10.31 | 10.32 | 10.33 Mbytes
Step Temp PotEng TotEng E_pair E_mol Press Lx Ly Lz Volume Pxx Pyy Pzz Pxy Pxz Pyz Enthalpy 
35750000    86.485767   -5215.1432    -5042.161   -5215.1432            0     6005.353    17.834102    22.858126    19.059729    7769.7779      5955.07    5525.4104    6535.5785   -724.14329    158.50985   -724.31972    -4361.669 
35751000    83.053938   -5220.8864   -5054.7682   -5220.8864            0    5773.1012    17.844937     22.67261    19.226819    7779.0035    5587.1824    6027.2268    5704.8943   -470.83292     327.7859    534.98225   -4399.8169 
35752000    84.716195   -5212.1896   -5042.7467   -5212.1896            0    8142.1155    17.803003    22.571728    19.170307    7703.4833    8262.5517    7845.8243    8317.9704    782.71824    198.90919   -178.52831   -4128.0012 
35753000    80.059434   -5212.0837   -5051.9549   -5212.0837            0    6913.7034    17.881569    22.677856    19.109394    7749.1585    6544.7674    6716.2147    7480.1282    730.59173   -474.09643   -120.92725   -4270.6129 
35754000    76.481209   -5214.6895   -5061.7176   -5214.6895            0    7233.8316    17.744984    22.797938    19.135538    7741.2635    7568.3654    7202.2139    6930.9155   -85.894585    251.24255    928.08783   -4245.0297 
35755000    81.918466   -5213.3214   -5049.4743   -5213.3214            0    7598.3418    17.811664    22.708298    19.137142    7740.4489    8823.7639    6795.2216    7176.0399   -852.02818   -17.296413    687.05457   -4191.7241 
35756000    82.921967   -5209.8565   -5044.0023   -5209.8565            0    7266.3983    17.929262    22.522347     19.20727    7756.0694    7267.0034    7812.7106     6719.481   -269.38431   -58.050733   -307.67126   -4222.0686 
35757000    83.892805   -5222.1254   -5054.3294   -5222.1254            0     5953.998    17.828677    22.806233    19.125961    7776.7105    6942.7168    5413.8822    5505.3951    584.46333   -240.23514   -1078.5893   -4379.0546 
35758000    86.552474   -5215.8721   -5042.7565   -5215.8721            0    6928.6104    17.686077    22.866842    19.083524    7717.8491    6378.3706    7197.6801    7209.7805      524.533    430.42729    336.63371   -4262.8935 
35759000    87.203611   -5214.1541   -5039.7361   -5214.1541            0    6563.5636    17.995107    22.411907    19.220613    7751.7629    5093.2276    7736.7271     6860.736   -640.23923     223.8931    11.891324   -4297.7153 
35760000    84.265625   -5213.3619   -5044.8202   -5213.3619            0    6634.3022    17.868589    22.578962    19.210674    7750.6269    5500.7941    7136.5995    7265.5131    103.25059   -174.64783    286.65189   -4294.9123 
35761000    86.321192   -5220.7843   -5048.1313   -5220.7843            0    7507.8436    17.829568    22.744589    19.056887    7728.0669    7486.1218    7689.0119    7348.3972    145.17728    572.55151    1060.6939   -4201.9528 
35762000     86.34178   -5205.6902    -5032.996   -5205.6902            0    6920.9759    17.772171    22.784925    19.122459    7743.4022    6010.8842    6748.0099    8004.0336   -160.37144   -564.48437    310.76069   -4251.4131 
35763000     87.02687   -5208.6562   -5034.5918   -5208.6562            0    6643.9366    17.792127    22.887636    19.050616    7757.7862    6966.3693    5430.4222    7535.0183    92.643988   -360.44636    181.83824   -4282.9011 
35764000    86.891226   -5222.8466   -5049.0534   -5222.8466            0    7260.3761    17.756952    22.884919    19.066833    7748.1202    7888.8082    6406.9996    7485.3203   -865.49732   -569.42921    1044.1058   -4228.6426 
35765000    80.856556   -5208.4366   -5046.7135   -5208.4366            0    8129.9924    17.845634    22.501203    19.222792    7718.8783    9249.8938     7838.411    7301.6723    -295.7978   -38.380078   -207.52096   -4131.5046 
35766000    85.297767   -5216.3731    -5045.767   -5216.3731            0    6574.7095     17.88579    22.551663    19.177499    7735.3266    7110.4462    6968.1733    5645.5088    573.35228    261.30843    195.45444   -4304.0621 
35767000    91.210529   -5228.4727   -5046.0404   -5228.4727            0    7565.1016    17.819381    22.719382    19.083567    7725.8929    7203.0478    7525.0739    7967.1831    456.90439   -410.49454    232.53951   -4193.6484 
35768000    86.699216   -5228.6043   -5055.1951   -5228.6043            0    6999.0981    17.809177    22.807278    19.041185     7734.127    7218.0461    6829.6776    6949.5706    101.73535    -530.1431    736.83297   -4265.7367 
35769000     84.08125   -5216.6355   -5048.4627   -5216.6355            0    6305.6526    17.911346    22.532272    19.235136    7762.9801    6524.7443    6524.3701    5867.8434    651.33306    182.11233    54.363668   -4334.5675 
35770000    86.884576   -5223.2245   -5049.4447   -5223.2245            0    6413.2099    17.808269    22.718335    19.161066    7752.0736    6222.6287    6511.4704    6505.5307    383.65884    98.961825    79.167145   -4324.3925 
35771000     80.66606   -5220.1933   -5058.8512   -5220.1933            0    6866.6519    17.894412    22.686544    19.060494    7737.8432    5987.0597    7088.7428    7524.1532   -682.70205    271.01708   -856.59701   -4283.9598 
35772000    81.738081   -5209.6681   -5046.1819   -5209.6681            0    7559.3407    17.800535    22.704058     19.12309    7728.4893    7480.1974    7416.6321    7781.1927    -130.0289   -399.33193   -131.16061   -4194.1528 
35773000    85.933127    -5229.501   -5057.6242    -5229.501            0    6510.7674    17.845175    22.675242    19.154937     7750.924    6886.6979    5621.7722     7023.832    47.333723   -546.71182   -140.82007   -4321.6518 
35774000    88.032418   -5208.7887    -5032.713   -5208.7887            0    7309.1213    17.879768    22.653325    19.122259    7745.2071    6989.5633    7182.5059    7755.2947    79.862822    174.36875    238.04707   -4207.1046 
35775000    88.837293   -5217.3871   -5039.7015   -5217.3871            0    7195.9373    17.845356    22.654123     19.16577    7748.1627    7986.1256    6858.4735    6743.2126    768.19604   -917.72701   -904.17415   -4226.5678 
35776000    85.946298   -5216.4845   -5044.5812   -5216.4845            0     6649.556    17.901198    22.719384    19.098327    7767.3697    6306.3485    6526.0246    7116.2948    281.18574   -1.9743391   -310.69355   -4291.3254 
35777000    86.961797   -5210.0529   -5036.1186   -5210.0529            0    7675.4007    17.777776    22.770746    19.049702    7711.5715    7344.4054    7528.8308     8152.966    -572.3678   -160.39746   -391.03953   -4172.9019 
35778000    83.621244   -5219.9826   -5052.7298   -5219.9826            0     7327.198     17.80042    22.638117    19.214738    7742.9241    7898.8969    6728.4085    7354.2887   -356.12248    661.28289   -144.89841   -4225.3235 
35779000     84.39269   -5214.0808   -5045.2849   -5214.0808            0     7744.961    17.842929    22.572292    19.183922    7726.4361    7033.7585    8726.4302    7474.6943   -734.78405    30.272878   -373.85743   -4172.5661 
35780000    85.469403   -5212.7984    -5041.849   -5212.7984            0    6703.7828    17.929012    22.614733    19.108604    7747.7709     6085.099    7115.6721    6910.5774    718.84061    -72.59899   -743.90753   -4284.3665 
35781000    85.928169   -5212.7262   -5040.8593   -5212.7262            0    6443.9857     17.76643    22.870481    19.095629    7759.0656    7435.2849    5293.9127    6602.7595    471.58385   -563.71966   -111.12812   -4311.6706 
35782000    82.570588   -5212.8392   -5047.6878   -5212.8392            0    5808.9908    17.822648    22.754257    19.174587    7776.0832    6163.9377      5792.44    5470.5946   -967.78779    373.11091   -476.97107   -4388.9122 
35783000    83.978592   -5212.2055    -5044.238   -5212.2055            0    7594.3136    17.710507    22.657746    19.286461    7739.2743    9317.7612    7053.9458    6411.2337    520.33498   -126.25408    1096.0594   -4187.0725 
35784000    84.962351   -5225.6104   -5055.6752   -5225.6104            0    7697.7606    17.910386    22.620401    19.059247    7721.6656    8052.7645     7316.306    7724.2114     229.0706    473.86955    149.61717   -4188.8106 
35785000     81.95021   -5223.9124   -5060.0018   -5223.9124            0    6557.0298    17.833117    22.791017    19.091015    7759.2542    6862.5767    5863.4745    6945.0383   -30.856996   -350.00958    190.05742   -4318.0033 
35786000     81.42419   -5219.6243   -5056.7659   -5219.6243            0    6880.1091    17.733031    22.813222    19.144553    7744.8826    7005.5831     7143.942    6490.8022   -229.11834    1131.5505   -483.94355   -4279.6495 
35787000    81.999432    -5216.817    -5052.808    -5216.817            0    5466.9423    17.931022    22.759193    19.109778    7798.6164     5493.492    5122.3176    5785.0173   -141.38405    89.185029    31.730983   -4431.0263 
35788000    82.521129   -5215.1485   -5050.0961   -5215.1485            0    6400.0399    17.913124    22.661853    19.089182    7749.1499    5484.1991    6568.2438    7147.6769    -419.3723   -105.67351   -240.29169   -4326.8058 
35789000    84.420702   -5219.2405   -5050.3887   -5219.2405            0    6488.7442    17.833014    22.622807    19.227647    7757.0641    7120.7577    7217.2907    5128.1843    475.72698    637.07028    981.71052   -4316.3247 
35790000     85.53983   -5218.8368   -5047.7466   -5218.8368            0    6266.7619    17.723106    22.819616    19.171155    7753.4763    7039.1671    5692.0723    6069.0462    9.8203432   -231.64627   -393.32683   -4339.1231 
35791000    84.636707   -5216.3182   -5047.0343   -5216.3182            0    7004.9477    17.814134    22.823841    19.047307    7744.3866    6494.5322    6052.9367    8467.3743   -809.29852    21.422828   -151.00473    -4255.868 
35792000    84.253655   -5216.3605   -5047.8428   -5216.3605            0    6474.7054    17.724635    22.971488    19.033935    7749.8802    6570.6135    5774.4107    7079.0919     374.5455   -60.266345     -789.249   -4316.0453 
35793000    88.434326   -5220.2048   -5043.3252   -5220.2048            0    6343.8721    17.853974     22.59409    19.261578    7770.0103    6611.0397      6701.22    5719.3566   -749.51362    114.47175    147.44766   -4324.4527 
35794000    84.574607   -5225.6989   -5056.5392   -5225.6989            0    6923.8924    17.918378    22.452272    19.276696    7755.1749    7715.3875    6815.6916     6240.598   -990.06092   -197.44251    766.64873   -4273.4382 
35795000    82.691431   -5226.0259   -5060.6328   -5226.0259            0    6302.5735    17.817913    22.752922    19.142921    7760.7236    6659.9383    6196.8149    6050.9673    -682.6289   -162.29136   -811.11876   -4347.2937 
35796000    85.230124   -5224.3771   -5053.9064   -5224.3771            0    6147.9222    17.861996    22.855334    18.998217     7755.868    6180.1242    5336.1119    6927.5305    -335.5053   -501.21013   -593.16204   -4358.5064 
35797000    83.080607   -5213.5887   -5047.4172   -5213.5887            0    7407.3136    17.868561    22.683757    19.050765    7721.7722     7195.903    7839.4157    7186.6221   -595.60619    296.25087    532.03204    -4213.249 
35798000    79.961214   -5215.5572   -5055.6249   -5215.5572            0    7474.4784    17.901548    22.533252    19.184541    7738.6617    6805.9853    7884.9789     7732.471    110.56495    8.0609545   -1920.1558    -4212.052 
35799000    87.116288   -5220.6817   -5046.4384   -5220.6817            0    5522.1282     17.92066    22.702902    19.143341    7788.4872    4848.1936    5872.4772     5845.714   -522.71863    141.83619    123.35278   -4419.1959 
35800000    82.165333   -5222.1521   -5057.8113   -5222.1521            0    6587.4455    17.837237     22.76765    19.097635    7755.7781    7528.2959    6153.1183    6080.9222    474.47777   -493.73744   -100.20038   -4312.7049 
35801000    87.239836   -5202.5017   -5028.0112   -5202.5017            0    7148.2355    17.841313    22.756656    19.088518    7750.1032    7829.1923    6891.4981    6724.0161   -388.97531   -150.52877   -94.633056   -4220.0654 
35802000    81.784919   -5219.5673   -5055.9874   -5219.5673            0    5830.4195    17.935306    22.598678    19.157481    7764.7992    5815.3746    6410.1243    5265.7595    344.78147    220.66557   -108.37151   -4395.7411 
35803000    83.743875   -5230.7163   -5063.2182   -5230.7163            0    6306.7077    17.919191    22.505957     19.21468    7749.0604    5883.4763    7357.9665    5678.6804    94.395024    598.37189   -236.81379    -4350.484 
35804000    87.631688   -5211.7499   -5036.4757   -5211.7499            0    7109.2454    17.921017    22.578108    19.145944    7746.8827    6978.6142    7289.8014    7059.3207   -167.00698    166.54895    840.66237   -4233.2708 
35805000    87.558232   -5217.7012   -5042.5739   -5217.7012            0    6972.6341    17.868241    22.769905    19.049273    7750.3522    5336.2468    7476.2989    8105.3566    546.72648   -46.546768    1015.2369   -4254.4505 
35806000    88.660494   -5210.9114   -5033.5794   -5210.9114            0    6745.2258    17.919892     22.75704     19.00838    7751.6877    6273.4528    6682.4985    7279.7261    405.00586    125.37311    1020.0385   -4271.0288 
35807000    82.725549   -5222.6689   -5057.2076   -5222.6689            0    7731.8431    18.022709    22.397763     19.16528    7736.4171    7168.6616    8097.5035    7929.3641    728.12814    932.71906    30.731978   -4184.8415 
35808000    81.929845    -5211.612   -5047.7422    -5211.612            0    7575.4872     17.87448    22.531336    19.182789    7725.5983     8246.124    7810.5412    6669.7963   -538.14128   -295.24094   -497.85108   -4194.2126 
35809000    84.944487   -5219.9764   -5050.0769   -5219.9764            0     7071.604    17.858969    22.687733    19.100086    7738.9636    7297.9161    7025.5748     6891.321    111.17178   -102.73399    502.42125   -4251.9414 
35810000     84.01764   -5216.6475   -5048.6019   -5216.6475            0    7090.0598    17.774413    22.889099    19.031632    7742.8349    7418.7014    6801.1408    7050.3373    700.34424    212.48101    817.43916   -4247.9831 
35811000    86.159482   -5212.4936    -5040.164   -5212.4936            0    7944.2269    17.790742    22.785225    19.068625    7729.7735    8257.1409    7550.3922    8025.1476   -380.04969    436.34641    -342.8334   -4144.6048 
35812000    88.753209   -5207.6062   -5030.0888   -5207.6062            0    7409.8018    17.921695    22.547645    19.160069    7742.4311    5758.3531    8274.8078    8196.2444     482.8177    253.60515    -160.6701   -4193.4079 
35813000    88.026296   -5213.8441   -5037.7806   -5213.8441            0    7649.7628    17.945876    22.522015    19.122369    7728.8273    7314.0795    7769.8245    7865.3844    50.999457   -81.336937   -358.24181   -4175.5221 
35814000    82.402321   -5214.9504   -5050.1356   -5214.9504            0    7332.4996    17.833763    22.823028    19.002373     7734.355    6897.9263    6780.9872    8318.5852   -529.96161   -855.09735    344.60196    -4223.047 
35815000    82.934264    -5218.664   -5052.7852    -5218.664            0    7503.9321     17.70496     22.92194    19.012052    7715.6997    8358.4216    6520.6034    7632.7715    245.66421   -110.85625    1225.9728    -4208.401 
35816000    87.960847   -5210.9727   -5035.0402   -5210.9727            0    6740.4397    17.714144     22.71112    19.238067    7739.6292    7906.1644    6233.6304    6081.5244    293.96809   -574.82045    1.7066899    -4274.216 
35817000    84.329197   -5223.8406   -5055.1718   -5223.8406            0    6460.6565    17.882757    22.553539     19.21141    7748.3354    6500.4933     6365.019    6516.4571    782.32572   -438.25009   -101.97114   -4325.1077 
35818000     84.79015   -5218.3896   -5048.7988   -5218.3896            0    6256.5926    17.933402    22.680412     19.09999    7768.6717     5111.536    7067.1134    6591.1284   -196.59245    377.85054    1509.7739   -4339.9387 
35819000    80.161194   -5219.3498   -5059.0175   -5219.3498            0    7349.4211    17.832915    22.715883    19.081999    7729.9347     8132.935    7059.8345    6855.4937   -227.47101    18.594487      688.657    -4230.494 
35820000    84.042932   -5214.2881   -5046.1919   -5214.2881            0    6425.6133      17.8291    22.747061    19.126411       7756.9    5840.9938    6885.5123    6550.3337   -593.16978     -59.6754   -376.53213   -4319.2852 
35821000    81.984672   -5211.6446   -5047.6652   -5211.6446            0    6517.6467    17.843115    22.801059    19.057939    7753.5683    7080.9493    5540.3989     6931.592   -362.37579   -743.21278   -752.72035   -4310.6637 
35822000    87.806892   -5205.8002   -5030.1755   -5205.8002            0    7592.0279    17.874956    22.621563    19.131929    7736.1763    7209.5473    7004.6039    8561.9324    764.54043   -626.78991    648.73578   -4173.6111 
35823000    80.753887   -5220.0981   -5058.5803   -5220.0981            0    7619.8206    17.734135    22.757291    19.168154    7735.9006    8173.9047    7152.6511    7532.9061    331.46693   -309.70415   -500.75857   -4198.9108 
35824000    81.668086   -5219.5118   -5056.1655   -5219.5118            0    8086.0408    17.836064    22.732502    18.995353    7701.8246     7346.319    7975.9838    8935.8195   -237.27296    569.38185   -765.52169   -4147.9154 
35825000    83.758353   -5220.3674   -5052.8403   -5220.3674            0    7546.6576    17.840395    22.727642    19.099912    7744.4433    8441.7948    6984.3782    7213.7997    788.21045   -222.41056     113.1119   -4200.4849 
35826000    83.409323   -5212.7319   -5045.9029   -5212.7319            0    6531.6637    17.895271    22.613147    19.205901    7772.0208    7026.0099    5934.0299    6634.9513    -882.1652   -746.69511    320.25205   -4305.5588 
35827000    77.892546   -5221.6873   -5065.8925   -5221.6873            0    6229.0612    17.831903    22.739755    19.149127    7764.8389    5427.1534    6793.9601    6466.0703    -1116.624    306.62348   -999.59178   -4360.4999 
35828000    88.248386    -5212.765   -5036.2573    -5212.765            0    6775.7823    17.832409    22.771307    19.108661    7759.4016     7995.999    6671.2479    5660.1001    464.93644    278.98887    1069.6908     -4269.49 
35829000    81.671172   -5214.3546   -5051.0021   -5214.3546            0    7229.6503    17.847655    22.716902    19.056607    7726.3763    7422.9734     6760.943    7505.0346    442.56821    264.65717   -182.49714   -4236.3559 
35830000    85.521884   -5208.2173   -5037.1629   -5208.2173            0    7814.7086    17.784104    22.636919    19.204695    7731.3748    8255.0623    7872.5121    7316.5515    767.51108     282.9607   -767.25757    -4156.022 
35831000    81.760672   -5211.6361   -5048.1047   -5211.6361            0    6927.7215    17.883502    22.528958    19.231826    7748.4387    5519.6115    8170.7134    7092.8396    152.34361    1016.2667   -52.762461   -4265.2511 
35832000    83.878822   -5223.3008   -5055.5328   -5223.3008            0    6497.9497    17.791681    22.711991    19.150641     7738.477    7498.3509    6039.5762    5955.9221   -1002.8054    302.96253   -1533.1428   -4322.1888 
35833000    86.914209   -5212.7602   -5038.9211   -5212.7602            0    8365.2633    17.725893    22.817945    19.032225    7697.9342    8066.6379    8018.4513    9010.7006    170.80681   -108.40943    404.77454   -4099.7825 
35834000    85.164831   -5207.3566   -5037.0164   -5207.3566            0    7018.5606     17.82714    22.644429    19.183848    7744.2394     6911.878    7206.7602    6937.0435    187.56005    39.877946    634.20098   -4244.3276 
35835000      85.1589   -5225.0389   -5054.7106   -5225.0389            0    6405.9972    17.797684    22.627035    19.273727    7761.6996     5921.379    6652.8864    6643.7263   -601.11903    388.72186   -1724.8929   -4329.5746 
35836000      82.7354   -5217.5176   -5052.0366   -5217.5176            0    8008.3896    17.887474    22.659427    19.072777    7730.5763    7866.5934      7655.55    8503.0253    483.93247   -116.08227   -152.62842   -4149.1505 
35837000     81.05283    -5215.431   -5053.3153    -5215.431            0    6240.1685    17.770155    22.829934    19.102493    7749.7182     6154.555    5799.9174    6766.0331    57.822578   -239.70681    732.93501   -4348.0409 
35838000    83.670308   -5215.9468   -5048.5959   -5215.9468            0       6573.3    17.848311    22.636802    19.187674    7752.3705    6648.1199    6853.8486    6217.9316    244.99835     76.14653     164.7823   -4305.4161 
35839000    79.206341   -5222.9201   -5064.4977   -5222.9201            0    6387.3529    17.814394    22.694996    19.160997    7746.7449    5906.2439    6450.5971    6805.2177    244.07774    256.99848    128.96318   -4342.8652 
35840000    84.032339   -5219.1649   -5051.0898   -5219.1649            0     6578.565    17.774399    22.757434    19.132785    7739.2062    6887.7274    5912.0031    6935.9644    29.842666    -1111.357   -1018.7517   -4308.5778 
35841000    82.996356   -5223.5647   -5057.5617   -5223.5647            0     5735.637    17.831748    22.758804    19.144326    7769.3277     6450.264    5636.5008    5120.1462    190.88883    312.98879   -891.93357     -4407.67 
35842000    79.599907   -5212.4847   -5053.2751   -5212.4847            0     5622.531    17.832579    22.643255    19.227332    7763.7589     4896.958    6236.9831    5733.6521    467.76637   -584.67054     119.6149   -4416.6558 
35843000    88.537395   -5216.8742   -5039.7885   -5216.8742            0    7432.0824     17.77236     22.71504    19.119972    7718.7303    7665.3456    7534.4308    7096.4707    347.17232    94.243115    631.92381   -4203.1607 
35844000    83.557991   -5216.3263      -5049.2   -5216.3263            0    7062.7534    17.723098    22.734259    19.242762    7753.3227    7945.8202    6566.2858    6676.1543    67.662035   -447.06766   -856.52225   -4250.5844 
35845000    79.486556   -5222.7048   -5063.7219   -5222.7048            0    7057.9044    17.811454    22.832188    19.062079    7752.0609    6364.9357    6748.2177    8060.5599    829.32871    380.30518    10.603302   -4265.7845 
35846000    83.660485   -5208.9721   -5041.6408   -5208.9721            0    8276.8229    17.855521    22.576621    19.139406    7715.4261    7312.5464     8855.081    8662.8412   -871.14992   -38.579282    275.63169   -4110.3197 
35847000    81.754646   -5211.3662   -5047.8468   -5211.3662            0    7337.8011    17.848474    22.562791    19.188403    7727.3888     8051.929    7565.4927    6395.9815   -233.78348   -306.61977   -424.04155   -4220.9057 
35848000    84.536928   -5216.1875   -5047.1032   -5216.1875            0    7438.3772    17.849741    22.633269    19.141417    7733.0939     7582.024    7491.3272    7241.7805    480.43702   -217.06615   -45.408718   -4208.2087 
35849000     83.79437    -5217.657   -5050.0579    -5217.657            0    7044.0495    17.742325    22.842648    19.103989    7742.4968    8327.3143    6538.4537    6266.3805   -60.094737   -76.905741   -1009.9024   -4254.6693 
35850000     83.32243   -5217.5951     -5050.94   -5217.5951            0    6650.6451    17.772481     22.76389    19.139193    7743.1583    6956.1608    7079.9082    5915.8664   -93.958112    70.476609   -1.7017619   -4299.9091 
35851000    78.935239    -5222.767   -5064.8868    -5222.767            0    6140.5275    17.970542     22.47389    19.235809    7768.7276    4886.2736    7296.7997     6238.509    128.88037    123.89196    132.30112   -4369.1716 
35852000    82.851667    -5215.047   -5049.3335    -5215.047            0    6567.3076    17.879556    22.594526    19.236804     7771.286    7235.1109    7070.6251    5396.1867     302.1849   -296.19837    135.39523   -4305.0195 
35853000    83.811679   -5207.0759   -5039.4422   -5207.0759            0    7186.0698    17.798779    22.774374    19.099355    7742.0389    7715.4477    7211.9715    6630.7903   -888.61621    251.07859    620.09302   -4228.0652 
35854000    85.665562   -5217.7614   -5046.4197   -5217.7614            0    5693.0443    17.851017    22.835636    19.088052    7781.0405     4641.218    6033.6815    6404.2335    144.75992   -65.952746    680.66107   -4400.3816 
35855000    87.274905   -5206.8308   -5032.2702   -5206.8308            0    6681.6359    17.851049    22.799885    19.019565    7740.9986    6822.2497     6347.274     6875.384   -285.91343   -291.00961    186.55241   -4277.9501 
35856000    82.804231   -5223.6466   -5058.0279   -5223.6466            0    7155.0179    17.916409    22.626325    19.083388    7736.0718    5951.0639    7418.4027     8095.587    1921.4036   -653.76596    867.86535   -4250.7797 
35857000    86.529202    -5219.534   -5046.4649    -5219.534            0    7171.0324    17.932619    22.608288    19.118418    7751.1002    6098.2455    7505.4825    7909.3692    681.73859   -86.497218   -439.65899   -4235.8382 
35858000     79.84202   -5201.6115   -5041.9176   -5201.6115            0    6959.2525    17.781142    22.828486    19.086986    7747.7233    8382.7348    6592.9727    5902.0499   -215.50483   -83.523455    -433.2795   -4255.5736 
35859000    83.347341   -5216.9658   -5050.2608   -5216.9658            0    7605.2866    17.830664    22.596592    19.165893    7722.1729    6725.5867    7754.1851    8336.0879    506.37828    33.072956    127.02561   -4193.7536 
35860000    87.422188   -5217.5193   -5042.6641   -5217.5193            0    5525.4936    17.853181    22.731727    19.155462    7773.9306    5402.2845    5392.3898    5781.8066    1042.8449   -549.51657   -369.04483   -4416.2123 
35861000    87.427039   -5205.9786   -5031.1137   -5205.9786            0    7446.3301    17.774717    22.739889    19.091898    7716.8513    7121.1531    7722.7208    7495.1165    1320.3664   -813.74454     1878.182   -4193.0861 
35862000     82.81674   -5216.6206   -5050.9769   -5216.6206            0    4952.8497    17.872547      22.6551    19.264128    7800.1292    6135.9257    4734.5199    3988.1034   -1085.5581    186.03928    234.94093   -4487.5561 
35863000    84.164198   -5217.8783   -5049.5395   -5217.8783            0    7971.7855    17.858118    22.544156    19.145326    7707.8353    8506.9785    7448.4734    7959.9046    130.99979    -758.3458    460.37442   -4153.4242 
35864000    85.915577   -5213.1375   -5041.2958   -5213.1375            0    7440.5976    17.836884    22.685615    19.132414     7741.753    6840.3574    7988.6152    7492.8202    435.31082    311.40718    172.73782   -4201.2112 
35865000    86.055185   -5220.3638   -5048.2428   -5220.3638            0    7302.1227    17.784136    22.700512    19.158559    7734.4828    8020.1188    7396.0223    6490.2268    65.532703    316.03354   -596.56769    -4224.567 
35866000    81.655351   -5221.4619   -5058.1412   -5221.4619            0    7058.2911    17.883337    22.584351    19.163231    7739.7141    7354.6478    7694.7562    6125.4694    147.27572    953.77399    559.94442    -4261.431 
35867000    76.961484   -5215.2902   -5061.3577   -5215.2902            0    7289.3051     17.83545    22.708822    19.091189    7732.3528    7064.9107    6902.5475    7900.4571   -446.07122    -515.3984    1268.6291   -4239.3542 
35868000    82.277359   -5219.4816   -5054.9167   -5219.4816            0    6738.1052    17.754103    22.684798    19.184378    7726.4746    6982.4137    6447.4647    6784.4372    909.64901   -61.079266   -851.89588   -4295.6487 
35869000    81.674173    -5220.055   -5056.6966    -5220.055            0    6950.3813    17.892883    22.586154    19.148959    7738.6958    7308.0658    6145.2609    7397.8172    -270.2691   -201.07977   -424.79955     -4272.27 
35870000    86.607168   -5225.7799   -5052.5549   -5225.7799            0    6386.3287    17.871412    22.660234     19.17285    7764.4362    6713.7919     6490.043    5955.1512    113.31797     522.7611     53.37496   -4329.3904 
35871000    82.691559   -5218.8978   -5053.5044   -5218.8978            0    7210.1898    17.871118    22.599335    19.133004    7727.3494    7612.8854    7903.5135    6114.1706    365.77837    418.97596    1763.8509   -4240.9487 
35872000    87.742461   -5216.3325   -5040.8368   -5216.3325            0    6569.9954    17.842844    22.667416    19.155944    7747.6436    7896.2588    5879.2049    5934.5224    352.03548   -557.22067   -818.26867   -4298.4836 
35873000     82.63224   -5213.7088   -5048.4341   -5213.7088            0    7344.4359    17.776192    22.754106    19.132518    7738.7469    6368.6235    7676.2835    7988.4006   -491.15996    238.41394    588.46415   -4219.5287 
35874000    85.897977    -5218.683   -5046.8764    -5218.683            0    5238.0133    17.792143    22.795568    19.173073    7776.2536    4767.1465    5052.2882    5894.6053   -682.34166    60.484368   -780.26254   -4452.8402 
35875000    86.197312   -5212.6279   -5040.2227   -5212.6279            0    6688.7117    17.825238    22.620196    19.236628    7756.4082    6837.9296    6859.1692    6369.0363   -962.14866   -244.74846   -114.99556   -4283.6006 
35876000    81.737822   -5212.8989   -5049.4131   -5212.8989            0    8336.5183    17.811389    22.460238    19.279904    7712.8878    7461.2841    8873.1955    8675.0754    79.622225    292.37631    404.64632   -4111.6836 
35877000    82.723848   -5221.0341   -5055.5762   -5221.0341            0    7102.1379    17.818824    22.723317    19.125614    7744.0145    7358.2499    6355.9479     7592.216     44.45306   -104.58318   -651.38209   -4253.4713 
35878000    81.910053   -5220.3773   -5056.5471   -5220.3773            0    6288.5179      17.7099    22.883799    19.128376    7752.1528    8155.4584    5531.9396    5178.1558    660.31329    -412.4699    319.01467   -4345.5848 
35879000    86.553336   -5207.3991   -5034.2817   -5207.3991            0    6866.6128    17.811589    22.769331    19.101885    7746.9215    6096.0365     7208.436    7295.3658     442.9436   -518.23281   -631.93486   -4258.4856 
35880000    80.945851   -5220.9904   -5059.0887   -5220.9904            0    7366.1333    17.839459    22.673807    19.114039    7731.4077    6366.5289    7794.0751    7937.7958   -175.33606   -206.05623   -130.85491   -4228.5229 
35881000    80.102876   -5222.1353   -5061.9197   -5222.1353            0    7157.4314    17.899831    22.528173    19.212294    7747.3671     7141.083    7243.0683    7088.1427    475.06167    292.70778   -443.18325   -4253.2201 
35882000    85.806322   -5210.0058   -5038.3825   -5210.0058            0    6762.3804    18.034662    22.594547    19.043201     7759.819    5422.3705    7053.4082    7811.3626   -236.76946   -774.54285    223.22553   -4273.0907 
35883000    86.300868   -5214.2511   -5041.6387   -5214.2511            0    7398.9957    17.838012    22.620814    19.135894    7721.5312    7589.3982    7400.0554    7207.5334    728.41835   -333.88491    478.50582   -4208.4333 
35884000     82.18979   -5221.3588   -5056.9691   -5221.3588            0    6520.0142    17.752617    22.753779    19.171267     7744.025    6237.5576    6628.7287    6693.7564     -267.704    120.98307   -255.91404   -4320.6074 
35885000     81.47072   -5217.1989   -5054.2474   -5217.1989            0    7117.2945    17.856212     22.77587    19.046344    7745.9723    6437.8133    6888.9255    8025.1446    157.66807    505.19792   -227.71622   -4250.2276 
35886000     85.77071   -5214.8974   -5043.3454   -5214.8974            0    6952.6515    17.922051    22.609976    19.132252     7752.717    6212.1718    7127.4199    7518.3628    759.67737   -5.3378406   -619.94157   -4257.2409 
35887000    85.103629   -5223.2858    -5053.068   -5223.2858            0    6563.1899    17.910484    22.475795    19.261136    7753.6157    6716.7862    7297.5938    5675.1898   -659.22561    495.10125   -568.70954   -4310.9122 
35888000    82.534745   -5216.6619   -5051.5822   -5216.6619            0    6314.4655    17.857826    22.696872     19.17669    7772.6346    6513.1628    5483.6574    6946.5762    308.48855     260.3791    1165.3177   -4335.8002 
35889000     79.23627   -5215.1921   -5056.7098   -5215.1921            0    8005.2376    17.865625    22.754101    18.983937    7717.2787    8059.7779    7798.8451    8157.0897   -516.11529   -703.71267   -52.517628   -4155.7316 
35890000    84.300576   -5212.0073   -5043.3957   -5212.0073            0    7227.1625    17.797006    22.877379    19.000044     7735.846    6829.7099    6775.6792    8076.0985    527.51614    355.66511    547.08858   -4228.0317 
35891000    83.108114    -5217.237   -5051.0105    -5217.237            0    6558.5107    17.841633    22.590035    19.209796     7742.376    5808.8094    7153.4402    6713.2826    889.67611   -323.28185    313.58927   -4310.4588 
35892000    85.813637   -5222.6468   -5051.0089   -5222.6468            0      5354.69    17.892374    22.624583    19.198482    7771.6895     4625.747    5905.1811    5533.1419    262.34862   -122.43935    629.03098    -4444.097 
35893000    80.591963   -5212.1624   -5050.9685   -5212.1624            0    8515.4098    17.714367    22.864442    19.026664    7706.3532    7857.8081    8700.5608    8987.8603    109.53911    314.44742    226.48576   -4093.9279 
35894000    86.844528   -5221.6876   -5047.9878   -5221.6876            0    7269.7084    17.797176    22.694686    19.163589    7740.1991    7851.2375    7366.2319    6591.6558    809.16658    1016.3834    859.81139   -4227.3623 
35895000    87.655032   -5224.8423   -5049.5214   -5224.8423            0    5892.4183    17.886588    22.654143    19.111469    7744.0691     5260.754    5813.3882    6603.1127   -361.52502   -559.75366   -862.07186   -4384.0358 
35896000    83.915731   -5221.8143   -5053.9725   -5221.8143            0    6138.7985     17.89369    22.727801    19.088517    7762.9985    6720.6442    5614.7079    6081.0435   -478.45071   -157.91237    -826.1756   -4358.9661 
35897000    81.124117   -5223.6914   -5061.4332   -5223.6914            0    6610.9792    17.771856    22.848902    19.064427    7741.4424    7346.3842    6152.6266    6333.9267    37.986999   -411.57694    739.63382    -4315.047 
35898000    84.466288   -5221.7059   -5052.7629   -5221.7059            0    6949.2114     17.81744    22.630476    19.190211    7737.8221    7296.1338    7101.9037    6449.5969   -191.84704    122.17679   -212.06318   -4268.5569 
35899000    84.442026   -5209.7438   -5040.8493   -5209.7438            0    6746.5092    17.917798    22.621102    19.119046    7749.3381     7204.681    6447.7871    6587.0595    392.73243    -242.5861   -846.43523   -4278.3848 
35900000    81.493004   -5215.7013   -5052.7052   -5215.7013            0     7522.181    17.921652    22.667943    19.045929    7737.3513    7110.2415    7216.7875    8239.5141   -435.19316   -255.29334   -547.51766   -4203.8923 
35901000    87.773844   -5211.8626   -5036.3041   -5211.8626            0    6753.1924    17.888222    22.567219    19.226786    7761.6118    6695.7183    7320.0378     6243.821    -976.7273   -622.75135   -9.7800463   -4271.8755 
35902000    84.296417   -5214.1744   -5045.5711   -5214.1744            0    7186.9347    17.777501    22.760673    19.105741    7730.7156    8087.2423    6936.2129    6537.3487   -909.15714    60.652365    136.93957   -4235.2833 
35903000    82.703851   -5209.0791   -5043.6611   -5209.0791            0     6585.669    17.749576    22.840129    19.111241    7747.7471     7469.864    5901.4693    6385.6737   -457.68131   -152.75042   -1.2813211    -4299.527 
35904000    82.744259   -5215.4513   -5049.9525   -5215.4513            0    7342.3658    17.892445     22.62689    19.121148    7741.2038     7423.536    7401.4142    7202.1472   -189.18135    205.80488     418.4468   -4221.0177 
35905000    81.330109   -5216.1636   -5053.4933   -5216.1636            0    6635.3164    17.952566    22.554238    19.149075    7753.5839    6772.8426    6503.7065    6629.4002   -1075.7274   -351.77866   -519.73299   -4303.1846 
35906000    81.125249   -5223.6522   -5061.3917   -5223.6522            0    7250.3187    17.870739    22.687515    19.073242    7733.1061    6505.7731    7758.9623    7486.2205    522.85608    712.71127    482.13953    -4243.705 
35907000    84.648324   -5221.5779   -5052.2707   -5221.5779            0    5992.3664    17.880874    22.755022    19.096996    7770.1796    5307.9949    6330.7232     6338.381    1043.4933    166.51553    417.58832   -4373.2152 
35908000    80.265346    -5217.629   -5057.0883    -5217.629            0    7400.0039     17.84486    22.715324     19.04638    7720.4841    6581.3888    8006.9117     7611.711   -328.11941    -192.2393    551.76508   -4223.8824 
35909000    83.317953    -5223.568   -5056.9218    -5223.568            0    6301.1639    17.931993    22.747981    18.992654    7747.4193    4345.4167    6429.4627    8128.6123    219.23934   -359.70345   -590.79342   -4344.9649 
35910000    87.852341   -5223.6393   -5047.9238   -5223.6393            0    5928.5815    17.906206    22.612007    19.178117    7765.1286    5719.5144    6036.6823    6029.5479    647.65639   -20.152916    219.64272   -4376.5331 
35911000    82.654644   -5222.3186   -5056.9991   -5222.3186            0    6980.6194     17.89587     22.62803    19.092668    7731.5431    6237.0708    7235.1929    7469.5944     86.47453   -85.124868    293.66033    -4269.888 
35912000    83.450052   -5216.4516   -5049.5411   -5216.4516            0    6799.3552    17.713573    22.822081    19.177788    7752.8241    7740.5654    6162.7211    6494.7792    392.88849   -864.21932    856.72419   -4280.7585 
35913000    81.846351   -5212.3837   -5048.6809   -5212.3837            0    7663.5134    17.865224    22.623446    19.114967    7725.7525    7693.8336    8009.9677     7286.739    1215.3453    758.95558    1244.9333   -4185.2162 
35914000    82.946885   -5220.8385   -5054.9345   -5220.8385            0    6535.8974    17.779592     22.86212    19.077551     7754.627     6814.771    6353.9479    6438.9731    341.00919    364.72826   -110.15691   -4315.7684 
35915000    85.033365   -5222.0078   -5051.9306   -5222.0078            0     7610.629    17.800414    22.690604    19.126784    7725.3493    8111.5525    7673.3699    7046.9647   -500.79018   -182.49986   -489.87815   -4194.4692 
35916000    87.560152   -5213.5916   -5038.4605   -5213.5916            0    5890.2507    17.961841    22.521993     19.21865    7774.6448     5941.314    5577.7445    6151.6935   -103.06689   -517.67148    387.89871   -4370.5931 
35917000    80.190275   -5214.5943   -5054.2038   -5214.5943            0     6574.512     17.75093    22.802235    19.163817    7756.7633    6507.2957    5852.1604    7364.0798   -299.51873   -543.39595   -979.33662   -4310.4658 
35918000    85.956023   -5211.4962   -5039.5736   -5211.4962            0    7343.8259    17.760298    22.763022    19.110081    7725.7862    7990.5181    7533.7353    6507.2243     307.5393    690.13818   -264.18734   -4212.1251 
35919000    89.377887   -5216.6343   -5037.8675   -5216.6343            0    7287.4322    17.964559    22.537032    19.141939    7749.9554      7258.07    7593.8633    7010.3632   -9.1660004    282.08654   -166.32052   -4214.2044 
35920000     83.26668   -5215.8977   -5049.3541   -5215.8977            0    6683.6313    17.986888    22.597281     19.06963    7750.9422    6559.5084    6274.2558    7217.1298    189.51672   -509.53322    226.71441   -4293.8394 
35921000     84.20157   -5216.9982   -5048.5847   -5216.9982            0    5567.4435    17.843304    22.774849    19.157151    7785.0555    6059.0989    5532.9354    5110.2962    546.42879    396.19666    834.92414   -4416.4735 
35922000    80.570256   -5220.1396   -5058.9891   -5220.1396            0    5870.5201     17.76298    22.776311    19.229511    7779.7822    6605.5333    4996.7327    6009.2944   -439.60761   -10.910194    185.87831   -4392.9191 
35923000    78.906458   -5218.9215   -5061.0989   -5218.9215            0    5849.4076    17.905795    22.629318    19.164846    7765.5174    5222.5758    6036.9717    6288.6753   -13.362816    33.927683   -1150.5915   -4398.6411 
35924000    81.771659   -5216.9385   -5053.3851   -5216.9385            0    7228.8777    17.919972    22.636782    19.098607    7747.3597    6401.0987    6859.0097    8426.5245   -1092.2658    8.0269024   -1329.8468   -4236.6138 
35925000    85.011833   -5226.5128   -5056.4787   -5226.5128            0    6087.4215     17.75172    22.900299    19.118094    7771.8815     5730.319    6189.3549    6342.5906   -845.71552    446.75341    172.28022   -4366.5004 
35926000    85.306205   -5221.1861   -5050.5631   -5221.1861            0    7203.6518    17.722642    22.820666    19.120736    7733.2382    8441.5247    5931.4474    7237.9833    68.786334   -575.30269   -1420.1208   -4238.1256 
35927000     84.20731   -5216.9721    -5048.547   -5216.9721            0    4620.5642    17.903136    22.743118    19.155546    7799.6236    5095.0892     3895.044    4871.5593    24.177376   -497.23465     266.8589   -4522.9601 
35928000    81.264472   -5208.2261   -5045.6871   -5208.2261            0    6333.8074    17.902945    22.539971    19.248046    7767.2001    6463.6937    6880.3467    5657.3817    165.15819   -364.15387    -188.3243   -4328.2147 
35929000     85.82096   -5216.3883   -5044.7358   -5216.3883            0     6492.684    17.885328    22.678747    19.171153    7776.1427    6249.9432    6628.5982    6599.5106     164.4614    660.52731   -1175.4781   -4308.4196 
35930000    84.310306   -5213.2139   -5044.5829   -5213.2139            0    6686.0275    17.705517    22.919326      19.0591    7734.1541    6311.0349    6740.1967    7006.8509    354.72618   -53.085459   -122.17935   -4290.4344 
35931000    83.220723   -5218.0397    -5051.588   -5218.0397            0    7667.9911    17.847133    22.654315    19.120649    7730.7571    8008.5368    7865.4655     7129.971    618.52839    560.72469   -183.12564   -4187.0591 
35932000    88.770024    -5224.833    -5047.282    -5224.833            0    6647.3349     17.89602    22.569311    19.181521    7747.4326     6945.141    6648.7041    6348.1595   -14.930575   -307.96309   -89.352081   -4296.2106 
35933000    84.159792   -5222.1501   -5053.8201   -5222.1501            0    8524.3008    17.760695    22.735515    19.067271    7699.3365    8642.4331    7681.8074    9248.6618   -40.446482   -219.03485   -37.097444   -4096.6526 
35934000    82.547575   -5224.5701   -5059.4648   -5224.5701            0    6729.9009    17.776998     22.81314    19.108435    7749.4097    8448.6972    6140.5007    5600.5049    742.19365   -214.52112    1700.9665   -4298.8703 
35935000    86.575871   -5215.7463   -5042.5838   -5215.7463            0    6739.1872    17.797411    22.682807    19.234883    7765.0306    7295.2308     6515.802    6406.5289   -245.82528    326.53606     35.15517   -4279.4045 
35936000    82.491038   -5213.6354   -5048.6432   -5213.6354            0    6978.1239    17.838592    22.630038    19.250436      7771.17    7861.0711    6821.7893    6251.5113    7.5080919    162.85998    871.42035   -4257.7807 
35937000    84.460442   -5222.1397   -5053.2084   -5222.1397            0     6333.889    17.786552    22.702878    19.190542    7749.2544    6111.8323    6440.8733    6448.9615   -572.08687    378.52765   -88.042838   -4337.3844 
35938000    85.543493   -5217.1143   -5046.0168   -5217.1143            0     6414.265    17.809673     22.87616    19.050689    7761.5732    5493.0972    6624.7493    7124.9486    849.25515    304.50399    503.84927   -4319.9567 
35939000    81.301026   -5224.0042   -5061.3921   -5224.0042            0    5954.4854    17.847934    22.801513    19.097797    7772.0374    5631.3166    5218.7345    7013.4051   -1622.7393   -535.27627   -153.15249   -4386.4679 
35940000    88.293636    -5214.779   -5038.1808    -5214.779            0     5881.323     17.83831    22.752541    19.182731    7785.6355    5150.3306    5816.7512    6676.8872   -324.39351    136.91035    59.895703    -4370.383 
35941000    81.314038   -5205.3179   -5042.6798   -5205.3179            0    7943.9488    17.838564    22.549848    19.200495    7723.5317    7366.0586    8632.4076    7833.3802    353.15006    88.076905   -834.54146   -4147.8751 
35942000    84.441339   -5212.7312   -5043.8381   -5212.7312            0    7403.6634    17.928094    22.708717    19.017842    7742.6203    6033.0639    7862.5775    8315.3489   -45.129875    99.585407   -462.40897   -4207.8299 
35943000    83.525819   -5220.3915   -5053.3296   -5220.3915            0    6345.7987    17.778926    22.801167    19.167135    7769.9785    7670.6115     5828.627    5538.1576   -849.23908    121.41796   -1486.2657   -4334.2416 
35944000    82.591585   -5210.4688   -5045.2754   -5210.4688            0    7410.4708    17.740192     22.80383    19.121004    7735.2937    7907.3018    7022.2457    7301.8648    684.49714    -354.7719    673.51424   -4209.2904 
35945000    84.791677   -5220.5321   -5050.9382   -5220.5321            0    7154.0947    17.958469    22.527069    19.162565    7752.2477    7211.2122    6996.6078    7254.4641   -829.20126   -762.36923   -389.88436   -4242.1064 
35946000    82.794246   -5219.8406   -5054.2419   -5219.8406            0    6671.7516    17.926869    22.580432    19.167303    7758.8561    7034.3416    6648.4175    6332.4955   -69.763211    359.49534   -589.54958   -4299.3001 
35947000    84.060252   -5217.4756   -5049.3448   -5217.4756            0    6981.1747     17.85271    22.575306    19.217352    7745.1767    6293.0765    7599.0784    7051.3694   -409.79391    688.69527    368.78382    -4260.783 
35948000    82.759516   -5216.4476   -5050.9183   -5216.4476            0    6338.4119    17.862936    22.792977    19.033456     7749.462    6083.8708    6425.6356    6505.7292   -70.031984   -518.02934    337.39659    -4334.564 
35949000     84.34107   -5211.1183   -5042.4257   -5211.1183            0    6888.4286    17.779414    22.769812    19.148984    7752.1581    6795.5944    6722.6912    7147.0001    490.19361    244.65601   -318.57329   -4263.6387 
35950000     83.60167   -5219.9911   -5052.7775   -5219.9911            0    7186.9911    17.841148    22.597346    19.183438    7734.0445    7601.4174    6806.0831    7153.4728    258.96606    251.00516   -355.06854   -4242.1344 
35951000    84.157927   -5217.6675   -5049.3413   -5217.6675            0    7156.2347    17.855285    22.644904    19.147432    7741.9044      6575.93    7293.8535    7598.9207   -270.48115    49.013871   -640.50994    -4241.347 
35952000    82.699209   -5215.0591   -5049.6505   -5215.0591            0    7030.2469    17.851854    22.653005    19.137245    7739.0662    6542.0378    6971.6572    7577.0456    67.502358    297.03796   -419.41639   -4256.1723 
35953000    80.248493   -5220.8112   -5060.3043   -5220.8112            0    6916.8128    17.802885    22.680577    19.184717    7746.3996    6543.3456    6650.8787    7556.2139    973.78007   -602.57262    511.87274   -4278.8892 
35954000     80.39814   -5225.9941   -5065.1878   -5225.9941            0    5951.8221    17.895367    22.814814    19.032065    7770.4012    5698.3055    4921.3532    7235.8075   -36.554869   -586.83236     86.40915   -4390.7075 
35955000    84.057323   -5228.8206   -5060.6956   -5228.8206            0    6620.0891    17.788427    22.699138    19.192166    7749.4503    4918.6077    7310.1717    7631.4878   -40.095772    238.51088   -70.827304   -4312.5078 
35956000    82.947988   -5221.3468   -5055.4405   -5221.3468            0    7388.1847    17.863415    22.561626    19.208199    7741.4359    8715.8605    7263.2848    6185.4088   -1280.2949    116.19265   -545.54154   -4221.3078 
35957000    86.141038   -5219.6006   -5047.3078   -5219.6006            0    7453.7157    17.890255    22.748013    19.004933    7734.3947    5695.9168    7963.8907    8701.3394     131.3812   -325.46717    5.9827205    -4206.542 
35958000     86.19037   -5214.5824    -5042.191   -5214.5824            0    6765.1651    17.827348    22.726946    19.118396    7746.0318    8501.2466    5993.2787      5800.97    333.38476     199.6062    503.98061   -4277.9443 
35959000    86.814919   -5220.1294   -5046.4888   -5220.1294            0    6585.0042     17.80399    22.590406     19.24123    7738.8103    6485.2845    6247.4088    7022.3194    -313.8714   -1365.7626   -399.87702    -4303.288 
35960000    86.692117   -5218.1461   -5044.7511   -5218.1461            0    6629.0344    17.778482    22.738451    19.146215    7739.9563     7337.687    6348.0031    6201.4129   -159.45742    266.61521    -262.9126   -4296.4702 
35961000    81.434497   -5206.7576   -5043.8786   -5206.7576            0    7510.9738     17.70376     22.88199      19.0572    7720.0192    8476.2257    6772.7342    7283.9616   -770.94458   -58.259856   -833.48708   -4198.2288 
35962000    84.851659   -5220.9441   -5051.2303   -5220.9441            0    5959.5595    17.866081    22.648868    19.175605    7759.3417    4995.5621    7357.4638    5525.6526    599.63129    948.18298    701.44939   -4376.8344 
35963000    80.875126   -5210.1417   -5048.3815   -5210.1417            0    6749.4878    17.790082    22.576674    19.261884      7736.36    7682.0632    6249.3682    6317.0321   -70.064058   -833.39623    -25.04386   -4286.8578 
35964000    84.960943   -5221.0742   -5051.1418   -5221.0742            0     7317.943    17.908791    22.524122     19.18775    7739.9505    7023.5712     7641.248      7289.01   -209.13489   -440.48851   -500.59911    -4225.098 
35965000    79.943716   -5221.7524   -5061.8551   -5221.7524            0    7805.5513    17.869815    22.616654       19.115    7725.4308    8015.2186    7800.6697    7600.7657    78.258358   -581.08725     536.6781   -4182.4233 
35966000    85.517387   -5220.2137   -5049.1683   -5220.2137            0    8105.2387    17.693236    22.859913    19.077957    7716.3819    8178.3753    7333.0889    8804.2519    363.40983    -181.6239    556.19764   -4137.0411 
35967000    81.946172   -5223.1199   -5059.2175   -5223.1199            0    7178.0452    17.812115    22.728911    19.100247    7732.7347    8103.0163    6812.5014    6618.6179   -42.118009    265.55358     422.3516   -4249.7206 
35968000    86.894264   -5218.9703   -5045.1711   -5218.9703            0    7135.0269    17.925695    22.496389    19.202742    7743.7632    6433.2727    7539.6667    7432.1412    164.56013    46.985414    1238.1395   -4239.3779 
35969000    84.869809   -5220.0254   -5050.2753   -5220.0254            0    6947.3681    17.902016     22.50867    19.191599    7733.2659    6175.4809    7558.3126    7108.3108    35.370945   -54.602647   -583.56912   -4266.7389 
35970000    79.949976    -5219.289   -5059.3792    -5219.289            0    7546.9304    17.773673    22.778264    19.078491    7723.9926    7611.0236    7717.3788    7312.3889   -457.46781   -526.53493   -525.26898   -4209.2438 
35971000    78.829941   -5210.7588   -5053.0892   -5210.7588            0    7147.4316    17.857266    22.806983    19.005263    7740.2807    6608.2794    6902.5353    7931.4801    115.73095   -412.94248   -1655.6336   -4246.2581 
35972000    81.112252   -5226.2123   -5063.9778   -5226.2123            0    6206.7872    17.812937    22.685921     19.19299    7755.9426    5761.4448    7187.3632    5671.5536    130.95452    553.50883   -144.35266   -4361.9128 
35973000    80.823228   -5221.1372   -5059.4808   -5221.1372            0    7468.5599    17.773263    22.643664    19.226133     7737.592    8366.7678    7313.1261    6725.7858   -86.144451    724.45692   -355.34257   -4216.6923 
35974000    82.143558   -5215.8025   -5051.5052   -5215.8025            0    6242.4158    17.912049    22.600587    19.170637     7760.711    5800.0491    6418.2296    6508.9687   -174.86522   -156.17352   -1317.7977    -4344.976 
35975000    82.307656   -5218.2237   -5053.5983   -5218.2237            0    7859.7446    17.768556    22.625405    19.205001    7720.8098    8170.6099    7542.7243    7865.8996     999.6592   -387.54492    121.78168   -4168.5903 
35976000    82.812456   -5213.9366   -5048.3015   -5213.9366            0    7306.4916    17.786064    22.701945    19.144601    7730.1733    7599.3972    7360.4571    6959.6206   -169.47197    619.20703   -1655.5509   -4224.5921 
35977000    89.088993   -5209.9921   -5031.8032   -5209.9921            0    6927.3938    17.739801    22.773119    19.193248    7753.8914    7276.0774    7260.5231    6245.5808    974.93395   -78.259515    457.80992   -4248.4358 
35978000    86.299308   -5212.9004   -5040.2911   -5212.9004            0    7532.4465    17.874385    22.650142     19.09685    7731.5003    6459.9495    8576.2607    7561.1292   -337.26053    222.46492   -264.74208   -4190.9626 
35979000    85.356138   -5214.1777   -5043.4549   -5214.1777            0    6819.8675    17.929908    22.688997    19.028415    7740.9809    6998.6744    7029.7741     6431.154    521.90176   -103.05701    493.97789    -4273.531 
35980000     87.23627   -5210.1831   -5035.6998   -5210.1831            0    6366.8882    17.851381    22.644828    19.191981     7758.194    6572.8287    6810.1336    5717.7023   -590.82026    -237.0411   -1393.2865   -4315.3163 
35981000    87.491684   -5215.7372    -5040.743   -5215.7372            0    8067.8953     17.82738    22.645054    19.149309    7730.6137    8484.7623    7619.4307     8099.493   -366.98174    447.85202   -183.60069   -4131.1437 
35982000    84.347988   -5214.6008   -5045.8944   -5214.6008            0       7426.2    17.724443    22.736129    19.205253    7739.4329    7666.0797    7448.0229    7164.4973   -438.99299    327.19417     325.4777   -4207.6866 
35983000    81.720688   -5219.9231   -5056.4717   -5219.9231            0    7112.5719    17.869119    22.583776    19.179375    7739.8786    8039.9418    6883.1063    6414.6677    255.32433    315.11576   -217.10936   -4253.6174 
35984000    85.861376   -5215.4318   -5043.6984   -5215.4318            0    6635.8132    17.797862    22.692276    19.189301    7750.0597     6787.597    6786.6629    6333.1797     36.48768   -217.67234   -975.39946   -4293.6745 
35985000    84.046245   -5223.7877   -5055.6848   -5223.7877            0     7609.324    17.750964    22.860315    19.018948    7717.7489    6922.1835     8229.906    7675.8824   -1246.6851    1013.7334   -600.44296   -4199.2139 
35986000    85.131111   -5224.4121   -5054.1394   -5224.4121            0    6436.2029    17.769048    22.840567    19.072768    7740.7807    6390.6854    6057.5759    6860.3473     221.4228   -311.65496    439.76109   -4327.5478 
35987000    80.905374   -5221.5223   -5059.7016   -5221.5223            0    6035.6871    17.847891    22.761188    19.147711    7778.5507    6656.6321    4925.6696    6524.7595   -145.30423    222.27742    13.486385        -4375 
35988000    84.654655   -5214.3293   -5045.0095   -5214.3293            0    7105.4105    17.853359    22.668916    19.164113    7756.0288      6258.77    8376.9688    6680.4928    236.49998    91.207984   -565.01386     -4241.29 
35989000    83.743077   -5212.2575    -5044.761   -5212.2575            0    7263.6598    17.729662    22.739018    19.149498    7720.2176     7119.537    7107.8806    7563.5617     1532.915    64.991047   -504.31558    -4226.935 
35990000    87.572571   -5220.5105   -5045.3546   -5220.5105            0    7217.0098     17.78988    22.696248    19.163254    7737.4229    8295.2516    6503.2213    6852.5565   -42.547158   -765.04222    1368.2587     -4230.97 
35991000    83.137034   -5220.8489   -5054.5646   -5220.8489            0    7518.4738    17.871975    22.642632    19.075622    7719.3045    7394.2459    7473.2349    7687.9406    -656.5257     239.2918    287.94355   -4208.1488 
35992000    82.253451   -5213.7469   -5049.2299   -5213.7469            0    7467.3118    17.729357    22.617134    19.256459    7721.5945    8044.8196    8130.3161    6226.7996     635.7952   -325.49476    497.97802   -4208.3244 
35993000    91.197242   -5222.9761   -5040.5704   -5222.9761            0    6751.5718    17.767251    22.733506    19.167057    7741.8027    6750.3765    6758.7808     6745.558    462.42037     760.9525   -1066.1584   -4278.2757 
35994000    84.837364   -5214.2897   -5044.6045   -5214.2897            0    6154.3073    17.840996    22.612953    19.270127    7774.2938    6533.3898     6596.071    5333.4612    681.43833    361.44243    898.63798   -4346.8285 
35995000    84.761711   -5207.8211   -5038.2872   -5207.8211            0    7067.4353    17.815158    22.808436     19.07365    7750.3087    6435.4748    6739.6959    8027.1351   -284.22606   -270.43902    317.92358   -4239.4529 
35996000    81.101324   -5214.5048   -5052.2921   -5214.5048            0    6253.9287    17.807704    22.811472     19.11782    7766.0397    7062.3299     5635.997    6063.4592   -183.58676    316.98727   -132.72669   -4343.9739 
35997000    82.921244   -5217.6817    -5051.829   -5217.6817            0    6613.6993    17.863368    22.571187    19.245655    7759.7984    5803.6696    7241.8608    6795.5675   -104.20651   -68.611856    280.93296   -4303.3652 
35998000    83.559895   -5208.7426   -5041.6125   -5208.7426            0    6991.0052    17.863627    22.654863    19.135578    7744.1306    5900.3659    7705.0367    7367.6128    -692.8726     -400.127   -807.24101    -4252.047 
35999000     83.33767   -5219.7319   -5053.0462   -5219.7319            0    6191.2859    17.848925    22.654833    19.144263    7741.2587     6395.662    6583.8373    5594.3585   -978.19412    42.287784   -635.19071   -4354.0605 
36000000    85.777358   -5210.0454     -5038.48   -5210.0454            0    7042.9526    17.984528    22.570124    19.084174     7746.515    6206.2624    7833.9532    7088.6424    633.32249    231.91848   -634.79965   -4242.8026 
Loop time of 443.488 on 64 procs for 250000 steps with 1008 atoms

Performance: 97.410 ns/day, 0.246 hours/ns, 563.713 timesteps/s
196.0% CPU use with 32 MPI tasks x 2 OpenMP threads

MPI task timing breakdown:
Section |  min time  |  avg time  |  max time  |%varavg| %total
---------------------------------------------------------------
Pair    | 35.945     | 40.255     | 45.439     |  36.2 |  9.08
Bond    | 0.94312    | 1.2201     | 1.538      |  10.2 |  0.28
Kspace  | 213.03     | 224.57     | 234.39     |  31.9 | 50.64
Neigh   | 0.70849    | 0.81424    | 0.90931    |   7.5 |  0.18
Comm    | 68.566     | 74.449     | 81.813     |  47.5 | 16.79
Output  | 0.5514     | 0.55173    | 0.55307    |   0.0 |  0.12
Modify  | 86.84      | 89.481     | 92.114     |  12.6 | 20.18
Other   |            | 12.14      |            |       |  2.74

Nlocal:        31.5000 ave          37 max          29 min
Histogram: 8 5 5 5 0 2 3 2 1 1
Nghost:        2976.53 ave        2997 max        2959 min
Histogram: 1 3 2 6 5 9 2 1 1 2
Neighs:        10797.0 ave       12665 max        9868 min
Histogram: 8 5 5 3 2 2 3 2 1 1

Total # of neighbors = 345503
Ave neighs/atom = 342.76091
Ave special neighs/atom = 2.0000000
Neighbor list builds = 1946
Dangerous builds = 0

unfix		3
unfix		2
unfix		1

write_data	data.final.${pid}
write_data	data.final.0
System init for write_data ...
PPPM initialization ...
  extracting TIP4P info from pair style
  using 12-bit tables for long-range coulomb (../kspace.cpp:340)
  G vector (1/distance) = 0.38022026
  grid = 24 27 32
  stencil order = 5
  estimated absolute RMS force accuracy = 0.0023518759
  estimated relative force accuracy = 7.0826043e-06
  using double precision FFTW3
  3d grid and FFT values/proc = 5355 672
Last active /omp style is kspace_style pppm/tip4p/omp
WARNING: Not all mixed pair coeffs generated from mixing. Use write_data with 'pair ij' option to store all pair coeffs. (../write_data.cpp:312)

write_restart   restart.lmp.${pid}
write_restart   restart.lmp.0
System init for write_restart ...
PPPM initialization ...
  extracting TIP4P info from pair style
  using 12-bit tables for long-range coulomb (../kspace.cpp:340)
  G vector (1/distance) = 0.38022026
  grid = 24 27 32
  stencil order = 5
  estimated absolute RMS force accuracy = 0.0023518759
  estimated relative force accuracy = 7.0826043e-06
  using double precision FFTW3
  3d grid and FFT values/proc = 5355 672
Last active /omp style is kspace_style pppm/tip4p/omp
Total wall time: 0:07:23
