LAMMPS (30 Jul 2021)
Processor partition = 0
  using 2 OpenMP thread(s) per MPI task
using multi-threaded neighbor list subroutines
variable        pid world 0 1
variable        phase world IceV IceIII

shell cd ${phase}
shell cd IceV
include Restart.lmp
echo both
log log.lammps
#include		in.partitions
include		in.temp
variable        temperature equal 96.47
variable	tempDamp equal 100.0
include		in.pressure
variable        pressure equal 6906.6
variable        pressureDamp equal 1000.0 # This is 1 ps
include		in.seed
variable        seed equal 745823

units		real
atom_style	full
read_restart    restart.lmp.${pid}
read_restart    restart.lmp.0
Reading restart file ...
  restart file = 30 Jul 2021, LAMMPS = 30 Jul 2021
  restoring atom style full from restart
  triclinic box = (-3.0874580 -0.028478558 -0.049026675) to (14.697457 22.608478 19.279025) with tilt (0.0020469501 -6.8100225 0.065073655)
  2 by 4 by 4 MPI processor grid
  restoring pair style lj/cut/tip4p/long/omp from restart
  restoring bond style harmonic/omp from restart
  restoring angle style harmonic/omp from restart
  1008 atoms
  672 bonds
  336 angles
Finding 1-2 1-3 1-4 neighbors ...
  special bond factors lj:    0        0        0       
  special bond factors coul:  0        0        0       
     2 = max # of 1-2 neighbors
     1 = max # of 1-3 neighbors
     1 = max # of 1-4 neighbors
     2 = max # of special neighbors
  special bonds CPU = 0.004 seconds
  read_restart CPU = 0.009 seconds

include 	in.setup
variable	out_freq equal 1000
variable	out_freq2 equal 10000
variable	out_freq3 equal 1000

timestep	2.0

neigh_modify    delay 7 every 1

include		in.tip4p
# This is TIP4P/Ice

# create groups ###
group ox type 2
336 atoms in group ox
group hy type 1
672 atoms in group hy

# set charges - beside manually ###
set group ox charge -1.1794
Setting atom values ...
  336 settings made for charge
set group hy charge 0.5897
Setting atom values ...
  672 settings made for charge

# ### TIP3P Potential Parameters ###
pair_style lj/cut/tip4p/long/omp 2 1 1 1 0.1577 8.5
pair_coeff 1 1*2 0.000 0.000
pair_coeff 2 2 0.21084 3.1668
bond_style  harmonic
bond_coeff  1 450 0.9572
angle_style harmonic
angle_coeff 1 55 104.52
kspace_style pppm/tip4p/omp 1.0e-5
pair_modify tail yes

thermo          ${out_freq}
thermo          1000
thermo_style    custom step temp pe etotal epair emol press lx ly lz vol pxx pyy pzz pxy pxz pyz enthalpy

restart 	${out_freq3} restart.lmp.${pid} restart2.lmp.${pid}
restart 	1000 restart.lmp.${pid} restart2.lmp.${pid}
restart 	1000 restart.lmp.0 restart2.lmp.${pid}
restart 	1000 restart.lmp.0 restart2.lmp.0


include         in.dump
dump            myDump all atom ${out_freq2} dump.water.${pid}
dump            myDump all atom 10000 dump.water.${pid}
dump            myDump all atom 10000 dump.water.0
dump            myDump2 all dcd ${out_freq2} dump.dcd
dump            myDump2 all dcd 10000 dump.dcd
dump_modify     myDump append yes
dump_modify     myDump2 append yes


variable natoms 	equal  "count(all)"                        # NUMBER ATOMS
variable H      	equal  "enthalpy/v_natoms"                 # ENTHALPY-per-atom
variable Vol      	equal  "vol/v_natoms"                 # volume-per-atom
fix AVG all 		ave/time ${out_freq} 1 ${out_freq} v_Vol v_H file vol_enthalpy.dat
fix AVG all 		ave/time 1000 1 ${out_freq} v_Vol v_H file vol_enthalpy.dat
fix AVG all 		ave/time 1000 1 1000 v_Vol v_H file vol_enthalpy.dat



fix 		1 all shake 1e-6 200 0 b 1 a 1
Finding SHAKE clusters ...
       0 = # of size 2 clusters
       0 = # of size 3 clusters
       0 = # of size 4 clusters
     336 = # of frozen angles
  find clusters CPU = 0.000 seconds
fix             2 all nph tri ${pressure} ${pressure} ${pressureDamp}
fix             2 all nph tri 6906.6 ${pressure} ${pressureDamp}
fix             2 all nph tri 6906.6 6906.6 ${pressureDamp}
fix             2 all nph tri 6906.6 6906.6 1000
fix             3 all temp/csvr ${temperature} ${temperature} ${tempDamp} ${seed}
fix             3 all temp/csvr 96.47 ${temperature} ${tempDamp} ${seed}
fix             3 all temp/csvr 96.47 96.47 ${tempDamp} ${seed}
fix             3 all temp/csvr 96.47 96.47 100 ${seed}
fix             3 all temp/csvr 96.47 96.47 100 745823


run             250000
PPPM initialization ...
  extracting TIP4P info from pair style
  using 12-bit tables for long-range coulomb (../kspace.cpp:340)
  G vector (1/distance) = 0.37956308
  grid = 24 27 32
  stencil order = 5
  estimated absolute RMS force accuracy = 0.0024327704
  estimated relative force accuracy = 7.3262159e-06
  using double precision FFTW3
  3d grid and FFT values/proc = 5355 672
Last active /omp style is kspace_style pppm/tip4p/omp
Neighbor list info ...
  update every 1 steps, delay 7 steps, check yes
  max neighbors/atom: 2000, page size: 100000
  master list distance cutoff = 10.8154
  ghost atom cutoff = 10.8154
  binsize = 5.4077, bins = 5 5 4
  1 neighbor lists, perpetual/occasional/extra = 1 0 0
  (1) pair lj/cut/tip4p/long/omp, perpetual
      attributes: half, newton on, omp
      pair build: half/bin/newton/tri/omp
      stencil: half/bin/3d/tri
      bin: standard
Setting up Verlet run ...
  Unit style    : real
  Current step  : 33250000
  Time step     : 2
Per MPI rank memory allocation (min/avg/max) = 10.31 | 10.32 | 10.33 Mbytes
Step Temp PotEng TotEng E_pair E_mol Press Lx Ly Lz Volume Pxx Pyy Pzz Pxy Pxz Pyz Enthalpy 
33250000    102.31424   -5193.2858   -4988.6447   -5193.2858            0    6371.5389    17.784915    22.636956    19.328051    7781.4027    6824.4274    6537.1639    5753.0253   -102.55203   -264.45558    477.67564   -4265.5784 
33251000    98.320176   -5198.8701   -5002.2176   -5198.8701            0    6711.4225    17.937239    22.661818    19.112352    7768.9886    6811.2127    6096.5409    7226.5137     324.6791   -98.471162   -491.63675   -4241.7951 
33252000    99.413019   -5193.8745   -4995.0362   -5193.8745            0    8325.4943    17.746548    22.741194    19.140748    7724.7792    9577.1823    7603.9968    7795.3038   -300.56396    433.70825   -1216.7143   -4057.1029 
33253000    94.475285   -5191.9556   -5002.9934   -5191.9556            0    6564.3694    17.894338      22.8056    19.041166    7770.5307     5801.538    6436.9646    7454.6056    191.66432    605.86646   -88.507977   -4259.0848 
33254000    94.039871   -5199.4587   -5011.3674   -5199.4587            0       6291.1    17.903861    22.526844    19.244726    7761.7343    5743.6019    6716.5911    6413.1069    1176.5878   -711.32983   -246.10349   -4299.2341 
33255000     99.05081   -5197.0252   -4998.9113   -5197.0252            0    6717.1536     17.77396    22.769759    19.163743     7755.735    7806.1658    6199.1319    6146.1632   -209.75797    359.06639   -390.86121   -4239.1378 
33256000    100.65068   -5192.0365   -4990.7227   -5192.0365            0    7126.9826    17.788731    22.820806    19.092275    7750.5698    7441.4267    6773.1599    7166.3612   -1151.0533   -74.777929    67.639016   -4185.1306 
33257000      96.2924   -5191.7509   -4999.1542   -5191.7509            0    8037.9137     17.81305     22.60078    19.192736    7726.7812    8927.5701    7862.2597    7323.9113    -560.1725   -780.54444    1124.8605   -4093.3844 
33258000    99.617594   -5194.6137   -4995.3662   -5194.6137            0    6152.8603    18.011321    22.523423    19.154532    7770.5456    6343.7497    6388.8275    5726.0039   -325.60017    319.94481   -103.24059   -4298.0907 
33259000    97.955603    -5181.377   -4985.4537    -5181.377            0    7718.9689    17.861818     22.77833    19.042365    7747.6221    8874.9597      6491.67    7790.2769   -427.22185    -623.7647   -1211.6072   -4113.2788 
33260000    103.95958   -5197.0012   -4989.0692   -5197.0012            0    7539.5679    17.744404    22.879617    19.074027    7743.7718    7418.7322    6940.9462    8259.0254    119.55702    179.82604    137.59802   -4137.5884 
33261000    94.802635   -5189.7795   -5000.1625   -5189.7795            0    7029.2927    17.937594    22.597396    19.148772    7761.8192    7383.3329    7369.3273    6335.2179   -210.25418   -421.95908    367.50564   -4204.4594 
33262000    101.91282    -5185.136   -4981.2978    -5185.136            0    6746.9065     17.87842    22.659444    19.176497    7768.6881    6885.6028    7073.4892    6281.6276    597.60659    534.62039    182.70061   -4216.8844 
33263000    100.46901   -5183.7861   -4982.8357   -5183.7861            0    6289.8688    17.813867    22.907673    19.034308    7767.4106    6195.3087    5535.6075    7138.6902   -912.83927   -719.86027    344.34969   -4270.3211 
33264000    97.937365   -5195.6878    -4999.801   -5195.6878            0    7020.3238    17.817487    22.648142    19.225545    7758.1409    7123.4024    7203.3335    6734.2353    996.09152    874.63414   -91.575758   -4205.4898 
33265000    94.821981   -5186.9988   -4997.3431   -5186.9988            0    7412.6891    17.886278    22.713681    19.081953    7752.2954     7068.917    8092.9264     7076.224   -522.04164    590.47137   -350.78187   -4159.2698 
33266000    98.018379   -5192.7552   -4996.7063   -5192.7552            0    6423.6717    17.900887    22.654481    19.202302    7787.2115    5832.9553    6446.2531    6991.8066   -892.20655   -545.50761    137.29522   -4267.1796 
33267000     94.66033   -5188.3076   -4998.9752   -5188.3076            0    6942.1992    17.682796    22.877017    19.180836    7759.2164    8386.4519    6422.2724    6017.8734    669.69684    551.63198   -439.40601   -4213.3945 
33268000    95.635187   -5192.4801   -5001.1979   -5192.4801            0     7545.037    17.938978    22.634675    19.059862    7739.1221    6164.1957     7631.973    8838.9423    152.57444   -36.769928    269.26026   -4149.6111 
33269000    92.109896   -5184.1333   -4999.9021   -5184.1333            0    6635.5673    17.881205      22.5895    19.232745    7768.6345    6245.4814     6604.388    7056.8326    22.687363   -187.92071   -1627.4931   -4248.1085 
33270000    100.62232   -5200.6145   -4999.3575   -5200.6145            0    6524.7755    17.901983    22.817595    19.004675    7763.0334     5486.985    6205.2102    7882.1311    130.01663    254.99245     1527.928   -4260.6493 
33271000    93.430157   -5193.1766   -5006.3048   -5193.1766            0      7516.85    17.827056    22.732659    19.143503    7758.0266     7538.831    6579.4228    8432.2962    606.47644    137.13498    1351.0612   -4155.8269 
33272000    97.223108   -5190.7946   -4996.3364   -5190.7946            0     7213.165    17.774594    22.854309    19.081438    7751.3777    6779.6687    7507.3783     7352.448    234.17253    740.42317    534.32527   -4180.9177 
33273000    93.335849   -5192.7745   -5006.0913   -5192.7745            0    7640.3163     17.92196    22.638882    19.106973     7752.332    8181.9355    7502.1853     7236.828    170.39563   -196.40408    645.59094   -4142.2786 
33274000    107.11698    -5195.247   -4980.9999    -5195.247            0    6457.7925    17.885888    22.708043    19.128842    7769.2462     5952.842     6174.764    7245.7717   -45.442975     591.3917   -898.21891   -4249.2901 
33275000    100.91658   -5187.4221   -4985.5765   -5187.4221            0    7186.9369    17.831084    22.807384    19.101345    7768.1422    6003.9621    7514.2277    8042.6207     982.2635    605.73932    1669.7367   -4171.3657 
33276000     99.91316   -5188.6191   -4988.7804   -5188.6191            0    7281.2419    17.924172    22.651079    19.092197     7751.467    7171.6234    6727.7492    7944.3531   -215.95965   -296.38577   -688.73082   -4165.6564 
33277000    96.871665   -5179.5906   -4985.8353   -5179.5906            0    7492.4771    17.821091    22.639883    19.213163    7751.8849    8776.4522    7397.3683    6303.6107    580.41413    65.900613   -93.727513   -4138.7861 
33278000    94.241252   -5190.6074   -5002.1132   -5190.6074            0    7035.3982    17.916889    22.696582    19.044312    7744.4101    5185.8248    7804.6203    8115.7497   -932.81635    488.20093   -770.56917   -4207.5053 
33279000     97.19951   -5186.2843   -4991.8732   -5186.2843            0    7652.4601    17.706916    22.911113    19.047165    7727.1521    7056.9191    7611.5621    8288.8991   -960.49786    469.41697    849.16967   -4129.4977 
33280000    98.921424   -5188.5024   -4990.6473   -5188.5024            0    6794.1813    17.948993    22.580023    19.181725    7774.1355    5646.7942     7650.933    7084.8168   -359.21713    492.10632   -789.78666    -4220.338 
33281000    99.889483   -5190.2638   -4990.4725   -5190.2638            0    6165.8753    17.885657    22.738619    19.164661    7794.1745    5924.0406    6218.3245    6355.2608   -2.1727559    402.34168   -69.911725   -4289.5972 
33282000    93.827115   -5179.5746   -4991.9087   -5179.5746            0    6935.0271    17.779845    22.892265     19.07071    7762.1782    6931.2262     6467.291    7406.5643   -273.66399    112.75185    407.12692     -4206.84 
33283000    97.679824   -5195.8768   -5000.5051   -5195.8768            0    5704.0391    17.978955    22.495074    19.262041    7790.2997    3786.3625    7079.1536    6246.6013   -443.63765     80.34087   -925.98652   -4352.4491 
33284000    92.831416   -5191.7889   -5006.1146   -5191.7889            0    7283.3477    17.723297    22.896356    19.086401     7745.241    7918.4826    6580.3977    7351.1628   -772.34028   -507.94074    900.92575   -4183.4139 
33285000    94.742161   -5195.9108   -5006.4148   -5195.9108            0    6718.0749    17.932339    22.499015    19.203624    7747.8935    5708.2041    7685.8541    6760.1664    366.98882   -407.38158   -447.20851   -4247.3054 
33286000    98.405948    -5202.335   -5005.5109    -5202.335            0    6584.0947    17.853794    22.634305    19.192389     7755.802    5826.7381    7275.9681    6649.5779   -962.08808    655.75251    454.76855   -4260.7812 
33287000    98.817133   -5191.7607   -4994.1142   -5191.7607            0    7072.1872    17.852774    22.745853     19.05994    7739.7949    7180.9383    6810.4355    7225.1878   -52.261014   -429.25711   -265.70045   -4195.8272 
33288000    97.176389   -5193.2895   -4998.9248   -5193.2895            0    5993.6096    17.897325    22.546509     19.26294    7773.0239    5342.0471    6167.3637    6471.4179   -333.77478    12.970386   -17.688824   -4319.4797 
33289000    94.048187   -5190.1689    -5002.061   -5190.1689            0    6325.6636    17.774035    22.882927    19.125189     7778.634     6860.677    6116.6328     5999.681    737.22121    319.78011   -654.93976   -4284.4562 
33290000    96.623184   -5188.5588   -4995.3005   -5188.5588            0    6745.6365    17.968681    22.610255    19.110206    7764.0267    6254.5894    7079.9709    6902.3491    506.03065   -87.014036    404.47845   -4231.4896 
33291000     100.6266   -5198.1547   -4996.8891   -5198.1547            0    6051.8083    17.876197    22.721409    19.173932    7787.9216    6261.6812    5781.8778    6111.8657    -565.1936    127.71349   -72.021549   -4309.5316 
33292000    97.270048   -5190.9368   -4996.3847   -5190.9368            0    6777.5783    17.867616    22.585614    19.178114    7739.3487    7545.1033    6198.7356    6588.8961     520.7321   -973.70773    801.34875   -4231.3963 
33293000    98.336996    -5182.622   -4985.9359    -5182.622            0    7119.7879    17.826717    22.774363    19.069596    7742.1059    8022.5121    5914.2313    7422.6202   -247.42809   -224.70803    -587.8037   -4182.0358 
33294000    91.821522   -5191.8724    -5008.218   -5191.8724            0    6738.6833     17.79332    22.741964    19.205286     7771.516    6597.4458    6894.3145    6724.2894    221.98378   -716.04267    108.25917   -4244.4584 
33295000     96.28929   -5199.4202   -5006.8297   -5199.4202            0    7225.5438    17.912942    22.572373    19.160443    7747.2875    7708.2918    7292.9839    6675.3558    924.08346   -262.38199    65.475316   -4190.4427 
33296000     96.05118   -5196.5224   -5004.4082   -5196.5224            0    6639.9461    17.793599    22.685399    19.204817    7752.1185    7748.4904    6122.0766    6049.2712    709.26843   -43.064958    490.07892   -4253.7178 
33297000    101.46057   -5200.0471   -4997.1134   -5200.0471            0    6950.1245    17.937331    22.667566    19.098553    7765.3883    5193.6853    7522.8001     8133.888    3.5313949    -665.7391    565.56623   -4210.0102 
33298000    95.365406   -5197.2541   -5006.5115   -5197.2541            0    6862.3648    17.911285    22.689136    19.119098    7769.8407    7137.3339    6656.9078    6792.8528   -532.06685   -612.11834   -414.10284   -4228.9015 
33299000    95.317468   -5184.4118   -4993.7651   -5184.4118            0    5758.3673    17.852044    22.736919    19.180656    7785.4373    4910.8891    6163.3432    6200.8697   -50.212278    471.42567   -257.92138    -4339.945 
33300000    94.330237   -5194.7194   -5006.0473   -5194.7194            0    6512.9206    17.951258    22.663576    19.088758    7766.0647    4804.3975    7307.3685    7426.9957    199.80491   -433.96779   -218.19916   -4268.3933 
33301000     104.3381   -5182.0547   -4973.3656   -5182.0547            0    6927.3806     17.86673    22.704959    19.145608    7766.6717    7442.3464    6903.6118    6436.1836    651.51114   -219.91212    -643.4406   -4188.7085 
33302000     94.07844   -5190.6195    -5002.451   -5190.6195            0    6939.2955    17.728152      22.8806    19.065971    7733.7444    7254.9721    6965.5317    6597.3827    440.22358    537.78199    904.73653   -4219.7766 
33303000     90.98198   -5195.6625   -5013.6873   -5195.6625            0    7366.9904      17.9705     22.47518    19.215582    7760.9853    6112.0125    8002.1305    7986.8282   -1338.4181    146.38117    1200.3183   -4179.8471 
33304000    101.39714    -5187.262   -4984.4552    -5187.262            0    6630.0043    17.784231    22.722702    19.195659    7757.0767    6790.7673    6695.8356      6403.41     1092.395    261.39357     270.7087   -4234.4094 
33305000    99.415872   -5190.6421   -4991.7981   -5190.6421            0    6174.2984    17.897447    22.782328    19.061746    7772.3411     5796.652    5546.0625    7180.1808    77.915715   -1099.4596    994.27942   -4291.9313 
33306000    100.36746   -5180.9903    -4980.243   -5180.9903            0    7058.0136    17.811152    22.843404    19.080477    7763.2232    7946.3922    6121.9325     7105.716   -900.52705     105.4352   -890.52433   -4181.1442 
33307000    95.583453   -5200.4702   -5009.2915   -5200.4702            0    6791.3925    17.888191    22.619215    19.116993    7735.0574    5185.6498     7793.982    7394.5457   -27.246454   -244.06211   -459.74827   -4243.1689 
33308000    93.365469   -5184.6037   -4997.8613   -5184.6037            0    7212.0385    17.859444    22.665686    19.169453    7759.7282     8121.559    7382.3209    6132.2356   -317.21679    100.60626   -500.17263   -4181.6916 
33309000    95.364918   -5190.0748   -4999.3332   -5190.0748            0    6922.9719    17.851169     22.79998    19.086365    7768.2705    6629.1019    6278.4657     7861.348   -491.55975    271.78631     -469.695   -4215.0141 
33310000    95.166573   -5187.7828   -4997.4379   -5187.7828            0      7203.79    17.816176    22.716008    19.159034    7753.8985    6551.2937    7331.0086    7729.0677    252.76418    743.15879   -767.58886   -4182.8142 
33311000    95.614661   -5179.7823   -4988.5411   -5179.7823            0    6799.8144    17.903778    22.566309    19.218269    7764.6069    6676.7013    7383.5439    6339.1978    151.17368   -668.96003    683.54752   -4218.5381 
33312000    100.13822   -5177.1483   -4976.8595   -5177.1483            0    6781.4855    17.697505    22.938898    19.140506    7770.3042    8113.5679    6143.0352    6087.8535   -250.01665    5.9078538   -667.16149   -4208.3685 
33313000    107.08956   -5200.4844    -4986.292   -5200.4844            0    6249.6066    17.852992    22.715074    19.153104    7767.1976    6730.3511    5804.7026    6213.7661    630.58906    313.17834   -42.099193   -4278.3578 
33314000    99.157202    -5200.863   -5002.5363    -5200.863            0    6034.9401     17.82746    22.691742    19.240539    7783.4931    6760.4923    6029.1916    5315.1364    198.79244    69.583088   -327.37514   -4317.4845 
33315000    93.793492   -5194.4802   -5006.8817   -5194.4802            0    7381.3176    17.832726    22.749015    19.109461    7752.2683    7151.4414     7542.356    7450.1555   -95.692119     221.1023   -120.58689   -4172.3582 
33316000    98.926001   -5183.1025   -4985.2383   -5183.1025            0    6953.4563    18.044213    22.549546    19.100982    7771.9757     5724.694    7144.7094    7990.9657    2.7759315    233.73994    291.72273   -4197.0898 
33317000    94.657949   -5194.5892   -5005.2616   -5194.5892            0    6140.6527    17.701401    22.898802    19.204388    7784.3237    6566.1053    5590.2492    6265.6035    582.69439   -163.21909   -1785.1858   -4308.1356 
33318000    95.983223   -5186.3692   -4994.3908   -5186.3692            0    6792.6796    17.912187    22.610175    19.125889    7745.9408    5847.8918    6924.0839    7606.0631   -213.53598    -66.24237    837.56571   -4227.0449 
33319000    94.113103   -5198.0082   -5009.7704   -5198.0082            0    6926.8424    17.918035     22.60989     19.12719     7748.899    6171.6335    7835.6344    6773.2592   -2.2335989    89.348482   -936.99019   -4226.9697 
33320000    97.167163    -5184.648   -4990.3017    -5184.648            0    7523.8784    17.737553    22.743661    19.176951    7736.3057    8208.9193    7127.7141    7235.0018   -11.602839   -60.445766    485.09177    -4141.412 
33321000    98.343399   -5191.8397   -4995.1408   -5191.8397            0    7580.3695    17.879246    22.689055    19.102647    7749.2406    7196.7435    7477.1277    8067.2373    8.9237491    245.18726    559.61049   -4138.4474 
33322000    101.78483   -5182.9084   -4979.3262   -5182.9084            0    6668.4723     17.82934    22.723741    19.166328    7765.2246    7749.5669    6578.6212    5677.2289    221.22194    139.33468   -798.26593   -4224.1361 
33323000    92.809267   -5198.6602   -5013.0302   -5198.6602            0    6657.5317    17.847497    22.633819    19.228964    7767.6751    6253.8763    7401.8122    6316.9066   -372.32862   -788.73593    1126.0759   -4258.8412 
33324000    92.280847   -5194.0989   -5009.5258   -5194.0989            0    7212.6897    17.908561    22.643745    19.113831    7750.9814    6339.2581    7705.0622    7593.7488   -517.57526    291.57496   -628.08852   -4194.2026 
33325000    96.371221   -5195.6882   -5002.9339   -5195.6882            0    6282.5231     17.83238    22.731924    19.128097    7753.8476    7268.6674    6356.0363    5222.8656    143.84766   -59.917193    775.64149   -4292.4941 
33326000    101.52139     -5195.93   -4992.8746     -5195.93            0    7444.4843    17.907331    22.662174    19.072355    7739.9252    6211.5179    8123.8885    7998.0465   -1438.0003    289.85511   -1103.9343   -4152.5497 
33327000    92.887337   -5198.8097   -5013.0235   -5198.8097            0    7047.9608    17.782536    22.658358    19.240094    7752.2778    8065.8341    5914.2229    7163.8254    200.74923   -584.87426    819.94721    -4216.188 
33328000     100.8379   -5179.2885   -4977.6002   -5179.2885            0    7625.1326     17.84731    22.723622    19.086082    7740.4658    8131.7696     7819.382    6924.2461   -368.37046    302.04037    64.114058   -4116.8237 
33329000    96.314316    -5195.898   -5003.2574    -5195.898            0    7455.1315     17.92939    22.514396    19.146051    7728.6747    7268.0247    7376.1095    7721.2603    875.61555   -855.30231    424.98844   -4162.9538 
33330000      96.6503   -5182.4248   -4989.1122   -5182.4248            0    6964.6784     17.85332    22.746044    19.161494    7781.3371    5834.4437      7447.69    7611.9016    -1122.829    199.15705   -639.14563   -4198.7409 
33331000    93.771455   -5181.0404   -4993.4859   -5181.0404            0    6849.0353    17.819946    22.943313    18.977668    7758.9928     6565.777    6395.8057    7585.5233    1211.8708    164.44576    1482.9247   -4218.4699 
33332000    97.864678   -5201.5225   -5005.7811   -5201.5225            0    7585.5326    17.833326    22.633446    19.216721    7756.4378    7476.1908    8450.5073    6829.8997   -176.72128    809.18266   -111.53374    -4147.708 
33333000    98.990893   -5187.6613   -4989.6673   -5187.6613            0    8176.5638    17.911494    22.586166    19.109295    7730.7032    6116.1331    8855.1327    9558.4257   -88.668553    73.314928   -712.43749   -4067.8057 
33334000    101.23356   -5184.0312   -4981.5516   -5184.0312            0    7245.2728    17.856139    22.736874    19.099206      7754.14    7098.5518    7158.1778    7479.0887    34.455914      390.748    194.92089   -4162.2114 
33335000    95.758328   -5196.1737   -5004.6452   -5196.1737            0    6804.1613    17.916769    22.491087     19.25699    7759.9435    7345.6832    6403.2722    6663.5284   -328.16359   -562.48347    822.09973   -4234.6127 
33336000    94.978463   -5193.1957    -5003.227   -5193.1957            0    7245.5017    17.835981    22.812733    19.070888    7759.7055    6797.4283    6968.5066    7970.5703   -47.844881    52.277906    385.16481   -4183.2728 
33337000    96.668919   -5195.2064   -5001.8567   -5195.2064            0    7094.5544    17.890713    22.627692    19.164121    7758.1254    6172.6686    7753.9656    7357.0289    172.33919    342.46179    350.22259   -4199.1483 
33338000     95.36234   -5187.8999   -4997.1634   -5187.8999            0    7072.2476    17.860633    22.616053    19.201694    7756.2751    6775.4435    6547.5475    7893.7519   -293.39178   -500.97626    6.5417684   -4197.1697 
33339000     92.43172   -5201.1068    -5016.232   -5201.1068            0    7381.6081    17.795375    22.777976    19.127785    7753.3064    7603.5585    7199.5146    7341.7512   -592.37587    510.77717   -747.49771   -4181.5639 
33340000     95.90144   -5196.3376   -5004.5229   -5196.3376            0    6056.6952    17.869444    22.590213    19.269748    7778.7064    4759.7153    6831.8317    6578.5387   -144.05265   -183.55602    684.70453   -4317.4244 
33341000    93.173037   -5192.5857   -5006.2281   -5192.5857            0    6092.9315    17.864978    22.830691    19.075164    7780.1828    5633.5079    6298.8089    6346.4777    112.12387    755.41731   -369.68146   -4314.8877 
33342000    97.613752   -5198.4474   -5003.2079   -5198.4474            0    6372.8071    17.868306    22.678658    19.175083    7770.3036    6231.2708    6609.4112    6277.7394    270.68741   -180.10557   -290.29171   -4281.0292 
33343000    101.98545   -5194.7276   -4990.7441   -5194.7276            0    7621.9116    17.852369    22.642523     19.18431    7754.7326    7532.7056    7746.7288    7586.3003   -304.32393   -247.91099     589.0693   -4128.7454 
33344000    96.479072   -5193.8933   -5000.9232   -5193.8933            0    6128.4362    17.855074     22.83762    19.094056    7785.9335    6753.0526    5677.7602    5954.4957    365.94154   -1142.9443    36.138839   -4305.0402 
33345000    90.384413   -5192.2522   -5011.4722   -5192.2522            0    7996.9494    17.838135    22.715931    19.141692    7756.4019     7697.684    8021.3375    8271.8269    187.37282    783.05649    730.45635    -4106.864 
33346000    97.537438   -5189.6401   -4994.5531   -5189.6401            0    6974.0025    17.902835    22.643704    19.171346    7771.8044    7190.0263    7173.8283    6558.1529    186.04194    506.78681     1861.576   -4204.0932 
33347000    99.314011   -5199.9282   -5001.2879   -5199.9282            0    6819.5506    17.770387    22.770574    19.190035    7765.0924     7691.739    6482.4602    6284.4526   -70.727996   -144.83391   -103.74861   -4229.0017 
33348000    96.863477   -5191.4024   -4997.6635   -5191.4024            0     6976.291    17.761814    22.852788    19.091285    7749.2858    8081.1219    6383.1812      6464.57   -123.36631    384.45324    384.47193   -4209.2353 
33349000    96.614044   -5195.7067   -5002.4667   -5195.7067            0    6862.4626    17.947376    22.558776    19.199547    7773.3366    5930.2303    7319.5699    7337.5877    184.65073   -29.474555    223.63254   -4224.4958 
33350000    96.099562   -5190.7443   -4998.5333   -5190.7443            0    7974.6239    17.724637    22.804821    19.119594    7728.2769    8178.1481    7881.1565    7864.5671    560.63093    574.32463   -1385.8708   -4099.7215 
33351000    94.356703   -5207.0564   -5018.3314   -5207.0564            0    6334.4958     17.92569    22.634714    19.161398    7774.6005    6900.8227    6362.6925    5739.9723     -345.955    648.68701   -247.36158   -4300.0973 
33352000    98.292568   -5193.8834   -4997.2861   -5193.8834            0    7005.1141    17.848197    22.724759    19.136193    7761.5629    7125.5275    6683.4738    7206.3409   -95.732122    172.03024    408.78901   -4204.3462 
33353000    98.075009   -5181.2353   -4985.0731   -5181.2353            0    7568.9068    17.698824    22.881544    19.095531    7733.2395    7024.2014    7593.7367    8088.7824    400.61306    318.63006   -492.50197   -4131.4415 
33354000    97.966267   -5187.2077   -4991.2631   -5187.2077            0    7063.2259    17.989784    22.515602    19.136122    7751.1017    7453.5314    7280.9218    6455.2246    860.47824   -702.76286     1885.195   -4192.8228 
33355000    99.819275   -5183.7595   -4984.1086   -5183.7595            0     6033.533    17.926317    22.595357    19.214252     7782.762    5155.7809    6566.3382    6378.4798    519.00792   -168.00382     512.7251   -4299.2809 
33356000    94.859338   -5196.9614    -5007.231   -5196.9614            0    7349.9436    17.778013    22.795862    19.120448     7748.851    7811.6854    7388.2033    6849.9422    1080.3544   -697.73441   -399.20149   -4176.6209 
33357000    97.697027   -5188.3849   -4992.9788   -5188.3849            0    7591.4269    17.814404    22.673662    19.162259    7739.9771    7157.0581    8446.7139    7170.5085    185.69755    213.46742    571.50488   -4136.0614 
33358000    95.473335   -5185.9509   -4994.9924   -5185.9509            0    6321.2133    17.866096     22.63445    19.233368    7777.7672    6081.9532     6595.084    6286.6027    1036.5258     160.9823    180.97629   -4277.9724 
33359000    95.056854   -5188.6679   -4998.5424   -5188.6679            0    7019.1762    17.823207    22.712913    19.112826    7737.1959    6423.6027    6853.8667    7780.0591   -1157.5036   -962.54108   -346.71642   -4206.5051 
33360000     102.1534   -5191.6499   -4987.3305   -5191.6499            0    7627.0964    17.780476    22.709472    19.146656    7731.1367    8113.4706    7197.0505     7570.768   -538.93743     203.3108   -762.03285   -4127.3701 
33361000    101.82586   -5188.5039   -4984.8396   -5188.5039            0    6932.6852    17.811016    22.791785    19.137766    7768.8776    7450.6125    6282.9026    7064.5405    -241.8045    333.82921   -570.04958   -4199.3586 
33362000    96.929195   -5183.7957   -4989.9253   -5183.7957            0    7667.4437    17.852422    22.673134    19.071876    7719.7302    7935.7647    7344.1451    7722.4213   -406.48529    172.61962   -307.18303   -4126.6912 
33363000    96.982545    -5193.648   -4999.6709    -5193.648            0    7483.9547    17.822783     22.63496    19.170881    7733.8779    6962.5815    7887.3307    7601.9519    44.535669    822.73153   -201.13965   -4155.5506 
33364000    98.680412   -5187.7725   -4990.3995   -5187.7725            0    6606.7068    17.868836    22.725036    19.109896    7759.9547     7691.249    5386.7672    6742.1041    151.06093   -914.84402    1392.3519    -4242.712 
33365000    94.484171    -5188.277    -4999.297    -5188.277            0    6381.5513    17.890659    22.722099     19.15438    7786.5107    5383.5061    6327.2546    7433.8933   -85.317393   -34.442143    157.34041   -4274.6191 
33366000    96.463839   -5198.2741   -5005.3345   -5198.2741            0    7916.6662    17.821714    22.656663    19.139222    7728.0457    9157.3335    6952.5734    7640.0917    1066.1755   -773.44129    974.95834   -4113.0818 
33367000    92.552432   -5196.8026   -5011.6863   -5196.8026            0    7224.8693    17.940591    22.683193    19.065393    7758.6591    5774.5551    7257.2337     8642.819    1002.8653      506.034    869.68352   -4194.1772 
33368000    90.355493   -5184.6616   -5003.9394   -5184.6616            0    7632.7869    17.708011    22.747037    19.216835     7740.633    8158.4225    7415.6613    7324.2771    86.406856   -559.04345    -310.0591   -4142.2803 
33369000    92.158552   -5193.4703   -5009.1418   -5193.4703            0    6433.1863    18.048314    22.653761    19.019427    7776.3247    5886.0757    6058.1294    7355.3537   -131.36886   -455.69746   -820.36575    -4279.556 
33370000    97.080705   -5195.6369   -5001.4635   -5195.6369            0    6201.1434    17.746189    22.809222    19.233872    7785.4246     5661.111    6071.5635    6870.7558   -524.00907   -536.31021    1266.6279   -4297.3706 
33371000    95.353462   -5200.7923   -5010.0736   -5200.7923            0    6263.9438     17.90038     22.76763    19.090067    7780.1424    7116.0432    5110.8904    6564.8979   -172.02716   -1072.3592    228.30701   -4299.3327 
33372000    97.956847   -5182.6816   -4986.7558   -5182.6816            0    7910.8126    17.911269    22.433439    19.232586    7727.8716    6934.5415    8875.2461    7922.6501   -49.472112    630.19491   -648.72116   -4095.1828 
33373000    94.695974   -5188.0228   -4998.6191   -5188.0228            0     6324.627    17.717332    22.890804    19.137619    7761.5286    5847.8821    6346.6303    6779.3686    550.52777   -98.549653    446.12294   -4282.7097 
33374000    98.209778    -5192.264   -4995.8323    -5192.264            0    6077.7496    17.871066     22.70118    19.215835    7795.7545    6524.0583    5939.4061    5769.7843   -898.78178    193.02455    22.538098   -4304.8342 
33375000    95.703756   -5182.3907   -4990.9713   -5182.3907            0    5740.5896    17.821517    22.498171    19.439927    7794.4684     6767.857    6334.7561    4119.1558    116.54282    307.32108   -1000.7876   -4338.4137 
33376000    96.009545   -5192.2223   -5000.1913   -5192.2223            0    7482.9171    17.773181    22.852369    19.009734    7720.9805    7507.7513    7022.0966    7918.9033   -1046.4423    221.64895   -215.03267   -4157.5956 
33377000    92.324327   -5191.1683   -5006.5083   -5191.1683            0     6936.631    17.820965    22.696713     19.23264    7779.1666    6903.2019    6701.6628    7205.0282    397.86495    160.68646    1039.0907   -4219.5394 
33378000    95.123958   -5195.4867    -5005.227   -5195.4867            0     6946.382    17.810302    22.722985     19.18311    7763.4666    7314.4985     6427.751    7096.8966    172.70014   -3.2644837   -1030.2772   -4218.7424 
33379000    101.51777   -5185.5423   -4982.4942   -5185.5423            0    6627.6917    17.920797     22.69914    19.105639    7771.9193    7156.2993    6460.4104    6266.3656   -148.48172   -107.40719   -283.41268   -4231.2754 
33380000    92.175013   -5197.1474    -5012.786   -5197.1474            0    6870.2828     17.82367     22.65737    19.179223    7745.2893    7456.1001    6666.9069    6487.8415   -585.29351   -104.30782    346.27371   -4236.7388 
33381000    93.883972   -5201.3519   -5013.5724   -5201.3519            0    6668.8339    17.782456    22.775304    19.163921    7761.4044    7097.2321    6674.0583    6235.2112    248.13912   -143.10443    42.839068   -4258.7129 
33382000    99.848705   -5184.7415   -4985.0317   -5184.7415            0    7817.8824    17.858498    22.495586    19.275051    7743.5086    7452.0335    8402.9185    7598.6951    -310.5486   -213.46215    628.53706   -4102.1494 
33383000    94.997552   -5180.6532   -4990.6464   -5180.6532            0    7505.4701    17.820676    22.753988    19.159627    7769.0648    8487.5719    7586.5368    6442.3015   -506.94485    261.90317    1590.1088   -4140.2478 
33384000     96.19173   -5200.8648   -5008.4695   -5200.8648            0    6836.6998    17.772418    22.821784     19.12465     7756.925    6792.1419    6618.0115    7099.9459   -483.88326     196.7644    -1676.112   -4235.0555 
33385000    92.271979   -5190.3032   -5005.7479   -5190.3032            0    6092.2086    17.799611    22.641598    19.282855    7771.2151    7480.0735    6023.7795    4772.7728   -243.57362   -361.67108   -157.29713   -4315.2862 
33386000    105.11424   -5197.5742   -4987.3328   -5197.5742            0    7741.0695    17.914824    22.715669    19.007213    7734.9324    7195.3133    7675.0067    8352.8884   -191.76918   -520.61333    1052.1236   -4114.0933 
33387000    95.523853   -5195.8944   -5004.8349   -5195.8944            0    6785.1145    17.853137    22.785148    19.056602    7751.9663     6824.743    6597.5376    6933.0631   -831.08426   -124.51738   -878.40149   -4237.7473 
33388000    95.785244   -5188.4098   -4996.8275   -5188.4098            0    7587.8356    17.838278    22.554445    19.251251    7745.4031    7165.4258    8199.0798    7399.0012   -274.39079    -157.9915     707.1386    -4139.715 
33389000    93.203063   -5198.5171   -5012.0995   -5198.5171            0    6990.6629    17.808392     22.77763    19.124948     7757.709      7511.54    6661.3867     6799.062   -838.88647   -194.59204   -797.33704   -4221.1882 
33390000    99.192667   -5193.7729   -4995.3753   -5193.7729            0    6433.3819    17.904019    22.584809    19.221573    7772.4132    6967.8079    5948.1263    6384.2114    1007.7487    656.35513   -546.62604   -4266.1342 
33391000    97.820798   -5195.9881   -5000.3344   -5195.9881            0    7814.1034    17.894205    22.627197    19.108605    7736.9922    7739.3575    7330.1835    8372.7692   -303.54013   -241.76813   -430.21642   -4118.6215 
33392000    93.151855   -5184.4275   -4998.1123   -5184.4275            0    6620.5189    17.723142    22.833763     19.19027    7766.0341    7353.6328    6843.7845    5664.1394   -334.80657    121.19107   -196.39187   -4248.2747 
33393000    97.355074   -5200.4215   -5005.6993   -5200.4215            0     7457.777    17.925049    22.517953    19.214911    7755.8183    6668.7066    8307.2325    7397.3919   -692.33704    539.51084   -542.39023   -4162.1453 
33394000    97.570444   -5194.1281   -4998.9752   -5194.1281            0    6793.7144    17.912497    22.623755     19.15247    7761.4992    5901.1082    7583.3796    6896.6556   -287.96185    256.33199   -748.23553   -4229.9708 
33395000    97.707088   -5195.9706   -5000.5443   -5195.9706            0    6804.1658    17.690423    22.892149    19.161915    7760.0354    7222.4411    6479.7083     6710.348    196.08525   -434.62333      331.892   -4230.5022 
33396000    94.161605   -5188.0262   -4999.6913   -5188.0262            0    8398.5987    17.890926    22.740322    18.997314    7728.9698    7864.0438    8500.5489    8831.2035    332.79132     501.0623   -138.39343   -4053.0088 
33397000    95.798734   -5203.1019   -5011.4926   -5203.1019            0    6468.2118    17.822912    22.537934    19.307303    7755.5816    6587.5896    7051.1547     5765.891    690.34068    845.14636   -944.86179   -4279.8912 
33398000    92.966445   -5187.1667   -5001.2223   -5187.1667            0    7212.0748    17.781339    22.829809    19.070594    7741.6046    7743.5956    6936.8731    6955.7555    743.28291    92.446992   -914.81066   -4186.9548 
33399000    98.082037   -5185.8297   -4989.6536   -5185.8297            0    7178.8843    17.926174     22.57675    19.188808    7765.9936    7147.1735     7466.032    6923.4475    668.55214   -103.94737   -650.42031   -4176.5799 
33400000    98.836206   -5207.8341   -5010.1495   -5207.8341            0    5692.7962    17.826267     22.77962    19.211612    7801.3671    6013.4583    5363.8185    5701.1119   -304.47822   -542.69233   -972.56475    -4362.452 
33401000    103.44958    -5182.729    -4975.817    -5182.729            0    7678.7613    17.758771     22.84819    19.048534    7729.0522    7299.9746    7167.8811    8568.4282   -206.55501    86.756725   -591.76748   -4110.2648 
33402000    97.505334   -5192.2661   -4997.2434   -5192.2661            0    7308.7185    17.837958     22.67245      19.1771    7755.7987    7233.3751    7487.4989    7205.2816    86.470754   -114.92543    774.31635   -4170.5516 
33403000    96.959405   -5188.4308      -4994.5   -5188.4308            0    6864.1175    17.846923    22.860743    19.068685    7779.9075    7125.1096    6692.6215    6774.6214    533.20284    23.277324    524.89944   -4215.6837 
33404000    94.989097   -5190.1278   -5000.1379   -5190.1278            0    7614.3664    17.887209    22.610559     19.15443    7746.8138    7463.7037    7994.4664    7384.9292    418.53702   -246.06949   -592.15107   -4139.8719 
33405000     96.21184   -5195.1545   -5002.7189   -5195.1545            0     7317.052    17.779549    22.763172    19.116432    7736.7817    7435.2155    6946.2861    7569.6543   -741.71129   -344.69862    533.91348   -4177.1138 
33406000    96.418198   -5205.1844   -5012.3361   -5205.1844            0    6906.0952    17.898187    22.774709    19.066888    7772.1589    6769.9444    6124.0789    7824.2624    21.403516    30.196579   -51.684445   -4229.5373 
33407000    98.098871   -5196.3151   -5000.1053   -5196.3151            0    7211.8997    17.814564    22.760132    19.101375    7744.8786    7289.9695    7560.4015     6785.328    305.59588   -518.62471   -393.56148   -4185.5132 
33408000    94.019067   -5197.2532   -5009.2034   -5197.2532            0    7246.0539    17.894172    22.514092    19.231537     7747.829    7149.3767    8097.9617    6490.8233   -150.80939   -136.28696   -106.00105   -4190.4418 
33409000    97.547092   -5199.6812   -5004.5749   -5199.6812            0    6812.8075    17.892995    22.646229    19.122131    7748.4571    6261.7569    7525.8808    6650.7848   -157.42285    456.16879    506.91883   -4234.7052 
33410000    96.484668   -5186.2096   -4993.2283   -5186.2096            0    7403.9927    17.766986    22.737879    19.191843    7753.1894    7601.9717    7451.3404    7158.6659   -89.977804    638.38206   -752.68166   -4156.0417 
33411000    96.645131   -5197.2773   -5003.9751   -5197.2773            0     7808.839    17.852353    22.609977    19.132024    7722.4747    8775.9884    7883.1073    6767.4212   -20.577123   -723.99605    255.53228   -4124.5095 
33412000    97.248522   -5194.2338   -4999.7248   -5194.2338            0    6579.2816    17.826431    22.714839    19.185372    7768.6273    6515.5353    6564.8726    6657.4369   -508.44899    781.14681    -355.3089   -4254.3089 
33413000    92.649583   -5190.7728   -5005.4622   -5190.7728            0    6323.8058     17.86547    22.723287    19.145708    7772.4338    6643.2371    5756.6379    6571.5424    762.49811   -324.70542   -454.27531     -4288.64 
33414000    97.300106   -5197.4121   -5002.7999   -5197.4121            0    6609.2693    17.814886    22.733835    19.151602     7756.412    6450.4604    7209.3871    6167.9603   -635.74069    347.70889    853.73396   -4255.1639 
33415000     91.81403   -5186.3762   -5002.7368   -5186.3762            0    7085.6618    17.866186    22.543875    19.253703    7754.8731    7332.6764    7591.3051    6333.0039   -825.89531     1550.038   -867.80918   -4201.3706 
33416000    98.885667   -5182.3665   -4984.5829   -5182.3665            0    6699.4858    17.873212    22.756101    19.109068    7772.1282    6840.2293    6528.2657    6729.9624    28.973371   -269.94775   -350.21429   -4225.2061 
33417000     94.88644   -5191.3834   -5001.5988   -5191.3834            0    7003.7949    17.764667     22.75385    19.205478    7763.1336    6339.2228     7009.717    7662.4448    5.5337435    95.571202   -587.01705   -4208.6478 
33418000    98.790448   -5186.2316   -4988.6385   -5186.2316            0    7331.5135    17.820409    22.691997    19.151582    7744.5297    8102.4724    6785.4342    7106.6339   -574.76255    505.30545   -306.59843   -4160.5732 
33419000    101.39985   -5189.6011   -4986.7889   -5189.6011            0    6293.4052    17.832703    22.814959    19.114429    7776.7511    6856.5623    5521.1684    6502.4849    301.57157   -527.20602   -1527.7462   -4273.0164 
33420000    97.727142   -5196.0854   -5000.6191   -5196.0854            0    7136.0793    17.916439    22.585693    19.181688    7761.9693    6707.1363    7477.9791    7223.1226   -141.49355   -566.57899    164.82659   -4192.8123 
33421000    100.75955     -5191.98   -4990.4484     -5191.98            0    7807.4026    17.958639    22.523609    19.109388    7729.6208    7186.7736    8338.8171    7896.6169    485.14071    1271.3293    659.37856    -4110.331 
33422000    92.802764   -5196.4322   -5010.8152   -5196.4322            0    6546.8966    17.801194    22.847712     19.11579    7774.7083    7074.5297    5851.6772    6714.4829   -635.20016     -252.601    -1158.178   -4268.4878 
33423000    93.517012    -5196.728   -5009.6824    -5196.728            0    7051.3663    17.983284    22.584539    19.080899    7749.5959    6612.2179    6822.1874    7719.6936   -831.86741   -320.11158   -751.89174   -4212.7377 
33424000    95.844503   -5193.3968   -5001.6959   -5193.3968            0    7629.1246    17.773673    22.750856    19.151964    7744.4081    6961.2566     7758.195    8167.9223   -224.45259      1266.44   -915.41653   -4140.0302 
33425000    92.295212   -5185.3546   -5000.7527   -5185.3546            0    6929.2416    17.800362    22.701789    19.182217    7751.5349    7425.4981    6995.0751    6367.1517   -253.57342   -314.73621   -185.80886   -4217.4145 
33426000    93.909096   -5192.8527   -5005.0229   -5192.8527            0    6335.4079    18.012117    22.518761    19.200073    7787.7525    6925.5558    6297.4302    5783.2377    645.91777    243.52288    240.93317   -4285.4702 
33427000    99.743803   -5190.9322   -4991.4323   -5190.9322            0    5970.6712    17.828702    22.791831    19.175757    7792.0452    6087.5958    6251.1991    5573.2188   -162.60146   -16.272982    759.16846   -4312.9313 
33428000     94.50607   -5183.1618    -4994.138   -5183.1618            0    7227.2928    17.779562    22.774517    19.113233    7739.3484    7104.6723    7551.0841    7026.1221    581.14383   -363.17374    1560.8373   -4178.3902 
33429000    99.688854   -5186.5859   -4987.1958   -5186.5859            0    8091.5733    17.789233    22.615334    19.177103    7715.1295    8720.0017    7655.8143    7898.9038   -417.36626   -430.10519    102.48824   -4076.7543 
33430000    95.474337    -5186.639   -4995.6785    -5186.639            0     7524.829    17.863024    22.495116     19.31474    7761.2573    7785.5051    7587.6147    7201.3674    1304.9991   -15.339465   -40.610947   -4143.9433 
33431000    98.587929   -5198.0381     -5000.85   -5198.0381            0     7391.167    17.820195    22.858805    18.976724    7730.1375    8481.5387     6997.475    6694.4872   -102.02239   -492.83293    1143.3061   -4167.5985 
33432000    98.662313   -5195.3911   -4998.0543   -5195.3911            0    5568.2422    17.820548    22.877678    19.112163    7791.8903    6212.1447     4974.101     5518.481   -167.06604   -168.48181    52.553642   -4365.2974 
33433000    92.513211   -5191.1218    -5006.084   -5191.1218            0     7522.902     17.88191    22.556635    19.160926    7728.6691     6181.551    7768.8779    8618.2771    851.45128   -217.90357    77.851856   -4158.1422 
33434000    91.343623   -5191.6377   -5008.9392   -5191.6377            0    6954.2418    17.880519    22.734689    19.060569    7748.2743    6091.7887    6955.9277     7815.009     627.4217   -178.43551    1176.6286   -4223.1054 
33435000    101.98788   -5190.8942   -4986.9058   -5190.8942            0    7214.7027    17.801641    22.624753     19.23312    7746.2876    7365.5282    7778.2115    6500.3685     817.9643    536.58153    275.74542   -4171.8489 
33436000    98.111131   -5191.0152   -4994.7808   -5191.0152            0    7067.7697    17.867731    22.751787    19.101598    7765.2357    7322.5333    6142.7214    7738.0545    -171.0951    83.076602    -350.4578   -4194.3701 
33437000    96.422998    -5194.949   -5002.0911    -5194.949            0    7341.6125     17.84364    22.622814    19.151433    7730.9231    6779.7904    7945.3006    7299.7466    515.84145    335.67455    659.39857    -4174.342 
33438000    99.901583   -5188.6857   -4988.8702   -5188.6857            0    7658.8964    17.892708    22.582431    19.153488    7739.1745    7759.7812    7327.9207    7888.9875   -119.69047   -107.49086   -938.23551   -4124.4265 
33439000    95.106213   -5202.2626   -5012.0384   -5202.2626            0    6242.7298    17.833265    22.865133    19.074759    7777.9231    6563.5834    5683.8456    6480.7604   -589.92261   -693.70977    685.28666   -4303.9066 
33440000    98.703786   -5180.6855   -4983.2658   -5180.6855            0    5725.9785    17.909966    22.721303    19.173755     7802.525    3955.7956    6685.0599    6537.0801    275.65961   -142.25116     27.45538   -4331.6962 
33441000     93.13354   -5178.3458   -4992.0672   -5178.3458            0    7763.2406    17.855457    22.656534    19.134678    7740.7957    8081.0623    7404.6772    7803.9823    840.78904   -390.59873    303.84711   -4115.6628 
33442000    100.07156   -5193.0551   -4992.8997   -5193.0551            0     6743.919    17.860479    22.761122    19.060957    7748.7466    7088.6256    6494.0996    6649.0317    301.03312   -487.21421   -1035.2908   -4230.7861 
33443000    95.973406   -5194.4978   -5002.5391   -5194.4978            0    5767.8816     17.83652     22.69466    19.211242     7776.591    6356.7043     5843.239    5103.7016    -471.8895    149.73626    644.53914   -4348.3829 
33444000    94.005177    -5183.338    -4995.316    -5183.338            0    6151.2923    17.870544    22.619384    19.236957     7775.976    5807.6703    6833.5009    5812.7057    649.72425    231.36571   -195.62164    -4297.731 
33445000    93.378119   -5183.2133   -4996.4455   -5183.2133            0    6986.4153     17.80407    22.799817    19.102213    7754.1525    7630.4649    5999.0621    7329.7187    -86.29982   -301.32718    737.71826   -4206.3773 
33446000    96.637462    -5195.751   -5002.4641    -5195.751            0    7170.1559    17.746899     22.76665    19.160264    7741.4638     8355.302    6974.8413    6180.3245   -117.39519     -61.5711    858.98744   -4192.9442 
33447000     91.27334   -5182.8534   -5000.2955   -5182.8534            0    7114.3464    17.975261     22.57214    19.139442    7765.6391    6873.1843    7107.9654    7361.8896   -410.66218    -53.80763   -86.547324   -4194.5681 
33448000    91.547513   -5179.4428   -4996.3365   -5179.4428            0    7656.9965    17.816764    22.709743    19.093141    7725.3546    7325.2743    7877.9266    7767.7887    181.60158     27.92479   -470.69133   -4133.6505 
33449000    99.840525    -5190.707   -4991.0136    -5190.707            0    7367.3812    17.782258    22.780146    19.114675    7743.0193    7584.6919    7537.3299    6980.1218    775.88032    932.55198   -1446.8872   -4159.0595 
33450000    97.686919   -5198.8537   -5003.4678   -5198.8537            0    6058.1915    17.982889    22.478048    19.259256    7784.9808    5499.2739    6844.0171    5831.2836   -118.91323    161.75364    723.02599   -4315.6452 
33451000    98.192489   -5194.5051    -4998.108   -5194.5051            0    6135.9139    17.826552    22.760222    19.162458    7774.9043    6180.1265    6048.8401    6178.7751    18.581648    346.21316    560.94718   -4302.3628 
33452000    94.226041   -5184.4696   -4996.0059   -5184.4696            0     7344.269    17.707687    22.924043    19.039214    7728.6219    6802.6554    6872.0763    8358.0753    290.15396    252.42069   -527.74126   -4168.2038 
33453000    95.479616   -5203.2841   -5012.3131   -5203.2841            0    6313.1885    17.889512    22.597026     19.22221    7770.5739    7249.0492    6031.5264    5658.9899    267.13501   -57.880541    149.44797   -4296.8656 
33454000     92.46993    -5200.096   -5015.1448    -5200.096            0    6066.5462    17.799501    22.833795     19.13401    7776.6389    7153.9723    5421.5179    5624.1484   -1416.2137   -134.03857   -927.50709   -4327.1117 
33455000    92.489083   -5195.6661   -5010.6765   -5195.6661            0    5812.3881    17.840417    22.781918    19.149819    7783.2321    5874.5351    5174.6628    6387.9664    -175.5868   -251.13872    805.66573   -4350.9097 
33456000    96.311445   -5197.4782   -5004.8434   -5197.4782            0    7455.2864    17.879248    22.633692    19.175499    7759.8141    7312.6082    7938.6434    7114.6077   -1580.5895    255.77104    1105.3012   -4161.1366 
33457000    99.822618   -5200.5921   -5000.9346   -5200.5921            0    6643.4272     17.89183    22.609078    19.240085    7782.9567    6591.8886    6740.0224    6598.3705    854.09532    517.82308    1150.4378   -4246.8628 
33458000    99.952069    -5191.382   -4991.4655    -5191.382            0    6650.6232    17.880356    22.856475    18.984659    7758.6869    6198.5018    6019.7687     7733.599   0.23371022   -276.84345   -327.51686   -4238.9309 
33459000    98.093162    -5192.314   -4996.1156    -5192.314            0    7800.8334    17.839415    22.628988    19.151935    7731.4046    8192.0314     7952.023    7258.4457   -712.24621   -115.24175   -808.53997   -4116.5357 
33460000    100.52315   -5193.0747   -4992.0159   -5193.0747            0     6439.608    17.941759    22.619461     19.12933    7763.3114    5830.0503    6463.2533    7025.5204   -577.49902   -209.58853    195.32547    -4262.924 
33461000    94.264077   -5186.7191   -4998.1793   -5186.7191            0    6278.3373    17.818395    22.855112    19.062881    7763.1948    5945.6311    5935.7183    6953.6625    1055.8278   -482.39413    98.836609   -4287.3571 
33462000     96.08516   -5197.4584   -5005.2762   -5197.4584            0    5621.6891    17.904018    22.646788    19.228839    7796.6882    6421.2902    5597.1979    4846.5792   -241.12056    169.50751    4.9719515   -4366.0525 
33463000    93.707836   -5186.8386   -4999.4113   -5186.8386            0    6530.2998      17.8081    22.628678    19.280733    7769.6297    6516.1725    7008.7739    6065.9531     536.0665    490.86035    512.51084   -4259.4495 
33464000    95.839832   -5190.7203   -4999.0288   -5190.7203            0    7244.3926    17.747981     22.87992    19.073398    7745.1799    7445.1284    6635.1602    7652.8893    681.39428   -241.22537   -385.82714   -4180.7348 
33465000    91.891712   -5196.9926   -5013.1979   -5196.9926            0    8095.8804    17.859865    22.567635    19.198827    7738.1814    7764.9623    8686.2087    7836.4701    -1087.963    467.32179   -1148.1681   -4099.5499 
33466000    95.223309   -5190.2865   -4999.8281   -5190.2865            0    7086.4127    17.916257    22.583726    19.166571    7755.0983    6781.4057    7407.8738    7069.9586    270.89388   -65.682204   -773.56779   -4198.3537 
33467000    93.037558   -5199.9691   -5013.8825   -5199.9691            0    6253.6675     17.70671     23.04997    19.013923    7760.3259    5717.9149    6194.7289    6848.3588    396.23449    146.94348   -406.94281    -4306.115 
33468000    98.228113   -5189.6081   -4993.1397   -5189.6081            0    6680.1724    17.797999    22.664805    19.245221    7763.2948    6861.2215    6515.0725    6664.2231    306.32943   -236.28502    2549.4925   -4236.8126 
33469000    90.244552   -5187.0084   -5006.5082   -5187.0084            0    6552.0936    17.966605    22.623325    19.167712    7790.9913    5448.8558    7173.3357    7034.0892   -1654.4434    49.003027   -619.53571   -4262.0356 
33470000    95.743634   -5198.8414   -5007.3423   -5198.8414            0    7177.6399    17.758979    22.947203    18.991648    7739.4557    7299.8638     6436.299     7796.757   -106.58928   -300.38064    976.12705   -4197.1876 
33471000    91.291786   -5184.2724   -5001.6776   -5184.2724            0    7476.8641    17.977154    22.557472    19.087215    7740.2313    6875.7146    7381.5144    8173.3631     395.0845   -208.10857   -748.91806   -4157.6642 
33472000    89.520809   -5195.5426   -5016.4899   -5195.5426            0    7471.5903    17.798946    22.734596    19.157901    7752.2795    7235.4306    7732.7468    7446.5933   -151.95956    458.85007    185.06853   -4171.7591 
33473000    94.162374   -5197.0262   -5008.6898   -5197.0262            0    7394.0587     17.75082    22.688767    19.216985    7739.5294    8246.0931    7576.4019    6359.6812   -468.89238    165.27209   -1240.9723   -4174.0995 
33474000    100.45717   -5199.2252   -4998.2984   -5199.2252            0    6645.7335    17.952599    22.654889    19.058598    7751.4013    5174.1735    7329.0391     7433.988    656.54484    381.95801     126.2712   -4247.0233 
33475000    95.329427   -5196.8987   -5006.2281   -5196.8987            0    6246.2838    17.763694    22.807968    19.181296    7771.3748    6336.0454    5958.2884    6444.5177   -618.72905    186.96079   -624.96156   -4298.2897 
33476000    93.170716   -5187.6352   -5001.2823   -5187.6352            0    8247.5053    17.902541    22.623621    19.104454    7737.6916    9609.4544    7787.9328    7345.1288   -462.23979   -636.16858   -819.52244   -4070.5819 
33477000    97.675212   -5170.7784   -4975.4159   -5170.7784            0    6653.7959    17.774726    22.816099    19.148682     7765.746    6170.6217    7500.3687    6290.3975   -262.89307    104.58756    353.79562   -4221.8373 
33478000    95.012642   -5179.2332   -4989.1961   -5179.2332            0    6932.4054    17.894554    22.636271     19.16428    7762.7975    6737.8222    6797.9046    7261.4893   -1035.1244     410.1689    -1203.916   -4204.3616 
33479000    98.993223   -5190.3634   -4992.3647   -5190.3634            0    6795.7041    17.930565    22.609246    19.153011    7764.5647     7198.951    7309.9298    5878.2316   -236.59008    245.35703   -499.92779   -4222.8313 
33480000    100.88104     -5183.39   -4981.6155     -5183.39            0    7292.2491     17.78681    22.761246    19.145161    7750.9175    6681.0107    7714.7466    7480.9899    609.04398   -81.549063    446.19567   -4157.3056 
33481000    96.228988   -5185.7906   -4993.3207   -5185.7906            0    7269.1269    17.816098     22.75575    19.158935    7767.3898    7483.3107    7183.7041    7140.3658    886.14621    626.86941   -341.11701   -4169.8783 
33482000    95.730051   -5187.0337   -4995.5617   -5187.0337            0     6955.968    17.938731    22.597608    19.107022    7745.4595    5518.3506    7635.1666    7714.3868   -31.573907    80.602416    843.14213   -4209.8185 
33483000    92.519133   -5186.4958   -5001.4461   -5186.4958            0    7487.3418    17.827883    22.551036    19.245233    7737.3001      6117.74    8767.3901    7576.8953   -869.62591    270.43503   -749.63253     -4156.57 
33484000    100.09208   -5193.6193   -4993.4228   -5193.6193            0    6406.9275    17.784344    22.910461    19.101276    7782.7675    6479.7404    6819.1286    5921.9136    208.07672    523.06578    483.03089   -4266.2129 
33485000    96.290305   -5207.0654   -5014.4729   -5207.0654            0    5434.1974    17.990286       22.558    19.228301    7803.3229    4484.4702    6186.2678    5631.8543    521.74451    -167.4266    1171.9326   -4396.0424 
33486000     97.74367   -5201.1834    -5005.684   -5201.1834            0     7199.942    17.827078    22.718381    19.124271    7745.3746    6368.0878    7460.8677    7770.8706   -30.292869   -264.12669    343.68702   -4192.3905 
33487000    96.231151    -5196.815   -5004.3408    -5196.815            0    6785.0121    17.884089    22.716845     19.10415    7761.4442    5799.9301     6957.741    7597.3651   -144.92108    581.46324   -1126.7873    -4236.327 
33488000    100.40389   -5191.1001   -4990.2799   -5191.1001            0    7968.3789    17.863756    22.798902    19.014955    7744.2973    7594.9045    7682.9921      8627.24   -378.39647    352.38104    612.46987   -4090.3102 
33489000    99.657203   -5196.7025   -4997.3758   -5196.7025            0    7391.9975    17.896315    22.606153    19.168546     7754.958    6823.0296    8011.9324    7341.0305    238.09883     395.5165    -1428.796   -4161.3548 
33490000    101.55893   -5194.0687   -4990.9383   -5194.0687            0    7198.2177    17.791189    22.765584    19.112994     7741.275    6705.3648    7810.6325    7078.6559    788.78826   -63.218285    419.08822   -4178.2699 
33491000    94.950905   -5191.4084   -5001.4948   -5191.4084            0    8059.3175    17.844113    22.675947    19.089764    7724.3323    8329.9636    7967.9035    7880.0853   -876.73011    89.152499    -13.91206   -4093.6009 
33492000    98.316394   -5198.7413   -5002.0963   -5198.7413            0    6908.5201    17.793131     22.64316    19.231503    7748.2325    6932.1732    7913.2743    5880.1128   -77.463343    281.46727   -284.17678   -4221.4334 
33493000    104.18855   -5187.7678   -4979.3778   -5187.7678            0    9458.8135    17.872444    22.720235    18.956948    7697.7744     9529.575    8697.5052     10149.36   -1320.5858    131.28943   -505.66272   -3917.4922 
33494000    101.25798   -5194.1369   -4991.6084   -5194.1369            0    6145.2467    17.870399    22.533329    19.337594    7786.8545    5399.3141    6673.3454    6363.0806   -251.32549    283.29318    1298.8008    -4293.734 
33495000    100.25488   -5187.5601    -4987.038   -5187.5601            0    7116.1345    17.811256    22.877032    19.039973    7758.1927    7298.6518    6546.9603    7502.7914    1477.6387    58.845927    1474.1857   -4181.8809 
33496000    94.769506   -5190.6419   -5001.0911   -5190.6419            0    6582.4619    17.808145    22.790685    19.125941    7762.4509    7734.5677     5241.218       6771.6   -564.31704   -1046.1578   -458.16986   -4255.9078 
33497000    98.029635   -5196.5107   -5000.4393   -5196.5107            0    8204.0307    17.860478    22.614509    19.154838    7736.7527    7943.3535    8299.8591    8368.8797   -155.40475   -68.711961    210.38866   -4074.7572 
33498000    97.609961   -5183.0548   -4987.8228   -5183.0548            0    8007.8283    17.928623    22.655445    19.077148    7748.7737    7274.5164    7876.1947    8872.7739    878.11437   -146.72891    116.05769   -4082.8748 
33499000     95.14059    -5194.617   -5004.3241    -5194.617            0    6418.2997    17.771171    22.825606    19.121431    7756.3741    5697.9037    6806.7854    6750.2099    544.36817    334.84372    590.33466    -4278.294 
33500000    99.134068   -5185.3622   -4987.0818   -5185.3622            0    6688.0714    17.799556    22.796668    19.149665    7770.3704    6219.4628    7213.6311    6631.1204    -1211.257    35.241179    -147.5339   -4229.1702 
Loop time of 417.179 on 64 procs for 250000 steps with 1008 atoms

Performance: 103.553 ns/day, 0.232 hours/ns, 599.263 timesteps/s
195.7% CPU use with 32 MPI tasks x 2 OpenMP threads

MPI task timing breakdown:
Section |  min time  |  avg time  |  max time  |%varavg| %total
---------------------------------------------------------------
Pair    | 36.489     | 40.303     | 45.242     |  29.6 |  9.66
Bond    | 1.0099     | 1.2263     | 1.3796     |   7.2 |  0.29
Kspace  | 203.46     | 209.78     | 217.5      |  26.2 | 50.29
Neigh   | 0.96345    | 1.0595     | 1.1914     |   6.1 |  0.25
Comm    | 58.458     | 67.788     | 74.816     |  46.4 | 16.25
Output  | 0.44782    | 0.44816    | 0.44971    |   0.0 |  0.11
Modify  | 81.115     | 84.618     | 86.98      |  13.4 | 20.28
Other   |            | 11.95      |            |       |  2.86

Nlocal:        31.5000 ave          35 max          27 min
Histogram: 1 0 4 3 0 6 10 4 3 1
Nghost:        2953.22 ave        2966 max        2939 min
Histogram: 2 1 4 2 6 4 5 3 4 1
Neighs:        10749.2 ave       11970 max        9107 min
Histogram: 1 0 4 1 2 6 10 4 3 1

Total # of neighbors = 343974
Ave neighs/atom = 341.24405
Ave special neighs/atom = 2.0000000
Neighbor list builds = 2500
Dangerous builds = 0

unfix		3
unfix		2
unfix		1

write_data	data.final.${pid}
write_data	data.final.0
System init for write_data ...
PPPM initialization ...
  extracting TIP4P info from pair style
  using 12-bit tables for long-range coulomb (../kspace.cpp:340)
  G vector (1/distance) = 0.37895514
  grid = 24 27 32
  stencil order = 5
  estimated absolute RMS force accuracy = 0.0025169467
  estimated relative force accuracy = 7.5797104e-06
  using double precision FFTW3
  3d grid and FFT values/proc = 5355 672
Last active /omp style is kspace_style pppm/tip4p/omp
WARNING: Not all mixed pair coeffs generated from mixing. Use write_data with 'pair ij' option to store all pair coeffs. (../write_data.cpp:312)

write_restart   restart.lmp.${pid}
write_restart   restart.lmp.0
System init for write_restart ...
PPPM initialization ...
  extracting TIP4P info from pair style
  using 12-bit tables for long-range coulomb (../kspace.cpp:340)
  G vector (1/distance) = 0.37895514
  grid = 24 27 32
  stencil order = 5
  estimated absolute RMS force accuracy = 0.0025169467
  estimated relative force accuracy = 7.5797104e-06
  using double precision FFTW3
  3d grid and FFT values/proc = 5355 672
Last active /omp style is kspace_style pppm/tip4p/omp
Total wall time: 0:06:57
