#include		in.partitions
include		in.temp
variable        temperature equal 252.00
variable	tempDamp equal 100.0
include		in.pressure
variable        pressure equal 1469.0
variable        pressureDamp equal 1000.0 # This is 1 ps
include		in.seed
variable        seed equal 745823

units		real
atom_style	full
#include		in.box
read_restart	restart.lmp.${pid}
read_restart	restart.lmp.0
Reading restart file ...
  restart file = 30 Jul 2021, LAMMPS = 30 Jul 2021
  restoring atom style full from restart
  orthogonal box = (0.015197188 -0.028736030 0.17927157) to (18.192375 23.657914 22.033924)
  2 by 4 by 4 MPI processor grid
  restoring pair style lj/cut/tip4p/long/omp from restart
  restoring bond style harmonic/omp from restart
  restoring angle style harmonic/omp from restart
  864 atoms
  576 bonds
  288 angles
Finding 1-2 1-3 1-4 neighbors ...
  special bond factors lj:    0        0        0       
  special bond factors coul:  0        0        0       
     2 = max # of 1-2 neighbors
     1 = max # of 1-3 neighbors
     1 = max # of 1-4 neighbors
     2 = max # of special neighbors
  special bonds CPU = 0.002 seconds
  read_restart CPU = 0.008 seconds
include 	in.setup
variable	out_freq equal 1000
variable	out_freq2 equal 10000
variable	out_freq3 equal 1000

timestep	2.0

neigh_modify    delay 7 every 1

include		in.tip4p
# This is TIP4P/Ice

# create groups ###
group ox type 2
288 atoms in group ox
group hy type 1
576 atoms in group hy

# set charges - beside manually ###
set group ox charge -1.1794
Setting atom values ...
  288 settings made for charge
set group hy charge 0.5897
Setting atom values ...
  576 settings made for charge

# ### TIP3P Potential Parameters ###
pair_style lj/cut/tip4p/long/omp 2 1 1 1 0.1577 8.5
pair_coeff 1 1*2 0.000 0.000
pair_coeff 2 2 0.21084 3.1668
bond_style  harmonic
bond_coeff  1 450 0.9572
angle_style harmonic
angle_coeff 1 55 104.52
kspace_style pppm/tip4p/omp 1.0e-5
pair_modify tail yes

thermo          ${out_freq}
thermo          1000
thermo_style    custom step temp pe etotal epair emol press lx ly lz vol pxx pyy pzz pxy pxz pyz enthalpy

restart 	${out_freq3} restart.lmp.${pid} restart2.lmp.${pid}
restart 	1000 restart.lmp.${pid} restart2.lmp.${pid}
restart 	1000 restart.lmp.0 restart2.lmp.${pid}
restart 	1000 restart.lmp.0 restart2.lmp.0


include         in.dump
dump            myDump all atom ${out_freq2} dump.water.${pid}
dump            myDump all atom 10000 dump.water.${pid}
dump            myDump all atom 10000 dump.water.0
dump            myDump2 all dcd ${out_freq2} dump.dcd
dump            myDump2 all dcd 10000 dump.dcd
dump_modify     myDump append yes
dump_modify     myDump2 append yes


variable natoms 	equal  "count(all)"                        # NUMBER ATOMS
variable H      	equal  "enthalpy/v_natoms"                 # ENTHALPY-per-atom
variable Vol      	equal  "vol/v_natoms"                 # volume-per-atom
fix AVG all 		ave/time ${out_freq} 1 ${out_freq} v_Vol v_H file vol_enthalpy.dat
fix AVG all 		ave/time 1000 1 ${out_freq} v_Vol v_H file vol_enthalpy.dat
fix AVG all 		ave/time 1000 1 1000 v_Vol v_H file vol_enthalpy.dat


timer           timeout 23:50:00 every 1000
New timer settings: style=normal  mode=nosync  timeout=23:50:00

fix 		1 all shake 1e-6 200 0 b 1 a 1
       0 = # of size 2 clusters
       0 = # of size 3 clusters
       0 = # of size 4 clusters
     288 = # of frozen angles
  find clusters CPU = 0.000 seconds
fix             2 all nph aniso ${pressure} ${pressure} ${pressureDamp}
fix             2 all nph aniso 1469 ${pressure} ${pressureDamp}
fix             2 all nph aniso 1469 1469 ${pressureDamp}
fix             2 all nph aniso 1469 1469 1000
fix             3 all temp/csvr ${temperature} ${temperature} ${tempDamp} ${seed}
fix             3 all temp/csvr 252 ${temperature} ${tempDamp} ${seed}
fix             3 all temp/csvr 252 252 ${tempDamp} ${seed}
fix             3 all temp/csvr 252 252 100 ${seed}
fix             3 all temp/csvr 252 252 100 745823


run             250000
PPPM initialization ...
  extracting TIP4P info from pair style
  using 12-bit tables for long-range coulomb (../kspace.cpp:340)
  G vector (1/distance) = 0.37146043
  grid = 24 27 25
  stencil order = 5
  estimated absolute RMS force accuracy = 0.0031770779
  estimated relative force accuracy = 9.5676756e-06
  using double precision FFTW3
  3d grid and FFT values/proc = 4410 672
Last active /omp style is kspace_style pppm/tip4p/omp
Neighbor list info ...
  update every 1 steps, delay 7 steps, check yes
  max neighbors/atom: 2000, page size: 100000
  master list distance cutoff = 10.8154
  ghost atom cutoff = 10.8154
  binsize = 5.4077, bins = 4 5 5
  1 neighbor lists, perpetual/occasional/extra = 1 0 0
  (1) pair lj/cut/tip4p/long/omp, perpetual
      attributes: half, newton on, omp
      pair build: half/bin/newton/omp
      stencil: half/bin/3d
      bin: standard
Per MPI rank memory allocation (min/avg/max) = 10.19 | 10.21 | 10.23 Mbytes
Step Temp PotEng TotEng E_pair E_mol Press Lx Ly Lz Volume Pxx Pyy Pzz Pxy Pxz Pyz Enthalpy 
 3500000    267.46103   -4234.0095   -3775.5904   -4234.0095            0    769.32259    18.177178     23.68665    21.854653    9409.6617    226.46988    769.98088     1311.517   -263.32915    357.61879    213.43076   -3670.0161 
 3501000    260.96975   -4264.4831   -3817.1899   -4264.4831            0    1256.1318    18.034951    23.242107    22.349984    9368.4489    3162.7413    1133.2331   -527.57895   -1155.5621   -213.34337    413.16072   -3645.5656 
 3502000    254.35507   -4249.0847   -3813.1288   -4249.0847            0    1927.6848    18.088569    23.369736    22.177205    9374.8609    1951.2253    2544.1688    1287.6602   -475.10021    346.01604   -669.77447   -3549.5705 
 3503000    261.37769   -4272.5478   -3824.5554   -4272.5478            0    424.91764    18.286202    23.786147      21.7608    9465.0403   -1899.8676    631.25315    2543.3673    214.58224   -885.65241    -791.4987   -3765.9006 
 3504000    244.03056   -4278.3843   -3860.1242   -4278.3843            0    636.98911    17.982098    23.498972    22.274644    9412.3918   -616.05983    911.60783    1615.4193    1282.3472   -217.40914    498.87554   -3772.6847 
 3505000    255.53352   -4245.7334   -3807.7577   -4245.7334            0    693.06482    18.193875    23.585963    22.053631    9463.6555    1500.9164    561.21034    17.067731    490.74101    341.47598    420.25733   -3712.1025 
 3506000    260.73665   -4245.0518   -3798.1582   -4245.0518            0    1181.4135    18.303795    23.647423    21.770529    9423.1034   -133.71659   -131.39286    3809.3501    799.73162   -1319.2862    22.333231   -3635.8009 
 3507000    259.03764   -4259.1991   -3815.2175   -4259.1991            0    2256.9542    17.902984    23.400854     22.27626    9332.5304     2368.968    1701.2024     2700.692   -388.01563   -1000.5467   -60.252012   -3508.0339 
 3508000    261.92867   -4254.1757   -3805.2389   -4254.1757            0    532.18038     18.08352    23.699162    21.998953    9427.9652    759.74058   -139.40976    976.21031   -589.98394    841.53979    119.15269   -3732.0656 
 3509000    260.31535   -4239.7901   -3793.6185   -4239.7901            0    1839.4003    18.055527    23.547865    22.067535    9382.4343    2214.6073    1425.9374    1877.6562    386.40562    324.20813    116.98801   -3541.9275 
 3510000    255.63768   -4250.2487   -3812.0945   -4250.2487            0    1128.7368    18.076886     23.31476    22.353363    9421.0097    833.03642    1526.5041    1026.6699   -264.84635    631.51277    665.04129   -3657.0108 
 3511000    252.45301   -4247.8434   -3815.1476   -4247.8434            0     2487.278    18.201682    23.306614    21.911539    9295.3036    2426.1888    1597.7345    3437.9108    465.85649    69.713095   -482.91217   -3477.9661 
 3512000    255.42291   -4213.0715   -3775.2854   -4213.0715            0    1699.8396    18.360302    23.403027    21.984461    9446.4291    613.04445    1395.2576    3091.2168    1036.5634   -689.06438   -758.28941   -3541.1045 
 3513000    257.82368   -4235.9753   -3794.0744   -4235.9753            0    2015.3797    17.953867    23.433423    22.141219    9315.2664    2396.8989    1659.5519    1989.6882    135.61826   -102.83919    -10.40776   -3520.2778 
 3514000    238.50334   -4250.9769   -3842.1904   -4250.9769            0    -11.89639    18.041998    23.789502    22.036168    9458.1469     597.2659   -1863.1825    1230.2275   -48.400528   -508.24433   -541.54187   -3843.8313 
 3515000    238.60644   -4226.3259   -3817.3626   -4226.3259            0    1547.5633     17.92683    23.485315     22.28016    9380.3317    1737.1582    1990.7367     914.7951    575.98637   -297.56111    954.67312   -3605.6521 
 3516000    252.16848    -4245.702   -3813.4938    -4245.702            0    935.53634    18.249315    23.367444    22.048333    9402.2878    814.46728    2013.0783   -20.936575    223.88663    621.28073    101.20955   -3685.2105 
 3517000     249.9927   -4244.2016   -3815.7227   -4244.2016            0    1681.1572    18.218909    23.402115    21.977847    9370.4967    872.32803    2757.6843    1413.4591   -180.24596    370.64998    91.244405   -3585.9773 
 3518000    253.32017   -4282.6171    -3848.435   -4282.6171            0    2034.0689    18.008854    23.295513     22.17379    9302.4704    1657.4327    2610.0454    1834.7287    -421.7418    595.11493    350.50331    -3572.479 
 3519000    253.11243   -4248.3419   -3814.5158   -4248.3419            0    1683.4292    18.023176    23.718843    21.789882    9314.9324    2021.5067    1603.0836    1425.6974   -451.60688   -56.455242    139.88582   -3585.8241 
 3520000    247.48022    -4258.681   -3834.5084    -4258.681            0    2398.2505    17.957636    23.441645    22.130723    9316.0725      2471.59    2993.7571    1729.4043    704.58483   -583.14072    104.02926   -3508.6692 
 3521000    253.45136   -4278.2943   -3843.8873   -4278.2943            0    1893.6489    17.903211    23.641341    22.113518    9359.6772    1443.9794    2430.6537    1806.3136    797.56231    226.74212    398.25249   -3585.4018 
 3522000    256.22488   -4241.5519   -3802.3912   -4241.5519            0    189.82014    18.119759    23.877271    21.887885    9469.8019   -350.57994   -656.01884    1576.0592   -378.77205    -170.7137    595.20419   -3776.1757 
 3523000    240.19968   -4258.7052   -3847.0112   -4258.7052            0    723.59497    18.294065    23.438828    21.968501    9419.9049    286.67962    67.488636    1816.6166     -287.356    -645.6934   -262.06497   -3747.6039 
 3524000    253.31797   -4205.0843    -3770.906   -4205.0843            0    1695.6324    18.141094    23.285819    22.247981    9398.2193    1955.3473    2647.2825    484.26748    63.004421   -16.660307    226.89245   -3538.4968 
 3525000    261.52774   -4259.7675   -3811.5179   -4259.7675            0    34.120024    18.161767    23.644379    21.922917      9414.22   -2347.3922     796.2502     1653.502    292.58728    977.61864   -172.44966   -3806.8333 
 3526000    261.02878   -4232.1421   -3784.7477   -4232.1421            0    1397.0672    17.984862    23.795424    22.006272    9417.7474    590.76898    1358.3626    2242.0701   -921.00598   -285.37601    414.13555    -3592.863 
 3527000     247.8775    -4216.439   -3791.5854    -4216.439            0    1386.7338    17.938448    23.540177    22.204144     9376.238    1652.8949    2474.5493    32.757106    1292.5233   -261.72791    534.77359   -3601.9595 
 3528000    249.06808   -4261.3556   -3834.4614   -4261.3556            0    1110.1589    18.165408    23.532423    21.869472     9348.676    846.37679    1020.6278    1463.4722    733.67802    704.05019    1012.2207   -3683.1014 
 3529000    232.94278   -4253.3445   -3854.0886   -4253.3445            0    1334.6137    18.160321    23.256265    22.067781    9320.1338    411.76797    934.07033    2658.0029    227.21065    406.07456    24.218446   -3672.6818 
 3530000    256.11859   -4235.9916   -3797.0131   -4235.9916            0    1824.1601    18.307295    23.020578    22.148513    9334.3693    2147.1054    3061.4385    263.93646   -758.02665   -532.31528    41.313345   -3548.6862 
 3531000    258.13536   -4216.8846   -3774.4494   -4216.8846            0    490.33558    18.291157    23.437273    22.067815    9460.3587   -38.019713    1470.5348    38.491628   -452.32957    275.79938   -630.46821    -3706.798 
 3532000    246.20162   -4221.0572    -3799.076   -4221.0572            0     1759.678    17.987147    23.566572    22.097728    9367.1252    1606.9849    2793.7051    878.34394    331.38583     672.0473   -331.10378   -3558.6866 
 3533000    255.68906   -4250.7604   -3812.5181   -4250.7604            0    1455.7293     17.88095    23.614581    22.156693    9355.6892    2146.1534    249.79212    1971.2425   -596.56514   -1052.5418   -401.63202   -3613.8938 
 3534000    241.15886   -4254.2983   -3840.9602   -4254.2983            0    1634.5986     17.91496    23.714162    22.019064    9354.5409    2942.4047    1714.2087    247.18253    51.786246   -521.87192    427.82117   -3617.9579 
 3535000    247.99673   -4283.5132   -3858.4553   -4283.5132            0    2366.9235    18.057976    23.298329    22.113453    9303.5869    2243.3063     2949.651    1907.8133    554.67199    274.60087    344.69114   -3537.3033 
 3536000    241.54837   -4253.2816   -3839.2759   -4253.2816            0    141.02431    18.410545     23.33594    21.948375    9429.6225   -1218.9415     1576.589    65.425504    -46.26691   -305.01299   -188.19681   -3819.8821 
 3537000    249.16733   -4236.3334   -3809.2691   -4236.3334            0    3155.3501    18.042631    23.275849    22.072778    9269.6295     3015.519    2895.6599    3554.8714   -455.80532   -571.27771   -663.34642   -3382.7035 
 3538000    254.42919   -4251.1353   -3815.0524   -4251.1353            0    211.29097    18.015329    23.627091    22.114594    9413.0726    738.27767   -779.71329    675.30852    1221.4375    864.63085    403.31595   -3786.0464 
 3539000    256.63633   -4253.6193   -3813.7534   -4253.6193            0     750.1744    17.988221     23.73947    21.978515    9385.5039     1151.955   -399.35099    1497.9192   -160.20155   -34.508886   -196.22502   -3711.0711 
 3540000    237.18912   -4230.6321    -3824.098   -4230.6321            0     2067.231    17.995448    23.397091    22.063759    9289.7505    1248.8253    2501.1417    2451.7258    320.81781    485.80817   -142.14826   -3544.0265 
 3541000    249.63371   -4253.7292   -3825.8656   -4253.7292            0   -725.88632     18.25645    23.327772    22.169897    9441.7669   -1206.7989    58.886387   -1029.7464   -118.13256    581.86766   -145.54263    -3925.819 
 3542000    250.13065   -4260.1762   -3831.4608   -4260.1762            0    1577.6395    18.240882    23.463812    21.861911    9356.9112    1012.5284    1905.6625    1814.7277   -424.22881    571.70942   -178.63941   -3616.1746 
 3543000     258.0284   -4243.4655   -3801.2137   -4243.4655            0    2386.2329    18.179023    23.264919    22.087296    9341.4573    224.94882    4455.2887    2478.4611   -520.78999   -397.87452    90.982598   -3476.1239 
 3544000    256.78007    -4256.007   -3815.8947    -4256.007            0    1777.6814    17.920707    23.551258    22.244211    9388.2845    3378.5081    1478.5931    475.94308    -1483.287   -589.55097    321.69011   -3572.4972 
 3545000    242.45904   -4281.8619   -3866.2954   -4281.8619            0    1093.1559    17.966648    23.620407    22.047491    9356.5042    2711.3554    108.32506    459.78736    -694.8563   -251.16828    -7.351411   -3717.1288 
 3546000     253.7732   -4235.0585   -3800.0999   -4235.0585            0    638.82016    17.976848    23.900739    21.946475    9429.5217    1067.0692   -738.40792    1587.7992    162.51954    94.618957    271.22075   -3712.2495 
 3547000    241.38897   -4249.9565   -3836.2241   -4249.9565            0    1114.6511    18.058263    23.415619    22.125232    9355.5529    1667.7825    2100.1096   -423.93865    339.22962   -462.14473    1134.1675   -3684.1398 
 3548000    250.09873    -4244.278   -3815.6174    -4244.278            0    2220.5803    18.315358    23.016092    22.001487    9274.6821     809.0386    308.42799    5544.2744   -104.97676   -152.95077   -650.28756   -3515.2578 
 3549000    250.83394   -4229.4366   -3799.5158   -4229.4366            0    2508.1726    18.082457    23.306492    22.058848    9296.4507     3934.395    745.38205    2844.7406   -435.80152   -95.512393    184.51935   -3459.4598 
 3550000    245.04169   -4242.5242   -3822.5311   -4242.5242            0   -248.55225     17.97238    23.541713    22.321923    9444.4193    870.52822   -324.59438   -1291.5906   -1377.0647    255.94165    133.20821    -3856.766 
 3551000    260.65603   -4234.4165    -3787.661   -4234.4165            0    399.48911    18.027216    23.654721    22.062581    9408.1192    499.25008   -318.00754    1017.2248    99.290861     203.1117   -310.58992    -3732.848 
 3552000    259.87705   -4271.8796   -3826.4593   -4271.8796            0    2106.4698    17.949486    23.689002    21.953344     9334.681    3201.6853    2141.1277    976.59638    471.71134    21.351426    1013.6984   -3539.6913 
 3553000    252.27673   -4272.7947    -3840.401   -4272.7947            0    1115.0679    18.116911    23.529739    22.109076    9424.7935    1889.8572    16.415389    1438.9311   -2261.5859    -749.5309    345.90376   -3687.1339 
 3554000    257.48818    -4242.763   -3801.4371    -4242.763            0    1071.3319    18.324754    23.198238    22.073359    9383.4292   -165.24891    2729.5688    649.67563   -270.66047    155.99546    9.1708489   -3654.8278 
 3555000    255.55876   -4255.0854   -3817.0664   -4255.0854            0    1126.8082    18.073109    23.407676    22.249668    9412.7103    1713.0451    369.55144    1297.8281    747.59121   -515.27977    739.63585   -3662.3841 
 3556000    254.45281   -4221.6697   -3785.5463   -4221.6697            0    2041.0882    18.039451    23.567166    22.079705     9386.938    1761.4716    1060.2161     3301.577    1208.1479   -1696.5375    549.83795   -3506.1237 
 3557000      258.894    -4266.508   -3822.7726    -4266.508            0    3090.2437    18.059762    23.588911    21.843792    9305.6759    3254.2111     2115.984     3900.536    881.83544   -548.47067    -896.3595    -3403.384 
 3558000    254.79439   -4248.0828   -3811.3739   -4248.0828            0    114.04895     18.02783    23.484224     22.40512    9485.6462    217.72713    -647.1356    771.55532    1801.6151    859.86799   -714.45882   -3795.5966 
 3559000    250.26035    -4240.625   -3811.6873    -4240.625            0    1997.7516    18.107606    23.364353    22.087576    9344.6458    1290.0623     3630.671    1072.5213   -1554.1098   -622.08131    278.86624   -3539.4296 
 3560000     239.0536   -4258.5589   -3848.8292   -4258.5589            0    2282.6316    18.341923    23.320402    21.663275    9266.2715    450.81363    1760.2192    4636.8619   -944.64818   -198.56638   -3.6122455   -3540.3565 
 3561000    242.14309   -4234.4302   -3819.4052   -4234.4302            0    1158.8023    18.103997    23.379608    22.166583    9382.3244    1700.9157     733.7796    1041.7117    490.10765   -28.845422    293.84577   -3660.8445 
 3562000    257.45358   -4239.5404   -3798.2738   -4239.5404            0   -135.98781     17.94287    23.480458    22.349684    9416.0742    492.61441      -1051.7     151.1222     325.2243   -451.47982   -171.24731   -3816.9481 
 3563000    260.14229   -4228.8651   -3782.9902   -4228.8651            0     829.9235     18.01661    23.866802    21.886691    9411.2524    1648.7453    700.00174    141.02349    -784.5911   -497.15381    1195.4839   -3669.0803 
 3564000    262.89646   -4264.9582   -3814.3627   -4264.9582            0    1630.5037    17.897963    23.460883    22.208619     9325.444    535.02403    2083.7473    2272.7397   -17.610199   -60.328429   -48.010191   -3592.6109 
 3565000    246.78585   -4269.3379   -3846.3554   -4269.3379            0    194.24154    18.095766    23.498169    22.157005    9421.5434   -254.17172    327.06556    509.83077   -405.45649    360.07528   -2.8909492   -3819.6659 
 3566000    262.73213   -4237.0494   -3786.7355   -4237.0494            0    1565.3252    18.340787    23.525152    21.696778    9361.5041   -192.34006     2559.549    2328.7668    12.882207    594.65931   -346.28477   -3573.0249 
 3567000    244.30376   -4279.1558   -3860.4275   -4279.1558            0    1630.6308    18.090034    23.275523    22.229313    9359.7633    973.29604     2396.018    1522.5783    670.92864    58.321158     575.7893   -3637.8422 
 3568000    248.50782    -4247.132   -3821.1981    -4247.132            0    1991.7203    18.023715    23.518216    21.986756      9319.87     1885.725     1583.508     2505.928   -1407.9484   -1079.6546    118.50461    -3550.482 
 3569000     244.1278   -4278.4802   -3860.0535   -4278.4802            0    315.34153    18.019092    23.625467    21.979253    9356.7756    169.65121   -1172.9522    1949.3255   -480.85499    631.66053    -718.9459   -3817.0224 
 3570000    245.95152   -4236.7205    -3815.168   -4236.7205            0    898.22085    17.820224    23.527087    22.436112    9406.5187    1954.3349    1884.1489   -1143.8212   -43.951143    570.85044   -252.90619    -3691.946 
 3571000    255.36197   -4260.8367    -3823.155   -4260.8367            0    1085.0669    18.104386    23.547765    22.007076    9382.0086    1683.3262   -1266.0423    2837.9167   -631.65611     788.7723   -499.41645   -3674.6886 
 3572000    269.48724   -4215.0965   -3753.2046   -4215.0965            0    3004.4555    18.125514    23.332877    21.916681    9269.0116    2988.6194     2425.889    3598.8582     458.4786   -659.47882   -298.72985   -3347.0652 
 3573000    239.75119   -4267.1922   -3856.2669   -4267.1922            0    791.42472    18.167652    23.454984    22.163733    9444.4535    1593.8844    178.00976    602.37997   -805.01616    209.05882    495.03897   -3747.2579 
 3574000    243.10285   -4244.7779   -3828.1079   -4244.7779            0    2118.3896    18.103686    23.564613    21.948981    9363.5751    2408.0753    1872.2862    2074.8074    380.17574   -58.448885    149.20159   -3538.8246 
 3575000    251.52928   -4248.7649   -3817.6523   -4248.7649            0    1926.0722    17.721355    23.773728    22.210636    9357.4007    2020.6601    1704.2885    2053.2679     302.8545   -72.323791   -206.69619   -3554.8049 
 3576000    245.77621   -4241.7154   -3820.4633   -4241.7154            0      2756.94    18.059699    23.567529    21.992749     9360.608     2214.379    3533.5902    2522.8509     100.6019   -673.55775   -595.01912      -3444.1 
 3577000    248.93137   -4267.9895   -3841.3297   -4267.9895            0    2387.1745    18.221293    23.246891    22.036773    9334.5216    1975.2228    2274.7935    2911.5073    100.19898    328.81566    719.89103    -3516.353 
 3578000     259.4727   -4219.5124   -3774.7851   -4219.5124            0    1132.1562    18.304782    23.215256    22.171282    9421.6907    1947.2329    674.11071    775.12495    429.60523    203.79206    451.52542   -3619.2203 
 3579000    257.53304   -4266.5496   -3825.1468   -4266.5496            0    1786.7149    18.153609    23.429785    21.961184    9340.8634    992.82488    1026.5783    3340.7415    103.60463   -1077.0867    344.96097   -3581.7481 
 3580000     264.9213   -4235.2263   -3781.1602   -4235.2263            0    513.42156    17.876955    23.622009    22.262167    9401.0815    162.06121    745.49442    632.70905   -317.70654     451.1204     1145.081   -3710.7675 
 3581000    249.08129   -4246.6996   -3819.7828   -4246.6996            0    1670.5416    17.975109    23.615902    22.070327    9368.8188    2667.1285    365.46064    1979.0356    721.62082   -328.72018   -150.31634    -3591.529 
 3582000    245.67966   -4266.3188   -3845.2322   -4266.3188            0    1189.1717    18.106053    23.440324    22.013266    9342.6889    865.25619    1638.9028    1063.3561    74.624068   -18.514214   -41.653982   -3683.2034 
 3583000    241.72592   -4252.5106   -3838.2007   -4252.5106            0    2170.9163    18.173909    23.099911     22.06696    9264.0559    1287.6796    2449.4989    2775.5703   -245.88752    -314.5911    268.99446   -3544.8952 
 3584000    260.97399   -4219.7786   -3772.4781   -4219.7786            0    2171.1212    18.083498    23.447592    22.050741    9349.8336    -23.84874    2952.2078    3585.0046    511.71975    449.54823    542.42061   -3476.4289 
 3585000    244.95787   -4241.5886   -3821.7392   -4241.5886            0    1374.9769    18.133599    23.612568    21.996721    9418.5739    2207.2767   -576.97338    2494.6274   -1184.8864   -637.76621    303.74301    -3632.872 
 3586000    246.82157   -4240.5654   -3817.5216   -4240.5654            0    1021.3458    17.833636    23.555879    22.291889     9364.532    281.54119    907.43057    1875.0656    314.30487     651.1204    60.406244   -3678.0343 
 3587000    246.96924   -4259.4167   -3836.1199   -4259.4167            0    623.24149    17.926327    23.761084    22.069602    9400.5239    1532.1508    379.60707   -42.033397    236.08888    27.859126    588.82114   -3750.6753 
 3588000    251.63099   -4219.9979    -3788.711   -4219.9979            0    1194.1524    18.143964    23.545501    21.947719    9376.2572    1654.0878    884.55633     1043.813   -285.15049    334.25924    30.011284   -3625.4189 
 3589000    241.20107   -4263.8501   -3850.4397   -4263.8501            0    2283.9057    18.109164    23.188936    22.128929    9292.6514    1444.9643    2294.9756    3111.7772   -245.16631    49.183509    302.56658   -3540.9161 
 3590000    256.14715   -4261.3013   -3822.2738   -4261.3013            0    642.92691    18.255296    23.346754    22.096456    9417.5518    404.66426     1633.054   -108.93752   -1140.6969    393.72704    68.745349   -3733.9708 
 3591000    249.97923   -4277.3415   -3848.8856   -4277.3415            0    1754.8193    18.064431    23.655858    21.839293    9332.5764    1121.2671    758.13476     3385.056      1197.87    360.23348    113.84532   -3610.0441 
 3592000     260.1539   -4246.9034   -3801.0086   -4246.9034            0     1280.321    17.865555    23.606116    22.201529    9363.1921    1553.2686    63.828646    2223.8656   -307.92616   -163.26239   -528.17385   -3626.1775 
 3593000    239.37787     -4253.95   -3843.6645     -4253.95            0    3401.2134    17.960102    23.408725     22.02734    9260.8023    3636.2465    2347.3169     4220.077   -434.36686   -7.1849967    563.32707    -3384.299 
 3594000    246.16081   -4251.5203   -3829.6091   -4251.5203            0    2179.7034    18.231242    23.324428    22.002446    9356.1724    2536.5459    2769.3976    1233.1668   -1312.1396   -616.54639    391.50095   -3532.1882 
 3595000    229.05325   -4229.3923   -3836.8029   -4229.3923            0    880.95902    18.164627    23.028094    22.533442    9425.6652    743.89427    1176.6753    722.30753   -83.513816   -1010.2813    307.09709    -3715.703 
 3596000     258.4112   -4240.6631   -3797.7551   -4240.6631            0    2067.0853    18.032246    23.541642    22.065437    9366.9695    3608.6059    2263.1794    329.47044   -139.82689    415.12267    449.88028   -3515.3755 
 3597000    260.71439   -4257.2615   -3810.4059   -4257.2615            0    871.68708    17.975982    23.643815    21.961589     9334.132    1401.4612    2580.6756   -1367.0755   -548.31008   -566.28134    101.09862   -3691.7443 
 3598000    245.59897   -4272.1007   -3851.1525   -4272.1007            0    1206.1984    18.029976    23.440231    22.160891     9365.786    424.44924     1965.816      1228.33   -557.98604   -524.80963   -1051.9539   -3686.3974 
 3599000    258.93191   -4254.5853   -3810.7848   -4254.5853            0    1824.7432    18.008101    23.422168     22.12506    9332.1017    1736.6259    1808.0081    1929.5956    832.01398    478.68604    33.529391   -3562.4389 
 3600000    247.26947   -4262.2522   -3838.4408   -4262.2522            0     1332.858    17.952151    23.653009     21.96657    9327.4978    2276.5148    863.95471    858.10439    350.05517    48.510863   -126.71562   -3657.1295 
 3601000    254.42098   -4291.8161   -3855.7472   -4291.8161            0    1194.9524    18.235315    23.341553    21.994079    9361.5726    383.74747    1682.0915    1519.0182   -807.87915    31.861395   -79.838104   -3692.6016 
 3602000    249.57355   -4233.7965    -3806.036   -4233.7965            0    2548.7798    18.124663    23.236749    22.103523    9309.0812    3932.5703    3064.4546    649.31445    535.92671   -448.15633     339.2435    -3460.005 
 3603000    252.34463    -4238.441    -3805.931    -4238.441            0   -409.16873    18.300286    23.381239    22.120962    9465.1915   -638.69805   -818.51957    229.71145   -798.42379    161.33479     30.39301   -3862.4127 
 3604000    246.07487   -4242.2392   -3820.4753   -4242.2392            0     728.2602    18.008716    23.763508    22.008726    9418.6401    1539.1948    93.152511    552.43329   -255.71259    325.81395    507.22128   -3720.4406 
 3605000    263.07372   -4242.4985   -3791.5992   -4242.4985            0     50.46742    17.853847    23.483557    22.395065    9389.6196    114.81868    213.52971   -176.94612    1027.5031    122.43564    112.65371   -3784.6883 
 3606000    245.85708   -4268.5724   -3847.1818   -4268.5724            0     2380.114    18.152974    23.305011    21.970254    9294.6319    420.94862    3327.2995    3392.0938    206.54545   -571.24681   -525.55825    -3524.551 
 3607000    245.10469    -4265.825    -3845.724    -4265.825            0    1525.7603    18.270388    23.370722    21.923804    9361.2927    462.19092    3663.2617    451.82836   -98.893413   -507.86129    569.86452   -3637.4198 
 3608000    260.84113    -4262.708   -3815.6353    -4262.708            0    1547.3741    17.955263    23.380438    22.229032    9331.7898    4920.1878    1423.3245   -1701.3899   -752.76092   -207.57405   -71.278069    -3605.046 
 3609000    250.88777   -4263.9331   -3833.9201   -4263.9331            0    208.11142    17.997123    23.750258    22.029561    9416.2341    1091.8521    601.33397   -1068.8518    -357.9974    406.91037   -339.43259    -3805.341 
 3610000    246.34554   -4250.9912   -3828.7633   -4250.9912            0    1019.3044    17.868438    23.955017     21.95408    9397.1961    605.64809    1071.7462     1380.519    37.836926    175.88287   -331.84477   -3689.0692 
 3611000    248.84485   -4231.3131   -3804.8015   -4231.3131            0    2697.4553    17.851958    23.480805    22.224769    9316.1419    3123.6859    1412.9729    3555.7072    270.88143    910.18812    179.41582    -3438.308 
 3612000    261.89106   -4274.2981   -3825.4258   -4274.2981            0    889.07675    18.327977    23.424744    21.876996    9392.4104    245.83755    803.68485    1617.7078    637.61701   -238.49716    379.27332   -3703.6412 
 3613000    247.97685   -4253.0149    -3827.991   -4253.0149            0    1855.9614    18.136784    23.281879    22.067586    9318.2238    1922.9922    1886.6215    1758.2706    922.38324    -421.8141    633.55144   -3575.7719 
 3614000     257.3887   -4216.4635   -3775.3081   -4216.4635            0    1717.4268    18.082834    23.536111    21.984029    9356.3936    635.45501    2450.5151    2066.3104   -561.66336   -124.42612   -35.872615   -3540.9593 
 3615000    269.14706    -4253.395   -3792.0861    -4253.395            0    701.78707    17.936199    23.691261    22.043263    9366.8694    1524.1357    944.91665   -363.69118   -984.92699     210.5149    130.18734   -3696.2177 
 3616000    242.94859   -4257.6244   -3841.2188   -4257.6244            0    365.59702    17.873248    23.679991     22.29887    9437.7375    1685.9943    207.14916    -796.3524   -80.319177   -1141.0428     603.2743   -3790.8981 
 3617000    240.08402   -4269.8648    -3858.369   -4269.8648            0    1087.8949    18.094946    23.428695    22.087766    9363.9089    758.83325    632.28508    1872.5664    707.08515   -469.00939    477.49287   -3709.8028 
 3618000    248.64528    -4266.777   -3840.6075    -4266.777            0    940.66939    18.317091    23.344336    21.930454    9377.4696   -628.80098    424.71462    3026.0945   -91.014785    -19.64747   -41.910836   -3711.9608 
 3619000    267.03638   -4269.0516   -3811.3604   -4269.0516            0    1291.3478    17.974225    23.331703    22.307649    9355.1431    2415.3425    1911.1214   -452.42052    333.59919    260.27419     387.5448   -3635.1751 
 3620000     245.0677   -4246.5323   -3826.4947   -4246.5323            0    2813.3312    17.879853    23.707115    21.959762    9308.2982    2806.6294    2323.4886    3309.8756    587.36204   -250.34958    261.24258   -3444.5794 
 3621000    237.61227   -4243.0232   -3835.7639   -4243.0232            0    1052.8721    17.960637    23.615914    22.012469      9336.74     2132.379   -23.098231    1049.3354    276.93856    725.51448   -192.37274   -3692.3977 
 3622000    267.23441   -4252.2671   -3794.2365   -4252.2671            0     1051.447    18.078846    23.418528    22.138948    9373.1874    743.81684    1439.2752    971.24904   -41.329372   -306.86128   -500.81327   -3650.5055 
 3623000    243.42887   -4270.4736   -3853.2448   -4270.4736            0     1054.064    18.199694    23.271226    22.092014    9356.6126    206.56357    1705.3938    1250.2346   -709.39624   -677.19871   -194.25927   -3709.4109 
 3624000    259.67422    -4248.706   -3803.6332    -4248.706            0    2124.7116    18.276373    23.264117    21.934292     9326.103    1168.2563     2012.717    3193.1616    1165.8893    383.29844   -482.07619   -3514.6477 
 3625000    262.56636   -4234.4332   -3784.4034   -4234.4332            0   -1.5606997    18.037971    23.582319    22.173627    9432.1553    511.97078   -518.67616    2.0232735   -51.706605     303.1413   -275.48431   -3784.6181 
 3626000     262.2371   -4268.2938   -3818.8284   -4268.2938            0    1548.2146     17.82705    23.756896    22.093517    9356.9444    1619.9091    459.80665    2564.9282    37.696124   -183.51407   -253.10253   -3607.5568 
 3627000    251.25319   -4241.6034   -3810.9641   -4241.6034            0    3169.2042    17.881662    23.681067    21.909435    9277.7001     3864.881    2275.5296     3367.202   -604.43706    907.13944   -153.07133   -3382.1525 
 3628000      252.325   -4256.3028   -3823.8264   -4256.3028            0    1858.5922    18.164896    23.445708    22.119499    9420.4481    1089.9671    2332.6165    2153.1931    436.20249    415.11923   -101.40151   -3568.4789 
 3629000    262.01259   -4238.3405   -3789.2599   -4238.3405            0     2182.461    18.005327    23.040938    22.362212    9277.1788    3810.8661    2308.3672    428.14972    302.87132   -1006.3164   -407.56839    -3493.977 
 3630000    238.01736   -4252.8297   -3844.8761   -4252.8297            0    704.92041    18.147641     23.49953    22.040183    9399.2794    81.161086    1279.6401    753.96001   -457.08634    3.2659583    332.80138   -3748.2464 
 3631000    244.06199   -4271.4294   -3853.1155   -4271.4294            0    1955.5326     18.01494    23.310577    22.202997    9323.8962    3815.7473    287.41249    1763.4379    22.370664    900.39563   -641.49557   -3587.2033 
 3632000    245.99199   -4210.2693   -3788.6474   -4210.2693            0    1185.9864    18.012179    23.638694    22.033329    9381.4475    1901.7885    168.63525    1487.5355    73.169861   -835.38056   -99.592179   -3626.3822 
 3633000    233.42103   -4235.7721   -3835.6965   -4235.7721            0    395.17401    18.052277    23.810522    22.008935    9460.1921    845.37981   -298.96762    639.10985    289.74082   -133.24169    430.71573   -3781.1754 
 3634000    244.40445   -4270.6979   -3851.7971   -4270.6979            0    2253.3569    18.022316    23.287232    22.286796    9353.5421    2482.1956    2652.6624    1625.2128    417.57021   -95.489114    547.18515   -3544.4126 
 3635000    245.67143   -4284.7825     -3863.71   -4284.7825            0    251.94661    18.247427    23.366641      22.0849    9416.5838     364.9885   -1017.3627     1408.214    774.36371   -487.76757    104.80165   -3829.1099 
 3636000    253.21432   -4252.9679   -3818.9673   -4252.9679            0    363.79092    18.208461    23.590552    21.920099    9415.7266    1654.1655   -414.42059   -148.37216    175.73645   -319.70064   -541.84084    -3769.012 
 3637000    246.10052   -4268.9746   -3847.1668   -4268.9746            0    2066.6334    17.861873    23.512992    22.220251     9332.196    2626.1626    1640.9326     1932.805   -1047.4665   -656.24435     -68.9821   -3565.8969 
 3638000    256.18026    -4253.671   -3814.5868    -4253.671            0    1967.0875    17.838395    23.733081    21.953101    9294.0668    2231.1794    3044.9799    625.10322     281.3884    858.65085    -199.1543    -3547.959 
 3639000    242.81896   -4293.9814   -3877.7981   -4293.9814            0    322.43089    18.090343    23.603255    21.939068    9367.7841   -1022.8781    1474.3148    515.85602   -168.67621   -408.46504   -53.902403   -3833.7477 
 3640000    241.64953   -4242.6318   -3828.4528   -4242.6318            0    910.46519    18.096868     23.32975    22.286561     9409.284    1586.4506    2083.2075   -938.26254  -0.51591316    45.066978    472.73526   -3703.5145 
 3641000    245.98808   -4273.7336   -3852.1185   -4273.7336            0    869.48556    18.338845    23.183617    22.099493    9395.8367    181.08761    970.35524    1457.0138   -384.30295   -63.000521   -342.92543   -3732.9741 
 3642000    232.04176   -4232.3544   -3834.6428   -4232.3544            0    1004.6589    18.257881    23.449696    21.955229    9399.9504    1095.6152   -282.72329    2201.0848    -658.7599   -1019.9011    771.66219   -3696.9154 
 3643000    246.03095   -4254.9252   -3833.2366   -4254.9252            0    1029.3694    17.931082    23.430568    22.451282    9432.5793    2340.8528    1608.9818   -861.72632   -409.97989    366.77103    131.21662   -3691.6319 
 3644000    242.29954   -4249.1734   -3833.8803   -4249.1734            0    976.08161    17.990974    23.611688    22.089389    9383.5118    1208.8151    1486.5728    232.85688   -446.49169   -943.08986   -534.50618   -3700.3046 
 3645000    259.69089    -4243.578   -3798.4767    -4243.578            0    2514.9424    17.877921    23.677088    21.880422    9261.9193    1550.5954    2750.3485    3243.8832    850.65219    400.61804      179.998   -3458.7694 
 3646000    244.63786   -4259.9016   -3840.6006   -4259.9016            0    775.02538    17.962459    23.579748    22.178115    9393.5465    1188.1645    1785.1362    -648.2246    283.23948    354.81198   -317.84253   -3734.4259 
 3647000    246.69272     -4275.19   -3852.3672     -4275.19            0    1155.4966    18.342608    23.311023    21.926484    9375.4347    1360.0964    682.67507    1423.7184    488.88595     451.5118    95.637787   -3694.3748 
 3648000    240.89898    -4275.282   -3862.3894    -4275.282            0     841.5883    18.169003    23.389285    22.033412    9363.3191     256.4436    980.31779    1288.0035   -11.569055    293.03928   -142.51578   -3747.4668 
 3649000    270.72791   -4250.2136   -3786.1952   -4250.2136            0    1169.7675    18.118544    23.189774    22.404931    9413.7667    1248.7014      2345.98   -85.378726    78.369336   -37.539492     268.8768   -3625.5976 
 3650000    243.30326   -4248.8854    -3831.872   -4248.8854            0    1155.7147    18.074276      23.6222    21.890128    9346.0813    954.62146    992.74248    1519.7801    133.80374    100.77307    457.15346   -3674.3446 
 3651000    250.44921   -4231.2629   -3802.0015   -4231.2629            0   -94.573468    17.960416    23.780723     22.16577    9467.2598   -112.29568   -725.31799    553.89326   -92.331146    449.24729     238.8534   -3815.0593 
 3652000    237.66393    -4264.945   -3857.5972    -4264.945            0    643.87073    17.998424    23.513963    22.217114    9402.5999   -47.826258   -243.77288    2223.2113     375.1119   -854.39449    145.72077   -3769.3049 
 3653000    253.85783   -4251.0931   -3815.9894   -4251.0931            0    892.02193     18.31234    23.468765    21.786034      9362.94     535.2425    2148.6971   -7.8737961   -481.20335    782.71202    398.76772   -3694.1848 
 3654000    247.42736   -4268.3437   -3844.2617   -4268.3437            0    1158.6576    18.101703    23.350621    22.144279    9360.0767    1603.5826      2223.22   -350.82991    794.20764     636.8641   -352.43347   -3686.0967 
 3655000     254.9329   -4265.4406   -3828.4943   -4265.4406            0    910.30435    18.198182    23.383341    22.054045    9384.7526   -286.12076    758.53814    2258.4957    915.13634    447.48329    1172.2648   -3703.9037 
 3656000    240.90013   -4288.0787   -3875.1841   -4288.0787            0    327.09165    18.264956    23.416371    21.978992    9400.3926   -21.852455    111.81175    891.31566    389.04678    -189.4805     945.6579   -3830.3415 
 3657000    246.97911   -4258.7886   -3835.4749   -4258.7886            0    2287.4405    17.862135    23.513338    22.126789    9293.2167    2079.9554    2790.7682     1991.598   -375.25617   -753.29116     407.5965   -3525.4534 
 3658000    259.64532    -4287.333   -3842.3098    -4287.333            0    2286.0679    17.928159    23.713927    21.903879    9312.3698    2416.1625    1452.2901    2989.7511   -280.40826    53.162357    512.57753   -3531.8358 
 3659000    248.27485   -4254.6424   -3829.1078   -4254.6424            0     2173.775    18.059891    23.425944    22.152091    9371.8849    1869.6296    3160.7948    1490.9007   -131.14734   -689.34167   -1441.1382   -3531.9977 
 3660000    263.16258   -4249.9713   -3798.9196   -4249.9713            0    2568.5869    18.040042    23.317588    22.221234    9347.3677    3454.1506    2537.4621    1714.1481    427.97363   -268.45236    787.47841   -3448.7653 
 3661000    238.85747   -4266.1521   -3856.7586   -4266.1521            0    772.79617    18.103814    23.509962    22.043083    9381.9763   -2.0216984    45.028889    2275.3813    1420.9708    301.74828    131.33135   -3751.0196 
 3662000    251.34215    -4269.653   -3838.8612    -4269.653            0    2670.4372    17.882969      23.6364    21.988989    9294.5039    3070.7475    652.48416    4288.0799   -474.06199   -154.67932   -579.48077   -3476.8813 
 3663000    249.92822   -4247.5744    -3819.206   -4247.5744            0    1944.7794    17.983538    23.472266    22.110333    9333.0895    2111.7102    1760.4603    1962.1677   -765.57229    7.4714012    504.59001   -3554.4952 
 3664000     250.6317   -4262.5932   -3833.0191   -4262.5932            0    1659.5772    18.260932    23.326349    21.870206     9315.852    963.57618     2122.709    1892.4464   -245.51102   -30.223458    244.88322   -3607.5454 
 3665000    245.24086   -4246.4279   -3826.0935   -4246.4279            0    1491.6462    18.107738     23.40754    22.177541    9400.1195    2939.5402    488.52867    1046.8697    108.53092    524.45878    235.46247    -3621.602 
 3666000    253.54746   -4239.1082   -3804.5365   -4239.1082            0    1495.1541    17.945963    23.739726    21.862033    9313.9311     1589.157    522.95102    2373.3542    622.52442    417.68939    219.05276   -3601.4436 
 3667000    245.41077   -4269.6407    -3849.015   -4269.6407            0    926.72259    17.972192    23.496226    22.000391    9290.2965    1948.4176    1380.0873   -548.33711    1098.3579   -348.52044   -408.39927   -3723.4539 
 3668000    273.84589   -4260.3198   -3790.9573   -4260.3198            0    1378.1716    17.784885    23.468609    22.257953    9290.1693    2495.6056    2516.4023   -877.49312    169.21745    430.03035    307.95806   -3604.2322 
 3669000    251.32522   -4215.7571   -3784.9942   -4215.7571            0    3249.8947    18.002079     23.35991    21.939232    9226.0381      3443.16    3666.9427    2639.5813    622.06637   -812.80371    1342.2437   -3347.7134 
 3670000    260.48767   -4269.5356   -3823.0687   -4269.5356            0    1345.9195    18.203923    23.209928    22.148303    9357.9186     337.8061    2567.1122    1132.8401    314.03209   -877.58538   -536.57735   -3639.3834 
 3671000     251.5171   -4262.5636   -3831.4718   -4262.5636            0    666.39124    18.214738     23.39117    22.065159    9401.1705    1251.2187    1224.6642   -476.70917    904.03109   -345.07629     173.0091   -3740.1053 
 3672000    246.93634   -4252.9488   -3829.7084   -4252.9488            0    768.26731    18.067136    23.541499    22.014435    9363.3438    948.28055     359.3689    997.15249   -296.46662    516.64416   -92.956675   -3724.7978 
 3673000    238.17419   -4241.9992   -3833.7768   -4241.9992            0     1682.316    17.920722    23.694226    21.952167    9321.2771    543.91023    2570.8117     1932.226   -206.33357   -918.14106    172.18053   -3605.0806 
 3674000    245.41683   -4264.6024   -3843.9663   -4264.6024            0    2317.2631    17.937406    23.369881    22.203377    9307.5457    2340.5882    2252.5263    2358.6747    219.87776    848.39624    463.61892   -3529.4187 
 3675000    256.94948   -4251.0392   -3810.6365   -4251.0392            0    1108.9583    18.311024    23.397007     21.83975    9356.6548    1094.5527    1434.9484    797.37378   -140.56571    335.79238   -372.82436   -3659.3112 
 3676000    245.87677   -4259.8021   -3838.3777   -4259.8021            0    1357.4415    18.176236    23.380935    22.109329    9395.9652    1705.4413    1267.6236    1099.2597   -612.38368   -77.970639   -1827.8994   -3652.3668 
 3677000    254.69492   -4233.9367   -3797.3983   -4233.9367            0    2286.1153    18.096174     23.39676    22.120617     9365.689    4011.7736    1902.3665    944.20595    416.78259    -679.5813    396.05059   -3485.1402 
 3678000    254.91776   -4238.1791   -3801.2588   -4238.1791            0    1707.5288    18.042038    23.656699    21.819449    9312.8694    987.07263   -152.26898    4287.7828    435.93791    856.46121    224.36345   -3569.3445 
 3679000    246.96552   -4248.4654   -3825.1749   -4248.4654            0    2214.1041    17.843264    23.500351    22.272349    9339.3073    2892.5184    2477.7977    1271.9963   -1892.6881     286.9849    378.57078   -3523.6046 
 3680000      251.194   -4262.5439    -3832.006   -4262.5439            0    759.33766    18.174033    23.307539    22.098514    9360.7534   -493.22465    1475.5276    1295.7101    277.91167   -246.25404    213.36327   -3728.3435 
 3681000    255.32823   -4254.2251   -3816.6012   -4254.2251            0    2751.9069    18.325898    23.143045    21.926616    9299.4527    480.36944    4907.2482    2868.1031   -688.34988   -162.25032   -566.36887   -3443.3794 
 3682000    250.92001   -4222.1282   -3792.0599   -4222.1282            0    2034.2252    18.100432    23.293182     22.19502      9357.79    3045.5875    1392.3027    1664.7853    -659.9997   -397.33818    619.66123   -3514.4415 
 3683000    246.57319   -4262.6983   -3840.0803   -4262.6983            0    3993.5401    17.928663    23.380126    22.004705    9223.8092    4220.8439    3711.5872    4048.1894   -244.63526    158.62324   -244.90643   -3302.8701 
 3684000    252.76135   -4277.1751   -3843.9508   -4277.1751            0    1080.9474    18.022492    23.594024    21.944583    9331.3435    2095.0734    -201.8552    1349.6242   -1092.9119   -222.80075    419.80193   -3696.8468 
 3685000    256.16817   -4238.1698   -3799.1064   -4238.1698            0    507.10094    17.803452    23.523818    22.428058    9392.9862    219.91923     595.0121     706.3715    1249.4148   -299.28847    68.011369   -3729.6401 
 3686000    257.53624   -4240.8504   -3799.4421   -4240.8504            0    974.11533    18.121641    23.407782    22.120985    9383.4437    1280.6519    1282.0609    359.63316   -45.353293    595.24227    113.96175   -3666.1364 
 3687000    247.72264   -4263.9793   -3839.3912   -4263.9793            0    1000.8081    18.352418    23.108238    22.092615    9369.3023   -393.34335    2655.0979    740.66966    127.13544   -428.82395    571.72399   -3702.6391 
 3688000    251.58766   -4223.6969   -3792.4843   -4223.6969            0    2006.0402    18.032224    23.316707    22.232749    9347.8057    1851.4102    2662.0571    1504.6534   -63.415063   -50.325041    -435.0803   -3519.0045 
 3689000    242.66744   -4266.3018   -3850.3781   -4266.3018            0    1202.6767    17.875839    23.706934    22.049509    9344.1703     3593.195   -122.97896    137.81418   -229.79577   -7.3227444   -474.05599   -3686.4831 
 3690000     263.2067   -4235.3509   -3784.2237   -4235.3509            0    1018.0126     17.99292    23.811543    21.937126    9398.7247    717.04574    589.26377    1747.7284   -180.21463   -452.00439     751.5729   -3644.6839 
 3691000    258.31032   -4255.6902   -3812.9552   -4255.6902            0    1109.4889    18.104349    23.278906    22.160129    9339.3739    1248.9798    975.67179    1103.8151   -759.48454   -51.925948    404.14761    -3661.837 
 3692000    257.87907   -4251.6044   -3809.6085   -4251.6044            0    2493.2278    18.184875    23.313358    22.019265    9335.0783    3543.6062    2666.0223    1270.0548    87.315059    4.0666538    307.17194   -3470.1741 
 3693000    252.44125   -4248.2632   -3815.5875   -4248.2632            0    1375.6923    18.305079    23.234016    22.058168    9381.3498   -302.50354    1342.7328    3086.8477    458.10174   -142.45399    846.03479   -3627.3689 
 3694000    252.90869    -4225.434   -3791.9571    -4225.434            0    1713.0047    17.961607    23.602206     22.22353    9421.3001    1550.9898    1979.4025    1608.6219   -1634.0204   -439.06833     171.7842   -3556.5903 
 3695000    250.49331   -4256.9425   -3827.6055   -4256.9425            0    735.57164    18.029369    23.696418    22.008998    9402.9366    1258.1474    242.91475    705.65279    4.4267949   -323.50044   -209.69643    -3726.735 
 3696000     255.3544   -4254.0407    -3816.372   -4254.0407            0    372.25415    17.885447    23.676135    22.206115    9403.3628    2316.6789   -509.87082    -690.0456     230.8653   -26.569212    76.833373   -3765.3216 
 3697000    242.97398   -4231.6499   -3815.2008   -4231.6499            0    1271.3697    18.134398    23.278236    22.125836    9340.1297    1139.1032    1025.5022    1649.5037    164.53379    707.36885   -105.28184   -3642.0196 
 3698000    244.56647   -4233.7735   -3814.5949   -4233.7735            0    864.76009     18.42649    23.305787     22.00675    9450.6633    918.46913   -86.100754    1761.9119   -595.12393   -71.013042    681.72276   -3695.4065 
 3699000    263.04777   -4247.5176   -3796.6627   -4247.5176            0    932.37484    18.171514    23.382194    22.030854    9360.6865    1035.8812    2162.6305   -401.38713    -784.1837    1126.1659    518.41277   -3669.3786 
 3700000    246.51728   -4253.4367   -3830.9145   -4253.4367            0    1659.9448    18.031346    23.367785    22.161482    9337.7983    1430.9235    1616.8786    1932.0323   -433.94347   -368.68237   -799.93503   -3604.8596 
 3701000    247.59637   -4238.4661   -3814.0944   -4238.4661            0    229.08993    18.126784    23.890201    21.910818    9488.5346    1566.1409   -1088.3747    209.50366   -595.22463   -316.33705   -112.39551   -3782.3928 
 3702000    254.83047   -4248.1416   -3811.3709   -4248.1416            0    677.16234    18.034322    23.553189    22.196196    9428.1848    612.72428   -9.7932027    1428.5559    203.80291   -176.47205   -178.69312   -3718.2608 
 3703000    252.05435   -4283.3209   -3851.3084   -4283.3209            0    2244.3362    17.978385    23.390705      22.1831    9328.5951    3133.3585    2259.7634    1339.8866   -99.714463    596.01423    57.354252   -3545.9709 
 3704000     247.8943   -4264.1365   -3839.2541   -4264.1365            0    2099.2461    18.131361    23.257261     22.04546    9296.2573    1797.6342     2626.363    1873.7412    -419.1304     -212.352   -425.47616    -3554.646 
 3705000    239.14814   -4264.1682   -3854.2765   -4264.1682            0    1124.3818    18.016113    23.338341    22.337501    9392.1641    2260.1638    2224.2966    -1111.315     163.3126    898.33126    457.24134   -3700.2642 
 3706000    247.57319   -4268.7801   -3844.4481   -4268.7801            0    1544.7944    17.981917    23.530261    22.161685    9377.0347    1416.9183    1635.4882    1581.9768    173.22386    285.53705    543.26741   -3633.1906 
 3707000    252.54585   -4260.0326   -3827.1777   -4260.0326            0    931.63476    18.068316    23.792182     21.84269    9389.8376    1178.0759    634.04117     982.7872   -407.66657   -842.83834    703.13088   -3699.5985 
 3708000    246.54099   -4223.7263   -3801.1635   -4223.7263            0     2743.494    17.941059    23.487439    22.189621    9350.4738    4016.7877    2347.2528    1866.4414   -80.585903   -163.68583    131.66476   -3427.0413 
 3709000    250.63466   -4258.9831   -3829.4039   -4258.9831            0    1914.6167    18.043261    23.455432    22.034479    9325.2665    1221.3477    2259.0684    2263.4339    163.27337   -647.91794    875.77178   -3569.0171 
 3710000    246.94717   -4220.3876   -3797.1286   -4220.3876            0    1618.1854     18.03172    23.629799    22.016507    9380.9234    1810.5919     162.0021    2881.9623   -682.78295    106.48712   -1856.8644   -3575.7428 
 3711000    250.64545   -4264.6077   -3835.0099   -4264.6077            0    893.74226    17.751679    23.704268    22.306815    9386.4971    2418.7981    -321.5279    583.95657    673.56303   -590.90117   -131.09516   -3712.6634 
 3712000    249.03533   -4248.8798   -3822.0417   -4248.8798            0    1206.0681     18.15742    23.509268    22.065297    9418.9614    194.35019    525.02354    2898.8307    997.04793   -92.092052   -459.07523   -3656.3691 
 3713000    261.95715   -4252.1191   -3803.1335   -4252.1191            0    423.57982    18.283405    23.443134    22.011313    9434.4959     330.9045   -1008.4286    1948.2635     1172.893    556.64903    98.194766   -3744.8521 
 3714000    247.18663    -4250.527   -3826.8575    -4250.527            0    2108.7451    18.178732    23.148855    22.137625    9315.8853    3076.3862    4255.8666   -1006.0174   -1441.7843    79.521368    294.16318   -3540.3579 
 3715000    251.22295   -4304.2003   -3873.6128   -4304.2003            0    1661.9042    17.995748    23.391935    22.024343    9271.2653    2327.0676    2199.2267    459.41822    1576.7469    878.52522   -78.261393   -3648.9036 
 3716000      240.336   -4245.9709   -3834.0432   -4245.9709            0     2114.689     17.98318    23.570517    21.897576    9281.7882    1600.9658    1738.1135    3004.9877    295.54606     262.9173   -515.01815   -3547.7876 
 3717000    244.30362   -4270.0947   -3851.3666   -4270.0947            0    1034.2216    17.975503    23.606791     22.10371    9379.5751    871.64531    722.76401    1508.2555   -291.14174    422.35423   -680.05933   -3709.8939 
 3718000    254.61791   -4255.8461   -3819.4397   -4255.8461            0    938.91433    18.107855    23.512574    22.042846    9385.0121    601.78196   -310.05212    2525.0131   -19.971645   -126.13818   -253.85627   -3690.9298 
 3719000     267.0967   -4260.9931   -3803.1984   -4260.9931            0    1445.0305    18.249067    23.244357    21.986896    9326.5737    1100.3548    2616.0411    618.69549    1351.5997   -251.85504    166.51796   -3606.6476 
 3720000    247.56377     -4268.55   -3844.2342     -4268.55            0    1151.3998     18.26098    23.002901    22.298108    9366.4432    1353.8326    1642.8081    457.55869     370.8961    596.10747   -453.61218    -3686.953 
 3721000    251.71298   -4255.1668   -3823.7394   -4255.1668            0    777.20536    17.946963    23.618982    22.129287    9380.3609     1770.896   -278.04099     838.7611    1327.3999    567.23199   -699.58955   -3717.4154 
 3722000     253.9212   -4278.9227   -3843.7105   -4278.9227            0    900.27605    17.798602    23.824713    22.129596    9383.9797    3025.5845   -144.65798   -180.09833   -444.89875   -648.02732   -12.723877   -3720.5025 
 3723000    238.97808   -4249.6867   -3840.0864   -4249.6867            0    1631.9558    18.072393    23.405257    22.066514     9333.893    882.76287    2864.0903    1149.0143    763.84089   -527.85338    144.16145    -3617.936 
 3724000    244.55344   -4244.3894   -3825.2331   -4244.3894            0    1239.2907    18.260314    23.345634    22.056793      9402.78    473.07301    657.85047    2586.9486    174.63164   -172.17001    28.605217   -3655.2893 
 3725000    242.94989   -4254.5243   -3838.1165   -4254.5243            0    1419.2364    18.147508    23.578077    21.972448    9401.6447    1819.3686    2773.7246    -335.3841     -176.757   -43.945388   -185.92621   -3643.5203 
 3726000    253.63141   -4253.4388   -3818.7233   -4253.4388            0    1221.3017     17.85195    23.567953    22.343846    9400.8137    792.30298    954.04802    1917.5541    435.96746    64.731242    670.02841   -3651.2813 
 3727000    268.82686   -4214.5505   -3753.7904   -4214.5505            0    1570.0352    18.050217    23.690564    22.026837    9419.1121      1203.22    1613.0504    1893.8351   -669.32314   -429.28759   -458.78227   -3538.1177 
 3728000    256.13225   -4233.8416   -3794.8397   -4233.8416            0   -55.701024    18.113244    23.533472    22.279239    9496.9162    800.82248    288.98766   -1256.9132    142.46444    1029.3961   -428.73723   -3802.5545 
 3729000    266.64121   -4267.2487   -3810.2348   -4267.2487            0    3647.5588      18.0212    23.237821    22.091665    9251.4023    3453.4437    2833.8922    4655.3404    1503.6178    274.00265     643.5676   -3318.0981 
 3730000    246.43703   -4209.6306    -3787.246   -4209.6306            0    1460.3302    18.191374    23.363529    21.947742    9328.1131    777.68108    1539.1844    2064.1253   -296.68378    274.91221    211.99176   -3588.5812 
 3731000    250.37344    -4234.065   -3804.9335    -4234.065            0    2618.0094    18.027971    23.368127    22.113081    9315.7967    1801.5263     2704.511    3347.9908   -512.88508   -71.053078    737.51394   -3449.2472 
 3732000    250.79715   -4247.5959   -3817.7382   -4247.5959            0    535.07606    17.932329    23.891555    22.004884    9427.5797    910.20349   -1823.1881    2518.2128    26.849134    234.92767    507.65144   -3744.1697 
 3733000    246.94122   -4260.0009   -3836.7521   -4260.0009            0     2638.201    17.896916    23.567826    22.042653    9297.4015    2812.6244    2596.3348    2505.6437   -55.566945   -688.49725    75.202611   -3479.0304 
 3734000    265.10973   -4255.1744   -3800.7854   -4255.1744            0     1033.081    18.202709    23.339033    22.196227    9429.7034    901.14496    2425.2885   -227.19042   -666.67365   -606.43658    180.76379   -3658.7135 
 3735000    246.67152    -4266.297   -3843.5105    -4266.297            0    1043.8607    18.349998    23.233565     21.95273     9359.236    1319.3992    330.54224    1481.6408    145.20021   -218.37342   -175.58784   -3701.0288 
 3736000    251.76837   -4261.0766   -3829.5542   -4261.0766            0    63.202435    18.214631    23.435987    22.059989    9416.9209    4.3414024   -1163.2536    1348.5195   -723.82517   -41.755242    377.46864   -3820.8742 
 3737000    247.60365   -4248.3007   -3823.9165   -4248.3007            0    1332.9351    17.817358    23.655676    22.235903    9372.0254    335.56577    2020.4964     1642.743   -144.11519   -363.10893    919.64281   -3641.7291 
 3738000    254.68248   -4245.5286   -3809.0115   -4245.5286            0    1649.5724    17.994469    23.706377    21.941949     9360.077    3350.3424   -210.21054    1808.5855   -520.52433   -624.58567   -872.89551   -3583.8331 
 3739000    253.65172   -4251.2867   -3816.5363   -4251.2867            0   -513.42342    18.145548     23.31664    22.324077    9445.1655   -1301.1072   -415.89353    176.73046    706.90629    62.102434   -372.26544   -3887.2594 
 3740000    248.02583    -4231.293   -3806.1852    -4231.293            0      1531.37    18.092737    23.270025    22.065383    9289.9329     1795.563    690.53632    2108.0107   -46.891464    32.478419     653.5851   -3598.7089 
 3741000    236.92756   -4253.1372   -3847.0514   -4253.1372            0     1194.113    18.216327    23.429317    22.091656    9428.6329    1794.2287    1408.3379    379.77261    753.86024   -416.74785    7.9161949   -3682.8526 
 3742000    246.85834   -4242.7683   -3819.6615   -4242.7683            0    1352.2493     18.31761     23.19424    21.998359    9346.2896     2167.155    439.18945    1450.4036    167.28049      -1001.8    832.07742   -3635.3418 
 3743000    263.23338   -4246.4555   -3795.2825   -4246.4555            0    1562.5858    18.070358    23.572473    21.961898    9354.9561    855.54946    2389.2489    1442.9591   -252.36454   -230.89416    387.84437   -3582.0951 
 3744000    247.96033   -4233.9955        -3809   -4233.9955            0    2578.2663    17.770243    23.707685    22.145999    9329.9173    4151.4707    1838.4109    1744.9173    911.75369    366.16054    1278.5897   -3458.1823 
 3745000     258.8548   -4238.1702   -3794.5019   -4238.1702            0    244.08148    18.044273    23.666035    22.163099    9464.4501    672.38096   -864.28473    924.14823    526.25807    -571.5397   -398.25674   -3760.8115 
 3746000    248.09786    -4250.012   -3824.7808    -4250.012            0    1777.6087    18.197503    23.202092    22.131172    9344.2269    1072.3831    2859.9833    1400.4596    1252.0647    -758.5211   -827.38908   -3582.5355 
 3747000    252.59892   -4258.1724   -3825.2265   -4258.1724            0    2878.4347    18.055196    23.380038    22.017739    9294.3741    2489.2994    3631.1829    2514.8218    312.15453   -96.703077   -248.58069   -3435.0578 
 3748000    270.68703   -4264.2975   -3800.3492   -4264.2975            0   -1119.9175    18.178385    23.737563    22.129798     9549.241   -1642.4379   -420.04206   -1297.2725   -799.38687   -40.979632    155.04683   -3956.3155 
 3749000    235.48251   -4250.2006   -3846.5916   -4250.2006            0    1975.4371      18.0761    23.611053    21.972275    9377.6737    1716.8746    2326.9674    1882.4693   -124.64784    25.257731    844.08516   -3576.4234 
 3750000    265.23661   -4233.0649   -3778.4585   -4233.0649            0    1623.3992    17.779982    23.547462    22.233239    9308.4672    2628.2604    2378.2215   -136.28413    408.39322   -679.11116    131.43407   -3558.0748 
Loop time of 363.266 on 64 procs for 250000 steps with 864 atoms

Performance: 118.921 ns/day, 0.202 hours/ns, 688.200 timesteps/s
194.2% CPU use with 32 MPI tasks x 2 OpenMP threads

MPI task timing breakdown:
Section |  min time  |  avg time  |  max time  |%varavg| %total
---------------------------------------------------------------
Pair    | 17.431     | 24.901     | 33.187     | 100.9 |  6.85
Bond    | 0.89852    | 1.0685     | 1.5103     |  11.2 |  0.29
Kspace  | 180.91     | 190.21     | 198.41     |  39.5 | 52.36
Neigh   | 1.4808     | 1.5966     | 1.7358     |   4.9 |  0.44
Comm    | 56.23      | 59.452     | 63.2       |  22.9 | 16.37
Output  | 0.65606    | 0.65648    | 0.65917    |   0.1 |  0.18
Modify  | 66.041     | 67.8       | 71.518     |  15.5 | 18.66
Other   |            | 17.58      |            |       |  4.84

Nlocal:        27.0000 ave          39 max          19 min
Histogram: 6 6 3 0 4 4 1 1 3 4
Nghost:        2126.66 ave        2212 max        2032 min
Histogram: 6 10 0 0 0 0 0 0 3 13
Neighs:        6527.22 ave        9502 max        4505 min
Histogram: 7 5 3 2 3 3 2 1 3 3

Total # of neighbors = 208871
Ave neighs/atom = 241.74884
Ave special neighs/atom = 2.0000000
Neighbor list builds = 5988
Dangerous builds = 0

unfix		3
unfix		2
unfix		1

write_data	data.final.${pid} nocoeff
write_data	data.final.0 nocoeff
System init for write_data ...
PPPM initialization ...
  extracting TIP4P info from pair style
  using 12-bit tables for long-range coulomb (../kspace.cpp:340)
  G vector (1/distance) = 0.3713165
  grid = 24 27 25
  stencil order = 5
  estimated absolute RMS force accuracy = 0.0032192921
  estimated relative force accuracy = 9.6948025e-06
  using double precision FFTW3
  3d grid and FFT values/proc = 4410 672
Last active /omp style is kspace_style pppm/tip4p/omp

write_restart   restart.lmp.${pid}
write_restart   restart.lmp.0
System init for write_restart ...
PPPM initialization ...
  extracting TIP4P info from pair style
  using 12-bit tables for long-range coulomb (../kspace.cpp:340)
  G vector (1/distance) = 0.3713165
  grid = 24 27 25
  stencil order = 5
  estimated absolute RMS force accuracy = 0.0032192921
  estimated relative force accuracy = 9.6948025e-06
  using double precision FFTW3
  3d grid and FFT values/proc = 4410 672
Last active /omp style is kspace_style pppm/tip4p/omp
Total wall time: 0:06:03
