LAMMPS (30 Jul 2021)
Processor partition = 0
  using 1 OpenMP thread(s) per MPI task
using multi-threaded neighbor list subroutines
variable        pid world 0 1
variable        phase world IceII IceIII

shell cd ${phase}
shell cd IceII
include Restart.lmp
echo both
log log.lammps
#include		in.partitions
include		in.temp
variable        temperature equal 129.77
variable	tempDamp equal 100.0
include		in.pressure
variable        pressure equal 6543.8
variable        pressureDamp equal 1000.0 # This is 1 ps
include		in.seed
variable        seed equal 745823

units		real
atom_style	full
box tilt large
read_restart	restart.lmp.${pid}
read_restart	restart.lmp.0
Reading restart file ...
  restart file = 30 Jul 2021, LAMMPS = 30 Jul 2021
  restoring atom style full from restart
  triclinic box = (-10.559072 -9.2015148 0.20309831) to (12.539072 12.191513 21.656901) with tilt (-8.9391512 1.7376250 2.8227090)
  4 by 4 by 4 MPI processor grid
  restoring pair style lj/cut/tip4p/long/omp from restart
  restoring bond style harmonic/omp from restart
  restoring angle style harmonic/omp from restart
  1296 atoms
  864 bonds
  432 angles
Finding 1-2 1-3 1-4 neighbors ...
  special bond factors lj:    0        0        0       
  special bond factors coul:  0        0        0       
     2 = max # of 1-2 neighbors
     1 = max # of 1-3 neighbors
     1 = max # of 1-4 neighbors
     2 = max # of special neighbors
  special bonds CPU = 0.008 seconds
  read_restart CPU = 0.015 seconds
include 	in.setup
variable	out_freq equal 1000
variable	out_freq2 equal 10000
variable	out_freq3 equal 1000

timestep	2.0

neigh_modify    delay 7 every 1

include		in.tip4p
# This is TIP4P/Ice

# create groups ###
group ox type 2
432 atoms in group ox
group hy type 1
864 atoms in group hy

# set charges - beside manually ###
set group ox charge -1.1794
Setting atom values ...
  432 settings made for charge
set group hy charge 0.5897
Setting atom values ...
  864 settings made for charge

# ### TIP3P Potential Parameters ###
pair_style lj/cut/tip4p/long/omp 2 1 1 1 0.1577 8.5
pair_coeff 1 1*2 0.000 0.000
pair_coeff 2 2 0.21084 3.1668
bond_style  harmonic
bond_coeff  1 450 0.9572
angle_style harmonic
angle_coeff 1 55 104.52
kspace_style pppm/tip4p/omp 1.0e-5
pair_modify tail yes

thermo          ${out_freq}
thermo          1000
thermo_style    custom step temp pe etotal epair emol press lx ly lz vol pxx pyy pzz pxy pxz pyz enthalpy

restart 	${out_freq3} restart.lmp.${pid} restart2.lmp.${pid}
restart 	1000 restart.lmp.${pid} restart2.lmp.${pid}
restart 	1000 restart.lmp.0 restart2.lmp.${pid}
restart 	1000 restart.lmp.0 restart2.lmp.0


include         in.dump
dump            myDump all atom ${out_freq2} dump.water.${pid}
dump            myDump all atom 10000 dump.water.${pid}
dump            myDump all atom 10000 dump.water.0
dump            myDump2 all dcd ${out_freq2} dump.dcd
dump            myDump2 all dcd 10000 dump.dcd
dump_modify     myDump append yes
dump_modify     myDump2 append yes


variable natoms 	equal  "count(all)"                        # NUMBER ATOMS
variable H      	equal  "enthalpy/v_natoms"                 # ENTHALPY-per-atom
variable Vol      	equal  "vol/v_natoms"                 # volume-per-atom
fix AVG all 		ave/time ${out_freq} 1 ${out_freq} v_Vol v_H file vol_enthalpy.dat
fix AVG all 		ave/time 1000 1 ${out_freq} v_Vol v_H file vol_enthalpy.dat
fix AVG all 		ave/time 1000 1 1000 v_Vol v_H file vol_enthalpy.dat


timer           timeout 10:00:00 every 1000
New timer settings: style=normal  mode=nosync  timeout=10:00:00

fix 		1 all shake 1e-6 200 0 b 1 a 1
Finding SHAKE clusters ...
       0 = # of size 2 clusters
       0 = # of size 3 clusters
       0 = # of size 4 clusters
     432 = # of frozen angles
  find clusters CPU = 0.005 seconds
fix             2 all nph tri ${pressure} ${pressure} ${pressureDamp}
fix             2 all nph tri 6543.8 ${pressure} ${pressureDamp}
fix             2 all nph tri 6543.8 6543.8 ${pressureDamp}
fix             2 all nph tri 6543.8 6543.8 1000
fix             3 all temp/csvr ${temperature} ${temperature} ${tempDamp} ${seed}
fix             3 all temp/csvr 129.77 ${temperature} ${tempDamp} ${seed}
fix             3 all temp/csvr 129.77 129.77 ${tempDamp} ${seed}
fix             3 all temp/csvr 129.77 129.77 100 ${seed}
fix             3 all temp/csvr 129.77 129.77 100 745823


run             250000
PPPM initialization ...
  extracting TIP4P info from pair style
  using 12-bit tables for long-range coulomb (../kspace.cpp:340)
  G vector (1/distance) = 0.36933727
  grid = 30 40 32
  stencil order = 5
  estimated absolute RMS force accuracy = 0.0041092204
  estimated relative force accuracy = 1.2374795e-05
  using double precision FFTW3
  3d grid and FFT values/proc = 5168 640
Last active /omp style is kspace_style pppm/tip4p/omp
Neighbor list info ...
  update every 1 steps, delay 7 steps, check yes
  max neighbors/atom: 2000, page size: 100000
  master list distance cutoff = 10.8154
  ghost atom cutoff = 10.8154
  binsize = 5.4077, bins = 7 5 4
  1 neighbor lists, perpetual/occasional/extra = 1 0 0
  (1) pair lj/cut/tip4p/long/omp, perpetual
      attributes: half, newton on, omp
      pair build: half/bin/newton/tri/omp
      stencil: half/bin/3d/tri
      bin: standard
Setting up Verlet run ...
  Unit style    : real
  Current step  : 18250000
  Time step     : 2
  Walltime left : 9:59:59.89
Per MPI rank memory allocation (min/avg/max) = 9.443 | 9.449 | 9.455 Mbytes
Step Temp PotEng TotEng E_pair E_mol Press Lx Ly Lz Volume Pxx Pyy Pzz Pxy Pxz Pyz Enthalpy 
18250000    134.12225   -6662.2995   -6317.2782   -6662.2995            0    7219.4615    23.098145    21.393028    21.453802    10601.166    6498.7229    7781.9227    7377.7389   -738.35728    515.30788   -590.54899    -5201.098 
18251000    123.66436   -6659.4556   -6341.3366   -6659.4556            0    6011.6234    23.116994    21.338386    21.515629    10613.215     6364.174    5793.2118    5877.4844    106.74583     447.7654   -266.43824   -5410.8403 
18252000    130.85558   -6677.2249   -6340.6069   -6677.2249            0     7166.363    23.073658    21.325912    21.461344    10560.415    7323.2281    7217.4093    6958.4515    413.24956   -204.76733   -136.81698   -5236.8951 
18253000    131.85495   -6684.0363   -6344.8474   -6684.0363            0    6387.3711    23.148434    21.294469    21.501059    10598.594    6887.4052    6049.6975    6225.0105   -9.4407623   -406.16243   -172.15882   -5357.5539 
18254000    125.54837   -6686.2048   -6363.2393   -6686.2048            0    6765.9056    23.121407     21.25426     21.54088      10585.8    7650.4846    7033.6976    5613.5345   -352.65833   -259.72078    8.9630232   -5318.6982 
18255000    132.43189   -6687.7562   -6347.0832   -6687.7562            0    6396.6109    23.174643    21.230059    21.540702    10598.005    6348.4513    6094.3155    6747.0658   -670.12598    495.19103     1205.182   -5358.4165 
18256000    133.31782   -6679.4936   -6336.5416   -6679.4936            0    5824.4133     23.24152    21.273446    21.504423    10632.372    4747.1008    5834.6353    6891.5037    13.248854    992.38013    59.505828    -5433.395 
18257000    127.42685   -6677.9427   -6350.1449   -6677.9427            0    7345.6846     23.22532    21.187318    21.498122    10578.844    7734.5225    7147.0442    7155.4871    122.86724   -154.52679   -119.91135    -5216.841 
18258000    131.59389   -6678.5606   -6340.0434   -6678.5606            0    6237.6474    23.211854    21.154962    21.598792    10605.998    6704.7042    6656.3022    5351.9358   -879.94848    409.22919   -90.061812    -5375.219 
18259000    135.37466   -6670.9934   -6322.7503   -6670.9934            0    7308.9772    23.259466    21.237094    21.440179    10590.665    7713.5849    7084.3943    7128.9522   -429.60616    427.37795   -559.51032   -5193.8497 
18260000    133.87643   -6683.5445   -6339.1556   -6683.5445            0      6961.23    23.253594    21.145367    21.575835    10608.963     6691.227     7519.565    6672.8981   -82.350816    1114.2096   -306.30096   -5262.1082 
18261000     128.4862   -6678.3096   -6347.7867   -6678.3096            0    5401.1523     23.25087    21.231117    21.570531    10648.119    5043.0303    5120.1122    6040.3143    -542.4004    306.76833    1455.1574   -5509.0316 
18262000    133.77279   -6667.3995   -6323.2771   -6667.3995            0    6486.3446    23.260397    21.187145     21.55365      10622.1     5583.403    7079.7774    6795.8534    445.84936    541.06957   -34.621288   -5318.4617 
18263000    137.10036   -6687.7068   -6335.0245   -6687.7068            0    5720.3147    23.239175    21.262768    21.527857    10637.542    4899.1058    6534.0902    5727.7481   -78.096995    -573.2942    319.25744   -5447.5884 
18264000    123.71777   -6673.4381   -6355.1817   -6673.4381            0    7377.3854    23.269364    21.089541    21.502044    10551.917    6636.1662    8445.3992    7050.5907    415.43004    -26.23616    229.71232    -5219.884 
18265000    137.21074   -6691.9344   -6338.9681   -6691.9344            0     7553.129     23.16153    21.167655    21.568044    10574.279    6893.6017    8264.7671    7501.0182   -145.50076   -416.04081    1473.5335   -5174.1622 
18266000    135.06768   -6691.9618   -6344.5084   -6691.9618            0     6566.037    23.255161    21.194984    21.474348     10584.55    5844.2782    7351.8024    6502.0303    -50.28496    312.01845   -362.18477   -5330.9433 
18267000    133.58029   -6689.7218   -6346.0946   -6689.7218            0    6191.9494    23.198269    21.168101    21.670997    10641.831    6502.6074     6639.932    5433.3088    200.47655   -27.294763   -225.57636   -5385.1029 
18268000    125.27003   -6679.2037   -6356.9542   -6679.2037            0     6527.085    23.386348    21.097165    21.446385    10581.338    4547.9116    7505.6028    7527.7406    402.54694    645.63711    852.84678   -5349.7077 
18269000    128.62819   -6677.9073   -6347.0191   -6677.9073            0    6859.5636    23.216646    21.080941    21.637854    10590.188    6759.4648    8352.9026    5466.3232   -409.33653    -556.2253   -755.38636   -5287.5799 
18270000    128.15277   -6684.9084   -6355.2432   -6684.9084            0    5481.8357    23.306159    21.180117    21.529747    10627.669    4985.4104    6353.0979    5106.9989     900.6593   -321.63639   -97.913927   -5505.5935 
18271000    130.92023   -6693.1279   -6356.3436   -6693.1279            0    8231.4562    23.174712    21.152992    21.477515    10528.589    7938.2683    8584.4377    8171.6625    112.58124   -279.47587    158.43255   -5092.4144 
18272000    132.38293   -6681.1336   -6340.5866   -6681.1336            0    6160.8092    23.188768    21.209052    21.565992    10606.409    6642.3205     6196.829    5643.2782    78.415492   -827.55892    127.09318   -5387.6105 
18273000    128.17325   -6688.2701   -6358.5523   -6688.2701            0    4952.9913    23.247116    21.338152    21.508152     10669.13    4695.2384    5260.1283    4903.6072    -289.9344   -231.47184   -598.85668   -5587.8752 
18274000    142.60387   -6668.8181   -6301.9784   -6668.8181            0    7722.8722    23.009372      21.3011     21.56238     10568.26    8068.9402    7349.9245    7749.7519   -667.94411    211.87204    1063.8517   -5111.6734 
18275000    134.32383   -6665.2678    -6319.728   -6665.2678            0    7069.2417    23.092014    21.296093    21.522727    10584.224    7246.6979    6295.9476    7665.0797    643.56992    87.982789    1187.1501   -5228.5194 
18276000    125.88643   -6652.1987   -6328.3635   -6652.1987            0    6468.6413    23.088998    21.507757    21.383047    10618.662    6871.0584    5026.9212    7507.9444    399.70763   -572.40415    1290.7398   -5326.6149 
18277000    135.37649   -6681.0354   -6332.7876   -6681.0354            0    6618.4356    23.101125    21.294862    21.565746    10608.951    6975.3202    6126.9189    6753.0676   -406.94084    861.93885   -97.741844   -5308.7789 
18278000    125.93145   -6677.8591   -6353.9081   -6677.8591            0    7263.2579    23.052311    21.377464     21.41937    10555.464     7169.792    6682.5097    7937.4719   -48.816543   -44.004549    962.40766   -5235.7977 
18279000    126.82411   -6682.6125   -6356.3652   -6682.6125            0    6841.1426    23.125412    21.348918    21.446604    10588.242    6165.3668    6662.9109    7695.1501    642.80967    481.94022   -858.49572   -5299.9652 
18280000    132.85081   -6668.7289   -6326.9783   -6668.7289            0    6375.7576    23.103675    21.353721    21.556904    10635.086    5702.5024    7133.0363    6291.7342   -1118.6872    11.480621    -126.7813   -5338.0866 
18281000     131.1656   -6663.2727   -6325.8572   -6663.2727            0     7028.582    23.178292    21.293434    21.429885    10576.622    6659.7897     6703.602    7722.3544    363.04478   -182.85307    251.05117   -5241.7041 
18282000    134.64368   -6683.2047    -6336.842   -6683.2047            0    6179.2843     23.05135    21.277626    21.660452    10623.975    6539.5744    5785.8442    6212.4342    403.59222   -468.83382     389.5055    -5379.425 
18283000      134.241   -6688.9078    -6343.581   -6688.9078            0     6315.487    23.271715    21.231265    21.460833    10603.539     4979.145    6539.7393    7427.5767    255.55016    374.51466    101.91174   -5366.9431 
18284000    132.33852   -6691.5642   -6351.1314   -6691.5642            0    7177.0027    23.142967    21.203899    21.574537    10587.081    6295.6969    7528.2981    7707.0131    76.027075   -34.117286   -162.43787   -5242.9898 
18285000    126.57736   -6685.3916    -6359.779   -6685.3916            0    5326.9679    23.239281    21.250521    21.517374    10626.287    5307.3817    5078.1721    5595.3499    1247.1699    258.45463    205.32391   -5534.2402 
18286000    125.54878   -6676.1374   -6353.1709   -6676.1374            0    7343.9485    23.128974    21.184423    21.611916    10589.276    6639.0286    8818.5167    6574.3001    748.69056    692.51463    126.73555   -5219.0175 
18287000    129.27988   -6676.6866    -6344.122   -6676.6866            0    5828.2812    23.268963    21.280045    21.492671     10642.41     5329.983    6254.7869    5900.0737    205.98851    464.84008   -243.14959   -5439.5224 
18288000    130.95366   -6679.7913    -6342.921   -6679.7913            0     6902.825     23.16016    21.249827    21.515511    10588.846    7230.4928    6678.3123    6799.6698   -683.80617    100.96275    368.39267   -5276.9353 
18289000    135.54976   -6689.6166   -6340.9231   -6689.6166            0    6788.0519    23.283257    21.105878    21.546729    10588.355     5678.462    7534.5719     7151.122    226.25318    469.90947    23.179462   -5292.7101 
18290000     130.4804   -6689.5025   -6353.8496   -6689.5025            0    6316.4528    23.298976    21.143046    21.546656    10614.127      6386.29    6242.0899    6320.9786   -297.79169   -388.39702    44.301539    -5376.087 
18291000    129.33306   -6685.4614     -6352.76   -6685.4614            0    6841.6308    23.262382    21.163863    21.503696     10586.74    6330.8887     7903.723    6290.2807   -707.45738    657.47613   -571.76925   -5296.4344 
18292000    127.86748   -6676.1199   -6347.1886   -6676.1199            0    6526.1787    23.317529    21.108208    21.555231    10609.296    6351.2932    7542.6774    5684.5654    128.41108   -425.93245   -142.08235   -5337.4211 
18293000    133.67056    -6676.423   -6332.5636    -6676.423            0    6100.9113    23.369212    21.190588    21.439511    10617.003     5153.936    6320.0992    6828.6988   -671.18012    5.9710022   -167.19186   -5387.9101 
18294000    132.99857   -6680.8026   -6338.6719   -6680.8026            0    7044.7718      23.2134    21.192882    21.512568    10583.298    7950.7967    6124.4148     7059.104    532.79891   -576.54347    -20.05851   -5251.3357 
18295000     125.8965   -6702.2963   -6378.4352   -6702.2963            0     6842.492    23.244243    21.197207    21.468241    10577.682    6253.7527    7005.5645     7268.159    959.01312   -483.79344    232.90623   -5322.8807 
18296000    132.07222   -6681.7535   -6342.0057   -6681.7535            0    6343.6564    23.190956    21.204204    21.628874    10635.907     6833.698    6164.7982    6032.4731   -1100.7703    1139.1629     179.0705   -5358.0172 
18297000    125.97697   -6677.7973   -6353.7292   -6677.7973            0    7064.1079    23.167294    21.310704    21.403974    10567.385    6484.7068    6191.4816    8516.1353     535.0169    478.39484    1234.1706    -5265.048 
18298000    131.82186    -6675.211   -6336.1073    -6675.211            0    5987.5218    23.164907    21.255335    21.566387    10618.811    5380.7203    6607.9045    5973.9407    223.08159    501.30199    653.56152   -5408.8529 
18299000    129.71469    -6670.503   -6336.8198    -6670.503            0    6177.6539    23.178109    21.321249    21.520169    10634.972    5502.3259    6106.9141    6923.7219    181.67164   -56.230269    898.03435   -5378.6648 
18300000    129.51097   -6675.0717   -6341.9127   -6675.0717            0    6183.1172    23.176006    21.338314    21.446633    10606.151    7112.7983    5128.1905    6308.3629   -357.86702   -478.04387   -172.72521   -5385.5091 
18301000    135.87696   -6679.9322    -6330.397   -6679.9322            0     6017.827    23.020896    21.337375    21.617745    10618.755    6497.8092    6165.5985    5390.0733   -354.88774    298.49025   -106.89175   -5398.4544 
18302000    131.74969   -6697.5725   -6358.6544   -6697.5725            0    6046.8824    23.180211    21.400332    21.390982    10611.301    6136.9802    5469.8374    6533.8296    758.55451   -49.816147   -591.73691   -5422.8695 
18303000    131.26077   -6689.5625   -6351.9022   -6689.5625            0    6493.9648    22.925749    21.413994    21.611705    10609.874    8149.0505    6151.3416    5181.5023   -305.36835    -40.32669     -662.348   -5347.0641 
18304000    133.72461   -6680.8685   -6336.8701   -6680.8685            0    6161.8754    23.174691    21.354066    21.440026    10610.109    5723.7242    5311.7011    7450.2008   -325.43372    985.49257   -254.86697   -5383.3965 
18305000    132.87344   -6681.6802   -6339.8713   -6681.6802            0    6678.8804    23.036009    21.382332    21.537094    10608.389     7010.489    6568.4313    6457.7207   -25.089055   -40.642968   -226.32515   -5306.5652 
18306000     131.1693   -6663.7835   -6326.3584   -6663.7835            0    5851.6633    23.033832    21.462009    21.478013    10617.706    6623.6616    5089.9617    5841.3667    353.12681    572.92799    833.40534    -5420.238 
18307000    134.67871   -6680.9629   -6334.5101   -6680.9629            0    8020.0228    23.050522    21.387972    21.372422    10536.688    7971.0845     7399.507    8689.4768    286.54209   -318.44494    491.62389    -5102.099 
18308000    127.32261   -6673.9857    -6346.456   -6673.9857            0    6716.8207    22.990656    21.329677    21.623345    10603.727    7240.9411    7044.1504    5865.3706    192.36861    381.08273   -1217.3102   -5307.7368 
18309000    135.05562   -6685.3371   -6337.9147   -6685.3371            0    6695.8335    23.107531    21.436828    21.358752    10580.104    6380.7655    6618.2659     7088.469   -637.83924    1384.6153   -62.607201   -5304.7479 
18310000    126.44562   -6689.2181   -6363.9445   -6689.2181            0    7108.6143    23.005758    21.292391    21.627911     10594.38    8050.8563    6615.7669    6659.2196   -32.092323    297.07463   -268.37489   -5265.6055 
18311000    132.91825   -6684.3692   -6342.4451   -6684.3692            0     7129.629     23.12315    21.410876    21.348961    10569.591     7009.074    6050.7868    8329.0262    1010.8649    -295.3395    -89.43127   -5243.4367 
18312000      131.658   -6677.8053   -6339.1231   -6677.8053            0    6011.5188    23.069797    21.335086    21.596138    10629.535    5731.6429    5957.6515    6345.2619   -245.37867    64.586789    -59.94645   -5407.2123 
18313000    136.09223   -6665.5178   -6315.4288   -6665.5178            0    7601.8547    23.102406    21.279269    21.498231     10568.58    8214.4694    7095.0708     7496.024    -178.8732   -513.62931    783.17706   -5143.7404 
18314000     129.1779   -6681.5214   -6349.2191   -6681.5214            0    5889.7792    23.218603    21.278593    21.485129    10614.926    5835.5244    5609.2704    6224.5427    835.03767   -537.75835   -254.29488   -5437.4353 
18315000    126.80909   -6698.4173   -6372.2087   -6698.4173            0    6122.8016    23.145045    21.279428    21.559764    10618.471    6038.7692    6198.8562    6130.7794   -256.70973    457.16515   -331.63353   -5424.0346 
18316000    134.84481   -6674.2989   -6327.4188   -6674.2989            0    6817.5052    23.260832    21.203982    21.463689    10586.369     6199.414    7990.6396     6262.462    1102.7317    561.82553   -191.04116   -5274.8551 
18317000    127.98329    -6698.981   -6369.7518    -6698.981            0    6212.8259     23.16363    21.223439     21.61083     10624.14    6371.2437    6374.5261    5892.7078     340.1817    581.10664    908.08243   -5407.1229 
18318000    130.83092   -6693.5198   -6356.9652   -6693.5198            0    6882.2227    23.320231    21.176744    21.436624    10586.403    6225.6712     7494.612    6926.3848   -50.871323    138.88113   -295.60784   -5294.4063 
18319000    124.78706   -6691.7997   -6370.7926   -6691.7997            0    6121.0313    23.230077    21.197131    21.552343    10612.611    5439.1188    6915.4936    6008.4815   -377.26357   -967.28518   -624.87606   -5423.4158 
18320000    130.62794   -6680.8226   -6344.7902   -6680.8226            0    7649.5235    23.181361     21.16129    21.495714    10544.669    7798.1147    7734.8084    7415.6475    262.04975    120.40472   -445.26829   -5168.4222 
18321000    132.04349   -6681.7548    -6342.081   -6681.7548            0    6413.2497    23.220887     21.22798    21.520154    10607.984    5434.3231    6908.7233    6896.7027   -62.635073    1085.6621    269.80908   -5349.9091 
18322000    138.35597   -6670.7747   -6314.8624   -6670.7747            0    6674.3456    23.260439    21.201502    21.515531    10610.518    6063.7467    6381.2871     7578.003    1070.2299   -361.21178   -703.19864   -5282.0506 
18323000    130.64461   -6691.2762   -6355.2009   -6691.2762            0    6628.1278    23.204926    21.248402    21.483731    10592.932    6516.7224    6199.7557    7167.9052    336.54943     80.45361    99.888625    -5331.241 
18324000    130.02277   -6678.8881   -6344.4124   -6678.8881            0    6949.2608    23.187394    21.189543    21.554608    10590.432    7680.0566    6700.4415    6467.2842     125.8904   -543.37386    122.29658   -5271.0951 
18325000    129.42409   -6681.4397   -6348.5041   -6681.4397            0    6655.0474    23.281352    21.214615    21.458599    10598.508    6611.6101    6496.9355    6856.5966   -1591.2576     877.7073   -396.30953   -5319.8444 
18326000    129.81248   -6681.6605   -6347.7258   -6681.6605            0    6649.3661    23.115876     21.20445    21.638184     10606.16    7747.5376    6229.6214    5970.9393    227.19223   -1133.5956    -344.5153    -5319.202 
18327000    126.57981   -6684.9096   -6359.2908   -6684.9096            0    6596.0616    23.229653    21.231642    21.479373    10593.706    5855.4357    7345.1172     6587.632    52.943864    597.03375   -353.91073   -5340.2102 
18328000    139.01874   -6685.5278   -6327.9105   -6685.5278            0    5301.9227    23.218749    21.335793    21.512901    10657.285    4623.0761    5086.2262     6196.466   -446.26722    478.36525    16.420347   -5503.8561 
18329000    124.91709   -6677.7538   -6356.4122   -6677.7538            0    7026.0167    23.144049    21.253292    21.522879    10586.829    6575.5449    7358.3363    7144.1689   -635.67542    536.80513   -245.46872   -5271.6089 
18330000    133.37346   -6666.8594   -6323.7643   -6666.8594            0    6993.3309    23.153739    21.258996    21.492847    10579.322    6589.8029    7209.7962    7180.3937    392.15559    8.3581728    508.64025   -5244.7734 
18331000     121.8008   -6669.8536   -6356.5285   -6669.8536            0     6435.065    23.143094    21.280676    21.557227    10616.949    7233.6585    5849.7619    6221.7745   -292.57741   -529.00978    865.36462   -5360.1403 
18332000     128.2784   -6677.3559   -6347.3675   -6677.3559            0    7549.5281    23.227127    21.223705    21.412854    10555.803    7825.9567    7435.7015    7386.9263   -296.28374   -219.37239   -891.03335   -5185.1512 
18333000     136.1854    -6699.823   -6349.4943    -6699.823            0    5969.6908    23.160649    21.294742    21.507661     10607.58    6313.0291    5772.5908    5823.4525   -55.763989    107.20535    486.17038   -5425.9791 
18334000    137.39364    -6670.289   -6316.8522    -6670.289            0    7060.5739    23.113909    21.179654    21.635815    10591.696    6990.5477    8274.2943    5916.8796    518.05437   -249.61303    179.54388   -5226.2122 
18335000    129.59488   -6684.4683   -6351.0933   -6684.4683            0    5851.2439    23.291463    21.361148    21.370541    10632.537    5964.5183    5480.1927    6109.0206   -1025.4266   -784.27357   -807.76041   -5443.7723 
18336000    130.73596   -6686.7796   -6350.4693   -6686.7796            0    6731.3119    23.148359    21.245701    21.493864    10570.749    6302.8076    7831.1174    6060.0106    530.10368    967.63632   -350.29707   -5312.7465 
18337000    127.29454   -6688.8098   -6361.3523   -6688.8098            0    7116.2388    23.049214    21.217647    21.576894    10552.182    7429.4185    7996.2545    5923.0433    713.30108    145.05121   -165.77723   -5266.2148 
18338000    128.36773   -6670.6513   -6340.4332   -6670.6513            0     6214.348    23.246094    21.319743     21.39709    10604.414    5798.0183     6371.302    6473.7236   -839.29941    215.31159   -1177.5428   -5379.3563 
18339000    129.38384   -6701.7649   -6368.9329   -6701.7649            0    7039.0492    23.112345    21.200897    21.564784    10566.797    7208.2545    7115.7631      6793.13   -46.448034    273.65732   -16.121324   -5284.1739 
18340000    121.49687   -6672.3794   -6359.8361   -6672.3794            0    5003.8155    23.230057    21.267945    21.613451    10678.246    5628.7895    4205.5471      5177.11    603.38527    442.45649    646.26608   -5580.5856 
18341000    126.30446   -6686.1627   -6361.2521   -6686.1627            0    7277.7167    23.226177    21.254262    21.415066     10571.66     6680.407    7953.2365    7199.5067   -6.2684798    -154.6419    -1398.339    -5239.197 
18342000     130.6174   -6680.3691   -6344.3637   -6680.3691            0    7353.4132    23.204742    21.267862    21.445283    10583.575    6015.9833    7706.4156    8337.8408   -589.77921    1443.7067    527.81639   -5209.3602 
18343000    128.45132   -6681.6198   -6351.1866   -6681.6198            0    5223.6044    23.211071    21.229537    21.647036      10666.8    5051.9821    6160.8558    4457.9753    327.04822    24.040694   -318.61145   -5538.5801 
18344000    131.35073   -6670.8771   -6332.9853   -6670.8771            0    8208.1788    23.186091    21.229992    21.410411    10539.072    7290.7489    9021.6837    8312.1039    461.26027   -328.18784   -952.94568   -5071.3755 
18345000    128.34723   -6699.6847   -6369.5193   -6699.6847            0    6488.5673    23.204308    21.311336    21.441326    10603.053    6570.3126     5466.419    7428.9704    -495.9077   -103.01729    478.15659   -5366.1619 
18346000    133.71507   -6675.9033   -6331.9294   -6675.9033            0    6465.7797    23.010859    21.208769    21.748639    10614.031    7611.7277    7037.9875    4747.6239    86.405162   -589.94305    344.72112   -5331.0606 
18347000    131.13023   -6687.6146     -6350.29   -6687.6146            0    6538.5042    23.278561    21.297639    21.395563    10607.458    6366.3382    5437.5174    7811.6569    17.970573   -70.172415     450.9022   -5338.7907 
18348000    121.88593    -6687.383   -6373.8388    -6687.383            0    5176.6284    23.185624    21.183709    21.726561    10671.164    4623.9694    6917.1895    3988.7262   -163.40975   -291.36017    229.67043   -5568.2106 
18349000    130.47421   -6676.2831   -6340.6462   -6676.2831            0    7874.6562    23.237511    21.149193    21.474749    10553.864    7147.9182    8399.0044    8077.0461    611.61106   -307.46376     1255.126   -5128.6005 
18350000    128.90928   -6688.1031   -6356.4919   -6688.1031            0    7122.8342    23.207109    21.201501    21.533355    10594.961    6810.2052    8147.3016    6410.9959    719.83247   -1034.0163   -165.73838   -5255.8955 
18351000    123.69743   -6680.3516   -6362.1474   -6680.3516            0    7055.6086    23.287528    21.153276     21.51008    10596.027     7687.986    7890.3649    5588.4748   -351.72058   -435.70059   -1102.6219   -5271.8288 
18352000    127.14814    -6676.523   -6349.4422    -6676.523            0     6399.052    23.234316    21.183933    21.551132    10607.342    5934.0999    7818.9023    5444.1539   -115.69718    147.76463    80.183961   -5359.5268 
18353000    130.91405   -6667.1835   -6330.4151   -6667.1835            0    6424.3431    23.146607    21.262591    21.589987     10625.66    6233.4946    6708.1196    6331.4152   -568.76695     524.6976    516.55215   -5334.8709 
18354000    130.61723   -6680.2481   -6344.2433   -6680.2481            0    6373.2293    23.194058     21.32186    21.457932    10611.816    6813.4684    6437.2572    5868.9623    38.594621   -839.70063   -958.80827   -5357.9067 
18355000    133.93541   -6683.1517    -6338.611   -6683.1517            0    6809.0747    23.105341    21.309454    21.518838    10595.063    6589.8225    7923.2483    5914.1532    1030.7072   -572.67396   -335.80253   -5286.4856 
18356000    126.95769    -6679.003   -6352.4121    -6679.003            0    6674.4807    23.123115     21.28557    21.494725    10579.461     7582.974     5998.723    6441.7452    136.73575    181.14257    130.08127   -5322.6026 
18357000    129.96148    -6692.405    -6358.087    -6692.405            0    5530.3046    23.097573    21.323517    21.580568    10628.894    6196.1261    5665.8825    4728.9052   -581.10678   -1507.6002    81.977611   -5500.8261 
18358000    133.52909   -6689.3428   -6345.8474   -6689.3428            0    7633.6447    23.205051    21.252728    21.411887    10559.714    6625.2953    7317.8487    8957.7901   -117.95049   -251.74685   -288.56558   -5170.2462 
18359000    128.56286   -6688.0996   -6357.3794   -6688.0996            0    6212.6248    23.140514    21.313092    21.500902    10604.157    6679.9383    6125.1323    5832.8039    88.917837   -115.91346    780.88366   -5396.5923 
18360000    122.38688   -6664.6198    -6349.787   -6664.6198            0    7118.6404    23.145705    21.192057    21.582543    10586.348    7558.7506    7337.8813    6459.2894    508.56103    457.83446   -74.143655   -5250.7328 
18361000    125.09207   -6668.3437    -6346.552   -6668.3437            0    5843.7311    23.182152    21.419464    21.418052    10635.118    5771.9707    4691.9081    7067.3144   -900.27793    -301.0122     677.1827   -5440.1759 
18362000    128.64767   -6670.7969   -6339.8586   -6670.7969            0    6688.9281    23.095217    21.267072    21.564459    10591.764    7185.7679    6341.6486    6539.3677     437.2574    583.24209   -62.015606   -5306.6198 
18363000    129.97923   -6676.0547   -6341.6911   -6676.0547            0    6412.4743    22.989448    21.471346    21.481972    10603.811    6798.9922    6200.5988    6237.8318   -108.86974    683.65055    904.69355   -5350.0295 
18364000    132.86509   -6680.2038   -6338.4165   -6680.2038            0    6356.8394    23.117162    21.306309    21.531504    10605.158    6084.9569    7340.7086    5644.8527    819.74978   -366.99706   -611.09753   -5355.2337 
18365000    130.07761   -6671.5503   -6336.9336   -6671.5503            0    7555.5458    23.109392    21.261884    21.493838     10560.98    8942.9498    6860.8074    6862.8804   -144.47425   -1469.6638    -80.95864   -5173.2204 
18366000    120.95818   -6680.7741   -6369.6165   -6680.7741            0     6836.237     23.22429    21.265926    21.463421    10600.484    5877.3008    7161.8489    7469.5612     593.4675    15.934469    363.28124   -5312.7535 
18367000    123.54832   -6693.9317   -6376.1112   -6693.9317            0    7201.8492    23.186301     21.22057    21.499046    10578.101    6820.5531    8020.5398    6764.4546     264.4915   -1078.7855    450.78575   -5265.0766 
18368000    128.37521    -6688.948   -6358.7106    -6688.948            0    6631.7568     23.29893    21.184314    21.441237    10582.791    5969.4689    6627.7762    7298.0253    422.45211   -29.230455    121.72817   -5335.1709 
18369000    130.12359    -6683.668    -6348.933    -6683.668            0    6743.7369    23.190903    21.140603    21.592923    10586.355    7997.4928    7150.4217    5083.2962    -148.2593   -1233.6911    324.97564   -5307.7598 
18370000    129.77424   -6686.9027   -6353.0663   -6686.9027            0     6466.711    23.208298    21.257966    21.504116    10609.297    6493.4767    6240.2245    6666.4317   -474.55516    71.123005    752.06306   -5352.4999 
18371000    127.09351   -6675.0045   -6348.0642   -6675.0045            0    6675.4825    23.286174     21.11659    21.552949    10598.115    6841.1695     7046.256     6139.022   -65.494177    97.730113   -293.12542    -5316.284 
18372000    131.42988   -6661.7661   -6323.6707   -6661.7661            0    7490.5293    23.229344    21.196157     21.50947    10590.678    6867.0975    7913.0865    7691.4038    144.68638   -291.12318    81.442392   -5166.7272 
18373000    126.07875   -6678.6783   -6354.3484   -6678.6783            0    5661.6529    23.298761    21.144682     21.58588    10634.173    4958.6156    6196.5429    5829.8002     532.1152    320.86303   -189.05225   -5476.2911 
18374000    127.39957    -6669.126   -6341.3984    -6669.126            0    6678.5125    23.173288    21.271383    21.490411    10593.223    6656.0783    7514.3813    5865.0778   -45.983652    254.74914   -523.52457   -5309.6264 
18375000    135.06407   -6676.5066   -6329.0625   -6676.5066            0    6837.3346    23.131172    21.292214    21.520385    10599.088     6977.893    6384.5095    7149.6011    1361.4069   -1308.3941    325.85752    -5272.169 
18376000    132.92031   -6694.5485   -6352.6191   -6694.5485            0    5873.1962    23.094749    21.353897    21.525671    10615.662    5544.5153    6697.6048    5377.4684   -28.261083    661.95952    437.53394   -5443.3394 
18377000    133.63189   -6694.3781   -6350.6182   -6694.3781            0    7046.4028    23.053032    21.293153    21.549319    10577.951    7096.7886    7451.7223    6590.6976    1777.9684   -199.42329   -126.47553   -5263.5797 
18378000    133.98607   -6693.4893   -6348.8183   -6693.4893            0    6346.4775    23.182253    21.343889    21.449717    10613.308    6631.1959    5952.8182    6455.4185    962.81532   -1270.5982    485.60791   -5366.4838 
18379000    133.56234   -6668.1026   -6324.5216   -6668.1026            0    7020.9053    23.092689    21.290993     21.53318    10587.138    7431.2327    6676.8379    6954.6452   -1314.1435    959.21141   -754.94507   -5240.4759 
18380000    123.13543   -6688.3081   -6371.5497   -6688.3081            0    6449.8016    23.132256    21.433839    21.364898    10592.995    6036.2825     6029.168    7283.9542   -331.13706    141.03563    -381.0121    -5375.133 
18381000    124.08159   -6689.7363    -6370.544   -6689.7363            0    6111.0986    23.043882    21.367129     21.59763    10634.276    5962.6727     5751.805    6618.8181    428.43021    914.69634    438.36887   -5422.7737 
18382000    132.60436   -6665.3156   -6324.1989   -6665.3156            0    7599.9097    23.019612    21.398707    21.456496    10569.254    8100.3087    6291.6051    8407.8152    201.58311   -548.91444    171.79169   -5152.7357 
18383000    131.85317   -6679.1101   -6339.9259   -6679.1101            0    6433.9812    23.056854     21.43066    21.476798    10612.193    6629.2781    6017.3263    6655.3392    78.835869   -697.86867    299.52823   -5344.1518 
18384000    125.62574   -6687.0063   -6363.8418   -6687.0063            0    6151.4707    23.048014    21.369649    21.487476    10583.183    7126.7396    5371.2381    5956.4344   -565.54661   -731.21363    116.77808   -5414.3938 
18385000    124.63231   -6684.0903   -6363.4813   -6684.0903            0    6787.6628    23.052255    21.328502    21.544161    10592.619    7531.4563    5836.9643    6994.5678    481.53399   -1000.9289   -215.87852   -5314.9063 
18386000    132.13395   -6674.4469   -6334.5403   -6674.4469            0    6566.1983    23.175814    21.342147    21.422392    10595.978      5284.15    7911.8803    6502.5647   -552.55813    246.53812   -933.77795    -5319.856 
18387000    134.18127   -6696.9756   -6351.8024   -6696.9756            0    6575.2782     23.18476    21.189064    21.577564    10600.267    6577.5086     6810.593    6337.7329    -1340.893    72.914958   -117.49988   -5335.3037 
18388000    129.20618   -6693.8613   -6361.4863   -6693.8613            0    6068.6708    23.259664    21.227333    21.487408    10609.207     5546.798    6080.3406    6578.8738    -16.45345   -208.91276     360.8705   -5422.5148 
18389000    126.58251   -6676.8567   -6351.2309   -6676.8567            0    7226.5754    23.243519    21.104058    21.525195    10558.809    7220.9544    7694.5636    6764.2083    400.89691   -4.1955996    472.92164   -5238.4149 
18390000     132.1569   -6693.2787   -6353.3131   -6693.2787            0    5489.2228    23.319599    21.100399    21.592998    10624.896    4695.3183    6926.5823    4845.7678    68.564301    43.614548   -401.88182   -5502.7404 
18391000    127.55133   -6685.7365   -6357.6184   -6685.7365            0    6031.6837    23.442447     21.10995    21.493221    10636.326     5728.968    6456.3725    5909.7107    6.0273912   -2021.8983   -362.63734   -5421.9842 
18392000    130.72168    -6678.782   -6342.5084    -6678.782            0    7200.7817    23.327876    21.089002     21.48821    10571.375    6535.2224    7799.8492    7267.2734     -158.551   -212.09838    525.30489   -5232.3448 
18393000    126.50361   -6674.5178    -6349.095   -6674.5178            0    5344.5015    23.219843    21.223351    21.603395    10646.215    5709.9191    4842.0281    5481.5574      267.253   -685.06978     303.6383   -5519.2857 
18394000    131.30836   -6687.0242   -6349.2414   -6687.0242            0    6605.2709     23.34146    21.143215    21.452851    10587.272     5952.604    6376.7603    7486.4484    226.25664   -534.04381    1290.8771   -5329.3579 
18395000    131.57978   -6659.4938   -6321.0128   -6659.4938            0    8468.9539    23.135961    21.180821    21.512863    10542.134    9070.6148    8754.4194    7581.8276   -1090.9457   -401.81966   -53.041159   -5018.9433 
18396000    130.44473    -6689.874   -6354.3129    -6689.874            0    6763.5883    23.280235    21.253234    21.408389    10592.449    5716.0066    6708.3592    7866.3992    157.48098   -169.34549    488.38858   -5309.4737 
18397000    127.54522   -6688.2239   -6360.1216   -6688.2239            0    6555.1443    23.031191    21.327179    21.591203     10605.39    7160.6797    6787.2296    5717.5237   -85.819953    -1396.533    408.54308   -5346.2457 
18398000    129.25601   -6692.7046   -6360.2014   -6692.7046            0    7105.8715    23.174572    21.280787    21.415873    10561.733    6865.4308     6678.947    7773.2367    587.23631     72.24901    260.74658   -5265.6695 
18399000    126.57805   -6663.8526   -6338.2383   -6663.8526            0    6104.0743    23.103412    21.411007    21.551867    10661.004    6870.6896    5764.7828    5676.7504   -343.34948    466.63652    129.12829    -5389.178 
18400000    127.54727   -6679.6889   -6351.5813   -6679.6889            0     6696.439    23.112871    21.257492    21.555796     10590.83    6934.1705    6651.9413    6503.2052    98.866299    1778.4293    1270.9488   -5317.2735 
18401000    133.44621   -6682.1302    -6338.848   -6682.1302            0    5843.3335    23.105131    21.366015    21.530828    10629.007    5299.6599    5943.6137     6286.727    1346.2716   -490.67268    183.91132   -5433.0543 
18402000    127.29255   -6691.7346   -6364.2823   -6691.7346            0    6019.9655    23.145113    21.313286    21.547233    10629.216     6142.573    5604.0163    6313.3071      221.664   -169.64672   -348.37151     -5431.09 
18403000    134.56996    -6670.575    -6324.402    -6670.575            0    6462.9486    23.095022    21.286211    21.537729    10588.066    6431.4973    6914.2697    6043.0789    203.02139    710.22484   -4.6415925   -5326.4188 
18404000    131.68176   -6683.5056   -6344.7623   -6683.5056            0    7333.5933     23.15868    21.247619    21.479411    10569.305    7381.2083     7308.529    7311.0425    785.32157    -183.7095   -516.07435   -5214.3441 
18405000    128.47036    -6699.264   -6368.7818    -6699.264            0    5330.2966    23.129228    21.363456    21.525367    10636.119    5592.4959    5875.4456    4522.9483    39.303322   -479.82938   -800.98622   -5541.9627 
18406000    123.09425   -6685.5268   -6368.8744   -6685.5268            0    7843.4804    23.070416     21.27309    21.489011    10546.356    8753.3627    7887.0713    6890.0073   -51.238947   -12.065369    60.847912    -5162.486 
18407000    124.00732   -6680.5081   -6361.5068   -6680.5081            0    5790.9792    23.116617     21.37002    21.494248    10618.213    6037.4931    5270.7133    6064.7312    418.77306    -217.7431     791.2151   -5464.7404 
18408000    128.96601   -6686.5091   -6354.7519   -6686.5091            0    7695.4671    23.133555    21.267025    21.433256    10544.774    7454.7791    8002.4973    7629.1249   -715.98742    630.52529    635.49924   -5171.3068 
18409000     129.7017   -6688.8087    -6355.159   -6688.8087            0    5028.7504    23.190359    21.342823    21.584575    10683.236    4652.1259    5916.0702     4518.055   -337.93175    53.393473   -96.345924   -5571.6594 
18410000    134.75894   -6691.9016   -6345.2425   -6691.9016            0    8034.8818    23.188104    21.345468    21.277004    10531.286    7712.9401    7616.8685    8774.8368   -337.21613    406.10598   -165.42431    -5111.181 
18411000    122.07064    -6682.494   -6368.4747    -6682.494            0     5855.149    23.086057    21.295407    21.635121    10636.409    6138.5564    5484.8707    5942.0199    584.69524    110.46886    173.79642   -5460.2174 
18412000    125.29948   -6667.3063    -6344.981   -6667.3063            0    6801.8171    23.161846    21.320637    21.460729    10597.851    5992.4489     7657.534    6755.4684    1176.0013    695.79319   -552.86956   -5293.7004 
18413000    131.13167   -6685.0267   -6347.6985   -6685.0267            0    6992.9776    23.034104    21.367602    21.514571    10589.119     7065.479    6366.3572    7547.0965    -104.0494    169.33607   -540.56092   -5267.7629 
18414000    129.46421   -6692.1083   -6359.0695   -6692.1083            0    6259.5876    23.147498    21.278714    21.505614    10592.568    6314.5089    6833.8614    5630.3927    -1059.579     541.4951   -1181.8499   -5392.0775 
18415000    126.83234   -6674.6662   -6348.3978   -6674.6662            0    6833.4188    23.148917     21.37584    21.402461    10590.528    7005.9207     5968.915    7525.4207    691.02012   -15.712007    284.58655   -5292.9627 
18416000     133.7405   -6673.0627   -6329.0234   -6673.0627            0    6487.1025    23.001854     21.27725    21.663825    10602.627    6758.3628    6482.6432    6220.3014    1274.3762   -277.68503    -754.2018   -5325.9329 
18417000     130.1773   -6688.0433   -6353.1701   -6688.0433            0    6468.2321    23.173056    21.310003    21.432969    10583.984    5569.5912    7034.9992    6800.1057   -177.86271    1097.4759    66.200089   -5354.7561 
18418000    133.23914   -6677.4863   -6334.7367   -6677.4863            0    5426.2921    23.176166    21.258271    21.606238    10645.074    6480.4149    4573.6517    5224.8096    32.130467   -606.45777    466.41966   -5492.3185 
18419000    131.90747     -6657.72    -6318.396     -6657.72            0    6932.3596    23.232757    21.280832    21.425985    10593.273    6806.9373    7348.6654    6641.4762   -446.84214   -937.49593   -195.65626   -5247.4018 
18420000    127.76464   -6683.8246   -6355.1578   -6683.8246            0    5896.4126    23.183604    21.253981    21.583258    10635.018    5213.1626    6861.6775    5614.3977   -99.137797    1220.5416   -705.61399   -5440.6194 
18421000    132.44502   -6683.9115   -6343.2047   -6683.9115            0    7755.5006    23.127101    21.298698    21.434236    10558.014    7760.4989    7624.5453    7881.4576   -509.16058   -157.80264   -117.98717   -5149.0297 
18422000    130.53109   -6679.9813    -6344.198   -6679.9813            0    6288.0519    23.194048    21.346837    21.413578    10602.281    6511.9665     5484.786    6867.4032    218.04559    833.83305    147.09335    -5371.918 
18423000    128.81725   -6685.9819   -6354.6073   -6685.9819            0     7240.225    23.026318    21.300806    21.558512        10574    8729.0767    6554.7995    6436.7988   -424.68249   -530.68981   -441.07778   -5238.0854 
18424000    129.41173   -6690.9165   -6358.0128   -6690.9165            0    6146.9817    23.133817    21.403375    21.391055    10591.605    7136.4654    5092.7519    6211.7277    656.90065   -606.87704   -249.07855   -5408.5027 
18425000    128.68074   -6680.4678   -6349.4444   -6680.4678            0     6220.585    23.087651    21.274508    21.623397    10620.946    6303.8319      6905.41    5452.5131    158.32923   -591.71782   -213.00007   -5385.9031 
18426000     127.0188   -6688.9249   -6362.1768   -6688.9249            0    6028.4827    23.232232    21.314181    21.448321    10620.694    5460.0474    5340.0269    7285.3737   -219.22168   -241.33488    -388.3709   -5428.4135 
18427000    132.85772   -6664.1787   -6322.4103   -6664.1787            0    6776.1392    23.223116    21.252366    21.468675    10595.782    6424.9543    6568.0093    7335.4541    321.81708   -927.74704    161.99971   -5275.3029 
18428000    128.05842    -6667.813   -6338.3905    -6667.813            0    6315.1572    23.139396    21.215318    21.626722    10616.766     6342.715    6242.3544    6360.4023   -163.60712    155.25972    421.95858   -5360.5854 
18429000    128.80006   -6677.6025   -6346.2722   -6677.6025            0    6481.9171    23.242118    21.277996    21.428415     10597.33    6444.0599    6644.6177    6357.0737   -187.62825    103.67318    80.131707   -5344.4842 
18430000    132.95702   -6681.2086   -6339.1848   -6681.2086            0    6933.7062    23.033255    21.223563    21.639149    10578.249     8025.887    5850.9502    6924.2813   -475.84006    231.35983    229.46691   -5269.5018 
18431000    127.52638   -6675.8249   -6347.7711   -6675.8249            0     6927.598    23.248569    21.359673    21.314951    10584.618    5382.9883    6569.2252    8830.5806    470.80286    257.06491    3.1119123   -5278.3869 
18432000    129.58736   -6668.2321   -6334.8765   -6668.2321            0    6749.7469    23.182104    21.216821    21.517161    10583.228    5919.8916    8046.4852    6282.8639     1263.597   -88.786335   -850.76155   -5293.0833 
18433000    127.17232   -6689.1175   -6361.9745   -6689.1175            0     7148.816    23.118764    21.270581    21.525771    10585.288    8007.4564    6702.6098    6736.3819   -1208.6964    397.92342   -414.78416   -5258.3719 
18434000    131.53033   -6698.1829   -6359.8292   -6698.1829            0    6091.8336    23.255075    21.271829    21.436546    10604.187    5540.8985    6578.6132    6155.9889    276.67161   -263.83702   -378.91431   -5417.7198 
18435000    130.90134   -6678.9743   -6342.2386   -6678.9743            0    4841.6906    23.157081    21.271641    21.692447    10685.463    3942.6223     5893.259    4689.1905    107.68224    597.36666    613.69686   -5587.7264 
18436000    135.27034   -6679.3969   -6331.4222   -6679.3969            0    6587.2738    23.307554    21.286693    21.381107    10608.039     5697.711    6701.5096    7362.6007   -776.37576    238.72851   -78.569814   -5312.3224 
18437000    126.10685   -6688.1021   -6363.6999   -6688.1021            0    7244.8417    23.131175    21.206873    21.579827    10585.766    7586.7914    7559.6377     6588.096   -7.7616917    66.987511    49.632177   -5245.2228 
18438000    134.36527   -6677.5324    -6331.886   -6677.5324            0    7169.2036    23.171774    21.313776    21.420972    10579.347    6160.2815    8278.7401    7068.5894    154.58939   -287.29148    418.89807   -5225.7572 
18439000     126.8845   -6695.5497   -6369.1471   -6695.5497            0    6720.2751    23.100988    21.237248    21.559538     10577.14    6971.8219    6919.0403    6269.9632   -686.55548    67.586126   -51.461624   -5332.4994 
18440000    135.88546   -6670.7073   -6321.1503   -6670.7073            0    5559.5786    23.163607     21.30127    21.556155    10636.114    6029.2421     5668.227    4981.2666    71.001243   -81.978375   -535.84776   -5458.7662 
18441000    132.62995   -6677.1735   -6335.9911   -6677.1735            0    6711.4622    23.135515    21.336324    21.530179    10627.874    7040.1265     5905.117    7189.1432    98.595646     -251.496    274.87608   -5295.7369 
18442000    127.34528   -6670.2369   -6342.6489   -6670.2369            0    6415.4125    23.023665    21.392291    21.593417    10635.383    8169.5959    5299.2972    5777.3445    -903.6486    568.34456    -460.1421    -5347.579 
18443000    128.75419    -6686.463   -6355.2507    -6686.463            0     5741.488    23.073976    21.516812    21.430369    10639.716    5970.5996    4960.7667    6293.0977   -371.04045   -289.23511    373.99844   -5464.3478 
18444000    127.25806   -6672.8822   -6345.5186   -6672.8822            0    5547.5725    23.113774    21.326056    21.599183    10646.791    6318.6023    5859.0929    4465.0224    711.65385    -108.9807   -191.91197    -5484.133 
18445000    134.14549   -6674.1982   -6329.1171   -6674.1982            0    8333.2825    23.109748    21.305888    21.365493    10519.807     8301.676    7723.9802    8974.1912   -360.36248    154.65306   -103.04056     -5050.62 
18446000    131.20274   -6687.5486   -6350.0375   -6687.5486            0    7670.9922    23.143862    21.282712    21.425312    10553.341    8113.0111     6971.507    7928.4585    477.12008   -1010.5275    14.777637   -5169.3978 
18447000    129.32373   -6678.6076   -6345.9302   -6678.6076            0    6323.3613    23.130055    21.237891    21.609004    10615.069    5502.4179     7017.583    6450.0829   -776.56094     1493.606    813.01025   -5367.0114 
18448000    132.88397   -6679.5886   -6337.7527   -6679.5886            0    6701.2225    23.214187    21.229176    21.488211    10589.778    5745.5107    7445.0794    6913.0773    530.69995    632.29942   -193.85927   -5302.8089 
18449000    130.17343   -6669.9967   -6335.1335   -6669.9967            0    7043.6409    23.337504    21.130174    21.479217     10591.95    6851.7836    7102.3797    7176.7594    330.48143    205.93577    526.83784   -5247.0831 
18450000    123.08704   -6672.7355   -6356.1016   -6672.7355            0    6825.1993    23.263495    21.120414    21.630908    10628.015    6981.5237    7135.6846    6358.3897   -558.04283    118.64084   -331.61555   -5298.2046 
18451000    135.40061   -6692.8419   -6344.5321   -6692.8419            0    6832.7646    23.292249    21.219041    21.432795    10592.927    6010.1353    7396.1332    7092.0253   -815.91196    419.94951   -302.80222    -5288.959 
18452000    132.44496   -6686.4475   -6345.7409   -6686.4475            0     6286.614    23.199419    21.202155    21.543723    10596.876    7134.2746    6227.3968    5498.1708    -297.8626   -1006.7226     167.4769   -5374.1789 
18453000    122.90642    -6688.874   -6372.7048    -6688.874            0    6539.0752    23.195881    21.195953    21.579004    10609.508      7532.52    6766.6605     5318.045   -1112.6642   -879.34772   -1084.2494   -5360.9216 
18454000    125.62905   -6675.0726   -6351.8995   -6675.0726            0    7025.4182    23.277396    21.203684    21.460858    10592.362    6654.5638    7110.9242    7310.7666    214.02245   -362.31338    1168.7342   -5266.6218 
18455000    128.80767   -6688.9311   -6357.5813   -6688.9311            0    6772.1393    23.197447    21.220917    21.516568    10591.984    7256.5384    6707.3878    6352.4918   -371.91622   -9.7591762    165.28555   -5311.4671 
18456000    125.06941   -6687.0908   -6365.3574   -6687.0908            0    6412.5095     23.20267    21.246981    21.489885    10594.227    5414.1544    7437.5879    6385.7861   -831.55299     295.9364   -839.51468   -5374.5866 
18457000    127.22181   -6689.9052   -6362.6349   -6689.9052            0    6764.0743    23.188014    21.238634    21.496288    10586.529    6764.8221    6039.2644    7488.1363    801.97987   -643.44884    215.87884   -5318.3046 
18458000    127.48733   -6672.6162   -6344.6628   -6672.6162            0    6530.3019    23.148694    21.213178    21.568181    10591.214    7189.4697    5662.1523    6739.2836    160.49842    40.544816     54.76238   -5335.9794 
18459000     127.0695   -6664.3709   -6337.4923   -6664.3709            0    6541.7166    23.294196    21.228937    21.474027    10619.143    6128.2914    7050.1234    6446.7351     1168.218    743.91073    356.77263   -5324.3812 
18460000    134.49203   -6695.5152   -6349.5426   -6695.5152            0    6097.1758    23.156724    21.263471    21.523047    10597.783    6280.0088    6411.7304    5599.7881    196.80172   -299.98829   -520.70533   -5407.1765 
18461000    126.24077   -6663.7567     -6339.01   -6663.7567            0    7485.0266    23.274002    21.181271    21.444423     10571.52    6410.1051    8579.0165    7465.9583    1019.3191    759.87478   -123.60272   -5185.0077 
18462000    127.85936   -6688.5473   -6359.6368   -6688.5473            0    6787.0191    23.084102    21.289115    21.576618    10603.616    7493.1175    5864.1248    7003.8149   -584.60659   -120.95511    410.77577   -5310.0728 
18463000    128.72472   -6686.4604   -6355.3239   -6686.4604            0    5597.5938    23.232205    21.304761    21.490515    10636.872    4781.0946    6918.7208    5092.9658   -281.20633    639.49873   -250.39288   -5486.9811 
18464000    134.88349   -6696.8572   -6349.8776   -6696.8572            0     6370.304    23.049581    21.365452    21.539902    10607.642    8083.3451    5216.9932    5810.5739   -1656.2854    479.17628      277.261   -5364.3815 
18465000    126.07097   -6687.9152   -6363.6053   -6687.9152            0    7014.4165    23.084686    21.341826    21.484898    10584.951    7790.9136    5769.4804    7482.8556    989.13554    576.26439    178.61744   -5280.7852 
18466000    128.50537   -6682.7986   -6352.2263   -6682.7986            0    6310.6865     23.14447    21.334197    21.483935    10608.094    6612.6568    6163.6649    6155.7376   -143.45982   -318.11823    179.67073   -5375.9116 
18467000    127.98777     -6672.87   -6343.6293     -6672.87            0    7681.4441    22.992422     21.32132    21.549882    10564.373    8744.4647    7195.7758    7104.0918   -376.20436   -106.18169   -1208.6066    -5160.145 
18468000    131.82539    -6672.918   -6333.8052    -6672.918            0    7531.7263    23.047751     21.38481    21.426641    10560.587    7475.9968    7492.7692     7626.413   -487.54408    184.71941    131.91496   -5173.8039 
18469000    129.47233   -6688.7467    -6355.687   -6688.7467            0     5674.967    23.105195    21.357185    21.542259    10630.284    6525.1933    5293.5342    5206.1735    536.20229   -224.92515   -439.62824   -5475.8867 
18470000    124.27763   -6686.4165   -6366.7199   -6686.4165            0    6753.2937    23.022191    21.422382    21.471971    10589.765    7025.7726    6090.7997    7143.3088    236.61055   -724.34723     77.81811   -5323.7354 
18471000     122.3573   -6669.9154   -6355.1587   -6669.9154            0    6632.8043    23.176979     21.35624    21.387653    10586.314    5809.2452     7121.996    6967.1718     160.9161    626.93979   -885.93166   -5331.1166 
18472000    130.88116    -6693.566   -6356.8822    -6693.566            0    7586.8702    23.046792    21.223062    21.601996    10566.044    7816.2651     7677.444    7266.9017   -1073.0297    583.32413   -81.153968   -5187.7841 
18473000    129.21066   -6686.7424   -6354.3558   -6686.7424            0    7360.2908    23.233104     21.22218    21.418477    10560.533    6291.3879    7328.6533    8460.8312    486.58438   -481.20198     917.2412   -5220.7641 
18474000    137.09777   -6687.4322   -6334.7565   -6687.4322            0    6293.0807    23.216522    21.277418    21.496946    10619.226    5788.6251    6311.4762    6779.1408   -590.56875    427.95965    110.24691   -5360.1439 
18475000    130.42946   -6693.7238    -6358.202   -6693.7238            0    6129.4345     23.21704    21.163479    21.616128    10621.156    6344.8419    6593.9193    5449.5422   -417.45689    604.48824     438.7799   -5408.7607 
18476000    129.35034   -6684.5828   -6351.8369   -6684.5828            0    6207.8641    23.315183    21.290154    21.400379    10622.803    5472.0246    5712.2604    7439.3073   -78.742857    428.98547    678.00901    -5390.098 
18477000    133.07465   -6660.3094   -6317.9829   -6660.3094            0    7633.1082    23.071496    21.186788    21.666715    10590.927    7903.0157    8717.6947    6278.6143   -203.92844   -112.93973   -1109.0143   -5138.9898 
18478000    132.19526   -6668.7657   -6328.7014   -6668.7657            0    5644.3671    23.217195     21.34911    21.439965    10627.072    4448.0465    6138.6715    6346.3834    1421.5351    1311.6992    151.92295   -5453.9095 
18479000    128.09713   -6667.3666   -6337.8446   -6667.3666            0     6847.661    23.091423    21.315787    21.522273    10593.518    6876.9559    7545.3423    6120.6849    633.06178   -390.87532   -737.28453   -5279.9111 
18480000    133.13141   -6671.5261   -6329.0537   -6671.5261            0    6555.2819    23.009875    21.431939    21.506278     10605.74    7445.9028    6495.0604    5724.8824   -519.69768     268.3451    -1258.106   -5315.1231 
18481000    133.58339   -6672.9972    -6329.362   -6672.9972            0    7016.5044    23.021837    21.412887     21.46416    10581.058    6977.3173    5546.7746    8525.4213    17.799182    1584.1784    1507.7318   -5246.6181 
18482000    129.18106   -6675.3804     -6343.07   -6675.3804            0      6229.72    23.065877    21.396114    21.499938    10610.652     6156.563    5657.5905    6875.0067    605.02406     31.12673   -2.6708632   -5379.0489 
18483000    129.41955   -6690.6401   -6357.7162   -6690.6401            0    6054.8791       23.091    21.471659    21.412724    10616.473    6244.1774     5001.331     6919.129   -252.27527     921.3689   -489.17309   -5420.2371 
18484000    127.19176   -6678.2553   -6351.0623   -6678.2553            0    5819.9823    23.040069     21.32245    21.615533    10619.078    7034.2353    5470.8672    4954.8444   -991.39407    372.61406    207.51788   -5449.7311 
18485000    137.47563   -6701.2013   -6347.5536   -6701.2013            0    7287.5795    23.129742    21.287362    21.457183    10564.899    7569.3469    7674.9997    6618.3921    826.87035   -1117.5979   -119.19746   -5224.6964 
18486000    128.24284   -6684.5389    -6354.642   -6684.5389            0    6198.3238    23.180656    21.290965    21.558756    10640.077    5758.6736    6746.5677    6089.7302   -668.03693    1079.8507   -290.15517   -5392.8196 
18487000    128.10532    -6690.525   -6360.9818    -6690.525            0    6281.9322    23.288319    21.226814    21.459837    10608.388    5840.0451    7024.6911    5981.0603    262.37419   -1345.1983   -1143.0061   -5389.0887 
18488000    131.09113   -6666.1525   -6328.9285   -6666.1525            0    6712.2333      23.1973     21.20772    21.548545    10601.062    7892.5899    5713.6794    6530.4307   -947.19817    147.28471    191.25053   -5291.1796 
18489000    128.63875    -6683.316   -6352.4007    -6683.316            0    6264.3576    23.101265    21.324045    21.552992    10617.271    5890.0711    6536.4141    6366.5875   -600.07741    829.03131   -338.39081    -5382.415 
18490000    132.45098    -6680.577   -6339.8549    -6680.577            0    6247.9425    23.169287    21.447532    21.318725    10593.787    6200.3513    5576.7564    6966.7198    61.872884   -340.39358    -446.4571   -5374.5509 
18491000    126.57916   -6680.1402    -6354.523   -6680.1402            0     6453.201    23.006615    21.296466    21.659133      10612.1    7114.6391     6974.036    5270.9281   -1273.2347    893.49816   -273.54499   -5355.7831 
18492000    128.64168    -6687.553   -6356.6301    -6687.553            0    5916.1159    23.187037    21.360962    21.416709    10607.641    5511.9191    5392.7965    6843.6321    507.04942   -534.22034    469.94356   -5441.3978 
18493000    129.42388   -6680.8542   -6347.9192   -6680.8542            0    5709.0873    23.204241    21.317337    21.565765    10667.562    5961.7789    5742.5097    5422.9732   -172.15948    524.38197   -227.01525   -5459.7254 
18494000    125.63978   -6672.8108   -6349.6101   -6672.8108            0    6784.3409    23.244227    21.228714    21.493356     10605.79    6416.0513    7444.9428    6492.0286   -23.090027    125.40485    -1199.299   -5300.2451 
18495000    139.02417   -6679.0092    -6321.378   -6679.0092            0     7130.136    23.191357    21.140858    21.558853    10569.987    7533.9781    7335.6977    6520.7323   -10.128945    156.46348     740.3686   -5222.2503 
18496000    128.51154   -6685.9847   -6355.3966   -6685.9847            0    6582.3239    23.259947    21.133562    21.555381    10595.883    6534.2256    7593.6465    5619.0997   -182.47744   -595.72839    208.11149   -5338.2296 
18497000    125.02378   -6667.1762   -6345.5601   -6667.1762            0      6788.32    23.257557     21.21921     21.49313     10607.01    6308.4691    6915.7314    7140.7597   -488.08694    355.20295   -761.31341   -5295.4589 
18498000    129.97869   -6675.4952    -6341.133   -6675.4952            0    7188.9294    23.243169    21.144923     21.52557     10579.28    6654.9387    7862.1906    7049.6588    32.404987   -367.17871    217.96598   -5231.9678 
18499000    129.80406   -6688.2532   -6354.3401   -6688.2532            0     6637.252    23.224471    21.214059    21.494752    10590.149    5842.4394    6705.3913    7363.9252    88.637058    510.74195    440.21501   -5329.2401 
18500000    130.99639    -6659.185   -6322.2048    -6659.185            0    6226.1429    23.158868    21.239897    21.606043    10627.839    6965.8062    6770.5274    4942.0952   -168.03107    133.34106   -369.07154   -5357.1767 
Loop time of 533.327 on 64 procs for 250000 steps with 1296 atoms

Performance: 81.001 ns/day, 0.296 hours/ns, 468.756 timesteps/s
99.2% CPU use with 64 MPI tasks x 1 OpenMP threads

MPI task timing breakdown:
Section |  min time  |  avg time  |  max time  |%varavg| %total
---------------------------------------------------------------
Pair    | 30.229     | 41.542     | 53.219     | 110.4 |  7.79
Bond    | 0.27982    | 0.2903     | 0.29864    |   0.8 |  0.05
Kspace  | 269.21     | 281.23     | 292.76     |  42.7 | 52.73
Neigh   | 1.7834     | 1.8012     | 1.8313     |   0.9 |  0.34
Comm    | 89.896     | 92.409     | 95.233     |  16.9 | 17.33
Output  | 0.64832    | 0.65003    | 0.6518     |   0.1 |  0.12
Modify  | 102.18     | 104.78     | 108.59     |  15.1 | 19.65
Other   |            | 10.63      |            |       |  1.99

Nlocal:        20.2500 ave          27 max          14 min
Histogram: 7 4 8 9 4 5 15 4 2 6
Nghost:        2631.16 ave        2653 max        2611 min
Histogram: 6 5 5 8 8 12 7 4 4 5
Neighs:        6569.50 ave        8763 max        4530 min
Histogram: 7 4 8 8 5 6 10 8 2 6

Total # of neighbors = 420448
Ave neighs/atom = 324.41975
Ave special neighs/atom = 2.0000000
Neighbor list builds = 3322
Dangerous builds = 0

unfix		3
unfix		2
unfix		1

write_data	data.final.${pid}
write_data	data.final.0
System init for write_data ...
PPPM initialization ...
  extracting TIP4P info from pair style
  using 12-bit tables for long-range coulomb (../kspace.cpp:340)
  G vector (1/distance) = 0.36758683
  grid = 30 40 32
  stencil order = 5
  estimated absolute RMS force accuracy = 0.0045032147
  estimated relative force accuracy = 1.3561297e-05
  using double precision FFTW3
  3d grid and FFT values/proc = 5168 640
Last active /omp style is kspace_style pppm/tip4p/omp
WARNING: Not all mixed pair coeffs generated from mixing. Use write_data with 'pair ij' option to store all pair coeffs. (../write_data.cpp:312)

write_restart   restart.lmp.${pid}
write_restart   restart.lmp.0
System init for write_restart ...
PPPM initialization ...
  extracting TIP4P info from pair style
  using 12-bit tables for long-range coulomb (../kspace.cpp:340)
  G vector (1/distance) = 0.36758683
  grid = 30 40 32
  stencil order = 5
  estimated absolute RMS force accuracy = 0.0045032147
  estimated relative force accuracy = 1.3561297e-05
  using double precision FFTW3
  3d grid and FFT values/proc = 5168 640
Last active /omp style is kspace_style pppm/tip4p/omp
Total wall time: 0:08:53
