LAMMPS (30 Jul 2021)
Processor partition = 1
  using 4 OpenMP thread(s) per MPI task
using multi-threaded neighbor list subroutines
variable        pid world 0 1
variable        phase world IceIh Liquid

shell cd ${phase}
shell cd Liquid
include Restart.lmp
echo both
log log.lammps
#include		in.partitions
include		in.temp
variable        temperature equal 277.93
variable	tempDamp equal 100.0
include		in.pressure
variable        pressure equal -1500.0
variable        pressureDamp equal 1000.0 # This is 1 ps
include		in.seed
variable        seed equal 745823

units		real
atom_style	full
read_restart	restart.lmp.${pid}
read_restart	restart.lmp.1
Reading restart file ...
  restart file = 30 Jul 2021, LAMMPS = 30 Jul 2021
  restoring atom style full from restart
  orthogonal box = (-0.19619823 0.86043567 -0.23936138) to (18.403771 22.768742 22.452557)
  2 by 2 by 4 MPI processor grid
  restoring pair style lj/cut/tip4p/long/omp from restart
  restoring bond style harmonic/omp from restart
  restoring angle style harmonic/omp from restart
  864 atoms
  576 bonds
  288 angles
Finding 1-2 1-3 1-4 neighbors ...
  special bond factors lj:    0        0        0       
  special bond factors coul:  0        0        0       
     2 = max # of 1-2 neighbors
     1 = max # of 1-3 neighbors
     1 = max # of 1-4 neighbors
     2 = max # of special neighbors
  special bonds CPU = 0.001 seconds
  read_restart CPU = 0.005 seconds
include 	in.setup
variable	out_freq equal 1000
variable	out_freq2 equal 10000
variable	out_freq3 equal 1000

timestep	2.0

neigh_modify    delay 7 every 1

include		in.tip4p
# This is TIP4P/Ice

# create groups ###
group ox type 2
288 atoms in group ox
group hy type 1
576 atoms in group hy

# set charges - beside manually ###
set group ox charge -1.1794
Setting atom values ...
  288 settings made for charge
set group hy charge 0.5897
Setting atom values ...
  576 settings made for charge

# ### TIP3P Potential Parameters ###
pair_style lj/cut/tip4p/long/omp 2 1 1 1 0.1577 8.5
pair_coeff 1 1*2 0.000 0.000
pair_coeff 2 2 0.21084 3.1668
bond_style  harmonic
bond_coeff  1 450 0.9572
angle_style harmonic
angle_coeff 1 55 104.52
kspace_style pppm/tip4p/omp 1.0e-5
pair_modify tail yes

thermo          ${out_freq}
thermo          1000
thermo_style    custom step temp pe etotal epair emol press lx ly lz vol pxx pyy pzz pxy pxz pyz enthalpy

restart 	${out_freq3} restart.lmp.${pid} restart2.lmp.${pid}
restart 	1000 restart.lmp.${pid} restart2.lmp.${pid}
restart 	1000 restart.lmp.1 restart2.lmp.${pid}
restart 	1000 restart.lmp.1 restart2.lmp.1


include         in.dump
dump            myDump all atom ${out_freq2} dump.water.${pid}
dump            myDump all atom 10000 dump.water.${pid}
dump            myDump all atom 10000 dump.water.1
dump            myDump2 all dcd ${out_freq2} dump.dcd
dump            myDump2 all dcd 10000 dump.dcd
dump_modify     myDump append yes
dump_modify     myDump2 append yes


variable natoms 	equal  "count(all)"                        # NUMBER ATOMS
variable H      	equal  "enthalpy/v_natoms"                 # ENTHALPY-per-atom
variable Vol      	equal  "vol/v_natoms"                 # volume-per-atom
fix AVG all 		ave/time ${out_freq} 1 ${out_freq} v_Vol v_H file vol_enthalpy.dat
fix AVG all 		ave/time 1000 1 ${out_freq} v_Vol v_H file vol_enthalpy.dat
fix AVG all 		ave/time 1000 1 1000 v_Vol v_H file vol_enthalpy.dat


timer           timeout 23:50:00 every 1000
New timer settings: style=normal  mode=nosync  timeout=23:50:00

fix 		1 all shake 1e-6 200 0 b 1 a 1
Finding SHAKE clusters ...
       0 = # of size 2 clusters
       0 = # of size 3 clusters
       0 = # of size 4 clusters
     288 = # of frozen angles
  find clusters CPU = 0.000 seconds
fix             2 all nph iso ${pressure} ${pressure} ${pressureDamp}
fix             2 all nph iso -1500 ${pressure} ${pressureDamp}
fix             2 all nph iso -1500 -1500 ${pressureDamp}
fix             2 all nph iso -1500 -1500 1000
fix             3 all temp/csvr ${temperature} ${temperature} ${tempDamp} ${seed}
fix             3 all temp/csvr 277.93 ${temperature} ${tempDamp} ${seed}
fix             3 all temp/csvr 277.93 277.93 ${tempDamp} ${seed}
fix             3 all temp/csvr 277.93 277.93 100 ${seed}
fix             3 all temp/csvr 277.93 277.93 100 745823

run             250000
PPPM initialization ...
  extracting TIP4P info from pair style
  using 12-bit tables for long-range coulomb (../kspace.cpp:340)
  G vector (1/distance) = 0.37214893
  grid = 24 25 27
  stencil order = 5
  estimated absolute RMS force accuracy = 0.0030880145
  estimated relative force accuracy = 9.299464e-06
  using double precision FFTW3
  3d grid and FFT values/proc = 5700 1200
Last active /omp style is kspace_style pppm/tip4p/omp
Neighbor list info ...
  update every 1 steps, delay 7 steps, check yes
  max neighbors/atom: 2000, page size: 100000
  master list distance cutoff = 10.8154
  ghost atom cutoff = 10.8154
  binsize = 5.4077, bins = 4 5 5
  1 neighbor lists, perpetual/occasional/extra = 1 0 0
  (1) pair lj/cut/tip4p/long/omp, perpetual
      attributes: half, newton on, omp
      pair build: half/bin/newton/omp
      stencil: half/bin/3d
      bin: standard
Setting up Verlet run ...
  Unit style    : real
  Current step  : 6000000
  Time step     : 2
  Walltime left : 23:49:59.97
Per MPI rank memory allocation (min/avg/max) = 12.19 | 12.22 | 12.23 Mbytes
Step Temp PotEng TotEng E_pair E_mol Press Lx Ly Lz Volume Pxx Pyy Pzz Pxy Pxz Pyz Enthalpy 
 6000000    285.23071   -3790.0413   -3301.1656   -3790.0413            0    -1479.869    18.599969    21.908306    22.691919    9246.8165   -1469.8602   -727.82626   -2241.9207    -208.8026    -20.73313    663.85196   -3500.7338 
 6001000    291.82681   -3822.9061   -3322.7249   -3822.9061            0   -2256.8797    18.830206    22.179495    22.972807    9594.4658   -1977.5598   -997.89403   -3795.1853   -977.41944   -888.19089    937.86792   -3638.5198 
 6002000    280.61633   -3824.2001   -3343.2333   -3824.2001            0    91.122617    18.574866    21.878739    22.661294    9209.4287    1081.9031    370.39976    -1178.935    1991.0167   -438.01604   -352.00267   -3330.9946 
 6003000    281.92308   -3810.9525    -3327.746   -3810.9525            0   -1651.8362    18.693637    22.018635    22.806193    9387.2195   -2119.9029   -1366.6329    -1468.973   -81.198827   -510.78287    382.40167   -3553.8873 
 6004000    270.84606   -3821.9088   -3357.6879   -3821.9088            0    -1084.974    18.587351    21.893444    22.676525    9228.0104   -1779.8856   -485.30781   -989.72853      493.758   -1146.8663   -54.034013   -3503.7049 
 6005000    284.41457   -3791.1957   -3303.7188   -3791.1957            0   -2430.8957    18.702638    22.029237    22.817175    9400.7864   -1502.4715   -2353.2567   -3436.9589    710.46629    977.61006   -738.85537   -3636.9966 
 6006000    291.26581   -3806.7383   -3307.5187   -3806.7383            0   -1396.6849    18.620959     21.93303    22.717526    9278.1567   -172.90117   -839.52628   -3177.6271     854.7009     132.2775    -325.4962   -3496.5074 
 6007000     270.4378   -3781.8124   -3318.2913   -3781.8124            0   -1736.9906    18.651718    21.969261    22.755053    9324.2119   -1488.5467   -1823.4403   -1898.9848    316.61678   -503.92793    279.61152   -3554.4944 
 6008000    270.84588   -3773.7525   -3309.5319   -3773.7525            0   -1421.6311    18.682976    22.006078    22.793187    9371.1691   -1914.8099   -503.70424    -1846.379    491.97313    452.07184   -787.88623   -3503.8246 
 6009000    306.74487   -3843.7192    -3317.969   -3843.7192            0   -572.02538    18.637846     21.95292    22.738128    9303.4222    -489.6309    31.386285   -1257.8315     320.2611   -154.60137   -720.04648   -3395.5819 
 6010000     277.9026   -3794.9615    -3318.646   -3794.9615            0   -1096.6194     18.58917    21.895586    22.678744    9230.7196   -68.719134   -1508.6514   -1712.4876    346.74966   -454.36709    1280.3261   -3466.2735 
 6011000    278.79252   -3801.2345   -3323.3937   -3801.2345            0   -206.16758    18.642341    21.958215    22.743612     9310.155    171.17447    366.07468   -1155.7519    679.10661   -716.03493    1296.4898   -3351.3869 
 6012000    274.65356   -3728.1641   -3257.4173   -3728.1641            0   -1903.8288    18.696159    22.021606     22.80927    9391.0202   -2134.0325    -1294.591   -2282.8628    826.03751   -10.918811   -873.77284   -3518.1626 
 6013000      290.338   -3763.0278   -3265.3984   -3763.0278            0   -976.77881    18.582049    21.887199    22.670056    9220.1162   -2081.4223    122.16875   -971.08288   -141.55718    460.60511    802.74572   -3396.7419 
 6014000    277.93357   -3814.8327    -3338.464   -3814.8327            0   -1432.1461     18.64427    21.960488    22.745966    9313.0464   -2034.4359   -859.17401   -1402.8284    53.055787    168.98291   -1085.5805   -3532.9799 
 6015000    296.06877   -3860.4101   -3352.9583   -3860.4101            0   -1486.4162    18.623164    21.935627    22.720216    9281.4533   -2725.7142   -2064.3558     330.8213    636.65442   -185.70574   -236.31573   -3554.1603 
 6016000    277.12327   -3801.3392   -3326.3594   -3801.3392            0    92.666411    18.567672    21.870265    22.652517    9198.7319    32.371273   -465.54275    711.17071    635.24057   -527.18555   -153.70986   -3313.9278 
 6017000     279.7567   -3808.8515   -3329.3581   -3808.8515            0   -2319.0563    18.584564    21.890161    22.673125    9223.8603   -3669.6516   -1486.6316   -1800.8858    -363.8011    389.09281   -645.18244   -3641.3188 
 6018000    271.19578   -3829.6353    -3364.815   -3829.6353            0   -1682.7588    18.545617    21.844287    22.625609    9165.9916   -1921.5535    351.44356   -3478.1665    481.48312    580.33745     1360.633   -3589.7604 
 6019000    295.30492   -3823.4516   -3317.3091   -3823.4516            0    -1073.512    18.620575    21.932578    22.717058     9277.583   -1870.7057    858.11471   -2207.9451   -281.51539    716.92418   -205.49761   -3462.5596 
 6020000    280.24074   -3814.2565   -3333.9335   -3814.2565            0   -2338.6874    18.731599    22.063349    22.852507    9444.5253   -3377.2206    -2025.936   -1612.9056   -756.83194   -198.38977   -138.48917   -3656.0613 
 6021000    268.14247   -3788.6852   -3329.0982   -3788.6852            0   -1813.3358    18.682782    22.005849     22.79295    9370.8761   -2572.3182    -1600.125   -1267.5642    502.06161   -827.45116   -575.65448   -3576.9171 
 6022000    285.83549   -3813.9687   -3324.0565   -3813.9687            0    -661.2402    18.466249    21.750802    22.528781    9048.8138   -339.93528   -900.81215   -742.97318    1335.8915    115.86022   -414.97187   -3411.3188 
 6023000    270.78455   -3849.6598   -3385.5443   -3849.6598            0   -2245.6131    18.601613    21.910243    22.693925    9249.2692   -2312.1116   -1719.0255   -2705.7023    650.40937    230.65444   -660.39729   -3688.4575 
 6024000    293.24423   -3769.0699   -3266.4593   -3769.0699            0   -2378.7755    18.774967    22.114431    22.905416    9510.2764   -2897.1301   -956.75419   -3282.4422    220.41542   -422.99375    1380.9273   -3596.3899 
 6025000    282.03323   -3815.3329   -3331.9376   -3815.3329            0   -416.40957    18.605063    21.914307    22.698134    9254.4169    48.871046    311.72273   -1609.8225    88.006135   -450.63763   -232.88406   -3388.1388 
 6026000    285.11264   -3777.0146   -3288.3413   -3777.0146            0   -1789.9178     18.65193    21.969509     22.75531    9324.5286   -1036.9528   -2710.9416   -1621.8591   -112.98983    1290.4606   -361.23735   -3531.7498 
 6027000    289.68923      -3785.1   -3288.5826      -3785.1            0   -2170.6891    18.749391    22.084306    22.874213    9471.4637   -1875.7799   -3457.4124   -1178.8749    985.23485    702.67955   -68.238158   -3588.4233 
 6028000    262.36423    -3769.711   -3320.0277    -3769.711            0   -1881.5111    18.731875    22.063674    22.852843    9444.9424   -2992.8609   -2557.9489   -93.723577   -480.18328    818.26694   -186.43463   -3579.1961 
 6029000     281.4113   -3837.6128   -3355.2834   -3837.6128            0   -1438.2052     18.65895    21.977779    22.763876    9335.0622   -1860.1349   -742.64285   -1711.8379    1180.7892    437.31617   -550.85515    -3551.084 
 6030000    294.15514   -3827.6218     -3323.45   -3827.6218            0    -1497.071    18.594142    21.901444     22.68481    9238.1294   -669.92362    -1701.631   -2119.6583    551.57372   -852.71647    1035.9444   -3525.1483 
 6031000    286.14439   -3797.3597    -3306.918   -3797.3597            0   -1040.2447    18.646421    21.963021     22.74859    9316.2693   -1115.9787   -1417.9751   -586.78027    904.34076    55.532949    25.650211   -3448.2542 
 6032000     265.4187   -3769.8282   -3314.9096   -3769.8282            0   -1774.4064    18.755858    22.091924    22.882103    9481.2681   -874.55665   -2102.7762   -2345.8864    308.79043    425.84533     1150.305   -3560.2649 
 6033000    278.88715   -3796.6799   -3318.6769   -3796.6799            0   -2866.2466    18.803724    22.148303    22.940499     9554.043   -2457.9579   -2346.9541   -3793.8278    -436.5383     725.6657     2.889556    -3718.048 
 6034000    268.99245   -3789.3794   -3328.3355   -3789.3794            0   -121.01439    18.724704    22.055228    22.844095    9434.1001   -127.66676    798.19203   -1033.5684   -185.26749     108.0379    1085.6435   -3344.9855 
 6035000    279.11221   -3842.8162   -3364.4274   -3842.8162            0    -430.7665    18.543363    21.841632     22.62286    9162.6499   -734.40384     227.7105   -785.60616    942.79817    635.70187    -1183.042   -3421.9898 
 6036000    280.49986   -3827.6262   -3346.8591   -3827.6262            0   -1745.6872    18.592767    21.899824    22.683132    9236.0796   -1683.3599   -2100.2799   -1453.4219    -334.4303     457.2757   -277.68884    -3582.001 
 6037000    291.32314   -3812.1027   -3312.7848   -3812.1027            0   -922.51851    18.671431    21.992479    22.779102    9353.8069   -1360.7452   -1313.3472   -93.463139    87.737051    623.31957   -434.58538   -3438.6308 
 6038000    274.19734   -3766.2535   -3296.2887   -3766.2535            0   -1972.7998    18.725211    22.055825    22.844713    9434.8658    -2486.777   -1894.7289   -1536.8937   -338.06817    483.84415   -312.74375   -3567.7416 
 6039000    282.50278   -3803.0193   -3318.8192   -3803.0193            0   -522.78422    18.684502    22.007875    22.795048    9373.4648    40.599558    187.00698   -1795.9592    749.69878    432.78607    811.18828    -3390.285 
 6040000    263.27082   -3773.6067   -3322.3695   -3773.6067            0   -1333.4728    18.771391    22.110219    22.901053    9504.8428   -1430.3013   -1102.5061   -1467.6111    -197.7557   -418.35998    7.5366927   -3507.2133 
 6041000     266.9386   -3790.8686    -3333.345   -3790.8686            0   -1585.5364    18.814007    22.160415    22.953045    9569.7257   -2006.3022   -873.22667   -1877.0805    306.33268   -95.601057    374.06979   -3554.6298 
 6042000    284.58929   -3819.6212   -3331.8449   -3819.6212            0   -710.95432     18.67282    21.994115    22.780796    9355.8942    -756.9796    -2163.066    787.18263    490.65257   -1905.2399    800.60958   -3428.8518 
 6043000    281.94387   -3803.7138   -3320.4717   -3803.7138            0   -1706.9827    18.694899    22.020121    22.807733    9389.1211   -1514.9331   -1342.0913   -2263.9236    506.49263    333.93595    181.17433     -3554.21 
 6044000    282.62323   -3825.7679   -3341.3613   -3825.7679            0   -1739.7231    18.693512    22.018487     22.80604    9387.0313   -1022.9477   -3172.2037   -1024.0179    434.56489    677.75569   -351.03332   -3579.5298 
 6045000    274.24368    -3860.004   -3389.9597    -3860.004            0   -1663.1106      18.5842    21.889732     22.67268     9223.318   -977.68605   -3289.9859   -721.65971   -286.86479   -1242.3072    288.25032   -3613.6691 
 6046000    287.14014    -3810.824   -3318.6756    -3810.824            0   -794.47395     18.54263    21.840769    22.621966    9161.5639    97.383182   -1451.3658   -1029.4392   -277.77711   -126.30037    282.59058   -3424.8269 
 6047000    269.84798   -3797.4417   -3334.9315   -3797.4417            0   -2000.5069    18.823254    22.171307    22.964326    9583.8437   -1085.6355   -2366.4901   -2549.3952    42.052307    1434.6581   -189.11235   -3614.5434 
 6048000    282.69665    -3801.503   -3316.9706    -3801.503            0   -1921.5829    18.789283    22.131293    22.922881    9532.0472   -2118.9757   -960.24576   -2685.5271   -392.12275   -558.67448    99.545918   -3584.0997 
 6049000    289.02351   -3809.1666   -3313.7902   -3809.1666            0   -1339.2211    18.655847    21.974124     22.76009    9330.4054   -9.5396556   -2153.9138   -1854.2098   -1096.0351    572.37986    1215.0683   -3496.0239 
 6050000     272.4982   -3821.8687   -3354.8161   -3821.8687            0   -1936.4803     18.79733    22.140772    22.932699    9544.3008   -2419.8661    -1884.659   -1504.9157   -743.92863    -144.1666   -275.97198   -3624.3623 
 6051000    296.78455   -3833.3037   -3324.6251   -3833.3037            0   -1464.0298    18.799269    22.143056    22.935065    9547.2544    -1048.277   -2758.0205   -585.79183   -35.955389    636.30997    -176.6839   -3528.4721 
 6052000    280.27939    -3870.978   -3390.5887    -3870.978            0   -265.47439    18.643138    21.959154    22.744585    9311.3496   -623.65547   -231.04196    58.274265   -775.97491    1690.9446   -67.758085   -3426.6392 
 6053000    263.60422   -3838.8414   -3387.0327   -3838.8414            0   -1229.4392    18.636358    21.951168    22.736313    9301.1941   -917.48162   -1501.2106   -1269.6254    -1016.408    188.60446    657.57712   -3553.8042 
 6054000    283.13261   -3828.4754   -3343.1958   -3828.4754            0    -1166.758    18.621045    21.933132    22.717632    9278.2863   -1582.9486   -2444.5069     527.1815    121.84865    44.687342    513.57964   -3501.0748 
 6055000    277.73969   -3837.1308   -3361.0944   -3837.1308            0   -1540.2537    18.650572    21.967911    22.753655    9322.4932   -1233.8375   -1831.4104   -1555.5132   -892.07584    376.70745    407.82427   -3570.5058 
 6056000    289.51642   -3795.0737   -3298.8524   -3795.0737            0   -2562.7413    18.681728    22.004608    22.791664    9369.2906   -1708.2428   -2944.0792   -3035.9021    1053.4141    76.280564   -903.12804   -3649.0293 
 6057000    282.65641   -3847.2233   -3362.7599   -3847.2233            0   -2027.7669    18.695743    22.021116    22.808763    9390.3936   -1976.3896   -3324.6105    -782.3007   -406.99801    184.05389    411.88351    -3640.461 
 6058000    274.96337   -3821.9885   -3350.7107   -3821.9885            0   -2678.9715      18.8175    22.164529    22.957306    9575.0564    -3529.262   -2752.0612   -1755.5915    487.38203    146.53792   -70.578587   -3724.8086 
 6059000    274.49368   -3835.6808    -3365.208   -3835.6808            0   -1151.2617    18.684107    22.007411    22.794567    9372.8714   -1459.0532   -540.51103   -1454.2208    241.20514     981.0937   -20.296319   -3522.5783 
 6060000    277.44251   -3872.2486   -3396.7216   -3872.2486            0   -2377.0696    18.767065    22.105124    22.895775    9498.2732   -2365.3915   -2382.9017   -2382.9157    545.27874    499.94481   -658.30591   -3725.9994 
 6061000    273.39001   -3820.9804   -3352.3992   -3820.9804            0   -2018.9545    18.784453    22.125605    22.916989    9524.6995   -2142.0161   -1418.5615   -2496.2858   -355.27842    1001.2371    435.20611   -3632.8481 
 6062000    285.83012   -3842.5228   -3352.6198   -3842.5228            0   -634.75156    18.594885    21.902319    22.685717    9239.2371   -1999.9024   -72.321909    167.96964    850.01979    739.89078   -791.11149   -3438.1492 
 6063000    280.62695   -3757.9685   -3276.9835   -3757.9685            0   -1275.4066    18.884202    22.243095    23.038682     9677.239   -846.04556   -1467.0118   -1513.1624    321.53041    13.042005    250.72096    -3456.985 
 6064000    280.40782   -3820.2576   -3339.6482   -3820.2576            0   -2052.8054    18.875289    22.232597    23.027808    9663.5436   -1351.2342   -1436.1398   -3371.0423    570.13421   -575.78065    361.35136    -3628.956 
 6065000    277.37004   -3848.9257   -3373.5229   -3848.9257            0   -453.35505    18.767388    22.105504    22.896169    9498.7636   -740.27687    1454.6027   -2074.3909    1115.6937   -762.88124    262.58991   -3436.3261 
 6066000    293.43485   -3794.7727   -3291.8354   -3794.7727            0   -2426.5862    18.848397    22.200922       22.995    9622.2993   -1904.9235   -2091.0045   -3283.8307    286.19031   -992.17404   -453.19525   -3632.3616 
 6067000    270.43825   -3820.3518   -3356.8299   -3820.3518            0   -632.80708    18.692804    22.017654    22.805177    9385.9653   -57.664392   -1651.9746   -188.78226    433.60861    178.92958   -362.98922   -3443.4515 
 6068000    281.72193   -3826.2134   -3343.3517   -3826.2134            0   -1215.3993    18.719251    22.048806    22.837443    9425.8608   -1299.1629   -100.56919   -2246.4659    621.51788   -200.39752    455.06593   -3510.4284 
 6069000    270.94148   -3850.0172   -3385.6327   -3850.0172            0    379.12738    18.586476    21.892414    22.675457    9226.7074    387.84152    811.62748   -62.086846   -184.48002    1237.2324   -80.955094   -3334.6166 
 6070000    269.17788   -3773.7212   -3312.3595   -3773.7212            0    -2581.144     18.75108    22.086295    22.876273    9474.0228     -2680.65   -2597.5067   -2465.2751    454.47804    246.76354   -128.19848   -3668.9933 
 6071000    267.65986   -3781.2638    -3322.504   -3781.2638            0   -1601.9669     18.72165     22.05163    22.840369     9429.484   -185.43329   -4031.2539   -589.21359    413.14864    537.76744    889.47502   -3542.8055 
 6072000    291.03063   -3763.5296   -3264.7131   -3763.5296            0   -1242.4711     18.74861    22.083387    22.873261    9470.2806   -1756.1997   -891.97803   -1079.2356   -52.058451   -149.00049    1098.7874   -3436.3161 
 6073000    282.91125    -3834.906   -3350.0058    -3834.906            0   -1778.9114    18.713878    22.042477    22.830888    9417.7467   -3219.1948    -1882.504   -235.03547    326.87299    111.94193    252.54737   -3594.3361 
 6074000    288.24813   -3828.2575     -3334.21   -3828.2575            0    143.21809    18.655738    21.973995    22.759957    9330.2418   -1129.3416    322.82209    1236.1738   -1036.8986   -616.31934    437.43237   -3314.7221 
 6075000    266.39993   -3782.5755   -3325.9751   -3782.5755            0   -400.13515    18.738387    22.071345    22.860789    9454.7972   -2483.8931    1826.8053   -543.31771    724.03397    -682.6924    1600.6771   -3381.1492 
 6076000    274.97623   -3781.3063   -3310.0064   -3781.3063            0   -2682.2661    18.835498    22.185728    22.979263    9602.5567    -3697.765   -2688.9798   -1660.0536    1002.8009   -204.59566    234.82202   -3685.6402 
 6077000    277.08514   -3831.0375   -3356.1231   -3831.0375            0   -654.92213      18.7723     22.11129    22.902162    9506.2241   -1968.3959    57.953846   -54.324363    557.53785   -402.74848   -122.61508   -3446.9205 
 6078000    281.79679   -3745.4384   -3262.4483   -3745.4384            0   -1421.0709    18.704068    22.030921    22.818919    9402.9427   -1999.5647   -439.81085   -1823.8372   -74.303451   -945.03849   -973.55934    -3457.323 
 6079000    274.24512   -3808.7232   -3338.6765   -3808.7232            0   -2345.9405    18.836207    22.186564    22.980128    9603.6416   -2268.3755   -2057.1046   -2712.3412     598.6922   -351.71646   -415.56753   -3667.2472 
 6080000    289.80202   -3765.1141   -3268.4034   -3765.1141            0   -2047.2652    18.774033    22.113331    22.904277    9508.8574   -2983.9908   -2037.0921   -1120.7127   -635.29233   -587.32799   -412.76854   -3552.3118 
 6081000     282.3199   -3800.3466     -3316.46   -3800.3466            0   -1310.9387    18.753886    22.089601    22.879698    9478.2777   -2196.1037   -2313.3702    576.65783    114.36032   -423.96441    1811.1304   -3497.6723 
 6082000    273.85097    -3797.006   -3327.6349    -3797.006            0   -1002.9595    18.853986    22.207505    23.001818    9630.8606    -372.6455   -160.52614   -2475.7068     1.307345   -316.35716   -14.687904   -3468.5068 
 6083000    265.09109   -3776.1543   -3321.7973   -3776.1543            0   -1464.6839    18.682836    22.005913    22.793016    9370.9575   -997.44597   -1588.9967    -1807.609    387.18186   -772.25906   -20.266643   -3521.9695 
 6084000    277.13635   -3736.2872    -3261.285   -3736.2872            0   -1459.3629    18.730982    22.062623    22.851754    9443.5925   -62.651705   -3045.6028   -1269.8342    845.04976     654.2295    298.30443   -3462.2759 
 6085000    275.50006   -3793.1942   -3320.9965   -3793.1942            0   -1244.4694    18.711759     22.03998    22.828302    9414.5472   -35.577827   -2629.2679   -1068.5624   -263.09808    -92.59757    145.39374   -3491.8641 
 6086000    274.59476   -3807.8472   -3337.2012   -3807.8472            0   -2138.3496    18.812984     22.15921    22.951797    9568.1651   -2562.4881   -1763.8186   -2088.7422   -270.12155   -248.09466    655.33893   -3635.5905 
 6087000    271.53819   -3805.4506   -3340.0434   -3805.4506            0   -2189.9157    18.797986    22.141544    22.933499    9545.2994   -1402.1199   -3594.4751   -1573.1522   -462.61879   -2128.7989   -237.47086   -3644.8981 
 6088000    291.20018   -3784.9981   -3285.8909   -3784.9981            0   -1914.3761    18.785706    22.127081    22.918518    9526.6055   -2314.9231   -2010.0398   -1418.1653   -799.28446    3.5128224    353.51715   -3551.8662 
 6089000    270.87024   -3832.1078   -3367.8455   -3832.1078            0   -1066.6867     18.75955    22.096272    22.886607     9486.867   -1729.5859   -1629.0904    158.61606   -720.80079   -871.96476   -541.21375   -3515.4283 
 6090000    268.92138    -3799.033   -3338.1109    -3799.033            0   -1270.1167    18.771067    22.109838    22.900658    9504.3515    -1909.804   -1585.4314   -315.11457    124.94779   -180.98541   -421.57853   -3514.1633 
 6091000     268.3507   -3841.6428   -3381.6989   -3841.6428            0   -1755.1792    18.847579    22.199958    22.994002    9621.0457   -2598.5001   -554.03196   -2113.0056     954.2374    392.44179    618.22771   -3627.9735 
 6092000    278.27975   -3801.6414   -3324.6794   -3801.6414            0   -926.91574    18.727403    22.058407    22.847388    9438.1806    606.09701   -2121.2165   -1265.6277    627.53722    524.41373   -508.13079   -3452.2658 
 6093000    270.76433   -3827.8829   -3363.8021   -3827.8829            0   -1546.3601     18.75715    22.093445    22.883679    9483.2271   -1334.4788   -1000.1151   -2304.4863    452.70185    -251.9408   -171.00649   -3577.6686 
 6094000    276.27914   -3796.1464   -3322.6134   -3796.1464            0    845.45879    18.797578    22.141064    22.933001    9544.6779    902.94714    1345.3545    288.07475    621.28106   -132.57227    226.16167   -3204.9261 
 6095000    267.52286   -3829.5227   -3370.9977   -3829.5227            0   -1289.0397    18.797133     22.14054    22.932458    9544.0002    506.44617   -949.32165   -3424.2436    1173.3407    569.33123    1545.2327   -3550.4184 
 6096000    285.39282   -3804.7241   -3315.5706   -3804.7241            0   -1824.0911    18.803134    22.147608    22.939779    9553.1433   -1570.6063   -1929.4949   -1972.1722    683.49918   -129.25191   -470.62637    -3569.708 
 6097000    276.29213   -3838.3479   -3364.7926   -3838.3479            0   -1445.3392    18.758977    22.095597    22.885908    9485.9982   -2705.9946    744.42685     -2374.45   -148.21441   -596.14007     579.7235    -3564.746 
 6098000     276.4384   -3853.1689    -3379.363   -3853.1689            0   -1889.2943    18.810976    22.156845    22.949346    9565.1009   -2823.4639   -932.57652   -1911.8424    506.50405    355.20155    496.55445   -3642.9142 
 6099000     277.6689   -3826.3167   -3350.4017   -3826.3167            0   -2156.6371    18.842197     22.19362    22.987437    9612.8073   -2533.1298   -2361.7511   -1575.0304    3.2607842   -115.98119    221.58218   -3652.7469 
 6100000    269.49595   -3830.9147   -3369.0079   -3830.9147            0   -1100.6156    18.773868    22.113136    22.904075    9508.6057   -1047.8258   -617.38282    -1636.638    52.943946   -454.63091   -25.178533   -3521.6338 
 6101000    260.29244   -3842.3227   -3396.1903   -3842.3227            0   -2148.1316    18.755776    22.091826    22.882003    9481.1428   -3376.8123   -1538.8705   -1528.7118   -219.82353   -278.68234   -239.07739   -3693.2184 
 6102000    287.74002   -3827.8783   -3334.7017   -3827.8783            0   -1810.0367    18.726897    22.057811     22.84677    9437.4147   -1462.5324   -2822.9781   -1144.5997    630.38517    466.33276     422.9968   -3583.8261 
 6103000    271.44483   -3797.3177   -3332.0706   -3797.3177            0   -2422.0553    18.725341    22.055978    22.844872    9435.0624   -3151.7182   -1157.9651   -2956.4827   -562.54105    668.26683    410.00051   -3665.3471 
 6104000    280.93851   -3846.1296   -3364.6106   -3846.1296            0   -1137.0015    18.703299    22.030016    22.817981    9401.7833   -1704.5657   -503.27978    -1203.159   -106.15316    110.11659    240.37491    -3520.511 
 6105000    278.25047   -3828.9687    -3352.057   -3828.9687            0   -1001.1738    18.678395    22.000682    22.787599    9364.2774   -1852.1388    94.810546   -1246.1933   -1050.1127    568.50451   -1026.9755   -3488.7856 
 6106000    260.35837   -3860.9638   -3414.7185   -3860.9638            0    89.630875    18.623694    21.936252    22.720864    9282.2464    770.23361    392.96314   -894.30412     -1875.18    133.44147   -556.39889    -3402.585 
 6107000    278.64667   -3892.3471   -3414.7562   -3892.3471            0   -969.59726    18.701181    22.027521    22.815397    9398.5891   -1220.9983   -909.43616   -778.35736   -123.65736   -66.877656     235.1593   -3547.6577 
 6108000    276.30503   -3830.0802   -3356.5029   -3830.0802            0   -3254.3819    18.892777    22.253196    23.049144    9690.4291   -3219.7317   -3196.5192   -3346.8948   -56.720555   -438.18378    -375.8133   -3816.4283 
 6109000     274.9868   -3832.2286   -3360.9106   -3832.2286            0   -1639.8184    18.746724    22.081164    22.870959    9467.4219   -1437.8522    -1282.669    -2198.934   -678.24148   -194.88805    390.23303   -3587.3246 
 6110000    278.38534   -3849.0386   -3371.8956   -3849.0386            0   -1276.5193     18.75992    22.096708    22.887058    9487.4288    -397.5003   -1278.5259   -2153.5317   -411.68419    428.28248    -213.7614   -3548.5205 
 6111000    289.10714   -3850.1442   -3354.6244   -3850.1442            0   -1094.9629    18.720621    22.050418    22.839114    9427.9294   -1738.6907   -138.06211   -1408.1359    775.83522    649.80568    154.72421   -3505.1782 
 6112000    282.87977   -3848.8868   -3364.0406   -3848.8868            0   -2147.6494    18.721211    22.051114    22.839834    9428.8211   -2771.1463   -1615.0604   -2056.7414    314.49139    -131.4784   -919.68191   -3659.3632 
 6113000    269.65336   -3883.1705   -3420.9939   -3883.1705            0   -1294.5906    18.735682    22.068159    22.857489    9450.7036   -1711.1529   -1384.4644   -788.15448   -351.16855   -475.88446   -313.82842   -3599.4258 
 6114000    273.06002   -3800.3537   -3332.3381   -3800.3537            0   -365.78937    18.718699    22.048155     22.83677    9425.0269    499.04524   -638.50649   -957.90686    677.66108    422.38296    795.77744   -3382.6175 
 6115000    284.89265    -3842.975   -3354.6787    -3842.975            0   -1109.1818    18.786001    22.127427    22.918877     9527.053    -2440.812    52.320297   -939.05366   -1363.6718   -1757.7169    980.11785    -3508.791 
 6116000    280.27679   -3885.5047   -3405.1199   -3885.5047            0    -400.6792    18.695687     22.02105    22.808695    9390.3095   -752.32331   -1853.8837    1404.1694    154.85536    133.98228    191.13839   -3459.9921 
 6117000    264.29234   -3868.2462   -3415.2582   -3868.2462            0   -954.98691    18.738091    22.070996    22.860427    9454.3483   -1141.6874   -1152.2986   -570.97474   -713.76213   -101.44555    717.16737   -3546.9336 
 6118000    268.21741   -3839.8891   -3380.1737   -3839.8891            0   -2817.2007    18.806548     22.15163    22.943945    9558.3488   -3346.4417   -3397.0513   -1708.1091   -234.28287    778.55531   -76.899695   -3772.8878 
 6119000    274.35392   -3828.5266   -3358.2934   -3828.5266            0   -869.05704    18.605901    21.915293    22.699155    9255.6662   -524.86221   -1075.7032   -1006.6057   -331.18321   -1864.4486   -145.29246   -3475.6025 
 6120000    267.57717   -3817.0937   -3358.4756   -3817.0937            0   -2343.8906    18.675475    21.997242    22.784035    9359.8854   -1034.1457   -3205.9441   -2791.5821    1277.4305     212.7527   -1544.2932   -3678.4268 
 6121000    274.82297   -3844.9844   -3373.9472   -3844.9844            0   -1966.4554    18.653746    21.971649    22.757526    9327.2528   -775.64904    -3745.198    -1378.519   -64.209636    255.29339    435.99209   -3641.4411 
 6122000    288.26515   -3817.9848   -3323.9082   -3817.9848            0   -1432.3601     18.64743     21.96421    22.749821    9317.7822   -1303.8333   -1696.7773   -1296.4698    806.71293    63.744236   -712.04614    -3518.552 
 6123000    269.83891   -3867.1439   -3404.6492   -3867.1439            0   -1263.7427    18.684868    22.008306    22.795495    9374.0159   -912.78235   -2385.1602   -493.28539   -20.246326    682.09904     169.0336    -3577.416 
 6124000    287.43676   -3834.7101   -3342.0534   -3834.7101            0   -1512.7595    18.757664    22.094051    22.884307    9484.0069   -3023.3044   -379.10641   -1135.8675     -242.394    315.54453    -504.9365     -3551.29 
 6125000    286.75941   -3784.7677   -3293.2719   -3784.7677            0   -2209.5504    18.873921    22.230986     23.02614    9661.4432   -1225.9296   -3826.7684    -1575.953   -721.17007    325.71283    563.08454   -3604.6024 
 6126000     281.7408   -3843.5543   -3360.6602   -3843.5543            0   -1397.5804    18.844446    22.196268     22.99018    9616.2486   -1554.9564   -742.07892   -1895.7058   -651.79613   -212.70979   -674.44746   -3556.6612 
 6127000    283.55331    -3854.644   -3368.6433    -3854.644            0   -1367.8736    18.744649    22.078721    22.868428    9464.2792   -1327.1335   -2130.6963   -645.79105    1180.8212    27.895269    323.79108   -3557.4466 
 6128000    275.51202   -3830.6994   -3358.4812   -3830.6994            0   -1258.5259    18.727257    22.058235     22.84721    9437.9593   -2175.1282   -1351.2607   -249.18886    35.451335    986.91414    177.19804   -3531.7084 
 6129000    290.92855   -3816.6617   -3318.0201   -3816.6617            0   -1662.5538    18.759229    22.095894    22.886216    9486.3805   -1435.7015   -1858.0412   -1693.9187     1617.008   -399.05646    883.94225    -3548.033 
 6130000    274.99682   -3840.5621    -3369.227   -3840.5621            0   -2028.2288    18.683048    22.006162    22.793274    9371.2763   -3094.8804   -715.71608   -2274.0897   -460.66417    148.54831    707.26284   -3646.4259 
 6131000    264.04665   -3804.1781   -3351.6112   -3804.1781            0   -741.81167    18.724712    22.055237    22.844105    9434.1118   -1403.1534   -1179.1039    356.82233    1106.6442    115.40335   -212.96418   -3453.6747 
 6132000    288.81714   -3801.5203   -3306.4977   -3801.5203            0   -2828.7488    18.777453     22.11736    22.908449    9514.0549   -2859.4769   -3482.6991   -2144.0703   -1021.2087   -645.70793   -618.52796   -3698.9943 
 6133000    268.87711   -3809.4732   -3348.6271   -3809.4732            0   -1016.9688    18.683014    22.006123    22.793234    9371.2264   -1124.6967   -3.8796253   -1922.3302    -57.99256    705.41123    259.85592   -3487.6159 
 6134000    264.35162   -3815.8268   -3362.7372   -3815.8268            0   -2308.5122    18.843948    22.195682    22.989573    9615.4874   -3765.0093   -1665.1004   -1495.4269   -593.58331   -537.81586    465.03284   -3686.4645 
 6135000    259.96812   -3821.5787   -3376.0022   -3821.5787            0   -1978.3605     18.74858    22.083351    22.873224    9470.2347    -3355.649   -1898.0742   -681.35821   -835.32838    507.13187    438.41311   -3649.2408 
 6136000    272.39148   -3807.5254   -3340.6557   -3807.5254            0   -1471.9099    18.858394    22.212697    23.007196    9637.6174   -2525.6241   -1434.3536   -455.75192    878.27135    506.94046    -608.1349   -3547.5396 
 6137000    264.99302   -3839.0346   -3384.8456   -3839.0346            0    -1044.873    18.699145    22.025123    22.812914    9395.5211   -1468.7363   -1547.0228   -118.85997   -139.92953    546.65818    -71.40625   -3528.0184 
 6138000    285.88765   -3797.5351   -3307.5335   -3797.5351            0    -1116.274    18.736956    22.069659    22.859042    9452.6306    -1337.831    44.371969    -2055.363   -1063.2287   -75.996231   -401.19925   -3461.4196 
 6139000    260.51907   -3831.6338   -3385.1131   -3831.6338            0   -1356.7272    18.660976    21.980165    22.766347    9338.1027    44.486737   -2250.3934   -1864.2749   -384.47303   -987.80763    165.73697   -3569.8812 
 6140000     284.9231   -3820.2195   -3331.8711   -3820.2195            0    -604.2299    18.560936    21.862331    22.644299     9188.724   -1171.8699   -247.56909    -393.2507    1018.1086   -421.39525   -395.23278   -3412.8428 
 6141000    278.32617   -3853.6018   -3376.5603   -3853.6018            0   -1614.0363    18.645051    21.961407    22.746919    9314.2165   -2314.6002    280.77151   -2808.2802   -204.40822   -566.88758    236.71922   -3595.8082 
 6142000    261.57608   -3831.7065    -3383.374   -3831.7065            0    -1248.747    18.658167    21.976857    22.762921    9333.8872   -1681.0329   -1469.1281    -596.0801    381.50495    158.36988    613.91096   -3553.3599 
 6143000    272.65382   -3832.6831   -3365.3638   -3832.6831            0   -894.58553    18.664607    21.984441    22.770776    9343.5543   -1708.8147    92.053671   -1066.9955   -271.11216    -271.9897    47.131188   -3487.2655 
 6144000     270.1509    -3853.953   -3390.9236    -3853.953            0    -800.9472    18.553602    21.853693    22.635352    9177.8366   -316.51078   -1247.7229   -838.60796   -1062.0302   -256.48809    539.57033   -3498.1298 
 6145000    293.67597    -3847.148   -3343.7975    -3847.148            0   -1907.0072    18.632733    21.946898     22.73189    9295.7675   -2536.1022   -37.532036   -3147.3874   -67.314045     304.4623   -48.757574    -3602.329 
 6146000    273.99361   -3868.8315   -3399.2159   -3868.8315            0   -1522.6504    18.643155    21.959174    22.744605     9311.375   -2499.6699   -1010.7761   -1057.5053     568.7345   -1570.4221    173.68545    -3605.987 
 6147000    265.05969   -3878.0972   -3423.7939   -3878.0972            0   -1152.1302    18.760846    22.097799    22.888188     9488.834   -1403.3923   -562.84854   -1490.1499   -710.57542     514.9989   -407.82926   -3583.2314 
 6148000    255.34996   -3848.4266   -3410.7655   -3848.4266            0   -2749.1477    18.820692     22.16829    22.961201    9579.9309   -2175.5987   -2607.1084    -3464.736    1612.3952     740.3087   0.70431593   -3794.8585 
 6149000    285.90943   -3834.7151   -3344.6761   -3834.7151            0   -1635.8862    18.738103     22.07101    22.860442    9454.3666   -2021.5955   -724.88286   -2161.1804    227.53407    -780.2603    877.07746   -3570.2357 
 6150000    266.02196   -3852.0948   -3396.1423   -3852.0948            0    -1143.426    18.665601    21.985613     22.77199    9345.0482   -2106.5217   -1040.7853   -282.97098   -97.678204    818.84074   -622.80386   -3551.9775 
 6151000    280.36473   -3829.3368   -3348.8012   -3829.3368            0   -2092.4643    18.730488    22.062041    22.851152    9442.8453   -1730.7833   -2472.0465    -2074.563    663.78772    468.24016    -1094.476   -3636.9633 
 6152000    263.88793   -3843.7161   -3391.4212   -3843.7161            0   -523.68032    18.692903    22.017771    22.805298    9386.1144    1240.9431   -1013.1304   -1798.8537   -766.19649    250.78544    1592.5099   -3463.1062 
 6153000    288.11686   -3846.8308   -3353.0084   -3846.8308            0   -1131.3982    18.730101    22.061585    22.850679    9442.2598   -1800.4519   -862.57061   -731.17217   -504.85809   -224.75396    712.54625   -3508.8084 
 6154000    262.74492   -3821.3734   -3371.0376   -3821.3734            0   -1629.1987    18.573204     21.87678    22.659265    9206.9555   -2042.2269   -2454.8694   -390.49973   -974.12821    184.37379   -166.55488   -3589.7966 
 6155000    264.24251   -3827.7496    -3374.847   -3827.7496            0   -683.39068    18.625824    21.938761    22.723462    9285.4315     -1192.31   -154.68859   -703.17344   -235.53984   -158.66907   -1159.2884   -3467.3907 
 6156000    251.66269   -3859.4481   -3428.1069   -3859.4481            0   -1757.2768    18.748342     22.08307    22.872933    9469.8738   -1057.6006   -2267.5651   -1946.6646   -751.20814   -286.18441     181.4075   -3670.8016 
 6157000    281.55983   -3855.7177   -3373.1338   -3855.7177            0   -2143.9476    18.744495    22.078539     22.86824    9464.0454   -2652.3473   -2596.3966   -1183.0989   -531.71916    590.69972   -775.77581   -3669.0487 
 6158000    271.85755   -3856.5412   -3390.5867   -3856.5412            0   -650.51576    18.617424    21.928866    22.713214    9272.8738   -929.02498   -1986.0998     963.5775   -191.21157   -445.62476    218.37909   -3478.5594 
 6159000     272.2775   -3832.4988   -3365.8244   -3832.4988            0   -1550.2079    18.711766    22.039989    22.828311    9414.5577   -1445.6862   -2269.9192   -935.01829    98.521458   -1143.8496   -201.11467   -3578.6706 
 6160000    290.71442   -3803.1462   -3304.8717   -3803.1462            0   -1669.4281    18.727839     22.05892     22.84792    9438.8389    -1900.795   -983.57468   -2123.9145    574.48331   -55.968085   -278.40672   -3534.6781 
 6161000    250.84968   -3809.0477      -3379.1   -3809.0477            0   -3085.9621     18.77443    22.113799    22.904761    9509.4611   -2513.3354    -4108.021   -2636.5298    310.57024    520.06117   -187.52424   -3807.0789 
 6162000    270.45704   -3838.9188   -3375.3647   -3838.9188            0   -1163.8731    18.691549    22.016176    22.803646    9384.0751   -1093.2974   -1433.8272   -964.49463   -536.01555     557.6466    1204.8057    -3534.649 
 6163000     276.1176   -3826.2384   -3352.9823   -3826.2384            0   -2370.6995    18.694633    22.019809    22.807409     9388.721   -1938.8276   -2488.3437   -2684.9272   -85.357931    880.26102    427.94108     -3677.59 
 6164000    256.11706   -3805.9429   -3366.9671   -3805.9429            0   -2466.1853    18.669642    21.990372     22.77692    9351.1186    -1802.945   -3141.8106   -2453.8002    243.70908    1515.1582   -170.12049   -3703.2967 
 6165000    290.52219   -3845.1098   -3347.1647   -3845.1098            0   -537.46403    18.579158    21.883794    22.666529    9215.8133    351.28844   -1891.1759   -72.504636   -811.79203    1953.7033   -858.90598   -3419.4015 
 6166000    274.55192   -3791.0603   -3320.4877   -3791.0603            0   -1891.2351    18.535154    21.831963    22.612844    9150.4861   -2141.4367   -1823.8611   -1708.4074    544.75629    773.94997   -209.81739   -3572.8738 
 6167000    265.90131    -3832.926   -3377.1803    -3832.926            0   -2351.9088    18.661662    21.980973    22.767184    9339.1323   -2467.4967   -2240.5106    -2347.719    1322.0122    1160.7845    133.20003   -3697.5142 
 6168000    287.01334   -3806.6623   -3314.7313   -3806.6623            0   -1345.8944    18.586985    21.893013    22.676078    9227.4655   -632.51309    -1842.999    -1562.171    382.52215    742.48062    386.80277   -3495.8525 
 6169000    287.79186   -3799.5354     -3306.27   -3799.5354            0   -1751.6088    18.593561    21.900759    22.684101    9237.2636   -731.43153   -1818.7291   -2704.6658    259.61772   -190.55297   -35.734225   -3542.2398 
 6170000    276.03877   -3787.7103   -3314.5892   -3787.7103            0   -1377.7441    18.485186    21.773108    22.551884    9076.6812    -1574.131    -553.5993   -2005.5018    386.13853    -294.3866    412.53621   -3496.9669 
 6171000    265.70132   -3775.6628   -3320.2599   -3775.6628            0   -199.09639    18.433294    21.711986    22.488576    9000.4551   -412.25421   -798.39456    613.35959   -1056.4643   -314.04412    335.79643   -3346.3937 
 6172000     282.1865   -3791.2382   -3307.5802   -3791.2382            0   -1824.6659    18.502933    21.794011    22.573535    9102.8482   -2566.1078    -1151.762   -1756.1278   -1193.2341     21.40312   -25.136448   -3549.8151 
 6173000    285.85831   -3815.2224   -3325.2711   -3815.2224            0   -747.35229    18.470352    21.755635    22.533786    9054.8466   -855.19505   -885.74342    -501.1184    929.98644   -238.78463   -869.76801   -3423.9632 
 6174000    261.82029    -3792.393    -3343.642    -3792.393            0   -1060.6922    18.541232    21.839122     22.62026    9159.4916   -2245.5278   -533.71901   -402.82985    101.68809    673.90105    939.20736   -3485.3312 
 6175000     262.8908   -3767.8636   -3317.2777   -3767.8636            0    203.06176    18.472826    21.758549    22.536804    9058.4854    1059.6651    1062.0107   -1512.4905    613.51639    85.471685   -591.49496   -3290.4515 
 6176000    275.43382   -3773.3127   -3301.2286   -3773.3127            0   -1856.2689    18.636824    21.951717    22.736882    9301.8927   -2061.2954   -589.57316   -2917.9381    228.59197    961.45946   -351.01853   -3553.0474 
 6177000    280.14307   -3750.1572   -3270.0015   -3750.1572            0   -1799.1013    18.662107    21.981497    22.767727    9339.8014   -1388.5016   -2265.5012   -1743.3011   -380.70611   -5.4562876   -359.17755   -3515.0597 
 6178000    277.82502    -3758.471   -3282.2885    -3758.471            0   -1571.8453    18.719393    22.048973    22.837616    9426.0749   -1340.8022    -1530.394   -1844.3397   -178.64533    862.09173    1722.3146   -3498.3695 
 6179000    263.26757    -3796.175   -3344.9434    -3796.175            0   -1810.4718    18.668162    21.988629    22.775115    9348.8954   -1804.4792   -802.18911   -2824.7472    394.51092    307.26936    149.61257   -3591.7905 
 6180000    262.56416   -3802.4478   -3352.4218   -3802.4478            0   -3230.3781    18.732037    22.063865    22.853041    9445.1878   -2896.8342   -3137.5985   -3656.7015   -714.32042    665.65561   -458.67014   -3797.4012 
 6181000     292.4399   -3838.8418   -3337.6098   -3838.8418            0   -513.42915    18.592862    21.899935    22.683248     9236.221   -825.76088   -1290.8341    576.30757    58.574968    181.46607   -243.70106   -3406.7691 
 6182000    281.55881   -3798.1413   -3315.5591   -3798.1413            0    -1402.569    18.648817    21.965843    22.751513    9319.8616   -649.60006   -3155.0799   -403.02696   -487.35138    762.01035   -189.27338   -3506.1972 
 6183000    275.35109   -3857.6667   -3385.7243   -3857.6667            0    -1965.269    18.679548     22.00204    22.789004    9366.0107    -753.8763   -3265.7409   -1876.1897   -390.85494   -468.40851   -441.07337   -3654.1676 
 6184000     278.6802    -3890.357   -3412.7087    -3890.357            0   -2276.8868     18.77058    22.109264    22.900064    9503.6117   -3062.6581   -1266.8572   -2501.1451    522.74477    892.68803   -495.98667   -3728.2862 
 6185000    282.22609   -3843.5392   -3359.8133   -3843.5392            0    180.69444    18.747602    22.082199    22.872031    9468.7531   -655.50624    670.95817     526.6314    385.95495   -620.22648   -791.91133   -3334.8609 
 6186000    289.81716   -3821.3544   -3324.6177   -3821.3544            0   -1700.4929    18.799249    22.143032     22.93504    9547.2239   -2227.9348   -1232.2855   -1641.2584   -688.26759    692.44763    286.72378   -3561.3883 
 6187000    262.16944   -3803.8196   -3354.4702   -3803.8196            0   -1410.2057    18.735259     22.06766    22.856972    9450.0625   -1679.2486   -1799.9443   -751.42429   -527.18252   -1731.1856   -508.87709    -3548.824 
 6188000    293.45918   -3798.2934   -3295.3144   -3798.2934            0   -2617.1078    18.830434    22.179764    22.973085    9594.8144   -3528.6326   -1191.7596   -3130.9313    262.45977   -74.271173    537.05137   -3661.5277 
 6189000    267.40267   -3842.2352   -3383.9162   -3842.2352            0   -1343.8714     18.60771    21.917425    22.701363    9258.3672   -2755.7951     -1261.51   -14.309201    1221.3653   -680.94544    619.43243   -3565.3708 
 6190000    290.70803   -3758.5608   -3260.2972   -3758.5608            0   -1880.3343     18.75344    22.089076    22.879153    9477.6015   -3030.2347   -432.74873   -2178.0195   -1466.8374    137.48615    1399.0379   -3520.1991 
 6191000    279.32333   -3786.8015   -3308.0509   -3786.8015            0   -3493.3353    18.821537    22.169285    22.962231    9581.2211   -3348.4623   -4337.2073   -2794.3364     316.3652   -973.72388   -916.57124   -3796.1826 
 6192000    286.43056   -3825.0317   -3334.0995   -3825.0317            0   -1010.0635    18.701175    22.027514     22.81539    9398.5812    -191.0574   -1151.5086   -1687.6246   -1001.7183    516.79168    779.08263   -3472.5476 
 6193000     270.2911   -3770.4071   -3307.1374   -3770.4071            0   -2021.5039    18.734519    22.066788    22.856069    9448.9427   -1577.1328   -3350.0059    -1137.373   -203.12194    734.03826   -461.50939    -3585.707 
 6194000     289.9265   -3822.5816   -3325.6575   -3822.5816            0   -964.96779    18.571165    21.874379    22.656778    9203.9244   -1839.6613    39.695906    -1094.938   -75.213927    1253.2751   -98.224112   -3455.1849 
 6195000    280.90958   -3831.2486   -3349.7792   -3831.2486            0   -1411.6029    18.552539     21.85244    22.634054    9176.2583    -2142.721   -1406.1207   -685.96706   -817.20737    451.91429    54.302204   -3538.6888 
 6196000    279.90703   -3840.2022   -3360.4511   -3840.2022            0   -437.33941    18.496729    21.786703    22.565966    9093.6947    -402.0026   -1377.6517    467.63607    262.44915   -649.78484    1390.6325    -3418.452 
 6197000    281.61935   -3808.1548   -3325.4689   -3808.1548            0   -1227.1301      18.6762    21.998097     22.78492    9360.9761    -891.0633    -1967.772   -822.55513   -856.68882   -946.48019    516.30767    -3492.997 
 6198000    282.45437    -3800.759   -3316.6419    -3800.759            0   -818.72442    18.572431    21.875871    22.658323    9205.8074   -1922.5366   -1200.2707    666.63396    730.58959    136.83866    1869.7178   -3426.5616 
 6199000    278.85511   -3812.7072   -3334.7591   -3812.7072            0   -504.19204    18.715892    22.044849    22.833344    9420.7868   -399.37224   -91.054091   -1022.1498    192.01189    337.73845   -316.11572   -3404.0313 
 6200000    266.74422   -3812.7664    -3355.576   -3812.7664            0   -987.00792    18.653862    21.971785    22.757668    9327.4269   -1297.3499     -1176.49   -487.18383   -680.02249   -1246.0046   -689.82169   -3489.8396 
 6201000    276.11286   -3803.7841   -3330.5361   -3803.7841            0   -1411.3182    18.741903    22.075487    22.865078    9460.1205   -1125.0564   -913.33597   -2195.5622   -326.79634   -1514.3806   -179.35626   -3525.2502 
 6202000     277.0405   -3791.5609    -3316.723   -3791.5609            0    -2974.036    18.692351     22.01712    22.804624    9385.2829   -2885.5828   -2922.9727   -3113.5524   -334.85387   -1069.1341   -569.94321   -3723.7934 
 6203000    272.01074   -3844.1271     -3377.91   -3844.1271            0   -1154.6363    18.572568    21.876032    22.658489    9206.0103    -1050.219    -1562.391   -851.29896     578.3231   -55.980537    434.77322   -3532.9317 
 6204000    279.15174   -3863.5545    -3385.098   -3863.5545            0   -1584.5669    18.572111    21.875493    22.657931    9205.3302   -1413.5765   -2740.9073    -599.2168     172.7072    597.52017    278.96037   -3597.8265 
 6205000    274.45536   -3868.3676   -3397.9605   -3868.3676            0   -2655.4766    18.818043    22.165169    22.957969    9575.8863   -3736.1814   -1518.0008   -2712.2475     345.6258    657.47883   -378.65117   -3768.8097 
 6206000    271.16971   -3866.1413   -3401.3657   -3866.1413            0    -1269.725    18.795518    22.138638    22.930488    9541.5407   -1230.7178    -983.8334   -1594.6238   -1269.6065   -761.48055    1295.2071   -3578.0525 
 6207000    285.52979   -3872.0959   -3382.7076   -3872.0959            0   -1153.0076    18.627973    21.941292    22.726084    9288.6457    -2255.708   -1185.7698   -17.545057    128.66103   -558.26147    846.90915   -3538.9002 
 6208000    287.22384   -3847.8654   -3355.5736   -3847.8654            0   -22.576754     18.71821    22.047579    22.836172    9424.2874    1586.7793   -2505.7458    851.23625   -1470.0479    1218.1113    438.20938   -3358.6766 
 6209000    274.71909   -3853.2351    -3382.376   -3853.2351            0   -1362.3397    18.667031    21.987297    22.773735    9347.1962   -8.6932579   -2925.8288   -1152.4971   -405.16241   -85.689641    381.42748   -3568.0891 
 6210000    283.99899   -3818.5462   -3331.7817   -3818.5462            0   -681.59241    18.813593    22.159927    22.952539    9569.0939   -703.99103   -2002.4517    661.66553    930.83205   -199.12507    196.59361   -3426.9016 
 6211000    280.64192   -3882.5102   -3401.4996   -3882.5102            0   -2208.0722    18.671634    21.992719     22.77935    9354.1124   -1845.0668   -2981.8778   -1797.2722    11.076552   -271.90582   -658.82842   -3702.7251 
 6212000    277.07712   -3845.0422   -3370.1415   -3845.0422            0   -1229.4526    18.857237    22.211335    23.005785    9635.8444   -842.76392   -1538.4427   -1307.1512   -399.74127   -1020.0493   -187.78606   -3542.9152 
 6213000    275.50937   -3855.1259   -3382.9122   -3855.1259            0   -1258.5957    18.759056     22.09569    22.886005    9486.1185   -1560.4752   -1337.0938   -878.21816    -494.8031    48.264293    250.35493    -3557.033 
 6214000     268.9365   -3861.6312   -3400.6832   -3861.6312            0   -416.84352    18.623778    21.936351    22.720966    9282.3716    500.64574   -408.73535    -1342.441   -375.09885    381.07395   -372.15793   -3457.1129 
 6215000    266.51107   -3921.1765   -3464.3856   -3921.1765            0   -1375.3662    18.633666    21.947997    22.733029    9297.1641   -1472.7478   -1725.2712   -928.07964   -205.60968     719.7789    459.14017    -3650.871 
 6216000    291.51842   -3924.2431   -3424.5905   -3924.2431            0   -1064.7101    18.738915    22.071967    22.861433    9455.5968   -768.04705    -622.3448   -1803.7385    1143.2973    513.77267   -543.36598   -3571.4143 
 6217000    265.26654   -3876.9807   -3422.3229   -3876.9807            0   -1714.2084    18.707489    22.034951    22.823093    9408.1032   -1980.3762   -2031.3145   -1130.9344    17.666768    955.19627   -215.00339   -3657.5252 
 6218000    277.81422   -3853.2993   -3377.1352   -3853.2993            0   -1865.6712     18.70935    22.037143    22.825364    9410.9117   -2204.4418    -1967.397   -1425.1748   -36.239909   -250.76166   -569.15751   -3633.1958 
 6219000    284.79461   -3843.7504   -3355.6222   -3843.7504            0    -483.2034    18.647729    21.964561    22.750185    9318.2298   -482.55092   -657.10446   -309.95481   -133.40584    312.23617    1104.9153    -3421.288 
 6220000    281.81409   -3908.8562   -3425.8365   -3908.8562            0   -1222.7477     18.74892    22.083752    22.873639    9470.7502   -745.37116   -2448.8609   -474.01091    504.56898   -183.50827   -661.18506   -3594.7239 
 6221000    273.75889   -3839.6709   -3370.4575   -3839.6709            0   -2386.9952    18.764638    22.102265    22.892814    9494.5883   -3951.9641    -748.5868   -2460.4346   -727.53175    1140.7769   -1067.1803   -3700.9819 
 6222000    272.12804   -3877.3601   -3410.9419   -3877.3601            0   -1742.0326    18.784917    22.126151    22.917554     9525.404   -1771.6575    -877.7556   -2576.6846    872.11142   -844.06038   -544.50741    -3652.942 
 6223000     275.4773   -3879.9963   -3407.8377   -3879.9963            0   -773.09983    18.716765    22.045877     22.83441    9422.1056   -286.42316    -921.4178   -1111.4585   -201.15066   -1209.5895    990.48377   -3514.0707 
 6224000    274.33462   -3838.8812   -3368.6811   -3838.8812            0   -321.03403    18.773136    22.112275    22.903182    9507.4943   -1356.7075     1348.087    -954.4816    732.22298   -122.77449    931.03433   -3413.1947 
 6225000    266.73241   -3863.8547   -3406.6845   -3863.8547            0   -506.12776    18.740883    22.074284    22.863833     9458.575   -1078.1484   -1690.0467    1249.8119    557.53218   -437.48092    5.7058497   -3476.5016 
 6226000    279.14325   -3847.9849   -3369.5429   -3847.9849            0   -843.86638    18.718141    22.047498    22.836089     9424.184    -1057.851   -560.66361   -913.08458    -1.465359    560.77387   -552.19217   -3485.5257 
 6227000    276.38234   -3778.2045   -3304.4947   -3778.2045            0   -1591.3652    18.867584    22.223522    23.018409     9651.715   -1582.9324    -1279.108   -1912.0551    265.80428    1106.3249    149.22041   -3528.4958 
 6228000     273.1645   -3832.7495   -3364.5549   -3832.7495            0   -2539.6808    18.765096    22.102805    22.893374    9495.2848     -2377.98   -2091.4222   -3149.6401   -734.25325    137.31193    640.65801   -3716.2473 
 6229000    286.46897   -3876.7411   -3385.7431   -3876.7411            0    -1770.009    18.896275    22.257316    23.053411    9695.8117   -2434.0482   -2120.9229   -755.05583   -617.69958   -463.44115   -151.96928   -3636.0285 
 6230000    272.75707   -3829.9033    -3362.407   -3829.9033            0   -2210.9564    18.830102    22.179373     22.97268    9594.3065   -1465.8211   -3274.0092   -1893.0388   -1003.7313   -1112.0785     11.33515   -3671.7709 
 6231000    281.48057   -3877.1942   -3394.7461   -3877.1942            0   -711.51944     18.74055    22.073893    22.863428     9458.072     241.9624    -2051.247   -325.27367   -384.13704    87.431952     -542.219   -3492.8905 
 6232000    271.61208   -3839.0103   -3373.4765   -3839.0103            0   -179.89069    18.734648    22.066941    22.856227    9449.1389    35.562071    18.604135   -593.83829   -368.71024   -251.82912   -327.76889   -3398.2665 
 6233000    273.39238   -3856.0524   -3387.4672   -3856.0524            0   -1385.6835    18.828755    22.177787    22.971037    9592.2484   -2178.9846    -1179.313   -798.75294    97.177398    28.980217    548.54908   -3581.3148 
 6234000    287.50726   -3844.4956    -3351.718   -3844.4956            0   -773.22535    18.739238    22.072347    22.861826    9456.0849   -492.41443    13.168319   -1840.4299   -632.15504   -1073.6021   -387.84398   -3458.3514 
 6235000    280.65145   -3861.4183   -3380.3913   -3861.4183            0   -2392.3028     18.82517    22.173564    22.966663      9586.77   -2052.2068   -2766.5861   -2358.1155    517.17952    407.38094    -872.0875   -3714.8668 
 6236000    263.88858   -3835.1046   -3382.8086   -3835.1046            0   -1755.7977    18.830229    22.179522    22.972835    9594.5007   -2907.6775   -987.29982   -1372.4158    664.79515    168.18133    974.23348   -3628.4902 
 6237000    279.24369   -3864.8713   -3386.2572   -3864.8713            0   -1856.0756    18.808918    22.154421    22.946836    9561.9621   -2874.5507   -1099.3172   -1594.3588   -626.63799    146.58649   -390.70434   -3645.0895 
 6238000    280.11614   -3846.3451   -3366.2357   -3846.3451            0   -2785.1597    18.861433    22.216276    23.010904    9642.2775   -3630.0103    -2240.376   -2485.0928   -762.90554   -88.837261    584.82734   -3757.8924 
 6239000    263.77121   -3848.4774   -3396.3825   -3848.4774            0   -1906.8634    18.718005    22.047337    22.835922    9423.9779   -2475.7125   -2198.6374   -1046.2403    837.89494    113.80104   -337.78612     -3658.46 
 6240000     280.2179   -3851.8638   -3371.5799   -3851.8638            0   -1857.8764    18.816135    22.162922    22.955641    9572.9737   -3649.7436   -2625.6236    701.73802     1309.066    6.9670496   -517.06091   -3630.9618 
 6241000    262.27078   -3844.2778   -3394.7546   -3844.2778            0   -2666.6276    18.894295    22.254984    23.050996    9692.7645   -3581.0626   -1630.0894   -2788.7309   -619.78063   -636.85255    -353.3546   -3771.7065 
 6242000    274.59442   -3855.6913   -3385.0458   -3855.6913            0   -1973.5564     18.87337    22.230337    23.025467    9660.5962    -986.3501    -2866.646   -2067.6732    249.26191    163.62427   -226.79165      -3663.1 
 6243000    280.64344   -3852.1931   -3371.1799   -3852.1931            0   -811.04489    18.709423    22.037229    22.825452    9411.0214   -1770.3455   -162.72311   -500.06609   -267.32469    1147.1357   -393.86418   -3482.4958 
 6244000    281.33422   -3874.8034   -3392.6062   -3874.8034            0    -1731.413    18.742384    22.076053    22.865665    9460.8482   -1174.4867   -2425.2993    -1594.453   -610.35627   -1101.9523   -39.739306    -3631.501 
 6245000     280.5139   -3841.3995   -3360.6082   -3841.3995            0   -618.86679    18.732046    22.063876    22.853053     9445.202   -963.72951    675.51894   -1568.3898    112.72515    890.96766    1490.0359   -3445.8563 
 6246000     277.5954   -3863.0127   -3387.2237   -3863.0127            0   -233.92493    18.752926    22.088469    22.878526    9476.8212   -1150.5734   -529.32784    978.12648   -866.74388   -133.48159   -17.597863   -3419.5544 
 6247000    272.00713   -3863.0574   -3396.8464   -3863.0574            0    -1173.276    18.743171     22.07698    22.866625    9462.0405    18.317449   -2231.1311   -1307.0144   -1050.0941   -152.93883   -636.71542   -3558.7517 
 6248000    280.98885   -3833.3031   -3351.6978   -3833.3031            0   -2176.6424    18.916068    22.280629    23.077558    9726.3115   -2453.8867   -1539.4811   -2536.5593    1132.3764    -713.0492    97.095376   -3660.4508 
 6249000    263.09039   -3870.9986   -3420.0707   -3870.9986            0   -1649.5791    18.786053    22.127489    22.918941    9527.1329   -1969.8077   -1640.5766   -1338.3531   -1181.3519   -1348.7215   -551.27963   -3649.2689 
 6250000    283.00818   -3822.1102   -3337.0438   -3822.1102            0   -1729.2446    18.818432    22.165628    22.958443    9576.4801   -1437.6357   -1908.9547   -1841.1436   -398.03319   -694.89765    617.64568   -3578.5556 
Loop time of 346.65 on 64 procs for 250000 steps with 864 atoms

Performance: 124.622 ns/day, 0.193 hours/ns, 721.189 timesteps/s
379.4% CPU use with 16 MPI tasks x 4 OpenMP threads

MPI task timing breakdown:
Section |  min time  |  avg time  |  max time  |%varavg| %total
---------------------------------------------------------------
Pair    | 25.885     | 26.801     | 27.935     |  10.5 |  7.73
Bond    | 1.649      | 1.8168     | 2.2552     |  10.3 |  0.52
Kspace  | 179.51     | 181.49     | 183.16     |   7.0 | 52.35
Neigh   | 3.272      | 3.3924     | 3.5271     |   3.7 |  0.98
Comm    | 54.006     | 56.736     | 59.297     |  19.6 | 16.37
Output  | 0.66195    | 0.66227    | 0.66342    |   0.0 |  0.19
Modify  | 56.828     | 62.162     | 65.548     |  38.4 | 17.93
Other   |            | 13.59      |            |       |  3.92

Nlocal:        54.0000 ave          60 max          44 min
Histogram: 1 0 1 1 0 3 6 0 2 2
Nghost:        2452.44 ave        2493 max        2424 min
Histogram: 2 1 3 1 3 2 2 1 0 1
Neighs:        12869.3 ave       14135 max        9922 min
Histogram: 1 0 0 0 1 2 3 3 3 3

Total # of neighbors = 205909
Ave neighs/atom = 238.32060
Ave special neighs/atom = 2.0000000
Neighbor list builds = 14905
Dangerous builds = 0

unfix		3
unfix		2
unfix		1

write_data	data.final.${pid}
write_data	data.final.1
System init for write_data ...
PPPM initialization ...
  extracting TIP4P info from pair style
  using 12-bit tables for long-range coulomb (../kspace.cpp:340)
  G vector (1/distance) = 0.37118083
  grid = 24 25 27
  stencil order = 5
  estimated absolute RMS force accuracy = 0.0031969873
  estimated relative force accuracy = 9.6276323e-06
  using double precision FFTW3
  3d grid and FFT values/proc = 5700 1200
Last active /omp style is kspace_style pppm/tip4p/omp
WARNING: Not all mixed pair coeffs generated from mixing. Use write_data with 'pair ij' option to store all pair coeffs. (../write_data.cpp:312)

write_restart   restart.lmp.${pid}
write_restart   restart.lmp.1
System init for write_restart ...
PPPM initialization ...
  extracting TIP4P info from pair style
  using 12-bit tables for long-range coulomb (../kspace.cpp:340)
  G vector (1/distance) = 0.37118083
  grid = 24 25 27
  stencil order = 5
  estimated absolute RMS force accuracy = 0.0031969873
  estimated relative force accuracy = 9.6276323e-06
  using double precision FFTW3
  3d grid and FFT values/proc = 5700 1200
Last active /omp style is kspace_style pppm/tip4p/omp
Total wall time: 0:05:46
