#include		in.partitions
include		in.temp
variable        temperature equal 35.10
variable	tempDamp equal 100.0
include		in.pressure
variable        pressure equal 2001.7
variable        pressureDamp equal 1000.0 # This is 1 ps
include		in.seed
variable        seed equal 745823

units		real
atom_style	full
box tilt large
read_restart	restart.lmp.${pid}
read_restart	restart.lmp.0
Reading restart file ...
  restart file = 30 Jul 2021, LAMMPS = 30 Jul 2021
  restoring atom style full from restart
  triclinic box = (-10.560323 -9.1898229 0.12699357) to (12.540323 12.179821 21.733005) with tilt (-9.1418844 1.8201416 2.8602439)
  2 by 2 by 4 MPI processor grid
  restoring pair style lj/cut/tip4p/long/omp from restart
  restoring bond style harmonic/omp from restart
  restoring angle style harmonic/omp from restart
  1296 atoms
  864 bonds
  432 angles
Finding 1-2 1-3 1-4 neighbors ...
  special bond factors lj:    0        0        0       
  special bond factors coul:  0        0        0       
     2 = max # of 1-2 neighbors
     1 = max # of 1-3 neighbors
     1 = max # of 1-4 neighbors
     2 = max # of special neighbors
  special bonds CPU = 0.001 seconds
  read_restart CPU = 0.005 seconds
include 	in.setup
variable	out_freq equal 1000
variable	out_freq2 equal 10000
variable	out_freq3 equal 1000

timestep	2.0

neigh_modify    delay 7 every 1

include		in.tip4p
# This is TIP4P/Ice

# create groups ###
group ox type 2
432 atoms in group ox
group hy type 1
864 atoms in group hy

# set charges - beside manually ###
set group ox charge -1.1794
Setting atom values ...
  432 settings made for charge
set group hy charge 0.5897
Setting atom values ...
  864 settings made for charge

# ### TIP3P Potential Parameters ###
pair_style lj/cut/tip4p/long/omp 2 1 1 1 0.1577 8.5
pair_coeff 1 1*2 0.000 0.000
pair_coeff 2 2 0.21084 3.1668
bond_style  harmonic
bond_coeff  1 450 0.9572
angle_style harmonic
angle_coeff 1 55 104.52
kspace_style pppm/tip4p/omp 1.0e-5
pair_modify tail yes

thermo          ${out_freq}
thermo          1000
thermo_style    custom step temp pe etotal epair emol press lx ly lz vol pxx pyy pzz pxy pxz pyz enthalpy

restart 	${out_freq3} restart.lmp.${pid} restart2.lmp.${pid}
restart 	1000 restart.lmp.${pid} restart2.lmp.${pid}
restart 	1000 restart.lmp.0 restart2.lmp.${pid}
restart 	1000 restart.lmp.0 restart2.lmp.0


include         in.dump
dump            myDump all atom ${out_freq2} dump.water.${pid}
dump            myDump all atom 10000 dump.water.${pid}
dump            myDump all atom 10000 dump.water.0
dump            myDump2 all dcd ${out_freq2} dump.dcd
dump            myDump2 all dcd 10000 dump.dcd
dump_modify     myDump append yes
dump_modify     myDump2 append yes


variable natoms 	equal  "count(all)"                        # NUMBER ATOMS
variable H      	equal  "enthalpy/v_natoms"                 # ENTHALPY-per-atom
variable Vol      	equal  "vol/v_natoms"                 # volume-per-atom
fix AVG all 		ave/time ${out_freq} 1 ${out_freq} v_Vol v_H file vol_enthalpy.dat
fix AVG all 		ave/time 1000 1 ${out_freq} v_Vol v_H file vol_enthalpy.dat
fix AVG all 		ave/time 1000 1 1000 v_Vol v_H file vol_enthalpy.dat


timer           timeout 10:00:00 every 1000
New timer settings: style=normal  mode=nosync  timeout=10:00:00

fix 		1 all shake 1e-6 200 0 b 1 a 1
       0 = # of size 2 clusters
       0 = # of size 3 clusters
       0 = # of size 4 clusters
     432 = # of frozen angles
  find clusters CPU = 0.000 seconds
fix             2 all nph tri ${pressure} ${pressure} ${pressureDamp}
fix             2 all nph tri 2001.7 ${pressure} ${pressureDamp}
fix             2 all nph tri 2001.7 2001.7 ${pressureDamp}
fix             2 all nph tri 2001.7 2001.7 1000
fix             3 all temp/csvr ${temperature} ${temperature} ${tempDamp} ${seed}
fix             3 all temp/csvr 35.1 ${temperature} ${tempDamp} ${seed}
fix             3 all temp/csvr 35.1 35.1 ${tempDamp} ${seed}
fix             3 all temp/csvr 35.1 35.1 100 ${seed}
fix             3 all temp/csvr 35.1 35.1 100 745823


run             250000
PPPM initialization ...
  extracting TIP4P info from pair style
  using 12-bit tables for long-range coulomb (../kspace.cpp:340)
  G vector (1/distance) = 0.36800566
  grid = 30 40 32
  stencil order = 5
  estimated absolute RMS force accuracy = 0.0043936815
  estimated relative force accuracy = 1.3231441e-05
  using double precision FFTW3
  3d grid and FFT values/proc = 11832 2400
Last active /omp style is kspace_style pppm/tip4p/omp
Neighbor list info ...
  update every 1 steps, delay 7 steps, check yes
  max neighbors/atom: 2000, page size: 100000
  master list distance cutoff = 10.8154
  ghost atom cutoff = 10.8154
  binsize = 5.4077, bins = 7 5 4
  1 neighbor lists, perpetual/occasional/extra = 1 0 0
  (1) pair lj/cut/tip4p/long/omp, perpetual
      attributes: half, newton on, omp
      pair build: half/bin/newton/tri/omp
      stencil: half/bin/3d/tri
      bin: standard
Per MPI rank memory allocation (min/avg/max) = 12.76 | 12.77 | 12.77 Mbytes
Step Temp PotEng TotEng E_pair E_mol Press Lx Ly Lz Volume Pxx Pyy Pzz Pxy Pxz Pyz Enthalpy 
41250000    37.122306    -6934.356   -6838.8612    -6934.356            0     1656.274    23.100645    21.369644    21.606012    10665.863     1696.664     1604.576    1667.5819   -150.06335    97.998836     -72.3925   -6581.2266 
41251000    34.363692   -6932.6905    -6844.292   -6932.6905            0    1984.1009    23.193805    21.242348    21.634204    10658.975     1684.432    1941.3718    2326.4987   -218.88895    258.14492    178.15489   -6535.8631 
41252000    34.525819   -6932.5928   -6843.7772   -6932.5928            0    2179.8269    23.074986    21.343445    21.625101    10650.356    2407.9247     2236.764     1894.792   -58.395869   -169.20912   -101.69718   -6505.1967 
41253000    34.068538   -6932.1454   -6844.5062   -6932.1454            0    2021.1635    23.113692    21.282248    21.651049    10650.396    2492.5567    1777.6396    1793.2943    295.19982    -244.1093    284.50459   -6530.5688 
41254000    32.897876   -6933.4756   -6848.8478   -6933.4756            0    2396.5908    23.166028    21.230784     21.61947    10633.167    2680.5729    2425.6377    2083.5617   -186.81078      -322.28   -37.461553   -6477.1993 
41255000    34.432664    -6933.738    -6845.162    -6933.738            0    2144.5337    23.092431    21.351912    21.569907    10635.422    2515.3126    2020.2898    1897.9986   -157.87231    205.02383   -440.52196   -6512.5305 
41256000    35.979146   -6934.3598   -6841.8057   -6934.3598            0    1988.2041    23.228637    21.205866    21.610949    10645.194    1792.2642    1914.6565    2257.6916   -191.77948    -22.54026    133.96565   -6533.1385 
41257000     34.88034   -6936.4897   -6846.7621   -6936.4897            0    1874.3015    23.118417     21.30734    21.619934    10649.806    2100.7945    2195.8177    1326.2923     162.8079   -153.58502   -509.58319   -6555.6522 
41258000    34.771448   -6933.4955   -6844.0481   -6933.4955            0    2113.2157    23.143693    21.289124    21.604782     10644.87    1844.9393    2268.0697    2226.6382    -312.1005    152.55887   -102.70773    -6515.983 
41259000    36.461711   -6931.8859   -6838.0904   -6931.8859            0    1875.5899    23.232376    21.224979     21.61265    10657.343    1629.4127     2248.838     1748.519    84.474889   -239.28341   -408.61752   -6546.5742 
41260000    35.947195   -6935.9671   -6843.4951   -6935.9671            0    1940.4763    23.113727    21.333066    21.589318    10645.405    2052.3143    1827.0186    1942.0961    107.83715   -333.95747   -319.43555   -6542.2317 
41261000    35.912871   -6936.2772   -6843.8935   -6936.2772            0    1839.9712    23.220699    21.181114    21.671086    10658.713    1427.0479    2226.6885    1866.1771   -224.02507    186.10131    532.66406   -6557.8766 
41262000    35.689389   -6930.0627   -6838.2539   -6930.0627            0    1978.1799    23.097281    21.337657    21.612132    10651.363    2417.3544    1968.1278    1549.0576   -23.420524    416.10413    11.696798    -6530.965 
41263000    35.741925    -6932.753   -6840.8091    -6932.753            0    1997.8263    23.124713    21.342805    21.570649    10646.113    2589.4739    1226.5208    2177.4841  0.023716804    -412.3657    419.18393   -6530.6213 
41264000     34.64235   -6937.8711   -6848.7558   -6937.8711            0    2106.9496    23.183095    21.241513    21.598017    10635.814    1989.2242    2305.7201    2025.9044   -690.81175    134.34631    207.55166   -6521.9417 
41265000     36.25501   -6937.6377   -6844.3739   -6937.6377            0    1988.8913    23.076464    21.331013    21.623427     10644.01    2158.7015    2059.4888    1748.4835    185.95802    575.64775    68.669261   -6535.6344 
41266000    35.203301   -6935.5968   -6845.0385   -6935.5968            0    2344.5731     23.19013    21.215283    21.616657    10635.075    2737.8283    2508.3506    1787.5403   -277.55879   -282.42103   -133.49562   -6481.3913 
41267000    35.856027   -6936.9554    -6844.718   -6936.9554            0    1793.0258     23.13417    21.351154    21.560631    10649.685    2152.1222     1316.899    1910.0563   -341.40862   -120.83022   -61.413974   -6566.2347 
41268000    34.755533   -6937.6768   -6848.2703   -6937.6768            0    2090.5621    23.167897    21.294292    21.572618    10642.721    1590.7126    1945.7553    2735.2185    221.16562    140.60003    292.55772   -6523.7876 
41269000    34.799109    -6935.221   -6845.7024    -6935.221            0    1889.6826    23.183986    21.224613    21.652279    10654.462    2156.3355    2277.7228    1234.9896   -131.49374   -339.44719   -265.92872   -6552.0752 
41270000    33.981308   -6935.0357   -6847.6208   -6935.0357            0    1920.2091     23.13149    21.306496     21.59735    10644.275    1957.7836    2161.9191    1640.9246    345.23979   -15.044932   -146.51895   -6549.5356 
41271000    35.562617    -6940.813   -6849.3304    -6940.813            0    2082.2484    23.263416    21.207843    21.561351    10637.656     1471.559    2631.9012    2143.2849   -25.724667    144.63719   -288.59634   -6526.2918 
41272000    36.474942   -6937.2495   -6843.4199   -6937.2495            0    1875.0716     23.17173    21.356972    21.513041    10646.331    1785.7339    1261.3022    2578.1788   -364.13142   -53.575779    133.77761   -6552.2854 
41273000    35.284579   -6936.8197   -6846.0523   -6936.8197            0    1932.7708     23.20135    21.245969    21.597915    10646.372    2024.6362     2432.502    1341.1742   -231.18841    -24.43517   -586.88038   -6545.9579 
41274000    37.533116   -6931.6899   -6835.1382   -6931.6899            0    2101.5955    23.183275    21.278656    21.593342    10652.189    1880.0701    2196.2865    2228.4299    477.78834   -112.42805    278.69702   -6508.6527 
41275000    36.458186   -6933.8179   -6840.0315   -6933.8179            0    1919.3584    23.151998    21.347584    21.549271    10650.495    1750.8363    1850.5229    2156.7161   -224.79995    182.77467   -71.623116   -6541.9042 
41276000    36.303485   -6933.0906   -6839.7021   -6933.0906            0    1799.2447    23.252425    21.279768     21.52986    10653.108    1647.9308    1524.5362    2225.2671   -218.03209    174.16455   -319.69374    -6560.163 
41277000    35.669191   -6933.3602   -6841.6034   -6933.3602            0    2123.2935    23.125972    21.365476    21.530596    10638.212    2209.2501    1657.6906      2502.94    193.13683   -407.67943     305.5186   -6512.1799 
41278000    34.487432   -6937.4842   -6848.7673   -6937.4842            0    2169.1703    23.174825    21.245953    21.603381    10636.883    1874.7553    2611.4107    2021.3449    204.53125   -244.45973   -389.20406   -6512.2682 
41279000    34.936651   -6938.3308   -6848.4584   -6938.3308            0    1680.8402    23.198704    21.261687    21.609798    10658.894    1666.0658    1870.7533    1505.7017    271.44793   -23.146238   -145.10066   -6587.1734 
41280000    36.753371   -6933.9341   -6839.3883   -6933.9341            0    2194.6887    23.164762    21.311925     21.55015        10639    1807.4194    2298.9487     2477.698   -233.17847    438.24743    167.18757   -6498.8628 
41281000    37.229938   -6934.9757   -6839.2039   -6934.9757            0    1955.4076    23.243133    21.249723    21.552411    10644.955     1536.838     2279.725    2049.6599    271.28111    44.531893   -12.264276   -6535.6352 
41282000    37.582507   -6937.6307    -6840.952   -6937.6307            0    2144.2744    23.098063    21.318284    21.601983    10637.055    2335.6022    2358.6088    1738.6123    119.58416    277.64118    81.581411   -6508.3095 
41283000    34.522056   -6933.8157   -6845.0098   -6933.8157            0    1741.8734    23.171821    21.262836    21.645732    10664.823    1670.8254    1834.9458     1719.849    -27.28708   -93.279884    172.59887   -6574.0867 
41284000    35.583746   -6937.2436   -6845.7065   -6937.2436            0    1681.3147    23.185657    21.257694    21.623001    10657.406    1775.4104    1482.8403    1785.6934    332.61413      15.0243    164.79693   -6584.3843 
41285000    33.913045   -6935.8709   -6848.6317   -6935.8709            0    2089.7025    23.140134    21.363862    21.518575    10637.979    2117.5083    1481.4118    2670.1874   -50.852681   -113.01549    459.44319   -6524.4269 
41286000    34.960872     -6936.57   -6846.6353     -6936.57            0    1713.2911    23.191143    21.273681    21.591847    10652.575     1768.171    1740.1907    1631.5116   -310.68259    136.65556    103.59883   -6580.4638 
41287000    36.437443   -6936.3483   -6842.6152   -6936.3483            0    1909.1919    23.086827    21.320469    21.626423    10645.001    2568.8647    1545.4945    1613.2165     242.4666   -20.212887    195.46899     -6546.22 
41288000    35.369866   -6936.0159   -6845.0291   -6936.0159            0    2160.3161    23.190366    21.203043    21.635741    10638.431    1746.4502     2737.041    1997.4572     474.4352   -94.901266    201.82936   -6509.8547 
41289000    35.402979   -6935.2605   -6844.1885   -6935.2605            0    1842.5623    23.139614    21.348986    21.541413    10641.615    1927.5282     1674.251    1925.9078   -293.87952   -229.70788   -470.06916   -6558.2282 
41290000    34.298642   -6935.3123   -6847.0811   -6935.3123            0    1973.3466    23.172272    21.313244    21.549238    10642.658    1519.6719    1977.6553    2422.7127    453.08373    32.528921   -89.933198   -6540.7936 
41291000    34.638869   -6936.2873   -6847.1809   -6936.2873            0    1782.9503    23.246492    21.238911    21.583114    10656.235    1300.6741    2033.6748    2014.5019    112.26783     -88.4939   -16.904387   -6570.0922 
41292000    35.068616   -6935.6888   -6845.4769   -6935.6888            0     1754.649    23.108717    21.350544    21.603127     10658.63    2007.6599    1804.7875    1451.4995    321.68011    206.08617   -24.014917   -6572.7252 
41293000    36.078356   -6935.2485   -6842.4391   -6935.2485            0    2172.2546    23.240552    21.181852    21.627624    10646.802    2148.6051    2666.4886    1701.6703   -123.31305   -187.21697   -8.0258565   -6505.1473 
41294000    36.542364   -6936.3464   -6842.3434   -6936.3464            0    2161.6483    23.074998    21.380624    21.548968    10631.353    2508.7383     1638.345    2337.8618   -224.85144    293.77117    197.07439   -6507.1855 
41295000    33.589021   -6940.5763   -6854.1706   -6940.5763            0    1882.6301    23.171531    21.278304    21.578913    10639.502     1558.744    2086.2513    2002.8951   -183.62816    -9.272642   -8.1407784     -6562.05 
41296000    36.050884   -6935.7338   -6842.9951   -6935.7338            0    2000.3245    23.173136    21.243194    21.619204    10642.516    2122.2257    1936.6797     1942.068   -254.71655   -174.91745   -162.91915   -6532.5244 
41297000    34.879896   -6937.7857   -6848.0593   -6937.7857            0     1955.016    23.093913    21.352317    21.579646    10641.108    2407.0969    1493.9666    1963.9846    50.706827     3.802532    197.68936   -6544.6611 
41298000    35.424908   -6933.6202   -6842.4917   -6933.6202            0    2145.0822    23.247513      21.1862    21.598488    10637.827    2072.0167    2188.5853    2174.6447   -289.35946    23.990118     68.69781   -6509.6998 
41299000    35.458371   -6934.1017   -6842.8872   -6934.1017            0    1941.8319    23.085554    21.412513    21.531427    10643.409    2185.2859    1775.4984    1864.7115   -176.87039   -268.07645   -385.89062   -6541.4698 
41300000    36.760096   -6939.5633   -6845.0002   -6939.5633            0    1891.6827    23.209665    21.288241     21.56395    10654.596    1448.8044    2012.6966    2213.5471   -20.338579     291.1461   -235.98172   -6551.0586 
41301000    36.686935   -6935.7636   -6841.3887   -6935.7636            0    1939.4097    23.214676    21.244083      21.5993    10652.224    2071.8259    2340.9777    1405.4256   -642.06902    394.93611   -350.60664    -6540.098 
41302000    36.029303   -6940.7173   -6848.0342   -6940.7173            0    2106.4988    23.127026    21.343151    21.550766    10637.536    1955.3454    2072.4677    2291.6833    142.41036    473.62507   -222.97222   -6521.2371 
41303000    34.272397   -6936.2571   -6848.0934   -6936.2571            0    1457.4176    23.290025    21.226683    21.579056    10668.037    852.89348    2225.2545    1294.1047   -275.55551   -37.889839    -418.8066   -6621.3449 
41304000    34.825853   -6930.7478   -6841.1605   -6930.7478            0    2050.6515    23.121931    21.362563    21.561857    10650.344    2403.2427    1538.9164    2209.7954     4.871439    289.88023    -25.31196   -6522.6444 
41305000    35.148358   -6933.5225   -6843.1055   -6933.5225            0    1918.7195    23.177741    21.264623    21.615502    10653.544    2246.2789    2052.9368    1456.9427    49.981984   -365.98239   -330.65767   -6544.9921 
41306000    37.084166   -6935.4833   -6840.0865   -6935.4833            0    1834.5961    23.162101    21.279517    21.623416    10657.713    2038.7662     1583.351    1881.6712   -190.89681   -2.5069492    141.67704   -6554.9319 
41307000    35.494443   -6935.7603   -6844.4531   -6935.7603            0    2157.6975    23.094928     21.34705    21.575196    10636.757    2399.2037    1861.7326    2212.1562   -152.26477    421.33597    23.701783   -6509.7377 
41308000    34.151607   -6933.6979    -6845.845   -6933.6979            0    1959.4681    23.235125    21.202354     21.61639    10649.084    1494.1346    2489.4835    1894.7861   -250.41742   -475.36751    94.492925   -6541.5279 
41309000    35.693457   -6935.1275   -6843.3082   -6935.1275            0    1895.3141    23.055773    21.399574    21.579514    10646.981    2198.4199    1504.4359    1983.0866   -343.75262     466.5224   -85.245408   -6549.0128 
41310000    34.388722    -6938.055   -6849.5921    -6938.055            0    2217.9367    23.194767    21.208587    21.617264    10634.143    2257.6071     2295.561    2100.6419    253.06924   -449.27311    674.75227   -6505.6166 
41311000    35.817217   -6936.9533   -6844.8157   -6936.9533            0    1986.7697    23.143725    21.299109    21.587368    10641.293    2000.7845    1765.6957    2193.8288    341.14651    248.64238    474.24615   -6536.4842 
41312000     35.24464    -6932.525   -6841.8603    -6932.525            0     2054.852    23.117962     21.32474    21.573457    10635.381    2180.6196    1719.3117    2264.6248    66.307568    231.98424    105.11429   -6523.1402 
41313000    36.507895   -6932.8955   -6838.9811   -6932.8955            0    1845.7993    23.212275    21.249353    21.597878    10653.063    1249.6307    2222.9129    2064.8544    421.65274   -175.86143    5.2656732   -6552.2104 
41314000    35.888529   -6938.8473   -6846.5262   -6938.8473            0    2123.4801    23.075115    21.381729    21.543148    10629.085    2092.1262    2141.8022    2136.5118    94.094289    218.16331   -214.78323   -6517.3564 
41315000    34.120153   -6939.6404   -6851.8684   -6939.6404            0    1766.2862    23.232584    21.226807    21.600122    10652.178     1396.919     2258.919    1643.0206   -301.46212    84.457312   -331.18079   -6577.4739 
41316000    36.494139   -6934.7002   -6840.8213   -6934.7002            0    1889.6214    23.150145    21.316598    21.583943    10651.294    2043.2606     1363.655    2261.9485   -86.543143    171.33794    221.73956   -6547.2909 
41317000    33.507902   -6935.2356   -6849.0385   -6935.2356            0    1920.1494    23.107876    21.373935    21.544328    10640.878     2213.266    1695.0146    1852.1675    143.24715   -98.336625   -273.35176   -6551.0577 
41318000    33.618211   -6934.6458    -6848.165   -6934.6458            0    2206.2508    23.233211    21.212039    21.581462    10635.858    1799.6061     2444.997    2374.1493   -428.94083   -131.78254    -365.3215   -6505.9467 
41319000    33.462539   -6937.6856   -6851.6053   -6937.6856            0    1744.6974    23.087508     21.41186    21.536471    10646.479    2217.5823    1107.7428    1908.7672     191.3715   -181.96884   -124.67394   -6580.7096 
41320000    36.221456   -6939.3798   -6846.2023   -6939.3798            0     1915.664    23.274287    21.209456    21.573174    10649.273    1432.2064    2117.2931    2197.4926   -242.58311    67.345623    49.143354    -6548.683 
41321000    34.931279   -6933.4393   -6843.5807   -6933.4393            0    1987.1294    23.148521    21.335225    21.542155    10639.216    2160.2579    1546.2627    2254.8675   -140.33711    677.39787   -134.86101   -6535.2536 
41322000    36.923221   -6931.5623   -6836.5796   -6931.5623            0    2296.1643    23.166644    21.324046    21.523477    10632.739    2344.0693    1965.0577     2579.366   -209.93158   -11.465217    118.82213   -6480.5189 
41323000    34.180999   -6936.6842   -6848.7557   -6936.6842            0    2017.3152    23.230863    21.242624    21.569461    10644.195    1401.1267    2281.2319    2369.5871   -66.642633    27.185563    68.601106   -6535.5984 
41324000     35.37635   -6936.2766   -6845.2731   -6936.2766            0    1854.3185    23.117551     21.36368    21.548879    10642.473    1858.4281    1607.0341    2097.4933    44.221857    173.64822   -336.47171   -6557.4651 
41325000    35.517799   -6937.1054   -6845.7381   -6937.1054            0    2074.2752    23.256456    21.197745    21.580325    10638.764      1499.86    2376.5269    2346.4387     302.4535   -351.15668    284.08143   -6523.9029 
41326000    34.666656   -6934.9327   -6845.7549   -6934.9327            0    2191.1482    23.152426    21.309328    21.548532    10631.241    2243.8783    2219.3195    2110.2468    112.05357    580.71878   -186.87569   -6506.0267 
41327000    33.815621   -6934.7497   -6847.7611   -6934.7497            0    2054.2361    23.191051    21.260597    21.578468    10639.384    2225.4194     2008.709      1928.58   -500.16598    184.51625    214.23101   -6529.0166 
41328000    34.798782   -6929.8853   -6840.3676   -6929.8853            0     2186.353    23.156128    21.290599    21.589454     10643.77    2351.2527    2298.0839    1909.7225    153.96244   -380.52678    249.18811   -6500.9833 
41329000    33.847932   -6935.4186   -6848.3469   -6935.4186            0    1838.3185    23.128354    21.330455    21.581287    10646.875    1680.2423    1698.8676    2135.8457    686.50691   -8.8062081    219.25724   -6562.9043 
41330000    36.088676   -6932.5298   -6839.6939   -6932.5298            0    1900.8284    23.209158    21.215948    21.610866    10641.283    1486.4311    2260.6957    1955.3585   -421.91971    243.45238    81.086366   -6544.7001 
41331000     35.02472   -6938.0764   -6847.9775   -6938.0764            0      2101.87    23.091212    21.327759    21.591333    10633.381    2418.4346    2129.1635     1758.012    353.23461    -22.93865    144.34641   -6522.0258 
41332000    34.161387   -6935.2898   -6847.4117   -6935.2898            0     2039.084      23.1649    21.190266    21.674898    10639.566    1939.7908    2701.9567    1475.5046   -91.452164   -419.91306   -245.16375   -6531.0128 
41333000     34.51814   -6934.2173   -6845.4215   -6934.2173            0     1912.074      23.1175    21.287331    21.621259    10640.035    1702.9835    1639.3321    2393.9062   -322.80524    -99.05872    618.03102   -6548.7173 
41334000    38.028203   -6936.1973   -6838.3721   -6936.1973            0    1986.9785    23.121826    21.300505    21.615681    10645.865    1757.1947    2236.0668    1967.6739   -96.963779    733.17268    119.41061   -6529.8757 
41335000    34.510412   -6935.9924   -6847.2165   -6935.9924            0    1524.7658    23.220872    21.220534     21.65139    10668.924    1597.0563    1788.3276    1188.9135    35.275944    263.81024   -174.47943     -6609.97 
41336000     34.85137   -6936.8982   -6847.2452   -6936.8982            0    2068.5635    23.076995    21.331138    21.622781    10643.999    2696.5624      1672.75    1836.3783   -269.62581   -285.96437      52.2321   -6526.1383 
41337000    32.925773   -6934.7834   -6850.0838   -6934.7834            0    1861.1516    23.182327     21.22713    21.652776    10655.207     1680.466    2308.2836    1594.7051   -262.18324    144.22826   -67.206189   -6560.8697 
41338000    35.463991   -6936.0838   -6844.8549   -6936.0838            0    2014.8654    23.126983    21.326998    21.586461    10647.071    2126.1865    2212.3154    1706.0943      138.659    39.224476   -122.90251   -6531.9934 
41339000    34.423799   -6939.8019   -6851.2488   -6939.8019            0     1941.292      23.1521    21.318182    21.564859    10643.566    1903.5212    1765.2877    2155.0672   -298.90812   -20.224665   -13.346396   -6549.9108 
41340000    34.783424   -6936.1687   -6846.6905   -6936.1687            0    2214.9693    23.171534    21.253792    21.590198    10632.805    2246.2723    2269.8277    2128.8079   -42.011626   -157.91562   -145.29921   -6503.2184 
41341000    34.733198   -6939.4467   -6850.0977   -6939.4467            0    1861.1714    23.093061    21.321009    21.638337    10654.011    2203.0309    1776.9688    1603.5144     38.63178   -234.63112   -43.010777   -6560.9129 
41342000    36.215935   -6938.1164   -6844.9531   -6938.1164            0    1808.3758    23.239697    21.192029    21.634432    10654.878    1537.6931    2283.9476    1603.4869    231.83339   -417.88301   -297.96559   -6563.9487 
41343000    35.760678   -6937.9506   -6845.9585   -6937.9506            0    2027.6134    23.153377    21.339289    21.526951    10635.963    1648.8205    2224.2702    2209.7495   -250.29609   -188.21185   -314.09938    -6531.446 
41344000    34.662585   -6932.1767   -6843.0093   -6932.1767            0    1933.5769    23.197465    21.311332    21.530267    10643.894    1648.8112    1994.2123    2157.7073   -111.47051    -270.3648   -314.85021   -6542.8597 
41345000    34.202844   -6938.8275   -6850.8428   -6938.8275            0    1749.7583    23.169184    21.251026    21.635107    10652.454    1752.1443    2506.9778    990.15285   -23.549795    230.76655   -249.93257   -6579.0089 
41346000    35.960459   -6933.5253   -6841.0193   -6933.5253            0    1760.1086    23.114139    21.321257    21.626546    10658.048     1724.406     1723.859    1832.0609    218.06664    80.571947   -6.1359633   -6567.4338 
41347000    36.926532   -6940.5422   -6845.5509   -6940.5422            0    2031.0325    23.186261    21.295098    21.558165    10644.424    2019.6406    1869.2447    2204.2124   -286.18277   -403.00495   -443.43944   -6530.2575 
41348000    32.695024   -6934.0859   -6849.9799   -6934.0859            0    2122.0615    23.134024    21.373666    21.504537     10633.11    2341.1373    1644.4373    2380.6099   -352.54844   -246.82151    72.308007   -6520.9055 
41349000    33.855121   -6931.4576   -6844.3673   -6931.4576            0    1982.5027    23.167043    21.261798    21.620485    10649.667    1967.3493    2245.6402    1734.5186   -344.02947    27.697256    11.807876    -6536.456 
41350000    34.262755   -6935.8958   -6847.7569   -6935.8958            0    2337.9661    23.077383    21.290721    21.640692     10632.81    2769.7381    2440.8069    1803.3532    128.55473   -217.12925   -73.472034   -6485.2117 
41351000    34.864206   -6939.6853   -6849.9993   -6939.6853            0    1866.1265     23.16904    21.283704    21.582405     10642.78    1706.3099    2188.5211    1703.5485   -541.89515    35.039442   -330.64285   -6560.3502 
41352000    35.683657   -6937.9193   -6846.1252   -6937.9193            0    2232.6773     23.18753    21.286771    21.545459    10634.572    1796.3247    2227.4494    2674.2578   -325.44291    70.881268   -83.547814   -6499.8496 
41353000    36.230973   -6933.8877   -6840.6858   -6933.8877            0    2140.8084    23.123672    21.323156    21.568714    10634.878    2293.2642    2283.6948    1845.4662    531.83368   -304.33207    186.63832    -6508.649 
41354000    35.863887   -6936.6924   -6844.4347   -6936.6924            0     1862.723    23.218261    21.189609    21.656664    10654.773    1594.9589    2356.3502    1636.8599   -302.51887   -133.74795    44.100363   -6554.9882 
41355000     35.84665   -6935.2138   -6843.0005   -6935.2138            0    2019.3251    23.101784    21.284269    21.648735    10644.782    2271.3849    2214.1491    1572.4413    321.43111   -51.721688   -56.259646    -6529.514 
41356000    33.895338   -6934.6198   -6847.4261   -6934.6198            0     1816.161    23.165003    21.318456    21.570584    10652.462    1508.6329    1759.4459    2180.4041   -36.033671    -415.3631    60.867967    -6565.276 
41357000    36.004438   -6938.7556   -6846.1364   -6938.7556            0    1867.9766     23.18502    21.286489    21.576737    10648.717    2067.6542    1496.5275     2039.748   -706.53193    120.30566     74.65195   -6556.0385 
41358000    34.274278   -6934.1485     -6845.98   -6934.1485            0    1854.7369    23.094646    21.326595    21.604205    10640.722    2483.2283    1762.1554     1318.827    103.80107      -206.83    271.78051   -6558.1544 
41359000    34.319843   -6936.4845   -6848.1988   -6936.4845            0    2233.3528    23.219251    21.202517    21.591165    10629.473    2360.9752    2368.9602    1970.1231    17.322276   -271.69626   -154.03004   -6501.9845 
41360000    33.416676   -6933.7177   -6847.7554   -6933.7177            0    1881.8747    23.116456    21.355636    21.551602    10639.307    2014.3771    1695.2267    1936.0203    68.870211    36.267174   -346.05282   -6555.7573 
41361000     35.21836   -6934.4038   -6843.8067   -6934.4038            0    2375.3443    23.221579    21.243148    21.526546    10619.033    2461.5805    2081.7337    2582.7186   -583.64158    -248.0854    107.30653   -6475.9426 
41362000    35.315698   -6935.3973   -6844.5498   -6935.3973            0    1816.8619    23.207414    21.299143    21.542243    10648.288    1750.1515    1704.0137    1996.4205   -431.01293    892.06821     43.28475   -6562.4014 
41363000    36.000892   -6936.5199   -6843.9098   -6936.5199            0    1717.2523    23.144795    21.307931    21.602035    10653.426    1948.9113    1655.4427    1547.4028   -281.03537    32.418899   -69.671624   -6577.1015 
41364000    35.530269   -6934.3862   -6842.9867   -6934.3862            0    2305.2945    23.217475    21.216684    21.580903    10630.706    1866.1278    2762.5301    2287.2256   -144.41318    195.34742   -443.31081   -6485.5786 
41365000    34.316753   -6932.9087    -6844.631   -6932.9087            0    2069.5774    23.094879    21.403907    21.520565     10638.06    1907.9338    1909.7716    2391.0269    541.68826    399.67806    43.703854    -6523.546 
41366000    34.350798   -6940.1042   -6851.7388   -6940.1042            0    1567.8512     23.25803    21.222032     21.59006    10656.479    1320.4053     1743.684    1639.4642   -184.85836   -475.09257    395.50478   -6608.0731 
41367000    33.232829   -6938.8412   -6853.3517   -6938.8412            0    2163.5569    23.129456    21.283768    21.600559    10633.566     1859.101    2378.6049    2252.9649    335.72447    121.59325    24.503788   -6517.8281 
41368000    32.999246   -6934.2926   -6849.4041   -6934.2926            0    2156.0527    23.143244    21.293192    21.586992     10637.93    2186.5595    2341.3685    1940.2302    836.02489   -445.24826   -77.443342   -6514.9069 
41369000    35.295538   -6937.5468   -6846.7512   -6937.5468            0    1944.8454    23.200619    21.284622    21.553587    10643.515    2024.1451      1743.71    2066.6812   -201.20999   -350.53625    204.92226   -6544.8631 
41370000    35.507259   -6937.6083   -6846.2681   -6937.6083            0    2212.0953    23.047064    21.442305    21.516683    10633.161    2703.4325    1419.7603    2513.0931    -453.9842     403.2579    172.41492   -6503.2302 
41371000    35.079151   -6937.2674   -6847.0284   -6937.2674            0     1962.121    23.226539    21.219937    21.613064    10652.338    2029.2954    2321.7821    1535.2854   -305.22939   -475.42824   -56.282513   -6542.2062 
41372000    36.348976   -6931.9487   -6838.4431   -6931.9487            0    1925.4277    23.042839    21.364717    21.629336    10648.203    2677.4919    1683.9056    1414.8857    302.76297    250.36928    -168.1258   -6539.4375 
41373000    35.645227   -6938.4823   -6846.7871   -6938.4823            0    2051.5366    23.163291    21.285147    21.579868     10639.61    2306.2662    1725.9361    2122.4075    -57.85594   -285.34916    318.85385   -6528.4547 
41374000    36.286873   -6937.3254   -6843.9796   -6937.3254            0    2101.3271    23.173138     21.32167    21.542596    10643.982    2420.4695    1706.6463    2176.8656   -568.01666   -36.432748   -360.93245   -6517.7873 
41375000    36.362812   -6935.4953   -6841.9541   -6935.4953            0    1851.3262     23.11982    21.327967      21.5997    10650.786    1983.4189    1652.8018    1917.7579     278.7851   -95.724533     -307.944   -6554.3862 
41376000    35.407099   -6937.1451   -6846.0625   -6937.1451            0    1646.7424    23.209921    21.191969    21.681843    10664.516    1487.4219    2214.8282    1237.9769   -148.79963   -433.45375   -147.66999    -6589.943 
41377000    34.758461   -6936.4237   -6847.0097   -6936.4237            0    1895.1117    23.063799    21.351448    21.635817    10654.461    1888.3135     2415.131    1381.8906    171.88416     396.1406   -277.32389   -6552.5389 
41378000    34.774525   -6934.5977   -6845.1424   -6934.5977            0    1941.5812     23.20908    21.248571    21.597808     10651.17    1860.9306     2237.655    1726.1581   -609.65161    72.796489   -93.459704   -6543.5442 
41379000    36.075796   -6931.9109   -6839.1081   -6931.9109            0    2301.7557    23.090103    21.371928    21.539931    10629.526    2762.4191    1402.6728    2740.1752   -17.579307    206.38002    323.09672   -6482.2882 
41380000    33.751189   -6939.2314   -6852.4085   -6939.2314            0    1817.5477    23.126835    21.283534    21.639955    10651.636    2349.3794    1621.2173    1482.0464   -107.45835   -499.03212    178.85167   -6570.0649 
41381000    34.590812   -6939.8125   -6850.8297   -6939.8125            0    1885.6355    23.162991    21.210385    21.672691    10647.705    2095.1907    2303.9098    1257.8061   -158.94115   -280.70415    21.156601   -6558.0172 
41382000    35.876192   -6931.7481   -6839.4588   -6931.7481            0    2410.1316    23.088461    21.352178    21.543742    10620.826    2693.3688    2050.5917    2486.4344    -58.53691    346.60728    239.30203   -6466.1442 
41383000    35.490774   -6935.1353   -6843.8374   -6935.1353            0    1852.9673    23.205956    21.277093    21.568203    10649.414    1799.3063    1357.0095    2402.5862   -643.86131   -108.55776    574.67707   -6556.0516 
41384000    33.030841   -6934.5163   -6849.5465   -6934.5163            0    1889.5842    23.065998     21.36039    21.618318    10651.317    2223.2348    1770.0323    1675.4856    562.99835   -89.729998    303.04252   -6556.0213 
41385000    33.354848   -6937.1381   -6851.3347   -6937.1381            0    1945.8084    23.188997    21.216663    21.649139    10651.228    1927.6813     2075.855    1833.8889   -2.7591255    395.70376   -286.10525   -6549.0783 
41386000    35.524466   -6933.4557   -6842.0712   -6933.4557            0    1698.1408    23.143422    21.321734    21.586272    10651.916    1757.2718    1737.7256    1599.4249   -247.73085    100.73403    158.85917   -6578.2696 
41387000    36.147424   -6939.3494   -6846.3623   -6939.3494            0    2097.1896    23.149418    21.315838    21.543015    10630.384    1849.9539    2200.7367    2240.8781    120.08631    367.86734    90.804269   -6521.2282 
41388000    33.805467   -6936.2312   -6849.2687   -6936.2312            0    1884.6486    23.228678    21.198823    21.614183    10643.269    1432.9007    2059.3694    2161.6757   -171.34374   -331.09809    518.70492   -6556.7314 
41389000    33.812552   -6933.6513   -6846.6706   -6933.6513            0    1969.0355     23.04131    21.377375    21.600085    10639.397    2211.8905    1798.3333    1896.8826    67.219081    325.37183    190.36921   -6541.1458 
41390000       34.439   -6934.5864   -6845.9942   -6934.5864            0     1904.953    23.211656    21.237348    21.601352    10648.473    1978.8613    1770.3487     1965.649   -309.89409    61.576205   -42.109879   -6550.1606 
41391000    34.578345   -6936.7723   -6847.8216   -6936.7723            0    2491.7984    23.097621    21.356309     21.53124    10620.928    2836.5056    1801.1888    2837.7007    135.13948   -130.89824    241.26477   -6461.8537 
41392000    34.482517   -6934.8059   -6846.1017   -6934.8059            0    1985.4533    23.198534    21.277007    21.568696    10646.208    1872.8393    2141.2047    1942.3159   -224.16258    22.268132   -94.451296   -6537.8322 
41393000    35.653801   -6936.9572   -6845.2399   -6936.9572            0    2305.1865    23.205177    21.232174    21.592653    10638.621     1926.316    2444.2396    2545.0038   -63.808974     414.2247    289.34631   -6487.5825 
41394000    34.946611    -6936.921    -6847.023    -6936.921            0     1634.653    23.112004    21.357853    21.600045    10662.274    1624.0303    1566.3837    1713.5449    176.72807    138.75315    37.463735   -6592.8372 
41395000    34.940862   -6929.6948   -6839.8116   -6929.6948            0     2352.396    23.267898    21.193675    21.577527    10640.575    1848.5282    2810.2024    2398.4573   -425.00374    188.69879   -349.69985   -6474.7624 
41396000    34.867438   -6936.6932   -6846.9989   -6936.6932            0    1905.0564    23.109631    21.376342    21.540755     10641.12    1917.2397    1709.6808    2088.2486     30.52765    305.99792   -183.50963   -6551.3535 
41397000    35.027968   -6938.9919   -6848.8846   -6938.9919            0    1843.3595    23.183941    21.264804    21.601149    10649.409    1797.4127    1780.6342    1952.0316   -110.80645    29.136437     26.64916   -6562.5911 
41398000    33.803769   -6936.9728   -6850.0147   -6936.9728            0    2015.9405    23.172271    21.242844    21.619169    10641.927    1666.4364     2020.554    2360.8312    347.77331    -132.9238     550.6515   -6537.1375 
41399000    35.648785   -6932.8842   -6841.1798   -6932.8842            0    1911.9046    23.119764    21.336217    21.572468    10641.446    2227.0346    1990.2899    1518.3893    9.3692861   -207.57427   -243.26278   -6544.4626 
41400000    34.182862    -6934.982   -6847.0487    -6934.982            0    2324.9149        23.23    21.266848    21.508078    10625.612    2185.7804    1975.4966    2813.4677   -226.57894   -594.84605   -227.83274   -6486.7713 
41401000    36.265377   -6933.9443   -6840.6539   -6933.9443            0    1786.1437    23.075156     21.41179    21.541152    10643.061    2345.4982    791.82449    2221.1083   -15.188309   -230.32263   -61.677251    -6563.412 
41402000    33.921255   -6936.9273    -6849.667   -6936.9273            0    1914.3255    23.149815    21.237735     21.66399    10651.093     1901.994    2347.1973    1493.7852    523.63117   -160.68586    85.970566   -6552.3047 
41403000    34.869519   -6931.7945   -6842.0948   -6931.7945            0    1820.6458    23.152615    21.262021    21.665714    10665.411    1395.1732    2355.8881    1710.8762   -135.29225    528.20946   -214.14429   -6558.9041 
41404000     35.38837   -6937.4187   -6846.3843   -6937.4187            0    1806.4666    23.178949    21.311963    21.555356    10648.107     1700.767    1774.2227      1944.41   -57.454949    195.42161   -212.45963    -6565.855 
41405000    33.132048   -6934.3102     -6849.08   -6934.3102            0    2096.7474    23.196913     21.30083    21.531206     10638.86    2049.0186    2039.2351    2201.9886   -537.10827   -81.486129    120.26237   -6523.7553 
41406000    33.250956   -6938.3428   -6852.8068   -6938.3428            0    2245.0117    23.124723    21.295512    21.601588    10637.763     1903.425    2348.6974    2482.9128    333.91937    652.18833   -47.787483   -6504.5137 
41407000    34.354486   -6936.4757   -6848.1008   -6936.4757            0    1868.2743    23.161697    21.189547     21.72229    10660.993    1840.8029    2498.9934    1265.0264    255.16253     180.4345     6.735861   -6557.6222 
41408000    35.454035   -6940.0864   -6848.8831   -6940.0864            0    1805.7289    23.096397    21.341922    21.603706    10648.932    2210.1685    1594.8973    1612.1207   -244.47438     19.10238   -129.08067   -6568.4466 
41409000    35.079011   -6934.4423   -6844.2037   -6934.4423            0    2036.6333    23.149647    21.324168    21.547312    10636.765    2106.7503     1590.065    2413.0846   -443.01442    50.588112   -42.668561   -6528.2682 
41410000     34.92241   -6937.5449   -6847.7091   -6937.5449            0    1995.8818    23.130108    21.285225     21.61588    10642.137    2321.6559    1762.0628    1903.9267    188.91302   -472.63072   -168.24125    -6537.939 
41411000    34.315536    -6938.825   -6850.5504    -6938.825            0    1869.4972    23.077468    21.294608    21.670282    10649.332    1970.8251      1702.09    1935.5764    438.43969   -212.27005     192.4821   -6560.1996 
41412000    35.046487   -6935.5632   -6845.4082   -6935.5632            0    1585.0139    23.165135    21.287107    21.638813    10670.503    1611.4368    1882.3134    1261.2915    88.962601    -520.0346     137.2609    -6598.751 
41413000    35.108981   -6935.8619   -6845.5462   -6935.8619            0    2016.3873    23.123506    21.370216     21.54685    10647.469    2251.3715    1771.4966    2026.2938    226.25712   -187.91129   -199.46731   -6532.4367 
41414000    33.843959   -6937.0693   -6850.0078   -6937.0693            0    2126.4973    23.192037    21.260735    21.588692    10644.947    2098.7866    2247.0776    2033.6276    76.950388   -531.32486    137.85994   -6519.8784 
41415000    34.278358   -6933.0946   -6844.9156   -6933.0946            0    2064.8453    23.126513    21.260568    21.665697    10652.651     2732.572    1791.7085    1670.2554    -280.6219   -131.12079   -81.073879   -6524.1254 
41416000    35.706164   -6932.8675   -6841.0156   -6932.8675            0    2085.7214    23.090681    21.340056     21.60501    10646.007    2611.6823    2149.3746    1496.1075    -411.3163    103.70998    14.624741   -6517.1842 
41417000    34.354467   -6935.1426   -6846.7679   -6935.1426            0    1798.2705    23.213107     21.27985    21.560866    10650.452    1585.8478    1914.2155    1894.7483   -271.77311    228.61076   -240.44596   -6567.4498 
41418000    36.625936   -6935.4834   -6841.2655   -6935.4834            0    1994.5102    23.102931    21.356273    21.571893     10643.41    2175.9322    1532.6325    2274.9658   -145.20154    138.32796   -103.94824   -6531.6712 
41419000    36.853017   -6933.1654   -6838.3632   -6933.1654            0    1465.9009    23.216202    21.237341     21.65781    10678.392    1587.0482     1942.788    867.86648   -97.821049   -352.61294   -357.52422   -6610.0735 
41420000    35.013923   -6936.3842    -6846.313   -6936.3842            0     2025.357    23.125865    21.299912    21.621934    10650.508    2404.9422    1701.6503    1969.4785   -26.182571    4.0463562    282.79922   -6531.7209 
41421000     34.68521   -6936.6212   -6847.3956   -6936.6212            0    1583.8601    23.168544    21.307296    21.599341     10662.71    1824.0575    1345.1431    1582.3797   -70.274101   -476.80186   -467.07296   -6601.0979 
41422000     36.24542   -6938.0798   -6844.8406   -6938.0798            0    2070.3537    23.194048    21.307461    21.533669    10642.074    1542.0541    1883.4268    2785.5802   -263.20387    11.145335   -134.25403    -6523.514 
41423000    33.460312   -6933.6534   -6847.5788   -6933.6534            0     2104.457     23.13605    21.314118    21.591664    10647.379    1859.8414    2379.8232    2073.7064    341.78062    185.62339   -258.27551   -6520.7964 
41424000    34.540695   -6938.2327   -6849.3788   -6938.2327            0    1795.2332    23.173349    21.219679    21.668992    10655.315    2147.1634    2143.6282    1094.9081    0.9114962   -383.77854   -181.92633   -6570.4052 
41425000    34.524654    -6932.896   -6844.0834    -6932.896            0    2273.0023    23.049008    21.349836     21.60662    10632.456    2661.0191    1711.8283    2446.1595    240.43283    -2.983172     766.6534   -6491.6238 
41426000    34.943909   -6938.0247   -6848.1336   -6938.0247            0    1936.1884    23.178011    21.268049    21.582354    10639.044     1875.618    1766.9018    2166.0454     222.2256    341.59381    43.607101   -6547.7155 
41427000    35.734995   -6931.6949   -6839.7688   -6931.6949            0    1986.7933    23.125753    21.289727    21.603342     10636.21    2091.4072    1912.2324    1956.7402   -289.41311    65.115523    206.29813    -6531.581 
41428000    34.326371   -6931.3974   -6843.0949   -6931.3974            0    2414.1806    23.102872    21.233708    21.658918    10624.991    2604.4519    2908.0523    1730.0375    -245.5169    10.017735    318.44157   -6469.0065 
41429000    34.483803   -6934.7107   -6846.0032   -6934.7107            0    2214.2583    23.107727    21.233272    21.671273    10633.067    2563.5241    2536.4125    1542.8384   -73.094767    277.94513    503.77919   -6502.6329 
41430000    34.918327   -6935.1041   -6845.2788   -6935.1041            0    2181.1564     23.12148     21.29965    21.589565    10632.417    1884.2713    2189.1176    2470.0803   -155.90059    253.16236    243.83689   -6507.0624 
41431000    35.387891    -6937.455   -6846.4218    -6937.455            0    1655.9736    23.244832    21.223403    21.608819    10660.374    1153.3128    2130.9408    1683.6671   -336.32485    184.46865   -313.22049   -6588.9665 
41432000    35.512058   -6934.2414   -6842.8888   -6934.2414            0    2091.7702    23.111792    21.346747    21.584093    10648.762    2304.8445    1924.1367    2046.3295    389.71255   -18.754832    511.62354   -6518.0342 
41433000    34.252569   -6937.1499   -6849.0373   -6937.1499            0    2001.6863     23.23004     21.20253     21.62753    10652.329    1831.3025    2264.6338    1909.1225   -85.158049    189.60729    442.99347   -6538.0687 
41434000    34.501959   -6937.2989   -6848.5448   -6937.2989            0    2204.7355    23.136408    21.320831    21.558699    10634.636    1977.8459    2222.7058    2413.6548    289.73876    157.11808    124.22541   -6506.6007 
41435000    36.443657   -6936.1403   -6842.3912   -6936.1403            0    1812.9405    23.169666    21.324041    21.553246    10648.832    1736.4538    1516.4694    2185.8982    219.19916   -266.20017    113.19337   -6560.8374 
41436000    34.588671   -6930.9381   -6841.9609   -6930.9381            0    2084.2917    23.213143    21.242755    21.591496    10647.007    1906.4142    2216.4517    2130.0092    25.035177    33.414148   -359.69229   -6518.3211 
41437000    34.419536   -6939.1007   -6850.5585   -6939.1007            0    1985.6365    23.091528    21.351863     21.57785    10638.897    2257.1604    1845.2757    1854.4733   -100.55783   -5.2562341   -127.96374   -6542.4723 
41438000    35.079647   -6931.3809   -6841.1407   -6931.3809            0    2011.6747    23.199559    21.239287    21.597958    10642.223     2147.281    1902.3369    1985.4061   -141.93992    49.222452   -2.6609727   -6528.9169 
41439000    33.021258   -6936.5814   -6851.6362   -6936.5814            0    1956.6351     23.15005     21.34357    21.536545    10641.308    1905.8675    1455.0556    2508.9822   -142.97091    251.26336   -129.53401    -6547.981 
41440000    36.246671    -6930.347   -6837.1047    -6930.347            0    1976.8553    23.182239    21.321634    21.538618    10646.178    1886.5829    1882.7431      2161.24   -256.84137   -323.11508    283.56849    -6530.171 
41441000     35.86395   -6932.8997   -6840.6419   -6932.8997            0    2252.7822    23.194097    21.261131    21.572926    10638.316    2055.4615     2673.779    2029.1063   -351.29732    380.15132    -100.9684   -6491.1251 
41442000    34.580043   -6933.0231   -6844.0681   -6933.0231            0     2096.634    23.126066    21.311976    21.599326     10645.49    2491.4237    1742.4313    2056.0469   -169.04741    -65.66986     203.3752   -6518.5582 
41443000    34.057036   -6936.2139   -6848.6042   -6936.2139            0     1866.277    23.232534    21.252575    21.580652    10655.472    1762.7344    1988.8108    1847.2859    254.28388   -507.12718   -369.86426   -6558.5864 
41444000    34.690486   -6934.1598   -6844.9206   -6934.1598            0     1801.627    23.158469     21.34345    21.540455    10647.051    1412.1204    1902.6212    2090.1394    535.48786   -309.84308    18.580305   -6565.1706 
41445000    35.490367   -6933.1017   -6841.8049   -6933.1017            0    1852.5295    23.246751     21.26812    21.537867    10648.638    1297.2594    2365.1267    1895.2023    79.389032   -303.14847    -29.78108   -6554.1081 
41446000    34.195388   -6934.7695   -6846.8039   -6934.7695            0    2250.6124    23.157202    21.259905    21.592913    10630.621    2024.4188    2722.7753     2004.643    351.25928   -11.724335   -6.5188819   -6497.8764 
41447000    34.305175   -6934.1374   -6845.8895   -6934.1374            0    1850.4412    23.168982    21.305987    21.571429    10648.478    2001.9856    1746.2894    1803.0486   -440.59511    291.12989   -134.91287   -6558.5213 
41448000    36.314058   -6934.7299   -6841.3142   -6934.7299            0     2056.107    23.266602    21.273865    21.493101    10638.452    1637.1232    1693.7587    2837.4391   -166.23811    48.865874    186.97936   -6522.3073 
41449000    36.267599   -6935.3351   -6842.0389   -6935.3351            0    2192.2542    23.158884    21.349148    21.500799    10630.478    1894.7373    1989.1786    2692.8466    663.54083   -27.073127    25.555014   -6502.1636 
41450000    34.957801   -6938.0951   -6848.1683   -6938.0951            0    1966.2152    23.216679     21.21888    21.603136    10642.394    1741.0173     2572.885    1584.7434    -406.4786   -122.21257   -16.334416   -6542.9952 
41451000    34.783633   -6934.4893   -6845.0105   -6934.4893            0    1853.7164    23.107958    21.296871    21.643579    10651.394    2327.2423    1727.7142    1506.1926    318.03429    -52.20808    600.12042   -6557.0549 
41452000    34.525803   -6935.1033   -6846.2878   -6935.1033            0    2276.1123    23.191567    21.272808    21.553299    10633.315    2029.0412    2170.7536    2628.5421   -59.490566    91.442624    646.07982   -6493.3174 
41453000    34.431194   -6940.9095   -6852.3373   -6940.9095            0    1658.8111    23.214704    21.297663    21.529645    10644.664    1472.3239    1734.4331    1769.6763   -410.81318    56.900866   -139.95848    -6594.821 
41454000    33.464771   -6932.9164   -6846.8303   -6932.9164            0    2107.1076     23.13593    21.300319    21.586506    10637.889    1902.5384    2247.2856    2171.4989    72.621563    197.68141    222.95245   -6519.9279 
41455000    33.332834   -6933.6704   -6847.9238   -6933.6704            0    2058.5721    23.199181     21.18688    21.662926    10647.724    1680.2063    2608.6943    1886.8156    263.40175     88.00246    498.57974   -6528.2561 
41456000    33.325172   -6936.3728   -6850.6458   -6936.3728            0    2204.2777    23.138681    21.294586    21.576918    10631.565    2048.6042    2179.3615    2384.8673    338.84081    310.50905    394.33797   -6508.8716 
41457000     33.28642    -6935.369   -6849.7417    -6935.369            0     1945.613    23.190596    21.322444    21.522056    10642.231    1536.8048    1808.0691    2491.9652   -11.660343    112.28063   -96.950511   -6547.7708 
41458000    35.507657   -6936.6308   -6845.2895   -6936.6308            0    2062.3574    23.169676    21.295528    21.571611    10643.659     1893.692    1901.6253     2391.755    -39.12481   -119.78939    22.614059   -6525.1563 
41459000    35.443172   -6933.8823   -6842.7069   -6933.8823            0    1877.8661    23.091025    21.282853    21.671731    10650.418    2623.0845    2290.7671    719.74655    258.62213   -326.87777   -289.05006   -6551.0266 
41460000    33.495637    -6933.575   -6847.4095    -6933.575            0    2007.0486    23.169766    21.251432    21.628601    10649.723    1930.7667    2403.4345    1686.9446    172.26369    154.86208    7.5766913   -6535.6842 
41461000    34.829174   -6932.2184   -6842.6224   -6932.2184            0    2087.0423    23.072656    21.438722    21.503608    10636.722    2523.1934    1392.7306    2345.2031    -111.2291    214.86892   -461.96686   -6518.8686 
41462000    33.390316   -6933.2243   -6847.3297   -6933.2243            0    2192.3461    23.184625    21.245528    21.604336    10641.639    2410.1597    2249.0854    1917.7931   -318.54631    211.13854   -101.95511   -6507.0833 
41463000    34.237218   -6934.6149   -6846.5417   -6934.6149            0    2167.4625    23.133545    21.278977    21.623893    10644.538    2390.7668    2316.5726    1795.0479    -101.3602    99.767315    171.56143   -6510.0655 
41464000    35.643273   -6937.7777   -6846.0875   -6937.7777            0    1997.7148     23.13592    21.309226    21.599168    10648.575    2024.8564    1831.2362     2137.052    396.54602    -46.89244     164.2263   -6535.8453 
41465000    33.394956   -6937.2165     -6851.31   -6937.2165            0    1981.6017    23.228621    21.239261    21.578222    10645.804    1755.3263    1828.2208    2361.2581   -26.573933   -288.09206    216.62852   -6543.6502 
41466000    34.854375   -6936.0622   -6846.4014   -6936.0622            0    1975.1982    23.097202    21.368453    21.556816    10639.398    2086.4088    1909.0999    1930.0858    78.683863    341.83944   -103.00414   -6539.9204 
41467000    34.655851   -6934.9897   -6845.8397   -6934.9897            0    1668.0786    23.224659    21.201602    21.652292    10661.588    1442.3507    1845.4542     1716.431    -239.7933    50.442149    557.46328   -6586.4729 
41468000    35.936225   -6934.5021   -6842.0583   -6934.5021            0    1881.3294    23.090214    21.324292    21.620886    10645.745    1969.0987     1863.321    1811.5686   -3.4309948    551.19906     131.6852   -6549.9682 
41469000    35.301599   -6936.9502    -6846.139   -6936.9502            0    2051.4698    23.173551    21.266113    21.585935    10637.793    1761.9968    2544.1835    1848.2291    165.12567   -255.77478   -95.626012   -6527.8713 
41470000    33.409662   -6936.8836   -6850.9392   -6936.8836            0    2426.7657    23.159851    21.265278    21.573466    10624.947    2055.7898    2539.2356    2685.2718   -384.15724    330.56265    254.62217   -6474.9023 
41471000    35.401873   -6938.7667   -6847.6976   -6938.7667            0    1678.5492    23.103069    21.343023    21.589865    10645.732     2009.882    1359.9403    1665.8255    78.744917     380.0211   -261.54578   -6587.0909 
41472000    35.376497   -6939.1591   -6848.1552   -6939.1591            0    2294.0388    23.207749    21.190335    21.619929    10632.248    2348.7056      2627.09    1906.3208   -37.161338   -469.03447    12.281856   -6492.4406 
41473000    33.725188   -6934.9824   -6848.2264   -6934.9824            0    2138.5769    23.064532    21.357804    21.586425     10633.64    2283.1103    1953.6616    2178.9588     365.2563    199.00678    281.99314   -6516.5744 
41474000    35.667035     -6933.16   -6841.4087     -6933.16            0    2098.1197    23.197728    21.253236    21.585817    10642.386    1282.3514    2931.9182    2080.0896   -7.0845798      178.971   -187.68276   -6515.7632 
41475000    35.007267   -6937.9667   -6847.9126   -6937.9667            0    2490.0421    23.186956    21.280576    21.527831    10622.516    1956.4549    2634.9039    2878.7676    388.47984    2.0615048     9.920251    -6462.159 
41476000     34.93551   -6936.0975    -6846.228   -6936.0975            0    1854.1213    23.122526    21.345538    21.572377    10647.322    2179.5205    1424.1448    1958.6985   -48.641323   -242.57797   -11.834721   -6558.3196 
41477000    35.689639   -6930.2982   -6838.4887   -6930.2982            0    1998.1588    23.252017    21.206561    21.606565    10654.096     2171.207    2228.5013    1594.7681    -452.2215   -501.81169   -127.21061   -6528.0167 
41478000    36.454305   -6932.9261   -6839.1496   -6932.9261            0    1995.5074    23.061446      21.4006    21.577729    10649.231    2003.9884    1794.9649     2187.569    411.82802    671.98997    324.61363   -6529.2311 
41479000    35.941252   -6936.4922   -6844.0355   -6936.4922            0    1683.4387    23.199338    21.265893    21.612234    10662.496    1712.4146    1540.4953    1797.4062   -390.96235   -125.43933    512.63025   -6582.2581 
41480000    36.022903   -6933.4293   -6840.7626   -6933.4293            0     2177.619    23.122501    21.351727    21.556361     10642.49    2468.8858    1409.3981     2654.573    156.40284    90.338615    571.99096   -6502.7748 
41481000    36.021691   -6933.2735   -6840.6099   -6933.2735            0    2205.5764    23.131416     21.33262    21.548307    10633.092    2094.6153       1980.1    2542.0139    234.66649   -157.16758    123.59537   -6498.5851 
41482000    36.247443   -6938.1541   -6844.9098   -6938.1541            0    1962.0002    23.201651    21.236397    21.609254      10647.3    1528.5149    2533.8558      1823.63    170.11517   -460.00952   -293.82932   -6540.2505 
41483000    34.365893   -6936.4642     -6848.06   -6936.4642            0    2110.0167    23.105325    21.368566    21.542823    10636.287    2048.3211    2152.0045    2129.7246    413.02647    17.563016   -270.43568   -6520.7556 
41484000    33.889667   -6932.5341    -6845.355   -6932.5341            0    1864.9594    23.261359    21.223614    21.566244    10647.041     1551.495    2017.6834    2025.6997    306.43979   -340.00648   -360.97396   -6555.7712 
41485000     35.39209   -6937.1619   -6846.1179   -6937.1619            0    2346.5932    23.131744    21.313415    21.556578    10627.748    2597.2058    2193.8569    2248.7168    173.70979   -183.48425    -243.7403   -6482.4082 
41486000    34.615501   -6935.9366   -6846.8904   -6935.9366            0    2045.3528    23.200656    21.265554    21.568969    10641.585    1853.7636    1968.4283    2313.8666   -178.31534   -270.75851    1.2895872   -6529.4585 
41487000    34.353715   -6937.8668   -6849.4939   -6937.8668            0    1880.7035    23.218556    21.268006    21.561669    10647.419    1315.7372    2000.0973    2326.2761    191.31831    553.22213   -39.944686   -6557.4551 
41488000    35.694627   -6933.4235   -6841.6012   -6933.4235            0      2168.26     23.09025     21.37665    21.560879    10642.281    1960.1964    2226.0871    2318.4966   -82.255289    486.85946    270.08084   -6505.0726 
41489000    34.302764   -6934.2945   -6846.0527   -6934.2945            0    1987.0334     23.21108    21.223899     21.61434    10647.864    2183.5289    2104.9134     1672.658   -543.72191   -571.50249   -111.56233   -6537.4899 
41490000    35.825257   -6933.2129   -6841.0546   -6933.2129            0    2570.8144    23.099354    21.352896    21.539905    10624.302    2406.1872     2500.756    2805.5001    752.89255    470.38019   -178.76222   -6442.7209 
41491000    35.195182   -6937.9529   -6847.4155   -6937.9529            0    1898.1296    23.212944    21.285957     21.53824    10642.253    1846.6488    1666.2248    2181.5152   -317.83017     256.0111    6.5445363   -6552.8137 
41492000    34.331852   -6936.3544   -6848.0378   -6936.3544            0    1980.5544    23.191531    21.286665    21.549327    10638.264    2466.4366    1733.1557    1742.0709   -170.73805   -320.54803    523.89474   -6540.7584 
41493000    35.103068   -6933.6828   -6843.3823   -6933.6828            0    2026.6852    23.136737    21.291316    21.593992    10637.451    2310.5997    1944.1831    1825.2728    51.738451     362.7411    386.85026   -6528.9698 
41494000    34.521696   -6933.7469   -6844.9419   -6933.7469            0    2424.4636    23.216462    21.157099    21.627391    10623.223    2261.2556    2929.3889    2082.7463    -423.1512   -246.34707     123.2844   -6469.3226 
41495000    36.711426   -6933.6148   -6839.1769   -6933.6148            0    2088.9721     23.12058    21.357531    21.533679    10633.299    1988.1642    2015.9205    2262.8315    338.10282    88.421811   -358.87196    -6515.228 
41496000    35.141962   -6938.3747   -6847.9741   -6938.3747            0    2155.2062    23.221422    21.253994    21.544007    10633.001    1752.0053    2135.2266    2578.3867    -158.5398    88.711035      209.501   -6513.7633 
41497000    34.911917   -6935.2204   -6845.4117   -6935.2204            0    1910.2677    23.165806    21.286043    21.598193    10650.249    2156.9468    1928.2378    1645.6187   -132.20887   -62.263702    181.42911   -6548.7032 
41498000    36.005436    -6937.301   -6844.6792    -6937.301            0    1976.6189    23.122292    21.308948    21.607937    10646.484    2055.3493    2283.2969    1591.2105    649.36026    197.55404   -348.27304   -6537.7734 
41499000     35.59854   -6938.7452   -6847.1701   -6938.7452            0    2031.6551    23.267705    21.181753    21.597177    10644.185     1593.773    2165.1437    2336.0487   -53.240122   -550.62252    125.75116   -6531.7871 
41500000    37.943438   -6936.3244   -6838.7172   -6936.3244            0     2056.895    23.126581    21.358105    21.543802    10641.344    2160.4225    1595.5426      2414.72   -433.47739    106.30599   -6.5102656   -6519.5013 
Loop time of 501.424 on 64 procs for 250000 steps with 1296 atoms

Performance: 86.155 ns/day, 0.279 hours/ns, 498.580 timesteps/s
388.1% CPU use with 16 MPI tasks x 4 OpenMP threads

MPI task timing breakdown:
Section |  min time  |  avg time  |  max time  |%varavg| %total
---------------------------------------------------------------
Pair    | 38.634     | 48.679     | 58.993     |  82.9 |  9.71
Bond    | 1.4321     | 1.7647     | 2.3637     |  18.1 |  0.35
Kspace  | 246.42     | 259.57     | 271.36     |  36.8 | 51.77
Neigh   | 0.11269    | 0.12244    | 0.12835    |   1.2 |  0.02
Comm    | 49.629     | 52.308     | 55.637     |  26.4 | 10.43
Output  | 0.51607    | 0.51654    | 0.52147    |   0.2 |  0.10
Modify  | 124.61     | 126.74     | 128.66     |  10.3 | 25.28
Other   |            | 11.72      |            |       |  2.34

Nlocal:        81.0000 ave          98 max          64 min
Histogram: 2 0 2 1 3 3 1 2 0 2
Nghost:        3711.56 ave        3743 max        3684 min
Histogram: 2 1 3 0 2 3 1 2 1 1
Neighs:        26243.1 ave       31767 max       20722 min
Histogram: 2 0 2 1 3 3 1 1 1 2

Total # of neighbors = 419889
Ave neighs/atom = 323.98843
Ave special neighs/atom = 2.0000000
Neighbor list builds = 260
Dangerous builds = 0

unfix		3
unfix		2
unfix		1

write_data	data.final.${pid}
write_data	data.final.0
System init for write_data ...
PPPM initialization ...
  extracting TIP4P info from pair style
  using 12-bit tables for long-range coulomb (../kspace.cpp:340)
  G vector (1/distance) = 0.36845597
  grid = 27 40 32
  stencil order = 5
  estimated absolute RMS force accuracy = 0.0042987285
  estimated relative force accuracy = 1.2945493e-05
  using double precision FFTW3
  3d grid and FFT values/proc = 10353 2240
Last active /omp style is kspace_style pppm/tip4p/omp
WARNING: Not all mixed pair coeffs generated from mixing. Use write_data with 'pair ij' option to store all pair coeffs. (../write_data.cpp:312)

write_restart   restart.lmp.${pid}
write_restart   restart.lmp.0
System init for write_restart ...
PPPM initialization ...
  extracting TIP4P info from pair style
  using 12-bit tables for long-range coulomb (../kspace.cpp:340)
  G vector (1/distance) = 0.36845597
  grid = 27 40 32
  stencil order = 5
  estimated absolute RMS force accuracy = 0.0042987285
  estimated relative force accuracy = 1.2945493e-05
  using double precision FFTW3
  3d grid and FFT values/proc = 10353 2240
Last active /omp style is kspace_style pppm/tip4p/omp
Total wall time: 0:08:21
