LAMMPS (30 Jul 2021)
Processor partition = 0
  using 4 OpenMP thread(s) per MPI task
using multi-threaded neighbor list subroutines
variable        pid world 0 1
variable        phase world IceIh Liquid

shell cd ${phase}
shell cd IceIh
include Restart.lmp
echo both
log log.lammps
#include		in.partitions
include		in.temp
variable        temperature equal 278.29
variable	tempDamp equal 100.0
include		in.pressure
variable        pressure equal -1625.0
variable        pressureDamp equal 1000.0 # This is 1 ps
include		in.seed
variable        seed equal 745823

units		real
atom_style	full
#include		in.box
read_restart	restart.lmp.${pid}
read_restart	restart.lmp.0
Reading restart file ...
  restart file = 30 Jul 2021, LAMMPS = 30 Jul 2021
  restoring atom style full from restart
  orthogonal box = (-0.14513173 0.073685504 -0.11339989) to (18.352704 23.555492 22.326596)
  2 by 4 by 2 MPI processor grid
  restoring pair style lj/cut/tip4p/long/omp from restart
  restoring bond style harmonic/omp from restart
  restoring angle style harmonic/omp from restart
  864 atoms
  576 bonds
  288 angles
Finding 1-2 1-3 1-4 neighbors ...
  special bond factors lj:    0        0        0       
  special bond factors coul:  0        0        0       
     2 = max # of 1-2 neighbors
     1 = max # of 1-3 neighbors
     1 = max # of 1-4 neighbors
     2 = max # of special neighbors
  special bonds CPU = 0.001 seconds
  read_restart CPU = 0.005 seconds
include 	in.setup
variable	out_freq equal 1000
variable	out_freq2 equal 10000
variable	out_freq3 equal 1000

timestep	2.0

neigh_modify    delay 7 every 1

include		in.tip4p
# This is TIP4P/Ice

# create groups ###
group ox type 2
288 atoms in group ox
group hy type 1
576 atoms in group hy

# set charges - beside manually ###
set group ox charge -1.1794
Setting atom values ...
  288 settings made for charge
set group hy charge 0.5897
Setting atom values ...
  576 settings made for charge

# ### TIP3P Potential Parameters ###
pair_style lj/cut/tip4p/long/omp 2 1 1 1 0.1577 8.5
pair_coeff 1 1*2 0.000 0.000
pair_coeff 2 2 0.21084 3.1668
bond_style  harmonic
bond_coeff  1 450 0.9572
angle_style harmonic
angle_coeff 1 55 104.52
kspace_style pppm/tip4p/omp 1.0e-5
pair_modify tail yes

thermo          ${out_freq}
thermo          1000
thermo_style    custom step temp pe etotal epair emol press lx ly lz vol pxx pyy pzz pxy pxz pyz enthalpy

restart 	${out_freq3} restart.lmp.${pid} restart2.lmp.${pid}
restart 	1000 restart.lmp.${pid} restart2.lmp.${pid}
restart 	1000 restart.lmp.0 restart2.lmp.${pid}
restart 	1000 restart.lmp.0 restart2.lmp.0


include         in.dump
dump            myDump all atom ${out_freq2} dump.water.${pid}
dump            myDump all atom 10000 dump.water.${pid}
dump            myDump all atom 10000 dump.water.0
dump            myDump2 all dcd ${out_freq2} dump.dcd
dump            myDump2 all dcd 10000 dump.dcd
dump_modify     myDump append yes
dump_modify     myDump2 append yes


variable natoms 	equal  "count(all)"                        # NUMBER ATOMS
variable H      	equal  "enthalpy/v_natoms"                 # ENTHALPY-per-atom
variable Vol      	equal  "vol/v_natoms"                 # volume-per-atom
fix AVG all 		ave/time ${out_freq} 1 ${out_freq} v_Vol v_H file vol_enthalpy.dat
fix AVG all 		ave/time 1000 1 ${out_freq} v_Vol v_H file vol_enthalpy.dat
fix AVG all 		ave/time 1000 1 1000 v_Vol v_H file vol_enthalpy.dat


timer           timeout 23:50:00 every 1000
New timer settings: style=normal  mode=nosync  timeout=23:50:00

fix 		1 all shake 1e-6 200 0 b 1 a 1
Finding SHAKE clusters ...
       0 = # of size 2 clusters
       0 = # of size 3 clusters
       0 = # of size 4 clusters
     288 = # of frozen angles
  find clusters CPU = 0.000 seconds
fix             2 all nph aniso ${pressure} ${pressure} ${pressureDamp}
fix             2 all nph aniso -1625 ${pressure} ${pressureDamp}
fix             2 all nph aniso -1625 -1625 ${pressureDamp}
fix             2 all nph aniso -1625 -1625 1000
fix             3 all temp/csvr ${temperature} ${temperature} ${tempDamp} ${seed}
fix             3 all temp/csvr 278.29 ${temperature} ${tempDamp} ${seed}
fix             3 all temp/csvr 278.29 278.29 ${tempDamp} ${seed}
fix             3 all temp/csvr 278.29 278.29 100 ${seed}
fix             3 all temp/csvr 278.29 278.29 100 745823


run             250000
PPPM initialization ...
  extracting TIP4P info from pair style
  using 12-bit tables for long-range coulomb (../kspace.cpp:340)
  G vector (1/distance) = 0.37306427
  grid = 24 27 27
  stencil order = 5
  estimated absolute RMS force accuracy = 0.002861141
  estimated relative force accuracy = 8.616241e-06
  using double precision FFTW3
  3d grid and FFT values/proc = 6615 1296
Last active /omp style is kspace_style pppm/tip4p/omp
Neighbor list info ...
  update every 1 steps, delay 7 steps, check yes
  max neighbors/atom: 2000, page size: 100000
  master list distance cutoff = 10.8154
  ghost atom cutoff = 10.8154
  binsize = 5.4077, bins = 4 5 5
  1 neighbor lists, perpetual/occasional/extra = 1 0 0
  (1) pair lj/cut/tip4p/long/omp, perpetual
      attributes: half, newton on, omp
      pair build: half/bin/newton/omp
      stencil: half/bin/3d
      bin: standard
Setting up Verlet run ...
  Unit style    : real
  Current step  : 6750000
  Time step     : 2
  Walltime left : 23:49:59.96
Per MPI rank memory allocation (min/avg/max) = 12.26 | 12.29 | 12.31 Mbytes
Step Temp PotEng TotEng E_pair E_mol Press Lx Ly Lz Volume Pxx Pyy Pzz Pxy Pxz Pyz Enthalpy 
 6750000    292.08774   -4147.4766   -3646.8482   -4147.4766            0   -1833.2566    18.497836    23.481807    22.439996     9747.095   -1126.2424   -2859.5798   -1513.9477   -494.51369   -1040.1815    233.92467   -3907.4482 
 6751000    295.41321   -4196.1507   -3689.8226   -4196.1507            0   -2095.5213    18.413303    23.544849    22.367728      9697.27   -1322.2097   -2047.5391    -2916.815    301.44403    260.79484    421.94398   -3986.1811 
 6752000    281.04425    -4178.541   -3696.8408    -4178.541            0   -918.91438    18.173965    23.963351    22.178632    9658.9959   -673.53301   -2427.4391    344.22893    537.28798    187.02513   -511.89035   -3826.2851 
 6753000    276.30541   -4172.7185   -3699.1404   -4172.7185            0   -1243.9517    18.050229     23.84309    22.402544    9641.4554   -1020.7805   -956.95343   -1754.1211   -271.78541   -115.09021   -177.56847   -3874.0534 
 6754000    268.53998   -4199.8325   -3739.5641   -4199.8325            0   -1338.7895    18.272189    23.616982    22.396179    9664.7115   -2152.2411    -823.8997   -1040.2278    48.148257    773.36966    151.62121   -3928.2664 
 6755000    290.45472   -4173.9097   -3676.0803   -4173.9097            0   -1981.5205    18.648524     23.57335    22.084296    9708.4374   -2994.3521    -1943.203   -1007.0065   -507.74981   -401.08473   -270.89755    -3956.639 
 6756000    287.63531   -4154.1986   -3661.2015   -4154.1986            0   -2150.8066     18.26926    23.851467     22.33428    9732.1319   -1957.9233   -2781.7829   -1712.7136   -1050.3283   -484.67797      799.723   -3966.4723 
 6757000    289.05661   -4187.1508   -3691.7176   -4187.1508            0   -1330.0945     17.95694    24.016399     22.34814    9637.8816   -1077.0693   -2309.9282   -603.28598    642.01565   -963.07584   -52.041627   -3878.6739 
 6758000     287.3111     -4164.79   -3672.3486     -4164.79            0   -1435.5017    18.266583    23.626225    22.505519    9712.7158   -468.18502   -1232.5556   -2605.7645    836.88306    247.10135   -34.622139   -3875.6874 
 6759000    280.97566      -4134.4   -3652.8174      -4134.4            0    -1080.196    18.382744    23.601122    22.233984    9646.2895   -1669.9086    -133.0174    -1437.662   -891.43095    -276.3583    353.15303   -3804.7807 
 6760000    278.86838   -4160.4162   -3682.4453   -4160.4162            0   -906.34558    18.390116    23.696354    22.119934    9639.3959   -1953.6303   -2632.1695    1866.7631    384.64616   -435.91444    483.42397     -3809.86 
 6761000    278.86462   -4167.3739   -3689.4095   -4167.3739            0   -1429.1563    18.138505    23.591427    22.553785    9651.0623   -1002.8153   -1761.2689   -1523.3846    692.37074     215.2086   -80.592197   -3890.5644 
 6762000    298.54682   -4161.0679   -3649.3689   -4161.0679            0   -1261.8641    18.141515    24.075482    22.035021    9624.1416   -811.04871   -2565.0932   -409.45043    825.21117   -431.11788    579.08879   -3826.4819 
 6763000    287.17888   -4149.2853   -3657.0705   -4149.2853            0   -1894.8252    18.200172    23.810829    22.315327    9670.5964   -2292.3106   -931.59565   -2460.5695    25.866938   -749.65371    161.15769   -3924.3086 
 6764000    274.51217   -4185.1832   -3714.6787   -4185.1832            0   -1292.7648    18.208166    23.551799    22.490633    9644.7723   -959.94869   -14.270984   -2904.0747    201.04798     509.9089    175.56869   -3896.5178 
 6765000    273.37179   -4163.3228   -3694.7729   -4163.3228            0   -397.17751    18.373997    23.431908     22.25177    9580.2281    -1251.819   -866.89402    927.18053   -490.66096   -871.00481    86.967365   -3750.2656 
 6766000    278.44378   -4169.7318   -3692.4887   -4169.7318            0   -1591.1281    18.218678     23.69445    22.318069    9634.2987   -745.76731   -1449.3904   -2578.2267   -1155.1146    150.17618   -583.41046   -3916.0523 
 6767000    283.38479    -4172.911   -3687.1991    -4172.911            0   -853.09585    18.179007    23.711348    22.255964     9593.406    -1007.486   -1383.4748   -168.32673   -176.22158   -735.18188    261.32535   -3806.5558 
 6768000    266.43869    -4187.716   -3731.0492    -4187.716            0   -1122.1952    18.237422    23.637735    22.123393    9537.2036   -898.93023   -793.97073   -1673.6846   -814.74319    546.10157   -796.40721   -3887.1357 
 6769000    280.76967   -4173.8391   -3692.6095   -4173.8391            0   -208.97081    18.373868    23.219138    22.466812    9584.9123   -1188.0479    198.69859    362.43687    384.46929   -785.05506    433.02149   -3721.8207 
 6770000    274.69785   -4188.2232   -3717.4004   -4188.2232            0   -1557.7216    18.283277    23.691426    22.252264    9638.7215   -1845.3807   -888.02701    -1939.757    753.71583   -262.49719   -450.44505   -3936.3707 
 6771000     283.3947   -4194.5095   -3708.7807   -4194.5095            0   -1546.8842    18.199535    23.767625    22.345749    9665.8707   -1837.5614   -348.07556   -2455.0156   -1217.8393     504.2531    478.25475     -3926.84 
 6772000    293.02623   -4166.1592   -3663.9222   -4166.1592            0    -1337.832    18.242344    23.564083    22.443438    9647.6284   -1245.0449   -1507.8357   -1260.6153   -381.52104    398.63299    667.11502   -3852.1562 
 6773000     282.1859   -4209.8359   -3726.1789   -4209.8359            0    28.360567    18.389163    23.537848    22.021312    9531.7341    -1488.094    2060.3273   -487.15154    534.31542    87.326453   -198.23768   -3722.2365 
 6774000    294.19561   -4135.0028   -3630.7616   -4135.0028            0    -1776.606    18.334504    23.451706    22.582775    9710.0372   -1777.0143   -72.523226   -3480.2805    710.68175    -36.16841   -332.63687   -3882.3485 
 6775000     269.9842    -4139.481   -3676.7373    -4139.481            0   -2667.5596    18.323652    24.016245     22.22845    9781.9702   -2275.0839   -4233.4139    -1494.181   -1786.4152   -608.00049     334.7157   -4057.2914 
 6776000    281.61861    -4139.189   -3656.5043    -4139.189            0   -2428.0031    18.230852    24.024398    22.349169    9788.6062   -2140.6535   -2693.3371   -2450.0188   -682.10627   -267.63315    802.40797   -4003.1182 
 6777000    278.34367   -4135.8113   -3658.7398   -4135.8113            0    -2652.764    18.205039     23.78867    22.533307    9758.5821   -3306.1018   -2590.3985   -2061.7917   -671.18359    509.30041    356.43008   -4036.2782 
 6778000    269.75439   -4168.4913   -3706.1415   -4168.4913            0   -2861.0308    18.704843    23.661486    22.069049    9767.4166   -4682.5309   -1912.0003   -1988.5614    214.78833    199.68459   -481.36756   -4113.6889 
 6779000     273.7064   -4203.0388   -3733.9154   -4203.0388            0   -1174.3654    18.259854    23.595965    22.316434    9615.2334   -901.90763   -812.31115   -1808.8773   -169.99123    673.73903   -322.55709   -3898.5946 
 6780000    290.90317   -4158.0323   -3659.4342   -4158.0323            0   -783.82032    18.241872    23.461909     22.59492    9670.3805   -1640.2014   -414.91409   -296.34545     454.9053    295.67123    107.70988   -3769.9784 
 6781000    294.90544   -4154.3474   -3648.8896   -4154.3474            0   -1497.9306    18.389396    23.777761    22.144846    9683.0257   -2490.0517   -1895.1332   -108.60699   -649.52057   -149.68412    467.79949   -3860.4229 
 6782000    284.62909   -4161.5012   -3673.6567   -4161.5012            0   -1448.0545    17.975559    23.780521    22.568811    9647.4477    81.242106   -1957.6132   -2467.7923   -1032.3466    1051.3144    98.650103   -3877.3953 
 6783000    292.64776    -4182.403   -3680.8148    -4182.403            0   -1727.9548    18.309018    23.769578    22.230834    9674.8062   -2760.3238   -1103.2128   -1320.3278   -530.22809     -24.1907   -318.79261   -3924.6243 
 6784000    279.35468   -4205.5896   -3726.7852   -4205.5896            0    -2004.777    18.368576    23.546716    22.436174    9704.0865   -2866.2173   -1015.4292   -2132.6844   -325.05456   -412.69205    511.49787   -4010.5096 
 6785000    263.61083   -4186.5372   -3734.7172   -4186.5372            0   -1412.6917    18.327366    23.683766    22.391337    9719.2075   -876.58361    -184.3534   -3177.1382   -118.23122   -322.01844    192.75369   -3934.9587 
 6786000    264.33044   -4173.4112   -3720.3579   -4173.4112            0   -1828.5501    18.361634    23.833698    22.087649    9666.1218   -1422.2387   -3670.6311   -392.78046    -122.4122    659.78112      601.883   -3978.1294 
 6787000    275.20763   -4156.0681   -3684.3717   -4156.0681            0   -1607.9373    18.058676    23.676379    22.562964    9647.1122   -1901.3005   -1113.6424   -1808.8689    140.33427   -71.907198   -182.59944   -3910.5976 
 6788000    283.90283   -4181.3818    -3694.782   -4181.3818            0   -1545.0485    18.273454     23.80682    22.137592    9630.5793   -1243.1498   -2093.6974   -1298.2983     354.8415    240.84373    702.70499   -3911.7874 
 6789000    287.05712   -4185.1811    -3693.175   -4185.1811            0   -1175.5097    18.283935    23.605224    22.234369    9596.2736   -1082.1928   -64.096167   -2380.2402    59.464398   -95.646932   -5.1600214   -3857.6897 
 6790000    266.46753   -4162.7567   -3706.0404   -4162.7567            0   -1776.6745    18.134952    23.808707    22.471706    9702.6032   -519.04471   -2373.8241   -2437.1547    48.606031   -151.68884    169.01434   -3957.4444 
 6791000    280.32168   -4178.9497    -3698.488   -4178.9497            0   -1240.7645    18.216351    23.913999     22.16549    9655.8593   -178.15378   -1670.2189   -1873.9209    414.42267   -471.09673   -19.004429   -3873.2134 
 6792000    273.27487   -4163.3225   -3694.9388   -4163.3225            0   -2469.4214    18.317201    23.722019    22.503216    9778.1195    -3261.624   -915.03015   -3231.6099   -877.58682   -862.54499   -88.716598   -4047.0877 
 6793000    271.67327   -4135.4919   -3669.8532   -4135.4919            0   -1965.7234    18.431128    23.677616    22.350696    9753.9591   -2052.1642   -2773.4209   -1071.5851   -371.67146     199.4878    107.25677   -3949.4803 
 6794000    280.52721   -4170.7435   -3689.9295   -4170.7435            0   -547.50843    18.477511    23.518198    22.148513    9624.8079   -1613.7299   -1071.4032    1042.6078   -487.70729    340.21984   -346.08724   -3766.7821 
 6795000    266.57499   -4204.0363   -3747.1359   -4204.0363            0   -1392.5606    18.132609    23.740476    22.356751    9624.0621   -1334.3659   -1416.6807    -1426.635   -2.2742235     238.3699    45.446665   -3942.5917 
 6796000    284.80682   -4162.8937   -3674.7445   -4162.8937            0   -1318.0026    18.050882    24.035431    22.201155    9632.2091   -1250.5738   -1255.7079   -1447.7262    43.472224   -404.34479    234.04272   -3859.8921 
 6797000     273.5872   -4184.1516   -3715.2325   -4184.1516            0   -2616.8263    18.343288    23.697659      22.3039    9695.3491    -3429.253   -2558.9699   -1862.2559    541.92351    139.47517    487.47924   -4085.2431 
 6798000    277.35688   -4160.7265   -3685.3463   -4160.7265            0    -1535.555     18.28811    23.442676    22.492862    9643.1898   -1427.7634   -991.33753   -2187.5642    1320.7554    643.11013   -314.59142   -3901.3006 
 6799000    276.06999    -4143.256   -3670.0815    -4143.256            0   -1608.4791    18.426799    23.764702    22.054803     9657.961   -364.31737   -3102.5993   -1358.5206    909.70458   -377.87354   -243.00423   -3896.6381 
 6800000    285.66584   -4198.8979   -3709.2765   -4198.8979            0   -884.80301    18.144444    23.708513    22.387842    9630.7528      449.624   -534.67367   -2569.3594     316.0825    963.72798   -381.95714   -3833.5512 
 6801000    283.15022   -4154.6557   -3669.3459   -4154.6557            0   -1824.4374    18.216552    23.793873    22.387702    9703.7776        109.9   -3778.6336   -1804.5787    458.14191    203.64512    622.86146   -3927.5396 
 6802000    281.87765   -4191.0494   -3707.9208   -4191.0494            0   -1150.9395    18.310283    23.852027     22.07642    9641.5978   -2192.4369   -666.02695   -594.35456   -854.49915   -210.76226    299.02619   -3869.7576 
 6803000    272.26232    -4178.347   -3711.6987    -4178.347            0   -1152.3267    18.206277    23.624313    22.547654    9697.9889   -529.35467    1383.0016   -4310.6269     50.23793    401.14058    592.82865   -3874.6782 
 6804000    294.01447   -4166.7004   -3662.7696   -4166.7004            0   -2925.5791    18.417866     23.75667    22.237085    9729.7737   -2521.4519   -2285.1021   -3970.1832    551.81305   -336.35505   -352.79518   -4077.9057 
 6805000    286.19727   -4184.9857   -3694.4534   -4184.9857            0   -913.48372    18.287085    23.473963    22.495587    9656.6883   -87.678617   -709.28985   -1943.4827   -189.02815    51.163508   -783.64145    -3823.102 
 6806000    280.43086   -4126.1469    -3645.498   -4126.1469            0   -1918.1465    18.116545    23.988674    22.389996    9730.5106   -1413.7043   -2490.3422    -1850.393   -511.89068    33.114321    379.49683   -3917.7012 
 6807000    283.62066   -4178.8125   -3692.6964   -4178.8125            0   -2027.2327    18.237251    23.935139    22.251595    9713.0691   -2230.2518   -3212.2069   -639.23926   -790.39735   -208.15888    150.74727   -3979.8644 
 6808000     279.9444   -4165.9919   -3686.1768   -4165.9919            0   -2202.0664    18.224099    23.606743    22.675836    9755.4081   -742.37801   -2567.7632   -3296.0581   -633.39071    182.65088    617.70676   -3999.4705 
 6809000    279.87965    -4169.149   -3689.4449    -4169.149            0   -956.07115    18.465498    23.565379    22.268196    9689.9264   -1906.1257    272.49423    -1234.582   -76.334287   -1015.9415   -236.84433   -3824.5546 
 6810000    276.96372   -4201.1792   -3726.4728   -4201.1792            0   -3470.6061    18.616698    23.546958    22.288518    9770.5418   -5102.5908   -1814.5243   -3494.7034   -57.351417       410.97   -178.86668   -4221.0111 
 6811000     267.2967   -4143.4783   -3685.3409   -4143.4783            0   -1552.7527    18.235014    23.674565    22.466705    9699.0117   -588.42929   -2059.0309   -2010.7978   -522.01124    87.068337   -182.70216    -3904.978 
 6812000    278.00794   -4133.7088   -3657.2127   -4133.7088            0   -1833.4232    18.292828    24.091905    22.203404     9785.242   -1939.0073   -3765.4713    204.20906    355.45663    188.80016   -477.40709   -3918.8564 
 6813000    294.82316   -4155.8797   -3650.5629   -4155.8797            0   -1643.9456    18.169314    23.677959    22.429837    9649.5916   -1503.3706   -337.38059   -3091.0857    85.214057   -231.47867   -317.09984   -3881.9144 
 6814000    265.45751   -4142.8969   -3687.9118   -4142.8969            0   -774.01138     18.37984    23.577229    22.224585    9630.9284   -1113.1724    56.023358   -1264.8851    1088.9414   -794.83549    471.86024   -3796.6273 
 6815000    268.16432   -4189.0917   -3729.4672   -4189.0917            0   -2827.7088    18.269005    23.758829    22.229114    9648.5508   -3543.7088   -2205.3514   -2734.0662    863.69089    601.96358    69.681478   -4127.3661 
 6816000    304.28488   -4177.9861   -3656.4522   -4177.9861            0   -1073.3059    18.119062    23.565302    22.552905    9629.6657   -241.94163    70.582333   -3048.5584    308.18743   -639.29701   -344.15388    -3807.186 
 6817000     263.1579   -4196.2607   -3745.2171   -4196.2607            0   -1246.6078    18.283322    23.660349    22.138443    9576.8646    314.30611   -1603.8107   -2450.3187   -1027.1462    665.76474   -420.46169   -3919.3292 
 6818000    270.80076   -4167.8828   -3703.7396   -4167.8828            0    -358.0771    18.203191    23.618064    22.255907    9568.3517    249.07839   -817.12532   -506.18436   -873.45004    85.910459   -722.15152   -3753.7073 
 6819000    264.01907   -4199.4803   -3746.9606   -4199.4803            0   -1541.8652    18.140295    23.649241    22.418067    9617.4451   -820.54687   -1098.0459   -2707.0029   -25.831425    936.40607   -707.66561   -3963.2235 
 6820000    276.36999   -4157.4427    -3683.754   -4157.4427            0   -1083.9956    18.442718    23.839341    21.963886     9656.691   -2942.8003   -1772.5687    1463.3823    -830.1372    70.029769     343.8628   -3836.4162 
 6821000     284.2192   -4183.5679   -3696.4259   -4183.5679            0   -2110.3764    18.120267     23.66262    22.626255    9701.5271   -3166.7794   -1509.6497      -1654.7   -450.17886   -1026.9063    174.26628   -3995.0163 
 6822000    287.52712   -4118.7452   -3625.9336   -4118.7452            0   -2483.1665    18.287871    23.847333    22.353726    9748.8387   -2426.0703   -3862.1574   -1161.2718    269.32274    38.850745    521.81315   -3978.9823 
 6823000     264.4365   -4191.3166   -3738.0815   -4191.3166            0   -484.28593     18.32323    23.697698    22.085368    9589.8722   -520.51117   -185.43518   -746.91142    198.47242    393.74415   -423.21584    -3805.813 
 6824000     288.5496   -4199.7612    -3705.197   -4199.7612            0   -318.12795    18.059615    23.435287    22.551391    9544.4763   -80.030388     966.3592   -1840.7127    411.33499   -1172.7666    435.11288   -3749.4793 
 6825000    283.23557   -4187.1643   -3701.7082   -4187.1643            0   -906.57567    18.178235    23.788077    22.133946    9571.2774   -1683.6315   -1339.8816    303.78616   -1172.6714   -239.29963   -336.02177   -3828.2547 
 6826000    271.48769   -4167.1238   -3701.8032   -4167.1238            0   -929.28406    18.183525    23.703434    22.267844    9597.7075    720.13129   -941.56401   -2566.4195    180.98666   -451.22581    128.74564   -3831.8776 
 6827000    277.77138   -4199.1186   -3723.0279   -4199.1186            0   -1032.3848    18.214557    23.419276    22.503168    9599.2159   -677.01613   -949.26962   -1470.8686   -894.59725   -315.75613     788.2582   -3867.5563 
 6828000    292.34855   -4142.0416   -3640.9662   -4142.0416            0   -386.28286    18.461414    23.601601    22.126341    9640.8654   -726.63451   -1418.3711    986.15705    461.70099   -355.09925    25.985811   -3695.2784 
 6829000    264.71912   -4165.6334   -3711.9139   -4165.6334            0   -1568.8386    18.212319    23.644019    22.540822    9706.3579   -2162.7027    134.79089    -2678.604    539.13049    44.020309   -302.98643   -3933.9944 
 6830000    283.35746   -4128.4289   -3642.7639   -4128.4289            0   -1996.5205    18.301731    24.077436    22.092517     9735.261   -2825.3244    -2769.392   -394.84513    132.31519    -421.2702    91.696216   -3926.2275 
 6831000    267.65134   -4144.4173   -3685.6721   -4144.4173            0   -712.36523    18.264732    23.806178    22.365123    9724.6565   -1940.2273   -509.57772    312.70933    13.212834    251.54602    277.00651   -3786.7027 
 6832000    271.41086   -4180.1401   -3714.9512   -4180.1401            0    -639.3648    18.217361    23.551112    22.469901    9640.4663    36.641245   -648.92773   -1305.8079   -69.693689    1178.8855    946.13014   -3804.8435 
 6833000     263.3294   -4167.5681   -3716.2305   -4167.5681            0   -354.32578    18.355339    23.646175    22.113877     9598.165    -1788.273   -964.17139     1689.467    1207.0668    1166.4411    732.03148   -3765.8288 
 6834000    293.30597   -4154.5108   -3651.7944   -4154.5108            0   -1607.1842    18.270338    23.616685    22.417601    9672.8545   -1962.1208   -2338.7865    -520.6452   -70.234301   -361.78062    144.40842   -3878.5177 
 6835000    280.74196   -4183.0714   -3701.8893   -4183.0714            0   -269.87834    18.208151    23.747598    22.071589    9543.7518    803.84935   -1770.6936    157.20921   -311.67111   -759.00708    238.41648   -3739.4526 
 6836000    278.09083   -4174.3442   -3697.7061   -4174.3442            0   -2016.8389     18.26565    23.788177    22.331777    9703.3032   -1870.1652   -2553.6502   -1626.7015   -559.08072    723.39113    597.94537   -3983.1144 
 6837000    269.55572   -4177.7826   -3715.7733   -4177.7826            0   -2736.3619    18.292547    23.672451    22.470984    9730.5972    -3160.046   -2905.0689   -2143.9708    208.41499    399.51568    555.06431   -4104.0925 
 6838000     296.9859   -4166.9537     -3657.93   -4166.9537            0   -1953.9127    18.438781    23.800662    22.264191    9770.7563   -1431.3582   -2800.6019    -1629.778   -1480.0264    237.44927   -89.995711   -3936.3557 
 6839000     268.2428   -4188.6711   -3728.9121   -4188.6711            0   -2461.1365     18.20721    23.776742     22.54001     9757.754   -2082.7626   -1321.4954   -3979.1515   -181.71862    -256.6704    446.47646   -4079.1486 
 6840000    277.35622   -4165.8282   -3690.4492   -4165.8282            0   -1773.3903    18.320552    23.775338    22.200158    9669.8847   -1819.0746   -2203.7579   -1297.3383    464.55547   -374.99545   -304.04987   -3940.5421 
 6841000    260.52741   -4177.4869   -3730.9518   -4177.4869            0    52.402917    18.132008    23.606307     22.32787    9556.9923    257.47166    767.06318   -867.32609   -658.27554    -364.6045    82.211055    -3723.648 
 6842000    276.73138   -4153.3175   -3679.0094   -4153.3175            0   -904.12045    18.166844    23.657749    22.333863    9598.7962   -715.44319    -1490.363   -506.55512    485.75531    29.474837     334.2511   -3805.5759 
 6843000    263.45355   -4170.5945   -3719.0442   -4170.5945            0   -2134.5893    18.208576    23.968776    22.168701    9675.2478   -1424.1295    -3076.941   -1902.6974   -98.661705   -618.94537   -175.63031   -4020.2423 
 6844000    266.25809   -4163.6225   -3707.2653   -4163.6225            0   -1956.6936    18.313535    23.836106    22.250777     9712.984   -3073.7645   -1338.1874    -1458.129    984.96456    247.46058   -573.05877   -3984.4385 
 6845000    278.89575   -4197.3986   -3719.3808   -4197.3986            0   -707.52886    18.194518    23.506201    22.319328    9545.6195   -1108.0182   -168.23385   -846.33452    -671.9531   -204.77934     577.6743   -3817.8781 
 6846000    292.32506   -4167.1752   -3666.1401   -4167.1752            0    364.60958    18.264615    23.532485    22.101186    9499.3504    377.20498    1311.2937   -594.66991   -538.96459    564.09285   -696.29653   -3615.6277 
 6847000    288.11066   -4187.8505   -3694.0387   -4187.8505            0   -1838.3581    18.252005    23.799387    22.323936    9697.2172   -1068.2617   -3019.0848   -1427.7277   -345.74083    90.506532    402.35917   -3954.0266 
 6848000    265.15191   -4187.2695   -3732.8082   -4187.2695            0   -2252.3532    18.130973    23.896529    22.461431    9731.8039   -2339.0854   -1641.3564   -2776.6177    241.32818    332.39801     435.0419   -4052.4811 
 6849000    291.74896   -4190.7076   -3690.6599   -4190.7076            0   -2097.3936    18.218379    23.857384    22.216079    9656.0601    -2197.232   -2097.9478   -1997.0011    1017.4883    258.69973    535.15063   -3986.0227 
 6850000    274.64935   -4192.8548   -3722.1152   -4192.8548            0   -1622.8767    18.340329     23.60067    22.268299    9638.7009   -461.36103   -1809.3507   -2597.9184   -620.38535   -50.178952   -122.92538   -3950.2439 
 6851000    263.85805   -4184.6166   -3732.3729   -4184.6166            0   -1691.0749    18.395497     23.44644    22.341653    9636.1544   -2217.1007   -1692.1797   -1163.9442    31.222041   -57.897886    -163.9961   -3970.0254 
 6852000    288.32225   -4162.9335   -3668.7591   -4162.9335            0   -3089.1836    18.320508    23.932589    22.280021    9768.8355   -3135.0131   -4045.3035   -2087.2343    219.13896    332.38503    736.73272   -4108.8703 
 6853000    274.80776    -4144.738   -3673.7269    -4144.738            0   -2970.0235    18.230476    24.046277     22.38931    9814.9155   -1879.0953   -3722.1131   -3308.8621    880.55076    529.60545    221.83045   -4098.8574 
 6854000    278.86123   -4166.4758   -3688.5172   -4166.4758            0    -2981.651    18.291202    23.816942    22.514021    9808.0191   -2955.6581   -3370.5382   -2618.7566    899.59321    606.19988    226.37364   -4115.0123 
 6855000    294.94501   -4166.9799   -3661.4543   -4166.9799            0   -2123.2283    18.568973    23.655534    22.163526    9735.5276   -3087.3321   -2497.5725   -784.78024    -696.6257    774.98652   -325.75661   -3962.9159 
 6856000    261.29187    -4171.535   -3723.6897    -4171.535            0   -2492.0464    18.347436    23.675037    22.512384    9778.8439   -1571.0821    -3498.817   -2406.2401   -158.12733   -100.88497    86.017035   -4079.0914 
 6857000    268.30412   -4177.1906   -3717.3266   -4177.1906            0   -1409.9199    18.292821    23.754379    22.294568    9687.7613     -1665.15    -1421.541   -1143.0688     464.0745   -913.84823   -158.66238   -3916.5286 
 6858000    276.18552   -4172.3077   -3698.9352   -4172.3077            0   -1429.2727    18.042834    24.004749    22.330724    9671.7425   -1474.3263   -2815.9412    2.4494692   -1639.0255    262.76477    208.22526   -3900.5376 
 6859000    269.33623   -4167.7829   -3706.1498   -4167.7829            0   -1326.9149    18.075134    23.884848    22.429776    9683.4241   -1967.6605   -2127.0912    114.00689   -967.40958   -177.49801    456.86209   -3893.5405 
 6860000      277.376   -4178.8884   -3703.4755   -4178.8884            0   -2276.2168    18.591222    23.617892     22.23873    9764.7032   -4298.4539    -2316.894    -213.3023    192.26586     461.2866    348.76505   -4027.6274 
 6861000    287.74634    -4181.534   -3688.3467    -4181.534            0   -1544.1982    18.405472    23.637834    22.328828    9714.5028   -2048.6994   -1324.2597   -1259.6354   -784.64902    662.46965   -169.96938   -3907.1226 
 6862000    281.56576   -4175.1163   -3692.5222   -4175.1163            0    -926.9263    18.095407    23.589448    22.575965    9636.7914    69.958956    -626.4849   -2224.2529   -136.68464    705.65541   -194.09914   -3822.7949 
 6863000    271.98725   -4172.4862   -3706.3094   -4172.4862            0   -948.07448     18.12248    23.895659    22.215665    9620.4625   -614.12368   -1366.1267     -863.973     461.7928    615.01186    786.51664   -3839.3286 
 6864000    296.41078   -4167.9042   -3659.8662   -4167.9042            0   -2129.5151    18.315076    23.677639    22.410839    9718.6347   -1565.7016   -1795.1759   -3027.6679    214.64312    860.07616    92.621534   -3961.6959 
 6865000    289.42598   -4169.4452    -3673.379   -4169.4452            0   -1565.1042    18.477651    23.493017    22.362437    9707.4391   -3004.8415   -792.50392   -897.96709    368.21391   -158.54785    201.80511   -3894.9556 
 6866000    272.98883   -4180.7727   -3712.8792   -4180.7727            0    -1036.811    18.308824    23.733225    22.211874    9651.6689   -1422.6758    22.675141   -1710.4324    411.89928    270.60618    613.69763   -3858.8204 
 6867000    264.25316   -4189.8506   -3736.9297   -4189.8506            0   -1296.8311    17.921115    23.920124    22.568544    9674.5776    47.902281   -2071.3018    -1867.094    116.33596    1036.6229    143.01754   -3919.9045 
 6868000    276.26669   -4196.1805   -3722.6688   -4196.1805            0   -1245.0012     18.22203    23.830804    22.179009    9631.1376   -2359.4709   -1530.7714    155.23866   -1537.7353   -420.16369   -639.25047    -3897.542 
 6869000    282.26076   -4157.3113    -3673.526   -4157.3113            0   -3193.4916    18.439632    23.722498    22.421114    9807.7604   -4254.8027   -2326.9998   -2998.6723   -109.27423   -601.28706   -557.31906   -4130.3107 
 6870000    273.96958   -4182.7205    -3713.146   -4182.7205            0   -1602.6737     18.29659    23.618509    22.368268    9666.1826   -1335.9023   -1241.9577   -2230.1612    59.526732   -275.33569    369.85669   -3939.0771 
 6871000    285.42494    -4201.312   -3712.1034    -4201.312            0    -1803.688    18.373455    23.797964    22.147191    9683.8773   -2532.4538   -2463.0658    -415.5446   -918.70352    285.95549   -591.88001   -3966.8372 
 6872000    294.24851   -4158.7333   -3654.4015   -4158.7333            0   -1783.1924    18.054669    24.051162    22.291394    9679.7208   -461.72877   -2305.1863   -2582.6622   -835.68767    -1144.117    121.44266   -3906.1326 
 6873000    270.16862   -4203.8594   -3740.7996   -4203.8594            0   -2010.1133    18.138048    23.856534    22.382172    9685.0109   -2065.5088   -2188.2589   -1776.5722    252.89695    350.10132   -342.90879     -4024.72 
 6874000    268.57585   -4133.3661   -3673.0362   -4133.3661            0   -1036.3388    18.312579    23.588102    22.376893    9665.8997   -461.72534    7.2414861   -2654.5327   -856.84702    847.68824    -737.3844   -3819.1261 
 6875000    291.90038   -4155.3957   -3655.0884   -4155.3957            0   -1833.5772    18.475852    23.498534    22.343854    9700.7057   -3348.5349   -1055.8433   -1096.3534    1225.0365     478.8262   -179.02468   -3914.4934 
 6876000    292.06374   -4198.6425   -3698.0552   -4198.6425            0   -559.59334    18.332679    23.527842    22.291786    9615.0801   -999.73582    335.35702   -1014.4012    911.93738   -873.67782    283.03908   -3776.5248 
 6877000    281.84407   -4166.9747   -3683.9036   -4166.9747            0   -1124.6284    18.078011     23.97545    22.318959    9673.6719   -890.21973   -2033.0523   -450.61324   -560.21368    387.56746   -672.33703   -3842.5669 
 6878000    273.59989   -4158.8903   -3689.9495   -4158.8903            0   -2508.9653    18.138011    24.054444    22.332438    9743.6376   -2288.4275   -2837.9164   -2400.5521   -320.22704    422.10401    64.446836   -4046.4758 
 6879000    286.49082   -4154.0456   -3663.0102   -4154.0456            0   -2141.4262    18.374403     23.63961    22.422796    9739.6488   -1482.8852   -2243.0739   -2698.3194   -361.82748   -1002.1031    349.06701   -3967.1843 
 6880000     275.1934   -4203.9767   -3732.3047   -4203.9767            0   -2623.7493    18.640361    23.554109     22.31456    9797.3656   -2436.8305   -2653.1344   -2781.2831   -596.44968    137.36315   -694.22957   -4107.1979 
 6881000    279.23136   -4209.2369   -3730.6439   -4209.2369            0   -762.45435    18.290433    23.682283    22.325412     9670.458   -1397.7065    559.31112   -1448.9676    321.99341   -71.070453    334.93806   -3838.1757 
 6882000    284.56692   -4144.4295   -3656.6915   -4144.4295            0   -1180.1001    18.103079    23.854189    22.441637     9691.068    295.95997   -1010.0844   -2826.1758     930.6257    45.805799   -730.85268   -3823.4801 
 6883000    272.64926   -4168.1924   -3700.8809   -4168.1924            0   -2269.9432    18.337639    23.923111    22.248153    9760.1172   -3647.9292   -1424.2546   -1737.6456    12.114911   -106.43912   -1046.1982   -4023.9876 
 6884000    264.78326   -4179.2124   -3725.3829   -4179.2124            0   -3616.8637    18.271908    23.821668     22.57911    9827.9485   -2313.2357   -3659.1749   -4878.1806    484.10441    80.888947    681.92543     -4243.79 
 6885000    265.52656   -4192.8659   -3737.7624   -4192.8659            0   -2193.3086    18.394078    23.854244    22.151912    9719.7456   -2474.7475   -2240.9332    -1864.245   -316.64845   -157.89885    -473.2232   -4048.6695 
 6886000    275.19178   -4166.7393     -3695.07   -4166.7393            0   -2141.9674     18.37326    23.698978    22.307213    9713.1733   -3039.4786   -1217.5893   -2168.8343    1138.8107   -260.73173    112.90316   -3998.4939 
 6887000    269.86611   -4182.5609   -3720.0196   -4182.5609            0   -2651.1711     18.29196    23.580894    22.496339    9703.5882   -3711.2636   -1469.2917   -2772.9581   -415.59073    34.017699    578.36325   -4095.2051 
 6888000    276.98233   -4172.2178   -3697.4796   -4172.2178            0   -620.87301    18.301104    23.941385    21.915749    9602.4677   -632.56448   -1922.9369     692.8824   -390.19562   -64.923619    694.03462    -3784.428 
 6889000    261.98076   -4201.1813   -3752.1552   -4201.1813            0   -1317.5064    18.100954    23.643479    22.514558    9635.5447   -1593.1024   -737.70656   -1621.7102   -492.30107    -547.9989    566.13124   -3937.2972 
 6890000    279.45713   -4176.1355   -3697.1555   -4176.1355            0    -2168.675    18.287624    23.869192    22.213995    9696.6484   -2757.7151   -649.36358   -3098.9463   -228.07897   -289.00871   -110.13355   -4003.8401 
 6891000    284.03565   -4211.3837   -3724.5563   -4211.3837            0   -2948.1705    18.482765     23.57488    22.314722    9723.1704   -3537.7198   -4169.6619   -1137.1297     266.5059   -601.24834   -221.06706   -4142.6142 
 6892000    272.15023    -4182.993   -3716.5369    -4182.993            0   -2190.5393    18.271012    23.637658    22.447458    9694.6964   -2646.2363   -2238.3729   -1687.0087    279.01578   -11.653423   -270.97053   -4026.2511 
 6893000    273.87952   -4174.7345   -3705.3144   -4174.7345            0   -2943.4836    18.350152    23.835528    22.334888     9768.957   -2943.0914   -3186.8997   -2700.4596   -190.68814   -266.07502    206.24633   -4124.6731 
 6894000    263.14986   -4150.6068    -3699.577   -4150.6068            0   -2121.1145    18.238574    23.981272    22.175588    9699.2518   -2022.8211   -3240.3233   -1100.1991   -177.30265   -82.730528   -209.25981   -3999.6163 
 6895000    286.04627   -4157.9885    -3667.715   -4157.9885            0   -2320.7693    18.081993    23.666612    22.686717    9708.5429   -573.45274   -2034.4798   -4354.3752   -1231.2729   -162.51084    809.81472   -3996.3107 
 6896000    268.60337   -4182.4181   -3722.0411   -4182.4181            0   -1925.1146    18.390755    23.666966    22.237393    9678.9002   -2348.2598   -1555.5931    -1871.491   -247.58041   -447.00847    802.59468   -3993.7842 
 6897000     263.1324   -4186.5297   -3735.5298   -4186.5297            0   -1419.1796    18.440365    23.602495    22.226685    9673.9115   -1909.6955    -508.0797   -1839.7636   -608.26697   -534.34211    63.319443   -3935.7535 
 6898000    269.73986    -4200.304   -3737.9791    -4200.304            0   -1980.8395     18.14893    23.747518    22.447061    9674.5044   -1606.9288   -2063.6549   -2271.9348   -854.65261    37.836289    680.50499   -4017.4612 
 6899000    294.34341   -4156.9794   -3652.4849   -4156.9794            0   -1780.9967     18.10128    24.303364    22.051755    9701.0525   -1397.6834    -2691.966   -1253.3407    194.92752   -120.79992   -22.868026   -3904.4601 
 6900000    268.81731   -4163.7528   -3703.0091   -4163.7528            0   -1730.8876    18.294245    23.692916    22.386262    9703.1911   -1849.3039    -1967.064   -1376.2948    200.93808   -220.90593   -80.889591   -3947.9489 
 6901000    273.55129   -4141.6874   -3672.8299   -4141.6874            0   -2299.1597    18.445751    23.503873    22.464971    9739.6116   -1978.1953   -799.93629   -4119.3474    141.28725    518.37235   -642.84483   -3999.4077 
 6902000    264.09816   -4181.1821   -3728.5269   -4181.1821            0    -1971.041    18.454623    23.706643    22.203329    9713.8931   -2434.2335   -1607.6296   -1871.2599   -288.28193   -157.90269   -221.01217   -4007.7587 
 6903000    283.26204   -4166.9087   -3681.4073   -4166.9087            0   -2329.6468    18.010498    23.702019    22.765517    9718.2615    -798.8908    -1283.193   -4906.8565   -465.99682    511.83343   -431.58101   -4011.5902 
 6904000    250.82004   -4151.6114   -3721.7144   -4151.6114            0   -1339.3774    18.203385    23.853959    22.182412    9632.1094   -2451.1032   -1576.0492    9.0202689    1004.5006   -996.97229    167.56216   -3909.8627 
 6905000    276.77432   -4186.7429   -3712.3612   -4186.7429            0   -1110.2698    18.245395    23.714534    22.203184    9606.8966   -1796.1174   -2218.6081    683.91587   -362.66467   -1106.9388    611.91915   -3867.9174 
 6906000    276.92348   -4225.5849   -3750.9475   -4225.5849            0   -844.35051    18.108631    23.578212    22.565002     9634.559   -838.44325   -362.42683   -1332.1814    358.21693    251.71493   -49.157808   -3869.5874 
 6907000    279.08454   -4198.9646   -3720.6233   -4198.9646            0   -2185.2589     18.26042    23.958062    22.063008    9652.2188   -1680.2329   -3003.6031   -1871.9409   -1207.9301   -153.77166     25.40166   -4028.2372 
 6908000    287.62181   -4207.5702   -3714.5963   -4207.5702            0   -263.93708    18.125154    23.562159    22.349373    9544.6966    36.543277   -926.19774    97.843219    1263.3399   -38.626969   -483.98652   -3751.3362 
 6909000    278.39728    -4183.095   -3705.9316    -4183.095            0    -956.3074    18.208246    23.682632    22.348159    9636.9551   -843.04898   -2019.5367   -6.3365298    58.279498    246.39874   -677.49037   -3840.3359 
 6910000    275.54917    -4141.248   -3668.9662    -4141.248            0   -1395.3592    18.396345    23.800751    22.154121    9700.1119    -1542.535   -3859.1627    1215.6201    649.39465    37.105965    202.38565   -3866.3623 
 6911000    272.19866    -4206.356   -3739.8168    -4206.356            0   -1858.1144    18.206998     23.19494    22.781244    9620.7519   -2162.5454    206.16984   -3617.9676    240.80548   -128.96234    119.20617   -4000.5266 
 6912000    270.49233   -4175.4585   -3711.8439   -4175.4585            0   -2179.6912    18.238402    23.906584    22.217469    9687.2143   -2280.3857   -3129.3297   -1129.3582    39.304533    728.61803    37.281184   -4019.7865 
 6913000    276.99399   -4171.8298   -3697.0716   -4171.8298            0   -2134.8543    18.167807     23.89929    22.389687    9721.5503   -980.77855   -3330.1179   -2093.6665   -246.75779   -322.62757   -148.11757   -3999.7488 
 6914000    274.89561   -4186.9686    -3715.807   -4186.9686            0   -952.41059    18.218902    23.670824    22.457261    9684.8378   -240.19894   -115.10659   -2501.9262    -167.4797    592.90668   -259.40024   -3850.3287 
 6915000    268.48908   -4164.3948   -3704.2137   -4164.3948            0    -1784.702    18.353057    23.979738    22.046577    9702.7311   -2672.2609   -2921.7494    239.90416     -749.142    128.97003    -228.8838   -3956.7568 
 6916000    274.09826   -4160.9772   -3691.1821   -4160.9772            0   -1696.7774     18.17638    23.642295    22.491351    9665.2384   -616.25142   -2203.1426   -2270.9382    -1025.818    691.28139     284.4166   -3930.3558 
 6917000    261.43644   -4176.6546   -3728.5615   -4176.6546            0   -1755.1137    18.267392    23.739893    22.356393    9695.2056   -2017.9015   -2709.2414   -538.19831    636.57541   -32.121662     -212.686   -3976.7252 
 6918000    290.58943   -4147.2099   -3649.1495   -4147.2099            0   -1851.7242    18.476139    23.857523    21.971886     9685.096   -2956.7455   -773.06913   -1825.3579    557.89242   -624.25182   -621.74682   -3910.7004 
 6919000    284.21684   -4147.4175   -3660.2795   -4147.4175            0    -2192.458     18.25461    23.573989    22.492427    9679.2554   -2714.1245   -1537.0858   -2326.1638    413.36196     149.8549     160.8561   -3969.7713 
 6920000    288.99356   -4190.7667   -3695.4416   -4190.7667            0   -1017.1962     18.27393    23.774553    22.190997     9640.979   -1060.1666   -2099.2322    107.81008    315.72509   -275.20866     168.1316   -3838.4633 
 6921000    284.52953   -4193.9311   -3706.2573   -4193.9311            0   -911.63881    18.027931    23.702423    22.499363    9614.1044    863.55435   -1309.8569   -2288.6139    153.97341    1418.6736    62.124667   -3834.0798 
 6922000    270.95331   -4162.5564   -3698.1517   -4162.5564            0   -3378.2079    18.257903    23.914248    22.417355    9787.9559   -4123.5925   -2569.6361   -3441.3951    133.18749   -453.60199    296.10989   -4180.3818 
 6923000    275.37914   -4185.0365   -3713.0461   -4185.0365            0   -1866.6195    18.308019     23.80771    22.207038    9679.4259   -1741.6113   -1598.2366   -2260.0107    489.06953    805.54818    420.44603   -3976.5465 
 6924000    257.75194   -4159.5214   -3717.7434   -4159.5214            0   -603.38144    18.126827    23.447075    22.636381     9620.939    -251.6207     301.3424    -1859.866    9.8391432    47.889414   -649.66639   -3802.4048 
 6925000    273.78344   -4156.2929   -3687.0374   -4156.2929            0   -614.63327    18.357807    23.626856    22.081547      9577.59   -164.33999   -106.77686   -1572.7829    789.85235   -62.957539    343.32656    -3772.889 
 6926000    273.44153   -4185.8701   -3717.2007   -4185.8701            0   -1914.0002    18.254522    23.733351    22.364132    9689.0587   -1118.5265    -2822.758   -1800.7162   -111.09814   -737.41942    22.067664   -3987.6585 
 6927000    281.16904   -4149.8178   -3667.9037   -4149.8178            0   -1596.0613      18.1247    23.893322    22.307656    9660.5377   -379.94395   -1818.8438   -2589.3962    688.96433     509.3564    49.635414   -3892.7713 
 6928000    290.14436   -4172.2712   -3674.9737   -4172.2712            0    -2395.631     18.25816    23.961446    22.278452    9746.6428   -1985.7337   -3230.1414   -1971.0178   -213.91438    106.07549    829.45285   -4015.5001 
 6929000    270.83027   -4160.2852   -3696.0914   -4160.2852            0   -2806.4173    18.260096    23.556679     22.78107    9799.2144   -2000.5796   -2250.9094    -4167.763   -1661.9242   -231.82605    1078.6955   -4097.1607 
 6930000    273.06256   -4166.5115   -3698.4916   -4166.5115            0   -3074.0605    18.465076      23.7331    22.398885    9815.9414   -3742.8357   -3399.2731   -2080.0726   -548.92973   -34.619914   -589.92952   -4138.5601 
 6931000    280.01032   -4165.8496   -3685.9215   -4165.8496            0   -2002.4915    18.495185    23.773663    22.139176    9734.5577   -2244.7112   -2592.0614   -1170.7019   -397.16843   -475.00836   -184.98803   -3970.2123 
 6932000    280.34132   -4139.7901   -3659.2947   -4139.7901            0   -2047.6967    18.149252    23.784092    22.508875    9716.2596   -718.75068   -2425.4308   -2998.9087   -44.529347   -35.620184   -78.371993   -3949.4567 
 6933000    273.85438     -4183.42   -3714.0429     -4183.42            0   -1789.6657    18.152268    23.956185    22.338479    9714.0909   -999.07582   -2286.0313   -2083.8898    78.120717     580.8923   -722.19722    -3967.585 
 6934000    273.99928   -4189.1118   -3719.4864   -4189.1118            0   -3069.5682    18.427994    23.702517    22.316377    9747.5663   -2799.5001   -3345.0196   -3064.1848    661.42691    1363.7522    461.31747   -4155.8509 
 6935000    272.94343   -4135.6599   -3667.8443   -4135.6599            0   -1563.5177    18.460595    23.476784    22.412743    9713.5797   -2189.1586   -577.59598   -1923.7987   -34.266369    33.501453    481.12796   -3889.3362 
 6936000    281.70218   -4155.6575   -3672.8296   -4155.6575            0   -1327.8963    18.216664    23.672743    22.399832    9659.6678   -2189.6073   -135.89737   -1658.1843    566.84998   -12.042698    239.18583   -3859.8987 
 6937000    261.58041   -4157.6787   -3709.3388   -4157.6787            0   -1199.4504    18.109994    23.996497    22.273402    9679.4952   -359.74441   -1941.9041   -1296.7026    -140.4232   -590.41406     942.9675   -3878.6598 
 6938000    285.65018   -4157.2599   -3667.6653   -4157.2599            0   -1594.2042    18.256557    23.856186    22.312687    9717.8856   -1278.0032   -2245.8298   -1258.7796   -440.55985    1038.1101    311.74496   -3893.6045 
 6939000    263.43747   -4185.7191   -3734.1963   -4185.7191            0   -2225.8951    18.409548    23.558443    22.381558    9706.8879   -2931.9078   -933.24392   -2812.5337   -578.98796    106.94876    434.13675   -4049.3051 
 6940000    299.99752   -4165.4672   -3651.2817   -4165.4672            0   -1806.4236    18.519497    23.431615    22.329384    9689.6513   -2891.0423   -1919.3213   -608.90713   -668.48008   -505.28125   -160.40273    -3906.554 
 6941000    278.94274   -4161.0731   -3682.9748   -4161.0731            0   -1501.1116    18.191154    23.738418    22.452826    9695.7866    -1151.205   -1348.9046   -2003.2253    926.58084   -214.89435    151.52044   -3895.2367 
 6942000    276.24404   -4160.9024   -3687.4296   -4160.9024            0   -2487.6811    18.153908     24.16481    22.204749    9740.9065   -2481.4911   -3737.9157   -1243.6364   -686.44273    -143.7072    124.37557   -4040.8323 
 6943000    283.26935   -4164.8151   -3679.3011   -4164.8151            0   -2582.5734    18.373576    23.797518     22.34426    9769.9277   -3841.1033   -3331.5976    -575.0194   -183.88803     -138.947   -509.73876   -4047.2775 
 6944000    286.94112   -4150.8009   -3658.9936   -4150.8009            0   -2902.0322    18.530846    23.481469    22.542389     9808.903   -4682.2837   -3124.7296   -899.08322    106.17153    -324.7883    275.20194   -4074.1374 
 6945000    275.48786   -4172.9862   -3700.8094   -4172.9862            0   -2991.7713    18.362443    23.754401    22.310013    9731.3783    -2266.308    -3952.747   -2756.2589   -151.17169   -542.72183    204.97508   -4125.4081 
 6946000    273.83719   -4154.4443   -3685.0967   -4154.4443            0   -2135.3385    18.226055    23.929482    22.498778    9812.6182   -1485.5523   -2466.0829   -2454.3804    546.03542   -532.50506    141.13606   -3990.6785 
 6947000     292.3817   -4202.9514   -3701.8192   -4202.9514            0   -2437.8289    18.242125     23.98033    22.237204    9727.7136   -2951.9158    -3002.815   -1358.7559   -303.39146    362.99919   -75.529159   -4047.6708 
 6948000    272.43742   -4150.6639   -3683.7155   -4150.6639            0   -2088.1362    18.031345    23.966676    22.462587    9707.2385   -997.60769   -2880.4181   -2386.3827   -448.91237   -348.75111  -0.13583101   -3979.3332 
 6949000     280.2645   -4147.1494   -3666.7856   -4147.1494            0   -1819.3505    18.248875    23.715848    22.487127    9732.1486    -1476.682   -2286.0359   -1695.3335   -605.48443   -698.19959   -114.06685   -3925.0122 
 6950000    287.10641   -4193.5534   -3701.4628   -4193.5534            0   -1729.9689    18.615082    23.499597    22.141931    9685.9198   -2222.3796    -1157.715   -1809.8123   -568.57421   -28.124351   -251.28106   -3945.8368 
 6951000    270.38361   -4157.0409   -3693.6127   -4157.0409            0   -1686.2482    18.348465    23.633107    22.384673    9706.6933   -1758.6054   -1700.6872   -1599.4521    422.56649     437.4961   -435.19381   -3932.3216 
 6952000    288.05826    -4176.282     -3682.56    -4176.282            0   -3071.7853    18.274465    23.847098    22.498974    9804.8946    -1747.729   -2747.6946   -4719.9323    355.18471    148.99969    709.92847   -4121.8079 
 6953000     276.5542    -4191.333   -3717.3285    -4191.333            0   -3209.3292     18.31447    23.967963    22.218518    9753.0525   -2341.3228   -4835.9841   -2450.6806   -601.37065   -11.611462   -98.951653   -4173.8179 
 6954000    265.20296   -4172.7689   -3718.2201   -4172.7689            0   -2157.3012    18.243449    23.596221    22.575742    9718.3255   -2250.7205   -1721.7039   -2499.4793    287.52796     -204.017    267.66386   -4023.9783 
 6955000     273.9075   -4198.8669   -3729.3988   -4198.8669            0   -1522.8894    18.473877    23.555555    22.224194     9671.134   -2667.7431   -41.100512   -1859.8246    -568.0815    992.77291     -18.4586   -3944.1926 
 6956000    275.65974   -4194.5194   -3722.0481   -4194.5194            0   -2540.0596    18.382108    23.636919    22.382416    9725.0792   -3069.4093   -2099.1727   -2451.5967    131.02811   -34.775103    195.12656   -4082.3055 
 6957000    278.99468    -4191.732   -3713.5447    -4191.732            0   -2524.8988    18.153781    23.737973    22.453692    9676.0583   -2415.3367   -2596.2259   -2563.1338   -136.04979    37.341446    -199.7079   -4069.8467 
 6958000     292.6536   -4189.2533   -3687.6551   -4189.2533            0   -1392.0273    18.260507    23.991325    22.023576    9648.3915   -1606.2309   -1500.5689    -1069.282   -401.36686   -136.09764   -625.49994   -3883.5299 
 6959000    278.40381   -4184.6311   -3707.4565   -4184.6311            0   -1147.2483    18.298646    23.679074    22.396697    9704.3763   -1341.6385   -1075.6679   -1024.4385   -79.623924    151.33384   -18.562023   -3869.8246 
 6960000    279.16746   -4155.3876   -3676.9042   -4155.3876            0   -1811.1751    18.354127    23.646988    22.367295    9707.8494   -1673.6304   -2601.4672   -1158.4275   -173.63894   -110.27152    1027.7891   -3933.3286 
 6961000    276.84784   -4189.0631   -3714.5554   -4189.0631            0   -2398.7139    18.470951    23.681946    22.200866    9711.2815    -3285.403   -2243.0793   -1667.6593   -801.94862   -927.14986   -17.005564    -4054.283 
 6962000    279.91529   -4171.0036   -3691.2384   -4171.0036            0   -1510.2094    18.176531    23.733351    22.448497     9684.057   -1775.5105    -1063.934   -1691.1838    120.54589   -719.32639   -126.90142   -3904.5283 
 6963000    281.13871   -4157.2182   -3675.3561   -4157.2182            0   -1309.5346    18.275256    23.751209    22.439839    9740.2236   -96.757561   -2424.2305   -1407.6158   -48.250239    -1071.384   -820.94931    -3861.377 
 6964000     286.5995    -4200.022   -3708.8003    -4200.022            0   -2289.7982    18.423749    23.607162    22.264924    9683.7375    -1547.415   -3392.4922   -1929.4872   -1187.4769   -291.89749     84.51248   -4032.1825 
 6965000    268.26014   -4218.5037    -3758.715   -4218.5037            0   -1965.0227     18.28886    23.578598    22.507298    9705.7246   -2051.4187   -1391.5916   -2452.0577    108.36865    938.57552   -57.380338   -4036.8601 
 6966000    270.56977    -4186.785   -3723.0377    -4186.785            0   -1733.1908    18.086902    23.902667    22.285505    9634.5854   -777.46303   -1345.9954   -3076.1139   -301.35313   -615.73563    329.40844   -3966.5693 
 6967000    267.04202   -4188.5806   -3730.8797   -4188.5806            0   -921.16883    18.098247    24.012662    22.204149    9649.6362   -256.10087   -1171.7343   -1335.6714    499.50282   -638.06644    23.496821   -3860.5158 
 6968000    272.75323   -4156.5897      -3689.1   -4156.5897            0   -1164.3775    18.266094     23.60393     22.33824    9631.1676   -2210.7722   -588.90719   -693.45297    890.57136   -190.17495    168.25953   -3852.6493 
 6969000     295.1154   -4180.9855   -3675.1678   -4180.9855            0   -1051.2176    18.730729    23.165323    22.171965    9620.4912   -3380.3186    -105.4971    332.16281   -141.66926    446.19455    490.41111   -3822.6589 
 6970000     276.7222   -4206.5477   -3732.2553   -4206.5477            0   -632.51923    18.237269    23.620087    22.225897    9574.1582   -1180.9907   -202.07701   -514.48995   -577.85579   -121.10827   -270.83193   -3820.5735 
 6971000    278.08922   -4175.7789   -3699.1435   -4175.7789            0    7.2054611     17.81701    23.959972    22.292317    9516.4802    1850.6592   -1355.9172   -473.12566    663.09659   -41.892412    -111.4047   -3698.1435 
 6972000    282.95495   -4204.0387   -3719.0636   -4204.0387            0   -770.07633    18.253717     23.68813    22.226867    9610.8177   -1657.9367   -2186.2799    1533.9875     14.92926    490.25626    1070.0418   -3827.0005 
 6973000    275.01493   -4189.2787   -3717.9125   -4189.2787            0   -1633.6607     18.51993    23.354217    22.268793    9631.6643   -2023.7059   -460.57449   -2416.7016   -1697.0218   -604.82404   -278.41056   -3947.3894 
 6974000    272.40424   -4160.0914   -3693.1999   -4160.0914            0   -1682.6694    18.368851     23.55733    22.397293    9691.7812   -2460.3702   -829.17014    -1758.468   -833.94151   -296.78314   -10.956786   -3931.0363 
 6975000    280.04151   -4195.0916     -3715.11   -4195.0916            0   -1950.5484    18.230639    23.876276    22.309091    9710.6962   -1574.4086   -2420.8515   -1856.3851    627.97689    309.81501   -66.377053   -3991.3477 
 6976000    272.04339   -4148.5464   -3682.2733   -4148.5464            0   -2958.3974    18.012443    24.057687    22.578553    9784.1388    -2236.617   -2890.7996   -3747.7756   -355.73646    612.59177    354.85143   -4104.4119 
 6977000    301.35614   -4139.6207   -3623.1066   -4139.6207            0   -2122.9813    18.331018    23.776136    22.396957    9761.5072   -2690.9455   -882.01702   -2795.9813   -659.94884    507.34485    -1083.371   -3925.3375 
 6978000    280.90305   -4149.1737   -3667.7155   -4149.1737            0   -1775.1009    18.540986     23.55519    22.160443    9678.2731   -1142.1701   -3621.9365   -561.19603    169.55117   -497.35297    25.627918   -3918.2668 
 6979000    296.47101   -4191.5801   -3683.4389   -4191.5801            0   -1074.8529    18.289851    23.515037    22.388491    9628.9878   -159.78451    238.49819   -3303.2725   -483.81014   -45.655047    58.019836   -3834.3793 
 6980000    277.23854   -4132.9026   -3657.7252   -4132.9026            0    -1230.745    18.076521    23.888815    22.418876    9681.0687    -29.56516   -923.14539   -2739.5246   -881.33692   -166.60997    669.74559   -3831.4922 
 6981000    283.09775    -4160.903   -3675.6831    -4160.903            0   -2315.6267    18.214397    24.062412    22.313083    9779.4298   -2234.2897   -3830.0225   -882.56791   -208.28694   -153.57145    765.04127   -4005.9446 
 6982000     278.5951    -4160.173   -3682.6705    -4160.173            0   -2464.6773    18.377283    23.651962    22.502863    9781.0677    -3887.466    -1223.234   -2283.3319   -476.13227   -485.43167   -551.44544   -4034.2489 
 6983000    271.77311   -4178.6996   -3712.8898   -4178.6996            0   -1917.0736    18.549986    23.424637    22.428231    9745.6654   -3519.8903    -492.3517   -1738.9788    742.67503   -483.14339   -59.413623   -3985.3645 
 6984000     284.5118   -4158.4157   -3670.7722   -4158.4157            0   -1126.7091    18.336591    23.811866    22.231708    9706.9961   -165.25576   -1431.0013   -1783.8702   -479.33841   -89.049022   -56.829797   -3830.2766 
 6985000    279.71043   -4200.3438   -3720.9297   -4200.3438            0   -1162.9345    18.111087    23.909328    22.235983     9628.712   -575.39789    -2211.277   -702.12867    371.12084    432.31835    147.93659   -3884.2347 
 6986000    276.89879   -4182.4405   -3707.8455   -4182.4405            0   -1240.8743    18.027006    23.862571    22.426812    9647.3573   -823.11313   -2195.5539   -703.95577    751.69777   -151.23436    607.86875   -3882.4325 
 6987000    268.40125   -4157.8899   -3697.8593   -4157.8899            0   -1125.5253    18.412715    23.572948    22.206316    9638.4731   -2063.1741   -1225.1063   -88.295476   -122.90384   -353.64888    -493.6807   -3856.0713 
 6988000    266.64486    -4126.477   -3669.4569    -4126.477            0   -2656.1729    18.523168     23.55643    22.466989    9803.2392   -4146.7714   -1448.5324   -2373.2149   -353.55052    522.09786   -522.79747   -4049.2104 
 6989000    262.61374   -4148.3796   -3698.2686   -4148.3796            0   -1821.6941    18.211097    23.714524    22.413405    9679.6212    184.42955   -1751.8068    -3897.705    475.40521   -567.39939   -771.27667   -3955.4324 
 6990000    268.07122   -4156.1556   -3696.6907   -4156.1556            0   -2418.4552    18.227365    24.084507    22.086214    9695.7843   -1746.6957   -3356.4713   -2152.1984   -127.80623    227.45412    112.81598   -4038.6677 
 6991000    281.41077   -4206.7625   -3724.4341   -4206.7625            0   -2158.8364     18.19836    23.638382    22.441224    9653.7612   -950.68875   -2079.2026   -3446.6177   -183.09461    300.86566    91.740784   -4028.3771 
 6992000    276.74445   -4161.8855    -3687.555   -4161.8855            0   -2397.7399    18.420406    23.754033    22.220552    9722.8012   -2528.9097   -3064.9646   -1599.3455    518.85584   -94.056588    84.311158   -4027.5475 
 6993000    283.02071   -4146.7814   -3661.6936   -4146.7814            0   -1078.5322    18.408165    23.534229    22.314021     9666.924   -1215.7337   -926.10168   -1093.7611     967.9961   -123.86141   -210.92799   -3813.7474 
 6994000    270.99953     -4145.02   -3680.5361     -4145.02            0   -1308.7569    18.242519    23.577275    22.520412    9686.2293    390.31125   -1778.0667   -2538.5152     725.3385    -253.4577    145.46937    -3865.416 
 6995000    294.42194   -4162.2741    -3657.645   -4162.2741            0   -2251.1472    18.204805    24.002744    22.227478    9712.6357   -2655.3137   -2989.1503   -1108.9777     318.1919   -657.36131   -11.650913   -3976.5174 
 6996000    274.44761   -4165.4608   -3695.0669   -4165.4608            0   -3325.2887    18.117082    23.842393    22.641389    9780.0522   -2870.5141   -4427.3753   -2677.9766    483.43672    310.17718    243.21864   -4169.3596 
 6997000    260.28096   -4156.6436   -3710.5309   -4156.6436            0   -2317.6582    18.493823    23.659418    22.263032    9741.2583   -3791.1507   -644.92565   -2516.8983   -345.74016    397.50338   -530.99193   -4039.7919 
 6998000    286.81694   -4157.9024    -3666.308   -4157.9024            0    -844.8006    18.284412    23.530324    22.485517    9674.1268   -404.89616   -319.88913   -1809.6165    596.85951    123.05417   -330.41722   -3785.4985 
 6999000     270.0763    -4182.053   -3719.1515    -4182.053            0   -2168.2622    18.283407    23.849884    22.172074    9668.2909   -2199.1477   -3137.3286   -1168.3103   -232.65529    -641.1365   -214.56198    -4024.881 
 7000000    297.54176   -4152.9922   -3643.0158   -4152.9922            0   -1687.9563    18.206953    23.907382    22.245172    9682.8916    -1202.501   -2520.9533   -1340.4145    845.66709   -181.92436    295.41667   -3881.3806 
Loop time of 382.426 on 64 procs for 250000 steps with 864 atoms

Performance: 112.963 ns/day, 0.212 hours/ns, 653.721 timesteps/s
376.4% CPU use with 16 MPI tasks x 4 OpenMP threads

MPI task timing breakdown:
Section |  min time  |  avg time  |  max time  |%varavg| %total
---------------------------------------------------------------
Pair    | 23.985     | 27.301     | 29.608     |  29.5 |  7.14
Bond    | 1.6157     | 1.9006     | 2.4302     |  14.5 |  0.50
Kspace  | 200.8      | 203.7      | 209.08     |  15.5 | 53.26
Neigh   | 1.8561     | 1.9076     | 1.996      |   2.8 |  0.50
Comm    | 51.442     | 56.934     | 60.787     |  35.2 | 14.89
Output  | 0.61606    | 0.61642    | 0.61804    |   0.1 |  0.16
Modify  | 62.197     | 69.244     | 75.678     |  50.0 | 18.11
Other   |            | 20.83      |            |       |  5.45

Nlocal:        54.0000 ave          62 max          46 min
Histogram: 3 2 1 2 0 0 2 0 4 2
Nghost:        2461.88 ave        2506 max        2414 min
Histogram: 2 0 2 3 1 1 1 2 2 2
Neighs:        12598.6 ave       14581 max       10733 min
Histogram: 2 5 0 0 1 1 0 3 1 3

Total # of neighbors = 201577
Ave neighs/atom = 233.30671
Ave special neighs/atom = 2.0000000
Neighbor list builds = 7638
Dangerous builds = 0

unfix		3
unfix		2
unfix		1

write_data	data.final.${pid} nocoeff
write_data	data.final.0 nocoeff
System init for write_data ...
PPPM initialization ...
  extracting TIP4P info from pair style
  using 12-bit tables for long-range coulomb (../kspace.cpp:340)
  G vector (1/distance) = 0.37049539
  grid = 24 27 25
  stencil order = 5
  estimated absolute RMS force accuracy = 0.0032987902
  estimated relative force accuracy = 9.9342088e-06
  using double precision FFTW3
  3d grid and FFT values/proc = 6300 1296
Last active /omp style is kspace_style pppm/tip4p/omp

write_restart   restart.lmp.${pid}
write_restart   restart.lmp.0
System init for write_restart ...
PPPM initialization ...
  extracting TIP4P info from pair style
  using 12-bit tables for long-range coulomb (../kspace.cpp:340)
  G vector (1/distance) = 0.37049539
  grid = 24 27 25
  stencil order = 5
  estimated absolute RMS force accuracy = 0.0032987902
  estimated relative force accuracy = 9.9342088e-06
  using double precision FFTW3
  3d grid and FFT values/proc = 6300 1296
Last active /omp style is kspace_style pppm/tip4p/omp
Total wall time: 0:06:22
