LAMMPS (30 Jul 2021)
  using 1 OpenMP thread(s) per MPI task
package omp 0
using multi-threaded neighbor list subroutines
echo both

include		in.partitions
variable        pid world 0
include		in.temp
variable        temperature equal 248.91
variable	tempDamp equal 100.0
include		in.pressure
variable        pressure equal 7625.0
variable        pressureDamp equal 1000.0 # This is 1 ps
include		in.seed
variable        seed world 745823

units		real
atom_style	full
box tilt large
read_restart	restart.lmp.${pid}
read_restart	restart.lmp.0
Reading restart file ...
  restart file = 30 Jul 2021, LAMMPS = 30 Jul 2021
  restoring atom style full from restart
  triclinic box = (-10.792850 -9.0708760 0.039133783) to (12.772850 12.060874 21.820865) with tilt (-9.1824468 1.7387475 2.6409047)
  4 by 4 by 4 MPI processor grid
  restoring pair style lj/cut/tip4p/long/omp from restart
  restoring bond style harmonic/omp from restart
  restoring angle style harmonic/omp from restart
  1296 atoms
  864 bonds
  432 angles
Finding 1-2 1-3 1-4 neighbors ...
  special bond factors lj:    0        0        0       
  special bond factors coul:  0        0        0       
     2 = max # of 1-2 neighbors
     1 = max # of 1-3 neighbors
     1 = max # of 1-4 neighbors
     2 = max # of special neighbors
  special bonds CPU = 1.709 seconds
  read_restart CPU = 1.977 seconds
include 	in.setup
variable	out_freq equal 1000
variable	out_freq2 equal 10000
variable	out_freq3 equal 1000

timestep	2.0

neigh_modify    delay 7 every 1

include		in.tip4p
# This is TIP4P/Ice

# create groups ###
group ox type 2
432 atoms in group ox
group hy type 1
864 atoms in group hy

# set charges - beside manually ###
set group ox charge -1.1794
Setting atom values ...
  432 settings made for charge
set group hy charge 0.5897
Setting atom values ...
  864 settings made for charge

# ### TIP3P Potential Parameters ###
pair_style lj/cut/tip4p/long/omp 2 1 1 1 0.1577 8.5
pair_coeff 1 1*2 0.000 0.000
pair_coeff 2 2 0.21084 3.1668
bond_style  harmonic
bond_coeff  1 450 0.9572
angle_style harmonic
angle_coeff 1 55 104.52
kspace_style pppm/tip4p/omp 1.0e-5
pair_modify tail yes

thermo          ${out_freq}
thermo          1000
thermo_style    custom step temp pe etotal epair emol press lx ly lz vol pxx pyy pzz pxy pxz pyz enthalpy

restart 	${out_freq3} restart.lmp.${pid} restart2.lmp.${pid}
restart 	1000 restart.lmp.${pid} restart2.lmp.${pid}
restart 	1000 restart.lmp.0 restart2.lmp.${pid}
restart 	1000 restart.lmp.0 restart2.lmp.0


include         in.dump
dump            myDump all atom ${out_freq2} dump.water.${pid}
dump            myDump all atom 10000 dump.water.${pid}
dump            myDump all atom 10000 dump.water.0
dump            myDump2 all dcd ${out_freq2} dump.dcd
dump            myDump2 all dcd 10000 dump.dcd
dump_modify     myDump append yes
dump_modify     myDump2 append yes


variable natoms 	equal  "count(all)"                        # NUMBER ATOMS
variable H      	equal  "enthalpy/v_natoms"                 # ENTHALPY-per-atom
variable Vol      	equal  "vol/v_natoms"                 # volume-per-atom
fix AVG all 		ave/time ${out_freq} 1 ${out_freq} v_Vol v_H file vol_enthalpy.dat
fix AVG all 		ave/time 1000 1 ${out_freq} v_Vol v_H file vol_enthalpy.dat
fix AVG all 		ave/time 1000 1 1000 v_Vol v_H file vol_enthalpy.dat


timer           timeout 10:00:00 every 1000
New timer settings: style=normal  mode=nosync  timeout=10:00:00

fix 		1 all shake 1e-6 200 0 b 1 a 1
       0 = # of size 2 clusters
       0 = # of size 3 clusters
       0 = # of size 4 clusters
     432 = # of frozen angles
  find clusters CPU = 1.385 seconds
fix             2 all nph tri ${pressure} ${pressure} ${pressureDamp}
fix             2 all nph tri 7625 ${pressure} ${pressureDamp}
fix             2 all nph tri 7625 7625 ${pressureDamp}
fix             2 all nph tri 7625 7625 1000
fix             3 all temp/csvr ${temperature} ${temperature} ${tempDamp} ${seed}
fix             3 all temp/csvr 248.91 ${temperature} ${tempDamp} ${seed}
fix             3 all temp/csvr 248.91 248.91 ${tempDamp} ${seed}
fix             3 all temp/csvr 248.91 248.91 100 ${seed}
fix             3 all temp/csvr 248.91 248.91 100 745823


run             250000
PPPM initialization ...
  extracting TIP4P info from pair style
  using 12-bit tables for long-range coulomb (../kspace.cpp:340)
  G vector (1/distance) = 0.37022702
  grid = 27 36 32
  stencil order = 5
  estimated absolute RMS force accuracy = 0.003873711
  estimated relative force accuracy = 1.1665566e-05
  using double precision FFTW3
  3d grid and FFT values/proc = 4590 540
Last active /omp style is kspace_style pppm/tip4p/omp
Neighbor list info ...
  update every 1 steps, delay 7 steps, check yes
  max neighbors/atom: 2000, page size: 100000
  master list distance cutoff = 10.8154
  ghost atom cutoff = 10.8154
  binsize = 5.4077, bins = 7 5 5
  1 neighbor lists, perpetual/occasional/extra = 1 0 0
  (1) pair lj/cut/tip4p/long/omp, perpetual
      attributes: half, newton on, omp
      pair build: half/bin/newton/tri/omp
      stencil: half/bin/3d/tri
      bin: standard
Per MPI rank memory allocation (min/avg/max) = 9.377 | 9.396 | 9.408 Mbytes
Step Temp PotEng TotEng E_pair E_mol Press Lx Ly Lz Volume Pxx Pyy Pzz Pxy Pxz Pyz Enthalpy 
26500000    246.59064   -6278.9969   -5644.6575   -6278.9969            0    6563.2183      23.5657     21.13175    21.781731    10846.964    6687.3976    6725.5923    6276.6651   -479.61279   -786.75474    798.02005   -4606.4099 
26501000    256.11316   -6363.6426   -5704.8071   -6363.6426            0     5659.214     23.07997    21.607494    21.781375    10862.378    6451.6391    5599.1941    4926.8089     643.5762    523.49169    541.40796   -4808.2934 
26502000     250.3543   -6329.3265   -5685.3053   -6329.3265            0    7513.9005     23.38628    21.514945    21.469359    10802.405    6198.5148    7136.7721    9206.4145   -1249.0019   -97.055968    185.06281   -4501.5504 
26503000    254.05915   -6351.1813   -5697.6296   -6351.1813            0     6429.325    23.378531    21.408258    21.570128    10795.711    6412.3547    6924.7184     5950.902   -426.59369   -66.433611   -888.62482   -4685.3685 
26504000    245.65032   -6364.4061   -5732.4856   -6364.4061            0    7660.8533    23.127236    21.363564    21.796296    10769.118    8727.8446    8107.6634     6147.052     59.68041    166.49064    29.822462   -4529.2985 
26505000    253.64209   -6342.4706   -5689.9917   -6342.4706            0    8041.8743     23.24805    21.286279    21.753591    10765.079    8659.0167    8068.2989    7398.3071    275.39423   -362.08415    240.38563   -4427.4364 
26506000    255.72331   -6332.1236    -5674.291   -6332.1236            0    8012.4903    23.351081    21.397699    21.581601    10783.449    6845.2502    9188.8731    8003.3474    995.71457    1694.3598   -144.41239   -4414.2023 
26507000    244.08217    -6338.852   -5710.9655    -6338.852            0    6327.7709    23.536903    21.377342    21.495224     10815.46    5259.3762    6255.3794    7468.5572   -9.8261668   -44.031281   -936.00604    -4712.871 
26508000    257.42629   -6361.6054   -5699.3919   -6361.6054            0    6007.6842    23.266529    21.531145    21.639871    10840.601    6260.0492    5758.8478    6004.1557   -298.53719    -180.2596   -79.730995   -4749.5827 
26509000    255.96039   -6316.9271   -5658.4846   -6316.9271            0    6555.9613    23.247052    21.459482    21.739466    10845.161    6802.7354    6918.1105    5947.0379   -881.58297   -535.07968    469.85527   -4621.5574 
26510000     256.6746   -6344.0112   -5683.7314   -6344.0112            0     6149.646    23.416635    21.346485    21.658016    10826.038    5238.7068    7082.8762    6127.3552    510.85339    174.69501   -270.04223   -4712.7843 
26511000    242.84042   -6322.5337   -5697.8415   -6322.5337            0    6916.0807    23.253054    21.531646    21.592065     10810.64      7800.72    6309.2868    6638.2352    -770.6764    282.32646   -300.32725   -4607.4377 
26512000    248.58341   -6299.0343   -5659.5686   -6299.0343            0    7443.5854     23.35527    21.405963    21.685051    10841.269    7676.0542    7221.8812    7432.8207   -214.69938    315.00402    300.91699   -4482.6724 
26513000     245.4482   -6312.8203   -5681.4198   -6312.8203            0    5244.0256    23.394873    21.409455    21.780503    10909.233    6313.0159    5084.8032    4334.2577    538.75053   -304.62532    134.84936   -4847.0954 
26514000    240.37254   -6341.1285   -5722.7848   -6341.1285            0    6743.9568    23.267248     21.48196    21.662023    10827.245    7840.8947    6563.0971    5827.8787    1814.6082   -1256.8474    -17.04334   -4657.8853 
26515000    241.85541   -6308.1043    -5685.946   -6308.1043            0    6680.1586    23.501896    21.145664    21.829459    10848.438     7107.498     8652.882    4280.0956    1046.8113   -1623.2001   -1028.4947   -4629.0558 
26516000    251.05829   -6343.5379   -5697.7057   -6343.5379            0    8265.0315    23.216661     21.53931    21.567916    10785.486    8733.6224    6721.8792    9339.5927   -739.40393   -255.24825    273.69537   -4397.6555 
26517000    256.18753   -6350.0185   -5690.9917   -6350.0185            0    8011.7475    23.212447    21.512506    21.544282    10758.308     8097.737    8353.8405    7583.6649   -749.36841    59.617157   -538.38967   -4433.9575 
26518000    241.73096    -6353.719   -5731.8808    -6353.719            0    7645.2416    23.364114    21.332265     21.66931    10800.189    7635.7324    8263.9597    7036.0326    -579.0246   -268.88215    765.13196   -4527.6813 
26519000    243.79668   -6322.5161    -5695.364   -6322.5161            0    7833.5873    23.023013    21.572406    21.657321    10756.363    7945.4485    7420.8819    8134.4314   -1140.0443    1027.8948    1420.6599   -4466.5051 
26520000    247.86641    -6351.711   -5714.0897    -6351.711            0    7850.2813    23.442565    21.356926    21.507377    10767.908    7266.9428    8000.5218    8283.3793    303.34402   -98.795603   -56.632634   -4481.2903 
26521000    242.47705   -6354.0436   -5730.2862   -6354.0436            0    7544.3939     23.29426    21.361684    21.684599    10790.357    8715.8342     6781.755    7135.5924    609.29263   -240.60294    616.61148   -4543.0529 
26522000    254.08876   -6345.2255   -5691.5976   -6345.2255            0    7012.2715    23.240225    21.356488    21.763726    10801.981    8565.0575    6998.6217    5473.1353    524.84045   -669.48399   -983.90124   -4586.9137 
26523000    257.21547   -6367.4405   -5705.7693   -6367.4405            0    7655.0485    23.303833    21.347491     21.58492    10738.031     7377.609    7758.5239    7829.0127   -129.08051   -655.47897   -703.93276   -4506.9645 
26524000    268.04552   -6316.3867   -5626.8559   -6316.3867            0    7570.6121     23.23991    21.458003    21.642867    10792.909    8830.3113     7106.555    6774.9701      -762.79    1040.1992    215.15424    -4435.215 
26525000    271.78595   -6357.4243   -5658.2715   -6357.4243            0    7333.5382    23.444201    21.252041    21.698475    10810.986    8917.4115    5454.4221    7628.7809   -433.17565   -1194.6407    -121.0474   -4502.0135 
26526000    255.34121   -6312.7374   -5655.8877   -6312.7374            0    7147.5037    23.301387    21.571638     21.53171    10822.894    7594.6782    5444.5474    8403.2855    480.67342   -1045.4857     -660.487     -4527.72 
26527000    250.67611   -6332.4974   -5687.6484   -6332.4974            0    6222.5024    23.434779     21.44713    21.622567    10867.691    5955.7705    6192.3303    6519.4065    201.33624   -1421.1507    90.580758   -4701.4183 
26528000    236.71797   -6339.1617   -5730.2191   -6339.1617            0    6707.1949    23.299104    21.466632    21.629329     10817.98    7108.9488    6218.8528    6793.7829    -462.3288    350.39623   -469.86709   -4672.0307 
26529000    240.74555   -6345.0924   -5725.7891   -6345.0924            0    5951.0701    23.344181    21.427161    21.752204    10880.442    4670.4266    7102.9513    6079.8323    747.94879    1337.1335      263.556   -4781.4728 
26530000    252.78483   -6306.0655   -5655.7919   -6306.0655            0    6427.2414     23.45606     21.40522    21.593591    10841.757    6808.7015    5585.4477    6887.5749   -275.57933   -877.64642    311.80464   -4639.5428 
26531000     249.5235   -6307.5177   -5665.6337   -6307.5177            0    6061.5891    23.371847    21.484893    21.654869    10873.811    5469.0549    6295.8503     6419.862    293.00284   -1055.0105   -1283.7223   -4704.3664 
26532000     244.0033   -6304.6023   -5676.9187   -6304.6023            0    5863.1456    23.276961    21.490652     21.70371        10857    6035.1729    5605.3207    5948.9433    152.88464    885.83933     634.3511   -4748.5587 
26533000    250.36196   -6340.2317   -5696.1908   -6340.2317            0    6763.5597    23.508581    21.287875    21.616112    10817.734    6635.0874    7491.9188     6163.673   -1315.3615    346.88349    665.44376    -4629.134 
26534000    244.09126    -6343.457   -5715.5471    -6343.457            0    6832.3267    23.182384    21.631227    21.498296    10780.609    7911.5407    4894.4653     7690.974   -655.18959    654.89802    576.28274   -4641.3405 
26535000    251.27976   -6373.0617   -5726.6598   -6373.0617            0    7507.6272    23.369069    21.449302    21.502341    10778.053    6524.5369    7295.6756    8702.6691    170.57953    454.80892    -803.3908   -4546.5595 
26536000    250.77138   -6368.8522   -5723.7581   -6368.8522            0    6205.5638    23.386283    21.382237    21.618417    10810.312    6073.9948    7187.9418    5354.7549   -1063.1495    -266.1687   -377.62561   -4745.4056 
26537000    240.07249   -6313.0168    -5695.445   -6313.0168            0    7224.5031     23.10851     21.42668    21.862446    10824.942    7707.5846    6930.2669    7035.6578   -14.056808    292.40339    1311.9918   -4554.9078 
26538000    256.78235   -6355.2122   -5694.6553   -6355.2122            0    7361.7566    23.277482    21.254573    21.785307    10778.345    8475.4734    6357.0426    7252.7537    212.69815    -809.0032    1239.6102   -4537.4527 
26539000    241.92135   -6319.9141   -5697.5862   -6319.9141            0    7334.8742    23.256193    21.458066    21.635134    10796.644    8337.7895    6260.6537    7406.1794   -361.48177    905.73456    399.24339   -4542.6517 
26540000    246.22825   -6337.0821   -5703.6749   -6337.0821            0    9648.5473    23.387822     21.32455    21.444104    10694.921    9119.1973    9792.9657    10033.479   -473.72461    369.12023   -737.31492   -4198.7481 
26541000    243.21693   -6338.6468   -5712.9861   -6338.6468            0    7622.0027    23.332385    21.317762    21.651239    10769.201    7432.7647    7802.4884    7630.7551    381.22857   -14.119179    403.29819   -4515.8915 
26542000    247.96179   -6337.3708   -5699.5042   -6337.3708            0    7942.0605    23.112029    21.374462    21.809307    10773.955    7935.7758    8700.0196     7190.386   -189.74302    1647.8327    20.492621   -4451.5914 
26543000    252.51129   -6333.9223   -5684.3524   -6333.9223            0    6590.2018    23.437681    21.291274    21.653909    10805.692    6442.9272    6991.2831    6336.3952    301.10446   -368.30919    359.60333   -4645.8029 
26544000    249.69191   -6331.3388   -5689.0215   -6331.3388            0     8426.987    23.159185    21.555361    21.555774    10760.742    8720.8356    7775.3961    8784.7295   -1159.6898    13.466358    7.3682631   -4366.5376 
26545000    233.05981    -6360.922   -5761.3898    -6360.922            0    7021.8533    23.329545    21.353214     21.59633    10758.444    7096.0739    7625.8576    6343.6285   -697.21908    133.23206    591.62568   -4659.6549 
26546000    247.58908   -6316.2836   -5679.3757   -6316.2836            0    6997.7816    23.279667    21.376333    21.649331    10773.442    8136.7949    7023.3852    5833.1646   -681.31432   -237.12862    605.43634   -4579.8871 
26547000    241.03378   -6336.7853   -5716.7406   -6336.7853            0     7577.117    23.230842    21.459582    21.559704    10748.033    7863.7148    6919.0829    7948.5532    821.23685   -101.88617     286.5676   -4529.0348 
26548000    255.18662   -6329.2829   -5672.8309   -6329.2829            0    7991.9998    23.349817    21.244808     21.70877    10768.904    8285.6947    8283.1656    7407.1389    9.2167312   -77.785508    1130.7631     -4417.66 
26549000     258.4824    -6336.559   -5671.6287    -6336.559            0    6386.2601    23.281289    21.560862    21.555398    10820.048    7757.8723    6452.2114    4948.6967   -1034.9559   -31.514699   -980.10046   -4663.8813 
26550000    251.42166   -6341.2474   -5694.4805   -6341.2474            0    8130.3896    23.480057    21.306594    21.564718    10788.398     7785.912    8787.7373    7817.5195   -609.14097   -646.03407   -149.63061   -4415.2635 
26551000     251.4593   -6312.0106   -5665.1469   -6312.0106            0    7762.5087      23.2288    21.342903    21.755754    10785.851    7934.9747    8408.5261    6944.0255    374.25225    1236.3574    1842.0549   -4444.0999 
26552000    244.32651   -6352.2073   -5723.6923   -6352.2073            0    6567.2815    23.240167    21.308528    21.787329    10789.385    7113.0217    7058.3496    5530.4733    22.812258   -88.043432   -368.38574   -4690.3167 
26553000    238.00346   -6326.8426   -5714.5932   -6326.8426            0    8968.7085    23.308438    21.510298    21.419505    10739.128    7750.4924    8871.3599    10284.273    900.69384   -23.877263   -968.08717   -4309.9215 
26554000    246.16585   -6311.0507   -5677.8041   -6311.0507            0     6895.188    23.404714    21.414406    21.571488    10811.588     5348.684    8130.2985    7206.5817    134.87157     396.8486   -984.99731    -4590.599 
26555000    263.45445   -6372.5841   -5694.8636   -6372.5841            0    6727.0648    23.242202    21.424394    21.711204    10811.096    7799.9021    6450.2225    5931.0699   -771.48293    687.85765    738.19065   -4634.2157 
26556000    244.06168   -6290.1183   -5662.2845   -6290.1183            0    7128.2339    23.265391    21.500711    21.643574    10826.602     6382.836     6606.917    8394.9488     -504.101    1779.1964    1506.8872   -4536.7729 
26557000    250.46815   -6338.7398   -5694.4258   -6338.7398            0    7969.7839    23.383464    21.296865    21.680419    10796.729    7356.7856    7886.4818    8666.0843   -826.95499    1.7608616    82.425061   -4439.5099 
26558000    249.58776   -6336.1741   -5694.1248   -6336.1741            0    8853.7188    23.267033      21.5482    21.467977    10763.242    8062.6768    9125.9323    9372.5473   -366.71481    909.39145   -411.52761   -4304.3491 
26559000    244.88658   -6315.4907   -5685.5349   -6315.4907            0    8801.8827    23.301574    21.331885    21.586157    10729.755     7619.951    10002.194    8783.5031    690.53344   -392.71017   -607.41319   -4308.1945 
26560000    233.18837   -6329.7242   -5729.8613   -6329.7242            0     7915.865     23.25416    21.291699    21.698671    10743.459    7896.6259    8962.8004    6888.1688    1623.6456    56.382688   -450.11857   -4489.5851 
26561000    249.68835   -6337.4789   -5695.1708   -6337.4789            0    6679.4148    23.304004    21.380969    21.657035    10790.881     6332.592    7479.0745     6226.578    1043.2038   -354.32853    157.63514    -4644.005 
26562000    254.42451   -6337.5694   -5683.0778   -6337.5694            0    7086.4087    23.263696    21.468714    21.652077    10813.949    6667.9906    6997.5466    7593.6888   -1204.4675    157.33069    175.52979   -4565.4778 
26563000    261.97433   -6322.0411   -5648.1281   -6322.0411            0    7973.4426    23.189532    21.513302    21.588664    10770.227    8266.2843    7694.6956    7959.3479   -927.19055   -422.92905    670.50849   -4395.7179 
26564000    255.36233   -6364.4296   -5707.5256   -6364.4296            0    8626.9277    23.242117    21.339811    21.638257    10732.194     9330.128    7709.1141    8841.5411   -121.88601   -975.41694    1333.8604   -4357.2558 
26565000    241.97947   -6362.2542   -5739.7767   -6362.2542            0    7778.6684    23.190232    21.468289    21.550607    10729.069    7483.3272    7422.1786    8430.4995   -1149.8616     1949.916    863.43843   -4522.6293 
26566000    253.54167   -6315.7533   -5663.5328   -6315.7533            0     8142.591    23.342263    21.402548    21.634448    10808.221    7686.6895    7816.9976    8924.0858   -38.973843    122.90928   -99.432579   -4380.0421 
26567000    234.68635   -6338.2383   -5734.5219   -6338.2383            0    7843.7987    23.408905     21.33022    21.559689    10765.121    9060.1122    7672.6461     6798.638    355.43232   -516.02049   -952.08631   -4503.0592 
26568000     243.8471   -6348.3611   -5721.0793   -6348.3611            0    7904.8735    23.160409    21.512733    21.573762    10748.991    8283.9294    7592.0897    7838.6014    450.64676    843.29859   -1173.9667   -4481.8876 
26569000    238.30298   -6360.5497   -5747.5298   -6360.5497            0    7810.8776    23.186573    21.337376    21.749968    10760.593    7422.8738    9215.3984    6794.3606    175.89774     301.0874    13.969807   -4521.7516 
26570000    242.40845   -6322.7053   -5699.1243   -6322.7053            0    8139.1064    23.299933    21.343211    21.624737    10753.882     8492.297    8137.7409    7787.2814   -497.40474    21.062532    456.44901    -4422.633 
26571000    252.36614   -6345.3088   -5696.1122   -6345.3088            0    6282.3343    23.193984    21.583285    21.612594    10819.316    7531.2323    5338.9656    5976.8049   -1498.3552    127.00229    904.09889   -4704.8314 
26572000    267.31718   -6323.5292   -5635.8721   -6323.5292            0    6780.6022     23.32033    21.466537     21.64001    10833.135    6474.2282    6954.2769    6913.3014   0.14476907    375.27432   -1167.5352   -4564.6037 
26573000    244.00704   -6351.2555   -5723.5622   -6351.2555            0     7838.107    23.294771    21.255491    21.796326    10792.272    6542.6845    8245.9215     8725.715     1082.156    927.97493     361.5703   -4489.8895 
26574000     245.2624   -6330.0607   -5699.1382   -6330.0607            0    8715.1271    23.203501    21.493002     21.52899    10736.785    7449.2517    9138.9064    9557.2232    307.17419    1381.6381   -777.35282     -4334.48 
26575000    242.20027   -6312.7468   -5689.7013   -6312.7468            0    8885.2262    23.466484    21.255043    21.489063    10718.339    7893.5661    10748.535    8013.5773   -1000.0303   -356.19565   -1553.2892   -4300.7985 
26576000    250.77843   -6337.2694   -5692.1572   -6337.2694            0    8454.3016    23.154261    21.413161     21.66553    10741.898    9438.3076     8909.201    7015.3961   -926.69207    566.33869   -931.48448     -4367.71 
26577000    248.28844   -6356.0426   -5717.3357   -6356.0426            0    6884.4298    23.084083    21.454036    21.842504    10817.429    9409.6173    7355.8605    3887.8114   -2387.0202   -1061.7838   -115.25083   -4631.2405 
26578000    257.15837   -6315.2982    -5653.774   -6315.2982            0    7849.0242    23.309829    21.427913    21.617126    10797.343    7124.3608    6731.1142    9691.5976   -1318.6005    264.18668      678.824   -4417.8025 
26579000     251.4775   -6372.4459   -5725.5354   -6372.4459            0    8277.3019    23.297598    21.354677    21.541701     10717.27    7464.0424    8606.1472    8761.7159    156.83561    340.63743    252.61552   -4431.7899 
26580000    262.66868   -6335.2568   -5659.5576   -6335.2568            0    6819.8064    23.151459    21.439006    21.778148    10809.459    7409.5324     6027.739    7022.1477    739.27879   -129.35091    645.07083   -4584.4501 
26581000    237.08255   -6325.6062   -5715.7258   -6325.6062            0    6643.3587    23.392657     21.24627     21.80718    10838.315     6151.195    7985.7177    5793.1634   -753.83867    960.43803   -423.51838   -4665.6386 
26582000     250.9634   -6361.0804   -5715.4923   -6361.0804            0    7292.4976    23.283383    21.431166    21.615886    10786.112    7017.4316    7591.3529    7268.7083   -235.81898    447.84902    210.47184   -4568.3505 
26583000    248.05207   -6341.2381   -5703.1393   -6341.2381            0    6223.2937    23.377535    21.455428    21.519024    10793.405    3788.9565    6921.9871    7958.9375    516.26283    1476.3601   -15.380468    -4723.526 
26584000    256.36812   -6295.4921   -5636.0007   -6295.4921            0    7561.5585    23.153698    21.429437    21.772675    10802.963     9165.651     7446.267    6072.7576   -887.15203    487.36162    258.12304   -4444.6761 
26585000    255.13018   -6362.6156   -5706.3088   -6362.6156            0    8628.0322    23.238412    21.283826    21.701352    10733.539    9307.4197    8032.0317    8544.6453   -108.41265   -326.93027     628.1254   -4355.6968 
26586000    246.67543   -6346.3341   -5711.7766   -6346.3341            0    7182.1691    23.362035    21.410007    21.515978     10761.89     7191.615    6715.5026    7639.3896   -622.31433    438.22343    -12.73416    -4584.527 
26587000    242.50649    -6351.383   -5727.5498    -6351.383            0    8200.0206    23.249036    21.470499    21.491913    10728.084    8276.4478    6303.0966    10020.518   -652.15788    215.26582    156.74915   -4444.5901 
26588000    246.36698   -6322.4662   -5688.7021   -6322.4662            0    8390.1874    23.102092    21.367466    21.829596    10775.812    9512.6277    8435.0037    7222.9308     79.72913   -161.46197   -844.84771   -4370.1492 
26589000    246.29706   -6375.0236   -5741.4394   -6375.0236            0    7724.6404    23.248513    21.366914     21.59979    10729.674    8631.1354    7617.2685    6925.5175   -237.34695   -621.97725   -448.18045   -4532.6778 
26590000    250.69905   -6354.0036   -5709.0956   -6354.0036            0    8683.3472     23.27061     21.42384     21.40935    10673.542    8679.4355    7949.6399    9420.9661     -58.0269    439.35222    614.50558   -4357.4226 
26591000    242.55783    -6343.256   -5719.2907    -6343.256            0    8837.0174    23.311634    21.108036    21.712023    10683.679    7604.6784    9173.3226     9733.051    207.94902    1071.7177    77.900057   -4342.3906 
26592000    246.65498     -6327.15   -5692.6451     -6327.15            0     8985.323    23.249829    21.317371    21.672971    10741.671    8948.5009    9387.3025    8620.1654   -1125.2536    1915.2461    421.32798    -4285.038 
26593000    257.05592   -6360.6025   -5699.3418   -6360.6025            0    5856.1534    23.259318    21.493184    21.665906    10831.151     6694.425    5133.5118    5740.5235   -901.31193   -57.351674   -394.46157   -4774.2967 
26594000    249.40876   -6337.2121   -5695.6232   -6337.2121            0    6849.1103    23.304138    21.484996    21.575624    10802.684    7031.2125     6404.809    7111.3094   -1820.6895    -513.7083    579.23632   -4616.5728 
26595000    241.15621   -6351.4178   -5731.0581   -6351.4178            0    9084.1331    23.160773     21.29499     21.69011    10697.745    9101.3625    9301.5815    8849.4551   -76.994172    415.55066    193.49267   -4313.7913 
26596000     257.9927   -6324.6297   -5660.9593   -6324.6297            0    8164.5545     23.20305    21.373936    21.715349    10769.521    8990.7119    7683.7622    7819.1895    178.78949    640.80789   -239.27103   -4378.6146 
26597000    247.74823   -6346.8756   -5709.5583   -6346.8756            0     7276.106    23.343651    21.268763     21.72307    10785.299    7663.5294    6429.7972    7734.9915    532.39317   -334.56727   -132.37085   -4565.0812 
26598000    235.92733   -6351.5467    -5744.638   -6351.5467            0    7140.3629    23.311525    21.418273      21.5992    10784.321    7552.6398    8469.3629     5399.086   -197.04002    1044.2115   -1117.2792   -4621.6142 
26599000    246.15533   -6330.0507   -5696.8311   -6330.0507            0    7983.4821    23.409311    21.268662    21.672971    10790.641    7276.8525    8742.9659    7930.6279    -272.7029    832.44451    750.82506   -4440.4672 
26600000    250.52272   -6368.4306   -5723.9762   -6368.4306            0    7293.4534     23.17872    21.627615    21.508006    10781.973    6778.9991    6496.2474    8605.1138    830.11762   -9.1918733    437.25594   -4577.1243 
26601000    242.02299   -6351.4402   -5728.8507   -6351.4402            0    7300.9131    23.230527    21.261627    21.826414    10780.476    8259.7371    7706.3111    5936.6912   -325.55577    343.09014   -730.08893   -4580.9852 
26602000    258.20338   -6357.8109   -5693.5985   -6357.8109            0    8945.7982    23.223972    21.289726    21.701666    10729.998    9280.1739    10171.323     7385.898   -408.42206    1160.5491   -80.290993   -4293.7062 
26603000    250.48822   -6310.8626   -5666.4969   -6310.8626            0    7765.7944    23.177898    21.536157    21.557449    10760.678    8794.8775    6742.4944    7760.0112   -1195.2702   -699.75995   -719.68758    -4447.784 
26604000    252.15332   -6341.5673   -5692.9182   -6341.5673            0    7845.8996    23.556758    21.274681    21.509524    10779.767    6376.6664    9227.1735    7933.8588    39.488504   -245.54338    434.58737   -4459.4498 
26605000    250.88748   -6327.1872   -5681.7945   -6327.1872            0    6456.2988    23.093176    21.439095    21.907098    10846.134    7256.5684    7502.7172    4609.6107   -926.66419    370.69538     97.88581   -4660.5388 
26606000    262.97409   -6401.4182   -5724.9333   -6401.4182            0    7299.5828    23.253101    21.362714     21.73028    10794.502    7098.0803    7141.4794    7659.1885    355.36044   -32.947897    579.94726   -4575.7838 
26607000    245.35027   -6342.7747    -5711.626   -6342.7747            0      7669.51    23.407466    21.341524    21.582782    10781.701    8266.9724    7961.0425    6780.5152    439.50042   -867.20496   -85.379299   -4505.6719 
26608000    243.18718   -6335.5706   -5709.9864   -6335.5706            0    6940.7125      23.1751    21.571591    21.691097    10843.895    6904.9028    6919.6943    6997.5403    2302.6426    701.11198   -727.22629   -4612.3329 
26609000    236.63946   -6327.5339   -5718.7933   -6327.5339            0    6185.9978     23.47712    21.213961    21.770928    10842.852    6664.0909    5607.4119    6286.4904     653.3476      -269.49    171.97605   -4740.5899 
26610000    237.59444    -6320.405   -5709.2077    -6320.405            0    6491.1026     23.33936    21.403863    21.642221    10811.425    5821.6729    6329.5249    7322.1101    735.82293    1311.6743    977.09892   -4685.7326 
26611000    252.71569   -6338.5756   -5688.4798   -6338.5756            0    7508.7468    23.202442    21.447086    21.714454     10805.65    6419.4617    8272.9199    7833.8589    828.44111   -453.63484    824.64437   -4505.1815 
26612000    252.78231   -6343.5717   -5693.3046   -6343.5717            0    6476.9328    23.536219    21.297251    21.554946    10804.563    5215.7603    6127.3836    8087.6544   -1073.3038   -1299.8143    201.55175   -4672.7119 
26613000     242.4139   -6322.7761   -5699.1811   -6322.7761            0     6802.107    23.181584    21.695856    21.491889    10809.224    8232.3535    6091.5894    6082.3779   -1079.9644    -923.9863   -46.469267   -4626.8872 
26614000    251.69687   -6335.4029   -5687.9281   -6335.4029            0    7978.6145    23.164253    21.412016     21.69029     10758.24    8197.5987    7003.3208    8734.9239   -1594.9071    278.75082   -215.06611   -4436.1003 
26615000    249.88064   -6326.9839   -5684.1812   -6326.9839            0    8425.6865    23.380474    21.302439    21.617248    10766.711    7389.6966     9903.421     7983.942    688.75807    345.01655   -395.47364   -4361.1678 
26616000    234.42463   -6335.3561    -5732.313   -6335.3561            0    9085.4113    23.080613    21.578516    21.458525    10687.319    8953.4585    8875.4187    9427.3568   -50.964994    1127.2551   -839.09192   -4316.2282 
26617000    233.34826   -6370.4001   -5770.1259   -6370.4001            0    7500.2951    23.595629    21.155249    21.574372     10769.31    6534.9476    7610.6722    8355.2653    474.29912   -737.45755    461.14216   -4592.1345 
26618000    245.96346   -6363.2938   -5730.5677   -6363.2938            0     7403.751    23.153047    21.467124    21.668275    10769.768    7735.9679    7670.3501    6804.9351   -935.64385    643.55599    -780.0702     -4567.69 
26619000    245.01222   -6340.6469   -5710.3679   -6340.6469            0    7439.7905    23.155232    21.497769    21.628365    10766.293    7764.8153    6508.6198    8045.9364    44.388048    357.09877    90.418172   -4542.2066 
26620000    251.14682   -6345.8949    -5699.835   -6345.8949            0    7271.7815    23.463965    21.270829    21.638115     10799.54    7186.7431    6215.5415    8413.0599   -1286.0287    239.95666    542.77832   -4554.5279 
26621000     248.7074   -6342.3954   -5702.6108   -6342.3954            0    7783.8196    23.197594    21.586612    21.445941    10739.215    7436.6011    7293.2898    8621.5678   -816.50133     1151.385    811.02287   -4483.5056 
26622000    254.51076   -6313.7564   -5659.0429   -6313.7564            0    7266.4783    23.244888    21.432372    21.685538    10803.585    7099.1946      6848.68    7851.5603   -31.482165    164.66996   -191.96026   -4514.1424 
26623000    251.34219   -6358.5068   -5711.9444   -6358.5068            0    6128.7759    23.358128    21.306862    21.729238     10814.39    6512.8273     6081.727    5791.7733   -959.42152   -197.50109   -120.28782   -4745.3335 
26624000    246.88176   -6315.7648   -5680.6766   -6315.7648            0    8435.1255    23.173736    21.580948    21.520018    10762.402    8611.6054    8448.9053    8244.8658   -109.45604    841.09462    97.491315   -4356.7112 
26625000    254.23168    -6315.052   -5661.0565    -6315.052            0    8527.0895    23.524453    21.254276    21.515165    10757.479    7034.0832    8747.7137    9799.4716   -803.74099     1643.812   -923.27474   -4323.2687 
26626000    239.07828    -6317.908   -5702.8937    -6317.908            0    9497.2219    23.192509    21.390042    21.584849        10708    9347.2162     10363.64    8780.8094   -101.61975    1175.6926   -844.52005   -4219.7581 
26627000    255.91791   -6350.0577   -5691.7245   -6350.0577            0    8120.3207    23.053696    21.443264    21.728619    10741.467    9386.7013    7737.2022    7237.0585    950.78618   -468.06949   -604.99075   -4419.6496 
26628000    239.76517   -6317.0572   -5700.2759   -6317.0572            0    7725.2595    23.439178    21.217705    21.618378    10751.372    6226.4232    9128.5988    7820.7564    542.98001    840.84226    365.92714   -4488.9727 
26629000    268.25949   -6357.0118   -5666.9306   -6357.0118            0    7016.0381      23.3138    21.495572    21.559864    10804.585    6995.1068    6496.3323    7556.6753    -487.7966    393.44619    76.429362   -4561.3869 
26630000    230.27592   -6347.2336   -5754.8629   -6347.2336            0    7581.8437     23.27463    21.594529    21.461904    10786.853    6777.8292    7047.9514    8919.7505    88.006219    -362.4449   -43.033266   -4562.1237 
26631000     248.2683    -6375.592   -5736.9369    -6375.592            0    7583.0677    23.150833    21.310919    21.808626    10759.625      8738.52    7025.2597    6985.4233    272.92313   -95.642117    1151.6905   -4547.0164 
26632000    238.95829    -6284.474   -5669.7684    -6284.474            0    6190.4523    23.412351    21.350937    21.793102     10893.84    6354.3005    5651.0786    6565.9777   -321.34316    1797.6572    773.29444   -4686.2572 
26633000    245.06668   -6320.5093   -5690.0902   -6320.5093            0    7228.3905    23.346636    21.439143    21.669783    10846.417    5880.1888    8466.2822    7338.7004    536.35644   -218.99325   -599.01765   -4546.6755 
26634000    229.07352    -6323.157   -5733.8793    -6323.157            0    6910.1231    23.383951    21.449189    21.574314    10820.959    7197.4762    6982.7605    6550.1327   -175.19357    510.22329   -1068.4713   -4643.3749 
26635000    246.83327   -6370.9237   -5735.9601   -6370.9237            0    6602.5738    23.193697    21.514116    21.633265    10794.824    5371.8209    7179.0301    7256.8703    1640.3189    906.93799   -668.12333   -4696.5074 
26636000    255.30996   -6328.6936   -5671.9242   -6328.6936            0    8010.7401    23.258299     21.36908    21.669634    10769.991    7462.9509    7800.8319    8768.4375     874.5514    -70.59264    978.99692   -4413.6831 
26637000    238.70571   -6328.0559        -5714   -6328.0559            0    7819.8149    23.390312    21.307117    21.643297    10786.589    6876.3735    8996.4716    7586.5996    334.89441   -510.14807    361.24023   -4483.8545 
26638000    234.19744   -6334.3849   -5731.9262   -6334.3849            0    5919.6694    23.111462    21.730138    21.598996    10847.346    5990.3353     5349.002    6419.6709     228.7911   -844.79419    56.648931   -4795.4499 
26639000    248.06417   -6351.0578   -5712.9279   -6351.0578            0    8664.6664    23.437818    21.237005    21.568854    10735.877    8091.9855    9616.6066    8285.4071     977.5777   -744.45355   -33.528613   -4356.2859 
26640000    255.78189   -6360.3587   -5702.3754   -6360.3587            0    6710.9329    23.082083    21.547455    21.740388    10812.802     7761.258    6581.2463    5790.2944    609.56992   -1505.2692   -731.54494    -4644.104 
26641000    246.30308   -6354.9874   -5721.3878   -6354.9874            0    6398.0658    23.244571     21.42831    21.761499    10839.226    7332.8749    6440.2744    5421.0481    1280.4977   -299.65776   -651.95345    -4709.988 
26642000    252.41193   -6341.5872   -5692.2729   -6341.5872            0    8308.2797    23.563669    21.170345    21.546553     10748.52    6713.0952    10271.751    7939.9932   -182.21946    -191.9127   -1331.3588   -4389.8991 
26643000     248.6688   -6332.4666   -5692.7813   -6332.4666            0     8347.102    23.150241    21.484653    21.615166    10750.841    8482.6591    9254.1427    7304.5043    346.16232    344.95009   -1321.4878   -4384.0393 
26644000    242.88759   -6326.2879   -5701.4744   -6326.2879            0    8444.2619    23.555672    21.150834    21.579449    10751.358    8003.4113     9204.102    8125.2724    371.41467   -138.63914   -163.06026    -4377.435 
26645000    257.72366   -6320.9041   -5657.9257   -6320.9041            0    7765.6101    23.214698    21.608558    21.478542    10774.413    8328.6179    6853.0934     8115.119   -419.31806   -537.83088   -674.90671   -4437.6861 
26646000    243.61919   -6345.4559   -5718.7604   -6345.4559            0    6481.8349    23.371792    21.377769    21.645661    10814.969    7483.3138    4949.8384    7012.3524   -1773.1365    585.96833    858.67162   -4696.4116 
26647000    249.72458   -6371.6666   -5729.2654   -6371.6666            0    7573.3951    23.343809    21.226819    21.761158    10782.976    6759.5313    7952.6043    8008.0495    574.40058     1043.045   -25.526548   -4538.2835 
26648000    235.64467   -6336.1323   -5729.9507   -6336.1323            0    7487.3682    23.257934    21.525526    21.549495    10788.523    5499.2907    8308.3518    8654.4621     1669.392    148.29371   -129.82866   -4551.8916 
26649000    253.30343   -6321.7333   -5670.1256   -6321.7333            0    7046.6957    23.537754    21.351226    21.557077    10833.723    6819.3866     6917.131    7403.5696   -735.28958   -788.34115    -1119.869   -4556.7567 
26650000    241.33341   -6339.2225    -5718.407   -6339.2225            0    7312.1132    23.344635    21.459353    21.576265    10808.862    7461.4536    6312.0016    8162.8843    532.43338   -197.90245   -513.61163   -4565.7535 
26651000      256.237   -6329.3869   -5670.2328   -6329.3869            0    8362.9993    23.246762    21.439626    21.584877    10757.944    8584.7945    8192.9452    8311.2581    67.260847   -512.50788   -8.4914563    -4358.132 
26652000    249.84636   -6368.8432   -5726.1287   -6368.8432            0    7788.3366    23.279175    21.133822    21.879578     10764.27    6345.0036    8757.8613    8262.1448    766.27973    37.504653    1811.7951   -4503.4701 
26653000    250.17919   -6314.7151   -5671.1444   -6314.7151            0     6878.489    23.235287    21.524755    21.637577    10821.685    7024.6786    7259.3079    6351.4805    319.46063   -483.57156   -677.50534   -4585.5594 
26654000    254.76485     -6358.29    -5702.923     -6358.29            0    8098.6977    23.284461    21.418451     21.60726     10775.91     7991.304    9216.1118    7088.6772   -486.21543    295.38033    -385.2451   -4430.1673 
26655000    233.01243   -6329.6997   -5730.2894   -6329.6997            0    7922.8024    23.416742    21.370612    21.510892    10764.698    7234.7333    8276.3459    8257.3281   -596.36187    326.35974   -804.45873   -4486.4721 
26656000    242.42745   -6378.4349    -5754.805   -6378.4349            0    7041.9094    23.261878    21.398981    21.593765    10748.955    6260.5838    6994.0053    7871.1391    105.47936    1222.0022   -131.73205   -4650.8978 
26657000    253.08513   -6377.0914   -5726.0453   -6377.0914            0    7203.7818    23.322747    21.329056    21.716777    10803.058    6943.1971    7408.4844     7259.664   -1180.2381    314.94115    612.68526   -4591.0785 
26658000    244.92842   -6347.7132   -5717.6498   -6347.7132            0    7523.0595     23.15078    21.437911    21.772343    10805.709    8739.4861    7570.8568    6258.8356     -773.252   -616.04631    -1336.045   -4532.0895 
26659000    252.77059   -6346.4681   -5696.2312   -6346.4681            0    7433.9423    23.205108    21.366726    21.685687    10752.136    7261.1993    7508.5366    7532.0911   -546.42858    763.29801   -951.95476    -4530.523 
26660000    247.13851    -6340.267   -5704.5182    -6340.267            0    6832.9826    23.346035    21.409408    21.542834    10767.643     6238.606    6850.2127    7410.1292    302.98131    288.67034    701.09931   -4631.5006 
26661000    242.15319   -6352.5395   -5729.6152   -6352.5395            0    8371.1358    23.123343    21.425401    21.671997    10736.891    8650.0142     8813.858    7649.5353   -2089.1038    1251.9465   -405.88823    -4418.808 
26662000     247.6942    -6337.733   -5700.5548    -6337.733            0    7680.9278    23.257952     21.27743     21.78843    10782.428     7551.258    8181.0189    7310.5064    272.82651    -1178.454   -254.74616   -4492.7239 
26663000    249.19854   -6339.4928   -5698.4447   -6339.4928            0    7842.7132    23.116841    21.399592    21.765641    10767.266     9229.213    7446.0859    6852.8405   -1593.1962    1221.9804   -890.76865   -4466.9072 
26664000     244.8802   -6354.7815   -5724.8421   -6354.7815            0    7454.6268    23.384141     21.32455    21.616012     10778.96    7561.7376    7965.0085    6837.1344    288.32714   -400.63645    53.685461   -4552.9742 
26665000    248.76163   -6342.1365   -5702.2124   -6342.1365            0    6751.3361    23.366488    21.529867    21.480696    10806.452    6527.0683    5879.4471     7847.493    88.491138    586.66123    169.62046   -4638.1949 
26666000    252.71873   -6319.7412   -5669.6377   -6319.7412            0    7583.5719    23.236688    21.506705    21.618997    10803.977    8134.1829    7506.9693    7109.5633   -776.29752    892.24763   -1205.4228   -4474.7328 
26667000    250.01372    -6361.234    -5718.089    -6361.234            0     7057.457    23.444094    21.306498    21.612342    10795.614    5988.0387    8043.1382    7141.1942   -385.74876    148.79586    565.04604    -4606.942 
26668000    245.31052   -6309.9183   -5678.8719   -6309.9183            0    7327.0196    23.131099    21.612944    21.678859    10837.936    6940.1498    7142.3375    7898.5716   -598.18416     616.8096   -60.684681   -4520.7618 
26669000    266.27093   -6344.0366   -5659.0708   -6344.0366            0    5757.5306    23.370126    21.357375    21.832245     10897.01    6465.3023    5355.4725    5451.8171   -1182.4411   -395.28448   -428.36254   -4744.0742 
26670000    246.64366   -6346.4161   -5711.9403   -6346.4161            0    7219.5855    23.288978    21.341586    21.659283    10765.177    7788.7445    6586.6468    7283.3654    1297.0732    405.90469    755.08037   -4578.4721 
26671000    245.25481   -6332.4605   -5701.5574   -6332.4605            0    8040.4242    23.257311    21.467088    21.568311    10768.341    8339.9564    7454.4697    8326.8465    1616.7909   -344.81397    151.42541   -4438.8474 
26672000    253.41908   -6349.6351     -5697.73   -6349.6351            0    8146.9123    23.534711    21.252389    21.505044    10756.153    6523.6515    9086.9952    8830.0903    591.48628    818.05217   -1254.3249   -4419.7446 
26673000    249.04059   -6357.1891   -5716.5473   -6357.1891            0     8462.693    23.261921    21.480048    21.408077    10696.914     8018.548    8431.1799    8938.3511    1210.2571    843.13576    230.74426   -4396.3375 
26674000    246.33175   -6353.7223   -5720.0488   -6353.7223            0    7986.4193    23.256724    21.376217    21.601102    10738.789    7922.9727    8281.3353    7754.9498   -1053.2914   -583.92256   -221.02191    -4469.262 
26675000    248.34573   -6333.5735   -5694.7192   -6333.5735            0    7165.5887    23.251264    21.502781    21.595382    10796.975    7715.3092     6877.641    6903.8159    -944.7013    340.25486    633.40871   -4566.4056 
26676000    241.67664   -6345.0128   -5723.3144   -6345.0128            0    9187.5665    23.236025     21.41779    21.539022    10719.202    10532.031      9562.47    7468.1981   -396.78738   -732.24177   -294.25302   -4287.0352 
26677000    254.36524   -6327.5168   -5673.1778   -6327.5168            0    7131.8952    23.156593    21.603954    21.652846    10832.356    7739.5864    6296.7323    7359.3668    -89.28039     329.1297    -386.7682   -4546.4895 
26678000    248.82491   -6332.1686   -5692.0817   -6332.1686            0    7004.9604    23.397677    21.401822    21.606143    10819.339     6294.118    7016.9796    7703.7836    235.75949   -256.13491    373.96254   -4586.7763 
26679000    241.11452   -6331.6187   -5711.3663   -6331.6187            0    5546.4986    23.395544    21.509707    21.640909    10890.383    4990.4339    5086.8201    6562.2418    152.29509   -579.85441    696.49874   -4830.4433 
26680000    253.28113   -6355.1704   -5703.6201   -6355.1704            0    4974.4768    23.343035    21.497447    21.738373    10908.656    4440.1404    5707.1624    4776.1275    145.36472   -325.78225    -620.0207   -4912.2229 
26681000    245.61341   -6342.6047   -5710.7792   -6342.6047            0    7014.2365    23.285408    21.385295    21.729593    10820.584    7863.6246    6408.1289    6770.9559    -915.6191    833.60894    434.72201   -4603.8827 
26682000     240.5489   -6297.1145   -5678.3172   -6297.1145            0    8720.1043    23.173251    21.508091    21.616207    10773.786    10597.287    7785.0167     7778.009    171.96314   -208.64056    748.23533   -4308.1742 
26683000    244.94144   -6352.0591   -5721.9622   -6352.0591            0    8533.6754     23.34035    21.310902     21.54427    10716.204    8201.3419    9187.4287    8212.2557   -1481.1591    367.88929   -128.74472   -4388.2781 
26684000    249.03871   -6351.8997   -5711.2628   -6351.8997            0    9347.4556    23.151303    21.374013    21.645085    10710.773    9559.3922    9307.4838    9175.4907    901.43577   -1349.0051    767.94145   -4251.1375 
26685000    247.41623   -6311.2401   -5674.7769   -6311.2401            0    8917.1544    23.200763    21.444908    21.504098    10699.111    8313.3725    9568.6514    8869.4392   -347.25069   -171.82252   -568.87851   -4283.3838 
26686000    252.46653   -6318.8017    -5669.347   -6318.8017            0     8515.478    23.394736    21.378828    21.513019     10759.78    7231.2511    8771.5397    9543.6432    406.65049    352.36014   -613.89755   -4333.0951 
26687000    240.20658   -6349.7153   -5731.7985   -6349.7153            0     7875.145    23.334979    21.249703    21.731843    10775.981    7870.5987    7479.5121    8275.3244    1178.0319   -597.31533    127.22785   -4494.1672 
26688000    242.13127   -6304.8637   -5681.9957   -6304.8637            0    7170.8246    23.339728    21.409413    21.637289    10811.934    7014.1103    6515.6451    7982.7184    467.86297    511.26868    170.12537   -4551.2931 
26689000    231.28275   -6351.5983   -5756.6375   -6351.5983            0    6880.8268    23.389163    21.467263     21.52537    10807.917    6606.9528    5935.7589    8099.7687    665.45841   -2283.8558     153.4096   -4672.0652 
26690000    260.96221   -6320.6166   -5649.3073   -6320.6166            0    7053.5327    23.255919     21.47913    21.705364    10842.197     7924.444    7373.9798    5862.1742    181.21082   -742.70483   -604.26645   -4533.9863 
26691000    251.68101   -6324.3617   -5676.9277   -6324.3617            0    7401.7125    23.336502    21.316575    21.762643     10825.92    7116.4351    8301.3588    6787.3435    811.77589   -1564.8691   -532.74572   -4508.3087 
26692000    245.15933   -6319.7773   -5689.1199   -6319.7773            0    6996.9266    23.258403    21.541205    21.636368    10840.124    6867.9669    6006.6494    8116.1635    624.54652      52.1441     295.6644   -4582.9612 
26693000    240.09296   -6337.3506   -5719.7261   -6337.3506            0      6785.71    23.419711    21.423032    21.587632    10830.973    5676.5904    7442.2069    7238.3327    784.24135    504.84971   -473.84707   -4647.8646 
26694000    253.99234   -6358.0727   -5704.6928   -6358.0727            0    5113.0927    23.423918    21.434595    21.693985    10892.164    4581.8985    5414.3808    5342.9986   -234.32011    394.92587    291.24806   -4892.4728 
26695000    249.00064   -6323.3256   -5682.7867   -6323.3256            0    6799.5423    23.257165    21.672595    21.509068    10841.498    8479.9366    4795.4434    7123.2469   -609.65348   -1796.8335   -207.88296   -4607.6966 
26696000    254.63798   -6363.6346   -5708.5939   -6363.6346            0    8202.4578    23.285105    21.343188    21.672278    10770.653    8169.1093    8375.9729    8062.2912   -183.66878   -331.63559    1123.3839   -4420.1606 
26697000    249.84218   -6343.6802   -5700.9764   -6343.6802            0    8203.1502      23.2294    21.429168    21.630652    10767.452    9362.0555    7087.1141     8160.281   -714.08658   -1074.6534    218.44806   -4412.8174 
26698000     254.1939   -6332.0291   -5678.1308   -6332.0291            0    7540.7962    23.328139    21.597477    21.400675    10782.279    7082.7968    6889.5718    8650.0199     1230.354   -582.21652    154.55031    -4492.352 
26699000    250.32115   -6319.7002   -5675.7643   -6319.7002            0    7787.7696    23.404079    21.266792    21.648965    10775.333    7001.5013    8628.1593     7733.648    630.72521   -742.21191    1032.1209   -4451.9384 
26700000    252.03916   -6362.5197   -5714.1643   -6362.5197            0    7867.0408     23.16159    21.430352    21.673081    10757.673    8626.3429    7887.4044    7087.3752    1212.3843    1082.7893     601.1285   -4479.9072 
26701000    246.99377   -6321.4041   -5686.0277   -6321.4041            0    8649.8798    23.483873    21.202613    21.614366    10762.214    8245.0701    8103.1191    9601.4504    455.80222    1459.6142    343.49076   -4328.3784 
26702000    254.66797   -6348.6686   -5693.5508   -6348.6686            0    9148.9432    23.049917    21.583837    21.569632    10731.014    9265.7889    7926.1696    10254.871    2659.5394   -589.75129   -743.64959   -4261.7336 
26703000    230.67954   -6341.9111    -5748.502   -6341.9111            0    9186.5952    23.200139     21.24864    21.757776    10725.961    9000.6649    10218.404    8340.7168    854.84797   -629.21744   -1154.9353   -4311.4692 
26704000    249.71913   -6353.6627   -5711.2755   -6353.6627            0    7679.3672    23.367798    21.445134    21.513927    10781.179     7058.704    7637.4409    8341.9567   -1241.1282    1914.7823    261.95553   -4503.8299 
26705000    243.84103   -6341.1563   -5713.8901   -6341.1563            0    8938.4262     23.11789    21.571861    21.454743    10699.393    9990.4847    8638.5549    8186.2391   -1.8433013    653.39043    79.735746   -4319.1411 
26706000     239.2844   -6342.4041   -5726.8596   -6342.4041            0    8119.0912    23.376453    21.128845    21.780345    10757.692    9231.2758    8604.6712    6521.3268    405.94414   -1295.9776    170.84597   -4453.0561 
26707000    246.39165   -6361.5086   -5727.6811   -6361.5086            0    7252.8542     23.17863    21.324253    21.769873    10760.129    8270.0307    7289.3602    6199.1717    316.44502   -1438.3136    256.10692   -4589.5237 
26708000    249.52839   -6335.0929   -5693.1963   -6335.0929            0    8720.0105    23.126567    21.471328     21.61389    10732.552    9340.2263    8426.7477    8393.0574   -1747.1391    785.46543    181.20225   -4328.3118 
26709000    251.20963   -6327.3334   -5681.1119   -6327.3334            0    7370.4384    23.399777    21.376795    21.556504    10782.827    8085.2631    7284.7091    6741.3432   -819.05734   -197.07193   -466.13177   -4522.0628 
26710000    252.14293   -6355.5399   -5706.9176   -6355.5399            0    7396.0669    23.190798    21.518191    21.626505    10792.146    7611.2915    7656.3916    6920.5177   -1844.6308    460.06317    -335.4837   -4542.8331 
26711000    249.94355   -6331.7792   -5688.8147   -6331.7792            0    7462.8671    23.280118    21.490306    21.539102    10775.945    7568.3208     7131.917    7688.3634    329.95192    895.44858    711.53744   -4515.9796 
26712000    237.72783   -6330.9433    -5719.403   -6330.9433            0    7128.3982    23.236423    21.373634    21.714045    10784.211    7722.9072     6846.591    6815.6964    249.22207   -484.47978    518.18523   -4598.2723 
26713000    250.99277   -6352.4713   -5706.8077   -6352.4713            0    7419.7552    23.342254    21.227516    21.731116    10767.726    7156.0741    9135.6287    5967.5628   -923.72813    644.12413   -1196.9255   -4541.6372 
26714000     244.6939   -6334.4593   -5704.9992   -6334.4593            0    8216.8968     23.18931    21.450989     21.67625    10782.496     7300.609    9207.9346    8142.1469    417.53297    978.48875   -1447.7286   -4412.8787 
26715000    242.20635   -6370.2298   -5747.1688   -6370.2298            0    7863.6597    23.313164    21.349175    21.588919    10745.168    7444.6082    8732.3904    7413.9804   -701.12248   -216.81311    307.39184   -4514.8763 
26716000    243.46105   -6335.9644   -5709.6757   -6335.9644            0    7582.2018    23.335159    21.440112    21.475013     10744.13     6280.043     8690.755    7775.8073   -650.72233    1202.2749     1039.414   -4521.6045 
26717000    246.65417   -6339.0998    -5704.597   -6339.0998            0    8138.6642    23.239827    21.421136    21.586578    10746.306    6985.5714    7806.6134    9623.8077   -428.53566    345.83777    2043.4148   -4429.0742 
26718000    251.10007    -6332.465   -5686.5254    -6332.465            0    7634.8817    23.321614    21.266047    21.781256      10802.6    7284.2752    8099.4467    7520.9232    -362.5474    1223.2322     1188.666   -4483.6892 
26719000    242.85718   -6324.2048   -5699.4695   -6324.2048            0    9117.8112    23.142853    21.565661    21.525659    10743.261     8936.616    8936.5261    9480.2914    555.92019   -956.14002   -678.46186   -4270.8959 
26720000    233.72413   -6353.6455   -5752.4044   -6353.6455            0    7682.8492    23.360939    21.240428    21.680261    10757.666    7444.0558    8919.2527     6685.239   -140.75814    863.51889   -563.71815   -4547.0459 
26721000    246.63363   -6355.6423   -5721.1923   -6355.6423            0    7939.4176    23.231779    21.387193    21.650092     10757.12    8691.4772    7976.8539    7149.9218     606.5793    257.04088    1847.6705   -4475.6441 
26722000    250.78241    -6354.861   -5709.7385    -6354.861            0    9587.1668     23.26896    21.465228    21.348481    10663.001    8113.7631    8840.8597    11806.878    53.299547    239.52235    1288.8362   -4218.8484 
26723000    249.59845   -6358.0036   -5715.9268   -6358.0036            0    9065.5405    23.450285    21.166546    21.552625    10697.894    9034.7943     9358.817    8803.0102   -117.80406   -147.24344   -438.36685   -4301.5411 
26724000    251.89599   -6314.5767   -5666.5896   -6314.5767            0    8114.0702    23.217186    21.417041    21.650688    10765.662    8401.5358    8215.8148    7724.8601    77.700647    1101.0733    -608.3425   -4392.6308 
26725000    239.17815   -6325.4426   -5710.1714   -6325.4426            0    8657.6347     23.46071    21.266432    21.471223    10712.542    6261.7339    9465.6905     10245.48    70.738009   -353.00466    901.57588   -4357.5767 
26726000    248.49199   -6343.3638   -5704.1333   -6343.3638            0    8854.2017    23.183415    21.529675     21.48113    10721.906    8648.9574    8001.6458    9912.0018    19.926442    110.87743    69.040351   -4319.6194 
26727000    269.80239   -6347.7282    -5653.678   -6347.7282            0    7205.2491    23.274084    21.404292    21.696107    10808.248    6115.2175    7395.8608     8104.669     435.7587   -94.855603    1543.6263   -4517.9347 
26728000    267.25886    -6343.854   -5656.3469    -6343.854            0    7804.6287    23.538369     21.31964    21.435617    10757.026    5510.6659    7947.9291    9955.2911     410.1326   -72.136059    580.84608   -4431.9552 
26729000    249.74611   -6326.1351   -5683.6785   -6326.1351            0    8246.2342    23.232738    21.587849    21.409046    10737.597    9841.5972    6598.2559    8298.8496     212.2495   -1301.8616   -723.31721   -4392.3443 
26730000    256.55361   -6323.4681   -5663.4996   -6323.4681            0    7945.6772    23.203543    21.364566    21.728624     10771.61    8880.7851    8179.9154    6776.3311   -1035.1622   -1357.4817   -258.98542   -4415.2903 
26731000    257.98652   -6333.8704   -5670.2158   -6333.8704            0    8663.1002     23.29319    21.399216    21.582558    10757.956    8816.6703    8425.7382    8746.8921   -189.91242   -453.04761   -299.51204   -4311.0295 
26732000    257.11869   -6346.8955   -5685.4733   -6346.8955            0    7559.0678    23.232584    21.428508    21.569911    10738.356    6971.5107    8068.9945    7636.6983    1578.8073   -569.51593    105.79631   -4501.6636 
26733000    240.46754   -6329.4155   -5710.8274   -6329.4155            0    9239.9848    23.292993    21.135084    21.763139     10713.98    8935.9131    9984.8066    8799.2349    1268.7781   -234.46373   -261.33376   -4267.0576 
26734000    253.37391   -6348.6875   -5696.8986   -6348.6875            0    8878.0165    23.151884    21.484634    21.540792      10714.6    9648.2458    9183.0341    7802.7696     992.3622   -424.06454   -1079.0337   -4309.6068 
26735000    241.18876   -6335.2549   -5714.8115   -6335.2549            0    8260.9591     23.34362    21.287108    21.664679    10765.572    6640.2346     10579.96    7562.6825   -286.03364    1110.0706   -675.71905    -4417.801 
26736000    245.54807   -6338.1881   -5706.5306   -6338.1881            0    8039.2171    23.200352    21.478107    21.538683    10732.718    7733.8683    7915.0289    8468.7539    69.326243    -333.2488   -89.900924   -4448.1867 
26737000     244.0973   -6352.0987   -5724.1733   -6352.0987            0      8665.72     23.16766      21.4978     21.52315    10719.685    9036.6378    7928.9596    9031.5628    293.43019    479.81197   -20.608226   -4369.4127 
26738000    258.87108   -6337.0906   -5671.1606   -6337.0906            0    7274.0383    23.369749    21.182216    21.728681    10756.198    6819.8007    7369.4942    7632.8201    654.96173    142.17802     502.1709   -4530.0958 
26739000    241.67552    -6331.173   -5709.4774    -6331.173            0    7615.3684    23.122867    21.533056    21.621519    10765.484    8259.1622    6448.2952     8138.648    142.59776    24.420435      164.145   -4513.8376 
26740000     258.6154   -6357.5497   -5692.2774   -6357.5497            0    7419.3826    23.458903    21.251821    21.676744     10806.82    6635.4324    8419.6207    7203.0946   -106.33841    279.53974   -315.77364   -4522.9353 
26741000    245.45856   -6351.4701   -5720.0429   -6351.4701            0     6986.272    23.351545    21.474999    21.503657    10783.534    6067.1072    6707.2537    8184.4552    1134.8398   -163.04244   -48.816287   -4621.3344 
26742000    238.03175    -6332.302   -5719.9799    -6332.302            0    7244.8823    23.405634      21.3867    21.617789    10821.201    6715.2951    7335.3002    7684.0516     103.5124      1346.59   -167.59635   -4576.6207 
26743000     253.2752   -6336.0138   -5684.4787   -6336.0138            0    6503.4015    23.250885    21.368021    21.809877    10835.701    5696.3638    9240.6593    4573.1812   -237.90259    1333.8068    216.07324   -4656.7619 
26744000    245.80507   -6340.0836    -5707.765   -6340.0836            0    7037.6209    23.200595    21.465248    21.706905     10810.18     8076.899    6571.7931    6464.1707   -984.17429   -1394.6573    644.10179   -4598.2461 
26745000    254.81295   -6304.6292   -5649.1385   -6304.6292            0    7140.7864    23.282201    21.515466    21.580154     10810.09    8191.5404    6315.1226    6915.6961   -1937.6566    193.22844   -70.885414   -4523.3644 
26746000    246.52581   -6351.9132   -5717.7406   -6351.9132            0    6779.7922     23.25438    21.445008    21.705336    10824.242    7943.3235     5657.571    6738.4819   -381.09732    1444.0893     1172.459   -4647.4795 
26747000    238.65817   -6318.1458   -5704.2122   -6318.1458            0    7965.4742     23.15155    21.465985    21.721769    10795.086    7570.7757    7720.6233    8605.0237   -540.31295    1320.0496    615.31005   -4450.1658 
26748000    252.44887   -6335.7788   -5686.3694   -6335.7788            0    7552.9552    23.319064    21.352434    21.630213    10770.089    8120.8027    6869.5773    7668.4856    1078.4018    -430.6771    1161.7856   -4500.0214 
26749000    251.80946    -6364.932   -5717.1676    -6364.932            0    7685.7111    23.357781    21.293857    21.666341    10776.345    8723.8259    6492.1383    7841.1693   -194.97427    457.90761    83.307755   -4509.2663 
26750000    257.33313   -6316.0025   -5654.0287   -6316.0025            0    6354.5139    23.249845     21.49889    21.695472    10844.392    6612.2215    5268.9987    7182.3215   -197.06063    1292.9601    448.47355   -4649.0348 
Loop time of 602.164 on 64 procs for 250000 steps with 1296 atoms

Performance: 71.741 ns/day, 0.335 hours/ns, 415.169 timesteps/s
99.2% CPU use with 64 MPI tasks x 1 OpenMP threads

MPI task timing breakdown:
Section |  min time  |  avg time  |  max time  |%varavg| %total
---------------------------------------------------------------
Pair    | 30.704     | 40.171     | 49.471     |  97.0 |  6.67
Bond    | 0.2756     | 0.28272    | 0.29575    |   0.9 |  0.05
Kspace  | 292.58     | 304.85     | 322.08     |  41.2 | 50.63
Neigh   | 4.7984     | 5.1643     | 5.8976     |  12.2 |  0.86
Comm    | 103.75     | 114.13     | 121.6      |  39.7 | 18.95
Output  | 1.5286     | 1.5295     | 1.5344     |   0.1 |  0.25
Modify  | 121.26     | 126.61     | 130.63     |  20.5 | 21.03
Other   |            | 9.438      |            |       |  1.57

Nlocal:        20.2500 ave          26 max          13 min
Histogram: 1 4 3 9 8 7 17 5 5 5
Nghost:        2593.97 ave        2617 max        2566 min
Histogram: 3 2 6 8 7 12 4 9 9 4
Neighs:        6432.92 ave        8307 max        4202 min
Histogram: 1 4 7 5 8 12 12 5 6 4

Total # of neighbors = 411707
Ave neighs/atom = 317.67515
Ave special neighs/atom = 2.0000000
Neighbor list builds = 8795
Dangerous builds = 0

unfix		3
unfix		2
unfix		1

write_data	data.final.${pid}
write_data	data.final.0
System init for write_data ...
PPPM initialization ...
  extracting TIP4P info from pair style
  using 12-bit tables for long-range coulomb (../kspace.cpp:340)
  G vector (1/distance) = 0.36833422
  grid = 27 40 32
  stencil order = 5
  estimated absolute RMS force accuracy = 0.004285979
  estimated relative force accuracy = 1.2907099e-05
  using double precision FFTW3
  3d grid and FFT values/proc = 4845 560
Last active /omp style is kspace_style pppm/tip4p/omp
WARNING: Not all mixed pair coeffs generated from mixing. Use write_data with 'pair ij' option to store all pair coeffs. (../write_data.cpp:312)

write_restart   restart.lmp.${pid}
write_restart   restart.lmp.0
System init for write_restart ...
PPPM initialization ...
  extracting TIP4P info from pair style
  using 12-bit tables for long-range coulomb (../kspace.cpp:340)
  G vector (1/distance) = 0.36833422
  grid = 27 40 32
  stencil order = 5
  estimated absolute RMS force accuracy = 0.004285979
  estimated relative force accuracy = 1.2907099e-05
  using double precision FFTW3
  3d grid and FFT values/proc = 4845 560
Last active /omp style is kspace_style pppm/tip4p/omp
Total wall time: 0:10:07
