#include		in.partitions
include		in.temp
variable        temperature equal 37.72
variable	tempDamp equal 100.0
include		in.pressure
variable        pressure equal 2156.7
variable        pressureDamp equal 1000.0 # This is 1 ps
include		in.seed
variable        seed equal 745823

units		real
atom_style	full

read_restart	restart.lmp.${pid}
read_restart	restart.lmp.1
Reading restart file ...
  restart file = 30 Jul 2021, LAMMPS = 30 Jul 2021
  restoring atom style full from restart
  orthogonal box = (0.047337115 0.059954146 0.0024381124) to (19.952664 19.940047 20.697560)
  4 by 2 by 4 MPI processor grid
  restoring pair style lj/cut/tip4p/long/omp from restart
  restoring bond style harmonic/omp from restart
  restoring angle style harmonic/omp from restart
  972 atoms
  648 bonds
  324 angles
Finding 1-2 1-3 1-4 neighbors ...
  special bond factors lj:    0        0        0       
  special bond factors coul:  0        0        0       
     2 = max # of 1-2 neighbors
     1 = max # of 1-3 neighbors
     1 = max # of 1-4 neighbors
     2 = max # of special neighbors
  special bonds CPU = 0.002 seconds
  read_restart CPU = 0.007 seconds
include 	in.setup
variable	out_freq equal 1000
variable	out_freq2 equal 10000
variable	out_freq3 equal 1000

timestep	2.0

neigh_modify    delay 7 every 1

include		in.tip4p
# This is TIP4P/Ice

# create groups ###
group ox type 2
324 atoms in group ox
group hy type 1
648 atoms in group hy

# set charges - beside manually ###
set group ox charge -1.1794
Setting atom values ...
  324 settings made for charge
set group hy charge 0.5897
Setting atom values ...
  648 settings made for charge

# ### TIP3P Potential Parameters ###
pair_style lj/cut/tip4p/long/omp 2 1 1 1 0.1577 8.5
pair_coeff 1 1*2 0.000 0.000
pair_coeff 2 2 0.21084 3.1668
bond_style  harmonic
bond_coeff  1 450 0.9572
angle_style harmonic
angle_coeff 1 55 104.52
kspace_style pppm/tip4p/omp 1.0e-5
pair_modify tail yes

thermo          ${out_freq}
thermo          1000
thermo_style    custom step temp pe etotal epair emol press lx ly lz vol pxx pyy pzz pxy pxz pyz enthalpy

restart 	${out_freq3} restart.lmp.${pid} restart2.lmp.${pid}
restart 	1000 restart.lmp.${pid} restart2.lmp.${pid}
restart 	1000 restart.lmp.1 restart2.lmp.${pid}
restart 	1000 restart.lmp.1 restart2.lmp.1


include         in.dump
dump            myDump all atom ${out_freq2} dump.water.${pid}
dump            myDump all atom 10000 dump.water.${pid}
dump            myDump all atom 10000 dump.water.1
dump            myDump2 all dcd ${out_freq2} dump.dcd
dump            myDump2 all dcd 10000 dump.dcd
dump_modify     myDump append yes
dump_modify     myDump2 append yes


variable natoms 	equal  "count(all)"                        # NUMBER ATOMS
variable H      	equal  "enthalpy/v_natoms"                 # ENTHALPY-per-atom
variable Vol      	equal  "vol/v_natoms"                 # volume-per-atom
fix AVG all 		ave/time ${out_freq} 1 ${out_freq} v_Vol v_H file vol_enthalpy.dat
fix AVG all 		ave/time 1000 1 ${out_freq} v_Vol v_H file vol_enthalpy.dat
fix AVG all 		ave/time 1000 1 1000 v_Vol v_H file vol_enthalpy.dat


timer           timeout 02:55:00 every 1000
New timer settings: style=normal  mode=nosync  timeout=02:55:00

fix 		1 all shake 1e-6 200 0 b 1 a 1
       0 = # of size 2 clusters
       0 = # of size 3 clusters
       0 = # of size 4 clusters
     324 = # of frozen angles
  find clusters CPU = 0.000 seconds
fix             2 all nph aniso ${pressure} ${pressure} ${pressureDamp}
fix             2 all nph aniso 2156.7 ${pressure} ${pressureDamp}
fix             2 all nph aniso 2156.7 2156.7 ${pressureDamp}
fix             2 all nph aniso 2156.7 2156.7 1000
fix             3 all temp/csvr ${temperature} ${temperature} ${tempDamp} ${seed}
fix             3 all temp/csvr 37.72 ${temperature} ${tempDamp} ${seed}
fix             3 all temp/csvr 37.72 37.72 ${tempDamp} ${seed}
fix             3 all temp/csvr 37.72 37.72 100 ${seed}
fix             3 all temp/csvr 37.72 37.72 100 745823


run             250000
PPPM initialization ...
  extracting TIP4P info from pair style
  using 12-bit tables for long-range coulomb (../kspace.cpp:340)
  G vector (1/distance) = 0.37282998
  grid = 24 24 25
  stencil order = 5
  estimated absolute RMS force accuracy = 0.0033565212
  estimated relative force accuracy = 1.0108064e-05
  using double precision FFTW3
  3d grid and FFT values/proc = 3458 576
Last active /omp style is kspace_style pppm/tip4p/omp
Neighbor list info ...
  update every 1 steps, delay 7 steps, check yes
  max neighbors/atom: 2000, page size: 100000
  master list distance cutoff = 10.8154
  ghost atom cutoff = 10.8154
  binsize = 5.4077, bins = 4 4 4
  1 neighbor lists, perpetual/occasional/extra = 1 0 0
  (1) pair lj/cut/tip4p/long/omp, perpetual
      attributes: half, newton on, omp
      pair build: half/bin/newton/omp
      stencil: half/bin/3d
      bin: standard
Per MPI rank memory allocation (min/avg/max) = 10.19 | 10.20 | 10.21 Mbytes
Step Temp PotEng TotEng E_pair E_mol Press Lx Ly Lz Volume Pxx Pyy Pzz Pxy Pxz Pyz Enthalpy 
43000000    41.913206   -5170.8656   -5090.0324   -5170.8656            0    2016.7941    19.905327    19.880093    20.695122    8189.4682    2533.1304    1803.1482    1714.1037    -278.4888    -236.1487   -827.75816   -4849.1567 
43001000    37.402566   -5177.8984   -5105.7644   -5177.8984            0    2454.3927    19.908328     19.84962    20.680617    8172.4157    2809.8709    2229.7143     2323.593   -252.16857    329.07605    157.77943   -4813.2344 
43002000    36.915973   -5177.8314   -5106.6359   -5177.8314            0    1554.1236    19.924925     19.94979    20.689282    8223.9497    2403.2487    474.14323    1784.9788   -121.24919    393.96298    170.01559   -4920.2376 
43003000    37.080649   -5178.6514   -5107.1383   -5178.6514            0    2245.4312    19.892722    19.862118    20.723616     8188.141    2883.6043    2351.7686    1500.9207    176.72773    603.84266   -162.47751   -4838.9987 
43004000    36.816949   -5181.6546     -5110.65   -5181.6546            0    1949.4913    20.000717    19.912406    20.544315    8182.0281    1705.1999    1504.5784    2638.6955   -232.17186    58.459826    169.12685   -4878.0241 
43005000    37.322043   -5178.5717    -5106.593   -5178.5717            0    1564.6863    19.936018    19.855332    20.743801    8211.1482    658.88611    2534.1022    1501.0706    182.77095   -204.17971   -98.480728     -4919.22 
43006000    38.650314   -5178.1768   -5103.6364   -5178.1768            0    2347.8873    19.876074    19.899448    20.696249    8185.8403    2631.2652    2131.4823    2280.9144   -184.96398     383.7876    32.701879   -4823.3408 
43007000    39.672642   -5183.5641   -5107.0521   -5183.5641            0    1884.2165    19.880093    19.928774    20.676519    8191.7449    1640.8452      2043.39    1968.4145    212.43956    351.40402    417.17614   -4881.9481 
43008000    36.700682   -5174.9393   -5104.1589   -5174.9393            0    2733.5997     19.89509    19.894856    20.645773    8171.8024    3002.3876     2196.172    3002.2396   -128.35579    453.28949    334.71969   -4778.3757 
43009000    38.485941   -5173.6181   -5099.3948   -5173.6181            0    2741.9898     19.95271    19.794605    20.646953    8154.6383    2409.3602    3588.3209    2228.2883   -78.391518   -225.43022    432.62151    -4773.298 
43010000    37.939843   -5178.2652    -5105.095   -5178.2652            0    2099.8292    19.959274    19.834806    20.660482    8179.2438    1574.6797    2530.9938    2193.8141   -29.068231    427.63801    72.462543    -4854.615 
43011000    34.922269   -5173.3074   -5105.9569   -5173.3074            0    2065.0117    19.931075      19.9112    20.618022    8182.2956    1384.7169    2653.5737    2156.7445    3.4919711    135.41124    185.18254   -4859.5383 
43012000    40.000868   -5175.7516   -5098.6066   -5175.7516            0    1884.4617    19.909714    19.963134    20.562688    8172.8519    1652.3401    1593.5777    2407.4673   -501.70581    1297.8235    1.8126595   -4873.9926 
43013000    38.290877   -5173.1274   -5099.2802   -5173.1274            0    2480.8899    19.873787    19.918037    20.597043    8153.2741    2443.1134     2367.493    2632.0632   -206.75979    103.79042   -178.07098   -4804.2847 
43014000    37.729116   -5181.9115   -5109.1477   -5181.9115            0     2079.997     19.89606    19.893321    20.719014    8200.5592    2541.8202    1835.7651    1862.4057   -171.60162     312.9239     543.4172   -4860.3868 
43015000    37.063405   -5177.1109    -5105.631   -5177.1109            0    2220.4093    19.991308    19.858923    20.554621    8160.3045    2064.7832    2356.4722    2239.9725   -274.10326    -14.47331   -271.22206   -4841.3808 
43016000    37.260268   -5177.7573   -5105.8978   -5177.7573            0    2049.1825    19.959745     19.85801    20.628838    8176.4631    1511.4975    2462.8738    2173.1763   -152.79548    172.62336   -293.96232   -4861.5423 
43017000    36.567258     -5177.25    -5106.727     -5177.25            0    1276.6201    19.958674    19.980368    20.558099    8198.1926    1427.3472    1062.8456    1339.6675   -189.97023   -113.96793   -318.15158   -4954.0915 
43018000    37.860937   -5182.8273   -5109.8093   -5182.8273            0    2356.6352    19.878223    19.954573     20.58754    8166.2835    2131.0008    2291.2599    2647.6448   -211.15506    257.47894   -95.519556   -4829.1414 
43019000    36.413221   -5176.6875   -5106.4616   -5176.6875            0    1714.7437    19.916618    19.949265    20.612249    8189.6979     1949.614    1814.7462    1379.8709   -500.05784    547.92578   -326.26434   -4901.6554 
43020000    37.353834   -5178.5985   -5106.5585   -5178.5985            0    1970.0005    19.835668    19.859372    20.778999    8185.3445    2580.1123    1991.7637    1338.1255    -249.6155   -193.43736   -271.78814     -4871.39 
43021000    35.454398   -5178.3816   -5110.0048   -5178.3816            0    2491.5511    19.864499    19.869287    20.724234    8179.7188    2422.1735    2681.5974    2370.8825   -20.292565    373.71435    416.80277   -4812.7807 
43022000    36.081148   -5172.7652   -5103.1797   -5172.7652            0     2352.048    19.938459    19.863323    20.601659    8159.1643    2138.7503    2518.7941    2398.5995   -148.14283    147.87288    659.16919   -4823.3023 
43023000    37.193759   -5180.2177   -5108.4864   -5180.2177            0    2446.6956    19.906629    19.908458    20.583874    8157.6013    2176.7497    2764.4657    2398.8715    51.673259   -64.744731    151.84809   -4817.4024 
43024000    39.227164   -5173.9244   -5098.2715   -5173.9244            0    2367.5695    19.901756    19.882709     20.63903    8166.8813    2629.4819    2161.9516     2311.275   -243.05598    574.69948   -238.57921   -4816.2808 
43025000    39.444439   -5177.7237   -5101.6518   -5177.7237            0    2008.8346    19.985378     19.86883    20.577682    8171.1108     1763.628    1769.9148    2492.9609   -112.52292    404.25452    220.98715   -4862.2645 
43026000    39.612966    -5178.837   -5102.4401    -5178.837            0    1869.6681     19.89743    19.906367    20.634079    8172.8604    2559.1402    1032.4143    2017.4499   -288.97427    57.853092    411.81742   -4879.5891 
43027000    40.004285   -5177.5062   -5100.3545   -5177.5062            0    2657.4979    19.879949    19.793827    20.777964    8176.1342     2733.219    3207.1958     2032.079   -237.44648    460.73707    168.68045   -4783.4731 
43028000    37.285446   -5178.3447   -5106.4366   -5178.3447            0    2175.0525    19.886719    19.876529    20.642427    8159.5171    2678.4363    2147.1122    1699.6092   -5.5568719  -0.28363429    506.48997   -4847.6093 
43029000    38.787722   -5181.6106   -5106.8052   -5181.6106            0    1309.1777    19.900071    19.869898    20.802142    8225.4246    1303.6718    1677.2059    946.65532   -8.5282214    137.08912   -252.38949   -4949.7571 
43030000    37.883653   -5176.1187   -5103.0569   -5176.1187            0    2500.2122    19.906359    19.873723    20.594368    8147.4091    3236.1796    1545.5788    2718.8782   -239.66273    337.11832   -320.05863   -4805.9777 
43031000    38.196397   -5176.6037   -5102.9387   -5176.6037            0     2131.205    19.886443    19.872357    20.752189    8201.0678    2287.1002    2245.2735    1861.2413   -57.365218    156.77348    401.85264   -4848.0377 
43032000    38.488918   -5177.4909   -5103.2617   -5177.4909            0    2336.6953    19.907613    19.936209    20.636984    8190.4543    1531.3019    2920.1738    2558.6101    108.44452    374.03051    -420.9353    -4824.145 
43033000    38.213562   -5177.0579   -5103.3598   -5177.0579            0    2583.1251    19.914068     19.87191    20.632156    8164.7748    3406.8011    1830.0762     2512.498    67.440801    430.77219     360.6545   -4795.7745 
43034000    36.696294   -5178.9559    -5108.184   -5178.9559            0    1840.2763    19.958941    19.793554    20.696389    8176.2817    2120.2328     2031.666    1368.9301   -161.73557    92.839472   -145.11589   -4888.7445 
43035000    36.627528   -5184.0154   -5113.3761   -5184.0154            0    2139.6828     19.88223    19.889667    20.611307    8150.7605     1659.668    2326.4076    2432.9727    2.2327853    449.50176    809.09983    -4859.031 
43036000    36.446837   -5180.5993   -5110.3085   -5180.5993            0    2053.3909    19.939614    19.865298     20.67702     8190.299    2353.7326    2006.9872    1799.4528   -286.97648    529.67486   -30.547137   -4865.0369 
43037000    36.780169   -5176.5928   -5105.6592   -5176.5928            0    2619.1874    19.965207    19.906889    20.580434    8179.5941    2750.7043    2173.8802    2932.9778    -179.1582    310.15647    275.81005   -4793.2137 
43038000    37.799018   -5175.0785   -5102.1799   -5175.0785            0     1882.919    19.911449    19.793392    20.805017    8199.5716    1539.7679    2695.3589    1413.6302   -174.52165    354.90426    346.66387   -4877.0161 
43039000    36.418624    -5179.047   -5108.8106    -5179.047            0    2140.5763    19.965468    19.920234    20.568488    8180.4331    2556.3174    1534.9406    2330.4709   -219.86976    535.76651   -365.51422    -4853.433 
43040000    36.669766   -5175.8968   -5105.1761   -5175.8968            0    2508.9775     19.93167    19.775332    20.741234     8175.269    2680.4858    2524.7865    2321.6601     82.96219    586.84912    110.28821    -4806.036 
43041000    35.245031   -5172.9799   -5105.0069   -5172.9799            0    1707.2739    19.930245    19.835166    20.749246    8202.5861    1160.5097    1976.5007    1984.8114   -86.938175    309.84027   -96.733934    -4900.772 
43042000    36.625918   -5178.5859   -5107.9498   -5178.5859            0    2210.7269     19.92562    19.854339    20.701373    8189.6703    2919.7044    1772.7408    1939.7356   -127.90847    393.86219     815.4468   -4843.9051 
43043000    39.370844   -5178.8408   -5102.9109   -5178.8408            0    2078.6098    19.958422    19.851174    20.647404    8180.4626    2024.1182    1848.5408    2363.1703   -140.75804    205.42961   -231.26717   -4854.9251 
43044000    36.313152   -5180.3543   -5110.3213   -5180.3543            0    2266.4455    19.893255    19.948269    20.618096    8182.0028    2203.0355    2339.5774    2256.7235   -165.07665    209.10893    44.957892   -4839.8752 
43045000    35.297388   -5178.8318   -5110.7578   -5178.8318            0    2171.9697     19.95856    19.898272    20.599716    8180.9887    1718.5028    2275.8077    2521.5987   -189.79665   -277.57418    -595.3866   -4851.6172 
43046000    37.162364   -5180.7419   -5109.0712   -5180.7419            0    1406.6373    19.870677    19.907616    20.708562    8191.8475    2000.9317    651.66923     1567.311   -87.904551    150.70802   -67.165201   -4941.0207 
43047000    37.528129   -5178.8332   -5106.4571   -5178.8332            0    2422.4178    19.839713    19.945602    20.597469    8150.7282    3261.9681    1536.9584    2468.3269     127.0979    -144.6669    209.54867   -4818.5042 
43048000     37.20957     -5181.68   -5109.9182     -5181.68            0    1784.2264    19.815826    19.940599    20.677683    8170.5682    2342.3464    1430.3361    1579.9965   -86.815059    330.74387    402.77494   -4897.3109 
43049000    37.410692   -5177.1241   -5104.9745   -5177.1241            0    1904.8588    19.976715    19.904829    20.581617    8183.9322    1279.9031    2461.2332    1973.4402   -193.38198     553.5973    199.86511   -4877.6215 
43050000    37.083081   -5181.7199    -5110.202   -5181.7199            0    1579.9987    19.820992    19.925577    20.712483    8180.2853    1642.9666    1328.0573    1768.9721    31.195956    1006.0456     116.0862   -4921.7065 
43051000    38.551602   -5169.4651   -5095.1151   -5169.4651            0    2353.0928    19.828324    19.853674    20.709996    8152.8018    2439.9232    2733.2944    1886.0609   -258.45618    300.56427    120.02372   -4815.3317 
43052000    36.487165   -5178.2473   -5107.8787   -5178.2473            0    2740.3606    19.885446    19.828075    20.667619    8149.0377    3185.3853    2783.2519    2252.4447    84.070503    -143.7339    552.36023   -4782.1996 
43053000    34.797846   -5178.1144   -5111.0038   -5178.1144            0    2355.7807    19.809186    19.879707    20.785227     8185.239     2969.594    2174.4035    1923.3447   -372.17027    471.75856   -86.753814   -4829.7865 
43054000    39.342427   -5176.7414   -5100.8663   -5176.7414            0    2173.9061    19.877121    19.909394     20.71358    8197.2218    1990.7281    2474.4339    2056.5564   -248.11085     316.1981     305.3823     -4840.98 
43055000    37.809551   -5179.0833   -5106.1644   -5179.0833            0    1741.9683    19.905867    19.887699     20.72095    8203.0489    1782.5008    1734.0503    1709.3538    63.964979   -45.721945   -108.59767   -4897.7674 
43056000    39.182289   -5173.5016   -5097.9353   -5173.5016            0    2625.9536     19.91246      19.8918    20.588107    8154.8398    3020.5173    2582.7128    2274.6306   -220.47656     195.5523   -439.91128   -4785.6307 
43057000    35.639407   -5178.3868   -5109.6532   -5178.3868            0    2057.6173    19.890078    19.784928    20.748033    8164.8441    2216.7833     2353.782    1602.2867   -228.30397    187.52424   -390.47964   -4864.6406 
43058000    38.343853   -5178.5494      -5104.6   -5178.5494            0    2128.7608    19.844024    19.972478    20.637754    8179.4505    1849.2584     2167.893     2369.131    30.780351    5.7217238    -572.8429   -4850.6625 
43059000     37.16155   -5178.2143   -5106.5451   -5178.2143            0    2241.7492    19.862261    19.851722    20.771316    8190.1313    3546.9468    1547.3219    1630.9789   -421.55803    561.44671    226.60305   -4838.7802 
43060000    38.058327    -5179.704   -5106.3053    -5179.704            0    2071.0149    19.949097     19.91147    20.573824    8172.2486    1690.0421    1804.8148    2718.1879   -198.85007    173.04891    388.75204   -4859.4738 
43061000    36.871771    -5175.227   -5104.1167    -5175.227            0     2495.068    19.884982    19.876864    20.670636     8170.091    2875.1146     2508.847    2101.2424    73.591011    221.54356    264.43687   -4806.8233 
43062000    41.564659   -5179.2221   -5099.0612   -5179.2221            0    1783.7208    19.941769    19.855502    20.658773    8179.9206     1883.828    1678.9446    1788.3897   -92.577071   -309.31169   -18.942557   -4886.2708 
43063000    38.186503   -5175.2124   -5101.5666   -5175.2124            0    2330.6213    19.948777    19.834281    20.652137    8171.4242    2512.9931    2235.9952    2242.8756     203.9568    159.36619    406.25505   -4823.8221 
43064000    38.515892   -5179.5269   -5105.2458   -5179.5269            0    2043.7986    19.945424    19.833733    20.675144    8178.9264    1917.9533    2033.4606    2179.9818    45.842462    91.916151    271.02127   -4861.4589 
43065000    37.095876   -5179.1537   -5107.6112   -5179.1537            0    2050.9218    19.948203    19.795176    20.727066    8184.6662    1954.3669    1999.5228    2198.8757   -248.04767   -7.6097879    -98.64926    -4862.803 
43066000    38.554046   -5172.6788   -5098.3241   -5172.6788            0    2457.0275    19.992906    19.851673    20.571891    8164.8316    1984.3465    2548.8277    2837.9083   -171.58852    471.85881    57.170109   -4805.7518 
43067000    35.611524   -5180.0321   -5111.3523   -5180.0321            0    1400.4346    20.028611    19.935311     20.64008    8241.1008    1255.0966    1475.4733     1470.734     29.60154   -5.6516936   -141.54316   -4943.0369 
43068000    37.007171   -5178.6234   -5107.2519   -5178.6234            0    2261.6964    19.862909    19.862879    20.808755    8209.7729    2114.8912    2418.9203    2251.2778   -54.082235    312.41038   -286.90279   -4836.4565 
43069000    35.145181   -5178.8626   -5111.0821   -5178.8626            0    2244.8362    19.904142    19.895167    20.655611    8179.5439    2211.9359    2224.3656    2298.2071   -99.176885    26.899982   -109.60972    -4843.295 
43070000    37.583242    -5178.063   -5105.5805    -5178.063            0    2101.4175    19.934617    19.873836    20.643042     8178.305    2286.0393    2122.7001    1895.5131   -252.53362    663.20912     157.0346   -4854.9399 
43071000    37.379701   -5175.7484   -5103.6585   -5175.7484            0    2619.2366    19.922387    19.904849    20.565672    8155.3608    2710.7033    2301.3026    2845.7037   -49.586182   -47.202904   -360.07187   -4792.1328 
43072000    39.699117   -5173.7754   -5097.2124   -5173.7754            0    2195.9644    19.898572    19.905423    20.678686    8190.6103    2761.1834    2109.0846    1717.6252    26.687344    134.33953    159.72478   -4834.9008 
43073000    36.289014   -5180.2022   -5110.2158   -5180.2022            0    2442.5097     19.84864    19.894038    20.620319    8142.3373    3247.4665    1540.7507     2539.312    28.728844    575.29416    378.92103   -4820.1735 
43074000    36.372775   -5179.5088   -5109.3608   -5179.5088            0     1995.469    19.927013    19.895419    20.638768    8182.3688    1304.3201      2847.21    1834.8768   -261.96983    63.674535    -210.0713   -4871.2386 
43075000    35.254122   -5175.7143   -5107.7238   -5175.7143            0    1697.2427    19.926617    19.886809    20.649476     8182.909     2105.164    1172.5002    1814.0638   -297.60538    366.73852    56.240051    -4905.176 
43076000    39.082453   -5181.9293   -5106.5555   -5181.9293            0    2102.9791    19.882498    19.928627    20.651031    8182.5761    2453.0964    1951.7252    1904.1157   -51.674071    504.60137    395.52936   -4855.5976 
43077000    36.854505   -5182.0077   -5110.9307   -5182.0077            0    2735.1011    19.940354    19.773387    20.661144    8146.4479    3667.8575     2123.284    2414.1617   -171.95355   -468.87202    358.89752     -4785.98 
43078000    38.081058   -5174.6052   -5101.1626   -5174.6052            0    1990.1472    19.939658    19.883223    20.688318     8202.187     2362.784    2149.4749    1458.1828   -79.959381    257.96372     307.5499   -4863.1003 
43079000    37.568142   -5181.6871   -5109.2338   -5181.6871            0    2125.1137    19.933103    19.841819    20.732917    8200.0554    1846.5561    2541.7497    1987.0355   -167.29858    891.95991    25.932764   -4855.0928 
43080000    38.256343   -5176.2648   -5102.4842   -5176.2648            0    1654.9449    19.854299     19.94976    20.680939    8191.4821    2058.4033     1746.478    1159.9534   -20.305059   -405.53515    222.88903   -4904.7773 
43081000    38.050856   -5178.7861   -5105.4018   -5178.7861            0    1971.1268    19.871274    19.905542    20.658176    8171.3098     2329.416    1617.2909    1966.6737   -81.705615    238.86441   -83.674958   -4870.5022 
43082000    37.463304   -5181.9532   -5109.7021   -5181.9532            0     2523.178    19.907226    19.830051    20.678274    8162.9823    2333.6086    2734.4005     2501.525   -47.727271   -414.02781   -61.936867    -4809.321 
43083000    38.057611   -5176.8249   -5103.4276   -5176.8249            0    2487.4558    19.861356    19.946147    20.626462     8171.328     3567.482    1467.6224    2427.2631   -343.00886     377.9275    350.23063   -4806.9964 
43084000    39.719808   -5175.0964   -5098.4935   -5175.0964            0    2109.1316    19.922015    19.935891    20.533636    8155.2034    1817.4296    1767.3724    2742.5928   -402.77666    461.87136    131.09442   -4847.6433 
43085000     37.15962   -5181.3649   -5109.6995   -5181.3649            0    1796.2429    19.923396    19.886137    20.638089    8176.7978    1676.3474    2058.8901    1653.4912   -68.994498    133.69097    56.946336   -4895.4971 
43086000    36.616192   -5179.9219   -5109.3045   -5179.9219            0      2044.93    19.901448    19.881421    20.723712    8199.7317    2452.6273    1428.7243    2253.4386    197.50022   -107.75083    195.52878   -4864.7622 
43087000    36.077619   -5177.5072   -5107.9285   -5177.5072            0    1588.3076    19.905719    19.969052     20.63141    8200.9512    1982.4025    1028.2303      1754.29   -174.28545    136.29958    10.440535    -4917.963 
43088000    37.706291   -5179.5875   -5106.8677   -5179.5875            0    2521.0381    19.931172    19.804089    20.691821    8167.4488    2098.3708    3187.3987    2277.3447    -312.8498   -237.36033   -123.66694   -4806.5771 
43089000    35.906212    -5181.255   -5112.0069    -5181.255            0    2078.4449    19.894893    19.821761    20.711721    8167.7047    2134.6985    2754.8562    1345.7802   -119.89067    216.77176    172.50605   -4864.4275 
43090000    37.529324   -5179.7747   -5107.3963   -5179.7747            0    2085.9944    19.883037    19.862072    20.729526    8186.4695    2140.3625    2182.1789    1935.4417   -89.775776    194.38011    514.55157   -4858.3468 
43091000    36.520979     -5178.95   -5108.5163     -5178.95            0     2129.381    19.982244    19.885139    20.573264      8174.78    1770.9279    1917.1867    2700.0283   -12.980407   -132.25935   -136.84543   -4854.6498 
43092000    37.466288   -5179.9424   -5107.6855   -5179.9424            0    1931.5839    19.920544    19.843622      20.6538    8164.3592    1535.6004    2636.1555    1622.9959   -132.58027    138.34232    603.28221   -4877.6941 
43093000    38.313783   -5178.1596   -5104.2682   -5178.1596            0    1591.3767    19.925862    19.904166    20.675657    8200.1242    1798.3808    1712.6079    1263.1414   -12.646115   -288.49786   -95.439038   -4913.9548 
43094000    37.897369    -5178.669   -5105.5807    -5178.669            0     2763.062    19.940924    19.789469    20.691657    8165.3474    2245.0258     3401.696    2642.4641   -605.46408      82.6028   -309.52653   -4776.5464 
43095000    36.364637   -5180.3525   -5110.2203   -5180.3525            0     2082.301    19.910883    19.795797    20.749189    8178.3301    1682.3133    2478.7663    2085.8235    64.269932    511.83082   -46.202586   -4861.8589 
43096000    38.454218   -5177.6779   -5103.5157   -5177.6779            0    2493.3969    19.952068     19.87568    20.611115    8173.5626    2316.6113    2355.8302    2807.7491   -65.128016    737.77148   -325.55963   -4806.2952 
43097000    37.875713    -5178.854   -5105.8075    -5178.854            0    2023.6382    19.929628    19.854233    20.614247    8156.7996    1265.4669    2358.7134    2446.7342   -339.68259   -280.80727    414.83115   -4865.0784 
43098000    37.565648   -5178.6808   -5106.2323   -5178.6808            0    1897.3069    19.890004    19.883006    20.689121    8181.9903    1609.5479    2652.4583    1429.9146   -79.848308   -380.57952    325.18966   -4879.8344 
43099000    37.840102    -5179.214   -5106.2362    -5179.214            0    2923.8891    19.908793    19.791448    20.694338    8154.0621     2210.518    3641.9389    2919.2105   -150.65687    890.46645    -105.8065   -4758.5313 
43100000    37.156008    -5177.668   -5106.0096    -5177.668            0    2278.9742    19.884856    19.921046    20.596015    8158.6405    1315.4625    2970.0271    2551.4331   -35.459333    282.84889    153.47371   -4834.8449 
43101000    36.068111   -5180.6543   -5111.0939   -5180.6543            0    2423.2978    19.862578    19.981302    20.573278    8165.1258    2812.0035    1677.7516    2780.1383   -389.53731    193.89525    17.830635   -4822.5277 
43102000    37.510399   -5178.0136   -5105.6717   -5178.0136            0     1989.518    19.929003    19.931984    20.646125    8201.1476    2304.3335    1427.6592    2236.5612     26.23883    541.95493   -280.67144   -4867.7147 
43103000    38.534153   -5177.1572   -5102.8408   -5177.1572            0    1965.5048    19.959155    19.821897    20.700486    8189.6982    1712.7634    2792.8547    1390.8962   -386.92769    102.19119    16.742404   -4868.0842 
43104000    37.763251   -5177.3871   -5104.5575   -5177.3871            0    2581.6373    19.899714     19.79783    20.739811    8170.8871    2943.9012    2516.9887    2284.0222   -277.22278    313.12156   -151.68333   -4796.9192 
43105000    39.904083   -5176.6131   -5099.6547   -5176.6131            0    1535.0908    19.936941    19.861595    20.674396    8186.6361     121.8447    2540.7587    1942.6691    137.79635   -121.31251   -389.34071   -4916.3746 
43106000    38.023559   -5185.6759   -5112.3442   -5185.6759            0    1887.0993    19.954243    19.906313    20.665236    8208.5501    2261.0369    1471.4347    1928.8261   -220.38246   -240.89351    239.72489   -4886.4334 
43107000    37.810388   -5178.0147   -5105.0942   -5178.0147            0    1538.2824    19.955878    19.838211    20.706003    8197.2773    1367.8502    1947.7344    1299.2626   -502.90008     538.0898   -158.58679   -4921.1942 
43108000    39.494206   -5180.9314   -5104.7635   -5180.9314            0    2366.2876     19.98708    19.800909     20.71531    8198.3395    2300.4769    2452.2699    2346.1161   -13.546141    199.35491   -420.42685   -4821.8398 
43109000     38.29296   -5180.8557   -5107.0045   -5180.8557            0    1857.9345    19.901412    19.881564     20.70189    8191.1415    2881.6305    1047.0812    1645.0919   -231.21197    444.34887   -242.06326   -4885.0568 
43110000    37.977387     -5176.12   -5102.8774     -5176.12            0    1917.0523    19.917104    19.903024    20.643778    8183.4121    1820.2925    2091.7403    1839.1239   -442.64594    186.22783    -237.9017   -4874.0836 
43111000    39.271873   -5176.8187   -5101.0796   -5176.8187            0    2407.5847    19.900108    19.835945    20.686645    8165.7935    2078.1445    3027.7488    2116.8606   -131.93307    497.38449   -23.028741    -4814.361 
43112000    38.959725   -5179.2251    -5104.088   -5179.2251            0    1828.8251    19.983309    19.876565    20.574121    8172.0314    1668.0828     1720.077    2098.3155   -115.45732    337.92562   -96.708299   -4886.1273 
43113000    36.733429   -5180.9156    -5110.072   -5180.9156            0    2651.0591    19.850032     19.94342    20.656224    8177.3348    3432.8345    2066.7682    2453.5746   -188.25918    122.68679    132.85597   -4793.9119 
43114000    40.045505   -5181.5493   -5104.3182   -5181.5493            0    2043.4979      19.8971     19.97507    20.590852    8183.7512    1744.7522    1755.9235    2629.8181    131.96612   -93.444402    393.78752   -4860.4234 
43115000    39.204619   -5181.3749   -5105.7655   -5181.3749            0     2291.736     19.88634    19.902616    20.674956    8182.9446    2044.9102    2382.7104    2447.5873   -115.23175     549.3824     17.66011   -4832.2701 
43116000    34.830255   -5177.9375   -5110.7644   -5177.9375            0    1999.8111    19.890788    19.838115    20.801566    8208.2095    2978.2862     1632.204     1388.943    -150.1636    -423.1112   -479.50591   -4871.3704 
43117000    35.588768    -5179.345   -5110.7091    -5179.345            0      2078.83    19.849014    19.870246    20.747511    8182.9178    2400.9109    2050.4011    1785.1779   -153.02686    474.79622    583.44925   -4862.6226 
43118000    36.962828   -5180.1076   -5108.8217   -5180.1076            0    1831.7586     19.92405    19.875396    20.662863    8182.4604    1146.9081    2333.2446    2015.1231    99.023538   -32.256424    -18.85643   -4890.2329 
43119000      37.0937   -5181.8216   -5110.2833   -5181.8216            0    1890.3051     19.98075    19.804485     20.65644    8173.9283    1866.4165    1936.4242    1868.0747    -318.1513    679.33786   -200.84172   -4884.9431 
43120000      37.1976    -5176.073   -5104.3343    -5176.073            0    2714.5424    19.946917    19.867159    20.614036    8169.1072    2661.2734    2871.9323    2610.4216     107.2423   -109.44104   -347.60019    -4780.929 
43121000    36.260481   -5179.8202   -5109.8888   -5179.8202            0    2110.6232    19.936682    19.898208    20.576059    8162.6101    2270.5397    1714.4511     2346.879    -68.80361     398.6553   -133.33536   -4858.6332 
43122000    38.964536   -5176.9745   -5101.8281   -5176.9745            0    2163.2537    19.806607    19.882224    20.790834    8187.4176    3239.0052    1922.0204    1328.7354    38.605447     389.4834     217.7153   -4843.5246 
43123000    38.184966   -5180.3262   -5106.6833   -5180.3262            0    1913.5576     19.88688    19.896271      20.6933    8187.8165    1694.0477    2034.4302    2012.1949   -308.47376    404.01578   -142.64476   -4878.1836 
43124000    37.342942   -5177.8035   -5105.7845   -5177.8035            0    1173.4369    19.925749    19.893982     20.69506    8203.5732      1355.73    1296.2832    868.29735    229.80088    299.91735    112.52453   -4965.3937 
43125000    38.771356    -5176.474   -5101.7002    -5176.474            0    2273.7274    19.901579     19.97997    20.527706    8162.4926     2062.991    2115.5469    2642.6442   -250.58154    673.76854    283.14619   -4831.0321 
43126000     36.88974    -5182.155     -5111.01    -5182.155            0    2129.2134    19.889241    19.857057    20.711373    8179.7867    2170.7376    2040.8483    2176.0542   -146.29298    355.32749    297.98878   -4857.0081 
43127000    37.648908    -5178.908   -5106.2989    -5178.908            0    2162.4087    19.865508     19.93085    20.633896    8169.7117    2106.0507    2052.3713    2328.8041    166.42049   -143.14781    705.14788   -4848.6547 
43128000    38.016941    -5181.902   -5108.5831    -5181.902            0    2515.8967    19.876838     19.95764    20.604529    8173.7091    2367.6927    2337.5939    2842.4035   -266.00629   -322.84117    -155.1114   -4808.6753 
43129000    41.169931   -5179.8731   -5100.4734   -5179.8731            0    2286.5797    19.885573    19.926328    20.678886    8193.9351     2079.558     2176.955    2603.2262    68.573842    146.71756    109.16445   -4827.2268 
43130000    37.075702   -5183.4257   -5111.9221   -5183.4257            0    2524.0684    19.896257    19.888057    20.629705    8163.1307    2899.0895    1895.6164    2777.4993   -211.75722    100.66344     2.886217   -4811.4295 
43131000    36.243988   -5183.0232   -5113.1237   -5183.0232            0    2015.1029    19.922693    19.933187    20.623072    8189.8913    1785.7785     2041.963    2217.5671   -422.97903   -1.3057297    512.07483   -4872.4374 
43132000    39.816993   -5178.8669   -5102.0764   -5178.8669            0    1584.4024    19.883744    19.913899    20.674883    8186.4858     1354.315    2044.6774    1354.2149   -240.40654    548.38395   -61.781605   -4912.9123 
43133000    39.502228    -5177.961   -5101.7777    -5177.961            0     2337.531    19.840163    19.919645    20.751258     8201.084    2496.1945    2430.1367    2086.2618    -130.6947    681.18558    442.27219   -4822.1987 
43134000    36.748148   -5178.8894   -5108.0175   -5178.8894            0    2164.7913    20.006866    19.846878    20.581457    8172.3582    1710.3654    2207.5247    2576.4837   -293.65043    354.89421   -81.539713   -4850.0058 
43135000    37.430155   -5178.6208   -5106.4336   -5178.6208            0    2661.8777    19.935681     19.86684    20.622684    8167.7991     2402.093    2704.7106    2878.8294   -130.61562    67.512144   -93.902812   -4789.3534 
43136000    37.137248    -5176.458   -5104.8357    -5176.458            0    2389.9497    19.936327    19.848051    20.675003    8181.0418    2025.3823    2809.8066    2334.6602    -15.87771    447.78859    63.987751   -4819.6857 
43137000    36.716018   -5180.5868   -5109.7769   -5180.5868            0      1321.59    19.957367    19.860764     20.68317    8198.1585    1425.9553    1695.7925    843.02215   -201.24503    54.709809    14.076374   -4951.7653 
43138000    36.688485   -5179.4309   -5108.6741   -5179.4309            0    2450.9135    19.927047    19.883297    20.613375    8167.3364    2389.1932    2360.8437    2602.7034   -171.48415    377.22198    276.51625   -4816.7403 
43139000    36.059534   -5181.5712   -5112.0273   -5181.5712            0    2683.6801    19.873295    19.941891     20.59402    8161.6382    3207.2777     2325.725    2518.0376   -339.90828   -170.83664   -75.005702   -4792.5912 
43140000    38.764445   -5178.2436   -5103.4831   -5178.2436            0    2300.8547    19.855846    19.844886    20.748784    8175.7883    2020.1386    2839.2834     2043.142   -61.265399    139.71329    233.95441   -4829.1396 
43141000    37.396576   -5179.8656   -5107.7432   -5179.8656            0    1724.8815    19.945957    19.883174    20.672243    8198.3828    1944.6055    1908.6442    1321.3947   -277.93205   -105.29694     343.0848   -4901.5077 
43142000    37.328486   -5178.8894   -5106.8983   -5178.8894            0    1666.7965    19.890193     19.95607    20.619395    8184.4584    2502.8995     666.8695    1830.6206   -338.11644    266.21521    135.05944   -4907.9462 
43143000    36.160736   -5176.9689   -5107.2299   -5176.9689            0    2085.9507    19.836256    19.964427      20.6483    8177.1288    2578.4523     1611.995    2067.4049   -40.864901    50.395303    396.23499   -4858.4698 
43144000    38.139744   -5179.6546   -5106.0989   -5179.6546            0    1636.5423    19.893658    19.913056    20.707748    8203.2404    1437.3373      1628.26    1844.0298   -247.03475    215.01881    43.371036   -4910.3098 
43145000    38.291687   -5180.9503   -5107.1015   -5180.9503            0    2246.1558    19.954206    19.802408    20.656518    8162.2437    2043.3392    2118.2293    2576.8989   -243.88758    177.28947    636.54667   -4839.7237 
43146000    35.301677   -5177.5094   -5109.4271   -5177.5094            0    2270.6895    19.810047    19.924813    20.733554    8183.7719    2657.1601     2251.249    1903.6593   -74.473497     445.5024    453.94104    -4838.416 
43147000    37.200226   -5183.3055   -5111.5617   -5183.3055            0    1475.1627    19.893128    19.954922    20.687998     8212.428    1388.4193    1340.1786    1696.8901   -55.752396    1223.6248    367.88646   -4934.8817 
43148000    36.400916   -5179.8272    -5109.625   -5179.8272            0    1907.7297    19.851425    19.931384    20.648067    8169.7459    2080.1103    1637.7255    2005.3534     10.78547    719.96962    345.25583    -4882.324 
43149000    39.414773   -5179.6561   -5103.6414   -5179.6561            0    2405.7952    19.886242    19.897259    20.643724    8168.3442    2248.4374    2254.7688    2714.1795   -14.122959    691.99287   -4.9827272   -4817.0464 
43150000    37.001185   -5180.5408   -5109.1809   -5180.5408            0    1765.2353    19.885934    19.912852    20.696041    8195.3356    2378.3864    1135.8101    1781.5095    64.659882    201.29688   -42.347054    -4898.199 
43151000    39.480776   -5177.1218   -5100.9798   -5177.1218            0    2533.7518    19.943954    19.922123    20.557957    8168.2089     3015.746    2008.3412    2577.1681   -173.11804    149.17574   -37.473902   -4799.1468 
43152000    37.511154   -5175.1629   -5102.8195   -5175.1629            0      2705.27    19.898028    19.911117    20.591844    8158.3233    3030.0832    2351.5985    2734.1283    -306.5515   -143.24944   -81.828987   -4780.9443 
43153000    39.482989   -5183.7011   -5107.5549   -5183.7011            0    2207.4001     19.88015    19.913168    20.669215    8182.4619    2286.7912     2119.215    2216.1941   -393.97437    370.85728    108.37008   -4844.1396 
43154000    38.616829   -5181.0168    -5106.541   -5181.0168            0    2446.0577    19.844404    19.932076    20.631574    8160.6161    2281.4551    1883.3087    3173.4091     2.185115     536.1418   -264.08487   -4815.4253 
43155000    36.997634   -5180.5658   -5109.2128   -5180.5658            0    1717.1142    19.949494    19.858545     20.67917    8192.4238    1637.3453    2226.9314    1287.0658   -250.55676    216.01057   -294.21478   -4904.0552 
43156000    36.785858     -5179.13   -5108.1854     -5179.13            0     2728.325    19.915428    19.764026    20.665439    8134.1036    3459.1739    2511.5502    2214.2511   -205.91978    634.11455    573.11544   -4784.5309 
43157000    37.255261   -5176.2817   -5104.4318   -5176.2817            0    2323.8868    19.872448    19.902807    20.644764    8165.3651    2698.5909    1766.7973    2506.2722    197.78196   -88.522058    121.69949   -4827.6953 
43158000    35.856709   -5180.0894   -5110.9367   -5180.0894            0     2476.244     19.95487    19.858146    20.587478    8158.1325    3050.5367    1783.0142    2595.1811   -83.284855    620.63488   -219.72148   -4816.3182 
43159000    37.568931   -5181.2486   -5108.7938   -5181.2486            0    2018.3873    19.948773    19.848454    20.672778    8185.4341    2605.9482    2095.7826    1353.4311    -83.41192    -345.5662    398.17621   -4867.8465 
43160000    38.492762   -5182.1233   -5107.8867   -5182.1233            0    1604.2417    19.948778    19.879218    20.654918    8191.0403    2309.2923     1001.231    1502.2018    164.08643    227.93035    378.95758   -4916.2473 
43161000    35.035749   -5175.7731   -5108.2037   -5175.7731            0    2524.6537    19.847652    19.909525    20.594511    8138.0718    2514.7976    2486.1177    2573.0458   -257.37801     747.3213    192.32349   -4808.5641 
43162000    37.118292   -5178.0416   -5106.4558   -5178.0416            0     1933.937    19.876609    19.878559     20.77414    8208.2438    2328.5112     1865.195    1608.1047   -221.08629    201.45265   -61.830465   -4874.9465 
43163000    37.991814   -5178.0897   -5104.8193   -5178.0897            0    2378.9298    19.914124    19.898391    20.639145    8178.4476    2418.5759    2292.8432    2425.3702    127.70846    378.71272   -16.829983   -4821.0742 
43164000    35.959021   -5177.2776   -5107.9276   -5177.2776            0    2061.8539    19.926792    19.880932    20.642765    8177.9038    1990.0332    2129.6472    2065.8814    38.970316    292.72179    450.62452   -4862.0178 
43165000    38.432136   -5180.5657   -5106.4461   -5180.5657            0    2523.8835    19.825296    19.882957    20.665883    8146.1914    2811.4033    2392.0433    2368.2038   -127.17198    216.94692    151.14019    -4806.599 
43166000    37.737231   -5176.2689   -5103.4895   -5176.2689            0    2271.4676    19.927152    19.798808    20.727846    8177.8371    2564.0929    2266.4002    1983.9098   -312.16027   -342.56897    440.32069   -4832.5821 
43167000     37.63709     -5177.69   -5105.1037     -5177.69            0    1865.5891    19.928832    19.843212    20.699556    8185.6819    1719.3947    1930.9034    1946.4693   -211.15908    -178.7536    287.08462   -4882.3901 
43168000    38.605534   -5174.6807   -5100.2267   -5174.6807            0    1976.8677     19.86218    19.881275    20.748935    8193.4529    1784.0854    2690.0143    1456.5034   -190.00391     603.6366   -367.31977   -4864.0046 
43169000    38.769566   -5176.3426   -5101.5723   -5176.3426            0     2107.799    19.901906    19.918222    20.648136    8185.1393    1869.4251    1958.9306    2495.0412   -168.02734    443.90577     44.14287   -4849.9604 
43170000    39.930875   -5184.5652   -5107.5551   -5184.5652            0    2139.9487    19.918359    19.901937    20.671468    8194.4577    2239.6776    1762.2159    2417.9527    185.61352    396.16083   -378.03458   -4851.8147 
43171000    38.911567   -5179.7453   -5104.7011   -5179.7453            0    1915.3157    19.882587    19.969641    20.665227    8205.0898    1961.7274      1809.21    1975.0098   -64.706459    851.71228   -32.890361    -4875.509 
43172000    36.122581   -5178.6489   -5108.9834   -5178.6489            0    1921.0301    19.963771    19.901151    20.598698    8183.9044    1542.9784    1921.7885    2298.3234   -23.082309    25.278318   -361.06878   -4879.7011 
43173000    36.838098   -5181.9108   -5110.8654   -5181.9108            0    2205.6316    19.912831    19.919417    20.644044    8188.5008    1597.6579    2598.3274    2420.9094     -141.013     93.03282    514.01349    -4847.467 
43174000    38.799817   -5181.0916   -5106.2629   -5181.0916            0    2294.0173    19.943672    19.905777    20.585607    8172.3685    1750.6431     2786.005    2345.4039   -358.55439    259.04375    439.08666    -4832.849 
43175000    37.752686   -5180.1933   -5107.3841   -5180.1933            0    2255.5627    19.902655    20.021857    20.510959    8173.3732    2081.5762    1760.5032    2924.6088   -107.83825    246.36891    -45.94966   -4838.5204 
43176000    38.253302   -5183.7366   -5109.9619   -5183.7366            0    1840.4514    19.870571    19.924865    20.712465    8200.4467    1450.1975    2266.3991    1804.7576   -3.1757288    349.04254   -88.485766   -4889.8529 
43177000    38.145493   -5177.3258    -5103.759   -5177.3258            0    2263.9493    19.909712    19.853074    20.672842    8171.3334    1575.5493     2880.836    2335.4626   -124.56151   -33.692901    454.57102    -4833.963 
43178000    36.922134   -5176.2279   -5105.0204   -5176.2279            0    1803.8086    19.872958     19.88149    20.715698    8184.8553    1941.5486     1859.192    1610.6851   -14.894739    423.10816    212.39495   -4889.7039 
43179000    38.721566   -5177.3314   -5102.6536   -5177.3314            0    1594.9584    19.862503    19.938625    20.667324    8184.9011    1968.0673    1181.4004    1635.4077   -3.9008052    176.91129    43.042163    -4912.266 
43180000    39.240509   -5179.0352   -5103.3565   -5179.0352            0    2501.6384    19.865353     19.88281    20.705007    8178.0437    3247.0411    2347.5372    1910.3368   -2.0773113    118.31988   -254.64843   -4804.9902 
43181000    36.146249   -5177.3736   -5107.6625   -5177.3736            0    1857.1971    19.981262     19.85272    20.677509    8202.4039    2128.5965    1715.8069     1727.188    87.738856    815.76793   -468.63124   -4885.4978 
43182000    35.891205   -5177.1966   -5107.9774   -5177.1966            0    1825.1235    19.858366    19.907766    20.772036    8211.9273    1802.1163    2101.6545    1571.5996   -241.90714    954.14154   -636.16068    -4889.396 
43183000    36.747644   -5182.3143   -5111.4434   -5182.3143            0    2007.3972     19.98081    19.894344    20.587649    8183.6954    2248.8485    1755.9073    2017.4358    -95.00373    227.59559    187.05151   -4871.8589 
43184000    38.032506   -5183.6391   -5110.2902   -5183.6391            0    1744.5063    19.936595    19.870277    20.651124     8180.853    2130.9966    1561.9997    1540.5225   -194.50172    597.69732    -93.56326   -4902.1543 
43185000    38.691528   -5177.1279    -5102.508   -5177.1279            0    1904.5636    19.918023    19.907859    20.647479    8187.2455    2013.1884    1780.5844    1919.9182   -196.65666    25.543559    174.97275   -4875.0982 
43186000    37.602587   -5175.2048    -5102.685   -5175.2048            0    1978.4638    19.863751    19.888108    20.743088    8194.6071    2693.8046    1703.9151    1537.6716    22.937699   -313.60532    328.44875   -4866.2389 
43187000    35.839052   -5176.4981   -5107.3795   -5176.4981            0    1876.6402    19.933314    19.852127    20.641493    8168.2245    1575.4412    1998.9531    2055.5262   -137.24288    486.24685   -262.20262   -4883.8244 
43188000       38.079   -5176.3563   -5102.9177   -5176.3563            0    2939.8668     19.86532    19.912592    20.578065    8140.0655      2676.58    3031.1078    3111.9124    7.9770158    182.72715   -74.368154   -4753.9129 
43189000    36.296654   -5180.4461    -5110.445   -5180.4461            0    1878.4038    19.974194    19.870571    20.586026     8170.566    1647.9751    1845.9542    2141.2822    -290.5635   -24.295511   -155.68733   -4886.6156 
43190000    39.548757   -5178.3874   -5102.1143   -5178.3874            0    2220.3882    19.889549    19.867568    20.711641     8184.349    2025.4912    2755.4907    1880.1828   -223.47157    354.78183   -113.44691    -4837.088 
43191000    36.717709    -5175.811   -5104.9978    -5175.811            0    2208.4439    19.850594    19.854526    20.704347     8160.083    2086.3722    2817.8112    1721.1483   -40.561353    122.06575    151.46659   -4842.1788 
43192000    37.856409   -5177.4314   -5104.4221   -5177.4314            0    2611.2584     19.97036    19.939945    20.522122    8172.0706    1849.9204    2512.5382    3471.3167   -256.23647     442.8668    536.99263    -4793.209 
43193000    38.249841   -5179.6445   -5105.8765   -5179.6445            0    2259.8624    19.886846    19.853095     20.72935    8184.2675    2325.2014    2565.3331    1889.0528   -270.98869    6.9045714   -649.40125   -4836.1412 
43194000    39.002484   -5178.1442   -5102.9247   -5178.1442            0    1684.1084    19.931583     19.82973    20.755269    8203.2693    1088.3526    2622.1557    1341.8169    4.2211131   -18.406008    78.251861   -4901.4442 
43195000    37.888106    -5176.053   -5102.9826    -5176.053            0    2846.7679    19.871821    19.810095     20.69224    8145.7621    3319.4463    2934.6845    2286.1728   -32.702675    179.49777    31.553441   -4764.7934 
43196000    39.095499   -5180.4494   -5105.0505   -5180.4494            0    1698.0626    19.816772    19.979087    20.665786    8182.0186    1985.0755    1493.3912    1615.7212   -163.79814   -536.40459   -423.33978   -4902.4269 
43197000    37.680064   -5177.9444   -5105.2752   -5177.9444            0    2067.7198    19.885226    19.834991    20.718574    8171.8879    2035.7744    2543.0348    1624.3503   -215.65994   -311.22946    21.167044   -4858.8473 
43198000     37.64208   -5176.4003   -5103.8043   -5176.4003            0    2709.0349    19.830473    19.902093    20.634811    8143.8981    2518.6091    2918.4558    2690.0399   -151.96824    157.40278   -308.17042   -4782.0512 
43199000    38.805311   -5179.3561   -5104.5168   -5179.3561            0    1377.1718    19.901121    19.965057     20.63374    8198.3422    1466.9942    1469.1161    1195.4051   -416.37933   -204.61934   -334.39833   -4939.8561 
43200000    36.180127   -5178.6136   -5108.8372   -5178.6136            0    2472.2639    19.933947    19.864605    20.697798    8195.9135    1911.2152    2655.7816     2849.795   -25.838644    474.08064   -140.87423     -4813.33 
43201000    35.548405   -5175.6307   -5107.0726   -5175.6307            0    1969.0243    19.852617    19.952113    20.680406    8191.5429    1778.2749    2127.3323    2001.4658    -116.2559     1268.887   -480.99849   -4871.8426 
43202000    37.549268   -5178.7319   -5106.3149   -5178.7319            0    2079.7182    19.841648    19.940801    20.669322    8177.9899    2264.1187    1644.2905    2330.7454   -226.76462    473.96115     319.1229    -4858.272 
43203000    34.883632   -5177.5306   -5110.2546   -5177.5306            0    1720.8317     19.99863    19.851343    20.620331    8186.2644     1815.924    1504.8057    1841.7652   -74.352033    -54.13886     136.3034   -4904.8075 
43204000    37.454738   -5180.4738   -5108.2392   -5180.4738            0    2606.5047    19.815004    19.895539    20.662197    8145.6618    3015.6613     2416.697    2387.1559    132.32887    207.70273    45.330594   -4798.5966 
43205000    36.185446   -5180.6114   -5110.8247   -5180.6114            0    1697.7048    19.878727    19.853491    20.731195    8181.8178    1576.2692    1999.4713    1517.3739   -145.86353    492.72119    56.649337   -4908.2488 
43206000    36.354448   -5179.3204   -5109.2077   -5179.3204            0    2715.6351    19.913741     19.87145    20.603365    8153.0587    2934.3996    2299.8671    2912.6387   -349.65237    136.46072    79.053489   -4786.3079 
43207000    38.020081   -5181.7328   -5108.4079   -5181.7328            0    1513.8278    20.003432     19.85168    20.675258    8210.1807    884.36151    1940.1951    1716.9269   -174.73138    565.06604     201.0553   -4927.1466 
43208000     37.96561   -5178.2962   -5105.0763   -5178.2962            0    2588.2422    19.891774     19.88187    20.693383    8183.9367    2893.8696    2724.1765    2146.6805    186.10436    468.98189    265.20089   -4796.1584 
43209000     37.86612   -5179.4904   -5106.4624   -5179.4904            0    2397.0721    19.885154    19.902958    20.621835    8161.5733    2380.7528    1961.3707    2849.0929    75.819331    17.499892    435.05778   -4821.1433 
43210000     40.67011   -5179.3495   -5100.9137   -5179.3495            0    2515.1617    19.792593    19.910886    20.686588    8152.3373    2906.8657    2710.5022     1928.117    102.60076    353.92606   -50.249007   -4801.8774 
43211000    38.096186   -5177.4117     -5103.94   -5177.4117            0    2316.4623    19.858155    19.832702    20.687134    8147.4389    1930.1465    2809.0365     2210.204   -67.866705     620.0911    -262.0564   -4828.6933 
43212000     37.66795   -5178.6468    -5106.001   -5178.6468            0    2028.5965    19.846784    19.843489    20.721927    8160.9049    2372.1007    1866.8677    1846.8209   -205.19648    689.85052    261.62319   -4864.5606 
43213000    38.705632   -5176.8403   -5102.1932   -5176.8403            0      1998.75    19.915619    19.884962    20.628278    8169.2383    1398.0777    2380.5076    2217.6645   -70.823476    -306.0955    33.431276   -4864.0622 
43214000    38.384213    -5179.945   -5105.9178    -5179.945            0    1724.9312    19.917667    19.891468    20.709587    8204.9651    1657.8289     2076.638    1440.3266   -281.29888   -324.82633    41.674564   -4899.5109 
43215000     37.41217   -5185.5645    -5113.412   -5185.5645            0    1670.1014    19.885668    19.925327    20.648544    8181.5403    1338.7233    1690.5114    1981.0695    267.94385     51.60866   -112.88486   -4914.1365 
43216000    36.926529   -5178.3451   -5107.1291   -5178.3451            0      2089.47    19.912487     19.94299    20.509932    8144.7917    1268.7457    2367.7302     2631.934    49.145793     309.5102   -185.99954   -4858.9347 
43217000    37.030945   -5183.6013    -5112.184   -5183.6013            0    2534.7811     19.82413    19.801785     20.77796    8156.4542    2752.3746    2502.4593    2349.5095   -207.86031   -105.07606   -72.579981   -4810.6628 
43218000    37.957928   -5176.8572   -5103.6522   -5176.8572            0    1752.5838    19.904158    19.907892    20.643878    8180.1325    1609.6002    2124.2532     1523.898   -333.55575    241.19061     448.8016    -4894.571 
43219000     37.78593   -5177.4047   -5104.5313   -5177.4047            0    2492.9794    19.876909    19.784476    20.748756    8159.5359    3627.9903    2022.2361    1828.7118    -3.393233   -102.02655   -302.76983   -4807.8706 
43220000    36.366782   -5180.5422   -5110.4058   -5180.5422            0    2329.4485    19.949783     19.89315    20.606474     8177.968    1555.9027    2732.9913    2699.4515   -120.71677    379.15081    26.824587   -4832.5788 
43221000    37.789066   -5178.8321   -5105.9527   -5178.8321            0    2545.5357    19.813423    19.909287    20.715324    8171.5973    3752.4255    1472.8767     2411.305   -61.678695    387.72135    60.922201   -4802.5901 
43222000    37.497615   -5182.3067   -5109.9894   -5182.3067            0    1825.3433    19.918794    19.881778    20.710787    8201.9077    1800.2314    2323.7512    1352.0472  -0.29428497    474.45702    314.65054   -4891.6484 
43223000    35.933106   -5178.3545   -5109.0545   -5178.3545            0    2423.7618    19.896668    19.896018    20.653889    8176.1404    2281.9112    2526.7119    2462.6623    39.437292   -547.17286   -511.89387   -4820.0436 
43224000    37.609483   -5179.7186   -5107.1855   -5179.7186            0    2466.8309    19.806382    19.931943    20.725434    8181.9798    3127.2188    2425.0711    1848.2027   -131.35081    590.04425   -64.186063    -4812.829 
43225000    37.669599   -5182.8464   -5110.1974   -5182.8464            0    2213.4666    19.877341    19.906928     20.61918    8158.9436     2197.498    1865.6116    2577.2901   -55.382525    746.88693   -328.83304   -4846.8174 
43226000    38.585696   -5180.2506   -5105.8348   -5180.2506            0    2174.8047    19.787701     19.93936    20.671608    8156.0673    2227.6715    1763.5802    2533.1622   -260.30346    53.175911   -98.734016   -4847.1464 
43227000    40.358411   -5177.0748   -5099.2402   -5177.0748            0    1640.2548    19.898946    19.919628    20.704106     8206.685    1411.3286    1696.9475    1812.4882   -223.52097    147.70086    156.56331   -4902.9246 
43228000    37.382909   -5174.0152   -5101.9192   -5174.0152            0    2013.9192     19.85458    19.948687    20.650394    8179.0593    2924.7211    1180.0054    1937.0309   -207.27562    553.33895    146.54279   -4861.6925 
43229000    40.211587   -5181.8134    -5104.262   -5181.8134            0    2580.1563    19.874787    19.898822    20.633582    8160.2692    2051.6544    3215.4844      2473.33   -428.16468   -7.7443194    316.77257   -4797.1997 
43230000    39.651471   -5177.1371   -5100.6659   -5177.1371            0    2586.9591    19.804512    19.902034    20.679516    8150.8326    2862.4105    1953.9407    2944.5262   -248.08546    291.55078    155.12606   -4793.1501 
43231000    39.811677   -5179.3045   -5102.5244   -5179.3045            0    1910.7225    19.837217    19.937226    20.706789    8189.5161    2558.0362    1624.1158    1550.0157    85.029506    354.91468    18.229018   -4874.3159 
43232000    37.750612   -5179.0834   -5106.2782   -5179.0834            0    2190.5672     19.92182    19.853405    20.645986    8165.8171    1521.3904    2714.0824    2336.2288    135.11806    309.66369    265.75843   -4845.4034 
43233000     36.52637   -5179.5195   -5109.0753   -5179.5195            0    1865.8466     19.95093    19.908104    20.631931    8194.6975    1271.9357    1698.8529    2626.7512   -444.07441    550.86836    35.414941   -4886.0856 
43234000    37.572721   -5174.6538   -5102.1916   -5174.6538            0    2580.3917    19.888389    19.816608    20.679245    8150.1122    2771.8397    2580.8464    2388.4891   -247.25098    165.37826    96.945547   -4795.4836 
43235000    35.979596   -5178.5866   -5109.1969   -5178.5866            0    2416.6811    19.859445    19.943335    20.611299    8163.3846    2366.2431     2360.315    2523.4853   -89.311179    333.71689    410.15098   -4821.4799 
43236000    36.736591   -5180.4554   -5109.6058   -5180.4554            0    2834.1896    19.898003    19.834101    20.652103    8150.5384    3483.3528    2168.4397    2850.7762    36.138942    333.16454    70.898187   -4772.7135 
43237000    37.877555   -5179.6311    -5106.581   -5179.6311            0    2556.5475    19.811967    19.961078    20.666673    8173.0124     2690.099    1910.5008    3069.0428   -9.4420223    527.16404   -204.61412   -4801.8534 
43238000    38.611096    -5178.606   -5104.1412    -5178.606            0    2473.9379    19.898236    19.846803     20.70675    8177.4343    1645.1846    2924.6256    2852.0034   -69.196062    109.44388   -397.71749   -4809.1007 
43239000    37.545778   -5178.0185   -5105.6083   -5178.0185            0     2159.195     19.91336    19.857027    20.616279    8152.0917    949.20565    2792.0071    2736.3722   -236.25221    84.386114   -418.31252   -4848.9019 
43240000    38.631803   -5180.8366   -5106.3319   -5180.8366            0    1916.0364    19.986597    19.882796    20.654966    8208.0652     1564.293    1796.0024    2387.8137    3.1778791   -442.58785   -348.19521   -4876.9705 
43241000    36.073396   -5180.9981   -5111.4275   -5180.9981            0    1705.3652    19.964933    19.916836    20.648676    8210.7044    1443.2231    2005.4277    1667.4446   -59.059311      286.951    423.36591    -4907.219 
43242000    37.843276   -5179.9601   -5106.9762   -5179.9601            0    2282.4928     20.00686    19.859237    20.608154    8188.0521    2201.1344    1916.9565    2729.3875    128.73393    289.54157    230.62469   -4834.4138 
43243000    37.996415   -5176.7864   -5103.5071   -5176.7864            0    1758.3048     19.93816    19.794588    20.768572    8196.6841    1290.1329    2420.6235     1564.158   -159.55527    1043.5452    499.83892    -4893.319 
43244000    38.773363   -5178.9286   -5104.1509   -5178.9286            0    1850.8058    20.000397    19.870122    20.580637    8178.9575    1584.0491    1672.6112     2295.757   -202.18527    366.76844   -244.23402   -4883.3836 
43245000    41.545836   -5179.9593   -5099.8347   -5179.9593            0    2922.5329    19.883339    19.866856    20.612345    8142.2766    2929.0697    2981.1218    2857.4073   -278.57813   -259.63445   -111.89739   -4752.7934 
43246000    39.911651   -5180.8732   -5103.9002   -5180.8732            0    1835.6784     19.89532    19.960552    20.593515    8178.1289     1518.585    1779.1035    2209.3468   -121.84732   -393.61173    88.821271   -4884.9595 
43247000    37.199791   -5178.2949    -5106.552   -5178.2949            0    2476.5262    19.910872    19.897201    20.654237    8182.6021    2557.7309    2442.8432    2429.0043    31.358662    628.11803    129.79536   -4811.0161 
43248000     39.17351   -5178.6163   -5103.0669   -5178.6163            0    2639.0472    19.895997    19.912097    20.676226    8191.3211    2746.9282    2493.1571    2677.0563   -328.15246    543.90372   -199.94544    -4787.801 
43249000    36.131807   -5177.8097   -5108.1264   -5177.8097            0    2741.7903    19.934948     19.84102    20.616869    8154.5838    2851.8434    2721.0504    2652.4771   -295.76517   -400.30553   -42.053531   -4782.0556 
43250000     39.14719   -5173.9506   -5098.4519   -5173.9506            0    2614.2548    19.788689    19.906494    20.705614    8156.4262     3242.792    2284.4732    2315.4992    -168.0154    611.43601   -442.13086   -4787.4782 
Loop time of 364.161 on 64 procs for 250000 steps with 972 atoms

Performance: 118.629 ns/day, 0.202 hours/ns, 686.510 timesteps/s
194.5% CPU use with 32 MPI tasks x 2 OpenMP threads

MPI task timing breakdown:
Section |  min time  |  avg time  |  max time  |%varavg| %total
---------------------------------------------------------------
Pair    | 24.917     | 33.937     | 41.925     |  80.5 |  9.32
Bond    | 0.99377    | 1.214      | 1.5464     |  10.5 |  0.33
Kspace  | 161.02     | 170.07     | 179        |  36.2 | 46.70
Neigh   | 0.08406    | 0.089993   | 0.09478    |   1.1 |  0.02
Comm    | 62.696     | 66.547     | 69.531     |  23.2 | 18.27
Output  | 0.5581     | 0.55843    | 0.55995    |   0.0 |  0.15
Modify  | 72.407     | 74.097     | 76.72      |  12.5 | 20.35
Other   |            | 17.64      |            |       |  4.85

Nlocal:        30.3750 ave          36 max          23 min
Histogram: 1 3 0 4 5 2 6 6 3 2
Nghost:        2698.62 ave        2723 max        2676 min
Histogram: 2 2 3 4 5 9 2 1 2 2
Neighs:        9658.03 ave       12309 max        6872 min
Histogram: 2 2 3 2 5 4 7 4 1 2

Total # of neighbors = 309057
Ave neighs/atom = 317.95988
Ave special neighs/atom = 2.0000000
Neighbor list builds = 250
Dangerous builds = 0

unfix		3
unfix		2
unfix		1

write_data	data.final.${pid}
write_data	data.final.1
System init for write_data ...
PPPM initialization ...
  extracting TIP4P info from pair style
  using 12-bit tables for long-range coulomb (../kspace.cpp:340)
  G vector (1/distance) = 0.37294418
  grid = 24 24 25
  stencil order = 5
  estimated absolute RMS force accuracy = 0.0033426345
  estimated relative force accuracy = 1.0066244e-05
  using double precision FFTW3
  3d grid and FFT values/proc = 3458 576
Last active /omp style is kspace_style pppm/tip4p/omp
WARNING: Not all mixed pair coeffs generated from mixing. Use write_data with 'pair ij' option to store all pair coeffs. (../write_data.cpp:312)

write_restart   restart.lmp.${pid}
write_restart   restart.lmp.1
System init for write_restart ...
PPPM initialization ...
  extracting TIP4P info from pair style
  using 12-bit tables for long-range coulomb (../kspace.cpp:340)
  G vector (1/distance) = 0.37294418
  grid = 24 24 25
  stencil order = 5
  estimated absolute RMS force accuracy = 0.0033426345
  estimated relative force accuracy = 1.0066244e-05
  using double precision FFTW3
  3d grid and FFT values/proc = 3458 576
Last active /omp style is kspace_style pppm/tip4p/omp
Total wall time: 0:06:04
